********************************************************************************
Field Output Report, written Tue May  6 13:56:37 2025

Source 1
---------

   ODB: D:/AISI_1020/Vel_20/1020_2a_40_rd_2500_cal_100_v_20_f_025.odb
   Step: Step-1
   Frame: Increment  16432616: Step Time =    1.215

Loc 1 : Nodal values from source 1

Output sorted by column "Node Label".

Field Output reported at nodes for region: DIE_2A_40_D0_36-1.Region_1
   Computation algorithm: EXTRAPOLATE_COMPUTE_AVERAGE
   Averaged at nodes
   Averaging regions: ODB_REGIONS

      Node Label     COORD.COOR1     COORD.COOR2
                          @Loc 1          @Loc 1
-------------------------------------------------
               1     18.1173E-03     370.825E-03


Field Output reported at nodes for region: DIE_2A_40_D0_36-1.Region_2
   Computation algorithm: EXTRAPOLATE_COMPUTE_AVERAGE
   Averaged at nodes
   Averaging regions: ODB_REGIONS

      Node Label     COORD.COOR1     COORD.COOR2
                          @Loc 1          @Loc 1
-------------------------------------------------
               1     18.1173E-03     370.825E-03


Field Output reported at nodes for part: WIRE_1-1
   Computation algorithm: EXTRAPOLATE_COMPUTE_AVERAGE
   Averaged at nodes
   Averaging regions: ODB_REGIONS

      Node Label     COORD.COOR1     COORD.COOR2    ER.Max. Prin    ER.Mid. Prin    ER.Min. Prin         ER.ER11         ER.ER22         ER.ER33         ER.ER12    PE.Max. Prin    PE.Mid. Prin    PE.Min. Prin         PE.PE11         PE.PE22         PE.PE33         PE.PE12     S.Max. Prin     S.Mid. Prin     S.Min. Prin           S.S11           S.S22           S.S33           S.S12            TEMP
                          @Loc 1          @Loc 1          @Loc 1          @Loc 1          @Loc 1          @Loc 1          @Loc 1          @Loc 1          @Loc 1          @Loc 1          @Loc 1          @Loc 1          @Loc 1          @Loc 1          @Loc 1          @Loc 1          @Loc 1          @Loc 1          @Loc 1          @Loc 1          @Loc 1          @Loc 1          @Loc 1          @Loc 1
-----------------------------------------------------------------------------------------------------------------------------------------------------------------------------------------------------------------------------------------------------------------------------------------------------------------------------------------------------------------------------------------------------------------
               1     12.9205E-03     111.049E-03     269.732E-03     259.635E-03    -917.490E-03     269.716E-03    -917.475E-03     259.635E-03    -6.37889E-03     671.035E-03    -333.113E-03    -339.643E-03    -333.323E-03     664.715E-03    -333.113E-03     159.346E-03     12.2890E+06    -662.375E+03    -16.4503E+06    -790.883E+03    -3.37037E+06    -662.375E+03    -1.43011E+06         94.5163
               2    -3.30436E-06     108.071E-03         1.87858     280.401E-03        -2.56113     232.119E-03    -914.665E-03     280.401E-03         4.28862     670.296E-03    -334.212E-03    -335.983E-03    -334.486E-03     670.295E-03    -335.709E-03    -418.587E-06     1.93331E+06    -5.00483E+06    -10.1386E+06    -1.81024E+06    -9.93475E+06    -1.46510E+06     216.046E+03         76.4330
               3     2.19298E-06     804.663E-09     447.020E-03     414.753E-03        -1.50318     408.079E-03        -1.49650     447.020E-03     225.875E-03     845.208E-03    -415.799E-03    -429.319E-03    -415.763E-03     845.172E-03    -429.319E-03     13.4410E-03     20.3812E+06     11.9871E+06     7.56248E+06     13.9393E+06     14.0044E+06     11.9871E+06     6.40928E+06         87.2514
               4     12.5434E-03     804.663E-09     469.132E-03     430.048E-03        -1.59678     468.005E-03        -1.59566     430.048E-03    -96.4548E-03         1.15981    -333.888E-03    -824.753E-03    -799.577E-03         1.13464    -333.888E-03     444.204E-03    -82.0463E+06    -96.2810E+06    -127.607E+06    -112.136E+06    -111.752E+06    -82.0463E+06    -15.6619E+06         101.075
               5     13.5117E-03     216.619E-03     33.6623E-03     1.45849E-03    -24.8678E-03     1.45128E-03    -24.8606E-03     33.6623E-03     871.043E-06     170.731E-03     130.496E-03    -301.290E-03     131.078E-03     170.149E-03    -301.290E-03    -9.60875E-03     90.3833E+06     77.3311E+06    -59.2311E+06     48.9318E+06    -30.8318E+06     90.3833E+06     55.4234E+06         74.2813
               6     65.8432E-06     208.412E-03     43.4022E-03     36.6863E-03    -25.2844E-03     41.5183E-03    -23.4005E-03     36.6863E-03     22.4368E-03     465.120E-03    -205.176E-03    -259.201E-03    -259.174E-03     465.093E-03    -205.176E-03     8.93120E-03    -62.5706E+06    -90.2314E+06    -102.812E+06    -98.8723E+06    -66.5098E+06    -90.2314E+06    -11.9582E+06         55.3823
               7     12.2007E-03     110.789E-03     270.365E-03     260.044E-03    -918.662E-03     270.337E-03    -918.633E-03     260.044E-03     3.87719E-03     683.355E-03    -331.753E-03    -352.635E-03    -337.765E-03     668.485E-03    -331.753E-03     235.564E-03     11.9697E+06    -2.14657E+06    -13.9834E+06    -844.838E+03    -1.03022E+06    -2.28523E+06    -850.848E+03         93.1962
               8     11.4766E-03     110.216E-03     270.118E-03     260.953E-03    -920.820E-03     269.982E-03    -920.684E-03     260.953E-03    -8.15725E-03     682.369E-03    -331.336E-03    -352.134E-03    -335.453E-03     665.688E-03    -331.336E-03     255.497E-03     12.1331E+06    -1.55900E+06    -11.0876E+06    -574.933E+03     1.75909E+06    -1.69765E+06    -489.800E+03         90.4084
               9     10.7677E-03     109.881E-03     269.606E-03     261.776E-03    -923.618E-03     269.463E-03    -923.475E-03     261.776E-03    -7.11116E-03     668.981E-03    -331.846E-03    -339.813E-03    -328.416E-03     657.584E-03    -331.846E-03     212.786E-03     9.76914E+06      343.35E+03    -11.3116E+06    -894.523E+03    -997.385E+03     692.754E+03    -229.819E+03         87.7713
              10     10.0528E-03     109.482E-03     271.732E-03     262.222E-03    -928.054E-03     271.694E-03    -928.016E-03     262.222E-03     7.99238E-03     667.543E-03    -331.408E-03    -338.675E-03    -327.647E-03     656.515E-03    -331.408E-03     208.805E-03     7.84458E+06    -1.03639E+06    -9.64857E+06    -1.22577E+06    -927.621E+03    -686.985E+03     108.270E+03         85.8121
              11     9.31043E-03     109.240E-03     274.003E-03     262.196E-03    -931.525E-03     273.985E-03    -931.507E-03     262.196E-03     3.70946E-03     663.945E-03    -332.070E-03    -334.632E-03    -325.874E-03     655.211E-03    -332.094E-03     185.881E-03     7.26283E+06    -2.07322E+06    -6.76562E+06    -1.41539E+06     1.91261E+06    -2.07322E+06    -33.0699E+03         84.5226
              12     8.60186E-03     108.971E-03     274.324E-03     261.788E-03    -931.411E-03     274.108E-03    -931.195E-03     261.788E-03    -17.4000E-03     662.797E-03    -331.235E-03    -331.743E-03    -323.626E-03     655.132E-03    -331.687E-03     173.768E-03     7.71251E+06    -1.13996E+06    -6.76022E+06    -1.63308E+06     3.44165E+06    -1.99624E+06    -1.42811E+06         83.6188
              13     7.87453E-03     108.795E-03     276.735E-03     261.204E-03    -933.129E-03     275.867E-03    -932.261E-03     261.204E-03     17.5881E-03     661.922E-03    -328.727E-03    -330.303E-03    -322.301E-03     655.496E-03    -330.303E-03     158.866E-03     5.76386E+06    -443.061E+03    -5.15216E+06    -1.63530E+06     2.33125E+06    -527.310E+03    -1.36925E+06         82.8443
              14     7.17762E-03     108.442E-03     279.356E-03     260.331E-03    -936.147E-03     277.410E-03    -934.201E-03     260.331E-03    -15.3706E-03     654.798E-03    -327.247E-03    -329.794E-03    -322.079E-03     649.630E-03    -329.794E-03     141.872E-03     5.65294E+06    -536.446E+03    -4.97474E+06    -2.15988E+06     2.06604E+06     235.587E+03    -503.274E+03         82.1034
              15     6.45153E-03     108.358E-03     278.250E-03     259.034E-03    -934.656E-03     274.852E-03    -931.258E-03     259.034E-03     16.8739E-03     652.424E-03    -324.401E-03    -330.187E-03    -320.660E-03     648.683E-03    -330.187E-03     119.939E-03      7.4468E+06    -1.39763E+06    -5.63462E+06    -1.22263E+06     3.11763E+06    -1.48045E+06    -689.397E+03         81.2886
              16     5.72910E-03     108.280E-03     276.946E-03     257.584E-03    -932.754E-03     271.864E-03    -927.671E-03     257.584E-03    -13.0465E-03     653.689E-03    -323.353E-03    -331.171E-03    -321.008E-03     651.344E-03    -331.171E-03     94.8567E-03     5.94141E+06    -1.76199E+06    -3.96647E+06     132.071E+03     3.08978E+06    -3.00891E+06    -304.278E+03         80.3918
              17     5.01556E-03     108.154E-03     276.026E-03     256.197E-03    -930.701E-03     268.597E-03    -923.272E-03     256.197E-03     19.0309E-03     654.028E-03    -324.438E-03    -331.176E-03    -323.053E-03     652.643E-03    -331.176E-03     72.8418E-03     3.73373E+06    -1.89230E+06    -3.46936E+06    -262.690E+03     861.196E+03    -2.22643E+06    -346.808E+03         79.5398
              18     4.29355E-03     108.085E-03     273.868E-03     254.892E-03    -926.721E-03     263.309E-03    -916.162E-03     254.892E-03    -16.2604E-03     657.036E-03    -325.682E-03    -330.878E-03    -324.939E-03     656.293E-03    -330.878E-03     53.1063E-03     3.24228E+06    -315.449E+03    -3.56269E+06     406.732E+03    -1.34188E+06     299.291E+03    -524.061E+03         78.7841
              19     3.57813E-03     108.070E-03     275.862E-03     253.761E-03    -927.781E-03     258.965E-03    -910.884E-03     253.761E-03     40.2663E-03     658.436E-03    -327.954E-03    -331.240E-03    -327.621E-03     658.103E-03    -331.240E-03     35.3210E-03     3.58901E+06     894.500E+03    -5.61980E+06     359.989E+03    -3.07382E+06     1.57755E+06    -305.778E+03         78.1196
              20     2.86049E-03     108.077E-03     292.346E-03     253.004E-03    -943.833E-03     254.803E-03    -906.290E-03     253.004E-03    -94.1772E-03     659.581E-03    -329.301E-03    -332.040E-03    -329.179E-03     659.458E-03    -332.040E-03     21.0689E-03     1.32662E+06    -628.003E+03    -7.48793E+06    -1.27728E+06    -6.83865E+06     1.32662E+06     53.8733E+03         77.5504
              21     2.14593E-03     108.095E-03     360.283E-03     252.576E-03        -1.01214     253.454E-03    -905.309E-03     252.576E-03     204.965E-03     663.735E-03    -331.577E-03    -333.327E-03    -331.679E-03     663.703E-03    -333.193E-03     10.0997E-03     1.16857E+06    -560.774E+03    -6.99364E+06    -815.630E+03    -6.71110E+06     1.14088E+06     435.995E+03         77.0728
              22     1.43116E-03     108.107E-03     568.192E-03     252.819E-03        -1.22001     250.984E-03    -902.798E-03     252.819E-03    -416.855E-03     666.171E-03    -332.987E-03    -333.430E-03    -333.152E-03     666.167E-03    -333.261E-03     3.25703E-03     1.30180E+06    -708.755E+03    -8.29428E+06    -959.573E+03    -7.46554E+06     723.877E+03     824.711E+03         76.6997
              23     717.953E-06     108.095E-03         1.29991     266.823E-03        -1.96684     239.551E-03    -906.486E-03     266.823E-03         1.26864     667.825E-03    -333.444E-03    -334.366E-03    -333.616E-03     667.824E-03    -334.193E-03     397.850E-06     1.56275E+06    -3.24388E+06    -10.1467E+06    -1.86126E+06    -9.27983E+06    -686.696E+03     519.270E+03         76.4880
              24     3.85485E-06     106.115E-03         1.49026     309.918E-03        -2.21220     230.564E-03    -952.508E-03     309.918E-03         3.50194     673.124E-03    -334.863E-03    -338.162E-03    -338.162E-03     673.124E-03    -334.863E-03    -341.390E-06     394.726E+03    -7.49769E+06    -12.7351E+06    -3.47759E+06    -12.4026E+06    -3.95796E+06    -732.251E+03         76.3742
              25     1.27118E-06     104.149E-03     900.282E-03     348.205E-03        -1.66857     229.918E-03    -998.208E-03     348.205E-03         2.22528     674.350E-03    -334.895E-03    -339.347E-03    -337.920E-03     674.349E-03    -336.322E-03     165.400E-06     963.747E+03    -5.41943E+06    -13.4773E+06    -3.17870E+06    -11.3654E+06    -3.38894E+06     710.365E+03         76.3518
              26    -3.02405E-06     102.188E-03     487.645E-03     296.366E-03        -1.20601     235.215E-03        -1.03100     373.782E-03     745.111E-03     673.595E-03    -335.798E-03    -337.536E-03    -335.796E-03     673.593E-03    -337.536E-03    -947.173E-06    -1.01377E+06    -5.85051E+06    -14.2406E+06    -5.84326E+06    -11.4417E+06    -3.82001E+06    -582.227E+03         76.3815
              27     2.64157E-06     100.228E-03     465.261E-03     308.989E-03        -1.20255     257.550E-03        -1.07226     386.405E-03    -649.606E-03     674.806E-03    -335.989E-03    -337.719E-03    -337.404E-03     674.803E-03    -336.300E-03    -186.098E-06    -659.630E+03    -4.44027E+06    -13.7652E+06    -2.66998E+06    -11.7548E+06    -4.44027E+06    -96.4818E+03         76.4248
              28     560.260E-09     98.2653E-03     733.089E-03     361.279E-03        -1.53141     270.146E-03        -1.06847     361.279E-03        -1.79821     675.539E-03    -335.875E-03    -338.876E-03    -338.874E-03     675.537E-03    -335.875E-03     84.7797E-06    -1.10881E+06    -2.65511E+06    -13.6782E+06    -3.45454E+06    -11.3325E+06    -2.65511E+06    -353.273E+03         76.3295
              29     1.51092E-06     96.3000E-03         1.04470     334.896E-03        -1.81808     278.123E-03        -1.05150     334.896E-03        -2.53335     672.737E-03    -334.760E-03    -337.747E-03    -336.341E-03     672.736E-03    -336.165E-03    -252.062E-06    -1.54040E+06    -5.99574E+06    -15.6987E+06    -3.94698E+06    -13.2921E+06    -5.99574E+06     85.3178E+03         76.1333
              30    -3.09249E-06     94.3478E-03         1.26513     328.771E-03        -2.03474     295.778E-03        -1.06539     328.771E-03        -3.00497     669.555E-03    -333.416E-03    -336.516E-03    -333.416E-03     669.554E-03    -336.516E-03     772.273E-06     2.12608E+06    -5.09475E+06    -13.7164E+06    -4.59394E+06    -10.3338E+06    -1.75736E+06      48.587E+03         76.0624
              31     295.200E-09     92.3791E-03         1.41073     332.061E-03        -2.19482     305.989E-03        -1.09009     332.061E-03        -3.32426     669.997E-03    -333.081E-03    -337.353E-03    -335.657E-03     669.997E-03    -334.777E-03    -671.944E-06     4.58261E+06    -6.02725E+06    -13.7976E+06    -1.67071E+06    -10.8817E+06    -2.68986E+06    -17.2432E+03         76.0863
              32     3.15775E-06     90.4147E-03         1.43955     336.217E-03        -2.23221     328.456E-03        -1.12112     336.217E-03        -3.37316     670.197E-03    -332.977E-03    -337.328E-03    -337.328E-03     670.197E-03    -332.977E-03     94.6696E-06     1.76579E+06    -9.21564E+06    -14.8839E+06    -3.66352E+06    -13.1635E+06    -5.50668E+06     1.13903E+06         76.1242
              33    -48.6467E-09     88.4454E-03         1.37889     339.348E-03        -2.18255     350.863E-03        -1.15452     339.348E-03        -3.22701     669.936E-03    -333.538E-03    -336.597E-03    -336.597E-03     669.935E-03    -333.538E-03     764.024E-06     2.32862E+06    -4.74946E+06    -11.3196E+06    -2.60161E+06    -10.0984E+06    -1.04050E+06    -147.104E+03         76.1818
              34     2.45689E-06     86.4876E-03         1.21073     312.366E-03        -1.98624     371.297E-03        -1.14681     312.366E-03        -2.81003     671.134E-03    -334.808E-03    -336.374E-03    -336.374E-03     671.133E-03    -334.808E-03     785.071E-06     2.85628E+06    -1.54395E+06    -8.44472E+06     1.24606E+06    -7.86562E+06    -512.843E+03     358.066E+03         76.1962
              35    -1.99786E-06     84.5127E-03     888.944E-03     304.186E-03        -1.65660     380.032E-03        -1.14769     304.186E-03        -2.01183     671.068E-03    -335.525E-03    -335.969E-03    -335.808E-03     671.068E-03    -335.686E-03     385.879E-06    -847.306E+03    -2.50194E+06    -10.6539E+06    -2.17627E+06    -10.3561E+06    -1.47083E+06    -807.245E+03         76.2060
              36     2.06750E-06     82.5443E-03     553.336E-03     298.871E-03        -1.32513     386.143E-03        -1.15793     298.871E-03    -949.734E-03     671.853E-03    -335.385E-03    -336.941E-03    -336.780E-03     671.853E-03    -335.546E-03     98.5891E-06    -2.09000E+06    -2.77947E+06    -10.5937E+06    -2.21451E+06    -10.5351E+06    -2.71353E+06    -228.850E+03         76.2621
              37    -345.284E-09     80.5745E-03     435.352E-03     279.571E-03        -1.19386     378.214E-03        -1.13672     279.571E-03     189.975E-03     672.208E-03    -334.636E-03    -337.896E-03    -337.895E-03     672.208E-03    -334.636E-03    -1.07096E-03     2.72521E+06     981.298E+03    -7.90896E+06     2.23495E+06    -7.48464E+06     1.04724E+06     1.18726E+06         76.2850
              38     3.26776E-06     78.6033E-03     524.264E-03     297.431E-03        -1.32074     342.217E-03        -1.13869     297.431E-03         1.07021     672.213E-03    -334.729E-03    -338.002E-03    -337.999E-03     672.211E-03    -334.729E-03     569.849E-06     2.32437E+06     621.568E+03    -10.1390E+06     511.131E+03    -8.32572E+06     621.568E+03    -733.511E+03         76.2971
              39    -908.469E-09     76.6314E-03     579.452E-03     324.535E-03        -1.41468     325.975E-03        -1.16120     324.535E-03         1.32764     673.766E-03    -336.208E-03    -337.902E-03    -337.614E-03     673.765E-03    -336.494E-03     1.00604E-03    -768.611E+03    -2.47576E+06    -13.9362E+06    -2.64348E+06    -12.0613E+06    -2.47576E+06    -527.254E+03         76.3352
              40     306.290E-09     74.6401E-03     482.080E-03     349.591E-03        -1.34541     319.997E-03        -1.18332     349.591E-03         1.01617     673.424E-03    -336.284E-03    -337.484E-03    -337.197E-03     673.423E-03    -336.570E-03    -1.24914E-03     747.761E+03    -4.67405E+06    -14.4492E+06    -4.78983E+06    -12.6511E+06    -934.551E+03     95.4736E+03         76.3240
              41     1.88866E-06     72.6482E-03     391.094E-03     347.837E-03        -1.25009     324.183E-03        -1.20511     369.767E-03     377.524E-03     672.695E-03    -335.387E-03    -337.533E-03    -337.533E-03     672.695E-03    -335.387E-03     183.212E-06     1.73208E+06    -6.44931E+06    -15.4958E+06    -3.57450E+06    -13.9287E+06    -2.70981E+06    -301.784E+03         76.2812
              42    -278.558E-09     70.6659E-03     382.458E-03     354.405E-03        -1.23644     348.987E-03        -1.22490     376.336E-03    -195.091E-03     672.626E-03    -335.571E-03    -337.069E-03    -337.069E-03     672.625E-03    -335.571E-03     455.613E-06     1.90698E+06    -4.28369E+06    -13.8879E+06    -817.380E+03    -12.9124E+06    -2.53491E+06    -186.648E+03         76.2752
              43     1.27599E-06     68.6601E-03     388.185E-03     355.329E-03        -1.24660     363.774E-03        -1.22219     355.329E-03    -396.351E-03     671.860E-03    -335.500E-03    -336.376E-03    -336.376E-03     671.860E-03    -335.500E-03    -104.671E-06    -541.448E+03    -5.50428E+06    -15.1054E+06    -3.41322E+06    -13.9825E+06    -3.75549E+06     120.091E+03         76.2961
              44    -660.456E-09     66.6608E-03     380.582E-03     345.352E-03        -1.23432     365.303E-03        -1.21904     345.352E-03    -290.725E-03     672.109E-03    -335.394E-03    -336.717E-03    -336.005E-03     672.108E-03    -336.106E-03     294.972E-06    -130.426E+03    -3.76010E+06    -13.5478E+06    -1.05968E+06    -13.0342E+06    -3.34447E+06     898.245E+03         76.3253
              45    -524.271E-09     64.6672E-03     364.415E-03     331.747E-03        -1.20728     360.428E-03        -1.20330     331.747E-03    -18.1475E-03     673.348E-03    -335.920E-03    -337.802E-03    -337.090E-03     673.348E-03    -336.632E-03    -463.829E-06    -630.962E+03    -2.59119E+06    -13.9634E+06    -2.97136E+06    -13.5832E+06    -630.962E+03     406.483E+03         76.3571
              46     2.73109E-06     62.6824E-03     358.307E-03     310.707E-03        -1.20026     333.272E-03        -1.19865     334.135E-03     79.0121E-03     674.542E-03    -336.319E-03    -338.651E-03    -338.650E-03     674.540E-03    -336.319E-03     897.270E-06    -603.922E+03    -4.00677E+06    -15.4714E+06    -3.05293E+06    -14.5670E+06    -2.46218E+06    -723.811E+03         76.3887
              47    -1.11687E-06     60.6891E-03     378.492E-03     345.177E-03        -1.26981     329.254E-03        -1.25389     378.492E-03    -220.842E-03     675.752E-03    -337.111E-03    -338.701E-03    -338.700E-03     675.751E-03    -337.111E-03     893.703E-06    -131.395E+03    -2.71772E+06    -15.0860E+06    -1.45000E+06    -13.7674E+06    -2.71772E+06     316.302E+03         76.4362
              48     1.84253E-06     58.6951E-03     455.528E-03     392.724E-03        -1.38983     341.956E-03        -1.28614     402.611E-03    -791.828E-03     676.277E-03    -337.869E-03    -338.437E-03    -338.436E-03     676.277E-03    -337.869E-03     143.739E-06     165.144E+03    -2.96074E+06    -16.5523E+06    -1.62005E+06    -14.7671E+06    -2.96074E+06    -540.248E+03         76.4777
              49    -1.87831E-06     56.7051E-03     639.830E-03     413.960E-03        -1.60165     363.117E-03        -1.32493     413.960E-03        -1.45939     674.569E-03    -337.059E-03    -337.518E-03    -337.515E-03     674.567E-03    -337.059E-03    -1.22871E-03     254.746E+03    -3.23388E+06    -17.7949E+06    -2.54698E+06    -16.0840E+06    -2.14306E+06    -636.714E+03         76.4777
              50     2.54227E-06     54.7262E-03     803.014E-03     412.917E-03        -1.76299     393.077E-03        -1.35306     412.917E-03        -1.87919     674.253E-03    -336.363E-03    -337.923E-03    -337.919E-03     674.249E-03    -336.363E-03    -62.5044E-06    -1.87097E+06    -3.10841E+06    -18.3107E+06    -4.27444E+06    -17.1447E+06    -1.87097E+06     320.068E+03         76.4755
              51     193.946E-09     52.7352E-03     810.324E-03     397.369E-03        -1.74486     410.285E-03        -1.34482     397.369E-03        -1.85498     676.203E-03    -337.228E-03    -339.132E-03    -339.130E-03     676.200E-03    -337.228E-03     1.01911E-03     269.488E+03    -2.96354E+06    -15.9827E+06    -634.856E+03    -15.2250E+06    -2.81691E+06    -644.058E+03         76.5135
              52     316.832E-09     50.7430E-03     716.495E-03     381.235E-03        -1.64129     417.181E-03        -1.34197     381.235E-03        -1.56472     675.807E-03    -336.822E-03    -339.158E-03    -337.485E-03     675.805E-03    -338.495E-03     346.121E-06     2.86239E+06    -1.47430E+06    -12.8055E+06     1.35489E+06    -12.5483E+06    -224.016E+03     510.468E+03         76.5477
              53    -2.89599E-06     48.7440E-03     584.920E-03     372.166E-03        -1.51372     406.059E-03        -1.33486     372.166E-03        -1.15718     675.975E-03    -336.685E-03    -339.395E-03    -337.720E-03     675.973E-03    -338.357E-03    -735.731E-06     1.36993E+06    -2.76614E+06    -13.9626E+06         711.844    -13.8437E+06    -1.51586E+06    -380.146E+03         76.5504
              54     4.62654E-06     46.7584E-03     495.604E-03     367.609E-03        -1.43145     409.252E-03        -1.34510     367.609E-03    -784.667E-03     677.162E-03    -336.604E-03    -340.803E-03    -340.801E-03     677.160E-03    -336.604E-03    -1.52011E-03    -897.311E+03    -8.44663E+06    -17.3607E+06    -5.59823E+06    -17.3233E+06     -3.7831E+06     557.622E+03         76.5674
              55     461.910E-09     44.7610E-03     443.930E-03     370.838E-03        -1.38962     413.513E-03        -1.35920     370.838E-03    -415.476E-03     678.307E-03    -337.690E-03    -340.977E-03    -340.976E-03     678.307E-03    -337.690E-03     1.23797E-03     2.86843E+06    -4.94347E+06    -13.2689E+06    -1.84610E+06    -13.2179E+06    -279.941E+03    -223.532E+03         76.6196
              56    -220.442E-09     42.7333E-03     423.380E-03     386.508E-03        -1.38554     416.736E-03        -1.37890     386.508E-03     24.1569E-03     678.719E-03    -339.110E-03    -339.732E-03    -339.730E-03     678.717E-03    -339.110E-03    -969.657E-06     2.66429E+06    -1.24206E+06    -13.8138E+06     1.82969E+06    -13.7372E+06    -484.091E+03     114.103E+03         76.6500
              57     837.087E-09     40.7169E-03     481.038E-03     389.018E-03        -1.45518     434.354E-03        -1.40850     389.018E-03     529.293E-03     676.465E-03    -337.988E-03    -338.677E-03    -338.675E-03     676.463E-03    -337.988E-03    -765.342E-06     2.34742E+06     1.21836E+06    -12.4174E+06     1.53595E+06    -12.3639E+06     1.97633E+06     656.074E+03         76.6239
              58    -6.17164E-09     38.7171E-03     597.707E-03     380.605E-03        -1.56900     435.696E-03        -1.40699     380.605E-03         1.10883     676.473E-03    -338.054E-03    -338.632E-03    -338.246E-03     676.472E-03    -338.439E-03     1.07418E-03     3.15970E+06     2.62066E+06    -9.44437E+06     2.98918E+06    -9.27385E+06     2.62066E+06    -840.090E+03         76.6095
              59    -419.844E-09     36.7279E-03     744.647E-03     395.312E-03        -1.71550     427.557E-03        -1.39841     395.312E-03         1.63967     677.688E-03    -337.564E-03    -340.355E-03    -339.969E-03     677.687E-03    -337.949E-03    -1.26317E-03    -1.54641E+06    -3.66782E+06    -14.7930E+06    -3.81312E+06    -14.4798E+06    -1.71436E+06     19.3969E+03         76.6440
              60     3.94704E-06     34.7372E-03     895.614E-03     391.568E-03        -1.86198     420.117E-03        -1.38648     391.568E-03         2.07783     678.133E-03    -336.806E-03    -341.745E-03    -341.742E-03     678.130E-03    -336.806E-03     703.957E-06    -209.351E+03    -4.27748E+06    -14.8587E+06    -2.53960E+06    -14.4819E+06    -2.32402E+06    -275.118E+03         76.6718
              61    -307.957E-09     32.7408E-03     953.675E-03     393.854E-03        -1.93271     391.632E-03        -1.37067     393.854E-03         2.28587     679.996E-03    -337.548E-03    -342.589E-03    -340.078E-03     679.993E-03    -340.055E-03     3.35605E-03    -2.25746E+06    -4.42761E+06    -15.1441E+06    -2.64456E+06    -14.8125E+06    -4.37213E+06    -424.464E+03         76.6431
              62    -3.33280E-06     30.7531E-03     906.399E-03     420.850E-03        -1.90600     389.080E-03        -1.38868     420.850E-03         2.17701     678.502E-03    -337.343E-03    -341.245E-03    -338.733E-03     678.497E-03    -339.851E-03    -1.52940E-03    -5.48545E+06    -5.99002E+06    -17.3696E+06    -6.17227E+06    -17.1873E+06    -5.48545E+06     138.641E+03         76.5573
              63     5.96077E-06     28.7718E-03     810.014E-03     414.201E-03        -1.81145     395.598E-03        -1.39703     414.201E-03         1.91063     677.048E-03    -337.022E-03    -340.577E-03    -338.395E-03     677.027E-03    -339.182E-03     3.06160E-03     267.377E+03    -1.52141E+06    -11.7080E+06    -814.284E+03    -11.0754E+06    -1.07233E+06     1.16082E+06         76.4781
              64    -9.30909E-06     26.7897E-03     730.369E-03     411.133E-03        -1.73835     402.151E-03        -1.41014     411.133E-03         1.67399     678.531E-03    -338.526E-03    -341.658E-03    -338.497E-03     678.503E-03    -341.658E-03     1.17328E-03     1.34655E+06    -1.65030E+06    -13.6169E+06     344.355E+03    -12.6147E+06    -1.65030E+06    -101.455E+03         76.4102
              65     7.09349E-06     24.8173E-03     722.458E-03     414.602E-03        -1.73396     424.907E-03        -1.43641     414.602E-03         1.60296     675.963E-03    -336.946E-03    -340.869E-03    -339.886E-03     675.951E-03    -337.917E-03    -3.40067E-03    -2.09489E+06    -6.23356E+06    -17.5604E+06    -6.08544E+06    -16.0514E+06    -3.75204E+06     3.01675E+03         76.2078
              66    -2.88827E-06     22.8489E-03     748.455E-03     402.697E-03        -1.75878     408.729E-03        -1.41905     402.697E-03         1.71332     671.096E-03    -332.403E-03    -339.542E-03    -335.354E-03     671.095E-03    -336.590E-03     1.02571E-03    -833.932E+03    -7.87527E+06    -17.4064E+06    -4.75106E+06    -15.9708E+06    -5.39375E+06     40.0716E+03         75.7765
              67    -2.16258E-06     20.8817E-03     841.942E-03     375.139E-03        -1.81868     398.908E-03        -1.37564     375.139E-03         1.97874     667.037E-03    -330.489E-03    -336.868E-03    -332.673E-03     667.030E-03    -334.676E-03    -4.07759E-03    -4.13744E+06    -10.1314E+06    -21.0037E+06    -7.66907E+06    -18.9062E+06    -8.69725E+06     795.180E+03         75.1046
              68     5.18741E-06     18.9427E-03     968.485E-03     382.590E-03        -1.94285     409.505E-03        -1.38387     382.590E-03         2.29242     661.784E-03    -327.701E-03    -334.273E-03    -334.258E-03     661.770E-03    -327.701E-03    -7.51500E-03     406.158E+03    -5.42142E+06    -17.6349E+06    -3.27807E+06    -15.3847E+06    -3.98731E+06     331.707E+03         74.1585
              69     1.37398E-06     17.0170E-03     981.007E-03     428.778E-03        -2.00661     406.107E-03        -1.43171     428.778E-03         2.35462     652.787E-03    -322.391E-03    -331.000E-03    -326.759E-03     652.775E-03    -326.620E-03    -641.953E-06    -2.34494E+06    -11.7603E+06    -20.2474E+06    -8.38868E+06    -19.2255E+06    -6.73842E+06    -1.43840E+06         72.9510
              70    -7.71277E-06     15.0934E-03     881.097E-03     435.236E-03        -1.90906     401.087E-03        -1.42905     435.236E-03         2.10405     632.100E-03    -313.953E-03    -318.514E-03    -313.880E-03     632.027E-03    -318.514E-03    -8.11675E-03     476.028E+03    -11.5857E+06    -18.9183E+06    -5.27828E+06    -18.1859E+06    -6.56388E+06    -813.900E+03         71.4369
              71     7.38493E-06     13.3089E-03     735.739E-03     424.011E-03        -1.76506     391.122E-03        -1.42045     424.011E-03         1.71630     605.019E-03    -300.199E-03    -304.708E-03    -304.308E-03     604.951E-03    -300.531E-03    -11.9729E-03    -665.764E+03    -13.3197E+06    -24.8848E+06    -10.4526E+06    -20.7120E+06    -7.70567E+06     1.38129E+06         69.6240
              72    -1.00806E-06     11.5136E-03     591.279E-03     444.895E-03        -1.65577     394.403E-03        -1.45889     444.895E-03         1.25042     579.688E-03    -286.999E-03    -292.754E-03    -291.138E-03     579.650E-03    -288.577E-03    -8.75529E-03     6.41458E+06    -9.78345E+06    -22.8264E+06    -3.54367E+06    -18.4822E+06    -4.16940E+06     446.327E+03         68.0363
              73    -1.68400E-06     9.78044E-03     537.274E-03     459.645E-03        -1.60971     433.585E-03        -1.50602     459.645E-03     915.089E-03     558.807E-03    -278.618E-03    -280.249E-03    -278.632E-03     558.769E-03    -280.196E-03    -8.08277E-03     16.3649E+06     2.46747E+06    -12.7888E+06     4.88859E+06    -4.62592E+06     5.78092E+06    -115.693E+03         67.3865
              74     2.21113E-06     8.08642E-03     505.897E-03     457.822E-03        -1.57301     443.393E-03        -1.51050     457.822E-03     701.986E-03     565.001E-03    -281.855E-03    -283.204E-03    -281.898E-03     564.993E-03    -283.152E-03     3.73982E-03     12.2370E+06    -3.88099E+06    -16.9909E+06     1.02870E+06    -9.09603E+06    -567.541E+03     939.342E+03         68.3045
              75    -4.01205E-06     6.33948E-03     479.131E-03     438.478E-03        -1.53336     435.974E-03        -1.49020     438.478E-03     583.045E-03     622.435E-03    -308.064E-03    -314.381E-03    -312.984E-03     622.336E-03    -309.361E-03     17.3265E-03     19.2051E+06     4.34827E+06    -9.04158E+06     9.06632E+06    -955.054E+03     6.40049E+06     1.10389E+06         71.6391
              76     12.0064E-06     4.42979E-03     470.339E-03     431.429E-03        -1.52062     433.762E-03        -1.48544     432.830E-03     520.563E-03     716.761E-03    -355.612E-03    -361.049E-03    -360.843E-03     716.554E-03    -355.612E-03     29.8433E-03     14.3833E+06     10.1950E+06    -2.25830E+06     3.57319E+06     6.49959E+06     12.2472E+06     686.838E+03         77.5222
              77    -11.0667E-06     2.31154E-03     448.427E-03     430.893E-03        -1.50548     414.408E-03        -1.48900     448.427E-03     338.132E-03     806.455E-03    -399.577E-03    -406.755E-03    -399.862E-03     806.321E-03    -406.337E-03     23.0619E-03     15.5642E+06     9.23105E+06     3.41848E+06     11.5250E+06     7.45764E+06     9.23105E+06     1.19864E+06         84.1311
              78     641.120E-06     804.663E-09     437.784E-03     420.776E-03        -1.49343     418.156E-03        -1.48993     436.909E-03     88.3860E-03     834.831E-03    -412.639E-03    -422.105E-03    -412.558E-03     834.750E-03    -422.105E-03     19.2266E-03     15.4878E+06     11.1581E+06     7.11286E+06     10.7163E+06     11.7517E+06     11.2908E+06     2.43755E+06         86.9060
              79     1.30106E-03     804.663E-09     429.474E-03     427.177E-03        -1.48542     429.091E-03        -1.48504     427.177E-03     4.87447E-03     812.988E-03    -401.230E-03    -411.305E-03    -401.023E-03     812.781E-03    -411.305E-03     31.0553E-03     13.6844E+06     11.2329E+06     6.33546E+06     8.29165E+06     11.5955E+06     11.3656E+06     1.66631E+06         85.9240
              80     1.95610E-03     804.663E-09     429.051E-03     427.260E-03        -1.48299     428.438E-03        -1.48275     427.628E-03     20.8335E-03     785.490E-03    -381.776E-03    -403.049E-03    -381.332E-03     785.046E-03    -403.049E-03     44.6826E-03     13.8810E+06     11.3404E+06     5.71456E+06     7.35951E+06     12.2361E+06     11.3404E+06     2.96069E+06         84.3856
              81     2.63385E-03     804.663E-09     427.532E-03     427.010E-03        -1.47891     426.869E-03        -1.47877     427.532E-03     12.8832E-03     752.770E-03    -358.728E-03    -393.643E-03    -358.034E-03     752.075E-03    -393.643E-03     55.3561E-03     12.7179E+06     10.1487E+06     7.26434E+06     7.83047E+06     12.4748E+06     9.82562E+06    -27.2431E+03         82.4101
              82     3.32790E-03     804.663E-09     427.074E-03     424.970E-03        -1.47827     424.821E-03        -1.47812     427.074E-03     11.3108E-03     717.788E-03    -334.231E-03    -383.179E-03    -333.414E-03     716.971E-03    -383.179E-03     58.5826E-03     16.9437E+06     9.24179E+06     7.76136E+06     9.64022E+06     16.5453E+06     7.76136E+06     594.642E+03         80.1888
              83     4.03987E-03     804.663E-09     429.004E-03     424.878E-03        -1.48237     427.019E-03        -1.48233     426.828E-03    -15.7336E-03     682.297E-03    -309.502E-03    -371.998E-03    -308.584E-03     681.379E-03    -371.998E-03     60.2463E-03     16.0960E+06     7.13219E+06     5.70920E+06     7.76806E+06     15.1945E+06     5.97486E+06     2.59016E+06         77.8712
              84     4.79083E-03     804.663E-09     430.623E-03     427.176E-03        -1.48623     430.614E-03        -1.48622     427.176E-03    -8.06917E-03     648.421E-03    -286.512E-03    -360.825E-03    -285.566E-03     647.476E-03    -360.825E-03     59.4300E-03     15.7011E+06     5.53881E+06     5.02876E+06     5.83498E+06     14.8949E+06     5.53881E+06     398.425E+03         75.5732
              85     5.54210E-03     804.663E-09     431.598E-03     427.756E-03        -1.48662     431.584E-03        -1.48661     427.756E-03    -9.32348E-03     615.557E-03    -266.210E-03    -349.444E-03    -265.324E-03     614.671E-03    -349.444E-03     55.8760E-03     20.5772E+06     9.04803E+06     4.69074E+06     6.04704E+06     19.2210E+06     9.04803E+06     2.02602E+06         73.6075
              86     6.30630E-03     804.663E-09     431.302E-03     428.217E-03        -1.48894     431.286E-03        -1.48892     428.217E-03    -2.62711E-03     587.662E-03    -250.166E-03    -338.181E-03    -249.305E-03     586.800E-03    -338.181E-03     53.7023E-03     24.5752E+06     11.0741E+06     2.73202E+06     3.92549E+06     23.3817E+06     11.0741E+06     2.95381E+06         72.5446
              87     7.07594E-03     804.663E-09     428.771E-03     425.136E-03        -1.49022     425.642E-03        -1.49022     428.258E-03     1.37238E-03     565.812E-03    -238.852E-03    -327.538E-03    -238.106E-03     565.066E-03    -327.538E-03     48.8820E-03     22.2422E+06     11.1917E+06    -382.911E+03     771.546E+03     21.0878E+06     11.1917E+06     3.05620E+06         72.8155
              88     7.85770E-03     804.663E-09     427.879E-03     423.264E-03        -1.49307     423.254E-03        -1.49306     427.879E-03     2.58459E-03     552.960E-03    -234.158E-03    -319.074E-03    -233.567E-03     552.369E-03    -319.074E-03     43.1095E-03     13.1224E+06     9.67279E+06    -2.58429E+06    -1.40766E+06     11.9458E+06     9.67279E+06     3.53822E+06         74.4779
              89     8.64412E-03     804.663E-09     427.528E-03     424.902E-03        -1.49697     424.894E-03        -1.49696     427.528E-03     5.16160E-03     549.291E-03    -238.141E-03    -311.719E-03    -237.724E-03     548.874E-03    -311.719E-03     35.7871E-03     5.27833E+06     2.03136E+06    -5.00284E+06    -4.17470E+06     4.45019E+06     2.03136E+06     2.07909E+06         77.4015
              90     9.43065E-03     804.663E-09     427.288E-03     424.165E-03        -1.50026     424.163E-03        -1.50026     427.288E-03     2.05192E-03     558.736E-03    -253.356E-03    -306.049E-03    -253.193E-03     558.573E-03    -306.049E-03     20.4583E-03     13.0987E+06    -13.7633E+06    -27.4109E+06    -2.95982E+06    -11.3524E+06    -13.7633E+06    -15.4240E+06         81.4368
              91     10.2071E-03     804.663E-09     426.994E-03     422.210E-03        -1.50723     422.193E-03        -1.50721     426.994E-03    -5.57340E-03     596.337E-03    -284.718E-03    -312.216E-03    -292.298E-03     596.303E-03    -304.602E-03    -526.369E-06     26.8617E+06    -22.6333E+06    -36.2160E+06     9.84909E+06    -17.1456E+06    -24.6910E+06    -26.8081E+06         86.4752
              92     11.0305E-03     804.663E-09     428.197E-03     424.058E-03        -1.52315     425.385E-03        -1.52313     426.852E-03    -10.5446E-03     673.574E-03    -306.182E-03    -366.269E-03    -366.080E-03     673.385E-03    -306.182E-03    -25.4942E-03     51.1645E+06    -8.14366E+06    -25.5127E+06     25.8658E+06     1.84372E+06    -10.2014E+06    -34.1586E+06         92.0915
              93     11.7011E-03     804.663E-09     442.024E-03     427.403E-03        -1.54991     441.858E-03        -1.54974     427.403E-03    -28.3720E-03     797.756E-03    -313.296E-03    -481.509E-03    -480.791E-03     797.038E-03    -313.296E-03    -59.1369E-03     80.9100E+06     14.0198E+06    -27.3878E+06     43.8299E+06     9.69222E+06     14.0198E+06    -50.7926E+06         97.0141
              94     12.2891E-03     804.663E-09     461.804E-03     428.987E-03        -1.58129     461.077E-03        -1.58056     428.987E-03    -73.9266E-03         1.01586    -326.502E-03    -687.675E-03    -674.540E-03         1.00272    -326.502E-03     182.665E-03     3.56088E+06    -36.0945E+06    -77.8539E+06    -27.8601E+06    -53.5503E+06    -28.9771E+06    -34.1373E+06         100.078
              95     12.8339E-03     3.73665E-03     453.076E-03     419.758E-03        -1.50448     437.302E-03        -1.50248     433.534E-03    -120.459E-03     980.006E-03    -332.748E-03    -643.640E-03    -612.519E-03     948.884E-03    -332.748E-03     435.249E-03     30.4259E+06    -5.11196E+06    -36.1714E+06      7.1675E+06    -4.63404E+06    -13.3910E+06     5.05196E+06         101.552
              96     12.8509E-03     5.52344E-03     435.696E-03     412.485E-03        -1.42346     411.030E-03        -1.42200     435.696E-03    -80.9818E-03     756.750E-03    -331.560E-03    -423.226E-03    -395.925E-03     729.448E-03    -331.560E-03     350.747E-03     71.5397E+06     35.3270E+06    -3.17816E+06     43.6616E+06     40.0963E+06     19.9306E+06    -1.98176E+06         102.303
              97     12.8559E-03     7.44063E-03     431.078E-03     410.661E-03        -1.44045     410.435E-03        -1.44022     431.078E-03    -36.2924E-03     703.366E-03    -331.084E-03    -374.530E-03    -360.956E-03     689.792E-03    -331.084E-03     238.012E-03     25.3615E+06    -12.0420E+06    -39.8785E+06    -2.28719E+06    -12.2298E+06    -12.0420E+06    -358.845E+03         101.883
              98     12.8732E-03     9.38892E-03     426.716E-03     413.795E-03        -1.44490     413.189E-03        -1.44430     426.716E-03    -66.2133E-03     688.056E-03    -330.330E-03    -359.998E-03    -350.632E-03     678.689E-03    -330.330E-03     197.262E-03     19.1042E+06    -14.0125E+06    -35.2556E+06    -5.10263E+06    -11.0488E+06    -14.0125E+06     6.65632E+06         100.156
              99     12.8840E-03     11.3212E-03     424.070E-03     417.129E-03        -1.43669     416.426E-03        -1.43598     424.070E-03    -72.0360E-03     687.874E-03    -329.944E-03    -359.991E-03    -351.998E-03     679.881E-03    -329.944E-03     181.808E-03     18.9800E+06    -4.19034E+06    -21.2293E+06     152.254E+03    -2.40160E+06    -4.19034E+06    -1.08164E+06         98.5067
             100     12.8934E-03     13.3165E-03     420.201E-03     413.518E-03        -1.43079     413.016E-03        -1.43029     420.201E-03    -60.5647E-03     698.760E-03    -329.776E-03    -371.273E-03    -364.632E-03     692.119E-03    -329.776E-03     168.023E-03     21.1145E+06     1.16688E+06    -15.2491E+06     4.74359E+06     838.996E+03     1.44967E+06     1.06838E+06         97.5739
             101     12.8883E-03     15.3562E-03     417.895E-03     413.906E-03        -1.43294     416.008E-03        -1.43273     415.587E-03    -31.5479E-03     707.350E-03    -329.905E-03    -379.280E-03    -372.438E-03     700.509E-03    -329.905E-03     171.824E-03     11.0009E+06    -1.13603E+06    -17.3343E+06    -4.61962E+06    -1.99658E+06     -853.24E+03    -1.32775E+06         96.9503
             102     12.8922E-03     17.4100E-03     416.136E-03     411.905E-03        -1.43421     416.131E-03        -1.43420     411.905E-03    -5.12926E-03     703.882E-03    -329.883E-03    -374.422E-03    -366.805E-03     696.265E-03    -329.883E-03     180.538E-03     14.9128E+06     2.93100E+06    -8.30181E+06     3.19961E+06     3.28373E+06     3.05867E+06     960.308E+03         96.2516
             103     12.8915E-03     19.4108E-03     413.886E-03     409.610E-03        -1.42555     413.882E-03        -1.42555     409.610E-03     2.93735E-03     692.333E-03    -329.705E-03    -363.090E-03    -354.894E-03     684.137E-03    -329.705E-03     185.259E-03     9.22128E+06     1.72181E+06    -10.2329E+06    -2.05010E+06     910.785E+03     1.84948E+06    -269.688E+03         95.5167
             104     12.8964E-03     21.3963E-03     410.428E-03     407.421E-03        -1.41251     410.421E-03        -1.41250     407.421E-03     7.41621E-03     683.756E-03    -329.755E-03    -355.020E-03    -346.713E-03     675.449E-03    -329.755E-03     185.045E-03     11.8719E+06     3.99644E+06    -4.60339E+06     3.39585E+06     3.36901E+06     4.50007E+06     564.771E+03         94.9849
             105     12.8981E-03     23.3627E-03     411.936E-03     405.145E-03        -1.41545     411.931E-03        -1.41545     405.145E-03     5.79994E-03     677.838E-03    -329.667E-03    -349.149E-03    -341.413E-03     670.103E-03    -329.667E-03     177.524E-03     6.22435E+06     5.36691E+06    -5.65267E+06    -1.41127E+06     1.47932E+06     5.87053E+06    -1.21754E+06         94.7340
             106     12.8973E-03     25.3304E-03     413.660E-03     404.011E-03        -1.41755     413.651E-03        -1.41754     404.011E-03    -3.32381E-03     673.645E-03    -329.613E-03    -345.423E-03    -338.309E-03     666.532E-03    -329.613E-03     169.683E-03     5.19151E+06     1.49825E+06    -6.08210E+06    -2.30542E+06    -1.92461E+06     4.83768E+06    -41.7719E+03         94.6533
             107     12.8985E-03     27.2925E-03     408.635E-03     403.906E-03        -1.40539     407.410E-03        -1.40538     405.123E-03    -6.69895E-03     670.279E-03    -329.557E-03    -343.635E-03    -336.740E-03     663.385E-03    -329.557E-03     166.645E-03     9.87233E+06     2.63094E+06    -4.43898E+06     1.94495E+06     148.966E+03     5.97037E+06     1.01799E+06         94.5960
             108     12.9010E-03     29.2545E-03     407.616E-03     406.324E-03        -1.39910     406.318E-03        -1.39909     407.616E-03    -5.72882E-03     668.552E-03    -329.533E-03    -340.925E-03    -334.136E-03     661.763E-03    -329.533E-03     165.012E-03     7.75931E+06     3.62160E+06    -4.82082E+06     1.73159E+06     1.20691E+06     3.62160E+06     522.242E+03         94.5138
             109     12.9023E-03     31.2171E-03     408.167E-03     407.192E-03        -1.40136     407.170E-03        -1.40133     408.167E-03     3.36651E-03     669.753E-03    -329.581E-03    -340.998E-03    -334.444E-03     663.199E-03    -329.581E-03     162.233E-03     7.66127E+06     1.92959E+06    -5.18783E+06     2.01687E+06     456.565E+03     1.92959E+06     107.869E+03         94.4252
             110     12.8979E-03     33.1767E-03     407.178E-03     405.431E-03        -1.40376     406.237E-03        -1.40371     406.331E-03     17.1664E-03     670.926E-03    -329.619E-03    -343.683E-03    -337.231E-03     664.475E-03    -329.619E-03     161.290E-03     5.85638E+06     337.800E+03    -8.77382E+06    -1.08880E+06    -1.82865E+06     337.800E+03    -746.238E+03         94.3146
             111     12.9016E-03     35.1560E-03     406.150E-03     401.548E-03        -1.39483     402.262E-03        -1.39470     405.304E-03     28.9931E-03     668.972E-03    -329.666E-03    -341.633E-03    -335.046E-03     662.385E-03    -329.666E-03     162.647E-03     4.65327E+06     2.36514E+06    -12.8610E+06    -2.15745E+06    -6.05027E+06     2.36514E+06    -603.792E+03         94.1896
             112     12.9036E-03     37.1208E-03     405.723E-03     397.055E-03        -1.38252     396.899E-03        -1.38236     405.723E-03     32.6444E-03     668.482E-03    -329.649E-03    -340.094E-03    -333.482E-03     661.870E-03    -329.649E-03     162.786E-03     5.36361E+06     2.61547E+06    -7.40113E+06     2.55255E+06    -4.59006E+06     2.61547E+06     1.12807E+06         94.1084
             113     12.9032E-03     39.0913E-03     405.883E-03     396.231E-03        -1.38046     396.183E-03        -1.38042     405.883E-03     11.7792E-03     670.899E-03    -329.695E-03    -342.486E-03    -335.941E-03     664.355E-03    -329.695E-03     162.348E-03     1.33492E+06    -2.69614E+06    -5.02157E+06    -1.36244E+06    -2.28875E+06    -2.73160E+06     66.8868E+03         94.0848
             114     12.9041E-03     41.0711E-03     405.023E-03     394.553E-03        -1.37565     394.455E-03        -1.37555     405.023E-03    -19.7918E-03     669.901E-03    -329.737E-03    -341.701E-03    -335.256E-03     663.456E-03    -329.737E-03     160.978E-03     2.84868E+06    -1.92962E+06    -3.99787E+06     1.78855E+06    -2.90227E+06    -1.96508E+06    -245.489E+03         94.0831
             115     12.9058E-03     43.0554E-03     403.202E-03     392.682E-03        -1.36842     392.327E-03        -1.36806     403.202E-03    -48.6977E-03     669.950E-03    -329.957E-03    -341.683E-03    -335.098E-03     663.365E-03    -329.957E-03     162.691E-03    -122.695E+03    -2.56578E+06    -5.14358E+06    -1.28747E+06    -3.97881E+06    -2.56578E+06    -550.382E+03         94.0935
             116     12.9057E-03     45.0357E-03     400.910E-03     392.773E-03        -1.36522     392.054E-03        -1.36450     400.910E-03    -70.3571E-03     671.152E-03    -329.963E-03    -342.601E-03    -336.063E-03     664.613E-03    -329.963E-03     162.277E-03     329.818E+03    -1.43883E+06    -4.35499E+06    -810.103E+03    -3.77055E+06    -883.351E+03     285.607E+03         94.1015
             117     12.9079E-03     47.0150E-03     398.807E-03     390.147E-03        -1.35428     389.325E-03        -1.35346     398.807E-03    -75.6074E-03     670.024E-03    -329.722E-03    -341.718E-03    -335.311E-03     663.618E-03    -329.722E-03     160.502E-03     601.819E+03     40.3498E+03    -3.15861E+06    -435.969E+03    -2.67630E+06     595.830E+03    -80.9081E+03         94.0971
             118     12.9062E-03     48.9948E-03     395.573E-03     388.985E-03        -1.34068     388.311E-03        -1.34000     395.573E-03    -68.1993E-03     669.436E-03    -329.755E-03    -342.925E-03    -336.421E-03     662.931E-03    -329.755E-03     161.770E-03     293.657E+03    -901.666E+03    -2.58684E+06    -146.623E+03    -2.14656E+06    -901.666E+03     51.7368E+03         94.0992
             119     12.9074E-03     50.9945E-03     389.713E-03     384.986E-03        -1.33027     384.458E-03        -1.32975     389.713E-03    -59.9759E-03     668.053E-03    -329.813E-03    -341.647E-03    -335.165E-03     661.571E-03    -329.813E-03     161.280E-03    -304.441E+03    -2.99580E+06    -4.14899E+06    -1.48315E+06    -2.67446E+06    -3.29163E+06    -1.02139E+06         94.0941
             120     12.9078E-03     52.9834E-03     386.430E-03     379.911E-03        -1.32060     382.639E-03        -1.32027     383.364E-03    -47.5113E-03     667.714E-03    -329.875E-03    -339.948E-03    -333.380E-03     661.145E-03    -329.875E-03     162.173E-03     2.89780E+06    -247.812E+03    -2.53124E+06     1.43769E+06    -775.306E+03    -543.635E+03     410.332E+03         94.0708
             121     12.9098E-03     54.9720E-03     381.210E-03     376.919E-03        -1.30666     379.682E-03        -1.30636     378.144E-03    -44.9972E-03     668.153E-03    -329.838E-03    -341.020E-03    -334.314E-03     661.448E-03    -329.838E-03     163.979E-03     5.10050E+06     1.02331E+06    -3.00216E+06     288.832E+03     1.80951E+06     1.02331E+06     1.25442E+06         94.0682
             122     12.9118E-03     56.9618E-03     374.013E-03     371.196E-03        -1.28620     370.953E-03        -1.28596     374.013E-03    -38.9008E-03     669.417E-03    -329.786E-03    -341.900E-03    -335.460E-03     662.977E-03    -329.786E-03     160.842E-03     4.84114E+06     818.412E+03    -4.63494E+06    -111.311E+03     317.507E+03     818.412E+03    -1.29994E+06         94.1077
             123     12.9072E-03     58.9736E-03     371.601E-03     368.691E-03        -1.27750     369.590E-03        -1.27708     370.284E-03    -48.5621E-03     670.939E-03    -329.902E-03    -342.119E-03    -335.719E-03     664.539E-03    -329.902E-03     160.501E-03     3.80243E+06     197.876E+03    -6.45832E+06    -1.15378E+06    -1.50212E+06     197.876E+03     391.454E+03         94.1425
             124     12.9106E-03     60.9927E-03     369.996E-03     365.048E-03        -1.27180     369.280E-03        -1.27109     365.048E-03    -68.5666E-03     669.742E-03    -330.008E-03    -340.663E-03    -334.061E-03     663.140E-03    -330.008E-03     162.809E-03     6.61391E+06     1.55081E+06    -4.48317E+06     1.98023E+06     150.513E+03     1.55081E+06     905.931E+03         94.1339
             125     12.9114E-03     63.0030E-03     367.770E-03     359.102E-03        -1.25786     367.111E-03        -1.25720     359.102E-03    -65.3711E-03     669.222E-03    -329.998E-03    -339.786E-03    -333.198E-03     662.634E-03    -329.998E-03     162.525E-03     3.39789E+06    -1.17312E+06    -8.00592E+06    -2.32950E+06    -2.27854E+06    -1.17312E+06    -1.06704E+06         94.1177
             126     12.9126E-03     65.0108E-03     362.246E-03     354.007E-03        -1.24356     361.663E-03        -1.24298     354.007E-03    -61.1996E-03     670.352E-03    -329.929E-03    -341.391E-03    -334.859E-03     663.821E-03    -329.929E-03     162.045E-03     10.8599E+06     2.73186E+06    -6.12857E+06     5.07004E+06    -338.666E+03     2.73186E+06     1.50425E+06         94.1298
             127     12.9108E-03     67.0376E-03     357.815E-03     350.198E-03        -1.22639     357.509E-03        -1.22609     350.198E-03    -38.3090E-03     670.488E-03    -329.890E-03    -342.066E-03    -335.615E-03     664.038E-03    -329.890E-03     161.120E-03     10.7551E+06    -553.471E+03    -14.5647E+06    -2.61263E+06    -1.19698E+06    -553.471E+03    -1.54961E+06         94.1575
             128     12.9137E-03     69.0733E-03     354.810E-03     347.090E-03        -1.21114     354.735E-03        -1.21107     347.090E-03    -21.0692E-03     669.954E-03    -329.920E-03    -341.422E-03    -334.945E-03     663.477E-03    -329.920E-03     161.356E-03     18.5152E+06     1.06797E+06    -12.7420E+06     3.20062E+06     2.57260E+06     1.06797E+06     2.59832E+06         94.1807
             129     12.9120E-03     71.1404E-03     350.196E-03     344.052E-03        -1.20391     350.131E-03        -1.20384     344.052E-03    -18.9929E-03     670.166E-03    -329.951E-03    -341.608E-03    -335.259E-03     663.817E-03    -329.951E-03     159.776E-03     15.4911E+06    -2.16376E+06    -26.8099E+06    -7.21050E+06    -4.10836E+06    -2.16376E+06    -3.76816E+06         94.1906
             130     12.9096E-03     73.1902E-03     351.667E-03     342.987E-03        -1.20323     351.586E-03        -1.20315     342.987E-03    -20.7574E-03     670.280E-03    -330.005E-03    -341.562E-03    -335.062E-03     663.780E-03    -330.005E-03     161.634E-03     32.4246E+06     1.42287E+06    -29.4549E+06     6.97441E+06    -4.00471E+06     1.42287E+06     3.03996E+06         94.1917
             131     12.9155E-03     75.2152E-03     349.548E-03     342.225E-03        -1.19337     347.790E-03        -1.19310     343.706E-03    -39.8110E-03     669.264E-03    -330.045E-03    -339.959E-03    -333.520E-03     662.824E-03    -330.045E-03     160.670E-03     35.0565E+06     3.08444E+06    -36.8025E+06     4.95170E+06    -6.69774E+06     3.08444E+06    -3.10195E+06         94.1992
             132     12.9115E-03     77.2240E-03     345.469E-03     341.962E-03        -1.17994     343.370E-03        -1.17932     343.443E-03    -60.5660E-03     669.341E-03    -330.010E-03    -340.363E-03    -333.953E-03     662.932E-03    -330.010E-03     160.346E-03     26.2874E+06    -736.008E+03    -42.3705E+06    -7.29270E+06    -8.79040E+06    -736.008E+03    -1.06875E+06         94.2250
             133     12.9159E-03     79.2477E-03     343.568E-03     338.543E-03        -1.17110     339.369E-03        -1.16990     341.542E-03    -83.9926E-03     669.295E-03    -329.914E-03    -341.568E-03    -335.062E-03     662.788E-03    -329.914E-03     161.654E-03     34.3361E+06     1.69815E+06    -22.9906E+06     9.34199E+06     2.00352E+06     1.69815E+06     3.81811E+06         94.2660
             134     12.9114E-03     81.2520E-03     339.256E-03     333.499E-03        -1.15668     331.557E-03        -1.15474     339.256E-03    -107.013E-03     667.925E-03    -329.887E-03    -340.848E-03    -334.493E-03     661.570E-03    -329.887E-03     159.627E-03     17.3901E+06    -3.64406E+06    -25.2440E+06    -6.96510E+06    -888.763E+03    -3.64406E+06    -1.41201E+06         94.3081
             135     12.9162E-03     83.2611E-03     337.824E-03     333.943E-03        -1.15140     332.576E-03        -1.14891     336.700E-03    -121.510E-03     668.244E-03    -329.918E-03    -341.137E-03    -334.709E-03     661.816E-03    -329.918E-03     160.587E-03     18.1823E+06     1.11382E+06    -15.3731E+06     3.43226E+06    -623.156E+03     1.11382E+06     2.11048E+06         94.3391
             136     12.9102E-03     85.2645E-03     335.359E-03     328.629E-03        -1.13536     327.699E-03        -1.13331     334.235E-03    -108.470E-03     669.006E-03    -329.914E-03    -341.818E-03    -335.197E-03     662.385E-03    -329.914E-03     163.070E-03     10.0578E+06    -2.71543E+06    -15.1441E+06    -3.26498E+06    -1.82129E+06    -2.71543E+06    -1.99332E+06         94.3424
             137     12.9206E-03     87.2638E-03     332.556E-03     321.336E-03        -1.11254     320.316E-03        -1.11152     332.556E-03    -74.8438E-03     670.200E-03    -329.878E-03    -340.513E-03    -333.908E-03     663.595E-03    -329.878E-03     162.855E-03     11.5097E+06    -744.983E+03    -10.3197E+06     3.42746E+06    -2.23742E+06    -744.983E+03     1.20415E+06         94.3372
             138     12.9134E-03     89.2807E-03     329.943E-03     317.474E-03        -1.10449     317.094E-03        -1.10411     329.943E-03    -44.0707E-03     671.140E-03    -330.299E-03    -339.394E-03    -332.860E-03     664.606E-03    -330.299E-03     161.983E-03     5.88803E+06    -1.77177E+06    -13.3411E+06    -3.39587E+06    -4.05723E+06    -1.77177E+06    -1.99877E+06         94.4039
             139     12.9172E-03     91.2509E-03     325.104E-03     316.915E-03        -1.09588     316.794E-03        -1.09576     325.104E-03    -26.0187E-03     670.531E-03    -330.491E-03    -340.878E-03    -334.241E-03     663.894E-03    -330.491E-03     163.324E-03     9.72576E+06     4.22623E+06    -14.0735E+06     2.05069E+06    -6.39845E+06     4.22623E+06     576.911E+03         94.5625
             140     12.9134E-03     93.2226E-03     318.708E-03     313.683E-03        -1.08152     313.613E-03        -1.08145     318.708E-03    -3.41257E-03     671.218E-03    -330.833E-03    -342.963E-03    -336.506E-03     664.760E-03    -330.833E-03     161.322E-03     9.27615E+06     1.63264E+06    -19.4279E+06    -3.52765E+06    -6.62413E+06     1.63264E+06     584.644E+03         94.7515
             141     12.9161E-03     95.2035E-03     311.994E-03     305.098E-03        -1.06104     305.068E-03        -1.06101     311.994E-03     12.0313E-03     669.587E-03    -331.756E-03    -340.740E-03    -334.114E-03     662.961E-03    -331.756E-03     163.037E-03     7.29565E+06    -1.07299E+06    -15.2303E+06    -5.62207E+06    -2.31260E+06    -1.07299E+06     526.168E+03         94.9286
             142     12.9206E-03     97.1432E-03     304.881E-03     301.563E-03        -1.04371     301.650E-03        -1.04368     304.767E-03    -3.49154E-03     669.386E-03    -332.091E-03    -338.909E-03    -332.194E-03     662.671E-03    -332.091E-03     163.990E-03     10.8023E+06     972.485E+03    -10.1804E+06     -805.95E+03     1.42782E+06     972.485E+03    -461.183E+03         95.0733
             143     12.9193E-03     99.1026E-03     297.003E-03     293.793E-03        -1.02022     293.867E-03        -1.02018     296.890E-03    -14.3057E-03     672.795E-03    -332.292E-03    -341.396E-03    -334.857E-03     666.256E-03    -332.292E-03     162.340E-03     12.1931E+06     616.686E+03    -9.58383E+06       552.3E+03     2.05700E+06     616.686E+03    -622.408E+03         95.2353
             144     12.9225E-03     101.092E-03     289.536E-03     284.125E-03    -993.676E-03     284.058E-03    -993.609E-03     289.536E-03    -17.8966E-03     673.696E-03    -332.395E-03    -342.955E-03    -336.568E-03     667.308E-03    -332.395E-03     160.639E-03     10.7239E+06     1.18270E+06    -11.5857E+06    -370.801E+03    -491.058E+03     1.18270E+06     1.87608E+06         95.4158
             145     12.9182E-03     103.090E-03     291.014E-03     280.288E-03    -988.254E-03     288.644E-03    -988.199E-03     282.603E-03    -15.4094E-03     674.376E-03    -332.400E-03    -343.737E-03    -337.489E-03     668.128E-03    -332.400E-03     159.022E-03     12.0537E+06     52.2385E+03    -16.1488E+06    -935.286E+03    -3.15981E+06     52.2385E+03    -1.96054E+06         95.4504
             146     12.9186E-03     105.079E-03     286.243E-03     276.156E-03    -974.888E-03     286.233E-03    -974.878E-03     276.156E-03    -7.01435E-03     671.156E-03    -332.640E-03    -340.346E-03    -334.077E-03     664.887E-03    -332.640E-03     158.762E-03     18.5894E+06     4.37934E+06    -10.3915E+06     7.23074E+06     967.168E+03     4.37934E+06      207.19E+03         95.2574
             147     12.9197E-03     107.049E-03     273.705E-03     271.160E-03    -945.783E-03     273.702E-03    -945.780E-03     271.160E-03    -3.39036E-03     670.338E-03    -332.844E-03    -339.007E-03    -332.681E-03     664.013E-03    -332.844E-03     159.299E-03     14.5288E+06     2.57584E+06    -11.0201E+06     2.16171E+06     1.34700E+06     2.57584E+06     208.151E+03         94.9776
             148     12.9133E-03     109.046E-03     273.295E-03     266.111E-03    -930.033E-03     273.280E-03    -930.018E-03     266.111E-03    -6.71704E-03     673.306E-03    -333.009E-03    -341.675E-03    -335.291E-03     666.921E-03    -333.009E-03     160.491E-03     11.3966E+06     91.1538E+03    -13.9471E+06    -124.654E+03    -2.42591E+06     91.1538E+03     405.377E+03         94.7330
             149     12.9143E-03     113.047E-03     265.019E-03     253.348E-03    -903.948E-03     264.962E-03    -903.891E-03     253.348E-03    -11.8838E-03     672.314E-03    -333.064E-03    -340.801E-03    -334.423E-03     665.936E-03    -333.064E-03     160.266E-03     9.79895E+06    -1.58826E+06    -19.9140E+06    -4.88666E+06    -7.44304E+06     626.381E+03    -2.09546E+06         94.3297
             150     12.9166E-03     115.075E-03     260.776E-03     248.969E-03    -890.741E-03     260.669E-03    -890.633E-03     248.969E-03    -22.2692E-03     674.663E-03    -332.998E-03    -343.074E-03    -336.785E-03     668.374E-03    -332.998E-03     159.492E-03     10.3808E+06     3.55828E+06    -18.8775E+06    -923.751E+03    -9.78760E+06     5.77292E+06     841.527E+03         94.1516
             151     12.9130E-03     117.096E-03     255.217E-03     247.586E-03    -875.189E-03     255.103E-03    -875.075E-03     247.586E-03    -22.6419E-03     674.449E-03    -332.995E-03    -343.031E-03    -336.753E-03     668.171E-03    -332.995E-03     159.343E-03     11.3476E+06     2.53583E+06    -18.9204E+06    -527.072E+03    -7.04577E+06     2.53583E+06     2.08368E+06         93.8869
             152     12.9124E-03     119.113E-03     251.550E-03     245.257E-03    -856.590E-03     248.796E-03    -856.416E-03     247.837E-03    -27.4227E-03     671.995E-03    -332.959E-03    -340.465E-03    -334.142E-03     665.672E-03    -332.959E-03     159.518E-03     12.5728E+06    -701.473E+03    -16.8690E+06    -1.19871E+06    -3.09750E+06    -701.473E+03     351.634E+03         93.5550
             153     12.9140E-03     121.038E-03     247.125E-03     244.140E-03    -842.526E-03     244.380E-03    -842.361E-03     246.720E-03    -26.4131E-03     669.673E-03    -333.234E-03    -337.808E-03    -331.559E-03     663.424E-03    -333.234E-03     158.201E-03     14.2870E+06     1.80261E+06    -12.1271E+06     2.54890E+06    -3.80303E+06     5.21664E+06    -2.23752E+06         93.4160
             154     12.9142E-03     122.924E-03     244.066E-03     242.305E-03    -835.700E-03     242.597E-03    -835.587E-03     243.661E-03    -22.0745E-03     673.372E-03    -333.653E-03    -341.366E-03    -335.197E-03     667.203E-03    -333.653E-03     157.746E-03     9.93977E+06    -601.950E+03    -12.3349E+06    -569.347E+03    -5.23985E+06     2.81208E+06    -288.615E+03         93.5944
             155     12.9140E-03     124.954E-03     240.569E-03     237.319E-03    -823.447E-03     237.221E-03    -823.348E-03     240.569E-03    -20.3861E-03     674.611E-03    -333.802E-03    -342.259E-03    -336.002E-03     668.354E-03    -333.802E-03     159.011E-03     9.09488E+06     1.18647E+06    -13.0587E+06     1.16340E+06    -5.90789E+06     1.96719E+06     1.09158E+06         93.8061
             156     12.9147E-03     126.834E-03     238.685E-03     234.272E-03    -806.392E-03     234.223E-03    -806.342E-03     238.685E-03    -4.78614E-03     673.596E-03    -333.836E-03    -341.131E-03    -334.751E-03     667.217E-03    -333.836E-03     160.408E-03     11.9701E+06     8.50628E+06    -13.6244E+06     4.46450E+06    -6.89954E+06     9.28699E+06     803.970E+03         93.7675
             157     12.9119E-03     128.695E-03     236.274E-03     226.899E-03    -789.074E-03     226.888E-03    -789.062E-03     236.274E-03     2.43310E-03     674.222E-03    -333.823E-03    -342.321E-03    -336.047E-03     667.947E-03    -333.823E-03     159.228E-03     9.54546E+06     2.40948E+06    -18.1765E+06    -3.94640E+06    -4.68468E+06     2.40948E+06    -84.9625E+03         93.6332
             158     12.9142E-03     130.523E-03     232.164E-03     220.819E-03    -774.093E-03     220.797E-03    -774.071E-03     232.164E-03     4.32075E-03     673.997E-03    -333.749E-03    -342.349E-03    -335.887E-03     667.535E-03    -333.749E-03     161.543E-03     13.2928E+06     3.55926E+06    -17.0583E+06     448.544E+03    -4.21408E+06     3.55926E+06     510.318E+03         93.6403
             159     12.9135E-03     132.388E-03     227.891E-03     220.112E-03    -762.429E-03     219.956E-03    -762.273E-03     227.891E-03     22.5782E-03     673.354E-03    -333.656E-03    -341.919E-03    -335.438E-03     666.873E-03    -333.656E-03     161.696E-03     12.5133E+06     3.64502E+06    -17.4279E+06    -284.117E+03    -4.63048E+06     3.64502E+06    -16.5448E+03         93.6613
             160     12.9142E-03     134.193E-03     223.969E-03     212.208E-03    -742.299E-03     211.754E-03    -741.845E-03     223.969E-03     40.6132E-03     673.407E-03    -333.730E-03    -342.355E-03    -336.263E-03     667.316E-03    -333.730E-03     156.832E-03     9.88810E+06     5.55617E+06    -17.1117E+06    -2.59050E+06    -4.63311E+06     5.55617E+06     971.834E+03         93.6312
             161     12.9117E-03     135.974E-03     218.805E-03     205.081E-03    -720.551E-03     204.096E-03    -719.565E-03     218.805E-03     59.3521E-03     672.569E-03    -333.902E-03    -341.304E-03    -335.113E-03     666.377E-03    -333.902E-03     157.930E-03     13.9347E+06     11.9404E+06    -9.49782E+06     4.71358E+06    -276.702E+03     11.9404E+06    -35.4648E+03         93.6248
             162     12.9165E-03     137.905E-03     211.363E-03     203.943E-03    -706.149E-03     202.174E-03    -704.380E-03     211.363E-03     79.5091E-03     672.032E-03    -333.893E-03    -340.544E-03    -334.160E-03     665.649E-03    -333.893E-03     160.281E-03     11.7072E+06     5.49314E+06    -5.54773E+06     2.33961E+06     3.81991E+06     5.49314E+06     544.845E+03         93.5776
             163     12.9128E-03     139.898E-03     202.661E-03     199.388E-03    -684.417E-03     195.740E-03    -680.769E-03     202.661E-03     110.735E-03     673.412E-03    -333.775E-03    -342.034E-03    -335.675E-03     667.053E-03    -333.775E-03     160.209E-03     9.64201E+06     4.21873E+06    -9.52225E+06    -2.55048E+06     2.67025E+06     4.21873E+06    -1.56554E+06         93.4599
             164     12.9205E-03     141.892E-03     198.073E-03     192.213E-03    -667.494E-03     191.971E-03    -662.497E-03     193.319E-03     131.055E-03     673.508E-03    -333.771E-03    -342.279E-03    -336.055E-03     667.283E-03    -333.771E-03     158.523E-03     11.6796E+06     11.1638E+06    -11.6403E+06    -167.797E+03     150.454E+03     11.2205E+06    -1.33192E+06         93.3432
             165     12.9128E-03     143.886E-03     193.817E-03     183.914E-03    -654.806E-03     188.645E-03    -649.633E-03     183.914E-03     132.021E-03     674.224E-03    -333.843E-03    -342.953E-03    -336.715E-03     667.987E-03    -333.843E-03     158.795E-03     18.1450E+06     11.2016E+06    -12.7486E+06    -435.197E+03    -1.11185E+06     18.1450E+06     1.06673E+06         93.2868
             166     12.9168E-03     145.873E-03     188.605E-03     177.026E-03    -633.762E-03     183.847E-03    -629.004E-03     177.026E-03     124.485E-03     674.292E-03    -333.867E-03    -342.942E-03    -336.681E-03     668.030E-03    -333.867E-03     159.107E-03     15.8617E+06     8.63291E+06    -9.85644E+06    -2.44450E+06     1.56295E+06     15.5198E+06     2.11743E+06         93.2497
             167     12.9115E-03     147.866E-03     178.797E-03     172.193E-03    -605.887E-03     175.583E-03    -602.672E-03     172.193E-03     99.5290E-03     672.741E-03    -333.880E-03    -341.402E-03    -335.188E-03     666.527E-03    -333.880E-03     158.274E-03     14.6981E+06     13.6766E+06    -4.45491E+06     2.39976E+06     7.16389E+06     14.3562E+06     908.421E+03         93.1839
             168     12.9169E-03     149.838E-03     173.433E-03     165.920E-03    -587.305E-03     171.580E-03    -585.452E-03     165.920E-03     74.2652E-03     672.536E-03    -333.860E-03    -341.048E-03    -334.636E-03     666.125E-03    -333.860E-03     160.714E-03     17.4697E+06     11.6803E+06    -3.72947E+06    -1.11113E+06     9.06192E+06     17.4697E+06     210.009E+03         93.1419
             169     12.9148E-03     151.813E-03     169.880E-03     158.530E-03    -573.079E-03     168.378E-03    -571.577E-03     158.530E-03     66.5920E-03     673.203E-03    -333.570E-03    -341.628E-03    -335.236E-03     666.811E-03    -333.570E-03     160.575E-03     19.1600E+06     13.6902E+06    -3.55986E+06    -1.09460E+06     11.2249E+06     19.1600E+06    -183.608E+03         93.1493
             170     12.9182E-03     153.781E-03     163.335E-03     152.743E-03    -550.584E-03     161.707E-03    -548.957E-03     152.743E-03     68.0975E-03     673.984E-03    -333.301E-03    -342.246E-03    -335.867E-03     667.605E-03    -333.301E-03     160.518E-03     22.4781E+06     14.4953E+06    -3.59991E+06    -3.18541E+06     14.0808E+06     22.4781E+06     575.562E+03         93.1576
             171     12.9199E-03     155.758E-03     157.645E-03     148.639E-03    -530.154E-03     155.640E-03    -528.149E-03     148.639E-03     73.6750E-03     673.601E-03    -332.997E-03    -341.604E-03    -335.220E-03     667.217E-03    -332.997E-03     160.501E-03     28.2342E+06     14.7085E+06    -68.5219E+03     463.052E+03     14.1769E+06     28.2342E+06     740.541E+03         93.1580
             172     12.9235E-03     157.728E-03     151.778E-03     144.355E-03    -514.411E-03     149.933E-03    -512.567E-03     144.355E-03     69.2001E-03     673.183E-03    -332.758E-03    -341.271E-03    -334.841E-03     666.753E-03    -332.758E-03     161.013E-03     31.2095E+06     14.8646E+06    -1.17662E+06    -31.9361E+03     13.7199E+06     31.2095E+06    -300.728E+03         93.1440
             173     12.9234E-03     159.710E-03     148.452E-03     139.838E-03    -501.348E-03     147.030E-03    -499.926E-03     139.838E-03     60.6319E-03     672.281E-03    -332.532E-03    -340.612E-03    -333.984E-03     665.653E-03    -332.532E-03     163.328E-03     36.5080E+06     12.4457E+06    -2.32439E+06    -1.28117E+06     11.4025E+06     36.5080E+06    -708.933E+03         93.1040
             174     12.9321E-03     161.670E-03     141.668E-03     136.928E-03    -482.825E-03     140.288E-03    -481.445E-03     136.928E-03     58.5654E-03     670.190E-03    -331.931E-03    -339.523E-03    -332.737E-03     663.404E-03    -331.931E-03     164.993E-03     46.5366E+06     10.7352E+06     218.637E+03     1.41256E+06     9.54128E+06     46.5366E+06     628.673E+03         93.1261
             175     12.9330E-03     163.629E-03     136.850E-03     135.080E-03    -467.047E-03     135.818E-03    -466.015E-03     135.080E-03     49.7503E-03     671.039E-03    -331.650E-03    -340.748E-03    -334.196E-03     664.486E-03    -331.650E-03     162.278E-03     51.3378E+06     10.3974E+06    -6.28044E+06    -5.28389E+06     9.40084E+06     51.3378E+06    -579.259E+03         93.2290
             176     12.9382E-03     165.592E-03     133.716E-03     131.943E-03    -457.561E-03     133.271E-03    -457.116E-03     131.943E-03     26.3041E-03     667.438E-03    -331.106E-03    -337.797E-03    -330.787E-03     660.427E-03    -331.106E-03     167.021E-03     52.8092E+06     16.8658E+06    -2.05222E+06    -982.405E+03     15.7960E+06     52.8092E+06     1.79939E+06         93.4478
             177     12.9682E-03     167.341E-03     129.010E-03     122.474E-03    -436.857E-03     123.529E-03    -436.786E-03     127.883E-03     11.6157E-03     664.047E-03    -329.413E-03    -335.697E-03    -327.797E-03     656.146E-03    -329.413E-03     177.037E-03     54.1933E+06     22.5515E+06     221.689E+03     1.30358E+06     21.4696E+06     54.1933E+06     1.19283E+06         93.6655
             178     12.9681E-03     169.328E-03     126.289E-03     118.933E-03    -419.947E-03     120.804E-03    -419.871E-03     124.343E-03     12.0475E-03     667.773E-03    -328.482E-03    -339.247E-03    -331.746E-03     660.272E-03    -328.482E-03     173.042E-03     61.5394E+06     24.8275E+06    -4.15018E+06    -4.07840E+06     24.7557E+06     61.5394E+06     287.904E+03         93.3990
             179     12.9738E-03     171.308E-03     122.091E-03     116.108E-03    -406.395E-03     117.657E-03    -405.997E-03     120.145E-03     23.5919E-03     668.877E-03    -327.985E-03    -340.886E-03    -334.424E-03     662.415E-03    -327.985E-03     160.920E-03     72.1474E+06     28.6171E+06    -4.54472E+06    -4.45794E+06     28.5303E+06     72.1474E+06     1.57658E+06         92.7865
             180     12.9786E-03     173.197E-03     115.241E-03     108.459E-03    -390.471E-03     107.926E-03    -389.937E-03     115.241E-03     31.8068E-03     664.542E-03    -326.908E-03    -337.572E-03    -330.940E-03     657.909E-03    -326.908E-03     162.273E-03     81.4686E+06     33.0352E+06     733.489E+03        1.03E+06     32.7386E+06     81.4686E+06     2.37308E+06         92.8322
             181     13.0070E-03     175.115E-03     111.331E-03     108.236E-03    -374.795E-03     107.847E-03    -374.406E-03     111.331E-03     27.1765E-03     657.043E-03    -326.049E-03    -330.217E-03    -322.247E-03     649.073E-03    -326.049E-03     176.502E-03     83.1373E+06     34.2235E+06    -1.60519E+06    -1.23885E+06     33.8571E+06     83.1373E+06    -26.0781E+03         93.6551
             182     13.0131E-03     177.133E-03     107.565E-03     102.509E-03    -353.356E-03     101.243E-03    -352.090E-03     107.565E-03     44.9879E-03     658.251E-03    -325.299E-03    -331.329E-03    -323.186E-03     650.109E-03    -325.299E-03     178.674E-03     83.7069E+06     38.2600E+06    -2.39320E+06    -1.42426E+06     37.2910E+06     83.7069E+06     1.82320E+06         93.9357
             183     13.0225E-03     179.151E-03     104.862E-03     97.6224E-03    -342.986E-03     98.2548E-03    -341.086E-03     102.329E-03     57.8594E-03     660.902E-03    -324.638E-03    -335.991E-03    -328.693E-03     653.604E-03    -324.638E-03     169.920E-03     81.9650E+06     41.6103E+06    -9.91035E+06    -8.21394E+06     39.9139E+06     81.9650E+06    -2.05346E+06         93.0447
             184     13.0345E-03     181.091E-03     101.542E-03     95.9151E-03    -334.805E-03     99.8169E-03    -333.080E-03     95.9151E-03     54.7562E-03     654.381E-03    -323.604E-03    -331.167E-03    -323.557E-03     646.770E-03    -323.604E-03     172.345E-03     83.3722E+06     39.1693E+06    -8.32476E+06    -5.92735E+06     36.7718E+06     83.3722E+06    -1.77237E+06         91.8033
             185     13.0546E-03     183.037E-03     92.1650E-03     85.2278E-03    -310.408E-03     87.4601E-03    -309.546E-03     89.0714E-03     29.6922E-03     643.492E-03    -319.727E-03    -324.482E-03    -311.908E-03     633.811E-03    -322.620E-03     191.732E-03     92.2364E+06     37.4696E+06    -2.14985E+06    -335.906E+03     35.6557E+06     92.2364E+06     1.05439E+06         90.8280
             186     13.0989E-03     184.854E-03     82.5664E-03     76.5887E-03    -282.037E-03     76.5639E-03    -282.013E-03     82.5664E-03     5.94787E-03     626.657E-03    -306.932E-03    -319.682E-03    -294.441E-03     614.167E-03    -319.682E-03     214.032E-03     97.0389E+06     48.4843E+06    -3.22222E+06     -409.47E+03     45.6716E+06     97.0389E+06     4.48761E+06         89.7444
             187     13.1629E-03     186.714E-03     76.4828E-03     72.9312E-03    -264.328E-03     72.7309E-03    -264.128E-03     76.4828E-03    -7.89472E-03     603.634E-03    -288.318E-03    -314.800E-03    -272.486E-03     587.803E-03    -314.800E-03     234.880E-03     92.9160E+06     55.6090E+06    -10.3483E+06    -6.18214E+06     51.4428E+06     92.9160E+06    -1.04338E+06         88.2658
             188     13.2598E-03     188.435E-03     70.4337E-03     67.7955E-03    -239.154E-03     67.5812E-03    -238.940E-03     70.4337E-03    -15.0666E-03     587.166E-03    -278.140E-03    -308.420E-03    -259.296E-03     568.321E-03    -308.420E-03     252.468E-03     104.198E+06     70.9857E+06    -9.20723E+06     579.722E+03     61.1987E+06     104.198E+06     7.08053E+06         87.0567
             189     13.3590E-03     190.274E-03     65.8772E-03     63.1215E-03    -210.903E-03     64.3960E-03    -210.642E-03     64.3421E-03    -15.1171E-03     581.963E-03    -280.615E-03    -300.468E-03    -260.934E-03     562.283E-03    -300.468E-03     257.585E-03     99.3280E+06     79.8825E+06    -16.5482E+06    -5.40528E+06     68.7396E+06     99.3280E+06     2.30987E+06         87.0638
             190     13.4539E-03     192.007E-03     59.1857E-03     53.7314E-03    -189.137E-03     54.9655E-03    -188.836E-03     57.6505E-03    -5.54860E-03     596.404E-03    -287.395E-03    -309.186E-03    -286.233E-03     579.650E-03    -293.594E-03     241.944E-03     102.734E+06     71.3592E+06    -18.9130E+06    -10.9879E+06     63.4341E+06     102.734E+06    -1.69151E+06         88.2725
             191     13.4923E-03     193.948E-03     51.3876E-03     46.4297E-03    -168.017E-03     47.3992E-03    -167.948E-03     50.3489E-03     6.03472E-03     637.021E-03    -289.039E-03    -347.968E-03    -336.281E-03     625.334E-03    -289.039E-03     211.527E-03     132.050E+06     50.7354E+06    -21.2172E+06    -3.23793E+06     32.7561E+06     132.050E+06    -7.98315E+06         90.2127
             192     13.5044E-03     195.953E-03     47.8134E-03     42.7121E-03    -152.125E-03     47.6949E-03    -152.006E-03     42.7121E-03     7.22475E-03     678.976E-03    -286.488E-03    -392.252E-03    -384.128E-03     670.852E-03    -286.488E-03     185.093E-03     131.276E+06     38.6210E+06    -41.0257E+06     6.05824E+06    -8.46294E+06     131.276E+06    -7.44427E+06         92.6562
             193     13.5027E-03     197.939E-03     51.9240E-03     34.9409E-03    -143.691E-03     51.4615E-03    -143.228E-03     34.9409E-03    -4.95227E-03     703.099E-03    -285.366E-03    -417.143E-03    -411.365E-03     697.321E-03    -285.366E-03     159.575E-03     117.027E+06     30.8183E+06    -40.2142E+06    -3.44625E+06    -5.94967E+06     117.027E+06     2.79138E+06         94.9631
             194     13.5025E-03     199.847E-03     42.4161E-03     28.2246E-03    -122.451E-03     42.0215E-03    -122.056E-03     28.2246E-03    -8.06906E-03     711.159E-03    -285.451E-03    -425.482E-03    -420.392E-03     706.070E-03    -285.451E-03     151.624E-03     119.481E+06     43.4091E+06    -17.1972E+06    -1.66248E+06     27.8744E+06     119.481E+06     4.82256E+06         96.7537
             195     13.5010E-03     201.821E-03     39.7859E-03     22.2588E-03    -114.059E-03     39.3263E-03    -113.600E-03     22.2588E-03    -8.38912E-03     711.078E-03    -285.532E-03    -425.465E-03    -420.054E-03     705.666E-03    -285.532E-03     156.465E-03     116.234E+06     73.4917E+06    -20.5242E+06    -6.23008E+06     59.1976E+06     116.234E+06     4.14039E+06         98.4314
             196     13.5034E-03     203.763E-03     39.3440E-03     16.1507E-03    -100.857E-03     38.8770E-03    -100.390E-03     16.1507E-03    -15.4505E-03     707.730E-03    -285.769E-03    -422.000E-03    -416.000E-03     701.729E-03    -285.769E-03     163.908E-03     113.618E+06     73.1383E+06    -8.62095E+06     -755.54E+03     65.2729E+06     113.618E+06    -2.06420E+06         99.4581
             197     13.5010E-03     205.873E-03     28.4077E-03     12.0276E-03    -74.8239E-03     28.3393E-03    -74.7555E-03     12.0276E-03    -4.95548E-03     699.781E-03    -286.371E-03    -414.067E-03    -407.236E-03     692.951E-03    -286.371E-03     173.900E-03     117.594E+06     65.1748E+06    -13.8560E+06    -6.53266E+06     57.8515E+06     117.594E+06      90.943E+03         98.2129
             198     13.5056E-03     208.018E-03     35.8260E-03     11.0635E-03    -78.1519E-03     35.8050E-03    -78.1308E-03     11.0635E-03    -3.08807E-03     684.234E-03    -286.824E-03    -398.094E-03    -392.304E-03     678.443E-03    -286.824E-03     157.262E-03     137.762E+06     69.0333E+06    -17.1871E+06     5.34208E+06     46.5041E+06     137.762E+06    -2.77364E+06         94.4283
             199     13.5014E-03     210.072E-03     34.0195E-03     13.0719E-03    -63.0139E-03     33.9216E-03    -62.9160E-03     13.0719E-03     1.89908E-03     654.160E-03    -287.214E-03    -367.176E-03    -363.115E-03     650.099E-03    -287.214E-03     128.364E-03     160.798E+06     43.5661E+06    -35.7718E+06    -10.4118E+06     18.2061E+06     160.798E+06    -9.30248E+06         89.3634
             200     13.5142E-03     212.054E-03     22.5445E-03     8.79406E-03    -46.9725E-03     11.3994E-03    -43.9499E-03     16.9165E-03    -13.3092E-03     607.202E-03    -288.001E-03    -318.757E-03    -315.137E-03     603.581E-03    -288.001E-03     115.428E-03     188.475E+06     79.0775E+06    -50.4524E+06     15.0561E+06     13.5689E+06     188.475E+06     12.1114E+06         83.6336
             201     13.5100E-03     213.941E-03     22.3910E-03    -6.18571E-03    -37.3124E-03    -12.8544E-03    -30.6438E-03     22.3910E-03    -19.3901E-03     537.578E-03    -246.223E-03    -291.049E-03    -242.256E-03     532.263E-03    -289.702E-03     126.077E-03     159.249E+06     80.6563E+06    -85.6990E+06    -11.1999E+06     6.15721E+06     159.249E+06     -5.8857E+06         78.3680
             202     13.5217E-03     215.603E-03     29.7619E-03    -6.79424E-03    -24.1454E-03    -10.5319E-03    -20.4078E-03     29.7619E-03    -2.16847E-03     332.572E-03    -36.7033E-03    -296.075E-03    -32.9829E-03     328.852E-03    -296.075E-03     64.0605E-03      90.949E+06     42.4061E+06    -119.367E+06    -52.5575E+06    -24.4033E+06      90.949E+06    -4.35010E+06         75.2232
             203     12.1660E-03     216.459E-03     33.5476E-03     10.8978E-03    -24.5469E-03     10.6674E-03    -24.3165E-03     33.5476E-03    -4.03753E-03     230.216E-03     81.5263E-03    -311.724E-03     88.8265E-03     222.916E-03    -311.724E-03    -63.1845E-03     126.251E+06     114.390E+06    -46.5107E+06     27.2408E+06     40.6389E+06     126.251E+06    -10.1688E+06         72.5609
             204     11.2941E-03     215.804E-03     32.7927E-03     5.50671E-03    -19.4441E-03     4.71542E-03    -18.6528E-03     32.7927E-03    -6.65309E-03     271.754E-03     57.5100E-03    -329.151E-03     67.4349E-03     261.829E-03    -329.151E-03    -89.4473E-03     139.606E+06     42.6753E+06    -91.3357E+06    -30.7637E+06    -17.8967E+06     139.606E+06    -33.4083E+06         68.9782
             205     10.3576E-03     215.128E-03     31.8010E-03    -7.57856E-03    -13.4294E-03    -8.15282E-03    -12.8552E-03     31.8010E-03    -1.82794E-03     259.784E-03     84.3512E-03    -344.369E-03     93.7616E-03     250.374E-03    -344.369E-03    -77.5770E-03     163.386E+06     32.6299E+06    -73.2989E+06    -14.2277E+06    -26.4413E+06     163.386E+06    -24.5534E+06         65.8959
             206     9.45210E-03     214.440E-03     30.8052E-03    -6.13983E-03    -15.1076E-03    -11.3894E-03    -9.85806E-03     30.8052E-03     3.73623E-03     283.108E-03     75.2463E-03    -358.578E-03     96.5155E-03     261.839E-03    -358.578E-03    -124.653E-03     140.292E+06     27.0939E+06    -74.1084E+06    -22.5491E+06    -24.4654E+06     140.292E+06    -18.5695E+06         63.9316
             207     8.61854E-03     213.683E-03     28.7869E-03     4.03399E-03    -19.7744E-03    -4.43685E-03    -11.3036E-03     28.7869E-03     17.2104E-03     318.608E-03     50.8877E-03    -369.607E-03     94.6475E-03     274.848E-03    -369.607E-03    -196.408E-03     119.342E+06     40.7500E+06    -97.0783E+06    -32.8248E+06    -18.9497E+06     114.788E+06    -37.6091E+06         62.7127
             208     7.81929E-03     212.964E-03     24.9445E-03     12.8331E-03    -25.5280E-03     8.86737E-03    -21.5624E-03     24.9445E-03     21.4162E-03     352.885E-03     24.1990E-03    -377.388E-03     97.1527E-03     279.931E-03    -377.388E-03    -272.408E-03     108.875E+06     45.0419E+06    -95.1372E+06    -29.9079E+06    -15.6335E+06     104.321E+06    -35.4249E+06         62.0588
             209     7.09381E-03     212.197E-03     22.6320E-03     13.6645E-03    -21.8794E-03     15.5356E-03    -20.4450E-03     19.3265E-03     14.6508E-03     386.604E-03    -6.49456E-03    -379.653E-03     94.6995E-03     285.410E-03    -379.653E-03    -343.599E-03     81.7046E+06     15.0828E+06    -121.225E+06    -41.3101E+06    -57.4888E+06     74.3616E+06    -39.2378E+06         61.9789
             210     6.39607E-03     211.493E-03     17.9251E-03     13.8247E-03    -13.7798E-03     13.3353E-03    -9.18995E-03     13.8247E-03     19.0933E-03     421.150E-03    -43.1705E-03    -376.849E-03     87.7871E-03     290.193E-03    -376.849E-03    -417.647E-03     64.5606E+06     7.06140E+06    -104.057E+06    -47.1487E+06    -42.5040E+06     57.2175E+06    -57.1713E+06         62.2647
             211     5.72598E-03     210.792E-03     11.4343E-03     7.76369E-03    -25.1986E-03     4.66666E-03    -21.3067E-03     10.6394E-03     11.6429E-03     458.575E-03    -89.7197E-03    -368.660E-03     70.0104E-03     298.844E-03    -368.660E-03    -498.246E-03     23.0460E+06    -35.7782E+06    -123.308E+06    -67.8574E+06    -82.5607E+06     14.3779E+06    -46.3766E+06         62.6007
             212     5.18701E-03     210.105E-03     14.0070E-03     5.85972E-03    -31.2120E-03     10.3454E-03    -30.4261E-03     8.73541E-03     7.72563E-03     501.794E-03    -147.874E-03    -354.768E-03     25.2421E-03     328.678E-03    -354.768E-03    -573.675E-03     20.5023E+06    -4.69828E+06    -140.022E+06    -70.8231E+06    -48.6964E+06    -4.69828E+06    -77.5776E+06         62.7404
             213     4.53673E-03     209.655E-03     19.4554E-03     6.71652E-03    -30.1468E-03     16.6215E-03    -27.3129E-03     6.71652E-03    -6.42119E-03     537.153E-03    -199.305E-03    -338.331E-03    -29.1780E-03     367.026E-03    -338.331E-03    -620.173E-03    -5.39769E+06    -30.8570E+06    -144.680E+06    -90.8205E+06    -59.2571E+06    -30.8570E+06    -67.0053E+06         62.3038
             214     3.95726E-03     209.153E-03     25.5434E-03     6.54561E-03    -36.1136E-03     14.9171E-03    -25.4873E-03     6.54561E-03    -43.9734E-03     556.353E-03    -236.361E-03    -320.206E-03    -83.7563E-03     403.749E-03    -320.206E-03    -623.442E-03    -12.7588E+06    -52.1741E+06    -162.556E+06    -106.982E+06    -68.3327E+06    -52.1741E+06    -71.2397E+06         61.1114
             215     3.34900E-03     208.791E-03     20.9884E-03     6.64946E-03    -36.9325E-03     4.23643E-03    -22.9890E-03     9.45799E-03    -47.9181E-03     565.394E-03    -264.471E-03    -300.879E-03    -142.829E-03     443.752E-03    -300.879E-03    -584.396E-03    -20.8121E+06    -78.5477E+06    -166.546E+06    -111.663E+06    -75.6945E+06    -78.5477E+06    -69.2579E+06         59.5674
             216     2.73882E-03     208.452E-03     23.5946E-03     8.08077E-03    -35.5801E-03     15.2509E-03    -30.0450E-03     10.8893E-03    -13.6340E-03     565.548E-03    -275.375E-03    -289.434E-03    -196.195E-03     479.922E-03    -282.988E-03    -506.916E-03    -30.1648E+06    -100.662E+06    -163.883E+06    -121.206E+06    -72.8425E+06    -100.662E+06    -58.6423E+06         58.0617
             217     2.10724E-03     208.208E-03     20.7772E-03     4.41429E-03    -19.0198E-03     15.9014E-03    -17.8016E-03     8.07189E-03     4.83345E-03     555.033E-03    -265.785E-03    -288.577E-03    -241.230E-03     507.686E-03    -265.785E-03    -378.657E-03    -17.7603E+06    -107.087E+06    -143.490E+06    -108.273E+06    -52.9771E+06    -107.087E+06    -54.3334E+06         56.7337
             218     1.46199E-03     208.076E-03     10.4743E-03     2.29595E-03    -14.7362E-03    -8.34098E-03    -4.09925E-03     10.4743E-03     15.6465E-03     524.327E-03    -248.513E-03    -275.548E-03    -259.407E-03     508.185E-03    -248.513E-03    -209.240E-03    -19.9990E+06    -122.092E+06    -137.988E+06    -110.898E+06    -47.0893E+06    -122.092E+06    -44.3495E+06         55.7773
             219     767.498E-06     208.073E-03     29.1962E-03     21.3175E-03    -25.6500E-03     14.1465E-03    -15.1210E-03     25.8383E-03     26.8786E-03     483.478E-03    -222.666E-03    -260.368E-03    -257.982E-03     481.092E-03    -222.666E-03    -55.5273E-03    -44.9407E+06    -114.787E+06    -133.973E+06    -125.512E+06    -53.4014E+06    -114.787E+06    -26.1082E+06         55.4021
             220    -23.8885E-06     206.722E-03     34.7581E-03     5.30950E-03    -35.9182E-03     15.9297E-03    -6.84751E-03    -4.93282E-03    -13.0092E-03     391.276E-03    -179.025E-03    -211.864E-03    -205.401E-03     390.639E-03    -184.852E-03    -19.7074E-03    -95.9214E+06    -173.307E+06    -184.345E+06    -182.017E+06    -98.2487E+06    -173.307E+06    -10.9092E+06         53.1078
             221     2.68743E-06     205.238E-03     27.4330E-03    -16.7582E-03    -50.5093E-03     1.60002E-03    -14.4340E-03    -27.0005E-03    -56.9386E-03     254.663E-03    -123.713E-03    -130.941E-03    -124.491E-03     254.039E-03    -129.540E-03    -23.6598E-03    -176.556E+06    -278.802E+06    -303.003E+06    -300.243E+06    -179.316E+06    -278.802E+06    -16.5019E+06         48.8190
             222    -3.32601E-06     203.983E-03     24.5368E-03    -10.9688E-03    -61.1054E-03     16.2767E-03    -52.8453E-03    -10.9688E-03    -25.3063E-03     170.904E-03    -83.9532E-03    -86.9802E-03    -85.3034E-03     170.853E-03    -85.5790E-03     5.25883E-03    -261.275E+06    -406.279E+06    -432.487E+06    -418.607E+06    -268.400E+06    -413.034E+06    -33.4768E+06         45.8113
             223    -1.91097E-06     202.841E-03     10.9464E-03    -11.2935E-03    -54.2399E-03     5.56859E-03    -53.6970E-03    -6.45856E-03     11.2470E-03     154.842E-03    -76.2656E-03    -78.6095E-03    -76.6266E-03     154.484E-03    -77.8915E-03     16.8720E-03    -251.902E+06    -391.689E+06    -429.642E+06    -368.064E+06    -306.726E+06    -398.443E+06     5.11435E+06         44.3923
             224     3.94435E-06     201.703E-03     11.9851E-03     663.260E-06    -67.1160E-03     6.90862E-03    -66.8745E-03     5.49817E-03     2.16425E-03     187.515E-03    -93.2405E-03    -94.2864E-03    -93.2747E-03     186.831E-03    -93.5684E-03     27.7072E-03    -179.251E+06    -221.667E+06    -283.199E+06    -232.059E+06    -239.333E+06    -212.724E+06     32.5360E+06         44.0919
             225    -2.42695E-06     200.550E-03     29.9019E-03     14.5819E-03    -103.411E-03     19.0007E-03    -92.5104E-03     14.5819E-03    -54.6718E-03     253.409E-03    -125.974E-03    -127.479E-03    -125.344E-03     252.779E-03    -127.479E-03     30.4294E-03    -93.0106E+06    -135.254E+06    -205.061E+06    -131.500E+06    -175.514E+06    -126.311E+06     1.23927E+06         45.0210
             226     1.47482E-06     199.237E-03     39.5140E-03     29.0666E-03    -125.028E-03     23.9520E-03    -111.080E-03     30.6810E-03    -85.1473E-03     334.477E-03    -165.755E-03    -168.770E-03    -165.283E-03     334.005E-03    -168.770E-03     30.5678E-03    -59.1338E+06    -115.109E+06    -180.302E+06    -82.1152E+06    -179.996E+06    -92.4338E+06    -3.09958E+06         47.7762
             227    -3.05610E-06     197.759E-03     58.7923E-03     36.3053E-03    -154.114E-03     46.2696E-03    -143.206E-03     37.9197E-03    -92.4732E-03     413.082E-03    -205.178E-03    -207.928E-03    -204.875E-03     412.779E-03    -207.928E-03     26.3504E-03    -61.0541E+06    -103.651E+06    -201.079E+06    -84.0494E+06    -200.759E+06    -80.9755E+06    -3.75437E+06         52.5334
             228     1.66789E-06     196.238E-03     53.8617E-03     28.5457E-03    -148.419E-03     45.3655E-03    -139.923E-03     28.5457E-03    -74.5136E-03     478.110E-03    -237.811E-03    -240.308E-03    -239.190E-03     477.904E-03    -238.723E-03     24.2877E-03    -49.6116E+06    -81.1924E+06    -213.456E+06    -61.8895E+06    -212.838E+06    -69.5330E+06    -326.666E+03         58.0877
             229     1.02255E-06     194.597E-03     47.9386E-03     19.3475E-03    -152.727E-03     46.6076E-03    -151.396E-03     19.3475E-03     4.03999E-03     528.694E-03    -263.152E-03    -265.548E-03    -265.380E-03     528.526E-03    -263.152E-03     22.3716E-03    -59.8335E+06    -91.2862E+06    -216.494E+06    -72.1140E+06    -215.873E+06    -79.6268E+06     -151.41E+03         62.9455
             230     72.3109E-09     192.888E-03     56.8746E-03     28.8478E-03    -169.508E-03     52.0921E-03    -164.726E-03     28.8478E-03     58.7554E-03     563.730E-03    -281.039E-03    -282.717E-03    -281.768E-03     563.648E-03    -281.906E-03     16.6050E-03    -78.0604E+06    -119.101E+06    -224.847E+06    -99.6348E+06    -224.520E+06    -97.8537E+06    -3.20823E+06         66.4648
             231    -1.24596E-06     191.098E-03     78.3342E-03     43.5006E-03    -197.314E-03     68.7339E-03    -187.713E-03     43.5006E-03     100.944E-03     585.672E-03    -292.355E-03    -293.344E-03    -292.310E-03     585.628E-03    -293.344E-03     11.8548E-03    -98.4481E+06    -142.532E+06    -227.713E+06    -119.762E+06    -227.646E+06    -121.285E+06     815.452E+03         68.7664
             232     776.378E-09     189.285E-03     109.191E-03     60.1980E-03    -271.522E-03     83.6982E-03    -246.029E-03     60.1980E-03     183.468E-03     598.456E-03    -297.699E-03    -300.711E-03    -297.678E-03     598.435E-03    -300.711E-03     8.72974E-03    -114.358E+06    -156.703E+06    -230.157E+06    -133.877E+06    -230.146E+06    -137.195E+06    -423.738E+03         70.1806
             233    -4.67893E-06     187.457E-03     112.174E-03     68.7743E-03    -307.054E-03     69.0455E-03    -263.926E-03     68.7743E-03     254.516E-03     605.369E-03    -300.508E-03    -305.436E-03    -302.533E-03     605.355E-03    -303.399E-03     5.95249E-03    -130.021E+06    -161.999E+06    -234.817E+06    -149.544E+06    -234.803E+06    -142.491E+06    -483.242E+03         70.9208
             234     7.26817E-06     185.623E-03     123.261E-03     84.8542E-03    -320.520E-03     85.8839E-03    -283.144E-03     84.8542E-03     243.321E-03     612.098E-03    -302.573E-03    -310.192E-03    -310.185E-03     612.091E-03    -302.573E-03     4.55665E-03    -143.489E+06    -160.805E+06    -239.775E+06    -148.367E+06    -239.743E+06    -155.959E+06    -1.64670E+06         71.3200
             235     719.866E-09     183.763E-03     128.311E-03     107.707E-03    -339.334E-03     89.6550E-03    -308.237E-03     115.265E-03     230.663E-03     619.486E-03    -306.899E-03    -312.632E-03    -312.470E-03     619.476E-03    -307.051E-03     5.98474E-03    -147.499E+06    -156.979E+06    -244.556E+06    -152.378E+06    -244.524E+06    -152.133E+06    -46.9651E+03         71.8511
             236    -312.975E-09     181.898E-03     110.854E-03     102.008E-03    -333.132E-03     85.1161E-03    -316.240E-03     110.854E-03     124.110E-03     624.524E-03    -311.928E-03    -312.690E-03    -311.924E-03     624.520E-03    -312.690E-03     3.26505E-03    -136.506E+06    -144.636E+06    -244.269E+06    -140.018E+06    -244.253E+06    -141.139E+06     355.429E+03         72.4174
             237    -280.691E-09     180.030E-03     104.127E-03     87.9022E-03    -322.692E-03     81.1069E-03    -315.897E-03     104.127E-03    -67.3070E-03     631.046E-03    -314.750E-03    -316.035E-03    -314.747E-03     631.043E-03    -316.035E-03     3.16440E-03    -131.471E+06    -136.317E+06    -239.703E+06    -134.979E+06    -239.691E+06    -132.820E+06     192.158E+03         72.8292
             238    -85.3950E-09     178.124E-03     118.682E-03     103.429E-03    -361.506E-03     85.9240E-03    -343.684E-03     118.366E-03    -178.302E-03     640.292E-03    -319.173E-03    -320.506E-03    -319.168E-03     640.287E-03    -320.506E-03     4.06096E-03    -127.916E+06    -130.919E+06    -230.068E+06    -127.952E+06    -230.031E+06    -130.919E+06     1.79538E+06         73.5240
             239    -430.275E-09     176.198E-03     156.771E-03     135.094E-03    -442.913E-03     115.158E-03    -401.300E-03     135.094E-03    -298.934E-03     644.122E-03    -320.643E-03    -323.282E-03    -322.621E-03     644.120E-03    -321.302E-03     122.124E-06    -115.890E+06    -118.490E+06    -199.925E+06    -117.632E+06    -199.129E+06    -117.544E+06     6.50079E+06         74.6254
             240     3.94176E-06     174.250E-03     185.742E-03     119.177E-03    -466.007E-03     126.275E-03    -406.540E-03     119.177E-03    -375.346E-03     644.585E-03    -320.507E-03    -324.101E-03    -324.095E-03     644.580E-03    -320.507E-03     1.50263E-03    -101.629E+06    -104.867E+06    -158.127E+06    -103.342E+06    -157.361E+06    -103.921E+06     5.35098E+06         75.5079
             241    -1.45318E-06     172.245E-03     179.795E-03     101.907E-03    -443.462E-03     128.820E-03    -392.487E-03     101.907E-03    -340.846E-03     648.915E-03    -322.734E-03    -326.086E-03    -324.343E-03     648.911E-03    -324.472E-03     2.87477E-03    -91.6640E+06    -95.4259E+06    -123.195E+06    -93.9525E+06    -122.376E+06    -93.9561E+06     3.10856E+06         75.7414
             242    -349.590E-09     170.438E-03     191.204E-03     121.706E-03    -476.797E-03     148.366E-03    -433.959E-03     121.706E-03    -326.740E-03     651.965E-03    -324.653E-03    -327.358E-03    -325.620E-03     651.965E-03    -326.391E-03    -222.698E-06    -80.1551E+06    -89.0528E+06    -101.912E+06    -89.7950E+06    -93.4902E+06    -87.8344E+06     3.85616E+06         75.6855
             243     1.96062E-06     168.618E-03     187.236E-03     139.029E-03    -497.692E-03     146.966E-03    -457.423E-03     139.029E-03    -322.224E-03     655.918E-03    -326.115E-03    -329.556E-03    -329.555E-03     655.916E-03    -326.115E-03     1.55324E-03    -68.0127E+06    -76.9824E+06    -81.2772E+06    -76.1521E+06    -72.8864E+06    -77.2339E+06     2.69360E+06         75.7602
             244     1.31426E-06     166.669E-03     158.647E-03     116.240E-03    -457.931E-03     127.458E-03    -426.743E-03     116.240E-03    -268.746E-03     660.912E-03    -328.501E-03    -331.768E-03    -330.974E-03     660.910E-03    -329.293E-03     2.10344E-03    -58.7365E+06    -66.8935E+06    -72.5046E+06    -66.4832E+06    -64.7579E+06    -66.8935E+06    -974.562E+03         75.8726
             245    -3.31752E-06     164.721E-03     148.205E-03     107.460E-03    -449.939E-03     136.504E-03    -438.237E-03     107.460E-03    -117.130E-03     660.354E-03    -328.924E-03    -330.625E-03    -328.922E-03     660.352E-03    -330.625E-03    -1.14053E-03    -57.2349E+06    -65.9566E+06    -73.9417E+06    -65.2579E+06    -65.9188E+06    -65.9566E+06    -101.224E+03         75.9087
             246     1.55302E-06     162.786E-03     167.893E-03     122.749E-03    -486.271E-03     147.523E-03    -465.902E-03     122.749E-03     160.777E-03     660.167E-03    -328.335E-03    -331.200E-03    -330.289E-03     660.166E-03    -329.244E-03    -692.194E-06    -49.3143E+06    -53.5902E+06    -62.6555E+06    -55.0907E+06    -56.8790E+06    -53.5902E+06     3.52115E+06         76.0126
             247     1.60265E-06     160.834E-03     223.524E-03     117.984E-03    -556.053E-03     146.435E-03    -478.964E-03     117.984E-03     454.994E-03     664.903E-03    -330.404E-03    -333.914E-03    -333.913E-03     664.902E-03    -330.404E-03     1.68760E-03    -35.4540E+06    -42.4669E+06    -49.1528E+06    -40.2959E+06    -44.3109E+06    -42.4669E+06    -360.920E+03         76.2425
             248     444.442E-09     158.882E-03     296.556E-03     113.245E-03    -642.823E-03     149.186E-03    -495.453E-03     113.245E-03     680.559E-03     667.381E-03    -331.643E-03    -335.279E-03    -333.198E-03     667.381E-03    -333.723E-03     816.868E-06    -38.6380E+06    -44.8585E+06    -52.0731E+06    -43.3135E+06    -47.3976E+06    -44.8585E+06    -1.25285E+06         76.3595
             249    -3.32192E-06     156.941E-03     318.808E-03     124.655E-03    -665.860E-03     164.649E-03    -511.702E-03     124.655E-03     712.976E-03     665.807E-03    -331.422E-03    -334.180E-03    -332.098E-03     665.806E-03    -333.502E-03    -1.89729E-03    -35.2925E+06    -40.1549E+06    -49.8410E+06    -40.3862E+06    -44.7473E+06    -40.1549E+06     2.08654E+06         76.3039
             250     4.38537E-06     154.991E-03     264.740E-03     160.895E-03    -649.470E-03     161.298E-03    -546.028E-03     160.895E-03     575.991E-03     667.923E-03    -333.032E-03    -333.922E-03    -333.703E-03     667.916E-03    -333.244E-03     1.27377E-03    -25.9916E+06    -30.5727E+06    -42.8787E+06    -32.5921E+06    -36.2783E+06    -30.5727E+06     20.3977E+03         76.2897
             251    -5.26794E-06     153.030E-03     187.442E-03     141.497E-03    -570.762E-03     138.882E-03    -522.202E-03     141.497E-03     355.777E-03     670.614E-03    -334.217E-03    -335.356E-03    -335.132E-03     670.602E-03    -334.429E-03    -622.479E-06    -20.9271E+06    -29.9036E+06    -41.0520E+06    -27.3986E+06    -34.5805E+06    -29.9036E+06     62.1133E+03         76.3361
             252     6.21173E-06     151.068E-03     155.224E-03     121.331E-03    -526.236E-03     135.565E-03    -517.402E-03     132.155E-03     120.660E-03     669.791E-03    -333.338E-03    -335.837E-03    -335.827E-03     669.781E-03    -333.338E-03    -1.38886E-03    -14.4130E+06    -23.5398E+06    -36.1196E+06    -23.1171E+06    -28.6614E+06    -22.2937E+06     1.16409E+06         76.3569
             253    -3.49370E-06     149.115E-03     174.201E-03     160.278E-03    -591.361E-03     151.724E-03    -582.807E-03     174.201E-03    -97.7952E-03     668.111E-03    -332.442E-03    -335.056E-03    -334.009E-03     668.106E-03    -333.483E-03     73.4872E-06    -10.1484E+06    -19.5231E+06    -32.4087E+06    -18.5425E+06    -25.2607E+06    -18.2771E+06     66.7874E+03         76.3345
             254     1.86147E-06     147.162E-03     200.318E-03     170.215E-03    -634.628E-03     176.961E-03    -614.371E-03     173.314E-03    -255.762E-03     668.877E-03    -333.159E-03    -335.195E-03    -334.149E-03     668.872E-03    -334.200E-03     58.8701E-06    -7.93061E+06    -17.3360E+06    -30.6853E+06     -16.977E+06    -22.9157E+06    -16.0593E+06     734.398E+03         76.3240
             255    -363.665E-09     145.205E-03     225.104E-03     172.334E-03    -667.685E-03     197.109E-03    -639.690E-03     172.334E-03    -310.658E-03     671.111E-03    -334.522E-03    -336.476E-03    -336.472E-03     671.107E-03    -334.522E-03     844.454E-06    -8.70540E+06    -19.8873E+06    -31.8682E+06    -17.7170E+06    -24.1334E+06    -18.6106E+06    -1.50589E+06         76.3985
             256     1.06648E-06     143.237E-03     231.049E-03     175.291E-03    -682.893E-03     198.611E-03    -650.454E-03     175.291E-03    -338.180E-03     671.090E-03    -334.629E-03    -336.807E-03    -335.584E-03     671.087E-03    -335.848E-03     618.376E-06    -7.93616E+06    -19.6888E+06    -31.3981E+06    -16.8338E+06    -24.3479E+06    -17.8413E+06     738.294E+03         76.4922
             257    -2.74578E-06     141.271E-03     217.424E-03     168.880E-03    -672.125E-03     200.986E-03    -655.687E-03     168.880E-03    -156.315E-03     671.342E-03    -334.984E-03    -336.357E-03    -334.978E-03     671.337E-03    -336.357E-03    -469.187E-06    -4.05654E+06    -14.3912E+06    -26.5145E+06    -13.0011E+06    -19.4173E+06    -12.5438E+06     502.914E+03         76.5273
             258     2.92979E-06     139.308E-03     258.022E-03     173.747E-03    -727.993E-03     221.369E-03    -691.341E-03     173.747E-03     285.749E-03     671.421E-03    -335.229E-03    -335.442E-03    -335.225E-03     671.417E-03    -335.442E-03    -1.14346E-03    -2.24286E+06    -14.1690E+06    -26.8276E+06    -13.4038E+06    -19.1056E+06    -10.7301E+06     384.384E+03         76.5551
             259    -2.93882E-06     137.360E-03     424.188E-03     163.215E-03    -889.153E-03     242.440E-03    -707.405E-03     163.215E-03     873.693E-03     670.981E-03    -334.994E-03    -335.460E-03    -335.399E-03     670.979E-03    -335.053E-03    -111.467E-06    -655.522E+03    -12.9013E+06    -24.8096E+06    -11.7921E+06    -17.1119E+06    -9.46244E+06     535.807E+03         76.6364
             260     3.29456E-06     135.411E-03     741.705E-03     151.791E-03        -1.19495     252.256E-03    -705.498E-03     151.791E-03         1.66726     670.925E-03    -333.288E-03    -337.457E-03    -337.456E-03     670.924E-03    -333.288E-03    -1.33223E-03     647.589E+03    -10.2352E+06    -17.5784E+06    -4.73796E+06    -14.2687E+06    -8.15933E+06    -350.466E+03         76.7749
             261     1.76328E-06     133.483E-03         1.15598     175.317E-03        -1.63478     261.258E-03    -740.057E-03     175.317E-03         2.60140     669.780E-03    -331.949E-03    -337.736E-03    -335.710E-03     669.780E-03    -333.974E-03     239.557E-06    -709.723E+03    -9.60936E+06    -17.0021E+06    -6.00674E+06    -13.7809E+06    -7.53353E+06     462.184E+03         76.9519
             262    -5.05918E-06     131.548E-03         1.56850     200.943E-03        -2.07859     265.651E-03    -775.742E-03     200.943E-03         3.49323     670.883E-03    -334.513E-03    -336.704E-03    -334.679E-03     670.883E-03    -336.539E-03    -407.636E-06      5.9795E+03    -11.1910E+06    -16.8318E+06    -6.01274E+06    -15.1862E+06    -6.81783E+06    -253.134E+03         77.2014
             263     5.31563E-06     129.596E-03         1.85148     232.826E-03        -2.40382     261.180E-03    -813.518E-03     232.826E-03         4.11730     674.841E-03    -335.124E-03    -339.862E-03    -339.862E-03     674.841E-03    -335.124E-03    -781.409E-06    -1.91993E+06    -10.9170E+06    -16.1006E+06    -7.93783E+06    -14.4559E+06    -6.54391E+06    -201.145E+03         77.4192
             264     1.07332E-06     127.649E-03         1.89527     265.765E-03        -2.49115     247.036E-03    -842.919E-03     265.765E-03         4.24884     675.021E-03    -334.700E-03    -339.965E-03    -339.965E-03     675.021E-03    -334.700E-03     59.2947E-06    -777.713E+03    -8.25259E+06    -13.1128E+06    -3.95828E+06    -12.7832E+06    -5.40169E+06     325.462E+03         77.2703
             265    -736.346E-09     125.683E-03         1.68194     276.988E-03        -2.28902     224.420E-03    -831.503E-03     276.988E-03         3.82725     672.262E-03    -335.284E-03    -336.825E-03    -335.978E-03     672.262E-03    -336.131E-03    -399.503E-06    -251.051E+03    -5.47937E+06    -11.4166E+06    -3.43890E+06    -11.0797E+06    -2.62847E+06     249.234E+03         76.7271
             266    -233.271E-09     123.734E-03         1.35481     286.032E-03        -1.98594     212.410E-03    -843.536E-03     286.032E-03         3.16735     671.236E-03    -334.945E-03    -336.222E-03    -334.945E-03     671.236E-03    -336.222E-03    -633.985E-06    -1.63448E+06    -6.54327E+06    -12.6158E+06    -4.34322E+06    -12.4385E+06    -4.01190E+06     141.486E+03         76.2990
             267    -489.882E-09     121.789E-03         1.10961     265.715E-03        -1.73627     211.209E-03    -837.871E-03     265.715E-03         2.64489     671.266E-03    -335.101E-03    -335.699E-03    -335.268E-03     671.265E-03    -335.532E-03    -820.441E-06    -2.00243E+06    -5.97827E+06    -12.0303E+06    -4.72398E+06    -11.8401E+06    -3.44690E+06     53.8525E+03         76.2746
             268     130.416E-09     119.833E-03         1.03291     234.423E-03        -1.62572     234.826E-03    -827.636E-03     234.423E-03         2.43688     672.445E-03    -335.055E-03    -336.739E-03    -336.738E-03     672.444E-03    -335.055E-03    -182.069E-06    -1.46590E+06    -3.29898E+06    -10.5194E+06    -1.49325E+06    -10.4920E+06    -3.29898E+06    -428.716E+03         76.4174
             269     2.94830E-06     117.871E-03         1.16210     218.407E-03        -1.74071     275.552E-03    -854.157E-03     218.407E-03         2.67319     673.843E-03    -334.219E-03    -339.267E-03    -339.266E-03     673.842E-03    -334.219E-03    -377.951E-06    -3.54879E+06    -4.29572E+06    -11.7887E+06    -3.93587E+06    -11.7600E+06    -3.93739E+06     347.545E+03         76.5522
             270     1.59957E-06     115.910E-03         1.40567     219.694E-03        -2.00427     284.964E-03    -883.566E-03     219.694E-03         3.20214     674.412E-03    -335.153E-03    -339.440E-03    -339.437E-03     674.410E-03    -335.153E-03     487.149E-06    -2.08878E+06    -2.54349E+06    -10.4337E+06    -2.58001E+06    -10.3972E+06    -2.08878E+06     217.163E+03         76.6217
             271    -852.541E-09     113.942E-03         1.70589     219.321E-03        -2.30907     275.180E-03    -878.358E-03     219.321E-03         3.84368     674.294E-03    -336.714E-03    -337.792E-03    -337.467E-03     674.292E-03    -337.037E-03     360.015E-06    -2.34333E+06    -2.50308E+06    -11.3442E+06    -2.50875E+06    -11.2751E+06    -2.40670E+06    -751.371E+03         76.5786
             272     461.267E-09     111.986E-03         1.95940     223.601E-03        -2.56046     263.966E-03    -865.026E-03     223.601E-03         4.37634     673.192E-03    -335.360E-03    -337.845E-03    -337.521E-03     673.191E-03    -335.683E-03    -1.21145E-03    -3.52083E+06    -5.20895E+06    -13.2269E+06    -5.57735E+06    -12.7951E+06    -3.58420E+06     225.348E+03         76.5138
             273     2.37279E-06     110.026E-03         2.01994     261.556E-03        -2.67213     244.057E-03    -896.241E-03     261.556E-03         4.55138     671.095E-03    -333.555E-03    -337.215E-03    -335.717E-03     671.094E-03    -335.053E-03    -576.146E-06     982.040E+03    -4.04113E+06    -10.6142E+06    -1.01519E+06    -10.2418E+06    -2.41638E+06     704.112E+03         76.4821
             274     12.2096E-03     108.793E-03     274.577E-03     266.472E-03    -933.069E-03     274.516E-03    -933.008E-03     266.472E-03     7.50705E-03     684.918E-03    -331.686E-03    -354.030E-03    -338.951E-03     669.839E-03    -331.686E-03     237.391E-03     13.0664E+06     642.234E+03    -11.7803E+06     211.068E+03    -199.482E+03     1.91672E+06    -459.538E+03         93.4064
             275     11.4825E-03     108.225E-03     277.888E-03     267.148E-03    -939.391E-03     277.770E-03    -939.273E-03     267.148E-03    -1.32419E-03     683.198E-03    -331.290E-03    -353.084E-03    -336.172E-03     666.285E-03    -331.290E-03     257.378E-03     12.0739E+06     807.393E+03    -10.2240E+06    -462.757E+03     1.03820E+06     2.08188E+06     72.4734E+03         90.5929
             276     10.7698E-03     107.901E-03     280.422E-03     267.500E-03    -945.029E-03     280.313E-03    -944.920E-03     267.500E-03    -1.94594E-03     669.770E-03    -331.831E-03    -340.929E-03    -329.543E-03     658.383E-03    -331.831E-03     212.964E-03     8.22859E+06     116.220E+03    -10.8882E+06    -813.768E+03    -2.43831E+06     708.647E+03     531.093E+03         87.9122
             277     10.0526E-03     107.509E-03     281.031E-03     267.441E-03    -948.262E-03     280.981E-03    -948.212E-03     267.441E-03     11.4642E-03     668.173E-03    -331.378E-03    -338.962E-03    -328.073E-03     657.284E-03    -331.378E-03     207.585E-03     8.67913E+06    -506.631E+03    -8.62714E+06    -271.298E+03    -269.134E+03     85.7969E+03    -77.5044E+03         85.9008
             278     9.31772E-03     107.236E-03     281.541E-03     267.092E-03    -949.612E-03     281.526E-03    -949.596E-03     267.092E-03     5.78866E-03     663.358E-03    -331.494E-03    -334.234E-03    -325.077E-03     654.671E-03    -331.964E-03     185.279E-03     9.95601E+06    -498.205E+03    -4.79164E+06     598.213E+03     4.56616E+06    -498.205E+03     340.483E+03         84.5599
             279     8.59615E-03     107.013E-03     280.201E-03     266.568E-03    -948.328E-03     280.138E-03    -948.265E-03     266.568E-03    -6.51171E-03     661.496E-03    -330.304E-03    -331.588E-03    -322.626E-03     653.818E-03    -331.588E-03     173.700E-03     9.26052E+06     861.142E+03    -3.64803E+06     1.24251E+06     5.22626E+06     4.85935E+03    -24.7957E+03         83.6142
             280     7.87863E-03     106.777E-03     277.122E-03     266.148E-03    -946.031E-03     276.730E-03    -945.639E-03     266.148E-03     17.6189E-03     661.709E-03    -328.645E-03    -330.248E-03    -322.212E-03     655.276E-03    -330.248E-03     158.937E-03     6.41468E+06     1.09238E+06    -3.66627E+06     544.014E+03     2.99438E+06     302.402E+03    -387.551E+03         82.8049
             281     7.17709E-03     106.476E-03     275.384E-03     265.823E-03    -944.901E-03     274.517E-03    -944.034E-03     265.823E-03    -6.82488E-03     655.741E-03    -327.810E-03    -329.697E-03    -322.617E-03     650.547E-03    -329.697E-03     142.318E-03     5.17341E+06    -78.6792E+03    -4.15145E+06     449.855E+03     920.335E+03    -426.913E+03    -1.20211E+06         82.0311
             282     6.44982E-03     106.389E-03     274.576E-03     265.390E-03    -944.785E-03     272.386E-03    -942.594E-03     265.390E-03     28.0174E-03     653.165E-03    -324.808E-03    -330.015E-03    -321.042E-03     649.399E-03    -330.015E-03     120.454E-03     6.84168E+06     537.301E+03    -5.47682E+06     1.12125E+06     740.967E+03     39.9478E+03    -1.67294E+06         81.1876
             283     5.73217E-03     106.300E-03     274.016E-03     264.649E-03    -944.427E-03     270.023E-03    -940.818E-03     265.032E-03    -4.74842E-03     654.020E-03    -323.976E-03    -330.845E-03    -321.528E-03     651.571E-03    -330.845E-03     97.1521E-03     6.39186E+06     2.05316E+06    -4.64360E+06     1.54298E+06     843.527E+03     1.41491E+06    -55.6385E+03         80.2607
             284     5.01915E-03     106.148E-03     276.258E-03     264.368E-03    -946.292E-03     270.556E-03    -940.973E-03     264.752E-03     21.8205E-03     653.778E-03    -324.642E-03    -330.729E-03    -323.164E-03     652.300E-03    -330.729E-03     75.0862E-03     4.91134E+06     2.38719E+06    -1.50321E+06     1.84431E+06     1.95820E+06     1.99281E+06     627.093E+03         79.3594
             285     4.29738E-03     106.078E-03     277.718E-03     264.131E-03    -947.289E-03     270.645E-03    -940.217E-03     264.131E-03    -3.63239E-03     655.808E-03    -324.915E-03    -330.490E-03    -324.157E-03     655.051E-03    -330.490E-03     53.5576E-03     3.36377E+06     1.70630E+06    -2.86357E+06     1.23126E+06    -1.50317E+06     2.47841E+06    -3.56588E+03         78.5487
             286     3.57882E-03     106.071E-03     280.282E-03     263.010E-03    -947.798E-03     269.794E-03    -937.310E-03     263.010E-03     32.6971E-03     657.615E-03    -327.558E-03    -330.876E-03    -327.217E-03     657.274E-03    -330.876E-03     35.7574E-03     3.05627E+06     1.68750E+06    -5.17001E+06     927.706E+03    -4.41022E+06     3.05627E+06     265.229E+03         77.8578
             287     2.86467E-03     106.084E-03     287.342E-03     262.081E-03    -953.218E-03     263.584E-03    -929.459E-03     262.081E-03    -72.6039E-03     658.663E-03    -328.928E-03    -331.699E-03    -328.800E-03     658.535E-03    -331.699E-03     21.5577E-03     2.34721E+06     691.149E+03    -5.63534E+06     231.447E+03    -5.17564E+06     2.34721E+06     231.735E+03         77.2823
             288     2.14749E-03     106.112E-03     332.447E-03     261.154E-03    -999.112E-03     264.818E-03    -931.483E-03     261.154E-03     160.774E-03     660.531E-03    -329.482E-03    -332.406E-03    -329.444E-03     660.493E-03    -332.406E-03     11.4751E-03     648.901E+03    -1.66593E+06    -8.06735E+06    -2.06751E+06    -7.66577E+06     648.901E+03    -556.618E+03         76.8129
             289     1.43028E-03     106.134E-03     478.375E-03     261.074E-03        -1.14692     258.632E-03    -927.178E-03     261.074E-03    -347.854E-03     665.537E-03    -332.111E-03    -333.690E-03    -332.117E-03     665.527E-03    -333.674E-03     5.22636E-03     734.904E+03    -1.65046E+06    -8.16536E+06    -1.98228E+06    -7.65199E+06     553.356E+03    -782.700E+03         76.5025
             290     713.143E-06     106.131E-03         1.03651     285.795E-03        -1.73213     237.573E-03    -933.194E-03     285.795E-03         1.04330     671.007E-03    -334.502E-03    -336.507E-03    -336.166E-03     671.006E-03    -334.842E-03     1.20377E-03     796.499E+03    -4.11858E+06    -9.95577E+06    -2.18468E+06    -9.53179E+06    -1.56139E+06    -692.795E+03         76.3858
             291     12.1965E-03     106.808E-03     275.367E-03     271.465E-03    -948.531E-03     275.295E-03    -948.459E-03     271.465E-03     11.4130E-03     684.352E-03    -331.667E-03    -353.770E-03    -338.735E-03     669.317E-03    -331.667E-03     236.999E-03     14.7827E+06     1.00553E+06    -12.6892E+06     1.89686E+06    -1.21648E+06     2.41867E+06    -228.602E+03         93.6334
             292     11.4799E-03     106.231E-03     278.658E-03     272.057E-03    -954.490E-03     278.494E-03    -954.326E-03     272.057E-03    -2.14394E-03     685.490E-03    -331.381E-03    -355.742E-03    -338.852E-03     668.600E-03    -331.381E-03     257.789E-03     12.5264E+06    -153.694E+03    -12.1033E+06     686.844E+03    -1.67690E+06     1.25945E+06     446.019E+03         90.7719
             293     10.7774E-03     105.876E-03     281.316E-03     272.499E-03    -959.005E-03     281.172E-03    -958.861E-03     272.499E-03    -4.20615E-03     670.861E-03    -331.794E-03    -342.146E-03    -330.758E-03     659.473E-03    -331.794E-03     213.179E-03     9.67501E+06     501.773E+03    -8.48996E+06    -396.582E+03     989.201E+03     1.09420E+06     853.519E+03         88.0273
             294     10.0589E-03     105.504E-03     282.099E-03     272.772E-03    -960.645E-03     282.048E-03    -960.593E-03     272.772E-03     8.95249E-03     668.175E-03    -331.249E-03    -338.354E-03    -327.307E-03     657.128E-03    -331.249E-03     209.122E-03     8.49713E+06     820.224E+03    -8.06441E+06    -533.731E+03     356.751E+03     1.42992E+06    -887.811E+03         85.9504
             295     9.31451E-03     105.266E-03     282.875E-03     272.898E-03    -962.487E-03     282.865E-03    -962.477E-03     272.898E-03    -3.09637E-03     663.489E-03    -331.429E-03    -333.981E-03    -324.602E-03     654.570E-03    -331.889E-03     187.700E-03     9.40512E+06    -32.7158E+03    -7.29152E+06    -897.971E+03     2.99429E+06    -15.4458E+03    -228.789E+03         84.5548
             296     8.59974E-03     105.015E-03     283.787E-03     272.912E-03    -964.732E-03     283.754E-03    -964.699E-03     272.912E-03    -8.95787E-03     661.103E-03    -330.199E-03    -331.481E-03    -322.388E-03     653.292E-03    -331.481E-03     175.128E-03     9.23340E+06    -231.764E+03    -5.04631E+06    -1.16591E+06     5.75102E+06    -629.785E+03     661.649E+03         83.5807
             297     7.88021E-03     104.790E-03     283.134E-03     273.057E-03    -965.102E-03     282.916E-03    -964.884E-03     273.057E-03     12.3000E-03     661.422E-03    -328.854E-03    -330.117E-03    -322.334E-03     654.902E-03    -330.117E-03     159.995E-03     7.39506E+06    -446.436E+03    -4.75301E+06    -970.884E+03     4.71668E+06    -1.55019E+06    -1.29021E+06         82.7689
             298     7.17631E-03     104.495E-03     280.045E-03     273.376E-03    -963.128E-03     279.432E-03    -962.515E-03     273.376E-03    -11.9549E-03     655.993E-03    -328.303E-03    -329.699E-03    -323.052E-03     650.741E-03    -329.699E-03     143.145E-03     7.19752E+06    -755.016E+03    -6.13221E+06    -342.675E+03     1.96440E+06    -1.31143E+06    -2.01401E+06         81.9967
             299     6.45663E-03     104.388E-03     277.424E-03     273.703E-03    -961.630E-03     275.916E-03    -960.122E-03     273.703E-03     18.1153E-03     653.550E-03    -325.159E-03    -329.950E-03    -321.328E-03     649.719E-03    -329.950E-03     121.586E-03     6.05242E+06     553.341E+03    -7.18203E+06     242.310E+03    -1.52123E+06     702.654E+03    -1.19519E+06         81.1456
             300     5.73256E-03     104.299E-03     275.955E-03     273.362E-03    -960.930E-03     272.796E-03    -958.614E-03     274.205E-03    -4.24254E-03     653.871E-03    -323.909E-03    -330.703E-03    -321.416E-03     651.378E-03    -330.703E-03     97.9546E-03     4.05650E+06     438.331E+03    -6.57643E+06    -818.367E+03    -2.31023E+06     1.04699E+06    -503.325E+03         80.1860
             301     5.01640E-03     104.199E-03     277.717E-03     272.159E-03    -963.566E-03     271.953E-03    -960.659E-03     275.016E-03     7.02364E-03     653.677E-03    -324.282E-03    -330.745E-03    -322.781E-03     652.175E-03    -330.745E-03     75.7482E-03     3.58997E+06     128.062E+03    -4.15940E+06    -1.33351E+06     824.329E+03     67.8061E+03     337.667E+03         79.2254
             302     4.29518E-03     104.137E-03     279.408E-03     271.251E-03    -964.904E-03     271.497E-03    -961.711E-03     275.969E-03     5.50968E-03     656.169E-03    -324.877E-03    -330.560E-03    -324.054E-03     655.346E-03    -330.560E-03     56.0337E-03     2.21426E+06    -126.261E+03    -3.31711E+06    -1.47916E+06     526.118E+03    -276.059E+03     635.128E+03         78.3718
             303     3.57892E-03     104.126E-03     281.471E-03     273.952E-03    -968.263E-03     274.759E-03    -964.256E-03     276.656E-03     15.6788E-03     657.482E-03    -327.133E-03    -330.926E-03    -326.732E-03     657.081E-03    -330.926E-03     38.7095E-03     632.562E+03    -1.68238E+06    -6.01520E+06    -2.40999E+06    -5.28759E+06     632.562E+03     4.23684E+03         77.6783
             304     2.86072E-03     104.137E-03     287.246E-03     276.534E-03    -974.859E-03     278.305E-03    -965.918E-03     276.534E-03    -46.2942E-03     658.607E-03    -328.577E-03    -332.016E-03    -328.428E-03     658.458E-03    -332.016E-03     23.2371E-03     981.903E+03    -2.33206E+06    -6.42489E+06    -2.25528E+06    -5.24050E+06    -279.274E+03    -291.303E+03         77.1327
             305     2.14365E-03     104.175E-03     309.139E-03     274.776E-03    -996.835E-03     282.759E-03    -970.454E-03     274.776E-03     93.9549E-03     661.801E-03    -330.198E-03    -333.060E-03    -330.157E-03     661.760E-03    -333.060E-03     11.5086E-03     591.148E+03    -2.55698E+06    -7.12264E+06    -2.10484E+06    -5.45480E+06    -1.52883E+06    -124.106E+03         76.7099
             306     1.42710E-03     104.184E-03     367.317E-03     274.637E-03        -1.05640     269.293E-03    -958.377E-03     274.637E-03    -227.093E-03     666.839E-03    -332.765E-03    -334.299E-03    -332.758E-03     666.832E-03    -334.299E-03     3.58198E-03    -777.008E+03    -2.82630E+06    -9.40064E+06    -2.58222E+06    -8.60436E+06    -1.81736E+06    -405.055E+03         76.4412
             307     714.706E-06     104.171E-03     653.065E-03     312.074E-03        -1.38185     239.792E-03    -968.575E-03     312.074E-03     673.538E-03     671.958E-03    -334.616E-03    -337.336E-03    -336.128E-03     671.957E-03    -335.824E-03     297.641E-06    -447.633E+03    -4.05853E+06    -11.6111E+06    -3.02440E+06    -10.2873E+06    -2.80552E+06    -27.9769E+03         76.3525
             308     12.2084E-03     104.805E-03     285.646E-03     276.494E-03    -975.150E-03     285.598E-03    -975.102E-03     276.494E-03     6.68242E-03     685.431E-03    -331.504E-03    -355.008E-03    -340.407E-03     670.831E-03    -331.504E-03     234.293E-03     15.0368E+06     1.25790E+06    -14.4993E+06     2.65077E+06    -2.39952E+06     1.54417E+06     570.557E+03         93.8805
             309     11.4817E-03     104.255E-03     283.748E-03     277.339E-03    -974.286E-03     283.595E-03    -974.133E-03     277.339E-03    -6.41037E-03     685.199E-03    -331.250E-03    -355.375E-03    -339.048E-03     668.872E-03    -331.250E-03     253.609E-03     11.1823E+06    -1.48009E+06    -13.8834E+06    -1.49616E+06    -1.49129E+06    -1.19381E+06     695.201E+03         90.9162
             310     10.7775E-03     103.903E-03     281.920E-03     278.390E-03    -973.241E-03     281.790E-03    -973.111E-03     278.390E-03    -12.6912E-03     668.448E-03    -331.683E-03    -340.095E-03    -328.870E-03     657.223E-03    -331.683E-03     211.097E-03     10.4676E+06    -1.13373E+06    -6.77476E+06    -270.241E+03     3.96306E+06    -1.13373E+06     39.9936E+03         88.0633
             311     10.0617E-03     103.508E-03     282.077E-03     279.444E-03    -974.645E-03     282.055E-03    -974.623E-03     279.444E-03     1.52818E-03     666.096E-03    -330.935E-03    -336.957E-03    -325.892E-03     655.031E-03    -330.935E-03     208.944E-03     6.90643E+06     1.07840E+06    -6.06384E+06     247.515E+03     577.806E+03     1.09567E+06    -238.968E+03         85.9520
             312     9.31740E-03     103.263E-03     283.536E-03     278.669E-03    -975.743E-03     281.811E-03    -975.714E-03     280.366E-03    -10.1550E-03     662.553E-03    -330.851E-03    -333.836E-03    -324.037E-03     653.654E-03    -331.751E-03     187.333E-03     7.09533E+06     2.12118E+06    -5.83385E+06    -302.616E+03     1.81452E+06     1.87076E+06    -436.709E+03         84.5460
             313     8.59231E-03     103.065E-03     284.062E-03     276.611E-03    -974.826E-03     279.167E-03    -974.784E-03     281.464E-03    -13.7057E-03     661.166E-03    -330.366E-03    -331.562E-03    -322.482E-03     653.282E-03    -331.562E-03     176.028E-03     10.4234E+06     1.04098E+06    -2.52469E+06     995.617E+03     7.56884E+06     375.261E+03    -712.892E+03         83.5391
             314     7.88634E-03     102.769E-03     286.721E-03     274.692E-03    -976.617E-03     278.248E-03    -976.571E-03     283.118E-03     1.60174E-03     661.396E-03    -329.026E-03    -330.182E-03    -322.372E-03     654.742E-03    -330.182E-03     161.584E-03     9.32398E+06     521.768E+03    -2.48642E+06      948.37E+03     6.28722E+06     123.747E+03    -890.194E+03         82.7211
             315     7.17374E-03     102.524E-03     288.593E-03     276.578E-03    -980.840E-03     279.923E-03    -980.526E-03     284.934E-03    -17.5567E-03     656.147E-03    -327.885E-03    -329.790E-03    -322.605E-03     650.867E-03    -329.790E-03     143.506E-03     6.16844E+06     637.189E+03    -5.04753E+06    -253.760E+03     22.1238E+03     1.98974E+06    -514.690E+03         81.9654
             316     6.44979E-03     102.418E-03     288.648E-03     280.808E-03    -985.182E-03     282.414E-03    -984.560E-03     286.420E-03     1.65324E-03     653.969E-03    -325.034E-03    -329.899E-03    -321.131E-03     650.067E-03    -329.899E-03     122.838E-03     4.25370E+06     223.123E+03    -6.61275E+06    -924.625E+03    -3.62241E+06     2.41111E+06    -47.4411E+03         81.1263
             317     5.73824E-03     102.304E-03     289.030E-03     283.476E-03    -989.925E-03     283.703E-03    -988.813E-03     287.691E-03    -17.2970E-03     653.244E-03    -323.335E-03    -330.988E-03    -320.721E-03     650.631E-03    -330.988E-03     100.219E-03     3.40174E+06    -346.140E+03    -6.45896E+06    -1.35339E+06    -2.53926E+06     489.293E+03     47.6161E+03         80.1780
             318     5.01581E-03     102.230E-03     289.010E-03     284.704E-03    -993.451E-03     283.543E-03    -992.291E-03     289.010E-03    -17.1264E-03     653.917E-03    -323.902E-03    -331.372E-03    -322.310E-03     652.325E-03    -331.372E-03     77.9400E-03     2.20060E+06    -994.736E+03    -5.10180E+06    -1.94916E+06    -952.040E+03    -994.736E+03     229.725E+03         79.2254
             319     4.28966E-03     102.164E-03     290.386E-03     284.583E-03    -995.331E-03     283.960E-03    -994.709E-03     290.386E-03     5.10762E-03     657.747E-03    -325.600E-03    -331.200E-03    -324.748E-03     656.895E-03    -331.200E-03     56.9097E-03     2.35632E+06    -1.63545E+06    -3.45177E+06    -2.34527E+06     1.22979E+06    -1.61542E+06     513.731E+03         78.3911
             320     3.57402E-03     102.150E-03     293.556E-03     288.032E-03        -1.00097     289.733E-03        -1.00033     291.218E-03    -13.0157E-03     659.289E-03    -328.428E-03    -331.642E-03    -328.041E-03     658.902E-03    -331.642E-03     37.8637E-03     642.157E+03    -2.57760E+06    -6.18516E+06    -2.65299E+06    -3.96849E+06    -1.49912E+06    -30.9784E+03         77.7289
             321     2.85898E-03     102.164E-03     294.059E-03     287.732E-03    -999.944E-03     288.470E-03    -998.305E-03     291.682E-03    -10.7502E-03     660.565E-03    -330.057E-03    -332.606E-03    -329.926E-03     660.434E-03    -332.606E-03     21.4184E-03     -404.24E+03    -3.42368E+06    -7.58924E+06    -3.07799E+06    -6.37872E+06    -1.96045E+06    -845.177E+03         77.2186
             322     2.14435E-03     102.191E-03     300.880E-03     287.868E-03        -1.00799     292.336E-03        -1.00339     291.818E-03     26.7371E-03     663.892E-03    -331.682E-03    -333.559E-03    -331.652E-03     663.862E-03    -333.559E-03     9.80826E-03     1.52103E+06    -1.87403E+06    -6.32268E+06    -1.26161E+06    -4.81512E+06    -598.952E+03    -256.454E+03         76.8137
             323     1.43222E-03     102.212E-03     313.731E-03     287.146E-03        -1.01951     288.129E-03    -999.543E-03     292.780E-03    -85.4586E-03     668.288E-03    -333.858E-03    -334.641E-03    -333.851E-03     668.281E-03    -334.641E-03     3.84684E-03    -75.2963E+03    -2.96836E+06    -10.1870E+06    -2.42742E+06    -8.94291E+06    -1.86031E+06     458.938E+03         76.5260
             324     714.904E-06     102.203E-03     402.714E-03     289.512E-03        -1.11142     254.253E-03        -1.00730     333.853E-03     240.819E-03     671.930E-03    -335.393E-03    -336.470E-03    -335.391E-03     671.927E-03    -336.470E-03     631.548E-06    -1.79428E+06    -5.37661E+06    -13.7058E+06    -5.25502E+06    -11.4981E+06    -4.12361E+06     37.7402E+03         76.4007
             325     12.2150E-03     102.790E-03     290.298E-03     281.582E-03    -988.902E-03     288.596E-03    -988.831E-03     283.213E-03     2.63942E-03     687.460E-03    -331.333E-03    -356.633E-03    -341.666E-03     672.493E-03    -331.333E-03     236.928E-03     12.0087E+06     192.301E+03    -15.4813E+06    -1.31899E+06    -2.43992E+06     478.575E+03    -611.532E+03         94.0321
             326     11.4836E-03     102.281E-03     289.725E-03     282.901E-03    -990.848E-03     287.838E-03    -990.678E-03     284.618E-03    -7.64837E-03     685.050E-03    -331.108E-03    -354.635E-03    -337.870E-03     668.285E-03    -331.108E-03     256.602E-03     11.0978E+06    -100.899E+03    -10.5905E+06    -415.248E+03     636.261E+03     185.376E+03    -156.868E+03         90.9669
             327     10.7722E-03     101.939E-03     289.459E-03     283.997E-03    -993.073E-03     287.108E-03    -992.935E-03     286.210E-03    -15.2221E-03     667.573E-03    -331.933E-03    -339.707E-03    -328.337E-03     656.203E-03    -331.933E-03     212.315E-03     9.56984E+06    -855.258E+03    -5.37051E+06     218.740E+03     3.98059E+06    -855.258E+03    -288.271E+03         88.0316
             328     10.0642E-03     101.515E-03     289.161E-03     284.318E-03    -993.294E-03     285.598E-03    -993.277E-03     287.864E-03    -883.750E-06     664.972E-03    -331.166E-03    -337.162E-03    -326.017E-03     653.827E-03    -331.166E-03     209.540E-03     6.85855E+06    -268.053E+03    -5.16157E+06     239.764E+03     1.45721E+06    -268.053E+03     296.871E+03         85.8943
             329     9.31616E-03     101.280E-03     289.840E-03     282.334E-03    -992.406E-03     282.572E-03    -992.370E-03     289.565E-03    -12.4430E-03     662.274E-03    -330.275E-03    -333.867E-03    -323.478E-03     653.360E-03    -331.750E-03     187.414E-03     6.13383E+06    -613.571E+03    -4.70999E+06     579.030E+03     1.11250E+06    -881.264E+03    -734.792E+03         84.4795
             330     8.59263E-03     101.078E-03     291.538E-03     280.328E-03    -993.020E-03     280.292E-03    -992.983E-03     291.538E-03    -12.4823E-03     660.472E-03    -329.581E-03    -331.603E-03    -321.712E-03     652.602E-03    -331.603E-03     175.713E-03     6.98995E+06    -1.51789E+06    -3.46481E+06    -247.252E+03     4.43997E+06    -2.18546E+06    -1.59993E+06         83.4503
             331     7.88454E-03     100.764E-03     294.006E-03     279.862E-03    -996.568E-03     279.853E-03    -996.559E-03     294.006E-03    -3.83836E-03     660.218E-03    -328.615E-03    -330.551E-03    -321.916E-03     653.519E-03    -330.551E-03     162.054E-03     7.40466E+06    -954.824E+03    -3.07494E+06    -292.198E+03     5.02179E+06    -1.35470E+06     560.168E+03         82.6214
             332     7.17087E-03     100.563E-03     296.512E-03     282.468E-03        -1.00211     282.394E-03        -1.00204     296.512E-03    -13.2143E-03     656.621E-03    -327.764E-03    -330.058E-03    -322.341E-03     651.199E-03    -330.058E-03     145.433E-03     5.90175E+06    -603.850E+03    -2.69806E+06    -244.110E+03     3.11609E+06    -272.144E+03     945.904E+03         81.8973
             333     6.45288E-03     100.418E-03     298.617E-03     287.334E-03        -1.00894     287.141E-03        -1.00875     298.617E-03     4.63202E-03     653.267E-03    -324.501E-03    -329.960E-03    -320.482E-03     649.248E-03    -329.960E-03     124.588E-03     3.16192E+06     132.485E+03    -4.47816E+06    -350.339E+03    -2.33592E+06     1.50250E+06    -352.524E+03         81.1253
             334     5.72892E-03     100.307E-03     300.349E-03     291.559E-03        -1.01531     291.140E-03        -1.01489     300.349E-03    -3.43434E-03     653.325E-03    -323.332E-03    -331.506E-03    -320.682E-03     650.674E-03    -331.506E-03     100.760E-03     3.64624E+06     654.153E+03    -5.73243E+06    -943.734E+03    -2.18076E+06     1.69246E+06    -74.9576E+03         80.2429
             335     5.01250E-03     100.234E-03     301.668E-03     296.666E-03        -1.02174     296.333E-03        -1.02140     301.668E-03    -11.3632E-03     656.223E-03    -325.718E-03    -331.612E-03    -324.199E-03     654.704E-03    -331.612E-03     75.9234E-03     2.87097E+06     105.987E+03    -4.39417E+06    -1.40297E+06    -410.907E+03     396.665E+03     136.500E+03         79.3093
             336     4.29122E-03     100.191E-03     302.540E-03     299.653E-03        -1.02579     299.295E-03        -1.02543     302.540E-03     24.0954E-03     659.042E-03    -327.153E-03    -331.114E-03    -326.417E-03     658.305E-03    -331.114E-03     52.7363E-03     2.49522E+06    -1.70848E+06    -3.80592E+06    -1.54690E+06     261.262E+03    -1.73355E+06     384.883E+03         78.4695
             337     3.57494E-03     100.193E-03     305.001E-03     300.310E-03        -1.02896     301.148E-03        -1.02786     303.065E-03    -27.0926E-03     659.155E-03    -328.801E-03    -331.621E-03    -328.488E-03     658.841E-03    -331.621E-03     34.2880E-03     2.58516E+06    -1.67787E+06    -5.46526E+06    -1.14785E+06    -1.99200E+06    -1.41812E+06    -62.5222E+03         77.8079
             338     2.86023E-03     100.211E-03     308.237E-03     298.719E-03        -1.03070     300.423E-03        -1.02775     303.577E-03     26.8893E-03     659.682E-03    -329.643E-03    -332.510E-03    -329.527E-03     659.566E-03    -332.510E-03     20.5593E-03     1.50662E+06    -314.468E+03    -6.73636E+06    -323.993E+03    -6.43180E+06     1.21159E+06    -555.202E+03         77.2908
             339     2.14490E-03     100.249E-03     316.592E-03     299.748E-03        -1.04149     304.607E-03        -1.03345     303.698E-03    -37.7950E-03     662.825E-03    -330.455E-03    -333.464E-03    -330.420E-03     662.790E-03    -333.464E-03     11.1610E-03     582.169E+03    -1.52239E+06    -8.30008E+06    -1.96444E+06    -7.85803E+06     582.169E+03    -379.143E+03         76.8727
             340     1.42659E-03     100.263E-03     323.482E-03     300.229E-03        -1.04834     296.332E-03        -1.02682     305.863E-03     53.5390E-03     668.156E-03    -333.345E-03    -334.877E-03    -333.336E-03     668.147E-03    -334.877E-03     5.53087E-03    -508.147E+03    -3.45493E+06    -10.5921E+06    -3.80182E+06    -9.31895E+06    -1.43436E+06     281.914E+03         76.5763
             341     715.166E-06     100.249E-03     394.198E-03     302.980E-03        -1.12274     269.050E-03        -1.04194     347.321E-03    -165.164E-03     672.917E-03    -335.656E-03    -336.778E-03    -336.361E-03     672.913E-03    -336.069E-03     1.62197E-03    -632.187E+03    -4.31530E+06    -12.4643E+06    -3.40690E+06    -10.5561E+06    -3.44872E+06     226.220E+03         76.4461
             342     12.2131E-03     100.804E-03     290.410E-03     284.474E-03    -996.249E-03     284.397E-03    -996.172E-03     290.410E-03     1.56284E-03     685.959E-03    -331.380E-03    -354.900E-03    -339.789E-03     670.848E-03    -331.380E-03     237.850E-03     11.8890E+06    -102.853E+03    -11.8943E+06    -129.409E+03    -1.56775E+06     1.58906E+06     310.918E+03         93.9783
             343     11.4750E-03     100.283E-03     292.293E-03     284.571E-03        -1.00037     284.448E-03        -1.00025     292.293E-03    -3.08225E-03     683.683E-03    -331.372E-03    -353.059E-03    -336.187E-03     666.812E-03    -331.372E-03     256.998E-03     11.1364E+06    -281.474E+03    -9.52845E+06     233.023E+03    -316.961E+03     1.41044E+06    -964.713E+03         90.8945
             344     10.7737E-03     99.9453E-03     294.329E-03     284.279E-03        -1.00263     284.188E-03        -1.00254     294.329E-03    -8.45091E-03     668.527E-03    -332.580E-03    -339.781E-03    -328.333E-03     657.078E-03    -332.580E-03     213.163E-03     8.67063E+06     222.881E+03    -5.90510E+06     272.393E+03     2.49313E+06     222.881E+03    -100.790E+03         87.9642
             345     10.0574E-03     99.5575E-03     296.450E-03     284.716E-03        -1.00593     284.690E-03        -1.00591     296.450E-03     6.79147E-03     665.472E-03    -331.732E-03    -337.631E-03    -326.352E-03     654.194E-03    -331.732E-03     210.946E-03     8.36276E+06    -997.594E+03    -5.99958E+06    -153.163E+03     2.51635E+06    -997.594E+03     203.618E+03         85.8160
             346     9.31694E-03     99.2715E-03     298.483E-03     286.404E-03        -1.01149     286.378E-03        -1.01147     298.483E-03    -3.33980E-03     662.383E-03    -330.892E-03    -333.917E-03    -323.907E-03     653.252E-03    -331.772E-03     189.736E-03     7.36242E+06    -2.21950E+06    -6.55265E+06    -884.022E+03     1.69379E+06    -2.21950E+06    -473.575E+03         84.3839
             347     8.59435E-03     99.0803E-03     300.353E-03     288.089E-03        -1.01717     288.018E-03        -1.01710     300.353E-03     1.98663E-03     660.517E-03    -329.954E-03    -331.457E-03    -321.990E-03     652.553E-03    -331.457E-03     176.729E-03     6.32885E+06    -2.19601E+06    -5.21023E+06    -1.26087E+06     2.77937E+06    -2.59588E+06     1.00783E+06         83.3544
             348     7.88175E-03     98.8075E-03     302.130E-03     291.801E-03        -1.02358     291.738E-03        -1.02352     302.130E-03     6.80036E-03     659.573E-03    -327.891E-03    -330.505E-03    -321.284E-03     652.966E-03    -330.505E-03     160.807E-03     7.83277E+06    -2.43999E+06    -5.32060E+06    -1.57251E+06     4.48456E+06    -2.83986E+06     338.565E+03         82.5202
             349     7.16822E-03     98.5653E-03     303.693E-03     296.199E-03        -1.02959     296.294E-03        -1.02953     303.537E-03     1.85995E-03     656.997E-03    -326.940E-03    -330.164E-03    -321.673E-03     651.730E-03    -330.164E-03     143.200E-03     6.34813E+06    -3.41275E+06    -5.94506E+06    -1.91945E+06     2.77952E+06    -3.86974E+06    -376.784E+03         81.8054
             350     6.44685E-03     98.4121E-03     304.670E-03     298.494E-03        -1.03316     298.491E-03        -1.03300     304.514E-03     17.7748E-03     653.297E-03    -325.217E-03    -330.398E-03    -321.344E-03     649.424E-03    -330.398E-03     122.326E-03     1.92584E+06    -3.58898E+06    -5.77493E+06    -2.72428E+06    -712.477E+03    -4.00131E+06     449.049E+03         81.0861
             351     5.73431E-03     98.2860E-03     305.308E-03     299.782E-03        -1.03504     299.678E-03        -1.03493     305.308E-03     14.9308E-03     653.808E-03    -324.092E-03    -331.468E-03    -321.558E-03     651.273E-03    -331.468E-03     98.5342E-03     2.64749E+06    -3.22057E+06    -5.43559E+06    -2.70750E+06     92.8729E+03    -3.39404E+06    -541.895E+03         80.2620
             352     5.01839E-03     98.2207E-03     305.974E-03     302.041E-03        -1.03765     301.947E-03        -1.03755     305.974E-03    -7.01322E-03     656.818E-03    -325.635E-03    -330.926E-03    -324.180E-03     655.363E-03    -330.926E-03     74.6303E-03     3.80762E+06    -1.01155E+06    -7.03363E+06    -1.30849E+06    -1.99007E+06    -939.000E+03    -1.30468E+06         79.3495
             353     4.29371E-03     98.2065E-03     306.586E-03     303.996E-03        -1.03980     302.696E-03        -1.03850     306.586E-03     48.7525E-03     657.753E-03    -326.988E-03    -330.565E-03    -326.209E-03     656.975E-03    -330.565E-03     54.4337E-03     4.51319E+06      60.713E+03    -5.43633E+06    -415.627E+03    -482.461E+03     35.6506E+03    -1.09980E+06         78.5067
             354     3.57707E-03     98.2163E-03     310.087E-03     304.833E-03        -1.04465     303.683E-03        -1.04069     307.274E-03    -28.6021E-03     656.595E-03    -327.373E-03    -331.181E-03    -327.009E-03     656.231E-03    -331.181E-03     36.7669E-03     3.45236E+06    -878.058E+03    -4.67076E+06    -584.680E+03    -893.476E+03    -618.308E+03    -118.208E+03         77.8260
             355     2.85841E-03     98.2477E-03     316.899E-03     307.095E-03        -1.05344     305.158E-03        -1.04260     308.003E-03     59.3693E-03     657.871E-03    -328.182E-03    -332.245E-03    -328.050E-03     657.740E-03    -332.245E-03     21.8174E-03    -248.345E+03    -1.68524E+06    -8.67276E+06    -1.66482E+06    -8.06534E+06    -876.182E+03     328.904E+03         77.2643
             356     2.14065E-03     98.2817E-03     338.295E-03     307.887E-03        -1.07634     310.775E-03        -1.04882     307.887E-03    -86.2886E-03     662.521E-03    -330.267E-03    -333.431E-03    -330.232E-03     662.486E-03    -333.431E-03     10.7655E-03    -1.13967E+06    -2.15893E+06    -9.81245E+06    -2.72715E+06    -8.84451E+06    -1.53940E+06     87.6726E+03         76.8062
             357     1.42900E-03     98.2962E-03     380.739E-03     308.020E-03        -1.12064     305.528E-03        -1.04543     308.020E-03     163.294E-03     666.582E-03    -332.538E-03    -334.144E-03    -332.533E-03     666.577E-03    -334.144E-03     3.74554E-03    -242.958E+03    -2.06200E+06    -9.96361E+06    -2.60524E+06    -8.85387E+06    -809.457E+03    -235.139E+03         76.4876
             358     712.613E-06     98.2864E-03     569.254E-03     334.957E-03        -1.33876     282.015E-03        -1.05152     334.957E-03    -506.594E-03     671.628E-03    -334.698E-03    -336.609E-03    -336.197E-03     671.627E-03    -335.109E-03     721.651E-06    -147.920E+03    -2.35415E+06    -11.8592E+06    -2.74818E+06    -10.1255E+06    -1.48757E+06    -105.518E+03         76.3492
             359     12.2109E-03     98.8111E-03     298.538E-03     293.481E-03        -1.02182     294.198E-03        -1.02179     297.786E-03    -1.73408E-03     685.551E-03    -331.634E-03    -354.004E-03    -338.672E-03     670.219E-03    -331.634E-03     239.612E-03     13.4841E+06     1.25769E+06    -11.9432E+06     1.57973E+06    -1.73073E+06     2.94959E+06     503.752E+03         93.8168
             360     11.4850E-03     98.2992E-03     300.398E-03     293.093E-03        -1.02344     293.752E-03        -1.02340     299.702E-03     3.00016E-03     684.127E-03    -332.064E-03    -353.030E-03    -335.804E-03     666.901E-03    -332.064E-03     259.992E-03     12.6702E+06     1.51148E+06    -11.5983E+06     834.394E+03    -1.45441E+06     3.20339E+06     1.18308E+06         90.7950
             361     10.7719E-03     97.9670E-03     301.779E-03     293.201E-03        -1.02557     293.310E-03        -1.02554     301.642E-03    -3.63771E-03     670.032E-03    -333.243E-03    -339.765E-03    -328.089E-03     658.356E-03    -333.243E-03     215.518E-03     8.62002E+06     1.08500E+06    -7.11268E+06    -957.915E+03     2.46525E+06     1.08500E+06     1.06553E+06         87.9301
             362     10.0542E-03     97.5986E-03     303.525E-03     295.159E-03        -1.03071     295.208E-03        -1.03062     303.388E-03     12.3519E-03     666.815E-03    -332.033E-03    -337.900E-03    -326.578E-03     655.493E-03    -332.033E-03     211.535E-03     7.27527E+06     714.057E+03    -5.54659E+06    -974.370E+03     2.70305E+06     714.057E+03     287.733E+03         85.8141
             363     9.31379E-03     97.2770E-03     304.878E-03     298.215E-03        -1.03688     298.117E-03        -1.03670     304.803E-03     1.08213E-03     662.654E-03    -331.297E-03    -334.194E-03    -324.715E-03     653.578E-03    -331.700E-03     189.233E-03     8.30791E+06     405.014E+03    -6.51364E+06    -1.66533E+06     3.45960E+06     405.014E+03     1.29132E+06         84.3870
             364     8.59096E-03     97.0866E-03     307.736E-03     299.873E-03        -1.04283     301.561E-03        -1.04256     305.781E-03     8.88656E-03     661.208E-03    -330.856E-03    -331.556E-03    -323.014E-03     653.366E-03    -331.556E-03     175.519E-03     9.54705E+06    -80.2520E+03    -7.29634E+06    -1.88047E+06     4.13118E+06    -80.2520E+03     755.893E+03         83.3340
             365     7.88351E-03     96.8410E-03     309.281E-03     301.842E-03        -1.04649     304.417E-03        -1.04624     306.455E-03     12.5790E-03     660.332E-03    -328.482E-03    -330.168E-03    -321.964E-03     653.814E-03    -330.168E-03     159.839E-03     11.3503E+06    -1.14457E+06    -7.37921E+06    -809.625E+03     4.78067E+06    -1.14457E+06    -149.904E+03         82.4469
             366     7.17175E-03     96.6046E-03     308.303E-03     305.236E-03        -1.04895     306.529E-03        -1.04882     306.886E-03     1.69587E-03     657.242E-03    -327.198E-03    -329.806E-03    -322.058E-03     652.102E-03    -329.806E-03     141.509E-03     8.63692E+06    -1.03806E+06    -7.83993E+06    -846.583E+03     1.64357E+06    -1.03806E+06     435.391E+03         81.6773
             367     6.45296E-03     96.4378E-03     308.581E-03     306.728E-03        -1.05140     308.160E-03        -1.05133     307.076E-03     13.4560E-03     652.734E-03    -325.516E-03    -330.986E-03    -321.741E-03     648.960E-03    -330.986E-03     120.862E-03     5.69558E+06    -1.71473E+06    -6.87583E+06    -1.62146E+06     599.422E+03    -1.87294E+06     783.986E+03         80.9386
             368     5.73471E-03     96.3087E-03     309.109E-03     306.599E-03        -1.05295     308.571E-03        -1.05290     307.090E-03     8.79188E-03     652.694E-03    -322.787E-03    -331.915E-03    -320.215E-03     650.121E-03    -331.915E-03     99.3941E-03     5.68037E+06    -2.75107E+06    -5.95929E+06    -1.50400E+06     1.60141E+06    -3.12741E+06     335.666E+03         80.1513
             369     5.01546E-03     96.2488E-03     309.956E-03     306.181E-03        -1.05422     308.967E-03        -1.05400     306.944E-03    -17.7505E-03     656.440E-03    -323.704E-03    -330.873E-03    -322.142E-03     654.878E-03    -330.873E-03     77.4065E-03     4.30332E+06    -2.38283E+06    -8.40557E+06    -1.48762E+06    -2.39651E+06    -2.60095E+06    -1.16539E+06         79.3363
             370     4.28918E-03     96.2241E-03     312.128E-03     305.849E-03        -1.05600     308.902E-03        -1.05356     306.636E-03     54.2145E-03     657.853E-03    -326.753E-03    -330.326E-03    -325.906E-03     657.006E-03    -330.326E-03     56.8737E-03     4.23027E+06    -2.83740E+06    -7.67586E+06    -1.85829E+06    -1.58731E+06    -2.83740E+06    -1.09886E+06         78.5806
             371     3.57308E-03     96.2329E-03     317.440E-03     305.907E-03        -1.06056     309.900E-03        -1.05319     306.075E-03    -40.5732E-03     657.231E-03    -328.392E-03    -331.319E-03    -328.402E-03     656.843E-03    -330.921E-03     38.0075E-03     1.93189E+06    -2.36823E+06    -7.05341E+06    -1.85933E+06    -3.28019E+06    -2.35023E+06    -426.202E+03         77.8941
             372     2.85766E-03     96.2560E-03     327.710E-03     305.397E-03        -1.06957     308.079E-03        -1.04994     305.397E-03     81.1270E-03     658.579E-03    -329.511E-03    -332.119E-03    -329.777E-03     658.447E-03    -331.721E-03     21.6900E-03    -305.367E+03    -1.08493E+06    -8.88910E+06    -1.18184E+06    -8.03064E+06    -1.06693E+06     600.761E+03         77.2469
             373     2.14484E-03     96.2945E-03     356.697E-03     304.645E-03        -1.09784     307.646E-03        -1.04878     304.645E-03    -113.353E-03     661.870E-03    -330.697E-03    -332.456E-03    -330.668E-03     661.840E-03    -332.456E-03     9.68361E-03     436.654E+03    -541.302E+03    -9.56857E+06    -1.24027E+06    -7.99391E+06    -439.036E+03     757.271E+03         76.6927
             374     1.42798E-03     96.3150E-03     439.895E-03     304.089E-03        -1.17917     304.617E-03        -1.04390     304.089E-03     241.053E-03     664.684E-03    -331.901E-03    -332.970E-03    -331.962E-03     664.681E-03    -332.905E-03     2.85222E-03    -354.793E+03    -1.46371E+06    -10.7661E+06    -2.38332E+06    -8.93773E+06    -1.26354E+06     349.256E+03         76.3173
             375     715.865E-06     96.3137E-03     772.504E-03     319.440E-03        -1.52799     288.500E-03        -1.04398     319.440E-03    -712.778E-03     669.127E-03    -333.666E-03    -335.430E-03    -334.520E-03     669.126E-03    -334.574E-03     247.509E-06    -1.42338E+06    -4.31547E+06    -13.3607E+06    -3.42998E+06    -11.4520E+06    -4.21755E+06     -79.989E+03         76.1581
             376     12.2049E-03     96.8400E-03     306.389E-03     302.625E-03        -1.04637     303.363E-03        -1.04635     305.636E-03    -3.04874E-06     683.661E-03    -332.167E-03    -352.884E-03    -337.457E-03     668.234E-03    -332.167E-03     240.474E-03     10.7144E+06     752.542E+03    -13.6603E+06    -639.582E+03    -2.60702E+06     1.05320E+06     255.799E+03         93.6845
             377     11.4721E-03     96.3502E-03     309.372E-03     305.310E-03        -1.05272     307.321E-03        -1.05269     307.323E-03     10.7090E-03     685.161E-03    -332.777E-03    -353.642E-03    -336.552E-03     668.070E-03    -332.777E-03     258.749E-03     9.66171E+06    -301.976E+03    -12.8513E+06    -1.20343E+06    -2.01359E+06    -274.529E+03     1.49546E+06         90.7294
             378     10.7604E-03     96.0052E-03     311.533E-03     308.101E-03        -1.05898     310.861E-03        -1.05891     308.705E-03     116.084E-06     671.620E-03    -333.704E-03    -340.181E-03    -328.740E-03     660.179E-03    -333.704E-03     213.463E-03     6.54582E+06    -377.878E+03    -5.97104E+06    -1.29787E+06     2.14586E+06    -651.089E+03     451.872E+03         87.9258
             379     10.0521E-03     95.6267E-03     313.486E-03     309.675E-03        -1.06412     313.281E-03        -1.06395     309.717E-03     10.0993E-03     667.791E-03    -332.451E-03    -337.599E-03    -326.450E-03     656.642E-03    -332.451E-03     209.986E-03     6.43727E+06     766.375E+03    -5.18801E+06    -1.33879E+06     2.58805E+06     766.375E+03     1.02698E+06         85.8606
             380     9.31390E-03     95.3286E-03     315.291E-03     310.355E-03        -1.06769     314.888E-03        -1.06733     310.398E-03    -6.14564E-03     663.113E-03    -331.379E-03    -334.221E-03    -325.119E-03     654.123E-03    -331.492E-03     188.441E-03     10.8893E+06     989.338E+03    -7.38557E+06    -1.43901E+06     4.94275E+06     989.338E+03     551.923E+03         84.4523
             381     8.59170E-03     95.1277E-03     316.113E-03     310.793E-03        -1.06879     315.660E-03        -1.06834     310.793E-03    -227.112E-06     660.210E-03    -331.271E-03    -332.133E-03    -324.026E-03     652.394E-03    -331.562E-03     175.229E-03     13.0017E+06     785.024E+03    -7.50707E+06    -313.253E+03     5.80792E+06     785.024E+03    -1.01804E+06         83.3464
             382     7.88289E-03     94.8691E-03     316.179E-03     311.160E-03        -1.07003     315.743E-03        -1.06959     311.160E-03     829.364E-06     659.356E-03    -329.100E-03    -330.293E-03    -322.622E-03     652.809E-03    -330.224E-03     160.210E-03     12.7574E+06     809.534E+03    -9.22204E+06     36.1372E+03     3.49925E+06     809.534E+03    -77.7013E+03         82.3403
             383     7.17290E-03     94.6181E-03     317.072E-03     311.406E-03        -1.07191     316.803E-03        -1.07164     311.406E-03    -12.4192E-03     656.301E-03    -326.918E-03    -329.683E-03    -321.609E-03     650.993E-03    -329.683E-03     143.823E-03     10.5322E+06     1.06214E+06    -11.1012E+06    -367.969E+03    -201.056E+03     1.06214E+06     1.18602E+06         81.4500
             384     6.45047E-03     94.4857E-03     317.934E-03     311.272E-03        -1.07274     317.863E-03        -1.07267     311.272E-03     5.29118E-03     650.884E-03    -323.955E-03    -331.526E-03    -320.020E-03     646.949E-03    -331.526E-03     123.155E-03     10.0340E+06     826.702E+03    -8.75471E+06    -305.206E+03     1.58453E+06     826.702E+03     690.165E+03         80.6831
             385     5.73134E-03     94.3636E-03     317.605E-03     310.798E-03        -1.07280     317.552E-03        -1.07275     310.798E-03     3.96743E-03     652.148E-03    -321.467E-03    -332.962E-03    -318.843E-03     649.524E-03    -332.962E-03     100.220E-03     9.17032E+06     352.629E+03    -7.89057E+06     149.960E+03     1.12979E+06     352.629E+03    -267.483E+03         79.9731
             386     5.01359E-03     94.2935E-03     317.788E-03     310.037E-03        -1.07341     317.285E-03        -1.07291     310.037E-03    -24.7230E-03     658.237E-03    -323.777E-03    -331.505E-03    -322.234E-03     656.695E-03    -331.505E-03     76.8076E-03     6.18140E+06    -866.008E+03    -6.89884E+06    -568.869E+03    -148.571E+03    -866.008E+03     670.651E+03         79.2829
             387     4.28742E-03     94.2670E-03     318.710E-03     309.085E-03        -1.07372     315.138E-03        -1.07015     309.085E-03     57.5566E-03     660.490E-03    -327.899E-03    -330.565E-03    -327.539E-03     659.712E-03    -330.146E-03     54.4174E-03     4.33400E+06    -1.75164E+06    -5.94215E+06    -1.12139E+06    -564.739E+03    -1.67367E+06    -72.4184E+03         78.6158
             388     3.57272E-03     94.2685E-03     324.527E-03     308.032E-03        -1.07784     313.532E-03        -1.06685     308.032E-03    -54.9891E-03     658.389E-03    -329.764E-03    -331.084E-03    -330.487E-03     658.054E-03    -330.026E-03     35.4140E-03     1.47843E+06    -757.572E+03    -7.89152E+06    -939.389E+03    -5.63625E+06    -595.022E+03    -333.787E+03         77.9243
             389     2.85896E-03     94.2838E-03     339.992E-03     306.627E-03        -1.09118     312.963E-03        -1.06416     306.627E-03     84.5387E-03     657.511E-03    -329.699E-03    -330.884E-03    -330.217E-03     657.391E-03    -330.245E-03     20.9313E-03    -245.178E+03    -875.349E+03    -9.14868E+06    -1.84574E+06    -8.04456E+06    -378.903E+03     399.141E+03         77.2118
             390     2.14309E-03     94.3201E-03     374.138E-03     304.927E-03        -1.12196     309.687E-03        -1.05751     304.927E-03    -130.330E-03     659.224E-03    -329.565E-03    -330.708E-03    -329.531E-03     659.190E-03    -330.708E-03     10.8390E-03     120.940E+03    -802.568E+03    -9.91678E+06    -2.08197E+06    -8.16141E+06    -355.028E+03     727.645E+03         76.6003
             391     1.43073E-03     94.3441E-03     475.428E-03     305.135E-03        -1.22198     300.677E-03        -1.04723     305.135E-03     279.825E-03     663.056E-03    -331.269E-03    -332.067E-03    -331.326E-03     663.049E-03    -332.003E-03     4.42007E-03    -102.318E+03    -1.18661E+06    -10.7726E+06    -2.33630E+06    -8.67215E+06    -1.05302E+06     574.403E+03         76.2166
             392     714.590E-06     94.3478E-03     909.003E-03     317.487E-03        -1.66742     294.887E-03        -1.05330     317.487E-03    -860.229E-03     667.655E-03    -333.093E-03    -334.845E-03    -333.157E-03     667.654E-03    -334.781E-03     1.35333E-03     532.159E+03    -3.78463E+06    -12.6491E+06    -3.84109E+06    -10.0425E+06    -2.01802E+06     181.195E+03         76.0780
             393     12.1988E-03     94.9005E-03     312.826E-03     307.670E-03        -1.06451     307.641E-03        -1.06448     312.826E-03     2.16387E-03     682.722E-03    -332.572E-03    -353.565E-03    -338.601E-03     667.759E-03    -332.572E-03     237.107E-03     8.71552E+06     1.07998E+06    -15.6590E+06    -3.36719E+06    -3.87691E+06     1.38064E+06     84.5187E+03         93.5645
             394     11.4891E-03     94.3566E-03     315.797E-03     310.952E-03        -1.07189     312.250E-03        -1.07184     314.444E-03     6.20837E-03     684.112E-03    -332.938E-03    -353.308E-03    -336.866E-03     667.671E-03    -332.938E-03     253.614E-03     10.0113E+06     2.74538E+06    -10.1707E+06     925.170E+03    -2.21251E+06     3.87330E+06     86.2182E+03         90.6492
             395     10.7549E-03     94.0531E-03     319.232E-03     314.061E-03        -1.08006     317.255E-03        -1.07987     315.845E-03    -9.43361E-03     670.937E-03    -333.616E-03    -340.118E-03    -329.015E-03     659.834E-03    -333.616E-03     210.201E-03     8.80639E+06     2.36820E+06    -3.05469E+06     1.84321E+06     3.08123E+06     3.19545E+06     1.59713E+06         87.8789
             396     10.0574E-03     93.6549E-03     322.151E-03     316.948E-03        -1.08685     321.857E-03        -1.08655     316.948E-03     491.967E-06     667.357E-03    -332.920E-03    -337.156E-03    -326.118E-03     656.320E-03    -332.920E-03     208.909E-03     10.3254E+06     1.48135E+06    -4.65692E+06     1.05324E+06     4.61527E+06     1.48135E+06     896.898E+03         85.8538
             397     9.31058E-03     93.3795E-03     325.751E-03     317.661E-03        -1.09155     325.151E-03        -1.09095     317.661E-03    -15.3833E-03     663.144E-03    -331.517E-03    -333.640E-03    -324.651E-03     654.173E-03    -331.535E-03     188.190E-03     14.5707E+06     494.630E+03    -6.87727E+06     2.17746E+06     5.51601E+06     494.630E+03    -8.14375E+03         84.4531
             398     8.58682E-03     93.1563E-03     327.082E-03     318.080E-03        -1.09459     326.255E-03        -1.09376     318.080E-03    -3.70035E-03     659.419E-03    -331.226E-03    -332.344E-03    -324.399E-03     651.492E-03    -331.245E-03     176.494E-03     15.0261E+06     125.009E+03    -5.97397E+06     1.82401E+06     7.22807E+06     125.009E+03     551.179E+03         83.2947
             399     7.88578E-03     92.8776E-03     326.397E-03     318.488E-03        -1.09586     325.620E-03        -1.09508     318.488E-03    -1.94316E-03     657.929E-03    -328.838E-03    -330.819E-03    -322.690E-03     651.182E-03    -330.222E-03     162.497E-03     11.5575E+06     1.44596E+06    -10.6415E+06     449.718E+03     466.241E+03     1.44596E+06     571.437E+03         82.1964
             400     7.17363E-03     92.6563E-03     327.520E-03     318.646E-03        -1.09743     327.032E-03        -1.09695     318.646E-03    -18.6014E-03     655.325E-03    -325.532E-03    -330.044E-03    -320.081E-03     649.874E-03    -330.044E-03     145.552E-03     11.0213E+06     1.66191E+06    -12.4970E+06    -307.465E+03    -1.16822E+06     1.66191E+06     1.05452E+06         81.2009
             401     6.44815E-03     92.5421E-03     327.504E-03     318.367E-03        -1.09749     327.354E-03        -1.09734     318.367E-03     1.92278E-03     651.183E-03    -323.461E-03    -331.886E-03    -319.477E-03     647.199E-03    -331.886E-03     123.749E-03     12.9025E+06     133.248E+03    -8.18853E+06     181.767E+03     4.53223E+06     133.248E+03     569.962E+03         80.4061
             402     5.72860E-03     92.4016E-03     325.103E-03     317.967E-03        -1.09488     324.990E-03        -1.09476     317.967E-03    -2.11063E-03     653.429E-03    -322.797E-03    -333.496E-03    -320.213E-03     650.845E-03    -333.496E-03     99.5713E-03     9.69998E+06     1.65610E+06    -8.72901E+06     534.253E+03     436.712E+03     1.65610E+06     34.7073E+03         79.7659
             403     5.01254E-03     92.3267E-03     323.396E-03     317.607E-03        -1.09250     322.567E-03        -1.09167     317.607E-03    -36.0530E-03     659.754E-03    -324.950E-03    -331.882E-03    -323.458E-03     658.261E-03    -331.882E-03     75.5404E-03     6.78817E+06     1.64111E+06    -6.42209E+06     226.427E+03     139.648E+03     1.64111E+06     272.016E+03         79.1353
             404     4.28856E-03     92.2916E-03     324.319E-03     317.257E-03        -1.09363     319.981E-03        -1.08929     317.257E-03     53.1885E-03     661.009E-03    -328.559E-03    -330.546E-03    -328.218E-03     660.250E-03    -330.128E-03     53.9908E-03     4.92790E+06     907.481E+03    -4.14305E+06     601.916E+03    -258.405E+03     1.34882E+06     642.405E+03         78.4878
             405     3.57622E-03     92.2822E-03     329.973E-03     317.051E-03        -1.09974     317.057E-03        -1.08682     317.051E-03    -62.7915E-03     657.515E-03    -329.436E-03    -330.465E-03    -330.075E-03     657.166E-03    -329.476E-03     36.0841E-03     2.77161E+06     1.54782E+06    -6.72399E+06     51.5085E+03    -5.22768E+06     2.77161E+06     853.707E+03         77.7998
             406     2.85896E-03     92.3146E-03     344.826E-03     317.277E-03        -1.11422     314.197E-03        -1.08359     317.277E-03     84.2330E-03     656.081E-03    -328.805E-03    -329.872E-03    -329.253E-03     655.958E-03    -329.302E-03     20.9318E-03     2.31018E+06     313.370E+03    -7.76242E+06    -1.25039E+06    -6.19867E+06     2.31018E+06     683.992E+03         77.0956
             407     2.14263E-03     92.3497E-03     387.622E-03     317.720E-03        -1.15755     315.797E-03        -1.08572     317.720E-03    -143.412E-03     657.595E-03    -328.441E-03    -330.044E-03    -328.408E-03     657.562E-03    -330.044E-03     10.5734E-03     1.20906E+06    -1.72724E+06    -8.80752E+06    -2.86833E+06    -7.66643E+06     1.20906E+06    -265.954E+03         76.5211
             408     1.42659E-03     92.3802E-03     511.276E-03     317.953E-03        -1.28098     317.350E-03        -1.08705     317.953E-03     304.929E-03     661.723E-03    -330.280E-03    -331.784E-03    -330.273E-03     661.716E-03    -331.784E-03     4.61812E-03    -20.3120E+03    -2.57061E+06    -11.2467E+06    -3.62250E+06    -9.36650E+06    -848.657E+03    -938.023E+03         76.1866
             409     713.981E-06     92.3878E-03         1.00673     325.035E-03        -1.78313     311.000E-03        -1.08739     325.035E-03    -966.543E-03     667.468E-03    -332.644E-03    -335.178E-03    -333.931E-03     667.467E-03    -333.890E-03     920.980E-06     1.91945E+06    -4.21382E+06    -13.3192E+06    -2.58271E+06    -10.4857E+06    -2.54513E+06    -408.315E+03         76.0867
             410     12.2058E-03     92.9245E-03     319.543E-03     315.440E-03        -1.08503     315.389E-03        -1.08498     319.543E-03    -7.43970E-03     683.223E-03    -332.463E-03    -354.902E-03    -339.885E-03     668.206E-03    -332.463E-03     237.130E-03     13.0394E+06     3.81941E+06    -15.7277E+06    -253.134E+03    -2.43518E+06     3.81941E+06     364.087E+03         93.4038
             411     11.4792E-03     92.4098E-03     321.282E-03     316.387E-03        -1.09009     316.357E-03        -1.09006     321.282E-03     624.698E-06     682.948E-03    -333.214E-03    -353.477E-03    -336.681E-03     666.153E-03    -333.214E-03     256.572E-03     11.8471E+06     4.61209E+06    -10.6938E+06     959.471E+03    -906.615E+03     5.71256E+06    -330.161E+03         90.5346
             412     10.7558E-03     92.0909E-03     323.700E-03     317.551E-03        -1.09427     317.994E-03        -1.09402     323.004E-03    -19.6213E-03     669.261E-03    -333.552E-03    -340.200E-03    -328.857E-03     657.918E-03    -333.552E-03     212.413E-03     8.43754E+06     2.52605E+06    -7.00554E+06     171.406E+03     160.124E+03     3.62652E+06    -1.00355E+06         87.8280
             413     10.0605E-03     91.6849E-03     326.080E-03     321.483E-03        -1.09939     322.667E-03        -1.09900     324.509E-03    -5.32669E-03     667.019E-03    -333.080E-03    -337.564E-03    -326.400E-03     655.855E-03    -333.080E-03     210.160E-03     11.2031E+06     625.350E+03    -6.80207E+06     1.19219E+06     3.20884E+06     625.350E+03    -185.019E+03         85.8452
             414     9.30846E-03     91.4425E-03     329.729E-03     324.702E-03        -1.10705     327.990E-03        -1.10619     325.578E-03    -24.6611E-03     663.968E-03    -331.705E-03    -333.826E-03    -324.800E-03     654.960E-03    -331.724E-03     188.631E-03     13.3098E+06    -596.511E+03    -8.07566E+06     745.831E+03     4.48832E+06    -596.511E+03     1.01593E+06         84.4327
             415     8.58736E-03     91.2172E-03     332.884E-03     326.254E-03        -1.11391     331.485E-03        -1.11251     326.254E-03    -1.05674E-03     659.668E-03    -330.814E-03    -332.000E-03    -324.119E-03     651.806E-03    -330.832E-03     175.808E-03     13.5003E+06    -1.07012E+06    -7.51151E+06     451.055E+03     5.53772E+06    -1.07012E+06     1.33425E+06         83.2351
             416     7.87893E-03     90.9143E-03     333.342E-03     326.825E-03        -1.11618     331.997E-03        -1.11483     326.825E-03     719.914E-06     656.725E-03    -328.379E-03    -330.846E-03    -322.455E-03     650.010E-03    -330.055E-03     161.968E-03     11.7133E+06    -13.1281E+03    -8.99640E+06     466.764E+03     2.25015E+06    -13.1281E+03     2.10343E+06         82.1147
             417     7.16558E-03     90.7013E-03     332.462E-03     326.938E-03        -1.11641     331.227E-03        -1.11554     327.306E-03    -20.8100E-03     655.232E-03    -325.872E-03    -330.418E-03    -320.430E-03     649.791E-03    -330.418E-03     145.476E-03     11.4600E+06     1.04574E+06    -7.30445E+06     1.06386E+06     3.09173E+06     1.04574E+06     628.166E+03         81.1105
             418     6.44434E-03     90.5634E-03     331.649E-03     324.706E-03        -1.11394     328.243E-03        -1.11365     327.824E-03     8.07764E-03     653.279E-03    -325.000E-03    -332.001E-03    -320.977E-03     649.256E-03    -332.001E-03     124.581E-03     10.4734E+06     759.461E+03    -6.07694E+06     748.051E+03     3.64843E+06     759.461E+03      70.786E+03         80.3129
             419     5.72568E-03     90.4501E-03     330.873E-03     325.234E-03        -1.11313     327.464E-03        -1.11301     328.525E-03    -4.27424E-03     655.028E-03    -324.519E-03    -333.740E-03    -321.933E-03     652.442E-03    -333.740E-03     99.7207E-03     8.33300E+06     647.899E+03    -7.76931E+06     190.486E+03     373.196E+03     647.899E+03     810.141E+03         79.6751
             420     5.01320E-03     90.3303E-03     330.205E-03     328.568E-03        -1.11568     328.866E-03        -1.11493     329.155E-03    -34.6225E-03     659.978E-03    -325.246E-03    -332.238E-03    -323.747E-03     658.480E-03    -332.238E-03     75.8563E-03     7.15895E+06     1.12580E+06    -5.09749E+06     790.460E+03     1.08757E+06     1.30923E+06     349.233E+03         79.0246
             421     4.28899E-03     90.2837E-03     332.522E-03     329.525E-03        -1.11944     328.344E-03        -1.11531     329.570E-03     54.5515E-03     660.188E-03    -327.985E-03    -330.313E-03    -327.192E-03     659.395E-03    -330.313E-03     55.1811E-03     4.58400E+06     1.85391E+06    -4.90979E+06     477.793E+03    -1.51012E+06     2.56045E+06     1.30570E+06         78.3544
             422     3.57212E-03     90.2888E-03     337.900E-03     330.116E-03        -1.12614     325.859E-03        -1.11410     330.116E-03    -58.7022E-03     656.877E-03    -329.010E-03    -330.017E-03    -328.950E-03     656.488E-03    -329.688E-03     38.3948E-03     3.92707E+06     1.35176E+06    -6.15740E+06    -384.021E+03    -3.08530E+06     2.59075E+06     1.14129E+06         77.6795
             423     2.85887E-03     90.3242E-03     354.473E-03     330.926E-03        -1.14430     326.549E-03        -1.11638     330.926E-03     81.0061E-03     656.162E-03    -329.064E-03    -330.092E-03    -329.231E-03     656.000E-03    -329.763E-03     24.2463E-03     3.06395E+06     90.6979E+03    -6.29672E+06    -828.138E+03    -4.04157E+06     1.72763E+06    -151.334E+03         77.0286
             424     2.14412E-03     90.3644E-03     398.514E-03     331.504E-03        -1.18892     330.130E-03        -1.12053     331.504E-03    -150.695E-03     658.417E-03    -329.227E-03    -330.696E-03    -329.297E-03     658.368E-03    -330.577E-03     12.5496E-03     1.69864E+06    -1.34983E+06    -7.42817E+06    -1.31288E+06    -7.02398E+06     1.25750E+06    -361.553E+03         76.5195
             425     1.42886E-03     90.3890E-03     523.447E-03     331.795E-03        -1.31461     330.983E-03        -1.12215     331.795E-03     316.415E-03     660.812E-03    -329.991E-03    -331.304E-03    -330.103E-03     660.804E-03    -331.185E-03     4.27068E-03     1.01206E+06    -2.16111E+06    -10.6779E+06    -2.69172E+06    -8.66042E+06    -474.834E+03     112.057E+03         76.2185
             426     713.632E-06     90.4008E-03         1.02857     334.081E-03        -1.82095     329.642E-03        -1.12202     334.081E-03    -980.213E-03     666.038E-03    -331.861E-03    -334.329E-03    -334.036E-03     666.038E-03    -332.153E-03     619.758E-06     766.416E+03    -5.77006E+06    -14.5562E+06    -3.75306E+06    -11.8912E+06    -3.91558E+06     705.994E+03         76.1241
             427     12.1957E-03     90.9594E-03     325.954E-03     317.747E-03        -1.09933     317.682E-03        -1.09926     325.954E-03    -12.2031E-03     681.920E-03    -332.551E-03    -353.504E-03    -338.280E-03     666.696E-03    -332.551E-03     238.695E-03     10.9554E+06     1.65755E+06    -12.2629E+06     -206.01E+03    -997.031E+03     1.55306E+06    -282.538E+03         93.2379
             428     11.4851E-03     90.4545E-03     327.691E-03     319.686E-03        -1.10490     319.673E-03        -1.10488     327.691E-03     6.10533E-03     680.969E-03    -333.402E-03    -352.833E-03    -335.925E-03     664.061E-03    -333.402E-03     256.956E-03     8.75934E+06     247.586E+03    -10.8329E+06    -296.659E+03    -1.67243E+06     143.095E+03    -1.18457E+06         90.4529
             429     10.7533E-03     90.1314E-03     329.328E-03     322.437E-03        -1.10913     322.269E-03        -1.10896     329.328E-03    -15.3641E-03     668.305E-03    -333.387E-03    -339.704E-03    -328.347E-03     656.948E-03    -333.387E-03     212.387E-03     7.50013E+06    -520.752E+03    -9.43049E+06     71.5172E+03    -2.00188E+06    -520.752E+03    -1.22519E+06         87.8373
             430     10.0606E-03     89.6870E-03     330.712E-03     325.779E-03        -1.11381     325.485E-03        -1.11352     330.712E-03    -834.012E-06     666.490E-03    -332.999E-03    -337.901E-03    -326.687E-03     655.276E-03    -332.999E-03     210.608E-03     10.7662E+06    -355.626E+03    -9.85604E+06    -952.858E+03     1.86305E+06    -355.626E+03    -745.584E+03         85.8606
             431     9.31025E-03     89.4000E-03     332.694E-03     328.031E-03        -1.11798     328.132E-03        -1.11720     331.817E-03    -22.9930E-03     663.401E-03    -331.549E-03    -334.260E-03    -325.049E-03     654.268E-03    -331.628E-03     189.931E-03     11.9289E+06     705.486E+03    -10.0969E+06    -184.736E+03     2.01671E+06     705.486E+03     339.031E+03         84.4105
             432     8.59644E-03     89.1116E-03     333.800E-03     328.588E-03        -1.11972     328.045E-03        -1.11819     332.807E-03     8.07940E-03     659.815E-03    -330.354E-03    -331.502E-03    -323.471E-03     651.862E-03    -330.433E-03     176.740E-03     12.1504E+06    -347.019E+03    -7.65540E+06    -638.928E+03     5.13397E+06    -347.019E+03     1.74902E+06         83.2215
             433     7.87924E-03     88.8962E-03     334.722E-03     328.327E-03        -1.12228     327.482E-03        -1.12064     333.921E-03     4.23021E-03     656.576E-03    -328.447E-03    -330.609E-03    -322.490E-03     649.927E-03    -329.916E-03     161.141E-03     11.0951E+06    -1.04941E+06    -6.39502E+06    -413.714E+03     5.11382E+06    -1.04941E+06     1.34559E+06         82.1449
             434     7.15666E-03     88.7316E-03     335.823E-03     328.858E-03        -1.12604     328.374E-03        -1.12487     335.138E-03    -11.8172E-03     655.618E-03    -326.631E-03    -330.603E-03    -321.338E-03     650.325E-03    -330.603E-03     143.544E-03     9.82670E+06    -1.83277E+06    -4.69134E+06    -14.5473E+03     5.14991E+06    -1.83277E+06     658.399E+03         81.1797
             435     6.44391E-03     88.5468E-03     336.487E-03     328.384E-03        -1.12705     327.937E-03        -1.12660     336.487E-03     26.3387E-03     653.868E-03    -325.109E-03    -332.014E-03    -321.161E-03     649.920E-03    -332.014E-03     123.589E-03     6.82640E+06    -1.39756E+06    -6.02946E+06    -1.01728E+06     1.81422E+06    -1.39756E+06     353.779E+03         80.3980
             436     5.72477E-03     88.4333E-03     337.908E-03     329.915E-03        -1.13059     329.873E-03        -1.13055     337.908E-03    -4.29649E-03     654.765E-03    -323.981E-03    -333.927E-03    -321.318E-03     652.102E-03    -333.927E-03     101.319E-03     7.32035E+06    -1.60992E+06    -6.93654E+06    -1.26123E+06     1.64504E+06    -1.60992E+06     553.814E+03         79.7510
             437     5.00898E-03     88.3510E-03     339.152E-03     333.699E-03        -1.13576     333.357E-03        -1.13542     339.152E-03    -25.0522E-03     660.201E-03    -324.822E-03    -332.909E-03    -323.204E-03     658.584E-03    -332.909E-03     78.9063E-03     6.26247E+06    -1.68138E+06    -5.84414E+06    -1.22561E+06     1.46051E+06    -1.49796E+06     904.172E+03         79.0822
             438     4.28354E-03     88.3111E-03     340.781E-03     337.664E-03        -1.14048     335.050E-03        -1.13726     340.176E-03     62.9640E-03     661.488E-03    -328.035E-03    -330.985E-03    -327.191E-03     660.643E-03    -330.985E-03     56.7433E-03     2.51978E+06    -151.259E+03    -6.37178E+06    -1.21891E+06    -2.97625E+06     191.906E+03     749.245E+03         78.3922
             439     3.56957E-03     88.3148E-03     348.599E-03     340.875E-03        -1.15139     338.308E-03        -1.14110     340.875E-03    -56.4746E-03     658.137E-03    -329.482E-03    -330.209E-03    -329.173E-03     657.758E-03    -330.139E-03     37.8143E-03     4.11235E+06    -181.953E+03    -4.82173E+06    -184.285E+03    -298.786E+03    -408.259E+03     590.135E+03         77.7219
             440     2.85214E-03     88.3395E-03     366.638E-03     340.722E-03        -1.17040     343.292E-03        -1.14705     340.722E-03     71.7262E-03     659.244E-03    -330.586E-03    -331.499E-03    -330.508E-03     659.096E-03    -331.429E-03     22.5898E-03     1.87537E+06    -1.77365E+06    -5.72212E+06    -597.534E+03    -2.98173E+06    -2.04113E+06    -166.283E+03         77.1094
             441     2.13877E-03     88.3743E-03     397.143E-03     340.162E-03        -1.20016     340.880E-03        -1.14390     340.162E-03    -132.653E-03     661.867E-03    -331.490E-03    -332.256E-03    -331.568E-03     661.826E-03    -332.137E-03     11.1252E-03    -363.489E+03    -1.94961E+06    -8.43506E+06    -1.27771E+06    -8.14249E+06    -1.32795E+06     19.9388E+03         76.6251
             442     1.42782E-03     88.4019E-03     500.086E-03     341.140E-03        -1.30432     336.267E-03        -1.14050     341.140E-03     299.032E-03     663.914E-03    -332.231E-03    -332.470E-03    -332.342E-03     663.906E-03    -332.351E-03     4.41243E-03     932.114E+03    -1.73491E+06    -10.1143E+06    -1.37880E+06    -8.30649E+06    -1.23182E+06     521.924E+03         76.3111
             443     714.986E-06     88.4275E-03     981.357E-03     340.824E-03        -1.78639     343.841E-03        -1.14887     340.824E-03    -961.383E-03     668.261E-03    -333.397E-03    -334.992E-03    -334.926E-03     668.260E-03    -333.463E-03     1.36935E-03     1.86028E+06    -3.40155E+06    -11.5613E+06    -2.19711E+06    -9.35841E+06    -1.54707E+06     305.948E+03         76.1925
             444     12.2055E-03     89.0011E-03     330.636E-03     319.395E-03        -1.10783     319.147E-03        -1.10758     330.636E-03    -11.1258E-03     681.616E-03    -332.514E-03    -352.698E-03    -337.380E-03     666.298E-03    -332.514E-03     238.851E-03     9.22252E+06    -1.42440E+06    -10.1905E+06    -1.07615E+06     212.688E+03    -1.52889E+06    -1.26473E+06         93.1130
             445     11.4922E-03     88.3899E-03     332.013E-03     320.675E-03        -1.11350     320.606E-03        -1.11343     332.013E-03     16.5561E-03     679.217E-03    -333.089E-03    -352.763E-03    -335.660E-03     662.114E-03    -333.089E-03     258.155E-03     7.46396E+06    -805.201E+03    -10.5840E+06    -551.879E+03    -2.46363E+06    -909.692E+03    -997.035E+03         90.4142
             446     10.7662E-03     88.0412E-03     333.290E-03     321.858E-03        -1.11908     321.790E-03        -1.11902     333.290E-03    -6.50058E-03     667.550E-03    -332.950E-03    -340.007E-03    -328.469E-03     656.012E-03    -332.950E-03     213.970E-03     6.07073E+06    -1.43978E+06    -10.0049E+06    -1.18862E+06    -2.74556E+06    -1.43978E+06    -290.846E+03         87.8442
             447     10.0546E-03     87.6743E-03     334.501E-03     323.441E-03        -1.12270     323.213E-03        -1.12247     334.501E-03     10.0549E-03     665.988E-03    -332.891E-03    -338.179E-03    -326.871E-03     654.680E-03    -332.891E-03     211.363E-03     9.86093E+06    -677.460E+03    -9.38002E+06    -42.9986E+03     523.910E+03    -677.460E+03     571.220E+03         85.8271
             448     9.30813E-03     87.3734E-03     335.809E-03     324.549E-03        -1.12395     323.845E-03        -1.12325     335.809E-03    -17.0318E-03     662.364E-03    -331.354E-03    -333.870E-03    -324.591E-03     653.332E-03    -331.601E-03     188.723E-03     11.5133E+06    -226.065E+03    -10.1841E+06    -1.09098E+06     2.42021E+06    -226.065E+03     764.912E+03         84.3516
             449     8.59392E-03     87.1013E-03     337.213E-03     326.816E-03        -1.12673     325.369E-03        -1.12528     337.213E-03     12.3647E-03     659.959E-03    -330.004E-03    -331.217E-03    -323.130E-03     652.119E-03    -330.251E-03     175.454E-03     10.4625E+06    -1.23149E+06    -6.72575E+06    -1.43336E+06     5.17010E+06    -1.23149E+06     613.207E+03         83.2047
             450     7.87558E-03     86.8860E-03     338.654E-03     328.435E-03        -1.13088     326.604E-03        -1.12905     338.654E-03     142.630E-06     657.185E-03    -328.833E-03    -330.687E-03    -323.186E-03     650.573E-03    -329.722E-03     160.826E-03     7.64503E+06    -1.65503E+06    -6.27729E+06    -1.56068E+06     2.92841E+06    -1.65503E+06     688.685E+03         82.1862
             451     7.15721E-03     86.7300E-03     340.115E-03     329.801E-03        -1.13629     328.381E-03        -1.13487     340.115E-03    -12.9695E-03     655.669E-03    -326.914E-03    -330.557E-03    -321.637E-03     650.392E-03    -330.557E-03     143.324E-03     8.22898E+06    -2.25492E+06    -5.32401E+06    -1.45001E+06     4.35498E+06    -2.25492E+06     1.19407E+06         81.2493
             452     6.44474E-03     86.5436E-03     341.599E-03     330.821E-03        -1.14121     330.309E-03        -1.14069     341.599E-03     35.0966E-03     652.539E-03    -323.686E-03    -331.920E-03    -319.772E-03     648.624E-03    -331.920E-03     122.940E-03     8.30754E+06    -1.59171E+06    -3.84394E+06    -418.527E+03     4.88213E+06    -1.59171E+06     1.50885E+06         80.4697
             453     5.72181E-03     86.4399E-03     343.020E-03     333.499E-03        -1.14566     333.476E-03        -1.14564     343.020E-03    -8.71637E-03     653.216E-03    -322.363E-03    -334.037E-03    -319.693E-03     650.545E-03    -334.037E-03     101.328E-03     7.98160E+06    -1.05025E+06    -5.17058E+06    -811.937E+03     3.62295E+06    -1.05025E+06     1.35313E+06         79.8323
             454     5.00447E-03     86.3522E-03     344.256E-03     337.114E-03        -1.14935     337.035E-03        -1.14927     344.256E-03    -15.9390E-03     660.306E-03    -324.577E-03    -333.427E-03    -322.971E-03     658.700E-03    -333.427E-03     78.4519E-03     5.24354E+06    -1.21675E+06    -6.07433E+06    -1.23372E+06    -105.834E+03    -707.978E+03     697.313E+03         79.1782
             455     4.28135E-03     86.3150E-03     347.032E-03     341.902E-03        -1.15579     341.807E-03        -1.15377     345.109E-03     65.4195E-03     663.375E-03    -328.831E-03    -331.804E-03    -328.311E-03     662.557E-03    -331.506E-03     55.9938E-03     1.85886E+06    -1.28078E+06    -4.86405E+06    -1.00819E+06    -1.47353E+06    -1.80425E+06    -268.689E+03         78.4888
             456     3.56727E-03     86.3226E-03     351.965E-03     343.347E-03        -1.16202     342.569E-03        -1.15498     345.705E-03    -46.1658E-03     660.250E-03    -330.419E-03    -331.048E-03    -330.661E-03     659.882E-03    -330.439E-03     37.2349E-03     2.46680E+06    -986.107E+03    -4.88770E+06    -706.572E+03    -647.715E+03    -2.05272E+06    -752.887E+03         77.8189
             457     2.85707E-03     86.3510E-03     361.269E-03     343.931E-03        -1.17333     343.782E-03        -1.15820     346.289E-03     49.0764E-03     660.209E-03    -330.903E-03    -331.831E-03    -331.074E-03     660.068E-03    -331.520E-03     22.1912E-03     2.95671E+06     6.14545E+03    -5.86614E+06     362.932E+03    -3.64275E+06     376.534E+03     188.373E+03         77.2031
             458     2.14282E-03     86.3881E-03     380.246E-03     346.762E-03        -1.19652     345.294E-03        -1.16156     346.762E-03    -101.374E-03     661.791E-03    -331.175E-03    -332.165E-03    -331.136E-03     661.752E-03    -332.165E-03     10.4764E-03     747.112E+03    -733.554E+03    -7.66060E+06    -708.338E+03    -7.16249E+06     223.788E+03     415.138E+03         76.7059
             459     1.42666E-03     86.4230E-03     460.800E-03     346.400E-03        -1.27534     348.528E-03        -1.16306     346.400E-03     267.833E-03     663.553E-03    -331.794E-03    -332.489E-03    -331.789E-03     663.548E-03    -332.489E-03     3.38689E-03     454.531E+03    -1.11367E+06    -9.55263E+06    -1.58144E+06    -8.18794E+06    -442.385E+03    -36.3417E+03         76.3686
             460     712.729E-06     86.4510E-03     869.848E-03     329.105E-03        -1.66386     362.763E-03        -1.15677     329.105E-03    -864.534E-03     668.721E-03    -333.833E-03    -334.939E-03    -334.615E-03     668.720E-03    -334.156E-03     1.10592E-03     2.42363E+06    -792.116E+03    -9.23673E+06     391.807E+03    -7.83918E+06    -157.848E+03     31.1468E+03         76.2202
             461     12.1982E-03     86.9752E-03     333.002E-03     322.943E-03        -1.11741     322.257E-03        -1.11673     333.002E-03    -15.2820E-03     681.216E-03    -332.299E-03    -353.453E-03    -338.137E-03     665.900E-03    -332.299E-03     239.081E-03     11.0984E+06    -2.30967E+06    -11.0803E+06     1.05692E+06    -1.03887E+06    -2.30967E+06    -342.649E+03         93.0522
             462     11.4889E-03     86.3606E-03     333.944E-03     322.356E-03        -1.12320     322.168E-03        -1.12301     333.944E-03     23.0837E-03     678.075E-03    -333.026E-03    -352.326E-03    -335.274E-03     661.023E-03    -333.026E-03     257.638E-03     9.63961E+06    -2.23292E+06    -11.1441E+06     69.8406E+03    -1.57432E+06    -2.23292E+06    -436.878E+03         90.3713
             463     10.7625E-03     86.0327E-03     335.102E-03     318.666E-03        -1.12451     318.623E-03        -1.12446     335.102E-03    -8.57305E-03     666.612E-03    -332.890E-03    -339.851E-03    -328.336E-03     655.097E-03    -332.890E-03     213.658E-03     6.21041E+06    -305.428E+03    -9.45858E+06    -134.552E+03    -3.27232E+06    -146.726E+03     1.25586E+06         87.8098
             464     10.0533E-03     85.6673E-03     336.577E-03     318.107E-03        -1.12681     317.933E-03        -1.12663     336.577E-03     10.2168E-03     666.654E-03    -332.873E-03    -338.792E-03    -327.570E-03     655.433E-03    -332.873E-03     210.637E-03     6.71272E+06    -353.689E+03    -7.74887E+06    -1.67142E+06     476.563E+03    -194.987E+03     1.54614E+06         85.7836
             465     9.30786E-03     85.3715E-03     338.148E-03     322.395E-03        -1.13200     321.793E-03        -1.13140     338.148E-03    -16.6219E-03     662.886E-03    -331.405E-03    -334.121E-03    -325.056E-03     653.989E-03    -331.574E-03     187.412E-03     9.33510E+06    -1.05272E+06    -6.44409E+06    -794.852E+03     3.68586E+06    -1.05272E+06     325.070E+03         84.3164
             466     8.59555E-03     85.0858E-03     339.523E-03     327.712E-03        -1.13742     326.223E-03        -1.13593     339.523E-03     18.4913E-03     660.089E-03    -330.021E-03    -331.429E-03    -323.503E-03     652.331E-03    -330.189E-03     174.604E-03     7.87563E+06    -1.34559E+06    -5.54308E+06    -320.448E+03     2.65299E+06    -1.34559E+06    -18.0877E+03         83.1878
             467     7.88001E-03     84.8697E-03     340.689E-03     331.001E-03        -1.14184     329.060E-03        -1.13990     340.689E-03     3.32345E-03     656.785E-03    -328.313E-03    -330.751E-03    -322.809E-03     650.167E-03    -329.637E-03     160.862E-03     6.82532E+06    -797.526E+03    -5.17645E+06    -361.791E+03     2.01066E+06    -797.526E+03     645.409E+03         82.1805
             468     7.15823E-03     84.7156E-03     341.830E-03     331.417E-03        -1.14564     330.013E-03        -1.14424     341.830E-03    -13.3822E-03     654.542E-03    -325.539E-03    -330.507E-03    -320.219E-03     649.222E-03    -330.507E-03     143.714E-03     8.44889E+06    -223.627E+03    -4.06762E+06     75.0607E+03     4.30621E+06    -223.627E+03     954.695E+03         81.2581
             469     6.44281E-03     84.5367E-03     343.211E-03     329.525E-03        -1.14710     329.031E-03        -1.14661     343.211E-03     38.7832E-03     652.072E-03    -322.914E-03    -331.913E-03    -318.937E-03     648.095E-03    -331.913E-03     123.889E-03     9.16490E+06     744.913E+03    -2.01398E+06     1.15751E+06     5.99341E+06     744.913E+03     1.17261E+06         80.4966
             470     5.72170E-03     84.4271E-03     344.747E-03     333.289E-03        -1.15223     333.052E-03        -1.15199     344.747E-03    -22.4244E-03     653.707E-03    -322.877E-03    -334.063E-03    -320.189E-03     651.019E-03    -334.063E-03     101.553E-03     8.86091E+06     1.03098E+06    -2.39055E+06     1.81113E+06     4.65923E+06     1.03098E+06     987.774E+03         79.8750
             471     5.00614E-03     84.3410E-03     346.130E-03     341.350E-03        -1.15992     341.416E-03        -1.15968     345.818E-03    -20.3682E-03     660.451E-03    -324.981E-03    -333.460E-03    -323.456E-03     658.925E-03    -333.460E-03     76.3026E-03     6.52776E+06     890.641E+03    -2.94310E+06     1.61536E+06     1.46053E+06     1.39941E+06     173.430E+03         79.2173
             472     4.28000E-03     84.3067E-03     347.819E-03     345.165E-03        -1.16497     345.913E-03        -1.16406     346.164E-03     52.1063E-03     663.502E-03    -328.721E-03    -331.877E-03    -328.260E-03     662.742E-03    -331.578E-03     54.1058E-03     4.63900E+06     1.84111E+06    -1.71813E+06     1.91608E+06     235.077E+03     2.61083E+06    -617.596E+03         78.5200
             473     3.56781E-03     84.3195E-03     347.967E-03     343.931E-03        -1.16540     342.232E-03        -1.16236     346.625E-03    -25.8956E-03     660.928E-03    -330.464E-03    -331.276E-03    -330.707E-03     660.568E-03    -330.674E-03     36.8927E-03     4.38859E+06     1.73163E+06    -4.74832E+06     473.069E+03    -2.15452E+06     3.05335E+06    -146.835E+03         77.8548
             474     2.85184E-03     84.3520E-03     350.397E-03     345.291E-03        -1.17158     342.552E-03        -1.16617     347.726E-03     14.9635E-03     658.871E-03    -329.962E-03    -331.038E-03    -330.119E-03     658.724E-03    -330.735E-03     23.2093E-03     3.47113E+06     726.155E+03    -7.18895E+06    -819.183E+03    -5.64362E+06     3.47113E+06     254.965E+03         77.2348
             475     2.13927E-03     84.3936E-03     359.656E-03     346.976E-03        -1.18241     345.084E-03        -1.16993     349.069E-03    -66.9885E-03     662.400E-03    -331.022E-03    -332.350E-03    -330.975E-03     662.353E-03    -332.350E-03     12.1507E-03     2.66893E+06     526.691E+03    -6.56861E+06     341.927E+03    -5.97529E+06     2.26038E+06     250.742E+03         76.7381
             476     1.42791E-03     84.4364E-03     406.428E-03     346.970E-03        -1.22798     351.720E-03        -1.17536     349.063E-03     206.704E-03     663.889E-03    -331.732E-03    -332.598E-03    -331.745E-03     663.882E-03    -332.578E-03     4.49485E-03     1.80309E+06     556.490E+03    -8.34453E+06     171.857E+03    -6.88150E+06     724.690E+03    -138.517E+03         76.4039
             477     714.343E-06     84.4719E-03     668.109E-03     326.281E-03        -1.46380     370.251E-03        -1.16594     326.281E-03    -641.958E-03     666.613E-03    -333.165E-03    -333.696E-03    -333.324E-03     666.611E-03    -333.535E-03     1.32882E-03     562.808E+03    -1.05308E+06    -10.1992E+06    -1.49508E+06    -8.77558E+06    -418.808E+03    -602.681E+03         76.2405
             478     12.1977E-03     84.9571E-03     335.218E-03     329.003E-03        -1.13557     328.269E-03        -1.13427     334.656E-03    -26.1829E-03     680.547E-03    -332.424E-03    -354.212E-03    -338.981E-03     665.315E-03    -332.424E-03     238.608E-03     11.1387E+06    -939.099E+03    -14.0424E+06    -834.889E+03    -2.06880E+06    -939.099E+03     103.170E+03         93.0484
             479     11.4912E-03     84.3585E-03     335.657E-03     326.068E-03        -1.13501     325.787E-03        -1.13473     335.657E-03     22.1598E-03     678.506E-03    -333.164E-03    -352.975E-03    -336.093E-03     661.623E-03    -333.164E-03     256.406E-03     10.5288E+06    -170.094E+03    -12.3581E+06    -633.748E+03    -1.83629E+06     470.707E+03     2.15893E+06         90.3518
             480     10.7645E-03     84.0120E-03     336.870E-03     323.838E-03        -1.13664     323.794E-03        -1.13659     336.870E-03    -15.3275E-03     667.193E-03    -332.899E-03    -340.221E-03    -328.986E-03     655.958E-03    -332.899E-03     211.229E-03     7.93805E+06     165.295E+03    -8.56740E+06    -1.04915E+06    -104.134E+03     689.224E+03     1.33484E+06         87.7881
             481     10.0537E-03     83.6420E-03     338.060E-03     325.899E-03        -1.14114     325.762E-03        -1.14100     338.060E-03     8.02988E-03     667.039E-03    -332.850E-03    -338.876E-03    -327.909E-03     656.073E-03    -332.850E-03     208.389E-03     6.73749E+06     216.237E+03    -5.39766E+06     572.696E+03     884.011E+03     99.3639E+03     299.497E+03         85.7660
             482     9.30910E-03     83.3444E-03     339.079E-03     328.409E-03        -1.14461     327.912E-03        -1.14411     339.079E-03    -16.4823E-03     662.673E-03    -331.523E-03    -334.371E-03    -325.564E-03     653.867E-03    -331.523E-03     186.485E-03     7.84807E+06    -346.042E+03    -4.88787E+06     390.404E+03     2.56980E+06    -346.042E+03     152.515E+03         84.2985
             483     8.59631E-03     83.0709E-03     339.941E-03     331.449E-03        -1.14740     330.064E-03        -1.14601     339.941E-03     20.0553E-03     658.857E-03    -330.005E-03    -330.925E-03    -322.965E-03     651.070E-03    -330.178E-03     174.811E-03     7.83661E+06     1.33226E+06    -5.20082E+06     938.536E+03     1.56699E+06     1.46253E+06    -354.137E+03         83.1669
             484     7.87808E-03     82.8442E-03     340.805E-03     332.619E-03        -1.14960     330.546E-03        -1.14753     340.805E-03    -1.70575E-03     655.258E-03    -327.340E-03    -330.278E-03    -321.171E-03     648.509E-03    -329.699E-03     162.201E-03     7.63761E+06     1.71550E+06    -4.53028E+06     1.31498E+06     1.66208E+06     1.84577E+06     346.080E+03         82.1590
             485     7.15620E-03     82.6992E-03     341.761E-03     333.247E-03        -1.15264     331.842E-03        -1.15123     341.761E-03    -25.3181E-03     653.952E-03    -324.902E-03    -330.615E-03    -319.492E-03     648.542E-03    -330.615E-03     144.802E-03     9.23215E+06     1.43281E+06    -2.21197E+06     1.59200E+06     5.42818E+06     1.43281E+06     983.389E+03         81.2584
             486     6.44112E-03     82.5142E-03     342.753E-03     333.725E-03        -1.15530     333.341E-03        -1.15492     342.753E-03     40.5061E-03     653.388E-03    -323.936E-03    -332.046E-03    -319.932E-03     649.383E-03    -332.046E-03     124.419E-03     8.83318E+06     1.26556E+06    -2.01973E+06     1.37804E+06     5.43541E+06     1.26556E+06     226.127E+03         80.5326
             487     5.72216E-03     82.4022E-03     343.741E-03     335.842E-03        -1.15858     335.099E-03        -1.15784     343.741E-03    -34.4541E-03     655.066E-03    -323.899E-03    -334.044E-03    -321.227E-03     652.393E-03    -334.044E-03     101.330E-03     7.83422E+06     1.07067E+06    -1.59499E+06     1.13788E+06     5.10135E+06     1.07067E+06     -576.93E+03         79.9208
             488     5.00690E-03     82.3245E-03     345.042E-03     337.997E-03        -1.16108     337.273E-03        -1.16004     344.730E-03    -18.2823E-03     660.441E-03    -324.894E-03    -333.333E-03    -323.369E-03     658.917E-03    -333.333E-03     76.4087E-03     6.23609E+06     1.20141E+06    -452.533E+03     1.87921E+06     2.70227E+06     2.40348E+06    -368.572E+03         79.2374
             489     4.28181E-03     82.2949E-03     346.687E-03     341.417E-03        -1.16523     342.038E-03        -1.16468     345.519E-03     37.6058E-03     662.909E-03    -328.414E-03    -331.666E-03    -327.799E-03     662.128E-03    -331.500E-03     54.7875E-03     4.74974E+06     259.583E+03    -1.54266E+06     1.12278E+06    -410.946E+03     2.75484E+06     732.353E+03         78.5199
             490     3.56570E-03     82.3134E-03     346.699E-03     345.352E-03        -1.17100     345.627E-03        -1.17042     345.843E-03    -13.5908E-03     661.230E-03    -330.620E-03    -331.462E-03    -330.898E-03     660.875E-03    -330.829E-03     36.4553E-03     4.94432E+06     1.52639E+06    -4.23178E+06     872.309E+03    -2.27572E+06     3.64235E+06     603.456E+03         77.8616
             491     2.85448E-03     82.3501E-03     349.374E-03     345.346E-03        -1.17606     348.189E-03        -1.17511     345.577E-03    -18.7338E-03     660.149E-03    -330.527E-03    -331.696E-03    -330.874E-03     660.029E-03    -331.228E-03     20.8039E-03     4.55359E+06     2.21604E+06    -5.64538E+06     1.04324E+06    -4.47258E+06     4.55359E+06    -322.957E+03         77.2509
             492     2.13944E-03     82.3989E-03     349.844E-03     340.696E-03        -1.17078     341.775E-03        -1.16806     346.047E-03    -11.6554E-03     662.950E-03    -331.378E-03    -332.680E-03    -331.349E-03     662.920E-03    -332.680E-03     9.91078E-03     2.45201E+06     144.761E+03    -7.23779E+06    -295.225E+03    -6.38926E+06     2.04346E+06    -881.293E+03         76.7627
             493     1.42499E-03     82.4455E-03     363.699E-03     341.945E-03        -1.18426     345.663E-03        -1.17158     347.296E-03     114.716E-03     666.456E-03    -333.105E-03    -333.882E-03    -333.119E-03     666.450E-03    -333.862E-03     3.84052E-03     1.89041E+06    -161.054E+03    -9.29320E+06    -357.641E+03    -7.42906E+06     222.855E+03    -550.626E+03         76.4484
             494     712.327E-06     82.4811E-03     466.959E-03     323.325E-03        -1.26598     372.828E-03        -1.17185     323.325E-03    -342.321E-03     669.683E-03    -334.500E-03    -335.455E-03    -335.216E-03     669.682E-03    -334.738E-03     1.03796E-03     318.958E+03    -1.28478E+06    -10.1439E+06    -979.692E+03    -8.87820E+06    -1.25181E+06    -257.891E+03         76.2969
             495     12.1962E-03     82.9417E-03     337.723E-03     334.004E-03        -1.15110     332.917E-03        -1.14945     337.161E-03    -26.4312E-03     680.373E-03    -332.428E-03    -354.043E-03    -338.923E-03     665.253E-03    -332.428E-03     237.323E-03     14.5624E+06     1.11830E+06    -15.3036E+06     565.247E+03    -1.30639E+06     1.11830E+06     1.20326E+06         93.0432
             496     11.4870E-03     82.3286E-03     339.505E-03     332.727E-03        -1.15207     333.754E-03        -1.15166     338.064E-03     29.0318E-03     679.342E-03    -333.213E-03    -354.113E-03    -337.298E-03     662.526E-03    -333.213E-03     256.000E-03     10.3012E+06     1.11968E+06    -14.6845E+06    -602.974E+03    -4.42110E+06     1.76048E+06    -606.277E+03         90.3405
             497     10.7646E-03     81.9914E-03     340.217E-03     333.430E-03        -1.15400     334.845E-03        -1.15397     338.776E-03    -11.6639E-03     667.880E-03    -332.899E-03    -341.508E-03    -330.149E-03     656.521E-03    -332.899E-03     212.436E-03     8.42460E+06     978.316E+03    -10.1093E+06     922.441E+03    -2.97233E+06     1.34354E+06    -91.5286E+03         87.7668
             498     10.0548E-03     81.6156E-03     339.320E-03     334.672E-03        -1.15556     334.582E-03        -1.15547     339.320E-03     7.13460E-03     666.760E-03    -332.789E-03    -339.172E-03    -327.888E-03     655.476E-03    -332.789E-03     211.342E-03     8.52583E+06     801.715E+03    -5.46353E+06     565.329E+03     2.77255E+06     526.139E+03     233.793E+03         85.7343
             499     9.30963E-03     81.3156E-03     340.179E-03     335.344E-03        -1.15845     335.128E-03        -1.15793     339.873E-03    -23.0551E-03     661.632E-03    -331.126E-03    -334.249E-03    -324.792E-03     652.588E-03    -331.540E-03     188.789E-03     9.84488E+06     707.114E+03    -3.57240E+06     1.16868E+06     5.10380E+06     707.114E+03    -724.314E+03         84.2659
             500     8.59581E-03     81.0425E-03     341.408E-03     337.490E-03        -1.16141     337.153E-03        -1.16002     340.349E-03     16.6920E-03     657.730E-03    -329.672E-03    -330.329E-03    -321.805E-03     649.822E-03    -330.288E-03     175.929E-03     6.84627E+06     1.58506E+06    -4.27387E+06     1.44124E+06     458.250E+03     2.25797E+06    -163.203E+03         83.1491
             501     7.87626E-03     80.8251E-03     344.444E-03     337.481E-03        -1.16455     339.213E-03        -1.16244     340.604E-03    -5.37062E-03     655.103E-03    -327.684E-03    -329.864E-03    -320.935E-03     648.354E-03    -329.864E-03     162.141E-03     5.69196E+06     2.17378E+06    -3.75775E+06     1.03502E+06     226.283E+03     2.84669E+06     161.257E+03         82.1615
             502     7.15333E-03     80.6786E-03     346.293E-03     337.955E-03        -1.16756     342.260E-03        -1.16604     340.460E-03    -26.3004E-03     654.940E-03    -326.089E-03    -330.761E-03    -320.757E-03     649.608E-03    -330.761E-03     143.865E-03     8.94974E+06     1.53830E+06    -1.80772E+06     1.16691E+06     5.97512E+06     1.53830E+06     3.11631E+03         81.2759
             503     6.44197E-03     80.4824E-03     344.798E-03     338.777E-03        -1.16741     343.106E-03        -1.16686     339.913E-03     55.6065E-03     654.268E-03    -325.074E-03    -332.126E-03    -321.180E-03     650.374E-03    -332.126E-03     122.790E-03     8.80808E+06     742.779E+03    -2.37047E+06     749.627E+03     5.68799E+06     742.779E+03    -250.435E+03         80.5557
             504     5.72218E-03     80.3731E-03     343.147E-03     338.076E-03        -1.16562     340.905E-03        -1.16464     339.338E-03    -25.3535E-03     655.116E-03    -323.928E-03    -334.076E-03    -321.357E-03     652.545E-03    -334.076E-03     99.3695E-03     7.85585E+06     1.22626E+06    -1.01866E+06     1.09660E+06     5.74059E+06     1.22626E+06    -11.1096E+03         79.9379
             505     5.00668E-03     80.3074E-03     343.114E-03     334.640E-03        -1.16240     336.891E-03        -1.16071     339.180E-03     2.61991E-03     660.145E-03    -324.321E-03    -333.289E-03    -322.837E-03     658.661E-03    -333.289E-03     75.5246E-03     6.12967E+06     1.19475E+06    -2.56460E+06     930.342E+03     830.273E+03     2.99921E+06     350.322E+03         79.2414
             506     4.27863E-03     80.2804E-03     342.641E-03     335.544E-03        -1.16294     337.707E-03        -1.16185     339.386E-03     29.5873E-03     662.693E-03    -328.133E-03    -331.657E-03    -327.509E-03     661.904E-03    -331.492E-03     55.0792E-03     4.39176E+06     18.6902E+03    -3.31645E+06     288.238E+03    -1.01739E+06     1.82315E+06     635.170E+03         78.5101
             507     3.56706E-03     80.2965E-03     340.795E-03     337.922E-03        -1.16209     337.692E-03        -1.16087     339.803E-03     16.2895E-03     661.000E-03    -330.603E-03    -331.484E-03    -330.928E-03     660.626E-03    -330.784E-03     37.7007E-03     3.82151E+06     318.846E+03    -2.89730E+06     609.327E+03     900.299E+03    -266.564E+03     48.8922E+03         77.8452
             508     2.85383E-03     80.3391E-03     345.745E-03     338.374E-03        -1.16714     339.656E-03        -1.16293     340.255E-03    -46.5878E-03     659.971E-03    -330.876E-03    -331.717E-03    -331.269E-03     659.829E-03    -331.183E-03     22.5488E-03     1.82680E+06     519.374E+03    -5.58531E+06     577.150E+03    -3.98560E+06     169.317E+03    -536.457E+03         77.2356
             509     2.14060E-03     80.3995E-03     354.299E-03     337.311E-03        -1.17521     340.204E-03        -1.16437     340.570E-03     49.5566E-03     662.937E-03    -331.928E-03    -332.666E-03    -331.894E-03     662.902E-03    -332.666E-03     10.7118E-03     1.38312E+06    -679.526E+03    -8.10734E+06    -61.6793E+03    -7.28180E+06    -60.2634E+03    -18.3589E+03         76.7552
             510     1.42701E-03     80.4512E-03     366.634E-03     335.950E-03        -1.18661     345.603E-03        -1.16883     339.209E-03     11.5663E-03     666.122E-03    -333.019E-03    -333.727E-03    -333.015E-03     666.117E-03    -333.727E-03     2.92990E-03     1.34237E+06    -996.841E+03    -9.99914E+06    -913.690E+03    -8.18776E+06    -552.159E+03     251.673E+03         76.4562
             511     713.461E-06     80.4878E-03     405.712E-03     308.636E-03        -1.19635     367.020E-03        -1.15765     308.636E-03    -27.5486E-03     669.561E-03    -333.934E-03    -335.841E-03    -335.563E-03     669.560E-03    -334.211E-03    -594.025E-06     1.82732E+06     305.435E+03    -9.10755E+06     533.409E+03    -7.90739E+06     399.179E+03     776.484E+03         76.3168
             512     12.1994E-03     80.9163E-03     339.677E-03     334.781E-03        -1.15912     333.508E-03        -1.15785     339.677E-03    -25.6333E-03     680.085E-03    -332.359E-03    -353.733E-03    -338.760E-03     665.112E-03    -332.359E-03     236.089E-03     16.1732E+06    -551.354E+03    -18.5001E+06    -1.15666E+06    -1.17019E+06    -551.354E+03    -272.343E+03         93.0095
             513     11.4934E-03     80.2902E-03     341.826E-03     338.054E-03        -1.16497     339.188E-03        -1.16466     340.385E-03     23.8895E-03     678.504E-03    -333.193E-03    -353.257E-03    -336.562E-03     661.808E-03    -333.193E-03     255.011E-03     12.1682E+06      65.456E+03    -13.0601E+06     2.18368E+06    -5.33995E+06     2.32991E+06     1.35098E+06         90.3027
             514     10.7624E-03     79.9680E-03     343.789E-03     339.970E-03        -1.16935     342.891E-03        -1.16931     340.825E-03    -13.4531E-03     666.967E-03    -332.958E-03    -340.984E-03    -329.603E-03     655.586E-03    -332.958E-03     212.477E-03     9.93868E+06    -453.027E+03    -10.5735E+06    -412.625E+03    -2.48663E+06     1.81143E+06     152.518E+03         87.7262
             515     10.0510E-03     79.5807E-03     345.837E-03     339.261E-03        -1.17274     343.957E-03        -1.17266     341.066E-03     862.514E-06     665.841E-03    -332.875E-03    -338.646E-03    -327.289E-03     654.485E-03    -332.875E-03     211.888E-03     9.68448E+06     1.51019E+06    -4.49977E+06     712.236E+03     4.47248E+06     1.51019E+06    -2.20735E+06         85.6967
             516     9.30718E-03     79.2990E-03     346.897E-03     339.808E-03        -1.17639     345.237E-03        -1.17600     341.071E-03    -22.3469E-03     661.168E-03    -330.533E-03    -333.643E-03    -323.268E-03     651.989E-03    -331.728E-03     190.036E-03     6.56002E+06     1.35502E+06    -3.77210E+06     1.03564E+06     1.75229E+06     1.35502E+06    -1.65489E+06         84.2471
             517     8.59144E-03     79.0178E-03     349.047E-03     340.681E-03        -1.18111     347.784E-03        -1.17985     340.681E-03     19.6876E-03     659.366E-03    -329.325E-03    -331.496E-03    -322.259E-03     651.354E-03    -330.550E-03     177.236E-03     4.22192E+06     600.314E+03    -4.16989E+06     333.412E+03    -824.028E+03     1.14296E+06     198.378E+03         83.1612
             518     7.87433E-03     78.8106E-03     353.979E-03     339.750E-03        -1.18495     352.110E-03        -1.18308     339.750E-03    -2.11295E-03     658.089E-03    -329.241E-03    -331.131E-03    -323.721E-03     651.422E-03    -329.984E-03     161.538E-03     5.57084E+06     579.166E+03    -2.52744E+06     551.573E+03     1.94918E+06     1.12181E+06     249.856E+03         82.1899
             519     7.15582E-03     78.6514E-03     353.573E-03     338.359E-03        -1.18138     352.224E-03        -1.18003     338.359E-03    -21.1128E-03     656.319E-03    -327.272E-03    -330.905E-03    -322.316E-03     651.162E-03    -330.704E-03     141.699E-03     7.78025E+06     631.180E+03    -2.89862E+06     340.123E+03     4.54151E+06     631.180E+03    -549.674E+03         81.2846
             520     6.44371E-03     78.4560E-03     349.929E-03     336.835E-03        -1.17581     349.390E-03        -1.17527     336.835E-03     53.5992E-03     653.176E-03    -324.481E-03    -332.096E-03    -320.686E-03     649.381E-03    -332.096E-03     121.219E-03     8.80878E+06     262.808E+03    -2.54168E+06     602.951E+03     5.66415E+06     262.808E+03     72.1716E+03         80.5305
             521     5.72281E-03     78.3546E-03     348.308E-03     335.290E-03        -1.17447     347.233E-03        -1.17340     335.290E-03    -32.1201E-03     654.100E-03    -323.373E-03    -334.069E-03    -320.788E-03     651.516E-03    -334.069E-03     99.6377E-03     7.48554E+06    -200.122E+03    -2.19903E+06     179.343E+03     5.10717E+06    -200.122E+03     808.960E+03         79.9059
             522     5.00715E-03     78.2968E-03     344.913E-03     333.829E-03        -1.17138     342.844E-03        -1.16931     333.829E-03     6.51902E-03     660.591E-03    -324.926E-03    -333.241E-03    -323.382E-03     659.047E-03    -333.241E-03     77.0928E-03     5.33674E+06    -136.872E+03    -4.04199E+06    -210.858E+03     903.219E+03     465.514E+03     517.536E+03         79.2330
             523     4.28114E-03     78.2657E-03     339.016E-03     332.786E-03        -1.16431     337.062E-03        -1.16235     332.786E-03     11.8488E-03     663.404E-03    -328.797E-03    -331.727E-03    -328.220E-03     662.593E-03    -331.493E-03     55.6335E-03     4.43965E+06     495.192E+03    -2.55242E+06     826.893E+03     457.959E+03     1.09758E+06    -122.691E+03         78.5117
             524     3.56420E-03     78.2932E-03     336.863E-03     330.756E-03        -1.15700     332.066E-03        -1.15393     332.484E-03     34.8530E-03     660.513E-03    -330.466E-03    -331.084E-03    -330.480E-03     660.163E-03    -330.721E-03     36.0959E-03     3.72008E+06     26.7269E+03    -1.73584E+06     882.135E+03     790.629E+03     338.204E+03     37.6047E+03         77.8240
             525     2.85099E-03     78.3275E-03     345.345E-03     330.899E-03        -1.16161     332.796E-03        -1.15079     332.627E-03    -76.7887E-03     659.014E-03    -330.220E-03    -331.068E-03    -330.226E-03     658.890E-03    -330.938E-03     20.9279E-03     2.02853E+06    -756.321E+03    -5.51795E+06    -271.122E+03    -4.34567E+06     371.052E+03     602.983E+03         77.1912
             526     2.13879E-03     78.3920E-03     363.118E-03     332.374E-03        -1.18063     335.398E-03        -1.15291     332.374E-03     80.9224E-03     662.978E-03    -331.788E-03    -332.600E-03    -331.753E-03     662.943E-03    -332.600E-03     11.0416E-03     1.92916E+06    -682.692E+03    -8.01173E+06     28.8258E+03    -7.27986E+06     485.774E+03     417.241E+03         76.7112
             527     1.42755E-03     78.4585E-03     387.782E-03     329.866E-03        -1.20841     339.213E-03        -1.15984     329.866E-03    -60.4384E-03     666.475E-03    -333.368E-03    -333.768E-03    -333.360E-03     666.466E-03    -333.768E-03     5.02929E-03     1.99698E+06    -472.325E+03    -8.99167E+06     135.691E+03    -7.54373E+06    -58.9815E+03    -37.4732E+03         76.4342
             528     713.897E-06     78.4970E-03     463.329E-03     312.560E-03        -1.27307     342.900E-03        -1.15264     312.560E-03     235.079E-03     669.524E-03    -333.979E-03    -335.848E-03    -335.613E-03     669.522E-03    -334.212E-03     1.57127E-03     1.62532E+06    -37.4469E+03    -9.87654E+06    -107.712E+03    -8.20428E+06     23.3272E+03    -548.337E+03         76.3194
             529     12.1978E-03     78.8867E-03     342.995E-03     339.545E-03        -1.17194     340.021E-03        -1.17130     341.870E-03    -31.8819E-03     680.564E-03    -332.390E-03    -353.794E-03    -338.643E-03     665.414E-03    -332.390E-03     237.686E-03     21.0421E+06     633.526E+03    -19.9145E+06     2.72382E+06    -1.59624E+06     633.526E+03     2.70971E+06         92.9668
             530     11.4882E-03     78.2687E-03     343.271E-03     341.310E-03        -1.17486     342.038E-03        -1.17476     342.450E-03     15.8745E-03     678.072E-03    -333.192E-03    -352.884E-03    -335.960E-03     661.147E-03    -333.192E-03     256.829E-03     9.87728E+06    -1.12383E+06    -12.8414E+06    -1.70178E+06    -2.52900E+06     142.802E+03    -891.159E+03         90.2636
             531     10.7629E-03     77.9382E-03     347.306E-03     342.350E-03        -1.18100     346.794E-03        -1.18080     342.664E-03    -15.0266E-03     666.586E-03    -332.952E-03    -340.435E-03    -328.948E-03     655.099E-03    -332.952E-03     213.452E-03     10.3024E+06    -1.11798E+06    -6.22036E+06     1.31317E+06     1.50222E+06     148.653E+03    -3.52313E+06         87.6993
             532     10.0513E-03     77.5555E-03     352.850E-03     342.275E-03        -1.18852     352.504E-03        -1.18818     342.275E-03     1.87441E-03     665.658E-03    -332.901E-03    -337.876E-03    -326.644E-03     654.426E-03    -332.901E-03     210.573E-03     6.26806E+06    -1.07640E+06    -3.69599E+06     692.357E+03     1.87971E+06    -1.07640E+06    -2.45874E+06         85.6842
             533     9.30335E-03     77.2745E-03     354.002E-03     341.428E-03        -1.19196     353.404E-03        -1.19136     341.428E-03    -12.1022E-03     662.283E-03    -331.001E-03    -333.605E-03    -323.926E-03     653.387E-03    -331.783E-03     187.206E-03     3.53442E+06     179.808E+03    -6.58348E+06    -500.766E+03    -2.54829E+06     179.808E+03    -854.297E+03         84.2443
             534     8.58918E-03     77.0000E-03     352.705E-03     340.468E-03        -1.19152     351.410E-03        -1.19022     340.468E-03     17.3715E-03     660.939E-03    -329.735E-03    -332.445E-03    -323.952E-03     653.229E-03    -330.517E-03     174.157E-03     5.22379E+06     997.062E+03    -6.53814E+06    -248.906E+03    -1.06544E+06     997.062E+03    -333.591E+03         83.1579
             535     7.87764E-03     76.7656E-03     351.593E-03     339.582E-03        -1.18868     349.699E-03        -1.18679     339.582E-03    -3.38435E-03     658.067E-03    -328.641E-03    -331.769E-03    -324.041E-03     651.553E-03    -329.854E-03     159.763E-03     6.85242E+06    -419.707E+03    -3.30018E+06     111.864E+03     3.44038E+06    -419.707E+03    -520.057E+03         82.1762
             536     7.15784E-03     76.6292E-03     351.349E-03     338.696E-03        -1.18509     349.995E-03        -1.18374     338.696E-03    -23.3931E-03     655.508E-03    -326.203E-03    -330.905E-03    -321.076E-03     650.179E-03    -330.704E-03     144.034E-03     5.73260E+06    -778.784E+03    -3.34592E+06     94.8143E+03     2.29187E+06    -778.784E+03    -118.718E+03         81.2589
             537     6.44489E-03     76.4359E-03     350.471E-03     337.649E-03        -1.18234     350.031E-03        -1.18190     337.649E-03     48.3573E-03     652.863E-03    -323.810E-03    -332.255E-03    -319.691E-03     648.744E-03    -332.255E-03     126.065E-03     6.62436E+06    -482.800E+03    -2.71637E+06     127.319E+03     3.78067E+06    -482.800E+03     494.196E+03         80.5029
             538     5.71986E-03     76.3436E-03     347.474E-03     335.965E-03        -1.17983     345.662E-03        -1.17863     336.575E-03    -41.8930E-03     655.106E-03    -323.914E-03    -334.239E-03    -321.191E-03     652.384E-03    -334.239E-03     102.127E-03     6.55636E+06     84.6356E+03    -1.79523E+06     502.196E+03     4.25893E+06     84.6356E+03     360.416E+03         79.8897
             539     5.00450E-03     76.2822E-03     343.031E-03     334.817E-03        -1.17728     339.735E-03        -1.17505     335.880E-03     49.5501E-06     662.301E-03    -326.361E-03    -333.354E-03    -324.824E-03     660.764E-03    -333.354E-03     76.8324E-03     5.25789E+06     885.599E+03    -748.856E+03     1.33003E+06     3.54122E+06     523.390E+03     81.4245E+03         79.2347
             540     4.27846E-03     76.2439E-03     341.488E-03     334.958E-03        -1.17612     338.654E-03        -1.17374     335.412E-03    -3.66301E-03     664.563E-03    -329.770E-03    -331.991E-03    -329.379E-03     663.776E-03    -331.594E-03     54.9435E-03     4.65956E+06     1.13016E+06    -185.554E+03     1.86976E+06     2.09357E+06     1.64083E+06    -411.665E+03         78.5237
             541     3.56916E-03     76.2834E-03     346.359E-03     334.279E-03        -1.17678     342.216E-03        -1.17263     334.279E-03     31.6315E-03     660.740E-03    -330.672E-03    -331.217E-03    -330.794E-03     660.391E-03    -330.746E-03     36.0465E-03     4.32534E+06     1.35078E+06    -2.54203E+06     1.70512E+06    -2.30060E+06     3.72957E+06    -277.777E+03         77.8235
             542     2.85419E-03     76.3211E-03     358.345E-03     331.779E-03        -1.18105     344.275E-03        -1.16698     331.779E-03    -91.5382E-03     658.237E-03    -329.408E-03    -330.890E-03    -329.361E-03     658.115E-03    -330.816E-03     20.7631E-03     4.53598E+06     1.61821E+06    -4.68903E+06     1.51894E+06    -4.58976E+06     4.53598E+06     165.002E+03         77.1601
             543     2.13850E-03     76.3871E-03     374.647E-03     328.123E-03        -1.19264     339.933E-03        -1.15793     328.123E-03     83.7142E-03     659.775E-03    -329.517E-03    -331.478E-03    -329.485E-03     659.743E-03    -331.478E-03     10.3661E-03     3.38159E+06     1.17078E+06    -6.37096E+06     444.352E+03    -5.64453E+06     3.38159E+06     33.3883E+03         76.6555
             544     1.42380E-03     76.4667E-03     393.586E-03     325.301E-03        -1.21629     328.469E-03        -1.15118     325.301E-03    -90.5067E-03     666.802E-03    -333.297E-03    -334.240E-03    -333.291E-03     666.795E-03    -334.240E-03     4.23505E-03     2.10603E+06    -35.5309E+03    -8.25228E+06    -441.159E+03    -7.09607E+06     1.35544E+06     54.6243E+03         76.3988
             545     711.913E-06     76.5024E-03     492.175E-03     324.518E-03        -1.32355     323.845E-03        -1.15522     324.518E-03     304.591E-03     673.236E-03    -336.138E-03    -337.301E-03    -336.839E-03     673.234E-03    -336.597E-03     1.57381E-03     422.891E+03    -1.77329E+06    -11.4102E+06    -1.61943E+06    -9.95988E+06    -1.18127E+06    -131.853E+03         76.3345
             546     12.1971E-03     76.8646E-03     345.938E-03     342.766E-03        -1.18405     344.881E-03        -1.18373     343.507E-03    -31.3145E-03     680.425E-03    -332.441E-03    -352.982E-03    -337.839E-03     665.282E-03    -332.441E-03     237.237E-03     19.7200E+06     1.06304E+06    -24.8390E+06    -1.58104E+06    -1.90405E+06    -570.885E+03    -1.54711E+06         92.9278
             547     11.4891E-03     76.2409E-03     350.593E-03     343.365E-03        -1.19100     350.343E-03        -1.19075     343.365E-03     24.7110E-03     677.882E-03    -333.162E-03    -352.930E-03    -335.885E-03     660.837E-03    -333.162E-03     257.845E-03     12.0223E+06     656.988E+03    -7.61113E+06     3.53177E+06     3.51117E+06    -1.97476E+06    -1.39902E+06         90.2345
             548     10.7604E-03     75.9152E-03     354.111E-03     342.703E-03        -1.19339     353.494E-03        -1.19277     342.703E-03    -7.69895E-03     666.895E-03    -332.926E-03    -340.474E-03    -329.041E-03     655.462E-03    -332.926E-03     213.087E-03     7.09412E+06    -1.62818E+06    -6.34465E+06     1.05250E+06     1.59692E+06    -3.52813E+06    -520.840E+03         87.6871
             549     10.0482E-03     75.5301E-03     351.522E-03     341.833E-03        -1.19225     350.731E-03        -1.19146     341.833E-03     2.17822E-03     666.842E-03    -332.832E-03    -338.424E-03    -327.409E-03     655.827E-03    -332.832E-03     208.706E-03     4.59720E+06    -1.34500E+06    -4.21953E+06    -310.067E+03     1.58986E+06    -2.24712E+06    -238.601E+03         85.6796
             550     9.30527E-03     75.2516E-03     348.951E-03     339.979E-03        -1.19101     346.580E-03        -1.18986     341.201E-03    -11.3901E-03     663.394E-03    -331.643E-03    -334.490E-03    -325.639E-03     654.543E-03    -331.643E-03     187.023E-03     3.86911E+06    -356.293E+03    -6.03381E+06    -279.769E+03    -2.19321E+06    -48.0206E+03     401.899E+03         84.2239
             551     8.59611E-03     74.9566E-03     346.230E-03     339.746E-03        -1.18966     342.883E-03        -1.18753     340.968E-03     17.8127E-03     660.035E-03    -330.282E-03    -331.527E-03    -323.650E-03     652.158E-03    -330.282E-03     175.927E-03     3.99924E+06    -269.819E+03    -5.98267E+06    -478.723E+03    -1.78733E+06     12.8082E+03    -532.088E+03         83.1083
             552     7.87913E-03     74.7185E-03     344.262E-03     341.013E-03        -1.18807     341.548E-03        -1.18535     341.013E-03     1.87148E-03     655.639E-03    -327.384E-03    -330.626E-03    -321.439E-03     648.849E-03    -329.781E-03     162.690E-03     4.52868E+06    -449.385E+03    -4.14583E+06    -603.976E+03     835.227E+03    -297.785E+03    -1.49109E+06         82.1111
             553     7.15250E-03     74.5798E-03     345.617E-03     340.786E-03        -1.18741     343.520E-03        -1.18558     341.048E-03    -23.2969E-03     654.797E-03    -325.506E-03    -330.934E-03    -320.055E-03     649.345E-03    -330.934E-03     145.401E-03     4.54648E+06     305.451E+03    -3.29979E+06    -186.195E+03     1.25564E+06     482.695E+03    -128.942E+03         81.2112
             554     6.43698E-03     74.3771E-03     345.851E-03     340.650E-03        -1.18631     344.996E-03        -1.18572     340.913E-03     54.1421E-03     654.395E-03    -324.752E-03    -332.475E-03    -320.733E-03     650.376E-03    -332.475E-03     124.525E-03     6.11718E+06    -51.8467E+03    -2.30788E+06     108.125E+03     3.70118E+06    -51.8467E+03     66.2820E+03         80.4848
             555     5.71883E-03     74.2872E-03     343.609E-03     340.183E-03        -1.18536     342.133E-03        -1.18449     340.793E-03    -33.8510E-03     656.567E-03    -324.839E-03    -334.313E-03    -322.209E-03     653.937E-03    -334.313E-03     100.548E-03     6.07587E+06     592.240E+03    -1.28033E+06     747.365E+03     4.04818E+06     592.240E+03    -613.333E+03         79.8756
             556     5.00797E-03     74.2259E-03     341.875E-03     339.927E-03        -1.18604     338.844E-03        -1.18407     340.991E-03     11.5335E-03     662.464E-03    -326.532E-03    -333.209E-03    -325.032E-03     660.965E-03    -333.209E-03     75.8989E-03     5.90840E+06     1.33779E+06    -978.623E+03     749.409E+03     4.54258E+06     975.585E+03    -508.532E+03         79.2047
             557     4.28193E-03     74.1858E-03     343.624E-03     340.790E-03        -1.18916     340.712E-03        -1.18670     341.244E-03    -2.79473E-03     663.937E-03    -329.402E-03    -331.593E-03    -328.797E-03     663.169E-03    -331.430E-03     54.3401E-03     4.12893E+06    -86.2458E+03    -2.33100E+06    -34.1396E+03     1.32140E+06     424.430E+03    -496.093E+03         78.4890
             558     3.56405E-03     74.2280E-03     350.482E-03     340.751E-03        -1.19396     345.686E-03        -1.18916     340.751E-03     41.4905E-03     660.535E-03    -330.406E-03    -330.953E-03    -330.463E-03     660.177E-03    -330.538E-03     36.7421E-03     2.97520E+06    -350.711E+03    -3.97696E+06    -134.493E+03    -2.23552E+06     1.01753E+06    -652.062E+03         77.8002
             559     2.85205E-03     74.2648E-03     358.469E-03     339.367E-03        -1.19721     345.140E-03        -1.18388     339.367E-03    -69.3004E-03     658.999E-03    -329.934E-03    -331.081E-03    -330.051E-03     658.865E-03    -330.829E-03     22.0709E-03     2.31352E+06     -40.591E+03    -6.13656E+06    -329.311E+03    -4.58506E+06     1.05073E+06    -474.052E+03         77.1401
             560     2.13942E-03     74.3334E-03     373.988E-03     336.897E-03        -1.21053     344.895E-03        -1.18143     336.897E-03     71.4470E-03     659.953E-03    -329.706E-03    -331.363E-03    -329.672E-03     659.919E-03    -331.363E-03     10.4983E-03     1.77290E+06     412.446E+03    -7.25464E+06    -126.850E+03    -6.57726E+06     1.63481E+06    -255.927E+03         76.6178
             561     1.42611E-03     74.4237E-03     389.323E-03     334.012E-03        -1.22625     337.795E-03        -1.17472     334.012E-03    -65.4982E-03     665.956E-03    -332.669E-03    -333.789E-03    -332.665E-03     665.952E-03    -333.789E-03     2.82447E-03     2.20779E+06     342.679E+03    -7.74344E+06    -54.7839E+03    -6.69928E+06     1.56110E+06    -223.961E+03         76.3546
             562     712.936E-06     74.4550E-03     437.304E-03     341.172E-03        -1.28762     324.015E-03        -1.17433     341.172E-03     197.683E-03     672.697E-03    -335.983E-03    -336.941E-03    -336.440E-03     672.697E-03    -336.484E-03    -490.270E-06     1.42343E+06    -2.52619E+06    -11.1330E+06    -2.33926E+06    -9.83205E+06    -64.4196E+03    -85.3456E+03         76.3100
             563     12.1963E-03     74.8269E-03     349.125E-03     342.683E-03        -1.19502     348.212E-03        -1.19484     343.424E-03    -29.4638E-03     680.207E-03    -332.406E-03    -352.644E-03    -337.638E-03     665.201E-03    -332.406E-03     236.368E-03     21.3938E+06     1.32998E+06    -22.7477E+06     1.74454E+06    -1.46452E+06    -303.946E+03    -965.945E+03         92.9032
             564     11.4850E-03     74.2276E-03     350.682E-03     341.958E-03        -1.19670     349.343E-03        -1.19620     342.801E-03     28.0880E-03     677.744E-03    -333.149E-03    -352.813E-03    -336.004E-03     660.936E-03    -333.149E-03     255.979E-03     7.27843E+06    -355.673E+03    -7.75235E+06    -1.64239E+06     3.87931E+06    -3.06651E+06     1.17722E+06         90.2111
             565     10.7596E-03     73.8706E-03     350.878E-03     341.415E-03        -1.19591     348.851E-03        -1.19473     342.258E-03    -9.01102E-03     667.216E-03    -332.911E-03    -340.680E-03    -329.530E-03     656.066E-03    -332.911E-03     210.585E-03     6.95426E+06     185.473E+03    -5.20206E+06    -856.650E+03     4.58789E+06    -1.79356E+06     949.150E+03         87.6597
             566     10.0530E-03     73.4885E-03     347.080E-03     342.034E-03        -1.19370     345.772E-03        -1.19239     342.034E-03    -4.31356E-03     667.235E-03    -332.748E-03    -338.998E-03    -328.161E-03     656.398E-03    -332.748E-03     207.291E-03     4.89251E+06    -306.940E+03    -3.87319E+06    -258.342E+03     1.37719E+06    -406.478E+03     1.14695E+06         85.6402
             567     9.30789E-03     73.1908E-03     343.745E-03     340.778E-03        -1.19071     340.678E-03        -1.18909     342.218E-03    -13.9266E-03     662.137E-03    -330.863E-03    -334.648E-03    -324.929E-03     653.152E-03    -331.597E-03     188.293E-03     2.42391E+06    -375.720E+03    -4.03854E+06    -286.144E+03    -2.43935E+06     735.141E+03    -18.6131E+03         84.1698
             568     8.59123E-03     72.8941E-03     343.111E-03     340.209E-03        -1.19128     337.973E-03        -1.18872     342.781E-03     11.9627E-03     658.025E-03    -329.542E-03    -330.562E-03    -321.808E-03     650.027E-03    -330.298E-03     176.915E-03     4.48509E+06     282.339E+03    -3.36268E+06     46.7188E+03     793.069E+03     564.967E+03    -1.29881E+06         83.0456
             569     7.87104E-03     72.6755E-03     345.055E-03     341.608E-03        -1.19465     340.045E-03        -1.19146     343.428E-03    -3.29300E-03     655.824E-03    -328.375E-03    -329.977E-03    -321.762E-03     649.133E-03    -329.899E-03     161.401E-03     5.33681E+06     1.36516E+06    -5.78027E+06      63.373E+03    -658.434E+03     1.51676E+06    -1.35056E+06         82.0496
             570     7.15311E-03     72.5179E-03     345.381E-03     340.988E-03        -1.19407     339.960E-03        -1.19174     344.085E-03    -26.7563E-03     656.078E-03    -327.091E-03    -330.999E-03    -321.890E-03     650.877E-03    -330.999E-03     142.219E-03     5.66245E+06     1.62935E+06    -6.15599E+06    -275.931E+03    -394.856E+03     1.80659E+06    -1.21090E+06         81.1561
             571     6.44406E-03     72.3162E-03     345.148E-03     341.256E-03        -1.19475     340.903E-03        -1.19407     344.821E-03     45.7890E-03     654.509E-03    -325.287E-03    -332.415E-03    -321.495E-03     650.717E-03    -332.415E-03     121.152E-03     6.84919E+06     476.996E+03    -3.44156E+06    -397.489E+03     3.80512E+06     476.996E+03    -850.290E+03         80.4249
             572     5.72233E-03     72.2244E-03     347.258E-03     344.117E-03        -1.19965     345.591E-03        -1.19913     345.274E-03    -37.8950E-03     655.211E-03    -323.903E-03    -334.147E-03    -321.358E-03     652.665E-03    -334.147E-03     99.0434E-03     5.89497E+06    -302.935E+03    -3.37900E+06    -939.188E+03     3.45516E+06    -302.935E+03    -342.860E+03         79.8000
             573     5.00580E-03     72.1360E-03     348.566E-03     345.295E-03        -1.20158     347.183E-03        -1.20020     345.295E-03     11.9666E-03     660.653E-03    -325.026E-03    -332.955E-03    -323.502E-03     659.130E-03    -332.955E-03     76.5084E-03     5.52056E+06    -525.098E+03    -3.07177E+06    -1.16001E+06     3.60880E+06    -525.098E+03    -34.5764E+03         79.1261
             574     4.27777E-03     72.1076E-03     346.975E-03     344.699E-03        -1.19920     344.397E-03        -1.19723     345.310E-03    -6.33937E-03     662.696E-03    -328.616E-03    -331.348E-03    -328.009E-03     661.897E-03    -331.156E-03     55.3978E-03     3.96294E+06    -1.29962E+06    -3.29809E+06    -1.32353E+06     1.98838E+06    -1.29962E+06    -276.881E+03         78.4242
             575     3.56802E-03     72.1539E-03     347.823E-03     344.964E-03        -1.20068     343.186E-03        -1.19665     345.575E-03     37.4502E-03     660.714E-03    -330.363E-03    -331.262E-03    -330.754E-03     660.337E-03    -330.495E-03     37.7111E-03     2.38374E+06    -1.32511E+06    -5.14987E+06    -1.37600E+06    -1.39013E+06    -1.32511E+06    -575.704E+03         77.7596
             576     2.85266E-03     72.1947E-03     350.303E-03     346.351E-03        -1.20492     341.175E-03        -1.19579     346.351E-03    -41.0064E-03     659.978E-03    -330.439E-03    -331.434E-03    -330.870E-03     659.834E-03    -330.859E-03     22.7533E-03     1.78178E+06    -268.299E+03    -6.96013E+06    -624.251E+03    -5.25139E+06     428.992E+03    -950.839E+03         77.1211
             577     2.13974E-03     72.2667E-03     362.927E-03     346.983E-03        -1.21854     346.197E-03        -1.20181     346.983E-03     41.2282E-03     660.200E-03    -330.147E-03    -331.060E-03    -330.110E-03     660.162E-03    -331.060E-03     11.2938E-03     1.25833E+06    -22.3910E+03    -7.71574E+06    -496.086E+03    -7.10396E+06     1.12024E+06    -1.14044E+06         76.5978
             578     1.42716E-03     72.3636E-03     372.976E-03     342.910E-03        -1.22258     347.939E-03        -1.20124     346.605E-03     15.6352E-03     665.572E-03    -332.569E-03    -333.419E-03    -332.562E-03     665.565E-03    -333.419E-03     4.50532E-03     255.159E+03    -837.296E+03    -8.95494E+06    -815.133E+03    -8.32999E+06    -391.952E+03    -636.739E+03         76.3203
             579     713.469E-06     72.3930E-03     380.821E-03     343.314E-03        -1.23197     332.882E-03        -1.19869     357.975E-03     27.4926E-03     672.061E-03    -335.396E-03    -336.826E-03    -336.468E-03     672.060E-03    -335.754E-03     1.21901E-03     487.000E+03    -4.25080E+06    -12.7380E+06    -2.37898E+06    -11.7418E+06    -2.38105E+06    -107.751E+03         76.2682
             580     12.1943E-03     72.7921E-03     348.682E-03     341.733E-03        -1.19956     347.402E-03        -1.19941     342.868E-03    -27.8633E-03     681.072E-03    -332.335E-03    -354.038E-03    -339.096E-03     666.130E-03    -332.335E-03     236.389E-03     17.9601E+06     812.462E+03    -18.2583E+06     2.31757E+06    -1.48417E+06    -319.121E+03     439.957E+03         92.8962
             581     11.4886E-03     72.1764E-03     344.776E-03     340.916E-03        -1.19494     342.248E-03        -1.19439     342.894E-03     19.3684E-03     678.323E-03    -333.120E-03    -353.551E-03    -336.873E-03     661.645E-03    -333.120E-03     255.198E-03     4.70364E+06     719.136E+03    -6.19625E+06    -1.10808E+06     1.46943E+06    -1.13482E+06    -909.268E+03         90.1966
             582     10.7632E-03     71.8089E-03     344.062E-03     340.669E-03        -1.19363     340.112E-03        -1.19233     343.324E-03    -14.1233E-03     666.789E-03    -332.873E-03    -340.616E-03    -329.348E-03     655.521E-03    -332.873E-03     211.535E-03     6.36115E+06     735.355E+03    -3.84791E+06     43.5438E+03     3.26888E+06    -63.8346E+03     405.921E+03         87.6256
             583     10.0500E-03     71.4170E-03     345.142E-03     339.447E-03        -1.19379     339.162E-03        -1.19234     343.980E-03    -8.24333E-03     665.969E-03    -332.695E-03    -338.441E-03    -327.427E-03     654.956E-03    -332.695E-03     208.698E-03     4.66536E+06     454.978E+03    -2.62867E+06     327.650E+03     983.261E+03     1.18075E+06     13.6454E+03         85.5931
             584     9.30527E-03     71.1367E-03     345.545E-03     341.468E-03        -1.19642     340.647E-03        -1.19476     344.713E-03    -14.1985E-03     662.082E-03    -330.858E-03    -334.168E-03    -324.570E-03     653.218E-03    -331.592E-03     186.927E-03     4.24287E+06     1.15792E+06    -2.78310E+06     670.562E+03    -13.3795E+03     1.96051E+06    -938.019E+03         84.1265
             585     8.59217E-03     70.8489E-03     345.740E-03     343.752E-03        -1.19877     341.622E-03        -1.19630     345.407E-03     8.89122E-03     659.270E-03    -329.478E-03    -330.938E-03    -322.551E-03     651.639E-03    -330.234E-03     172.964E-03     6.24500E+06     1.14276E+06    -3.57504E+06     167.856E+03     2.50211E+06     1.14276E+06    -962.858E+03         83.0080
             586     7.87681E-03     70.6271E-03     346.451E-03     342.946E-03        -1.19994     340.284E-03        -1.19694     346.118E-03    -4.08877E-03     656.323E-03    -328.087E-03    -330.376E-03    -322.309E-03     649.906E-03    -329.738E-03     158.301E-03     8.01109E+06     1.19002E+06    -6.36094E+06    -219.741E+03     1.86990E+06     1.19002E+06    -506.471E+03         82.0072
             587     7.15700E-03     70.4632E-03     347.005E-03     341.018E-03        -1.20168     338.701E-03        -1.19937     347.005E-03    -22.5164E-03     655.184E-03    -326.035E-03    -330.861E-03    -320.800E-03     649.950E-03    -330.861E-03     142.692E-03     7.78286E+06     1.33262E+06    -9.01514E+06    -887.094E+03    -381.836E+03     1.36928E+06    -1.51853E+06         81.0972
             588     6.44079E-03     70.2765E-03     348.010E-03     341.163E-03        -1.20419     340.410E-03        -1.20344     348.010E-03     39.0678E-03     653.382E-03    -324.281E-03    -332.413E-03    -320.296E-03     649.398E-03    -332.413E-03     124.158E-03     5.62102E+06     230.080E+03    -7.30671E+06    -1.72425E+06     1.90231E+03     266.731E+03    -1.31414E+06         80.3530
             589     5.72096E-03     70.1746E-03     349.818E-03     342.023E-03        -1.20560     342.605E-03        -1.20532     348.960E-03    -33.9046E-03     654.893E-03    -323.773E-03    -334.279E-03    -321.111E-03     652.231E-03    -334.279E-03     101.085E-03     5.66389E+06    -934.133E+03    -4.68281E+06    -1.66706E+06     2.64815E+06    -934.133E+03    -364.185E+03         79.7371
             590     5.00685E-03     70.1045E-03     352.135E-03     344.152E-03        -1.20704     345.802E-03        -1.20631     349.749E-03     13.2176E-03     660.615E-03    -324.878E-03    -333.222E-03    -323.362E-03     659.099E-03    -333.222E-03     76.2390E-03     5.51424E+06    -1.35282E+06    -3.94477E+06    -1.38525E+06     2.95472E+06    -1.35282E+06    -500.119E+03         79.0855
             591     4.27720E-03     70.0551E-03     354.497E-03     347.817E-03        -1.21179     351.120E-03        -1.21058     349.990E-03    -8.50455E-03     662.900E-03    -328.624E-03    -331.679E-03    -328.122E-03     662.116E-03    -331.397E-03     54.9071E-03     4.20331E+06    -871.398E+03    -3.40247E+06    -1.19799E+06     1.99883E+06    -871.398E+03    -607.932E+03         78.4032
             592     3.56159E-03     70.1099E-03     356.541E-03     348.853E-03        -1.21762     353.374E-03        -1.21507     349.464E-03     28.3402E-03     661.782E-03    -330.680E-03    -332.098E-03    -331.727E-03     661.411E-03    -330.680E-03     37.3842E-03     3.18684E+06    -342.602E+03    -4.94002E+06    -1.06660E+06    -686.577E+03    -342.602E+03    -481.295E+03         77.7502
             593     2.85205E-03     70.1471E-03     353.710E-03     347.973E-03        -1.21720     347.854E-03        -1.21256     349.190E-03    -15.7056E-03     660.323E-03    -330.480E-03    -332.040E-03    -331.479E-03     660.184E-03    -330.903E-03     22.2410E-03     1.72610E+06    -1.26159E+06    -7.68664E+06    -1.09423E+06    -5.56360E+06    -564.295E+03    -352.575E+03         77.1217
             594     2.13886E-03     70.2261E-03     355.283E-03     345.307E-03        -1.21678     344.149E-03        -1.21067     350.332E-03     4.96354E-03     659.746E-03    -330.295E-03    -331.000E-03    -330.260E-03     659.711E-03    -331.000E-03     10.7502E-03     709.427E+03    -2.51135E+06    -8.83246E+06    -1.99016E+06    -8.60920E+06    -35.0224E+03    -138.562E+03         76.6091
             595     1.42536E-03     70.3259E-03     358.081E-03     343.914E-03        -1.21476     344.257E-03        -1.21058     353.553E-03     68.4739E-03     665.818E-03    -332.998E-03    -333.494E-03    -332.992E-03     665.812E-03    -333.494E-03     4.18396E-03    -1.95568E+06    -3.76905E+06    -11.0005E+06    -4.02925E+06    -10.7399E+06    -1.95609E+06     243.443E+03         76.3319
             596     712.815E-06     70.3607E-03     369.123E-03     349.266E-03        -1.22319     345.675E-03        -1.21654     366.062E-03    -125.380E-03     672.341E-03    -335.705E-03    -336.667E-03    -336.453E-03     672.340E-03    -335.918E-03     1.33124E-03    -1.40647E+06    -4.53614E+06    -13.5847E+06    -3.05536E+06    -12.8441E+06    -3.62783E+06     1.12187E+03         76.2689
             597     12.1962E-03     70.7379E-03     348.427E-03     343.194E-03        -1.20226     347.150E-03        -1.20212     344.329E-03    -27.5413E-03     681.550E-03    -332.256E-03    -354.646E-03    -339.673E-03     666.577E-03    -332.256E-03     236.327E-03     10.5080E+06     520.246E+03    -15.1959E+06    -3.41406E+06    -142.227E+03    -611.337E+03    -1.98396E+06         92.8950
             598     11.4883E-03     70.1242E-03     346.405E-03     343.756E-03        -1.20135     344.714E-03        -1.20087     344.971E-03     15.6340E-03     678.980E-03    -333.027E-03    -354.141E-03    -337.355E-03     662.193E-03    -333.027E-03     256.084E-03     4.60358E+06     2.25634E+06    -5.96867E+06    -187.829E+03    -400.206E+03     1.47929E+06    -364.341E+03         90.1904
             599     10.7630E-03     69.7632E-03     346.916E-03     343.745E-03        -1.20242     344.009E-03        -1.20140     345.636E-03    -10.8986E-03     666.323E-03    -332.809E-03    -340.201E-03    -328.907E-03     655.029E-03    -332.809E-03     211.673E-03     4.42768E+06     908.959E+03    -4.57814E+06    -62.5249E+03    -700.541E+03     1.52156E+06    -848.119E+03         87.6118
             600     10.0529E-03     69.3765E-03     347.679E-03     341.745E-03        -1.20242     341.983E-03        -1.20125     346.278E-03    -4.71119E-03     665.217E-03    -332.622E-03    -337.850E-03    -326.840E-03     654.207E-03    -332.622E-03     208.482E-03     5.21194E+06     134.894E+03    -1.79202E+06     358.101E+03     2.81886E+06     377.843E+03    -918.167E+03         85.5773
             601     9.30528E-03     69.0949E-03     347.417E-03     343.592E-03        -1.20330     342.732E-03        -1.20191     346.887E-03    -12.1562E-03     662.968E-03    -331.517E-03    -334.446E-03    -325.600E-03     654.122E-03    -331.517E-03     186.931E-03     5.36865E+06    -219.295E+03    -3.52732E+06    -44.0726E+03     1.90053E+06    -234.418E+03    -100.855E+03         84.1101
             602     8.59635E-03     68.8202E-03     348.389E-03     346.719E-03        -1.20657     345.516E-03        -1.20427     347.292E-03     14.5391E-03     661.071E-03    -330.204E-03    -331.844E-03    -324.120E-03     653.346E-03    -330.204E-03     174.351E-03     5.52832E+06    -294.630E+03    -4.62074E+06    -555.549E+03     1.46313E+06    -294.630E+03     386.053E+03         82.9883
             603     7.87808E-03     68.6112E-03     349.051E-03     346.225E-03        -1.20845     344.990E-03        -1.20575     347.577E-03     3.77185E-03     656.221E-03    -327.011E-03    -330.716E-03    -321.508E-03     649.618E-03    -329.616E-03     160.558E-03     7.03849E+06    -652.033E+03    -4.55774E+06    -1.03737E+06     3.79278E+06    -926.696E+03    -154.037E+03         81.9805
             604     7.15575E-03     68.4522E-03     348.375E-03     343.853E-03        -1.20917     342.417E-03        -1.20736     347.999E-03    -22.7258E-03     653.643E-03    -324.177E-03    -330.700E-03    -318.883E-03     648.349E-03    -330.700E-03     143.143E-03     5.45127E+06     176.191E+03    -6.18110E+06    -792.638E+03    -227.329E+03     466.330E+03    -823.917E+03         81.0582
             605     6.44057E-03     68.2519E-03     348.579E-03     343.115E-03        -1.21096     342.560E-03        -1.21040     348.579E-03     39.0519E-03     652.446E-03    -323.229E-03    -332.390E-03    -319.339E-03     648.555E-03    -332.390E-03     122.533E-03     3.99244E+06     499.180E+03    -6.57907E+06    -1.09256E+06    -2.05888E+06     1.06398E+06    -1.08350E+06         80.3184
             606     5.71916E-03     68.1447E-03     350.254E-03     342.500E-03        -1.21037     343.458E-03        -1.21028     349.207E-03    -15.1680E-03     654.954E-03    -323.668E-03    -334.340E-03    -321.059E-03     652.345E-03    -334.340E-03     100.126E-03     5.26054E+06    -591.537E+03    -4.65114E+06    -1.55399E+06     2.16339E+06    -591.537E+03    -953.460E+03         79.7316
             607     5.00372E-03     68.0848E-03     351.405E-03     344.215E-03        -1.20954     345.184E-03        -1.20891     349.811E-03     27.5388E-03     661.849E-03    -326.059E-03    -333.318E-03    -324.555E-03     660.344E-03    -333.318E-03     76.0123E-03     4.90200E+06    -1.03008E+06    -3.68125E+06    -1.33270E+06     2.73299E+06    -1.20962E+06    -571.526E+03         79.1028
             608     4.27575E-03     68.0426E-03     353.645E-03     347.472E-03        -1.21331     349.738E-03        -1.21205     350.120E-03    -4.93826E-03     664.298E-03    -329.639E-03    -332.085E-03    -329.495E-03     663.538E-03    -331.469E-03     54.0280E-03     3.52384E+06    -1.73537E+06    -3.73400E+06    -1.72299E+06     1.69237E+06    -1.91491E+06    -346.608E+03         78.4253
             609     3.56588E-03     68.0781E-03     356.773E-03     346.923E-03        -1.21992     351.252E-03        -1.21752     350.049E-03     26.2949E-03     661.717E-03    -330.608E-03    -331.983E-03    -331.646E-03     661.380E-03    -330.608E-03     35.5640E-03     1.62804E+06    -2.16007E+06    -6.25299E+06    -2.52493E+06    -2.18143E+06    -2.07865E+06    -163.092E+03         77.7625
             610     2.85249E-03     68.1231E-03     354.458E-03     343.846E-03        -1.22045     344.369E-03        -1.21723     350.713E-03     4.06517E-03     659.487E-03    -330.219E-03    -331.453E-03    -330.857E-03     659.366E-03    -330.694E-03     20.9661E-03     446.230E+03    -3.04573E+06    -8.75291E+06    -2.78157E+06    -6.81668E+06    -1.75416E+06     306.881E+03         77.1334
             611     2.13902E-03     68.2051E-03     353.503E-03     343.170E-03        -1.22015     340.781E-03        -1.21776     353.503E-03    -18.4595E-03     662.183E-03    -331.686E-03    -332.240E-03    -331.707E-03     662.149E-03    -332.185E-03     10.5837E-03    -356.826E+03    -4.52407E+06    -9.92478E+06    -3.11399E+06    -9.89148E+06    -1.80020E+06     424.247E+03         76.6515
             612     1.42671E-03     68.3053E-03     359.525E-03     349.378E-03        -1.22596     350.822E-03        -1.22489     357.017E-03     74.3957E-03     668.600E-03    -334.678E-03    -334.800E-03    -334.727E-03     668.594E-03    -334.745E-03     3.81807E-03    -657.545E+03    -3.22443E+06    -10.0640E+06    -2.44003E+06    -9.82912E+06    -1.67680E+06     229.544E+03         76.3921
             613     713.507E-06     68.3314E-03     375.851E-03     354.781E-03        -1.23785     361.311E-03        -1.22545     356.916E-03    -174.183E-03     672.004E-03    -335.783E-03    -336.265E-03    -336.221E-03     672.003E-03    -335.827E-03     653.879E-06    -665.469E+03    -3.50113E+06    -12.4251E+06    -2.36612E+06    -11.6327E+06    -2.59282E+06     172.793E+03         76.3074
             614     12.1953E-03     68.6966E-03     353.335E-03     347.263E-03        -1.21143     353.263E-03        -1.21136     347.263E-03    -16.7202E-03     681.432E-03    -332.224E-03    -354.464E-03    -339.393E-03     666.361E-03    -332.224E-03     237.309E-03     11.9140E+06     879.330E+03    -8.42591E+06     1.56461E+06     2.06234E+06     740.494E+03     746.782E+03         92.8843
             615     11.4883E-03     68.0862E-03     350.620E-03     347.569E-03        -1.21204     350.201E-03        -1.21170     347.649E-03     24.4182E-03     678.833E-03    -332.982E-03    -353.885E-03    -337.142E-03     662.091E-03    -332.982E-03     255.495E-03     4.89306E+06     1.44723E+06    -5.47181E+06     814.120E+03    -1.25404E+06     1.30839E+06    -884.841E+03         90.1786
             616     10.7640E-03     67.7494E-03     350.388E-03     347.915E-03        -1.21520     349.521E-03        -1.21441     347.996E-03    -8.27155E-03     666.430E-03    -332.739E-03    -340.177E-03    -328.976E-03     655.229E-03    -332.739E-03     210.781E-03     4.06677E+06     908.037E+03    -4.61050E+06     585.773E+03    -1.04292E+06     821.461E+03    -744.796E+03         87.6019
             617     10.0538E-03     67.3616E-03     350.988E-03     348.215E-03        -1.21819     349.890E-03        -1.21709     348.215E-03     4.84373E-03     665.816E-03    -332.551E-03    -338.346E-03    -327.269E-03     654.739E-03    -332.551E-03     209.295E-03     4.57341E+06    -919.077E+03    -2.14620E+06    -679.273E+03     3.20817E+06    -1.02078E+06    -215.315E+03         85.5671
             618     9.30628E-03     67.0801E-03     350.994E-03     348.099E-03        -1.21758     349.304E-03        -1.21616     348.367E-03    -6.54221E-03     662.341E-03    -331.251E-03    -334.763E-03    -325.538E-03     653.383E-03    -331.518E-03     188.040E-03     4.11821E+06    -908.566E+03    -3.29163E+06    -691.447E+03     1.15932E+06    -549.857E+03     563.439E+03         84.0947
             619     8.59063E-03     66.8019E-03     354.174E-03     348.082E-03        -1.21958     352.012E-03        -1.21768     348.350E-03     7.80996E-03     659.702E-03    -330.064E-03    -331.432E-03    -323.339E-03     651.876E-03    -330.330E-03     175.328E-03     4.61767E+06    -543.238E+03    -4.11433E+06    -268.925E+03     686.880E+03    -457.856E+03     178.838E+03         82.9755
             620     7.87578E-03     66.6001E-03     354.691E-03     348.074E-03        -1.22108     352.852E-03        -1.21924     348.074E-03     10.3992E-03     656.668E-03    -328.354E-03    -330.328E-03    -322.268E-03     649.955E-03    -329.701E-03     161.972E-03     6.16736E+06    -759.964E+03    -2.87578E+06     412.680E+03     3.44201E+06    -1.32308E+06    -154.484E+03         81.9792
             621     7.15990E-03     66.4197E-03     350.141E-03     346.822E-03        -1.21830     348.127E-03        -1.21732     347.861E-03    -22.9745E-03     654.644E-03    -325.928E-03    -330.555E-03    -320.606E-03     649.323E-03    -330.555E-03     143.672E-03     3.81426E+06    -1.36446E+06    -3.75776E+06    -82.7362E+03    -114.244E+03    -1.11097E+06     62.5935E+03         81.0640
             622     6.44115E-03     66.2491E-03     347.967E-03     345.984E-03        -1.21714     345.751E-03        -1.21689     347.949E-03     33.9157E-03     652.177E-03    -323.494E-03    -332.111E-03    -319.664E-03     648.347E-03    -332.111E-03     121.522E-03     4.39806E+06    -570.119E+03    -3.40713E+06     468.911E+03     89.4879E+03    -137.593E+03    -359.176E+03         80.3212
             623     5.72187E-03     66.1271E-03     349.146E-03     346.808E-03        -1.21746     347.638E-03        -1.21722     348.080E-03    -14.5180E-03     653.995E-03    -323.064E-03    -334.013E-03    -320.550E-03     651.481E-03    -334.013E-03     98.1900E-03     6.14036E+06     515.720E+03    -4.95168E+06     634.507E+03     649.794E+03     420.096E+03    -429.894E+03         79.7283
             624     5.00592E-03     66.0601E-03     351.536E-03     347.581E-03        -1.21725     350.382E-03        -1.21644     347.926E-03     19.6833E-03     661.235E-03    -325.717E-03    -333.021E-03    -324.268E-03     659.786E-03    -333.021E-03     74.6250E-03     6.63091E+06    -19.2773E+03    -4.87438E+06    -54.1021E+03     1.99016E+06    -198.815E+03     286.136E+03         79.0992
             625     4.27849E-03     66.0148E-03     351.844E-03     346.560E-03        -1.21641     348.871E-03        -1.21453     347.647E-03    -18.9291E-03     663.806E-03    -329.442E-03    -331.879E-03    -329.204E-03     663.041E-03    -331.352E-03     54.4264E-03     5.96491E+06    -302.956E+03    -3.74123E+06    -85.6415E+03     2.28913E+06    -282.771E+03     123.890E+03         78.4224
             626     3.56421E-03     66.0627E-03     349.962E-03     344.903E-03        -1.21645     343.366E-03        -1.21298     348.029E-03     19.9374E-03     660.619E-03    -330.386E-03    -331.233E-03    -330.639E-03     660.244E-03    -330.605E-03     37.7201E-03     2.70168E+06    -698.139E+03    -6.88971E+06    -975.370E+03    -4.68404E+06     773.245E+03     45.9473E+03         77.7548
             627     2.85092E-03     66.1028E-03     350.298E-03     342.016E-03        -1.21893     338.520E-03        -1.21513     349.999E-03     11.6309E-03     658.869E-03    -330.077E-03    -330.708E-03    -330.032E-03     658.722E-03    -330.607E-03     23.1175E-03     1.19599E+06    -1.46943E+06    -7.74495E+06    -1.38649E+06    -7.64429E+06     1.01239E+06     425.110E+03         77.1305
             628     2.13805E-03     66.1807E-03     353.743E-03     342.768E-03        -1.22345     340.669E-03        -1.22135     353.743E-03    -31.4276E-03     663.513E-03    -332.013E-03    -332.760E-03    -332.190E-03     663.472E-03    -332.543E-03     11.6586E-03     1.37198E+06    -2.28083E+06     -7.8773E+06    -1.41760E+06      -7.858E+06     489.445E+03     240.954E+03         76.6757
             629     1.42557E-03     66.2770E-03     359.458E-03     351.480E-03        -1.22985     353.338E-03        -1.22920     356.951E-03     54.8204E-03     669.821E-03    -335.070E-03    -335.494E-03    -335.281E-03     669.815E-03    -335.277E-03     4.15319E-03    -81.2919E+03    -2.71117E+06    -9.22549E+06    -1.77209E+06    -9.09481E+06    -1.15105E+06    -120.076E+03         76.4373
             630     712.974E-06     66.3133E-03     371.749E-03     351.186E-03        -1.23391     363.509E-03        -1.22611     351.626E-03    -129.770E-03     672.103E-03    -335.657E-03    -336.524E-03    -335.962E-03     672.103E-03    -336.219E-03     875.887E-06    -1.05825E+06    -3.24392E+06    -12.0460E+06    -1.64952E+06    -11.6625E+06    -3.03610E+06     263.787E+03         76.3458
             631     12.1969E-03     66.6689E-03     358.979E-03     350.338E-03        -1.22732     358.794E-03        -1.22713     350.338E-03    -10.8849E-03     681.304E-03    -332.214E-03    -354.464E-03    -339.329E-03     666.169E-03    -332.214E-03     237.587E-03     8.48418E+06     400.791E+03    -8.60172E+06    -542.933E+03     564.233E+03     261.954E+03    -870.809E+03         92.8608
             632     11.4891E-03     66.0705E-03     360.033E-03     350.598E-03        -1.23026     359.874E-03        -1.23010     350.598E-03     24.3771E-03     678.146E-03    -332.976E-03    -353.008E-03    -336.135E-03     661.272E-03    -332.976E-03     256.328E-03     4.45797E+06    -176.721E+03    -4.08609E+06    -28.1088E+03     557.896E+03    -334.637E+03     107.858E+03         90.1557
             633     10.7616E-03     65.7316E-03     359.779E-03     350.744E-03        -1.23389     359.295E-03        -1.23341     350.744E-03    -17.4801E-03     666.783E-03    -332.753E-03    -340.253E-03    -328.953E-03     655.484E-03    -332.753E-03     211.764E-03     3.24178E+06    -1.48782E+06    -4.16607E+06    -1.27188E+06     788.133E+03    -1.92836E+06    -68.7147E+03         87.5837
             634     10.0558E-03     65.3536E-03     358.154E-03     350.828E-03        -1.23407     357.239E-03        -1.23316     350.828E-03     7.87686E-03     666.561E-03    -332.621E-03    -338.895E-03    -327.731E-03     655.396E-03    -332.621E-03     210.260E-03     3.82992E+06    -796.405E+03    -1.97360E+06    -550.781E+03     2.82856E+06    -1.21787E+06     69.7635E+03         85.5588
             635     9.30591E-03     65.0681E-03     359.200E-03     350.856E-03        -1.23459     357.769E-03        -1.23315     350.856E-03    -11.3648E-03     661.468E-03    -330.961E-03    -334.253E-03    -324.628E-03     652.491E-03    -331.609E-03     188.052E-03     3.30472E+06    -530.720E+03    -3.32934E+06    -174.506E+03    -223.954E+03    -156.887E+03    -278.560E+03         84.0979
             636     8.59004E-03     64.8051E-03     362.910E-03     350.583E-03        -1.23723     361.298E-03        -1.23562     350.583E-03    -4.35231E-03     658.953E-03    -329.798E-03    -331.325E-03    -322.842E-03     651.119E-03    -330.445E-03     175.330E-03     4.76162E+06    -1.27373E+06    -4.31256E+06     119.804E+03     243.871E+03    -1.18835E+06    -675.979E+03         82.9860
             637     7.87331E-03     64.5853E-03     360.108E-03     350.121E-03        -1.23500     358.947E-03        -1.23384     350.121E-03     11.8166E-03     657.111E-03    -328.973E-03    -330.662E-03    -323.210E-03     650.469E-03    -329.782E-03     161.119E-03     5.25762E+06    -2.45949E+06    -3.69910E+06    -437.358E+03     2.28432E+06    -2.74794E+06     232.869E+03         81.9943
             638     7.15796E-03     64.4066E-03     354.864E-03     349.809E-03        -1.23130     354.353E-03        -1.23083     349.853E-03    -31.4627E-03     655.000E-03    -326.789E-03    -330.519E-03    -321.548E-03     649.759E-03    -330.519E-03     142.759E-03     5.51105E+06    -2.36455E+06    -3.92754E+06    -312.042E+03     1.89556E+06    -2.36455E+06     634.302E+03         81.0906
             639     6.44210E-03     64.2368E-03     355.129E-03     349.605E-03        -1.23139     354.970E-03        -1.23128     349.650E-03     19.8856E-03     652.795E-03    -324.155E-03    -331.953E-03    -320.241E-03     648.881E-03    -331.953E-03     122.994E-03     5.71688E+06    -1.83436E+06    -3.96182E+06    -29.9276E+03     1.88061E+06    -1.92998E+06     143.118E+03         80.3462
             640     5.72332E-03     64.1164E-03     355.450E-03     348.869E-03        -1.22949     354.791E-03        -1.22917     349.214E-03    -12.1371E-03     654.179E-03    -323.353E-03    -333.838E-03    -320.720E-03     651.546E-03    -333.838E-03     100.540E-03     4.71758E+06    -979.804E+03    -5.75491E+06    -85.0191E+03    -856.684E+03    -1.07543E+06    -321.764E+03         79.7231
             641     5.00810E-03     64.0438E-03     354.272E-03     348.299E-03        -1.22638     352.954E-03        -1.22541     348.644E-03     20.9867E-03     660.103E-03    -324.720E-03    -332.927E-03    -323.196E-03     658.578E-03    -332.927E-03     76.3782E-03     6.54419E+06    -477.357E+03    -5.36983E+06     337.052E+03     837.309E+03    -477.357E+03    -150.394E+03         79.0698
             642     4.27565E-03     64.0061E-03     356.910E-03     347.790E-03        -1.22930     354.514E-03        -1.22690     347.790E-03    -24.9048E-03     662.187E-03    -328.447E-03    -331.296E-03    -327.665E-03     661.406E-03    -331.296E-03     54.7984E-03     6.50904E+06    -64.0583E+03    -4.85533E+06     97.2339E+03     1.35676E+06     135.665E+03     579.569E+03         78.3887
             643     3.56209E-03     64.0470E-03     358.760E-03     346.445E-03        -1.23280     354.290E-03        -1.22833     346.445E-03     21.4733E-03     660.201E-03    -330.306E-03    -330.835E-03    -330.229E-03     659.844E-03    -330.556E-03     36.4689E-03     3.84958E+06     437.117E+03    -6.28696E+06    -48.6333E+03    -3.77872E+06     1.82709E+06     450.923E+03         77.7306
             644     2.84893E-03     64.0894E-03     355.447E-03     343.035E-03        -1.22785     348.464E-03        -1.22320     345.368E-03     18.1290E-03     659.671E-03    -330.292E-03    -331.007E-03    -330.443E-03     659.543E-03    -330.728E-03     21.5335E-03     2.62819E+06    -281.472E+03    -6.34933E+06    -189.273E+03    -6.19412E+06     2.38078E+06    -145.766E+03         77.1286
             645     2.13689E-03     64.1686E-03     351.231E-03     340.162E-03        -1.21913     342.853E-03        -1.21642     345.829E-03    -25.2729E-03     663.291E-03    -331.811E-03    -332.567E-03    -331.939E-03     663.256E-03    -332.405E-03     10.3092E-03     2.21787E+06    -1.00762E+06    -6.81398E+06    -866.922E+03    -6.76130E+06     2.02450E+06    -319.211E+03         76.6878
             646     1.42550E-03     64.2708E-03     352.243E-03     342.945E-03        -1.21926     347.530E-03        -1.21832     346.720E-03     39.7378E-03     669.427E-03    -334.706E-03    -335.342E-03    -334.864E-03     669.423E-03    -335.180E-03     3.23358E-03    -536.824E+03    -2.51479E+06    -9.46830E+06    -2.71590E+06    -9.20692E+06    -597.095E+03    -637.802E+03         76.4534
             647     712.681E-06     64.3054E-03     359.668E-03     338.859E-03        -1.21509     357.161E-03        -1.21303     339.300E-03    -20.1240E-03     672.987E-03    -335.992E-03    -337.249E-03    -336.576E-03     672.986E-03    -336.664E-03     437.761E-06    -1.67622E+06    -3.06441E+06    -12.7629E+06    -3.42097E+06    -12.3558E+06    -1.72672E+06    -100.602E+03         76.3709
             648     12.1963E-03     64.6559E-03     363.626E-03     354.301E-03        -1.24393     363.241E-03        -1.24354     354.301E-03    -13.4499E-03     680.783E-03    -332.243E-03    -353.664E-03    -338.399E-03     665.518E-03    -332.243E-03     238.485E-03     6.64748E+06     1.08581E+06    -5.24505E+06     1.48228E+06    -79.8535E+03     1.08581E+06     906.837E+03         92.8349
             649     11.4858E-03     64.0669E-03     364.708E-03     354.875E-03        -1.24610     364.601E-03        -1.24599     354.875E-03     15.2210E-03     677.784E-03    -333.060E-03    -352.710E-03    -335.701E-03     660.774E-03    -333.060E-03     257.253E-03     3.73195E+06     235.269E+03    -3.30402E+06    -1.10507E+06     1.45624E+06     312.022E+03     101.135E+03         90.1381
             650     10.7598E-03     63.7242E-03     366.005E-03     355.321E-03        -1.24957     365.764E-03        -1.24933     355.321E-03    -28.8618E-03     667.359E-03    -332.927E-03    -340.852E-03    -329.448E-03     655.956E-03    -332.927E-03     212.855E-03     4.12041E+06     540.992E+03    -1.55031E+06    -241.566E+03     2.73491E+06     617.745E+03     103.145E+03         87.5808
             651     10.0541E-03     63.3367E-03     368.576E-03     355.528E-03        -1.25170     367.971E-03        -1.25109     355.528E-03     8.03990E-03     667.142E-03    -332.800E-03    -339.072E-03    -327.885E-03     655.955E-03    -332.800E-03     210.503E-03     2.78002E+06    -302.913E+03    -1.98537E+06    -451.109E+03     1.24576E+06    -302.913E+03    -58.5476E+03         85.5712
             652     9.30520E-03     63.0609E-03     369.356E-03     355.454E-03        -1.25235     368.095E-03        -1.25109     355.454E-03    -18.5036E-03     662.729E-03    -331.310E-03    -334.191E-03    -324.877E-03     653.795E-03    -331.691E-03     187.738E-03     3.41193E+06    -1.26125E+06    -4.39823E+06    -524.251E+03    -462.051E+03    -1.26125E+06    -379.299E+03         84.1203
             653     8.58754E-03     62.7957E-03     367.907E-03     355.228E-03        -1.25175     366.462E-03        -1.25031     355.228E-03    -11.0563E-03     660.601E-03    -330.046E-03    -331.919E-03    -323.798E-03     652.861E-03    -330.427E-03     174.446E-03     5.15698E+06    -1.49015E+06    -4.61857E+06    -556.879E+03     1.09529E+06    -1.49015E+06    -381.581E+03         83.0060
             654     7.87608E-03     62.5742E-03     364.591E-03     355.023E-03        -1.24962     363.798E-03        -1.24883     355.023E-03     16.7314E-03     656.597E-03    -327.772E-03    -331.073E-03    -322.640E-03     650.167E-03    -329.775E-03     158.417E-03     5.59832E+06    -625.579E+03    -2.99504E+06    -11.4925E+03     2.61477E+06    -625.579E+03     180.603E+03         82.0047
             655     7.15920E-03     62.3895E-03     362.821E-03     354.793E-03        -1.24813     362.572E-03        -1.24788     354.793E-03    -32.7495E-03     654.107E-03    -325.545E-03    -330.655E-03    -320.390E-03     648.952E-03    -330.655E-03     141.572E-03     5.64846E+06    -718.232E+03    -3.02919E+06    -27.4864E+03     2.64676E+06    -718.232E+03     540.132E+03         81.1021
             656     6.44010E-03     62.2316E-03     364.902E-03     354.267E-03        -1.24869     364.736E-03        -1.24852     354.267E-03     14.7285E-03     653.224E-03    -324.449E-03    -332.101E-03    -320.450E-03     649.225E-03    -332.101E-03     124.379E-03     5.31948E+06    -976.378E+03    -3.73189E+06    -488.482E+03     2.07607E+06    -976.378E+03     142.180E+03         80.3644
             657     5.72255E-03     62.1004E-03     365.358E-03     353.294E-03        -1.24751     364.978E-03        -1.24713     353.294E-03    -4.82216E-03     654.632E-03    -323.644E-03    -333.860E-03    -320.940E-03     651.929E-03    -333.860E-03     101.945E-03     4.76445E+06     132.962E+03    -5.37342E+06    -126.984E+03    -498.366E+03     149.338E+03     8.55997E+03         79.7342
             658     5.00512E-03     62.0257E-03     363.106E-03     352.052E-03        -1.24488     362.237E-03        -1.24401     352.052E-03     17.7394E-03     660.493E-03    -324.709E-03    -333.011E-03    -323.161E-03     658.945E-03    -333.011E-03     76.8905E-03     4.35238E+06    -603.509E+03    -6.67914E+06    -1.18180E+06    -1.16134E+06    -587.134E+03     265.846E+03         79.0635
             659     4.27551E-03     61.9914E-03     361.267E-03     350.742E-03        -1.24328     358.648E-03        -1.24066     350.742E-03    -34.8339E-03     662.819E-03    -328.631E-03    -331.465E-03    -328.030E-03     662.045E-03    -331.292E-03     54.5333E-03     4.36833E+06    -1.47858E+06    -5.20573E+06    -1.64188E+06     804.480E+03    -1.47858E+06     458.636E+03         78.3679
             660     3.56395E-03     62.0146E-03     361.617E-03     349.245E-03        -1.24272     357.057E-03        -1.23816     349.245E-03     11.1945E-03     660.988E-03    -330.279E-03    -331.335E-03    -330.952E-03     660.636E-03    -330.310E-03     36.2810E-03     3.46225E+06    -207.012E+03    -4.67219E+06    -499.708E+03    -710.232E+03    -207.012E+03     149.852E+03         77.7130
             661     2.85226E-03     62.0716E-03     359.151E-03     347.258E-03        -1.23716     355.110E-03        -1.23312     347.258E-03     23.0346E-03     660.604E-03    -330.378E-03    -331.764E-03    -331.107E-03     660.481E-03    -330.912E-03     21.0248E-03     1.99290E+06    -1.25253E+06    -6.61788E+06    -630.665E+03    -5.46632E+06     219.469E+03    -363.821E+03         77.1354
             662     2.13813E-03     62.1440E-03     353.349E-03     344.802E-03        -1.22839     351.278E-03        -1.22632     344.802E-03    -38.6109E-03     663.495E-03    -331.537E-03    -332.937E-03    -331.508E-03     663.466E-03    -332.937E-03     9.67666E-03     972.178E+03    -1.83813E+06    -8.19782E+06    -989.466E+03    -8.08659E+06     12.2901E+03    -369.819E+03         76.7123
             663     1.42440E-03     62.2460E-03     349.516E-03     341.217E-03        -1.22046     348.458E-03        -1.21977     341.587E-03     21.3223E-03     669.627E-03    -334.416E-03    -335.624E-03    -334.412E-03     669.624E-03    -335.624E-03     3.18151E-03    -753.814E+03    -2.17423E+06    -9.69954E+06    -1.77415E+06     -9.4152E+06    -1.43823E+06    -429.738E+03         76.4767
             664     712.266E-06     62.2928E-03     353.029E-03     324.825E-03        -1.20786     340.062E-03        -1.20697     336.909E-03     32.0947E-03     674.094E-03    -336.417E-03    -337.926E-03    -337.582E-03     674.093E-03    -336.759E-03     1.20690E-03    -1.06715E+06    -3.80080E+06    -13.1641E+06    -2.85119E+06    -12.5099E+06    -2.67093E+06    -734.345E+03         76.3969
             665     12.1951E-03     62.6471E-03     367.867E-03     359.563E-03        -1.25859     367.432E-03        -1.25815     359.563E-03    -14.2270E-03     680.423E-03    -332.297E-03    -352.976E-03    -337.764E-03     665.211E-03    -332.297E-03     238.245E-03     4.75521E+06     272.241E+03    -4.98994E+06    -781.375E+03     546.652E+03     272.241E+03     138.247E+03         92.8270
             666     11.4862E-03     62.0518E-03     368.420E-03     360.513E-03        -1.26045     368.290E-03        -1.26032     360.513E-03     9.52312E-03     678.829E-03    -333.142E-03    -353.438E-03    -336.504E-03     661.895E-03    -333.142E-03     256.984E-03     4.77451E+06     1.44748E+06    -2.12228E+06     396.731E+03     2.15966E+06     1.54331E+06     876.418E+03         90.1401
             667     10.7611E-03     61.7041E-03     370.793E-03     361.246E-03        -1.26300     370.607E-03        -1.26282     361.246E-03    -31.9363E-03     667.834E-03    -332.956E-03    -341.047E-03    -329.703E-03     656.490E-03    -332.956E-03     212.403E-03     2.77300E+06     605.905E+03    -1.43969E+06     263.875E+03     973.602E+03     701.737E+03     75.3564E+03         87.5899
             668     10.0516E-03     61.3221E-03     372.875E-03     361.615E-03        -1.26530     372.383E-03        -1.26481     361.615E-03     9.81028E-03     666.657E-03    -332.731E-03    -338.491E-03    -327.536E-03     655.702E-03    -332.731E-03     208.108E-03     2.76743E+06     141.342E+03    -1.82768E+06     4.96717E+03     934.788E+03     141.342E+03    -257.092E+03         85.5796
             669     9.30268E-03     61.0371E-03     372.723E-03     361.826E-03        -1.26693     371.577E-03        -1.26578     361.826E-03    -18.8924E-03     663.499E-03    -331.599E-03    -334.002E-03    -325.159E-03     654.688E-03    -331.630E-03     186.602E-03     4.34149E+06     864.245E+03    -3.06897E+06    -344.325E+03     1.53945E+06     941.645E+03    -491.675E+03         84.1223
             670     8.59189E-03     60.7790E-03     372.890E-03     361.954E-03        -1.26894     371.678E-03        -1.26773     361.954E-03    -15.8270E-03     660.864E-03    -330.335E-03    -331.398E-03    -323.525E-03     653.022E-03    -330.366E-03     175.598E-03     4.60769E+06     1.33133E+06    -3.11968E+06     80.6764E+03     616.274E+03     2.12239E+06    -103.514E+03         83.0014
             671     7.87490E-03     60.5641E-03     373.536E-03     361.864E-03        -1.27014     373.057E-03        -1.26966     361.864E-03     19.2891E-03     656.209E-03    -327.930E-03    -330.618E-03    -322.125E-03     649.565E-03    -329.779E-03     161.012E-03     4.07858E+06     696.078E+03    -2.47120E+06    -446.506E+03     1.35631E+06     1.39366E+06     237.050E+03         82.0006
             672     7.15590E-03     60.3806E-03     372.572E-03     361.516E-03        -1.26786     372.437E-03        -1.26772     361.516E-03    -29.0514E-03     654.626E-03    -325.997E-03    -330.723E-03    -320.670E-03     649.299E-03    -330.723E-03     143.880E-03     5.29607E+06     679.140E+03    -2.18856E+06    -376.971E+03     3.50056E+06     663.059E+03     341.757E+03         81.1034
             673     6.43857E-03     60.2192E-03     371.321E-03     361.027E-03        -1.26465     371.096E-03        -1.26443     361.027E-03     11.3908E-03     653.324E-03    -324.526E-03    -332.149E-03    -320.569E-03     649.367E-03    -332.149E-03     123.639E-03     5.17711E+06     451.682E+03    -3.47224E+06    -229.284E+03     1.93415E+06     451.682E+03     669.042E+03         80.3784
             674     5.71978E-03     60.0909E-03     369.518E-03     360.438E-03        -1.26329     369.090E-03        -1.26286     360.438E-03    -4.58959E-03     654.673E-03    -323.623E-03    -333.867E-03    -321.026E-03     652.076E-03    -333.867E-03     99.8703E-03     4.37415E+06     601.654E+03    -6.34716E+06    -851.519E+03    -1.13786E+06     618.029E+03     1.11421E+06         79.7645
             675     5.00591E-03     60.0107E-03     368.061E-03     359.047E-03        -1.26318     366.594E-03        -1.26243     359.762E-03     11.6350E-03     660.792E-03    -324.976E-03    -332.942E-03    -323.466E-03     659.282E-03    -332.942E-03     76.1898E-03     4.90498E+06     686.222E+03    -6.61158E+06    -1.20528E+06    -517.686E+03     702.597E+03     946.622E+03         79.0861
             676     4.27547E-03     59.9775E-03     364.321E-03     358.147E-03        -1.26013     361.096E-03        -1.25802     359.265E-03    -29.6145E-03     662.796E-03    -328.595E-03    -331.331E-03    -327.969E-03     661.997E-03    -331.158E-03     55.4629E-03     4.42878E+06    -283.822E+03    -4.95336E+06    -1.64416E+06     1.11958E+06    -283.822E+03     447.043E+03         78.3661
             677     3.56197E-03     59.9959E-03     362.609E-03     358.593E-03        -1.25726     359.134E-03        -1.25419     358.996E-03    -2.39791E-03     660.278E-03    -330.029E-03    -331.017E-03    -330.541E-03     659.898E-03    -330.125E-03     37.9350E-03     2.46837E+06    -1.01102E+06    -3.78414E+06    -1.69436E+06     378.589E+03    -1.01102E+06     325.872E+03         77.7049
             678     2.84956E-03     60.0513E-03     362.375E-03     356.931E-03        -1.25212     358.649E-03        -1.25011     358.641E-03     45.3778E-03     660.517E-03    -330.343E-03    -331.731E-03    -330.916E-03     660.372E-03    -331.013E-03     23.0502E-03     966.452E+03    -2.54165E+06    -5.80574E+06    -1.73574E+06    -4.34514E+06    -1.30006E+06    -173.057E+03         77.1416
             679     2.13769E-03     60.1439E-03     361.240E-03     356.275E-03        -1.24931     358.374E-03        -1.24815     357.985E-03    -55.1679E-03     665.322E-03    -332.068E-03    -333.873E-03    -332.025E-03     665.278E-03    -333.873E-03     12.3053E-03    -54.9363E+03    -3.03560E+06    -9.28606E+06    -1.74210E+06    -9.21891E+06    -1.41559E+06     13.3780E+03         76.7428
             680     1.42450E-03     60.2420E-03     362.755E-03     356.389E-03        -1.25207     358.365E-03        -1.24805     356.759E-03     45.1380E-03     671.410E-03    -335.099E-03    -336.602E-03    -335.089E-03     671.399E-03    -336.602E-03     5.22203E-03    -1.40407E+06    -3.10243E+06    -10.2044E+06    -2.07125E+06    -10.1504E+06    -2.48925E+06     352.467E+03         76.5239
             681     711.641E-06     60.2777E-03     370.707E-03     350.200E-03        -1.26094     342.300E-03        -1.24956     367.227E-03    -32.0331E-03     675.177E-03    -337.039E-03    -338.202E-03    -337.833E-03     675.176E-03    -337.406E-03     1.55470E-03    -999.555E+03    -3.20214E+06    -12.9910E+06    -1.90766E+06    -12.3177E+06    -2.96738E+06     308.970E+03         76.4457
             682     12.1929E-03     60.6435E-03     371.772E-03     365.625E-03        -1.27308     371.291E-03        -1.27260     365.625E-03    -14.3630E-03     681.597E-03    -332.277E-03    -354.298E-03    -339.185E-03     666.483E-03    -332.277E-03     237.984E-03     5.97009E+06     1.14414E+06    -4.55075E+06     886.386E+03     532.961E+03     1.14414E+06     831.854E+03         92.8451
             683     11.4859E-03     60.0330E-03     375.162E-03     366.675E-03        -1.27612     375.018E-03        -1.27598     366.675E-03     11.6132E-03     679.539E-03    -333.087E-03    -353.805E-03    -337.105E-03     662.839E-03    -333.087E-03     255.222E-03     3.45947E+06    -22.8358E+03     -3.8745E+06    -81.2367E+03    -333.793E+03    -22.8358E+03     274.465E+03         90.1530
             684     10.7609E-03     59.6826E-03     376.479E-03     367.408E-03        -1.27856     376.324E-03        -1.27841     367.408E-03    -29.2845E-03     666.993E-03    -332.817E-03    -339.972E-03    -328.795E-03     655.817E-03    -332.817E-03     210.569E-03     2.68945E+06    -433.639E+03    -2.20593E+06    -127.148E+03     610.670E+03    -433.639E+03    -157.606E+03         87.5879
             685     10.0553E-03     59.3072E-03     374.725E-03     367.976E-03        -1.27896     374.201E-03        -1.27844     367.976E-03     14.6349E-03     665.646E-03    -332.512E-03    -337.944E-03    -326.968E-03     654.670E-03    -332.512E-03     208.204E-03     4.31828E+06     909.499E+03    -1.03735E+06     251.961E+03     3.02897E+06     909.499E+03    -378.008E+03         85.5647
             686     9.30582E-03     59.0231E-03     373.485E-03     368.571E-03        -1.28037     372.290E-03        -1.27918     368.571E-03    -15.9914E-03     661.941E-03    -331.155E-03    -333.830E-03    -324.446E-03     652.931E-03    -331.529E-03     188.500E-03     5.71791E+06     1.62675E+06    -1.76729E+06     541.304E+03     3.33192E+06     1.70415E+06    -387.255E+03         84.0986
             687     8.58535E-03     58.7699E-03     374.741E-03     368.344E-03        -1.28248     372.763E-03        -1.28126     369.098E-03    -14.5821E-03     659.103E-03    -330.110E-03    -330.842E-03    -322.432E-03     651.067E-03    -330.484E-03     177.491E-03     4.88487E+06     1.38389E+06    -5.40743E+06    -287.099E+03    -1.19626E+06      2.3447E+06    -106.765E+03         82.9788
             688     7.86988E-03     58.5560E-03     376.184E-03     366.961E-03        -1.28208     373.086E-03        -1.28159     369.570E-03     21.8125E-03     656.235E-03    -328.522E-03    -330.300E-03    -322.127E-03     649.483E-03    -329.942E-03     162.343E-03     3.70417E+06     835.311E+03    -4.60681E+06    -728.062E+03    -1.04191E+06     1.70264E+06    -96.5701E+03         81.9920
             689     7.15389E-03     58.3674E-03     376.134E-03     367.946E-03        -1.28150     373.967E-03        -1.28139     370.000E-03    -26.0225E-03     655.368E-03    -326.775E-03    -330.716E-03    -321.398E-03     649.992E-03    -330.716E-03     144.622E-03     4.49521E+06     196.132E+03    -1.52758E+06    -873.672E+03     3.85738E+06     180.051E+03     253.464E+03         81.1112
             690     6.43914E-03     58.2117E-03     377.509E-03     369.972E-03        -1.28430     377.180E-03        -1.28417     370.171E-03     4.38351E-03     653.433E-03    -324.733E-03    -332.076E-03    -320.752E-03     649.452E-03    -332.076E-03     124.063E-03     3.60641E+06     585.977E+03    -3.86889E+06    -1.34149E+06     505.068E+03     1.15992E+06     1.09635E+06         80.4071
             691     5.72096E-03     58.0813E-03     376.220E-03     370.046E-03        -1.28455     376.041E-03        -1.28437     370.046E-03     1.01291E-03     654.950E-03    -323.763E-03    -333.960E-03    -321.098E-03     652.286E-03    -333.960E-03     101.235E-03     4.05031E+06     1.00533E+06    -4.86611E+06    -1.27695E+06    -112.796E+03     1.57928E+06     862.100E+03         79.8166
             692     5.00433E-03     58.0040E-03     371.694E-03     368.811E-03        -1.28112     369.974E-03        -1.28071     370.117E-03     14.1356E-03     661.355E-03    -325.473E-03    -333.051E-03    -323.910E-03     659.792E-03    -333.051E-03     77.4828E-03     5.42920E+06     1.29142E+06    -3.60141E+06    -468.923E+03     2.29672E+06     1.29142E+06     187.825E+03         79.1370
             693     4.27422E-03     57.9705E-03     370.589E-03     368.171E-03        -1.28056     367.255E-03        -1.27964     370.589E-03    -14.8947E-03     663.019E-03    -328.869E-03    -331.226E-03    -328.063E-03     662.213E-03    -331.226E-03     55.6582E-03     5.38717E+06     1.60840E+06    -3.79858E+06    -179.497E+03     1.76809E+06     1.60840E+06     151.108E+03         78.4034
             694     3.56171E-03     57.9911E-03     372.543E-03     369.016E-03        -1.28187     369.547E-03        -1.28077     370.921E-03    -6.52636E-03     659.695E-03    -330.079E-03    -330.614E-03    -329.766E-03     659.319E-03    -330.551E-03     37.7530E-03      4.0595E+06     536.797E+03    -3.67358E+06    -411.522E+03    -189.206E+03     1.52344E+06     45.8709E+03         77.7492
             695     2.84800E-03     58.0476E-03     373.823E-03     368.312E-03        -1.27927     370.343E-03        -1.27829     370.817E-03     71.0060E-03     659.814E-03    -330.238E-03    -331.195E-03    -330.158E-03     659.671E-03    -331.133E-03     22.6487E-03     2.42653E+06    -1.11879E+06    -5.09142E+06    -1.04697E+06    -4.60635E+06     1.86964E+06     71.9247E+03         77.2013
             696     2.13331E-03     58.1375E-03     380.697E-03     368.141E-03        -1.28526     373.715E-03        -1.27999     369.851E-03    -81.7954E-03     666.192E-03    -332.822E-03    -333.904E-03    -332.861E-03     666.153E-03    -333.825E-03     11.2446E-03     958.716E+03    -3.04049E+06    -8.67273E+06    -2.63786E+06    -8.66483E+06     548.188E+03     63.9262E+03         76.8079
             697     1.42233E-03     58.2324E-03     389.981E-03     368.864E-03        -1.29844     369.188E-03        -1.27765     368.864E-03     104.003E-03     672.390E-03    -335.983E-03    -336.869E-03    -336.053E-03     672.381E-03    -336.790E-03     4.37142E-03    -656.340E+03    -3.38768E+06    -9.90674E+06    -2.98436E+06    -9.89953E+06    -1.06687E+06     44.2024E+03         76.5838
             698     711.783E-06     58.2712E-03     423.773E-03     380.716E-03        -1.34607     350.989E-03        -1.27823     385.659E-03    -175.798E-03     675.397E-03    -337.398E-03    -338.062E-03    -337.681E-03     675.396E-03    -337.778E-03     987.876E-06    -380.419E+03    -2.67728E+06    -13.0801E+06    -2.01042E+06    -12.1840E+06    -1.94336E+06    -229.059E+03         76.4936
             699     12.1915E-03     58.6231E-03     372.687E-03     368.453E-03        -1.27847     370.033E-03        -1.27813     370.767E-03    -3.69939E-03     682.131E-03    -332.186E-03    -355.153E-03    -340.005E-03     666.983E-03    -332.186E-03     237.711E-03     4.34887E+06     638.742E+03    -5.02609E+06    -465.255E+03    -211.960E+03     638.742E+03    -168.205E+03         92.8501
             700     11.4877E-03     58.0252E-03     374.669E-03     368.204E-03        -1.28101     370.989E-03        -1.28088     371.746E-03     16.7652E-03     679.297E-03    -332.993E-03    -353.822E-03    -336.932E-03     662.407E-03    -332.993E-03     256.607E-03     4.17231E+06     539.853E+03    -3.41026E+06    -313.125E+03     1.07517E+06     539.853E+03    -487.647E+03         90.1467
             701     10.7606E-03     57.6845E-03     375.339E-03     369.585E-03        -1.28429     372.164E-03        -1.28418     372.646E-03    -22.6372E-03     666.531E-03    -332.761E-03    -340.054E-03    -328.672E-03     655.150E-03    -332.761E-03     212.380E-03     4.37032E+06     920.882E+03    -2.36249E+06     95.3633E+03     1.83072E+06     1.00262E+06    -100.459E+03         87.5694
             702     10.0519E-03     57.3015E-03     375.991E-03     371.752E-03        -1.28800     373.620E-03        -1.28729     373.408E-03     25.9742E-03     665.005E-03    -332.521E-03    -337.851E-03    -326.672E-03     653.826E-03    -332.521E-03     209.978E-03     4.22863E+06     1.01085E+06    -1.67890E+06     434.486E+03     2.03350E+06     1.09259E+06    -490.141E+03         85.5428
             703     9.30044E-03     57.0237E-03     375.853E-03     371.263E-03        -1.28899     371.550E-03        -1.28760     374.180E-03    -5.95229E-03     661.115E-03    -330.785E-03    -333.550E-03    -323.777E-03     652.101E-03    -331.543E-03     188.383E-03     4.24812E+06    -234.872E+03    -2.16069E+06    -356.972E+03     2.44440E+06    -234.872E+03     161.409E+03         84.0836
             704     8.58600E-03     56.7746E-03     375.322E-03     369.476E-03        -1.28757     368.285E-03        -1.28626     375.202E-03    -8.72732E-03     659.250E-03    -329.799E-03    -331.139E-03    -322.398E-03     651.268E-03    -330.557E-03     176.918E-03     4.33047E+06    -169.072E+03    -4.90106E+06    -599.746E+03    -140.593E+03         675.662     155.989E+03         82.9746
             705     7.87089E-03     56.5604E-03     376.458E-03     369.387E-03        -1.28790     368.799E-03        -1.28731     376.458E-03     28.5978E-03     657.138E-03    -328.624E-03    -330.660E-03    -322.456E-03     650.388E-03    -330.078E-03     162.427E-03     3.91337E+06     762.429E+03    -6.66594E+06    -400.719E+03    -2.74839E+06     1.15896E+06    -552.254E+03         81.9938
             706     7.15260E-03     56.3655E-03     377.734E-03     370.664E-03        -1.29035     370.601E-03        -1.29029     377.734E-03    -18.6762E-03     655.412E-03    -326.509E-03    -330.786E-03    -321.179E-03     650.082E-03    -330.786E-03     143.917E-03     4.29124E+06     835.605E+03    -4.38915E+06    -972.792E+03     648.100E+03     1.06239E+06     579.804E+03         81.1120
             707     6.43528E-03     56.2128E-03     381.212E-03     370.075E-03        -1.29360     372.259E-03        -1.29356     378.992E-03     4.08232E-03     653.176E-03    -324.448E-03    -332.085E-03    -320.501E-03     649.229E-03    -332.085E-03     123.577E-03     4.56338E+06     1.22334E+06    -3.43063E+06     -874.87E+03     1.43368E+06     1.79729E+06     554.538E+03         80.4140
             708     5.71668E-03     56.0905E-03     383.298E-03     369.745E-03        -1.29627     372.655E-03        -1.29624     380.357E-03     8.11968E-03     655.054E-03    -323.955E-03    -334.108E-03    -321.242E-03     652.341E-03    -334.108E-03     102.244E-03     5.45554E+06     1.42923E+06    -3.73037E+06    -418.617E+03     1.56985E+06     2.00318E+06    -371.984E+03         79.8461
             709     5.00227E-03     56.0072E-03     382.506E-03     373.957E-03        -1.29999     374.648E-03        -1.29996     381.785E-03     7.55261E-03     661.819E-03    -325.911E-03    -333.411E-03    -324.293E-03     660.201E-03    -333.411E-03     78.8926E-03     5.78254E+06     1.26335E+06    -3.35765E+06    -842.382E+03     3.26728E+06     1.26335E+06    -481.647E+03         79.1887
             710     4.27290E-03     55.9728E-03     382.995E-03     377.357E-03        -1.30312     377.042E-03        -1.30281     382.995E-03    -22.1682E-03     664.376E-03    -329.421E-03    -332.076E-03    -329.027E-03     663.547E-03    -331.640E-03     56.4132E-03     4.78864E+06     1.32656E+06    -4.00993E+06    -1.09437E+06     1.87308E+06     1.32656E+06    -538.438E+03         78.4704
             711     3.55913E-03     56.0059E-03     383.990E-03     380.019E-03        -1.30671     379.896E-03        -1.30634     383.747E-03    -27.0135E-03     662.235E-03    -330.753E-03    -332.260E-03    -331.520E-03     661.871E-03    -331.129E-03     36.9622E-03     3.08668E+06     178.057E+03    -4.17013E+06    -1.04511E+06    -1.02499E+06     1.16470E+06    -448.592E+03         77.8381
             712     2.84602E-03     56.0586E-03     385.625E-03     382.013E-03        -1.31039     381.870E-03        -1.30862     383.998E-03     77.4338E-03     664.067E-03    -332.254E-03    -333.505E-03    -332.829E-03     663.945E-03    -332.809E-03     20.6452E-03     635.349E+03    -1.75869E+06    -6.69329E+06    -1.68205E+06    -6.12274E+06    -11.8467E+03     252.782E+03         77.3104
             713     2.13629E-03     56.1392E-03     399.385E-03     382.261E-03        -1.32597     384.182E-03        -1.31196     383.452E-03    -130.254E-03     668.956E-03    -334.717E-03    -335.071E-03    -334.769E-03     668.930E-03    -334.992E-03     9.16357E-03    -381.811E+03    -2.97931E+06    -8.16642E+06    -2.83871E+06    -7.38246E+06    -1.30637E+06     425.201E+03         76.9017
             714     1.42463E-03     56.2399E-03     428.182E-03     383.418E-03        -1.35652     379.398E-03        -1.30773     383.418E-03     149.517E-03     672.217E-03    -336.163E-03    -336.633E-03    -336.379E-03     672.213E-03    -336.414E-03     2.94152E-03    -768.876E+03    -3.67288E+06    -8.97423E+06    -2.91350E+06    -8.24152E+06    -2.26097E+06     18.6149E+03         76.6307
             715     711.729E-06     56.2747E-03     542.103E-03     398.953E-03        -1.48690     367.282E-03        -1.31208     398.953E-03    -376.414E-03     674.330E-03    -336.911E-03    -337.493E-03    -337.280E-03     674.329E-03    -337.122E-03    -197.484E-06    -769.581E+03    -3.74916E+06    -14.5738E+06    -2.68143E+06    -13.7065E+06    -2.70459E+06    -393.640E+03         76.5045
             716     12.1950E-03     56.6253E-03     374.939E-03     371.580E-03        -1.28803     371.809E-03        -1.28782     374.506E-03    -2.99705E-03     680.386E-03    -332.119E-03    -353.897E-03    -338.645E-03     665.134E-03    -332.119E-03     238.097E-03     3.97332E+06     593.127E+03    -4.13215E+06    -733.756E+03     574.922E+03     593.127E+03    -288.547E+03         92.8131
             717     11.4828E-03     56.0229E-03     375.968E-03     371.696E-03        -1.29043     372.041E-03        -1.29034     375.535E-03     19.0127E-03     678.249E-03    -333.038E-03    -352.211E-03    -335.119E-03     661.157E-03    -333.038E-03     257.954E-03     4.04609E+06     1.09991E+06    -1.98477E+06    -155.193E+03     2.21651E+06     1.09991E+06    -93.1603E+03         90.1110
             718     10.7540E-03     55.6827E-03     376.601E-03     370.608E-03        -1.29117     370.436E-03        -1.29100     376.601E-03    -20.4477E-03     667.047E-03    -332.881E-03    -339.823E-03    -328.197E-03     655.421E-03    -332.881E-03     214.687E-03     3.50241E+06     570.391E+03    -1.85903E+06     157.849E+03     1.46239E+06     593.531E+03    -375.634E+03         87.5452
             719     10.0492E-03     55.3054E-03     377.820E-03     369.311E-03        -1.29236     368.507E-03        -1.29155     377.820E-03     22.9432E-03     665.948E-03    -332.698E-03    -338.316E-03    -326.991E-03     654.623E-03    -332.698E-03     211.432E-03     2.52299E+06    -581.313E+03    -2.76374E+06    -554.800E+03     290.914E+03    -558.173E+03     85.3460E+03         85.5394
             720     9.30244E-03     55.0364E-03     379.293E-03     369.950E-03        -1.29487     368.438E-03        -1.29336     379.293E-03    -7.89201E-03     662.853E-03    -331.284E-03    -334.001E-03    -324.606E-03     653.874E-03    -331.700E-03     188.224E-03     2.83428E+06     344.032E+03    -1.43512E+06     364.732E+03     1.03443E+06     344.032E+03     76.5994E+03         84.1015
             721     8.58308E-03     54.7785E-03     380.865E-03     371.716E-03        -1.29800     370.326E-03        -1.29661     380.865E-03    -12.3460E-03     661.630E-03    -330.147E-03    -331.904E-03    -323.620E-03     653.762E-03    -330.563E-03     175.942E-03     3.14811E+06     1.02962E+06    -1.88058E+06     529.427E+03     738.106E+03     1.02962E+06     561.103E+03         82.9964
             722     7.86795E-03     54.5648E-03     382.439E-03     372.499E-03        -1.30078     371.887E-03        -1.30016     382.439E-03     24.0637E-03     657.827E-03    -328.290E-03    -331.204E-03    -322.916E-03     651.285E-03    -330.036E-03     159.883E-03     3.39658E+06     1.21628E+06    -4.81713E+06    -231.760E+03    -1.99120E+06     2.01869E+06     656.762E+03         82.0012
             723     7.15336E-03     54.3687E-03     384.198E-03     370.693E-03        -1.30160     370.590E-03        -1.30149     384.198E-03    -22.1463E-03     654.347E-03    -325.447E-03    -330.746E-03    -320.361E-03     649.261E-03    -330.746E-03     140.454E-03     4.80262E+06     1.17811E+06    -6.04077E+06    -499.471E+03    -1.54109E+06     1.98052E+06    -333.846E+03         81.0987
             724     6.43532E-03     54.2162E-03     386.440E-03     368.449E-03        -1.30307     368.412E-03        -1.30304     386.440E-03    -3.65264E-03     652.400E-03    -323.495E-03    -332.037E-03    -319.686E-03     648.591E-03    -332.037E-03     121.348E-03     6.76483E+06     271.587E+03    -4.75810E+06    -491.771E+03     2.49850E+06     271.587E+03    -509.671E+03         80.3832
             725     5.71647E-03     54.0873E-03     389.089E-03     370.290E-03        -1.30762     370.250E-03        -1.30758     389.089E-03     5.90418E-03     655.046E-03    -323.797E-03    -334.168E-03    -321.206E-03     652.455E-03    -334.168E-03     99.7529E-03     6.32397E+06    -672.338E+03    -4.26067E+06    -944.662E+03     3.00796E+06    -672.338E+03    -524.379E+03         79.8166
             726     5.00046E-03     54.0128E-03     391.637E-03     376.916E-03        -1.31459     376.893E-03        -1.31457     391.637E-03     3.20774E-03     661.610E-03    -325.677E-03    -333.548E-03    -324.171E-03     660.104E-03    -333.548E-03     76.1008E-03     4.70844E+06    -1.04490E+06    -4.19276E+06    -1.34953E+06     1.86520E+06    -1.04490E+06    -757.975E+03         79.1839
             727     4.26936E-03     53.9713E-03     393.631E-03     384.102E-03        -1.32199     383.975E-03        -1.32186     393.631E-03    -16.2462E-03     664.685E-03    -329.389E-03    -332.440E-03    -329.162E-03     663.895E-03    -331.878E-03     55.0726E-03     3.80146E+06    -709.262E+03    -3.59351E+06    -1.14674E+06     1.35470E+06    -709.262E+03    -265.882E+03         78.4927
             728     3.56023E-03     54.0087E-03     395.212E-03     389.041E-03        -1.32865     389.003E-03        -1.32837     394.969E-03    -36.3892E-03     663.462E-03    -331.209E-03    -332.916E-03    -332.557E-03     663.103E-03    -331.209E-03     36.7935E-03     1.57461E+06    -1.18484E+06    -4.76412E+06    -1.63026E+06    -1.75751E+06    -986.572E+03     97.0300E+03         77.8710
             729     2.85012E-03     54.0553E-03     397.865E-03     392.637E-03        -1.33755     391.229E-03        -1.33420     395.932E-03     82.6220E-03     664.412E-03    -332.353E-03    -333.619E-03    -333.370E-03     664.283E-03    -332.473E-03     21.4603E-03    -271.550E+03    -1.60577E+06    -7.30855E+06    -1.64139E+06    -6.62573E+06    -918.746E+03     171.783E+03         77.3361
             730     2.13534E-03     54.1346E-03     412.335E-03     396.039E-03        -1.35727     391.062E-03        -1.33719     397.230E-03    -139.713E-03     668.432E-03    -334.568E-03    -334.799E-03    -334.535E-03     668.399E-03    -334.799E-03     10.6314E-03    -608.726E+03    -1.38852E+06    -7.51067E+06    -1.28728E+06    -6.68735E+06    -1.53328E+06     94.3622E+03         76.9118
             731     1.42361E-03     54.2445E-03     462.114E-03     399.325E-03        -1.40808     393.850E-03        -1.33981     399.325E-03     190.588E-03     671.954E-03    -336.059E-03    -336.611E-03    -336.194E-03     671.948E-03    -336.470E-03     4.16627E-03    -935.501E+03    -2.00040E+06    -8.42289E+06    -1.46336E+06    -7.46783E+06    -2.42759E+06     554.290E+03         76.6304
             732     713.537E-06     54.2846E-03     651.167E-03     406.744E-03        -1.60380     394.841E-03        -1.34747     406.744E-03    -504.894E-03     674.088E-03    -336.482E-03    -337.702E-03    -337.400E-03     674.086E-03    -336.781E-03     858.571E-06    -1.22245E+06    -2.78360E+06    -14.2592E+06    -2.86729E+06    -13.4394E+06    -1.95855E+06     672.391E+03         76.5020
             733     12.1910E-03     54.6283E-03     380.669E-03     377.262E-03        -1.30637     378.972E-03        -1.30611     378.703E-03    -4.09405E-03     679.871E-03    -332.155E-03    -353.352E-03    -337.951E-03     664.469E-03    -332.155E-03     239.778E-03     5.09137E+06     1.26368E+06    -2.66036E+06     721.518E+03     1.70948E+06     1.26368E+06    -252.487E+03         92.7787
             734     11.4834E-03     54.0420E-03     380.399E-03     376.904E-03        -1.30653     377.212E-03        -1.30641     379.966E-03     16.2038E-03     678.422E-03    -333.142E-03    -351.918E-03    -334.808E-03     661.312E-03    -333.142E-03     258.056E-03     2.51234E+06     179.320E+03    -2.86313E+06     72.5025E+03    -423.288E+03     179.320E+03    -196.310E+03         90.0897
             735     10.7535E-03     53.6850E-03     381.446E-03     374.886E-03        -1.30712     374.695E-03        -1.30693     381.446E-03    -25.7028E-03     667.077E-03    -333.046E-03    -339.115E-03    -327.686E-03     655.647E-03    -333.046E-03     212.901E-03     1.63386E+06    -498.347E+03    -2.04248E+06    -520.934E+03    -144.434E+03    -241.602E+03     408.644E+03         87.5421
             736     10.0457E-03     53.3098E-03     383.118E-03     373.314E-03        -1.30747     372.584E-03        -1.30674     383.118E-03     19.8387E-03     666.351E-03    -332.793E-03    -338.157E-03    -327.085E-03     655.279E-03    -332.793E-03     209.137E-03     3.13290E+06     594.345E+03    -835.387E+03     378.151E+03     1.66262E+06     851.090E+03    -218.963E+03         85.5571
             737     9.29638E-03     53.0357E-03     384.849E-03     374.604E-03        -1.30941     373.158E-03        -1.30796     384.849E-03    -11.2453E-03     664.414E-03    -331.693E-03    -335.020E-03    -326.161E-03     655.555E-03    -331.693E-03     187.236E-03     2.18719E+06     690.869E+03    -869.361E+03     54.2498E+03     1.26358E+06     690.869E+03    -53.0878E+03         84.1289
             738     8.58711E-03     52.7812E-03     386.495E-03     376.060E-03        -1.31176     374.698E-03        -1.31040     386.495E-03    -14.5690E-03     662.900E-03    -330.489E-03    -332.696E-03    -324.975E-03     655.179E-03    -330.489E-03     174.537E-03     3.14882E+06     790.511E+03    -2.52387E+06    -877.729E+03     1.50268E+06     790.511E+03     911.951E+03         83.0135
             739     7.87463E-03     52.5618E-03     388.219E-03     374.730E-03        -1.31307     374.161E-03        -1.31250     388.219E-03     22.7614E-03     657.308E-03    -327.510E-03    -331.201E-03    -322.443E-03     650.898E-03    -329.858E-03     158.227E-03     4.01668E+06     191.720E+03    -5.08489E+06    -919.199E+03    -724.641E+03     767.347E+03     426.924E+03         82.0011
             740     7.15477E-03     52.3843E-03     390.196E-03     373.673E-03        -1.31548     373.574E-03        -1.31538     390.196E-03    -18.3589E-03     653.576E-03    -324.749E-03    -330.561E-03    -319.642E-03     648.469E-03    -330.561E-03     140.739E-03     4.37886E+06    -461.330E+03    -5.42904E+06    -484.743E+03    -1.14106E+06     114.297E+03    -1.29813E+06         81.0860
             741     6.43655E-03     52.2271E-03     392.271E-03     376.899E-03        -1.32122     376.883E-03        -1.32120     392.271E-03    -5.84702E-03     652.458E-03    -323.655E-03    -332.021E-03    -319.784E-03     648.588E-03    -332.021E-03     122.234E-03     6.64058E+06    -1.10618E+06    -4.85748E+06    -359.277E+03     2.14238E+06    -1.10618E+06    -1.10225E+06         80.3574
             742     5.71783E-03     52.0990E-03     394.088E-03     382.570E-03        -1.32745     382.494E-03        -1.32737     394.088E-03     8.90418E-03     654.980E-03    -323.701E-03    -334.099E-03    -321.141E-03     652.420E-03    -334.099E-03     99.1022E-03     7.44050E+06    -1.25014E+06    -3.29161E+06     835.537E+03     3.42225E+06    -1.35903E+06    -480.951E+03         79.7759
             743     5.00306E-03     52.0196E-03     396.649E-03     386.994E-03        -1.33249     388.101E-03        -1.33238     395.433E-03     1.60461E-03     661.464E-03    -325.686E-03    -333.418E-03    -324.235E-03     660.014E-03    -333.418E-03     74.6166E-03     5.31360E+06    -542.621E+03    -4.13512E+06     1.10896E+06     178.399E+03    -651.508E+03    -150.808E+03         79.1402
             744     4.27244E-03     51.9771E-03     397.832E-03     391.108E-03        -1.33733     392.592E-03        -1.33728     396.298E-03    -10.1161E-03     663.954E-03    -329.173E-03    -331.953E-03    -328.547E-03     663.201E-03    -331.826E-03     53.9311E-03     4.57480E+06    -290.251E+03    -3.32886E+06     972.786E+03     273.154E+03    -290.251E+03    -227.151E+03         78.4596
             745     3.55848E-03     52.0096E-03     397.422E-03     392.581E-03        -1.33933     392.662E-03        -1.33909     397.103E-03    -26.2694E-03     662.152E-03    -330.850E-03    -332.042E-03    -331.067E-03     661.792E-03    -331.465E-03     36.8975E-03     3.37642E+06     89.9617E+03    -3.95769E+06     1.03930E+06    -1.81884E+06     288.232E+03         754.312         77.8365
             746     2.84600E-03     52.0643E-03     400.040E-03     395.363E-03        -1.34612     393.224E-03        -1.34223     398.286E-03     84.8772E-03     661.501E-03    -331.081E-03    -331.819E-03    -331.389E-03     661.360E-03    -331.369E-03     22.8698E-03     2.59401E+06     846.112E+03    -6.93155E+06     749.809E+03    -6.52729E+06     2.28605E+06     361.003E+03         77.2766
             747     2.13621E-03     52.1467E-03     414.719E-03     399.984E-03        -1.36543     394.361E-03        -1.34507     399.984E-03    -130.098E-03     664.451E-03    -332.380E-03    -332.694E-03    -332.336E-03     664.408E-03    -332.694E-03     12.2502E-03     3.45604E+06     265.765E+03    -6.78036E+06     54.1673E+03    -6.56876E+06     3.45604E+06     438.235E+03         76.8507
             748     1.42377E-03     52.2582E-03     462.966E-03     401.986E-03        -1.41313     398.041E-03        -1.34820     401.986E-03     178.427E-03     670.707E-03    -335.320E-03    -336.102E-03    -335.312E-03     670.699E-03    -336.102E-03     4.77320E-03     1.41091E+06    -822.465E+03    -8.36883E+06    -1.37130E+06    -7.81999E+06     1.41091E+06     154.465E+03         76.6135
             749     709.629E-06     52.3021E-03     654.656E-03     400.180E-03        -1.59661     406.410E-03        -1.34836     400.180E-03    -505.890E-03     675.373E-03    -337.008E-03    -338.519E-03    -337.958E-03     675.371E-03    -337.566E-03     1.50429E-03     162.427E+03    -1.73886E+06    -12.6770E+06    -1.07679E+06    -11.7958E+06    -1.38077E+06    -404.827E+03         76.5272
             750     12.1909E-03     52.6349E-03     385.719E-03     379.760E-03        -1.31989     380.954E-03        -1.31955     384.187E-03     200.833E-06     680.021E-03    -332.204E-03    -353.245E-03    -338.025E-03     664.801E-03    -332.204E-03     238.269E-03     4.07689E+06    -744.660E+03    -3.34406E+06     742.541E+03     138.198E+03    -892.572E+03     125.540E+03         92.7854
             751     11.4826E-03     52.0387E-03     386.002E-03     379.970E-03        -1.32080     379.746E-03        -1.32058     386.002E-03     10.6442E-03     678.984E-03    -333.154E-03    -353.158E-03    -336.266E-03     662.091E-03    -333.154E-03     256.507E-03     5.11772E+06    -236.760E+03    -2.83162E+06     267.170E+03     2.01893E+06    -236.760E+03    -279.965E+03         90.1033
             752     10.7562E-03     51.6986E-03     387.791E-03     382.053E-03        -1.32488     381.939E-03        -1.32477     387.791E-03    -25.9024E-03     667.472E-03    -332.994E-03    -340.039E-03    -328.880E-03     656.313E-03    -332.994E-03     210.547E-03     4.43212E+06     239.589E+03    -1.35688E+06     478.745E+03     2.38606E+06     450.028E+03     427.372E+03         87.5608
             753     10.0503E-03     51.3188E-03     389.254E-03     385.336E-03        -1.32918     384.823E-03        -1.32867     389.254E-03     26.5593E-03     666.904E-03    -332.667E-03    -338.388E-03    -327.576E-03     656.092E-03    -332.667E-03     206.825E-03     2.96676E+06    -127.481E+03    -1.05422E+06    -158.629E+03     1.86073E+06     82.9576E+03     390.303E+03         85.5733
             754     9.30245E-03     51.0422E-03     390.873E-03     386.412E-03        -1.33132     385.732E-03        -1.33025     390.484E-03    -6.32119E-03     663.750E-03    -331.434E-03    -334.921E-03    -326.037E-03     654.987E-03    -331.556E-03     186.190E-03     2.16969E+06    -107.408E+03    -1.81693E+06    -1.30023E+06     1.65300E+06    -107.408E+03     680.575E+03         84.1317
             755     8.58661E-03     50.7861E-03     392.652E-03     385.332E-03        -1.33182     385.409E-03        -1.33083     391.590E-03    -10.2364E-03     660.929E-03    -330.309E-03    -331.809E-03    -323.845E-03     653.121E-03    -330.465E-03     175.289E-03     4.58007E+06     332.421E+03    -6.26974E+06    -713.150E+03    -976.522E+03     332.421E+03      92.722E+03         83.0045
             756     7.87035E-03     50.5807E-03     394.312E-03     384.591E-03        -1.33320     385.907E-03        -1.33281     392.603E-03     29.7920E-03     656.588E-03    -327.864E-03    -330.506E-03    -321.902E-03     649.973E-03    -329.852E-03     160.696E-03     7.53590E+06    -573.827E+03    -7.81787E+06     75.8186E+03    -357.791E+03    -573.827E+03    -561.149E+03         81.9884
             757     7.15317E-03     50.4028E-03     395.228E-03     385.415E-03        -1.33587     387.157E-03        -1.33584     393.449E-03    -8.79661E-03     654.263E-03    -325.690E-03    -330.518E-03    -320.374E-03     648.947E-03    -330.518E-03     143.730E-03     7.18156E+06    -1.19008E+06    -4.45337E+06     128.017E+03     2.60017E+06    -1.19008E+06    -220.166E+03         81.0800
             758     6.43756E-03     50.2384E-03     395.478E-03     387.972E-03        -1.33870     389.363E-03        -1.33868     394.071E-03    -1.29339E-03     652.887E-03    -324.315E-03    -331.983E-03    -320.323E-03     648.896E-03    -331.983E-03     124.139E-03     5.09604E+06    -1.33719E+06    -3.94750E+06     -88.482E+03     1.23702E+06    -1.33719E+06    -1.20749E+06         80.3616
             759     5.71898E-03     50.1185E-03     395.768E-03     391.065E-03        -1.34142     392.375E-03        -1.34136     394.397E-03     14.1527E-03     654.892E-03    -323.787E-03    -334.068E-03    -321.138E-03     652.243E-03    -334.068E-03     100.934E-03     4.22722E+06    -2.17403E+06    -4.36545E+06    -836.381E+03     807.035E+03    -2.28292E+06    -678.774E+03         79.7744
             760     5.00237E-03     50.0356E-03     396.302E-03     393.341E-03        -1.34322     395.167E-03        -1.34312     394.380E-03     1.71092E-03     661.078E-03    -325.631E-03    -333.274E-03    -324.108E-03     659.555E-03    -333.274E-03     76.3253E-03     4.36981E+06    -665.837E+03    -4.93619E+06    -259.585E+03    -197.909E+03    -774.724E+03     29.4984E+03         79.1247
             761     4.27109E-03     49.9998E-03     395.749E-03     393.435E-03        -1.34293     394.911E-03        -1.34287     394.214E-03    -12.8583E-03     663.565E-03    -329.070E-03    -331.850E-03    -328.519E-03     662.808E-03    -331.643E-03     53.9090E-03     3.94023E+06     75.6099E+03    -3.97354E+06     48.1216E+03    -81.4395E+03     75.6099E+03    -82.0215E+03         78.4418
             762     3.55834E-03     50.0331E-03     394.748E-03     391.677E-03        -1.34238     391.776E-03        -1.34216     394.430E-03    -28.6934E-03     661.835E-03    -330.888E-03    -331.736E-03    -330.785E-03     661.500E-03    -331.503E-03     35.4236E-03     2.55611E+06    -610.957E+03    -5.33320E+06    -555.352E+03    -3.04395E+06     211.256E+03     204.878E+03         77.8171
             763     2.84585E-03     50.0826E-03     396.879E-03     393.089E-03        -1.34631     391.997E-03        -1.34348     395.147E-03     68.1881E-03     660.605E-03    -330.711E-03    -331.456E-03    -330.620E-03     660.487E-03    -331.430E-03     20.7090E-03     1.69589E+06    -863.779E+03    -7.31517E+06    -1.37231E+06    -5.82210E+06     711.345E+03     465.111E+03         77.2457
             764     2.13202E-03     50.1691E-03     405.863E-03     396.751E-03        -1.35742     390.328E-03        -1.34188     396.751E-03    -116.931E-03     665.879E-03    -332.817E-03    -333.671E-03    -332.782E-03     665.844E-03    -333.671E-03     10.7159E-03     3.09734E+06    -1.75926E+06    -6.76926E+06    -900.224E+03    -5.43260E+06     901.639E+03    -115.072E+03         76.8281
             765     1.42163E-03     50.2873E-03     443.550E-03     398.965E-03        -1.39352     395.260E-03        -1.34523     398.965E-03     146.842E-03     673.610E-03    -336.694E-03    -337.449E-03    -336.850E-03     673.604E-03    -337.286E-03     3.96585E-03     2.03666E+06    -2.50071E+06    -9.34718E+06    -489.672E+03    -8.80729E+06    -514.276E+03    -484.022E+03         76.6238
             766     712.520E-06     50.3228E-03     595.458E-03     390.622E-03        -1.53178     410.421E-03        -1.34674     390.622E-03    -424.185E-03     676.001E-03    -337.285E-03    -338.874E-03    -337.778E-03     676.001E-03    -338.380E-03     822.714E-06      1.2923E+06    -1.98631E+06    -11.9568E+06     76.2299E+03    -11.4443E+06    -1.28273E+06     79.4350E+03         76.5582
             767     12.1914E-03     50.6449E-03     390.661E-03     386.021E-03        -1.33229     385.487E-03        -1.33175     390.661E-03     195.898E-06     680.106E-03    -332.173E-03    -354.226E-03    -339.182E-03     665.063E-03    -332.173E-03     236.972E-03     2.88247E+06    -1.71800E+06    -3.33472E+06    -307.745E+03     3.41031E+03    -1.86591E+06    -130.008E+03         92.8078
             768     11.4860E-03     50.0524E-03     392.604E-03     388.806E-03        -1.33790     388.532E-03        -1.33750     392.478E-03     9.40048E-03     678.481E-03    -333.093E-03    -353.486E-03    -336.768E-03     661.763E-03    -333.093E-03     255.233E-03     5.52297E+06    -983.247E+03    -2.58958E+06     637.068E+03     2.31445E+06    -1.00138E+06     390.385E+03         90.1204
             769     10.7561E-03     49.7091E-03     394.067E-03     391.624E-03        -1.34350     391.614E-03        -1.34337     393.941E-03    -23.8034E-03     667.874E-03    -332.866E-03    -340.845E-03    -329.630E-03     656.659E-03    -332.866E-03     211.137E-03     5.09793E+06    -2.02998E+06    -2.79394E+06    -539.884E+03     3.05976E+06    -2.24587E+06     499.916E+03         87.5688
             770     10.0506E-03     49.3319E-03     395.448E-03     393.852E-03        -1.34771     393.974E-03        -1.34741     395.026E-03     28.9389E-03     667.619E-03    -332.499E-03    -339.130E-03    -328.096E-03     656.585E-03    -332.499E-03     209.127E-03     3.90116E+06    -2.19408E+06    -2.72928E+06    -1.31813E+06     2.68776E+06    -2.39183E+06     1.47827E+06         85.5659
             771     9.30162E-03     49.0511E-03     398.417E-03     395.535E-03        -1.35289     397.516E-03        -1.35224     395.788E-03    -2.92806E-03     662.516E-03    -331.127E-03    -334.353E-03    -325.026E-03     653.506E-03    -331.444E-03     188.601E-03     4.25821E+06    -2.21182E+06    -4.11598E+06    -536.874E+03     679.103E+03    -2.21182E+06     148.685E+03         84.1096
             772     8.58559E-03     48.8033E-03     402.089E-03     396.079E-03        -1.35759     401.490E-03        -1.35699     396.079E-03    -5.46563E-03     659.302E-03    -330.132E-03    -330.626E-03    -322.337E-03     651.364E-03    -330.483E-03     176.426E-03     6.72956E+06    -1.79730E+06    -8.12707E+06     247.087E+03    -1.64460E+06    -1.79730E+06    -982.823E+03         82.9841
             773     7.86832E-03     48.5948E-03     404.522E-03     395.884E-03        -1.35988     404.275E-03        -1.35963     395.884E-03     30.4741E-03     656.557E-03    -328.512E-03    -330.098E-03    -322.000E-03     649.902E-03    -329.955E-03     161.191E-03     8.57742E+06    -1.44699E+06    -7.76838E+06     381.111E+03     427.925E+03    -1.44699E+06    -247.163E+03         81.9800
             774     7.15347E-03     48.4137E-03     404.298E-03     395.330E-03        -1.35918     404.272E-03        -1.35916     395.330E-03    -8.35726E-03     654.940E-03    -326.528E-03    -330.586E-03    -321.237E-03     649.648E-03    -330.586E-03     143.426E-03     8.46296E+06    -1.54671E+06    -4.30394E+06     574.120E+03     3.58490E+06    -1.54671E+06     140.738E+03         81.0853
             775     6.43557E-03     48.2542E-03     402.427E-03     394.624E-03        -1.35689     402.398E-03        -1.35686     394.624E-03    -5.80529E-03     653.168E-03    -324.798E-03    -331.920E-03    -320.890E-03     649.260E-03    -331.920E-03     122.883E-03     5.72945E+06    -95.9975E+03    -2.59577E+06     626.730E+03     2.50694E+06    -95.9975E+03     246.237E+03         80.3808
             776     5.71755E-03     48.1304E-03     399.790E-03     393.915E-03        -1.35368     399.775E-03        -1.35367     393.915E-03     9.71844E-03     654.766E-03    -323.939E-03    -333.993E-03    -321.344E-03     652.170E-03    -333.993E-03     99.8784E-03     3.75474E+06     320.719E+03    -3.41373E+06    -273.853E+03    -307.930E+03     1.24351E+06    -281.725E+03         79.7999
             777     5.00330E-03     48.0521E-03     395.717E-03     392.394E-03        -1.34842     394.581E-03        -1.34840     393.512E-03     1.09059E-03     660.473E-03    -324.983E-03    -333.184E-03    -323.475E-03     658.966E-03    -333.184E-03     76.0105E-03     3.79178E+06    -25.0255E+03    -4.21544E+06    -909.409E+03    -437.044E+03     897.768E+03    -289.815E+03         79.1444
             778     4.27078E-03     48.0107E-03     393.648E-03     391.368E-03        -1.34571     391.290E-03        -1.34563     393.648E-03    -19.9860E-03     663.916E-03    -329.029E-03    -332.025E-03    -328.633E-03     663.145E-03    -331.650E-03     54.3923E-03     3.64946E+06     821.710E+03    -3.73010E+06    -295.082E+03    -66.6125E+03     1.10277E+06     261.759E+03         78.4548
             779     3.56015E-03     48.0513E-03     394.822E-03     391.619E-03        -1.34667     392.218E-03        -1.34647     394.021E-03    -34.6397E-03     662.744E-03    -331.392E-03    -332.038E-03    -331.684E-03     662.390E-03    -331.392E-03     36.6185E-03     2.65004E+06     764.078E+03    -6.10442E+06    -98.0746E+03    -4.64295E+06     2.05072E+06     519.084E+03         77.8307
             780     2.84753E-03     48.1060E-03     398.331E-03     392.766E-03        -1.35150     395.520E-03        -1.34993     394.005E-03     50.8766E-03     660.712E-03    -330.837E-03    -331.612E-03    -330.978E-03     660.582E-03    -331.342E-03     21.4700E-03     1.48825E+06    -520.962E+03    -5.33754E+06    -1.22799E+06    -3.34357E+06     201.307E+03    -53.9218E+03         77.2622
             781     2.13463E-03     48.1835E-03     404.875E-03     393.548E-03        -1.35788     395.457E-03        -1.34846     393.548E-03    -95.2592E-03     664.956E-03    -332.537E-03    -333.396E-03    -332.507E-03     664.927E-03    -333.396E-03     9.68510E-03     1.03670E+06    -2.83849E+06    -6.42362E+06    -1.92093E+06    -4.53514E+06    -1.76934E+06    -448.885E+03         76.8415
             782     1.42289E-03     48.2912E-03     424.998E-03     392.591E-03        -1.37727     395.777E-03        -1.34805     392.591E-03     105.391E-03     672.655E-03    -336.273E-03    -337.031E-03    -336.432E-03     672.652E-03    -336.868E-03     3.05449E-03     610.459E+03    -3.97668E+06    -10.6111E+06    -1.93123E+06    -10.1056E+06    -1.94047E+06    -105.171E+03         76.6291
             783     711.122E-06     48.3399E-03     513.017E-03     382.034E-03        -1.45412     402.340E-03        -1.34344     382.034E-03    -307.384E-03     676.010E-03    -337.192E-03    -338.950E-03    -337.872E-03     676.009E-03    -338.268E-03     183.014E-06     628.303E+03    -3.15529E+06    -12.5459E+06    -1.02415E+06    -12.2023E+06    -1.84642E+06    -151.302E+03         76.5602
             784     12.1938E-03     48.6503E-03     396.210E-03     391.805E-03        -1.34586     391.001E-03        -1.34506     396.210E-03     5.91028E-03     681.031E-03    -332.115E-03    -355.185E-03    -340.024E-03     665.869E-03    -332.115E-03     237.992E-03     2.59489E+06    -818.899E+03    -3.38430E+06    -93.1429E+03    -696.271E+03    -818.899E+03     410.062E+03         92.8110
             785     11.4836E-03     48.0662E-03     397.529E-03     394.163E-03        -1.35262     393.681E-03        -1.35201     397.403E-03     18.1333E-03     679.290E-03    -333.021E-03    -354.044E-03    -337.144E-03     662.390E-03    -333.021E-03     256.839E-03     4.03919E+06    -1.19156E+06    -3.74733E+06    -453.924E+03     763.909E+03    -1.20969E+06     1.09768E+06         90.1165
             786     10.7575E-03     47.7221E-03     398.496E-03     394.690E-03        -1.35556     394.638E-03        -1.35538     398.370E-03    -13.7762E-03     668.072E-03    -332.812E-03    -340.988E-03    -329.594E-03     656.679E-03    -332.812E-03     212.823E-03     4.35205E+06    -1.43231E+06    -2.63915E+06    -440.320E+03     2.26419E+06    -1.54328E+06     1.18584E+06         87.5519
             787     10.0511E-03     47.3501E-03     399.471E-03     397.491E-03        -1.36001     397.655E-03        -1.35975     399.049E-03     36.0268E-03     666.486E-03    -332.488E-03    -338.588E-03    -327.386E-03     655.284E-03    -332.488E-03     210.522E-03     5.42241E+06    -1.80136E+06    -2.76387E+06     392.165E+03     2.61197E+06    -2.14696E+06     443.367E+03         85.5400
             788     9.30022E-03     47.0735E-03     401.787E-03     399.382E-03        -1.36511     401.358E-03        -1.36469     399.388E-03     1.64146E-03     661.922E-03    -330.967E-03    -333.878E-03    -324.397E-03     652.890E-03    -331.416E-03     188.682E-03     7.10356E+06    -2.65015E+06    -4.88235E+06     824.591E+03     1.64937E+06    -2.90291E+06    -2.23819E+03         84.0892
             789     8.58197E-03     46.8248E-03     404.533E-03     398.940E-03        -1.36826     403.685E-03        -1.36790     399.427E-03    -2.85417E-03     660.277E-03    -330.059E-03    -331.023E-03    -322.742E-03     652.445E-03    -330.507E-03     175.332E-03     8.16777E+06    -2.65474E+06    -5.88410E+06     329.220E+03     1.95445E+06    -2.65474E+06     86.9928E+03         82.9781
             790     7.86770E-03     46.6121E-03     406.220E-03     398.593E-03        -1.37023     405.352E-03        -1.37006     399.290E-03     27.8700E-03     657.532E-03    -328.745E-03    -330.503E-03    -322.727E-03     650.999E-03    -329.987E-03     159.831E-03     6.17162E+06    -997.187E+03    -5.73348E+06     373.025E+03     65.1166E+03    -997.187E+03    -176.999E+03         81.9846
             791     7.15120E-03     46.4307E-03     407.767E-03     398.751E-03        -1.37131     407.478E-03        -1.37123     398.960E-03    -10.4093E-03     654.966E-03    -326.526E-03    -330.544E-03    -321.366E-03     649.806E-03    -330.544E-03     141.611E-03     6.20483E+06     108.930E+03    -4.14434E+06     600.412E+03     1.46008E+06     108.930E+03     98.0944E+03         81.0875
             792     6.43713E-03     46.2734E-03     407.524E-03     398.439E-03        -1.37025     407.447E-03        -1.37017     398.439E-03    -10.1964E-03     653.100E-03    -324.793E-03    -331.831E-03    -320.932E-03     649.240E-03    -331.831E-03     122.249E-03     6.44613E+06    -70.2100E+03    -1.88539E+06     859.697E+03     3.80195E+06    -171.117E+03     686.952E+03         80.3808
             793     5.72099E-03     46.1512E-03     405.054E-03     397.863E-03        -1.36802     405.023E-03        -1.36799     397.863E-03     3.16243E-03     654.536E-03    -323.903E-03    -333.839E-03    -321.277E-03     651.910E-03    -333.839E-03     100.404E-03     5.00412E+06     557.245E+03    -2.31951E+06     1.15316E+06     1.29191E+06     796.785E+03     616.511E+03         79.8120
             794     5.00316E-03     46.0785E-03     403.339E-03     396.293E-03        -1.36614     402.276E-03        -1.36611     397.326E-03    -1.65966E-03     660.552E-03    -324.843E-03    -333.358E-03    -323.297E-03     659.006E-03    -333.358E-03     77.1685E-03     4.86436E+06     1.27960E+06    -2.52762E+06     690.145E+03     1.30615E+06     1.62005E+06     187.188E+03         79.1663
             795     4.26983E-03     46.0365E-03     403.730E-03     395.147E-03        -1.36556     401.931E-03        -1.36526     396.648E-03    -30.5381E-03     663.639E-03    -328.729E-03    -332.057E-03    -328.073E-03     662.814E-03    -331.888E-03     56.3106E-03     3.71852E+06     958.129E+03    -4.92126E+06    -282.658E+03    -1.87617E+06     1.91422E+06     75.8898E+03         78.4727
             796     3.55639E-03     46.0687E-03     401.949E-03     395.188E-03        -1.36106     401.106E-03        -1.36069     395.657E-03    -25.4418E-03     662.637E-03    -331.315E-03    -332.203E-03    -331.501E-03     662.252E-03    -331.632E-03     38.2947E-03     2.86556E+06     611.417E+03    -6.16263E+06    -526.402E+03    -3.91013E+06     1.75088E+06      83.643E+03         77.8519
             797     2.84606E-03     46.1297E-03     398.773E-03     394.630E-03        -1.35477     398.107E-03        -1.35411     394.630E-03     43.9305E-03     662.951E-03    -332.075E-03    -332.492E-03    -332.342E-03     662.800E-03    -332.075E-03     23.5260E-03     3.47421E+06     593.726E+03    -4.09053E+06     220.496E+03    -1.99228E+06     1.74919E+06    -102.440E+03         77.3038
             798     2.13480E-03     46.2073E-03     401.448E-03     393.627E-03        -1.35663     396.556E-03        -1.35173     393.627E-03    -81.6797E-03     666.228E-03    -333.342E-03    -333.723E-03    -333.314E-03     666.185E-03    -333.708E-03     12.1104E-03     2.06697E+06    -903.947E+03    -6.52394E+06    -1.02737E+06    -5.79017E+06     1.45662E+06     520.761E+03         76.8938
             799     1.42286E-03     46.3236E-03     410.312E-03     392.003E-03        -1.36818     395.911E-03        -1.35378     392.003E-03     66.0726E-03     672.096E-03    -336.057E-03    -336.770E-03    -336.049E-03     672.089E-03    -336.770E-03     4.56017E-03     217.497E+03    -2.13051E+06    -9.58988E+06    -2.23577E+06    -9.20882E+06    -58.2959E+03     469.618E+03         76.6670
             800     711.076E-06     46.3624E-03     455.785E-03     379.268E-03        -1.40394     402.519E-03        -1.35068     379.268E-03    -205.577E-03     676.464E-03    -337.106E-03    -339.551E-03    -339.204E-03     676.462E-03    -337.452E-03     79.3526E-06    -518.414E+03    -5.25260E+06    -13.6957E+06    -3.80955E+06    -13.4201E+06    -2.23710E+06     195.180E+03         76.5817
             801     12.1890E-03     46.6661E-03     399.293E-03     391.323E-03        -1.35690     390.364E-03        -1.35594     399.293E-03     5.94886E-03     681.158E-03    -332.089E-03    -354.318E-03    -339.329E-03     666.169E-03    -332.089E-03     236.489E-03     2.35947E+06    -917.204E+03    -4.20885E+06    -697.607E+03    -2.77817E+06     709.195E+03     542.120E+03         92.8063
             802     11.4836E-03     46.0865E-03     400.211E-03     394.393E-03        -1.36155     393.704E-03        -1.36086     400.211E-03     21.6517E-03     678.886E-03    -332.997E-03    -353.212E-03    -336.456E-03     662.130E-03    -332.997E-03     255.698E-03     4.45764E+06     60.6763E+03    -2.76952E+06     169.944E+03     492.718E+03     1.08614E+06     844.418E+03         90.1052
             803     10.7570E-03     45.7468E-03     400.983E-03     397.424E-03        -1.36467     397.272E-03        -1.36448     400.947E-03    -9.97399E-03     667.454E-03    -332.775E-03    -340.244E-03    -328.779E-03     655.988E-03    -332.775E-03     213.284E-03     5.07737E+06     573.596E+03    -895.456E+03     1.44099E+06     3.06411E+06     250.398E+03     118.151E+03         87.5375
             804     10.0494E-03     45.3712E-03     401.526E-03     400.079E-03        -1.36754     399.963E-03        -1.36739     401.490E-03     28.7424E-03     666.167E-03    -332.565E-03    -338.300E-03    -327.079E-03     654.946E-03    -332.565E-03     210.502E-03     6.21162E+06    -584.687E+03    -3.19784E+06     1.30352E+06     1.96301E+06    -837.443E+03     623.940E+03         85.5315
             805     9.29768E-03     45.0996E-03     402.142E-03     400.603E-03        -1.36996     400.502E-03        -1.36970     401.984E-03    -6.64284E-03     662.577E-03    -331.226E-03    -333.763E-03    -324.617E-03     653.719E-03    -331.514E-03     186.911E-03     7.95913E+06     671.802E+03    -4.55477E+06     1.40201E+06     2.25510E+06     419.046E+03     1.32903E+06         84.0883
             806     8.58356E-03     44.8484E-03     402.760E-03     399.309E-03        -1.37118     399.264E-03        -1.37097     402.602E-03    -12.7651E-03     660.990E-03    -330.189E-03    -331.272E-03    -323.308E-03     653.315E-03    -330.478E-03     173.706E-03     8.78268E+06     949.564E+03    -4.53569E+06     1.39184E+06     2.85515E+06     949.564E+03     898.787E+03         82.9795
             807     7.86850E-03     44.6311E-03     403.354E-03     399.906E-03        -1.37265     399.835E-03        -1.37258     403.354E-03     19.1173E-03     657.447E-03    -328.608E-03    -330.729E-03    -322.933E-03     650.978E-03    -329.935E-03     159.086E-03     6.01780E+06     961.432E+03    -4.39880E+06     590.994E+03     1.02801E+06     961.432E+03     854.410E+03         81.9820
             808     7.15398E-03     44.4487E-03     405.665E-03     401.196E-03        -1.37501     402.611E-03        -1.37481     404.046E-03    -16.3913E-03     654.215E-03    -325.846E-03    -330.504E-03    -320.651E-03     649.020E-03    -330.504E-03     142.040E-03     4.44397E+06     87.7044E+03    -3.53289E+06    -245.647E+03     1.15672E+06     87.7044E+03     624.581E+03         81.0776
             809     6.43465E-03     44.2893E-03     407.992E-03     403.078E-03        -1.37810     406.352E-03        -1.37784     404.458E-03    -10.3008E-03     652.342E-03    -323.824E-03    -331.866E-03    -319.845E-03     648.364E-03    -331.866E-03     124.063E-03     5.08487E+06    -1.27709E+06    -2.62280E+06    -583.653E+03     3.14662E+06    -1.37800E+06     575.668E+03         80.3715
             810     5.71480E-03     44.1701E-03     409.505E-03     404.409E-03        -1.38201     409.384E-03        -1.38189     404.409E-03     2.37646E-03     654.814E-03    -323.877E-03    -333.963E-03    -321.137E-03     652.074E-03    -333.963E-03     102.595E-03     4.47070E+06    -829.373E+03    -2.28373E+06    -338.509E+03     3.20873E+06    -1.51263E+06     880.875E+03         79.8199
             811     5.00188E-03     44.1036E-03     409.993E-03     403.876E-03        -1.38461     409.811E-03        -1.38446     403.914E-03     3.28787E-03     661.387E-03    -325.613E-03    -333.520E-03    -324.034E-03     659.809E-03    -333.520E-03     77.8830E-03     4.74083E+06    -422.527E+03    -2.60557E+06     11.4005E+03     3.39706E+06    -1.69573E+06     495.511E+03         79.1983
             812     4.26802E-03     44.0591E-03     410.254E-03     401.671E-03        -1.38330     408.001E-03        -1.38255     403.172E-03    -32.1413E-03     664.194E-03    -329.281E-03    -332.186E-03    -328.466E-03     663.379E-03    -332.186E-03     56.0265E-03     3.40640E+06    -299.225E+03    -5.46509E+06    -81.8931E+03    -1.96098E+06    -315.045E+03    -352.602E+03         78.5230
             813     3.55552E-03     44.0893E-03     407.921E-03     400.127E-03        -1.37684     404.606E-03        -1.37583     402.430E-03    -14.0756E-03     663.072E-03    -331.685E-03    -332.330E-03    -331.468E-03     662.695E-03    -332.171E-03     37.7471E-03     2.60598E+06    -146.817E+03    -6.13067E+06    -454.560E+03    -4.36367E+06     1.14673E+06    -246.773E+03         77.9164
             814     2.84356E-03     44.1430E-03     406.991E-03     400.509E-03        -1.37267     405.617E-03        -1.37213     401.348E-03     25.9851E-03     663.697E-03    -332.310E-03    -332.743E-03    -332.344E-03     663.557E-03    -332.570E-03     22.6547E-03     2.83265E+06    -1.34256E+06    -5.80468E+06    -1.43210E+06    -2.90636E+06     23.8725E+03     634.137E+03         77.3869
             815     2.13210E-03     44.2287E-03     405.983E-03     399.579E-03        -1.36976     404.334E-03        -1.36811     399.579E-03    -72.0768E-03     669.754E-03    -334.947E-03    -335.334E-03    -334.954E-03     669.713E-03    -335.287E-03     11.9759E-03     1.64463E+06    -1.35611E+06    -7.46055E+06    -625.232E+03    -5.97460E+06    -572.195E+03     618.086E+03         76.9943
             816     1.42177E-03     44.3432E-03     406.758E-03     397.374E-03        -1.37136     401.528E-03        -1.36613     397.374E-03     36.4190E-03     675.536E-03    -337.847E-03    -338.456E-03    -337.870E-03     675.527E-03    -338.423E-03     5.55159E-03     178.573E+03    -815.245E+03    -8.99638E+06     8.33395E+03    -8.86215E+06    -779.236E+03     312.200E+03         76.7616
             817     711.443E-06     44.3873E-03     427.376E-03     383.516E-03        -1.38307     408.413E-03        -1.36411     383.516E-03    -106.949E-03     677.476E-03    -337.853E-03    -339.879E-03    -339.495E-03     677.475E-03    -338.236E-03     2.20625E-03     1.02926E+06    -3.31178E+06    -11.9221E+06    -1.44989E+06    -11.7747E+06    -980.011E+03     27.9140E+03         76.6489
             818     12.1955E-03     44.6902E-03     401.459E-03     392.981E-03        -1.36585     392.260E-03        -1.36513     401.459E-03    -316.968E-06     681.765E-03    -332.201E-03    -354.839E-03    -339.591E-03     666.517E-03    -332.201E-03     238.626E-03     2.30940E+06    -979.316E+03    -4.06615E+06    -293.099E+03    -3.09005E+06     647.082E+03    -542.585E+03         92.8093
             819     11.4865E-03     44.1181E-03     402.525E-03     396.302E-03        -1.36892     395.745E-03        -1.36836     402.525E-03     8.55301E-03     678.840E-03    -333.020E-03    -353.459E-03    -336.444E-03     661.825E-03    -333.020E-03     257.601E-03     2.67012E+06    -551.733E+03    -2.80829E+06     384.419E+03    -1.24345E+06     169.123E+03    -447.100E+03         90.1103
             820     10.7560E-03     43.7703E-03     403.470E-03     399.990E-03        -1.37207     399.807E-03        -1.37185     403.434E-03    -17.3068E-03     667.592E-03    -332.787E-03    -340.433E-03    -329.051E-03     656.209E-03    -332.787E-03     212.663E-03     3.21396E+06    -288.490E+03    -2.28767E+06     328.963E+03     1.22513E+06    -916.293E+03     345.291E+03         87.5537
             821     10.0505E-03     43.3943E-03     404.254E-03     400.597E-03        -1.37405     400.576E-03        -1.37399     404.218E-03     19.3124E-03     666.312E-03    -332.570E-03    -338.235E-03    -327.242E-03     655.319E-03    -332.570E-03     208.414E-03     6.78521E+06     711.674E+03    -3.19697E+06     599.681E+03     2.98856E+06     711.674E+03     778.044E+03         85.5506
             822     9.30071E-03     43.1154E-03     405.073E-03     398.862E-03        -1.37554     398.729E-03        -1.37540     405.073E-03    -7.26507E-03     662.183E-03    -331.343E-03    -333.609E-03    -324.626E-03     653.328E-03    -331.471E-03     186.898E-03     7.06119E+06     642.282E+03    -5.08263E+06     204.387E+03     1.77418E+06     642.282E+03     1.08974E+06         84.0927
             823     8.58478E-03     42.8570E-03     406.112E-03     396.953E-03        -1.37662     396.846E-03        -1.37651     406.112E-03    -13.0647E-03     660.062E-03    -330.256E-03    -330.997E-03    -322.957E-03     652.150E-03    -330.383E-03     176.280E-03     6.80056E+06     283.155E+03    -4.47154E+06    -193.639E+03     2.54349E+06     262.312E+03     1.41483E+06         82.9698
             824     7.86931E-03     42.6415E-03     407.267E-03     398.216E-03        -1.37845     398.109E-03        -1.37834     407.267E-03     21.4961E-03     656.617E-03    -328.174E-03    -330.563E-03    -321.979E-03     649.810E-03    -329.950E-03     163.075E-03     5.66243E+06    -151.564E+03    -3.40308E+06    -282.837E+03     2.56303E+06    -172.407E+03     1.62207E+06         81.9704
             825     7.14979E-03     42.4585E-03     408.288E-03     402.460E-03        -1.38101     402.079E-03        -1.38063     408.288E-03    -14.6252E-03     654.310E-03    -325.683E-03    -330.564E-03    -320.271E-03     648.898E-03    -330.564E-03     144.856E-03     4.69631E+06    -348.886E+03    -3.02211E+06    -500.329E+03     2.17453E+06    -348.886E+03     1.08516E+06         81.0755
             826     6.43198E-03     42.3079E-03     409.855E-03     405.505E-03        -1.38411     405.913E-03        -1.38367     409.010E-03    -7.89416E-03     652.842E-03    -324.151E-03    -331.931E-03    -320.202E-03     648.892E-03    -331.931E-03     123.535E-03     5.26450E+06     842.724E+03    -1.22243E+06     95.6526E+03     3.94643E+06     842.724E+03     691.397E+03         80.3846
             827     5.71532E-03     42.1780E-03     411.991E-03     404.447E-03        -1.38734     406.474E-03        -1.38695     409.581E-03    -2.19996E-03     654.881E-03    -323.792E-03    -334.064E-03    -321.162E-03     652.251E-03    -334.064E-03     100.515E-03       5.166E+06      1.2231E+06    -1.25699E+06     355.304E+03     3.55370E+06      1.2231E+06     160.296E+03         79.8497
             828     4.99905E-03     42.1027E-03     411.996E-03     402.864E-03        -1.38913     403.971E-03        -1.38867     410.431E-03     2.79606E-03     661.549E-03    -325.834E-03    -333.556E-03    -324.324E-03     660.039E-03    -333.556E-03     76.1626E-03     5.03969E+06     265.051E+03    -2.21338E+06     443.931E+03     3.07323E+06    -425.800E+03    -37.9123E+03         79.2469
             829     4.26687E-03     42.0697E-03     411.806E-03     403.515E-03        -1.39086     402.247E-03        -1.38959     411.806E-03    -31.9924E-03     665.536E-03    -330.055E-03    -332.519E-03    -329.566E-03     664.763E-03    -332.235E-03     54.5874E-03     3.07408E+06    -134.744E+03    -3.09005E+06     765.301E+03    -21.3493E+03    -894.661E+03     193.532E+03         78.5947
             830     3.55490E-03     42.0967E-03     413.227E-03     407.957E-03        -1.39466     406.115E-03        -1.39282     413.227E-03    -7.19051E-03     665.114E-03    -332.547E-03    -333.096E-03    -332.584E-03     664.771E-03    -332.716E-03     35.8789E-03     1.69634E+06    -344.960E+03    -5.49919E+06     763.930E+03    -5.11623E+06     204.492E+03     136.166E+03         78.0102
             831     2.84310E-03     42.1546E-03     417.597E-03     412.166E-03        -1.40024     414.940E-03        -1.39886     413.439E-03     9.34417E-03     665.160E-03    -332.877E-03    -333.590E-03    -332.856E-03     665.043E-03    -333.494E-03     20.6641E-03     2.59440E+06    -180.845E+03    -5.86610E+06     761.429E+03    -4.36504E+06     151.065E+03     293.716E+03         77.4855
             832     2.13164E-03     42.2352E-03     418.632E-03     411.618E-03        -1.39802     417.728E-03        -1.39719     411.691E-03    -46.4053E-03     670.920E-03    -335.513E-03    -336.127E-03    -335.593E-03     670.888E-03    -336.016E-03     10.5073E-03     2.13580E+06    -419.657E+03    -6.53860E+06     310.873E+03    -5.05230E+06     -81.034E+03     280.943E+03         77.0779
             833     1.42079E-03     42.3474E-03     415.488E-03     408.446E-03        -1.39570     414.576E-03        -1.39479     408.446E-03    -6.50463E-03     676.463E-03    -338.478E-03    -338.882E-03    -338.583E-03     676.457E-03    -338.771E-03     4.25203E-03     1.47727E+06    -1.35031E+03    -8.17886E+06     692.289E+03    -8.01911E+06     623.881E+03     178.920E+03         76.8214
             834     709.163E-06     42.3859E-03     419.227E-03     396.532E-03        -1.39229     415.246E-03        -1.38830     396.532E-03     7.80933E-03     677.919E-03    -338.718E-03    -339.321E-03    -339.026E-03     677.916E-03    -339.010E-03     477.065E-06     2.37769E+06     93.8567E+03    -10.6622E+06     1.80245E+06    -10.4659E+06     472.841E+03     272.139E+03         76.6876
             835     12.1885E-03     42.7043E-03     403.747E-03     393.933E-03        -1.37028     393.613E-03        -1.36996     403.747E-03    -2.79020E-03     681.325E-03    -332.211E-03    -354.553E-03    -339.319E-03     666.092E-03    -332.211E-03     238.635E-03     2.01946E+06    -1.44827E+06    -3.44547E+06     283.772E+03    -1.70978E+06    -1.44827E+06    -231.555E+03         92.8042
             836     11.4805E-03     42.1223E-03     404.750E-03     397.271E-03        -1.37371     397.021E-03        -1.37346     404.750E-03     5.20137E-03     679.799E-03    -333.101E-03    -354.176E-03    -337.266E-03     662.889E-03    -333.101E-03     256.869E-03     3.03029E+06    -715.279E+03    -3.00348E+06     423.206E+03    -1.44281E+06     331.127E+03    -282.356E+03         90.1177
             837     10.7568E-03     41.7766E-03     405.586E-03     397.903E-03        -1.37474     397.776E-03        -1.37461     405.586E-03    -8.36454E-03     668.513E-03    -333.005E-03    -340.914E-03    -329.537E-03     657.136E-03    -333.005E-03     212.663E-03     3.15436E+06     496.287E+03    -2.73379E+06    -2.31388E+03    -294.737E+03     1.21391E+06     572.579E+03         87.5723
             838     10.0521E-03     41.4069E-03     406.382E-03     397.525E-03        -1.37725     397.470E-03        -1.37719     406.382E-03     18.9607E-03     666.636E-03    -332.661E-03    -338.198E-03    -326.966E-03     655.404E-03    -332.661E-03     210.758E-03     4.49385E+06     779.949E+03    -2.76446E+06      73.222E+03     1.98495E+06     451.162E+03     835.240E+03         85.5627
             839     9.29910E-03     41.1357E-03     407.279E-03     397.226E-03        -1.38059     397.169E-03        -1.38053     407.279E-03     3.00348E-03     662.194E-03    -331.340E-03    -333.732E-03    -324.542E-03     653.096E-03    -331.431E-03     189.418E-03     5.14743E+06    -79.3736E+03    -4.00773E+06    -416.295E+03     1.55599E+06    -79.3736E+03     1.05246E+06         84.0922
             840     8.58134E-03     40.8752E-03     408.337E-03     396.294E-03        -1.38200     396.258E-03        -1.38196     408.337E-03    -8.87535E-03     660.061E-03    -330.396E-03    -330.887E-03    -322.822E-03     652.087E-03    -330.487E-03     176.931E-03     5.28186E+06     565.422E+03    -2.53325E+06     446.504E+03     2.32295E+06     544.580E+03     1.43404E+06         82.9652
             841     7.86373E-03     40.6695E-03     409.419E-03     399.793E-03        -1.38495     399.591E-03        -1.38474     409.419E-03     24.8759E-03     656.886E-03    -328.263E-03    -330.494E-03    -321.906E-03     650.206E-03    -330.171E-03     161.447E-03     6.36505E+06     1.55834E+06    -1.39763E+06     1.60874E+06     3.37952E+06     1.53750E+06     590.888E+03         81.9717
             842     7.14829E-03     40.4808E-03     410.338E-03     403.480E-03        -1.38700     402.928E-03        -1.38645     410.338E-03    -10.2895E-03     654.714E-03    -326.216E-03    -330.708E-03    -320.974E-03     649.471E-03    -330.708E-03     142.658E-03     6.53402E+06     2.44365E+06    -378.274E+03     2.41039E+06     3.74536E+06     2.44365E+06     357.635E+03         81.0883
             843     6.43282E-03     40.3260E-03     411.395E-03     401.610E-03        -1.38614     400.960E-03        -1.38549     411.395E-03    -4.87635E-03     653.369E-03    -325.092E-03    -331.855E-03    -321.224E-03     649.502E-03    -331.855E-03     122.344E-03     5.89748E+06     2.25903E+06     620.991E+03     2.34309E+06     4.17538E+06     2.25903E+06     92.7267E+03         80.4072
             844     5.71676E-03     40.2000E-03     413.083E-03     398.196E-03        -1.38653     397.492E-03        -1.38583     413.083E-03    -7.45639E-03     654.967E-03    -324.219E-03    -333.965E-03    -321.636E-03     652.384E-03    -333.965E-03     99.6660E-03     6.52452E+06     2.71187E+06     402.218E+03     2.75391E+06     4.17282E+06     2.71187E+06    -134.449E+03         79.8764
             845     4.99980E-03     40.1272E-03     415.495E-03     398.200E-03        -1.39164     397.326E-03        -1.39077     415.495E-03     835.456E-06     661.313E-03    -325.616E-03    -333.587E-03    -324.142E-03     659.839E-03    -333.587E-03     75.1461E-03     6.44835E+06     3.37408E+06    -550.890E+03     3.07889E+06     2.32407E+06     3.86858E+06    -184.301E+03         79.2716
             846     4.26631E-03     40.0858E-03     418.080E-03     406.109E-03        -1.40284     403.827E-03        -1.40056     418.080E-03    -41.0201E-03     665.130E-03    -329.723E-03    -332.415E-03    -329.264E-03     664.387E-03    -332.130E-03     53.5240E-03     5.89065E+06     3.19061E+06    -2.27707E+06     2.84279E+06    -454.143E+03     4.41555E+06     572.367E+03         78.6171
             847     3.55706E-03     40.1094E-03     419.981E-03     416.263E-03        -1.41204     412.848E-03        -1.40863     419.981E-03    -5.55118E-03     664.781E-03    -332.314E-03    -332.987E-03    -332.644E-03     664.439E-03    -332.316E-03     35.9239E-03     5.47380E+06     2.09817E+06    -3.92841E+06     2.67878E+06    -3.36175E+06     4.32653E+06     500.647E+03         78.0355
             848     2.84550E-03     40.1726E-03     423.878E-03     420.007E-03        -1.41651     420.031E-03        -1.41335     420.701E-03     840.308E-06     665.396E-03    -332.948E-03    -333.926E-03    -333.446E-03     665.274E-03    -333.305E-03     20.9978E-03     4.98005E+06     2.13010E+06    -4.42319E+06     2.81882E+06    -4.36267E+06     4.23081E+06    -177.822E+03         77.5120
             849     2.13162E-03     40.2488E-03     424.946E-03     420.354E-03        -1.41766     421.901E-03        -1.41469     420.428E-03    -11.3334E-03     671.151E-03    -335.544E-03    -336.452E-03    -336.066E-03     671.122E-03    -335.902E-03     9.31584E-03     2.88725E+06     1.35912E+06    -5.93617E+06     1.62176E+06    -5.89870E+06     2.58714E+06     85.6548E+03         77.0926
             850     1.42174E-03     40.3533E-03     429.480E-03     418.628E-03        -1.42594     424.316E-03        -1.42078     418.628E-03    -43.6031E-03     676.078E-03    -338.243E-03    -338.620E-03    -338.602E-03     676.075E-03    -338.259E-03     1.85931E-03     1.81575E+06     533.418E+03    -7.45648E+06     996.349E+03    -7.26231E+06     1.15865E+06     323.447E+03         76.8166
             851     712.653E-06     40.3898E-03     458.600E-03     403.079E-03        -1.44555     431.499E-03        -1.41844     403.079E-03     158.256E-03     676.455E-03    -338.094E-03    -338.498E-03    -338.482E-03     676.454E-03    -338.110E-03    -667.359E-06     2.27016E+06     1.34864E+06    -9.83538E+06     1.69301E+06    -9.63721E+06     1.72763E+06     501.848E+03         76.6674
             852     12.1920E-03     40.7207E-03     405.439E-03     395.974E-03        -1.37678     395.891E-03        -1.37670     405.439E-03    -1.44721E-03     681.356E-03    -332.109E-03    -354.597E-03    -339.577E-03     666.336E-03    -332.109E-03     236.880E-03     2.37685E+06    -1.85094E+06    -3.36054E+06    -68.2092E+03    -897.744E+03    -1.86867E+06    -323.623E+03         92.7984
             853     11.4832E-03     40.1448E-03     406.171E-03     400.068E-03        -1.37995     400.026E-03        -1.37991     406.171E-03     3.01682E-03     679.039E-03    -333.145E-03    -353.120E-03    -336.398E-03     662.317E-03    -333.145E-03     255.340E-03     2.87494E+06    -1.55467E+06    -3.51160E+06    -446.190E+03    -1.54148E+06    -203.656E+03    -501.923E+03         90.1152
             854     10.7539E-03     39.8039E-03     406.766E-03     401.159E-03        -1.38164     401.145E-03        -1.38162     406.766E-03    -1.51660E-03     667.430E-03    -333.124E-03    -339.828E-03    -328.378E-03     655.980E-03    -333.124E-03     213.039E-03     1.47093E+06    -1.45045E+06    -3.38719E+06    -224.414E+03    -2.73273E+06    -409.563E+03    -379.219E+03         87.5658
             855     10.0423E-03     39.4378E-03     407.414E-03     399.382E-03        -1.38239     399.360E-03        -1.38237     407.414E-03     11.4977E-03     666.712E-03    -332.756E-03    -338.333E-03    -327.084E-03     655.462E-03    -332.756E-03     210.782E-03     1.40339E+06    -941.493E+03    -3.03492E+06    -936.029E+03    -385.381E+03    -1.25161E+06     233.828E+03         85.5574
             856     9.29585E-03     39.1585E-03     408.229E-03     398.041E-03        -1.38397     398.021E-03        -1.38395     408.229E-03     4.86345E-03     663.405E-03    -331.300E-03    -333.874E-03    -324.841E-03     654.527E-03    -331.455E-03     187.216E-03     4.47188E+06     1.02531E+06    -1.80684E+06     667.998E+03     1.99704E+06     1.02531E+06    -8.30891E+03         84.0970
             857     8.58067E-03     38.9068E-03     409.198E-03     397.392E-03        -1.38500     397.375E-03        -1.38498     409.198E-03    -9.26502E-03     661.790E-03    -330.352E-03    -331.297E-03    -323.445E-03     654.093E-03    -330.506E-03     174.028E-03     5.90806E+06     2.28540E+06    -1.11709E+06     1.56039E+06     3.23058E+06     2.28540E+06    -655.369E+03         82.9778
             858     7.86567E-03     38.6926E-03     410.233E-03     399.725E-03        -1.38698     399.517E-03        -1.38677     410.233E-03     19.8687E-03     657.634E-03    -328.429E-03    -330.815E-03    -322.749E-03     651.240E-03    -330.101E-03     158.131E-03     6.59080E+06     2.17982E+06    -1.14542E+06     2.08229E+06     3.56514E+06     1.97778E+06    -867.907E+03         81.9852
             859     7.15113E-03     38.5117E-03     411.290E-03     401.750E-03        -1.38934     401.159E-03        -1.38875     411.290E-03    -11.2162E-03     654.034E-03    -325.912E-03    -330.541E-03    -320.801E-03     648.922E-03    -330.541E-03     140.945E-03     6.12932E+06     1.62913E+06    -69.8125E+03     2.51070E+06     3.75085E+06     1.42709E+06    -750.597E+03         81.1015
             860     6.43273E-03     38.3560E-03     412.429E-03     402.772E-03        -1.39231     402.025E-03        -1.39156     412.429E-03    -2.20590E-03     652.762E-03    -324.637E-03    -331.791E-03    -320.771E-03     648.896E-03    -331.791E-03     122.250E-03     5.63920E+06     1.33831E+06     549.447E+03     2.39378E+06     3.92676E+06     1.20642E+06    -644.365E+03         80.4180
             861     5.71599E-03     38.2298E-03     414.955E-03     403.778E-03        -1.39739     404.370E-03        -1.39659     413.563E-03    -4.81131E-03     654.928E-03    -324.468E-03    -333.926E-03    -321.843E-03     652.304E-03    -333.926E-03     100.596E-03     5.62568E+06     2.15696E+06     669.217E+03     2.64626E+06     3.78052E+06     2.02507E+06    -361.113E+03         79.8776
             862     5.00140E-03     38.1525E-03     416.861E-03     404.903E-03        -1.40197     405.955E-03        -1.40083     414.669E-03     9.77384E-03     660.928E-03    -325.561E-03    -333.384E-03    -324.002E-03     659.369E-03    -333.384E-03     77.3423E-03     5.83462E+06     3.38936E+06    -499.159E+03     2.82717E+06     2.01379E+06     3.88386E+06    -102.551E+03         79.2589
             863     4.26778E-03     38.1135E-03     416.672E-03     410.397E-03        -1.40741     408.236E-03        -1.40445     415.871E-03    -40.8796E-03     664.332E-03    -329.417E-03    -332.063E-03    -328.705E-03     663.540E-03    -331.982E-03     55.0824E-03     6.50184E+06     4.05266E+06    -3.62288E+06     2.92382E+06    -1.99090E+06     5.99870E+06    -184.252E+03         78.5903
             864     3.55431E-03     38.1356E-03     417.494E-03     416.162E-03        -1.41148     411.062E-03        -1.40609     417.206E-03     14.3957E-03     664.113E-03    -331.995E-03    -332.979E-03    -332.623E-03     663.759E-03    -331.997E-03     36.6313E-03     6.47519E+06     2.74954E+06    -3.89659E+06     2.39457E+06    -2.76543E+06     5.69900E+06     270.580E+03         77.9986
             865     2.84416E-03     38.1982E-03     424.227E-03     417.908E-03        -1.41754     417.120E-03        -1.41070     418.167E-03    -9.52779E-03     664.620E-03    -332.239E-03    -333.946E-03    -333.819E-03     664.492E-03    -332.239E-03     21.4180E-03     4.64610E+06     900.378E+03    -3.79883E+06     1.08878E+06    -3.21105E+06     3.86991E+06     250.956E+03         77.4783
             866     2.13538E-03     38.2746E-03     427.101E-03     418.529E-03        -1.42315     418.797E-03        -1.41485     418.529E-03     11.6479E-03     669.851E-03    -334.617E-03    -335.963E-03    -335.631E-03     669.820E-03    -334.919E-03     9.84658E-03     4.30534E+06     1.61529E+06    -5.85686E+06     1.85483E+06    -5.79629E+06     4.00523E+06    -89.0281E+03         77.0735
             867     1.42414E-03     38.3695E-03     442.322E-03     417.195E-03        -1.44044     423.416E-03        -1.42154     417.195E-03    -97.3098E-03     674.925E-03    -337.379E-03    -338.300E-03    -337.656E-03     674.919E-03    -338.018E-03     3.58038E-03     2.35604E+06     797.954E+03    -7.73499E+06     1.17068E+06    -7.62199E+06     1.87031E+06    -236.012E+03         76.8074
             868     710.851E-06     38.4180E-03     529.061E-03     398.183E-03        -1.51351     433.724E-03        -1.41818     398.183E-03     330.645E-03     676.088E-03    -337.793E-03    -338.462E-03    -337.932E-03     676.086E-03    -338.322E-03     1.46256E-03     1.28476E+06     675.595E+03    -9.53890E+06     979.268E+03    -9.38744E+06     829.635E+03    -602.849E+03         76.6563
             869     12.1920E-03     38.7469E-03     406.188E-03     396.829E-03        -1.38020     396.800E-03        -1.38017     406.188E-03     3.51299E-03     681.610E-03    -332.095E-03    -354.623E-03    -339.317E-03     666.304E-03    -332.095E-03     239.005E-03     2.57112E+06    -1.60778E+06    -3.87448E+06    -118.953E+03    -532.105E+03    -2.26009E+06     255.608E+03         92.8026
             870     11.4799E-03     38.1697E-03     406.749E-03     399.048E-03        -1.38197     399.030E-03        -1.38195     406.749E-03    -1.18394E-03     678.631E-03    -333.158E-03    -352.514E-03    -335.520E-03     661.637E-03    -333.158E-03     257.096E-03     2.04517E+06    -1.70729E+06    -3.99924E+06    -624.924E+03    -694.561E+03    -2.34187E+06     246.663E+03         90.1207
             871     10.7529E-03     37.8409E-03     407.212E-03     400.606E-03        -1.38433     400.584E-03        -1.38431     407.212E-03     6.24692E-03     668.146E-03    -333.091E-03    -340.214E-03    -328.757E-03     656.689E-03    -333.091E-03     213.278E-03     654.633E+03    -1.00239E+06    -4.87595E+06    -1.06358E+06    -3.17641E+06    -983.722E+03    -824.132E+03         87.5759
             872     10.0488E-03     37.4655E-03     407.666E-03     400.069E-03        -1.38542     400.032E-03        -1.38538     407.666E-03     14.4277E-03     667.710E-03    -332.755E-03    -338.916E-03    -327.829E-03     656.623E-03    -332.755E-03     209.373E-03     3.03218E+06     1.24172E+06    -2.71016E+06     651.800E+03    -348.446E+03     1.26038E+06    -1.05803E+06         85.5777
             873     9.29746E-03     37.1923E-03     408.185E-03     400.041E-03        -1.38682     400.015E-03        -1.38679     408.185E-03     9.62173E-03     664.215E-03    -331.245E-03    -333.967E-03    -325.077E-03     655.480E-03    -331.399E-03     185.851E-03     5.87323E+06     1.51394E+06    -979.057E+03     1.17063E+06     3.72354E+06     1.51394E+06    -1.22388E+06         84.1183
             874     8.58267E-03     36.9355E-03     408.769E-03     399.411E-03        -1.38736     399.408E-03        -1.38735     408.769E-03    -1.88924E-03     662.281E-03    -330.176E-03    -331.429E-03    -323.612E-03     654.618E-03    -330.331E-03     173.691E-03     5.60458E+06     315.648E+03    -2.14081E+06     673.471E+03     2.79029E+06     315.648E+03    -1.58111E+06         82.9913
             875     7.86704E-03     36.7225E-03     409.465E-03     399.045E-03        -1.38832     398.844E-03        -1.38812     409.465E-03     24.5076E-03     657.082E-03    -328.146E-03    -330.638E-03    -322.499E-03     650.643E-03    -329.846E-03     158.688E-03     4.94340E+06    -578.509E+03    -2.81371E+06    -26.6168E+03     2.35835E+06    -780.550E+03    -1.24013E+06         81.9908
             876     7.14989E-03     36.5419E-03     410.131E-03     402.220E-03        -1.39201     401.737E-03        -1.39153     410.131E-03    -4.98298E-03     654.062E-03    -325.922E-03    -330.450E-03    -320.713E-03     648.853E-03    -330.450E-03     142.254E-03     4.84282E+06     400.579E+03    -1.26084E+06     539.799E+03     3.24423E+06     198.538E+03    -1.29093E+06         81.1044
             877     6.43401E-03     36.3790E-03     410.592E-03     407.547E-03        -1.39796     407.154E-03        -1.39742     410.445E-03    -1.37669E-03     652.833E-03    -324.558E-03    -331.751E-03    -320.682E-03     648.957E-03    -331.751E-03     122.352E-03     4.02103E+06     1.15023E+06    -662.709E+03     409.841E+03     3.08037E+06     1.01834E+06    -884.444E+03         80.4145
             878     5.71612E-03     36.2566E-03     413.171E-03     410.181E-03        -1.40399     412.444E-03        -1.40329     410.213E-03    -9.78059E-03     654.270E-03    -323.747E-03    -333.767E-03    -321.185E-03     651.708E-03    -333.767E-03     99.2155E-03     3.15788E+06     627.385E+03    -1.67641E+06    -591.310E+03     2.20467E+06     495.496E+03    -450.515E+03         79.8607
             879     4.99944E-03     36.1799E-03     414.218E-03     409.632E-03        -1.40493     413.025E-03        -1.40374     409.632E-03     12.2306E-03     660.373E-03    -325.128E-03    -333.218E-03    -323.631E-03     658.877E-03    -333.218E-03     75.7076E-03     2.45132E+06     247.645E+03    -2.20573E+06    -663.234E+03     908.826E+03     247.645E+03    -155.592E+03         79.2374
             880     4.26487E-03     36.1443E-03     412.959E-03     409.022E-03        -1.40304     409.136E-03        -1.39951     409.315E-03    -47.2720E-03     664.189E-03    -329.379E-03    -332.068E-03    -328.866E-03     663.421E-03    -331.814E-03     54.2057E-03     2.25110E+06    -54.5035E+03    -3.37910E+06    -344.354E+03    -1.43567E+06     597.529E+03    -444.769E+03         78.5650
             881     3.55585E-03     36.1674E-03     412.026E-03     409.278E-03        -1.40262     404.955E-03        -1.39614     409.870E-03     15.9460E-03     663.840E-03    -331.807E-03    -332.991E-03    -332.325E-03     663.495E-03    -332.127E-03     36.2060E-03     2.66864E+06    -113.086E+03    -4.69550E+06    -253.211E+03    -3.09708E+06     1.21034E+06    -940.052E+03         77.9652
             882     2.84519E-03     36.2222E-03     417.280E-03     410.812E-03        -1.41000     406.504E-03        -1.39952     411.111E-03    -40.7932E-03     664.140E-03    -331.791E-03    -333.827E-03    -332.836E-03     664.002E-03    -332.643E-03     22.7237E-03     3.11313E+06    -151.609E+03    -4.20623E+06    -238.212E+03    -2.61600E+06     1.60951E+06    -1.01018E+06         77.4518
             883     2.13321E-03     36.3078E-03     425.749E-03     412.463E-03        -1.41838     409.256E-03        -1.40189     412.463E-03     29.5235E-03     670.248E-03    -334.612E-03    -336.283E-03    -335.401E-03     670.200E-03    -335.446E-03     13.0012E-03     2.88827E+06    -406.584E+03    -6.24491E+06     266.821E+03     -5.6315E+06     1.60145E+06    -1.21220E+06         77.0722
             884     1.42066E-03     36.4057E-03     453.479E-03     413.472E-03        -1.44670     412.363E-03        -1.40559     413.472E-03    -154.709E-03     676.012E-03    -337.923E-03    -338.931E-03    -338.281E-03     676.001E-03    -338.562E-03     5.59254E-03     1.50761E+06    -294.008E+03    -8.83509E+06     217.785E+03    -8.61763E+06     778.352E+03    -980.467E+03         76.8291
             885     710.519E-06     36.4416E-03     611.834E-03     404.565E-03        -1.59489     421.892E-03        -1.40495     404.565E-03     479.327E-03     677.240E-03    -337.799E-03    -339.636E-03    -339.106E-03     677.239E-03    -338.328E-03     605.660E-06    -622.902E+03    -2.00753E+06    -11.7631E+06    -2.02542E+06    -11.4914E+06    -876.758E+03    -301.374E+03         76.6884
             886     12.1900E-03     36.7792E-03     405.846E-03     398.113E-03        -1.38304     398.049E-03        -1.38296     405.827E-03     12.1016E-03     680.117E-03    -332.110E-03    -352.995E-03    -337.807E-03     664.929E-03    -332.110E-03     238.134E-03     5.23286E+06     2.30057E+06    -5.66230E+06     984.486E+03    -779.354E+03     1.66600E+06     915.705E+03         92.8296
             887     11.4777E-03     36.2126E-03     406.024E-03     398.014E-03        -1.38401     398.011E-03        -1.38398     406.005E-03     3.42189E-03     678.878E-03    -333.218E-03    -352.823E-03    -336.097E-03     662.152E-03    -333.218E-03     254.977E-03     5.30990E+06     3.04862E+06    -3.64187E+06     752.153E+03     1.19653E+06     2.76797E+06     118.388E+03         90.1589
             888     10.7543E-03     35.8721E-03     406.253E-03     396.310E-03        -1.38469     396.282E-03        -1.38466     406.253E-03     13.5977E-03     669.086E-03    -333.080E-03    -340.840E-03    -329.566E-03     657.812E-03    -333.080E-03     211.694E-03     4.97992E+06     3.72919E+06    -3.80566E+06     1.40267E+06    -582.342E+03     4.08312E+06    -537.771E+03         87.6247
             889     10.0449E-03     35.5031E-03     406.594E-03     397.950E-03        -1.38655     397.912E-03        -1.38651     406.594E-03     15.5762E-03     668.431E-03    -332.654E-03    -339.150E-03    -328.087E-03     657.368E-03    -332.654E-03     209.326E-03     5.55750E+06     2.43759E+06    -3.35209E+06     656.189E+03     1.54922E+06     2.43759E+06    -1.28530E+06         85.6206
             890     9.29661E-03     35.2319E-03     406.872E-03     400.939E-03        -1.38941     400.911E-03        -1.38938     406.872E-03     10.6371E-03     664.278E-03    -331.310E-03    -334.505E-03    -325.625E-03     655.398E-03    -331.310E-03     187.470E-03     5.22094E+06    -13.1967E+03    -3.38269E+06    -440.406E+03     2.27865E+06    -13.1967E+03    -1.53695E+06         84.1415
             891     8.58215E-03     34.9664E-03     407.997E-03     402.288E-03        -1.39258     403.274E-03        -1.39258     407.008E-03    -1.39209E-03     661.185E-03    -330.182E-03    -331.003E-03    -323.085E-03     653.362E-03    -330.277E-03     175.348E-03     4.92126E+06    -177.591E+03    -3.10021E+06    -561.131E+03     2.38219E+06    -177.591E+03    -1.07395E+06         82.9980
             892     7.86641E-03     34.7626E-03     410.642E-03     403.625E-03        -1.39720     407.234E-03        -1.39703     406.864E-03     21.8389E-03     656.818E-03    -328.594E-03    -330.054E-03    -322.206E-03     650.221E-03    -329.845E-03     160.589E-03     5.26836E+06     754.395E+03    -2.55792E+06    -312.202E+03     3.02265E+06     754.395E+03    -1.02590E+06         81.9914
             893     7.14931E-03     34.5798E-03     411.171E-03     404.347E-03        -1.39883     408.758E-03        -1.39846     406.389E-03    -3.04564E-03     654.969E-03    -326.874E-03    -330.447E-03    -321.593E-03     649.687E-03    -330.447E-03     143.257E-03     3.27417E+06     424.767E+03    -2.65445E+06    -1.23981E+06     1.85953E+06     424.767E+03    -851.297E+03         81.1050
             894     6.43362E-03     34.4172E-03     408.032E-03     404.399E-03        -1.39559     406.170E-03        -1.39522     405.890E-03    -3.18968E-03     653.091E-03    -324.864E-03    -331.588E-03    -321.007E-03     649.234E-03    -331.588E-03     122.135E-03     2.33649E+06     839.788E+03    -1.98420E+06    -1.45181E+06     1.80411E+06     839.788E+03    -651.206E+03         80.4109
             895     5.71686E-03     34.2953E-03     407.218E-03     403.575E-03        -1.39278     404.516E-03        -1.39215     405.653E-03    -16.5213E-03     654.672E-03    -323.972E-03    -333.646E-03    -321.440E-03     652.140E-03    -333.646E-03     98.5289E-03     2.53384E+06     382.658E+03    -2.52026E+06    -1.67423E+06     1.68781E+06     382.658E+03    -578.728E+03         79.8510
             896     5.00168E-03     34.2181E-03     408.104E-03     404.074E-03        -1.39359     405.472E-03        -1.39245     405.562E-03     8.95449E-03     660.828E-03    -325.385E-03    -333.257E-03    -323.972E-03     659.415E-03    -333.257E-03     73.5388E-03     1.76941E+06    -254.403E+03    -2.66349E+06    -1.52030E+06     497.618E+03    -125.795E+03    -631.820E+03         79.2232
             897     4.26780E-03     34.1791E-03     411.527E-03     405.281E-03        -1.39904     408.002E-03        -1.39551     405.281E-03    -51.3462E-03     663.830E-03    -328.876E-03    -332.056E-03    -328.327E-03     663.108E-03    -331.883E-03     52.7725E-03     533.324E+03    -1.07674E+06    -3.30845E+06    -1.99573E+06    -908.006E+03    -948.132E+03    -603.825E+03         78.5435
             898     3.55517E-03     34.1987E-03     414.864E-03     404.490E-03        -1.40347     407.816E-03        -1.39672     404.789E-03     17.7082E-03     662.465E-03    -330.819E-03    -332.337E-03    -330.648E-03     662.120E-03    -332.164E-03     36.1127E-03     798.940E+03    -1.83786E+06    -5.90580E+06    -2.74241E+06    -3.03585E+06    -1.16646E+06    -486.430E+03         77.9411
             899     2.84076E-03     34.2674E-03     419.651E-03     404.022E-03        -1.40917     406.975E-03        -1.39680     404.320E-03    -57.0476E-03     663.871E-03    -331.635E-03    -333.317E-03    -331.502E-03     663.737E-03    -333.317E-03     21.9438E-03     1.05288E+06    -2.23010E+06    -5.29447E+06    -2.28067E+06    -2.56006E+06    -1.63096E+06    -1.04416E+06         77.4369
             900     2.12758E-03     34.3425E-03     428.256E-03     404.466E-03        -1.41577     403.579E-03        -1.39110     404.466E-03     65.6739E-03     671.945E-03    -335.536E-03    -336.722E-03    -335.843E-03     671.906E-03    -336.375E-03     10.8870E-03    -1.98646E+06    -4.23625E+06    -8.21575E+06    -3.30979E+06    -6.82016E+06    -4.30851E+06    -1.27489E+06         77.0717
             901     1.42104E-03     34.4317E-03     470.153E-03     405.303E-03        -1.45565     404.357E-03        -1.38986     405.303E-03    -191.594E-03     677.350E-03    -338.753E-03    -339.397E-03    -339.199E-03     677.344E-03    -338.945E-03     3.73652E-03    -3.13813E+06    -4.02129E+06    -12.2125E+06    -3.32886E+06    -12.0218E+06    -4.02129E+06    -793.287E+03         76.8407
             902     711.465E-06     34.4769E-03     702.137E-03     398.676E-03        -1.67809     414.800E-03        -1.39076     398.676E-03     605.966E-03     677.865E-03    -337.693E-03    -340.461E-03    -340.267E-03     677.863E-03    -337.886E-03     1.07396E-03    -998.584E+03    -3.32533E+06    -13.0364E+06    -2.27586E+06    -12.7359E+06    -2.34860E+06    -456.422E+03         76.7105
             903     12.1889E-03     34.8182E-03     405.809E-03     403.401E-03        -1.39535     403.771E-03        -1.39528     405.366E-03     10.1212E-03     680.963E-03    -332.117E-03    -354.414E-03    -339.327E-03     665.876E-03    -332.117E-03     237.687E-03     5.03517E+06     3.71705E+06    -7.17230E+06    -741.314E+03    -439.521E+03     2.76076E+06    -741.504E+03         92.9115
             904     11.4796E-03     34.2479E-03     406.766E-03     403.281E-03        -1.39557     404.509E-03        -1.39555     405.522E-03    -2.14379E-03     680.157E-03    -333.186E-03    -353.836E-03    -337.257E-03     663.578E-03    -333.186E-03     254.105E-03     4.63467E+06     3.46868E+06    -3.89888E+06     100.509E+03     1.23764E+06     2.86632E+06    -1.33771E+06         90.2326
             905     10.7544E-03     33.9092E-03     408.722E-03     401.080E-03        -1.39643     404.051E-03        -1.39641     405.736E-03     1.69766E-03     668.563E-03    -332.932E-03    -340.393E-03    -329.365E-03     657.535E-03    -332.932E-03     209.350E-03     3.84441E+06     1.57417E+06    -4.05501E+06    -177.900E+03    -88.5422E+03     1.63002E+06    -698.038E+03         87.6716
             906     10.0460E-03     33.5461E-03     409.894E-03     402.096E-03        -1.39816     406.098E-03        -1.39815     405.879E-03     4.24168E-03     666.604E-03    -332.466E-03    -338.072E-03    -327.127E-03     655.658E-03    -332.466E-03     208.083E-03     4.74163E+06     804.471E+03    -2.52657E+06    -162.372E+03     2.67551E+06     506.390E+03    -947.605E+03         85.6354
             907     9.29788E-03     33.2656E-03     411.759E-03     402.990E-03        -1.39964     408.981E-03        -1.39962     405.750E-03     1.38340E-03     663.370E-03    -331.310E-03    -334.024E-03    -324.978E-03     654.345E-03    -331.332E-03     188.831E-03     5.54556E+06     1.53240E+06    -3.76137E+06    -10.4277E+03     1.32530E+06     2.00172E+06    -1.68425E+06         84.1404
             908     8.58057E-03     33.0155E-03     412.679E-03     403.805E-03        -1.40088     411.182E-03        -1.40087     405.284E-03    -9.03334E-03     662.103E-03    -330.331E-03    -331.633E-03    -323.598E-03     654.185E-03    -330.448E-03     176.504E-03     4.79449E+06     1.81477E+06    -4.12839E+06    -545.298E+03     742.079E+03     2.28409E+06    -968.344E+03         82.9963
             909     7.86298E-03     32.8025E-03     412.841E-03     404.512E-03        -1.40182     412.760E-03        -1.40174     404.512E-03     8.77558E-03     658.455E-03    -329.249E-03    -330.887E-03    -323.638E-03     651.870E-03    -329.913E-03     160.657E-03     4.31230E+06     1.48962E+06    -3.09630E+06    -1.20721E+06     2.42321E+06     1.48962E+06    -448.637E+03         81.9915
             910     7.14948E-03     32.6127E-03     411.407E-03     403.621E-03        -1.40098     411.204E-03        -1.40077     403.621E-03    -6.07231E-03     654.982E-03    -327.148E-03    -330.392E-03    -321.937E-03     649.772E-03    -330.392E-03     142.303E-03     3.25598E+06     1.38835E+06    -2.24411E+06    -1.26440E+06     2.12147E+06     1.54314E+06    -347.056E+03         81.1022
             911     6.43332E-03     32.4567E-03     408.414E-03     402.292E-03        -1.39729     407.606E-03        -1.39707     402.882E-03    -3.28574E-03     652.887E-03    -324.820E-03    -331.483E-03    -320.958E-03     649.026E-03    -331.483E-03     122.293E-03      2.3868E+06     1.14180E+06    -1.86817E+06    -1.33778E+06     1.70161E+06      1.2966E+06    -557.015E+03         80.4055
             912     5.71703E-03     32.3296E-03     408.488E-03     400.217E-03        -1.39418     405.989E-03        -1.39376     402.295E-03    -16.3835E-03     654.962E-03    -324.479E-03    -333.522E-03    -321.887E-03     652.370E-03    -333.522E-03     99.7182E-03     2.47117E+06     832.085E+03    -2.21125E+06    -1.45589E+06     1.71581E+06     832.085E+03    -591.330E+03         79.8466
             913     5.00255E-03     32.2560E-03     408.578E-03     400.130E-03        -1.39278     406.210E-03        -1.39190     401.618E-03     10.6651E-03     660.909E-03    -325.664E-03    -333.149E-03    -324.202E-03     659.447E-03    -333.149E-03     74.9923E-03     1.83737E+06     204.190E+03    -2.92473E+06    -2.07419E+06     858.214E+03     332.799E+03    -702.118E+03         79.2142
             914     4.26791E-03     32.2188E-03     410.093E-03     400.665E-03        -1.39466     407.119E-03        -1.39169     400.665E-03    -49.2856E-03     663.881E-03    -328.824E-03    -332.118E-03    -328.440E-03     663.136E-03    -331.757E-03     53.3958E-03     1.08157E+06    -546.463E+03    -4.97968E+06    -2.85929E+06    -1.89571E+06     310.432E+03    -626.890E+03         78.5318
             915     3.55364E-03     32.2415E-03     412.297E-03     399.553E-03        -1.39714     405.718E-03        -1.39056     399.553E-03     28.6712E-03     663.041E-03    -330.920E-03    -332.717E-03    -331.384E-03     662.732E-03    -331.944E-03     33.6282E-03     1.35701E+06    -1.88850E+06    -6.65906E+06    -3.35372E+06    -2.67662E+06    -1.16021E+06    -785.274E+03         77.9347
             916     2.84237E-03     32.2984E-03     415.849E-03     398.528E-03        -1.40013     402.939E-03        -1.38722     398.528E-03    -55.6011E-03     664.404E-03    -332.138E-03    -333.485E-03    -332.461E-03     664.315E-03    -333.074E-03     17.6541E-03     991.028E+03    -2.72187E+06    -6.94972E+06    -3.01523E+06    -3.46603E+06    -2.19930E+06    -670.669E+03         77.4272
             917     2.13324E-03     32.3676E-03     426.904E-03     397.805E-03        -1.41110     399.694E-03        -1.38389     397.805E-03     80.9825E-03     670.667E-03    -335.206E-03    -336.093E-03    -335.270E-03     670.649E-03    -336.010E-03     7.70682E-03    -1.76131E+06    -3.74681E+06    -9.78682E+06    -3.57020E+06    -8.92819E+06    -2.79655E+06    -43.7064E+03         77.0448
             918     1.41974E-03     32.4505E-03     477.629E-03     396.956E-03        -1.45942     399.532E-03        -1.38132     396.956E-03    -217.426E-03     675.977E-03    -337.925E-03    -338.953E-03    -338.005E-03     675.974E-03    -338.870E-03     2.37096E-03    -3.71260E+06    -4.31795E+06    -12.3938E+06    -4.19177E+06    -12.3423E+06    -3.89026E+06     101.281E+03         76.8004
             919     709.262E-06     32.4998E-03     737.394E-03     395.106E-03        -1.71622     396.728E-03        -1.37555     395.106E-03     666.715E-03     678.700E-03    -337.887E-03    -340.963E-03    -339.152E-03     678.698E-03    -339.696E-03     1.99060E-03    -3.10147E+06    -4.33310E+06    -14.0111E+06    -3.32201E+06    -13.8183E+06    -4.30537E+06    -241.906E+03         76.6748
             920     12.1904E-03     32.8551E-03     407.992E-03     406.038E-03        -1.40316     407.419E-03        -1.40312     406.575E-03     949.164E-06     681.783E-03    -332.080E-03    -355.484E-03    -340.303E-03     666.603E-03    -332.080E-03     238.033E-03     4.41011E+06     1.29442E+06    -5.75026E+06    -604.057E+03     220.201E+03     338.129E+03    -1.08672E+06         93.0272
             921     11.4798E-03     32.2797E-03     411.052E-03     406.878E-03        -1.40529     410.940E-03        -1.40526     406.965E-03    -12.9999E-03     680.004E-03    -333.167E-03    -353.977E-03    -337.048E-03     663.075E-03    -333.167E-03     257.013E-03     2.76539E+06     723.790E+03    -3.35244E+06    -582.958E+03     952.191E+03    -232.499E+03    -1.10995E+06         90.3132
             922     10.7563E-03     31.9469E-03     414.095E-03     407.044E-03        -1.40880     414.074E-03        -1.40878     407.044E-03    -3.65044E-03     668.929E-03    -332.907E-03    -341.059E-03    -329.577E-03     657.447E-03    -332.907E-03     213.628E-03     2.53749E+06    -143.556E+03    -3.31528E+06    -911.120E+03     215.452E+03    -225.681E+03    -1.26013E+06         87.7047
             923     10.0457E-03     31.5816E-03     416.062E-03     406.762E-03        -1.41033     416.047E-03        -1.41032     406.762E-03     509.922E-06     666.784E-03    -332.430E-03    -338.682E-03    -327.478E-03     655.580E-03    -332.430E-03     210.400E-03     3.77651E+06     636.995E+03    -2.00565E+06    -232.820E+03     2.08580E+06     554.870E+03    -1.38644E+06         85.6359
             924     9.29263E-03     31.2981E-03     419.298E-03     406.105E-03        -1.41186     419.286E-03        -1.41185     406.105E-03    -5.50720E-03     663.301E-03    -331.251E-03    -333.839E-03    -325.045E-03     654.529E-03    -331.274E-03     186.040E-03     4.14260E+06      749.42E+03     -4.0087E+06    -423.520E+03     88.1033E+03     1.21874E+06    -827.264E+03         84.1262
             925     8.57724E-03     31.0413E-03     419.006E-03     405.145E-03        -1.41025     418.989E-03        -1.41023     405.145E-03    -9.74463E-03     662.756E-03    -330.364E-03    -331.703E-03    -324.146E-03     655.222E-03    -330.386E-03     172.247E-03     4.07326E+06     907.747E+03    -5.13895E+06    -1.15410E+06    -380.918E+03     1.37706E+06    -796.259E+03         82.9745
             926     7.86668E-03     30.8275E-03     415.190E-03     404.174E-03        -1.40628     415.162E-03        -1.40625     404.174E-03     2.94910E-03     658.493E-03    -328.843E-03    -331.093E-03    -323.794E-03     652.156E-03    -329.805E-03     157.629E-03     3.64869E+06     436.293E+03    -3.09317E+06    -1.52545E+06     2.08519E+06     432.071E+03    -935.793E+03         81.9595
             927     7.15110E-03     30.6447E-03     412.100E-03     403.313E-03        -1.40415     412.020E-03        -1.40407     403.313E-03    -6.26263E-03     654.316E-03    -326.618E-03    -330.210E-03    -321.516E-03     649.215E-03    -330.210E-03     140.832E-03     2.35535E+06    -43.0826E+03    -2.33965E+06    -1.81549E+06     1.68062E+06     107.492E+03     -578.37E+03         81.0601
             928     6.43419E-03     30.4894E-03     412.091E-03     402.377E-03        -1.40490     411.998E-03        -1.40481     402.377E-03    -4.09078E-03     652.407E-03    -324.666E-03    -331.260E-03    -320.823E-03     648.564E-03    -331.260E-03     121.937E-03     1.95544E+06     29.3099E+03    -2.47293E+06    -2.04983E+06     1.37754E+06     184.106E+03    -303.197E+03         80.3603
             929     5.71924E-03     30.3639E-03     414.869E-03     400.991E-03        -1.40594     414.638E-03        -1.40571     400.991E-03    -16.2339E-03     654.005E-03    -324.025E-03    -333.173E-03    -321.465E-03     651.445E-03    -333.173E-03     99.0193E-03     2.63077E+06    -101.168E+03    -3.01415E+06    -2.33240E+06     1.94902E+06    -101.168E+03    -600.164E+03         79.8046
             930     5.00246E-03     30.2932E-03     413.917E-03     399.102E-03        -1.40187     413.270E-03        -1.40122     399.102E-03     13.4328E-03     660.018E-03    -325.234E-03    -332.717E-03    -323.812E-03     658.596E-03    -332.717E-03     73.7582E-03     2.30055E+06    -544.987E+03    -3.32759E+06    -2.58362E+06     1.55658E+06    -544.987E+03    -1.16514E+06         79.1798
             931     4.26697E-03     30.2580E-03     408.198E-03     397.360E-03        -1.39322     405.658E-03        -1.39068     397.360E-03    -45.6437E-03     663.975E-03    -329.158E-03    -331.828E-03    -328.816E-03     663.262E-03    -331.458E-03     52.3003E-03     1.72174E+06    -502.286E+03    -5.82448E+06    -1.97160E+06    -3.41747E+06     784.041E+03    -1.44221E+06         78.5051
             932     3.55890E-03     30.2788E-03     402.935E-03     396.573E-03        -1.38746     397.279E-03        -1.38181     396.573E-03     26.7187E-03     663.197E-03    -331.465E-03    -332.339E-03    -332.010E-03     662.867E-03    -331.465E-03     35.1409E-03     3.07557E+06    -438.061E+03    -6.80329E+06    -1.82794E+06    -3.18611E+06     848.266E+03    -1.07722E+06         77.9069
             933     2.84866E-03     30.3340E-03     406.851E-03     396.704E-03        -1.39266     394.954E-03        -1.38077     396.704E-03    -60.2203E-03     664.026E-03    -332.365E-03    -333.136E-03    -332.905E-03     663.900E-03    -332.470E-03     20.8746E-03     1.63802E+06    -2.05992E+06    -7.84543E+06    -3.00977E+06    -4.66828E+06    -589.284E+03    -412.038E+03         77.3860
             934     2.13262E-03     30.4046E-03     422.074E-03     396.968E-03        -1.40812     396.478E-03        -1.38252     396.968E-03     77.4967E-03     669.822E-03    -334.884E-03    -335.797E-03    -335.271E-03     669.792E-03    -335.381E-03     9.54778E-03    -1.39702E+06    -3.66699E+06    -10.9281E+06    -3.38665E+06    -10.8369E+06    -1.76866E+06     71.5369E+03         76.9790
             935     1.42154E-03     30.4798E-03     464.872E-03     398.406E-03        -1.45123     392.650E-03        -1.37901     398.406E-03    -202.836E-03     674.917E-03    -337.384E-03    -338.427E-03    -337.635E-03     674.914E-03    -338.173E-03     1.84324E-03    -2.71110E+06    -3.61784E+06    -11.4738E+06    -3.31520E+06    -11.3810E+06    -3.10650E+06     246.574E+03         76.7146
             936     710.187E-06     30.5263E-03     702.206E-03     410.319E-03        -1.69550     388.588E-03        -1.38188     410.319E-03     635.358E-03     677.547E-03    -337.663E-03    -340.012E-03    -338.357E-03     677.545E-03    -339.315E-03    -1.30497E-03    -4.23803E+06    -4.59773E+06    -14.3669E+06    -4.73268E+06    -14.2082E+06    -4.26179E+06     201.272E+03         76.5863
             937     12.1873E-03     30.8885E-03     411.119E-03     407.694E-03        -1.40424     410.578E-03        -1.40419     408.181E-03     5.03497E-03     680.945E-03    -332.075E-03    -353.765E-03    -338.392E-03     665.572E-03    -332.075E-03     239.311E-03     5.97656E+06     1.40807E+06    -3.90665E+06     982.092E+03     1.31125E+06     1.18464E+06     143.361E+03         93.1249
             938     11.4759E-03     30.3179E-03     413.098E-03     408.039E-03        -1.40739     413.032E-03        -1.40733     408.039E-03    -5.63396E-03     679.245E-03    -333.216E-03    -353.560E-03    -336.453E-03     662.137E-03    -333.216E-03     258.146E-03     4.52968E+06     1.21583E+06    -2.55964E+06     24.5671E+03     2.16891E+06     992.392E+03     18.2763E+03         90.3789
             939     10.7485E-03     29.9787E-03     413.044E-03     407.647E-03        -1.40892     412.955E-03        -1.40883     407.647E-03     5.30017E-03     669.023E-03    -332.963E-03    -341.247E-03    -329.857E-03     657.633E-03    -332.963E-03     212.894E-03     3.96764E+06     1.17327E+06    -2.15108E+06    -107.007E+03     1.72623E+06     1.37061E+06    -1.02947E+06         87.7387
             940     10.0432E-03     29.6135E-03     413.488E-03     407.078E-03        -1.41034     413.368E-03        -1.41027     407.125E-03     9.29045E-03     668.457E-03    -332.439E-03    -339.649E-03    -328.652E-03     657.459E-03    -332.439E-03     208.733E-03     3.14492E+06     179.354E+03    -3.70763E+06    -1.46118E+06     701.134E+03     376.688E+03    -673.158E+03         85.6441
             941     9.29764E-03     29.3355E-03     414.103E-03     406.478E-03        -1.41028     414.036E-03        -1.41026     406.525E-03    -475.338E-06     664.800E-03    -331.119E-03    -335.321E-03    -326.651E-03     656.129E-03    -331.119E-03     185.291E-03     3.18872E+06    -469.980E+03    -5.41617E+06    -2.66979E+06     442.328E+03    -469.980E+03     114.423E+03         84.1037
             942     8.58472E-03     29.0800E-03     414.066E-03     405.901E-03        -1.40921     414.049E-03        -1.40920     405.901E-03     722.276E-06     661.971E-03    -330.065E-03    -331.722E-03    -324.197E-03     654.446E-03    -330.065E-03     172.111E-03      3.4006E+06    -785.595E+03    -4.71154E+06    -2.60244E+06     1.29149E+06    -785.595E+03    -1.04189E+06         82.9198
             943     7.86572E-03     28.8658E-03     413.635E-03     405.275E-03        -1.40909     413.611E-03        -1.40907     405.275E-03     4.57626E-03     657.091E-03    -328.198E-03    -330.278E-03    -322.673E-03     650.822E-03    -329.534E-03     156.504E-03     2.63106E+06    -1.29401E+06    -4.13268E+06    -2.67657E+06     1.17917E+06    -1.29823E+06    -1.64932E+06         81.8801
             944     7.15041E-03     28.6842E-03     413.171E-03     404.619E-03        -1.40866     413.100E-03        -1.40859     404.619E-03    -5.13415E-03     654.121E-03    -326.328E-03    -329.817E-03    -321.344E-03     649.137E-03    -329.817E-03     139.179E-03     1.13699E+06    -1.61397E+06    -3.74332E+06    -2.84684E+06     449.905E+03    -1.82336E+06    -1.17688E+06         80.9665
             945     6.43669E-03     28.5282E-03     411.353E-03     403.833E-03        -1.40733     411.116E-03        -1.40725     403.985E-03    -16.4418E-03     652.036E-03    -324.493E-03    -330.773E-03    -320.783E-03     648.326E-03    -330.773E-03     119.663E-03     1.46797E+06    -1.81634E+06    -3.41184E+06    -2.54553E+06     806.832E+03    -2.02151E+06    -1.03498E+06         80.2596
             946     5.71862E-03     28.4066E-03     411.210E-03     400.617E-03        -1.40488     408.134E-03        -1.40472     403.525E-03    -23.7378E-03     653.116E-03    -323.373E-03    -332.782E-03    -320.927E-03     650.670E-03    -332.782E-03     96.8449E-03     2.78532E+06    -1.11106E+06    -3.77502E+06    -1.88678E+06     1.81769E+06    -2.03167E+06    -1.41754E+06         79.7027
             947     5.00568E-03     28.3324E-03     411.229E-03     398.908E-03        -1.40243     406.562E-03        -1.40208     403.227E-03     2.23094E-03     659.013E-03    -324.595E-03    -332.488E-03    -323.187E-03     657.605E-03    -332.488E-03     73.3969E-03     2.30595E+06    -1.09465E+06    -3.16172E+06    -1.61368E+06     1.67852E+06    -2.01526E+06    -1.35174E+06         79.0837
             948     4.27038E-03     28.2984E-03     411.534E-03     401.087E-03        -1.40341     408.271E-03        -1.40171     402.651E-03    -50.3411E-03     662.721E-03    -328.370E-03    -331.353E-03    -327.647E-03     661.988E-03    -331.343E-03     53.1067E-03     473.939E+03    -2.20161E+06    -6.47873E+06    -2.62927E+06    -4.39835E+06    -1.17878E+06    -1.27933E+06         78.4126
             949     3.55488E-03     28.3146E-03     411.171E-03     401.578E-03        -1.40318     407.160E-03        -1.39917     401.578E-03     20.7943E-03     661.418E-03    -330.667E-03    -331.390E-03    -330.414E-03     661.063E-03    -331.288E-03     36.6409E-03     951.919E+03    -2.86564E+06    -8.35551E+06    -3.33849E+06    -5.08792E+06    -1.84282E+06    -933.060E+03         77.8140
             950     2.84145E-03     28.3705E-03     410.919E-03     400.780E-03        -1.40352     401.237E-03        -1.39384     400.780E-03    -66.3496E-03     662.845E-03    -331.912E-03    -332.506E-03    -332.107E-03     662.703E-03    -332.169E-03     22.6408E-03     667.874E+03    -3.14055E+06    -8.75846E+06    -3.02575E+06    -5.94065E+06    -2.26474E+06    -322.954E+03         77.2959
             951     2.13416E-03     28.4463E-03     420.202E-03     400.816E-03        -1.41341     398.939E-03        -1.39215     400.816E-03     64.7626E-03     668.537E-03    -334.195E-03    -334.854E-03    -334.811E-03     668.494E-03    -334.195E-03     12.1062E-03    -1.89701E+06    -3.92193E+06    -11.9008E+06    -3.48461E+06    -11.8286E+06    -2.40653E+06    -22.6500E+03         76.8884
             952     1.42386E-03     28.5132E-03     456.550E-03     401.538E-03        -1.44764     399.234E-03        -1.39032     401.538E-03    -175.954E-03     673.595E-03    -336.753E-03    -337.435E-03    -337.156E-03     673.583E-03    -337.020E-03     5.15744E-03    -2.62654E+06    -4.42646E+06    -12.3653E+06    -3.41815E+06    -12.2970E+06    -3.70321E+06     387.975E+03         76.6235
             953     712.849E-06     28.5676E-03     647.272E-03     408.129E-03        -1.64259     396.852E-03        -1.39217     408.129E-03     554.077E-03     676.606E-03    -337.452E-03    -339.496E-03    -338.136E-03     676.593E-03    -338.799E-03     2.75876E-03    -1.11570E+06    -2.79877E+06    -12.1112E+06    -1.79097E+06    -11.7441E+06    -2.49057E+06     892.275E+03         76.5023
             954     12.1859E-03     28.9310E-03     409.261E-03     405.439E-03        -1.40135     407.326E-03        -1.40129     407.317E-03     11.1382E-03     680.732E-03    -332.037E-03    -353.959E-03    -338.662E-03     665.435E-03    -332.037E-03     239.548E-03     6.17894E+06     2.31428E+06    -4.35105E+06     294.173E+03     1.75716E+06     2.09084E+06     104.943E+03         93.2054
             955     11.4756E-03     28.3486E-03     409.873E-03     405.411E-03        -1.40450     408.560E-03        -1.40442     406.643E-03     4.10704E-03     680.365E-03    -333.127E-03    -354.537E-03    -337.762E-03     663.590E-03    -333.127E-03     255.765E-03     4.49367E+06     673.751E+03    -3.90808E+06    -842.305E+03     1.65133E+06     450.316E+03     95.3713E+03         90.4351
             956     10.7557E-03     28.0097E-03     408.353E-03     405.098E-03        -1.40518     407.306E-03        -1.40503     405.988E-03     11.8030E-03     669.659E-03    -332.752E-03    -341.750E-03    -330.979E-03     658.888E-03    -332.752E-03     207.395E-03     3.55389E+06     18.3785E+03    -3.99264E+06    -1.63943E+06     1.21930E+06           -244.     293.481E+03         87.7583
             957     10.0483E-03     27.6497E-03     406.625E-03     403.488E-03        -1.40369     404.431E-03        -1.40356     405.547E-03     18.0563E-03     668.148E-03    -332.173E-03    -338.920E-03    -328.450E-03     657.678E-03    -332.173E-03     203.912E-03     3.85450E+06     746.934E+03    -4.20753E+06    -2.16152E+06     1.82712E+06     728.312E+03     249.406E+03         85.6163
             958     9.29442E-03     27.3633E-03     405.727E-03     402.646E-03        -1.40177     402.998E-03        -1.40173     405.334E-03     7.79362E-03     663.783E-03    -330.825E-03    -334.768E-03    -325.970E-03     655.111E-03    -330.951E-03     185.193E-03     4.27982E+06     932.538E+03    -3.90329E+06    -1.84535E+06     2.22188E+06     932.538E+03    -499.553E+03         84.0270
             959     8.58096E-03     27.1215E-03     406.042E-03     401.022E-03        -1.40022     401.692E-03        -1.40018     405.331E-03     12.0699E-03     661.437E-03    -329.730E-03    -332.212E-03    -324.497E-03     653.847E-03    -329.856E-03     172.833E-03     3.01489E+06    -404.330E+03    -3.29911E+06    -2.40580E+06     2.12159E+06    -404.330E+03    -785.420E+03         82.8105
             960     7.86990E-03     26.9060E-03     407.379E-03     400.257E-03        -1.40004     402.138E-03        -1.40003     405.484E-03     6.83095E-03     657.483E-03    -328.334E-03    -330.739E-03    -323.536E-03     651.213E-03    -329.267E-03     156.611E-03     2.41368E+06    -440.182E+03    -3.46073E+06    -2.61405E+06     1.52969E+06    -402.879E+03    -796.918E+03         81.7534
             961     7.15476E-03     26.7243E-03     408.529E-03     399.716E-03        -1.40046     402.453E-03        -1.40043     405.760E-03     3.72108E-03     654.005E-03    -326.617E-03    -329.538E-03    -321.654E-03     649.042E-03    -329.538E-03     138.910E-03     2.18036E+06    -32.8039E+03    -3.72542E+06    -2.30556E+06     928.363E+03    -200.676E+03    -1.81464E+06         80.8250
             962     6.43886E-03     26.5763E-03     407.578E-03     398.150E-03        -1.39899     399.295E-03        -1.39894     406.386E-03    -10.3349E-03     651.538E-03    -324.447E-03    -330.367E-03    -320.769E-03     647.860E-03    -330.367E-03     119.071E-03     1.18390E+06    -1.80869E+06    -4.20818E+06    -2.67191E+06     52.6043E+03    -2.21367E+06    -2.07289E+06         80.1095
             963     5.72376E-03     26.4564E-03     407.593E-03     396.756E-03        -1.39786     396.700E-03        -1.39780     407.593E-03    -11.1378E-03     651.908E-03    -322.582E-03    -332.390E-03    -320.162E-03     649.488E-03    -332.390E-03     96.3037E-03     925.857E+03    -2.54535E+06    -4.42227E+06    -2.50441E+06     128.404E+03    -3.66576E+06    -1.40732E+06         79.5549
             964     5.00498E-03     26.3808E-03     409.153E-03     398.716E-03        -1.40134     398.659E-03        -1.40128     409.153E-03     6.25327E-03     657.335E-03    -323.211E-03    -332.328E-03    -321.782E-03     655.905E-03    -332.328E-03     73.9687E-03     735.811E+03    -2.52156E+06    -4.14802E+06    -2.29503E+06     26.8483E+03    -3.66559E+06    -486.458E+03         78.9463
             965     4.26572E-03     26.3475E-03     414.368E-03     403.288E-03        -1.41022     406.397E-03        -1.40926     410.300E-03    -47.0001E-03     662.176E-03    -327.725E-03    -331.567E-03    -327.219E-03     661.431E-03    -331.328E-03     53.3488E-03     73.7812E+03    -3.43441E+06    -5.83741E+06    -2.58754E+06    -3.41745E+06    -3.19305E+06    -629.958E+03         78.2935
             966     3.55587E-03     26.3594E-03     418.149E-03     407.411E-03        -1.41714     412.238E-03        -1.41420     410.381E-03     29.0478E-03     661.861E-03    -330.694E-03    -331.792E-03    -330.852E-03     661.543E-03    -331.315E-03     34.3138E-03     308.806E+03    -3.40098E+06    -8.07317E+06    -2.61546E+06    -5.76527E+06    -2.78460E+06    -1.21784E+06         77.7163
             967     2.84498E-03     26.4063E-03     419.693E-03     409.532E-03        -1.42127     411.667E-03        -1.41343     409.717E-03    -60.3237E-03     662.848E-03    -331.825E-03    -332.556E-03    -332.045E-03     662.747E-03    -332.236E-03     18.9649E-03    -771.901E+03    -3.18743E+06    -10.6602E+06    -2.84291E+06    -9.06548E+06    -2.71113E+06    -835.436E+03         77.2167
             968     2.12884E-03     26.4712E-03     427.446E-03     408.746E-03        -1.42963     411.134E-03        -1.41331     408.746E-03     50.7689E-03     668.001E-03    -333.922E-03    -334.508E-03    -334.135E-03     667.971E-03    -334.265E-03     9.05698E-03    -2.01540E+06    -3.56829E+06    -12.2328E+06    -3.06716E+06    -12.1454E+06    -2.60399E+06    -138.112E+03         76.8211
             969     1.41900E-03     26.5366E-03     453.132E-03     407.637E-03        -1.45436     409.200E-03        -1.41043     407.637E-03    -157.328E-03     673.575E-03    -336.685E-03    -337.437E-03    -336.835E-03     673.564E-03    -337.277E-03     3.88197E-03    -2.27658E+06    -5.25482E+06    -12.2670E+06    -4.17236E+06    -12.1937E+06    -3.43232E+06    -182.551E+03         76.5572
             970     708.540E-06     26.5900E-03     601.803E-03     409.115E-03        -1.60587     404.241E-03        -1.40830     409.115E-03     482.995E-03     677.612E-03    -338.272E-03    -340.239E-03    -338.256E-03     677.596E-03    -340.239E-03     1.85657E-03    -591.940E+03    -3.97831E+06    -13.1759E+06    -2.33023E+06    -12.6205E+06    -2.79539E+06    -286.807E+03         76.4340
             971     12.1865E-03     26.9618E-03     408.605E-03     402.946E-03        -1.40458     406.725E-03        -1.40454     404.786E-03     8.02717E-03     682.671E-03    -332.027E-03    -356.501E-03    -341.267E-03     667.437E-03    -332.027E-03     239.966E-03     7.77291E+06     2.76585E+06    -4.57514E+06     684.591E+03     843.470E+03     4.43557E+06     888.211E+03         93.2773
             972     11.4797E-03     26.3895E-03     407.256E-03     401.565E-03        -1.40359     404.587E-03        -1.40352     404.159E-03    -311.319E-06     681.978E-03    -332.951E-03    -356.366E-03    -339.614E-03     665.226E-03    -332.951E-03     256.397E-03     5.50843E+06     2.55192E+06    -5.01342E+06    -1.26745E+06     1.65240E+06     2.66197E+06     689.992E+03         90.4649
             973     10.7552E-03     26.0402E-03     405.104E-03     401.487E-03        -1.40171     402.662E-03        -1.40152     403.738E-03     11.6509E-03     670.292E-03    -332.544E-03    -343.072E-03    -332.032E-03     659.253E-03    -332.544E-03     210.085E-03     5.08643E+06     2.94997E+06    -2.73066E+06    -871.322E+03     3.11704E+06     3.06003E+06     876.540E+03         87.7218
             974     10.0531E-03     25.6845E-03     403.933E-03     400.361E-03        -1.39965     400.511E-03        -1.39946     403.601E-03     15.1294E-03     668.568E-03    -332.035E-03    -340.051E-03    -329.380E-03     657.897E-03    -332.035E-03     205.891E-03     4.47589E+06     2.23141E+06    -1.58196E+06    -379.415E+03     2.97513E+06     2.52962E+06     149.280E+03         85.5140
             975     9.30034E-03     25.4103E-03     403.719E-03     398.684E-03        -1.39865     398.600E-03        -1.39857     403.719E-03     5.59510E-03     663.949E-03    -330.584E-03    -334.715E-03    -326.071E-03     655.431E-03    -330.709E-03     183.529E-03     3.86766E+06     788.296E+03    -2.06749E+06    -838.175E+03     2.34013E+06     1.08651E+06    -430.942E+03         83.8692
             976     8.58309E-03     25.1573E-03     404.068E-03     397.539E-03        -1.39708     397.477E-03        -1.39701     404.068E-03     12.2695E-03     661.155E-03    -329.390E-03    -331.848E-03    -324.509E-03     653.942E-03    -329.516E-03     168.471E-03     4.12602E+06     1.05748E+06    -888.375E+03    -289.357E+03     3.52700E+06     1.05748E+06     16.3411E+03         82.6100
             977     7.86947E-03     24.9377E-03     404.554E-03     397.724E-03        -1.39693     397.711E-03        -1.39691     404.554E-03     1.84193E-03     657.344E-03    -328.431E-03    -330.634E-03    -324.222E-03     651.341E-03    -328.840E-03     153.323E-03     3.63662E+06     710.628E+03    -919.351E+03    -322.273E+03     3.00224E+06     747.931E+03    -8.74511E+03         81.5202
             978     7.15672E-03     24.7630E-03     405.143E-03     397.402E-03        -1.39689     397.371E-03        -1.39686     405.143E-03     12.6488E-03     653.488E-03    -326.639E-03    -328.968E-03    -321.830E-03     648.679E-03    -328.968E-03     136.645E-03     3.63015E+06     282.365E+03    -2.06420E+06    -909.855E+03     2.43850E+06     319.669E+03    -468.765E+03         80.5775
             979     6.44007E-03     24.6068E-03     405.963E-03     395.651E-03        -1.39663     395.616E-03        -1.39660     405.963E-03     4.50744E-03     650.268E-03    -323.947E-03    -329.654E-03    -320.434E-03     646.756E-03    -329.654E-03     116.169E-03     4.08870E+06     75.8461E+03    -3.27239E+06    -1.16858E+06     440.227E+03     1.62051E+06    -1.22677E+06         79.8768
             980     5.72148E-03     24.5003E-03     406.942E-03     397.776E-03        -1.40010     397.758E-03        -1.40008     406.942E-03     1.39791E-03     650.950E-03    -322.609E-03    -331.766E-03    -320.361E-03     648.702E-03    -331.766E-03     92.4961E-03     3.07714E+06    -1.40339E+06    -5.52421E+06    -2.17646E+06    -3.01129E+06     1.33729E+06    -1.00402E+06         79.3536
             981     5.00428E-03     24.4316E-03     407.923E-03     400.104E-03        -1.40353     400.050E-03        -1.40348     407.923E-03     18.6282E-03     656.776E-03    -323.496E-03    -331.737E-03    -322.243E-03     655.523E-03    -331.737E-03     68.8662E-03     1.91580E+06    -2.08593E+06    -5.68209E+06    -2.76833E+06    -1.97055E+06    -1.11333E+06    -407.356E+03         78.7654
             982     4.26838E-03     24.3911E-03     409.346E-03     398.681E-03        -1.40339     398.096E-03        -1.40281     409.346E-03    -31.5918E-03     661.484E-03    -327.719E-03    -330.983E-03    -327.356E-03     660.881E-03    -330.744E-03     47.5796E-03     1.00431E+06    -2.66310E+06    -4.56007E+06    -2.55434E+06    -778.000E+03    -2.88652E+06    -418.716E+03         78.1251
             983     3.55642E-03     24.4020E-03     411.456E-03     402.494E-03        -1.40818     399.970E-03        -1.40566     411.456E-03     40.5932E-03     662.504E-03    -331.073E-03    -331.904E-03    -331.508E-03     662.262E-03    -331.226E-03     29.7461E-03    -877.105E+03    -3.41318E+06    -8.73653E+06    -3.33318E+06    -6.59406E+06    -3.09958E+06    -605.559E+03         77.5726
             984     2.84493E-03     24.4492E-03     419.526E-03     410.548E-03        -1.42238     410.123E-03        -1.41549     413.057E-03    -50.0636E-03     664.543E-03    -332.443E-03    -333.629E-03    -333.402E-03     664.469E-03    -332.596E-03     15.8314E-03    -3.07601E+06    -4.00542E+06    -12.5095E+06    -4.57726E+06    -11.9376E+06    -3.07601E+06    -329.168E+03         77.0936
             985     2.13575E-03     24.5090E-03     428.332E-03     413.555E-03        -1.43488     413.090E-03        -1.41964     413.555E-03     60.6395E-03     669.655E-03    -334.342E-03    -335.782E-03    -335.426E-03     669.643E-03    -334.685E-03     5.12610E-03    -2.68368E+06    -4.38492E+06    -12.0352E+06    -4.09696E+06    -11.8725E+06    -3.13439E+06    -214.697E+03         76.6887
             986     1.42232E-03     24.5744E-03     451.942E-03     414.938E-03        -1.46536     409.523E-03        -1.42294     414.938E-03    -153.766E-03     673.338E-03    -336.410E-03    -337.300E-03    -336.912E-03     673.338E-03    -336.798E-03    -444.247E-06    -1.18613E+06    -5.14517E+06    -11.8794E+06    -3.08154E+06    -11.8016E+06    -3.32754E+06    -542.086E+03         76.3922
             987     712.077E-06     24.6172E-03     598.044E-03     415.421E-03        -1.61302     417.181E-03        -1.43216     415.421E-03     452.359E-03     675.163E-03    -337.004E-03    -339.163E-03    -338.474E-03     675.157E-03    -337.687E-03    -2.32031E-03    -1.35884E+06    -6.30179E+06    -15.0019E+06    -4.59170E+06    -14.1927E+06    -3.87811E+06    -267.315E+03         76.2409
             988     12.1864E-03     24.9955E-03     412.895E-03     403.813E-03        -1.41503     412.874E-03        -1.41501     403.813E-03     5.38570E-03     684.930E-03    -332.039E-03    -357.926E-03    -342.786E-03     669.790E-03    -332.039E-03     240.307E-03     7.53085E+06     2.30995E+06    -6.42809E+06    -1.23453E+06    -1.63887E+06     6.28610E+06    -427.434E+03         93.3195
             989     11.4779E-03     24.4142E-03     410.148E-03     402.213E-03        -1.40962     408.713E-03        -1.40955     403.575E-03    -7.31967E-03     682.051E-03    -332.867E-03    -356.575E-03    -340.154E-03     665.629E-03    -332.867E-03     253.855E-03     9.25616E+06     5.03300E+06    -4.54259E+06     614.247E+03     1.68284E+06     7.44949E+06    -115.181E+03         90.4558
             990     10.7557E-03     24.0869E-03     407.086E-03     402.250E-03        -1.40552     405.573E-03        -1.40536     403.612E-03     2.79830E-03     669.701E-03    -332.403E-03    -343.373E-03    -332.478E-03     658.806E-03    -332.403E-03     208.605E-03     6.62451E+06     5.37390E+06    -1.24259E+06     670.033E+03     4.60182E+06     5.48395E+06     296.173E+03         87.6376
             991     10.0476E-03     23.7109E-03     405.815E-03     402.594E-03        -1.40502     404.402E-03        -1.40484     403.822E-03    -757.962E-06     668.915E-03    -331.842E-03    -341.580E-03    -331.299E-03     658.634E-03    -331.842E-03     201.854E-03     4.25616E+06     3.01995E+06    -1.24613E+06    -316.856E+03     3.02867E+06     3.31817E+06    -194.171E+03         85.3556
             992     9.29938E-03     23.4509E-03     406.046E-03     401.709E-03        -1.40483     403.491E-03        -1.40467     404.104E-03    -2.24445E-03     665.379E-03    -330.149E-03    -336.761E-03    -328.837E-03     657.454E-03    -330.149E-03     177.226E-03     4.71090E+06     2.43185E+06    -1.30557E+06    -195.469E+03     3.30258E+06     2.73007E+06    -77.6964E+03         83.6396
             993     8.58936E-03     23.1962E-03     405.783E-03     402.162E-03        -1.40403     403.472E-03        -1.40394     404.381E-03     6.58348E-03     661.817E-03    -328.638E-03    -332.910E-03    -326.242E-03     655.150E-03    -328.638E-03     161.979E-03     4.36566E+06     896.367E+03    -1.27911E+06    -539.268E+03     3.62581E+06     896.367E+03    -7.57297E+03         82.3053
             994     7.87593E-03     22.9848E-03     405.576E-03     402.989E-03        -1.40507     403.949E-03        -1.40505     404.592E-03    -8.87471E-03     656.564E-03    -327.587E-03    -330.033E-03    -324.419E-03     651.244E-03    -327.880E-03     144.139E-03     3.51499E+06    -422.813E+03    -1.67601E+06    -699.180E+03     2.53816E+06    -422.813E+03     143.778E+03         81.1530
             995     7.16183E-03     22.8007E-03     406.641E-03     402.995E-03        -1.40598     404.918E-03        -1.40595     404.691E-03     9.28854E-03     652.055E-03    -325.996E-03    -327.934E-03    -321.950E-03     648.010E-03    -327.934E-03     124.896E-03     4.18054E+06    -212.411E+03    -1.68464E+06    -553.080E+03     3.04899E+06    -212.411E+03     175.525E+03         80.1884
             996     6.44522E-03     22.6551E-03     407.710E-03     402.440E-03        -1.40675     405.384E-03        -1.40665     404.669E-03    -5.35874E-03     648.940E-03    -324.115E-03    -328.423E-03    -321.306E-03     646.131E-03    -328.423E-03     103.517E-03     4.95953E+06    -280.337E+03    -3.17058E+06    -683.687E+03     728.173E+03     1.46413E+06    -70.6218E+03         79.4934
             997     5.72615E-03     22.5401E-03     406.448E-03     403.350E-03        -1.40732     405.126E-03        -1.40724     404.587E-03    -15.7258E-03     650.289E-03    -323.734E-03    -330.325E-03    -322.013E-03     648.568E-03    -330.325E-03     80.5469E-03     4.45887E+06    -391.805E+03    -5.81227E+06    -1.57951E+06    -2.71436E+06     2.54868E+06    -538.475E+03         78.9824
             998     5.01275E-03     22.4727E-03     404.792E-03     402.228E-03        -1.40542     402.262E-03        -1.40538     404.712E-03     9.20911E-03     655.571E-03    -324.194E-03    -330.266E-03    -323.285E-03     654.662E-03    -330.266E-03     58.5604E-03     3.41870E+06    -776.704E+03    -7.06846E+06    -2.62202E+06    -3.47975E+06     1.67531E+06    -815.909E+03         78.4002
             999     4.27653E-03     22.4390E-03     407.795E-03     399.235E-03        -1.40510     401.062E-03        -1.40437     405.234E-03    -39.7594E-03     658.592E-03    -326.670E-03    -329.175E-03    -326.253E-03     658.176E-03    -329.175E-03     39.1347E-03     2.10721E+06    -1.15170E+06    -5.53169E+06    -3.03781E+06    -1.64267E+06     104.292E+03     55.6287E+03         77.7507
            1000     3.56334E-03     22.4467E-03     410.835E-03     399.965E-03        -1.40799     402.640E-03        -1.40579     405.958E-03     23.3659E-03     659.646E-03    -329.612E-03    -330.328E-03    -329.820E-03     659.501E-03    -329.975E-03     22.8232E-03     42.8439E+03    -1.82096E+06    -9.06398E+06    -3.63339E+06    -6.09735E+06    -1.11135E+06     512.565E+03         77.2005
            1001     2.85031E-03     22.4857E-03     413.406E-03     404.363E-03        -1.41401     404.761E-03        -1.40768     406.687E-03    -58.9853E-03     662.800E-03    -331.611E-03    -332.850E-03    -332.811E-03     662.762E-03    -331.611E-03     10.2171E-03    -2.23363E+06    -3.69386E+06    -13.4610E+06    -4.62042E+06    -12.5345E+06    -2.23363E+06     83.6925E+03         76.7277
            1002     2.13567E-03     22.5484E-03     421.981E-03     407.621E-03        -1.42528     405.232E-03        -1.40853     407.621E-03     76.4463E-03     666.183E-03    -332.635E-03    -334.128E-03    -334.122E-03     666.177E-03    -332.635E-03     2.41136E-03    -3.38435E+06    -5.43483E+06    -11.1809E+06    -5.01367E+06    -10.9369E+06    -4.04948E+06    -237.188E+03         76.2978
            1003     1.42672E-03     22.6072E-03     459.696E-03     408.074E-03        -1.46601     409.525E-03        -1.41584     408.074E-03    -173.164E-03     668.631E-03    -334.049E-03    -334.906E-03    -334.877E-03     668.631E-03    -334.076E-03    -414.889E-06    -2.23437E+06    -7.12808E+06    -11.4534E+06    -4.93799E+06    -11.2876E+06    -4.59020E+06    -422.600E+03         75.9669
            1004     712.583E-06     22.6637E-03     619.868E-03     405.324E-03        -1.62937     411.763E-03        -1.42126     405.324E-03     474.430E-03     670.608E-03    -333.680E-03    -337.500E-03    -335.378E-03     670.607E-03    -335.801E-03    -166.426E-06    -1.08257E+06    -8.19711E+06    -15.6189E+06    -5.08701E+06    -14.7583E+06    -5.05318E+06    -287.670E+03         75.8062
            1005     12.1888E-03     23.0179E-03     411.023E-03     405.260E-03        -1.41417     411.018E-03        -1.41416     405.260E-03     3.93529E-03     687.711E-03    -331.976E-03    -360.462E-03    -345.475E-03     672.723E-03    -331.976E-03     241.357E-03     8.25285E+06     4.62548E+06    -7.31229E+06    -197.805E+03    -1.41988E+06     7.18372E+06    -899.463E+03         93.4004
            1006     11.4841E-03     22.4534E-03     410.239E-03     405.457E-03        -1.41375     410.101E-03        -1.41372     405.556E-03    -9.38921E-03     683.661E-03    -332.651E-03    -358.865E-03    -343.229E-03     668.025E-03    -332.651E-03     247.939E-03     9.09029E+06     4.01017E+06    -7.20000E+06     -317.84E+03    -98.2989E+03     6.31661E+06    -269.613E+03         90.5166
            1007     10.7612E-03     22.1174E-03     410.778E-03     405.732E-03        -1.41417     410.578E-03        -1.41407     405.832E-03     4.40954E-03     671.340E-03    -331.804E-03    -345.938E-03    -336.075E-03     661.477E-03    -331.804E-03     199.080E-03     6.49425E+06     3.40016E+06    -4.58985E+06    -1.55104E+06     3.45544E+06     3.40016E+06    -1.07100E+06         87.6285
            1008     10.0628E-03     21.7557E-03     410.481E-03     405.968E-03        -1.41399     410.337E-03        -1.41385     405.968E-03    -1.44951E-03     669.229E-03    -330.718E-03    -342.734E-03    -333.871E-03     660.365E-03    -330.718E-03     187.468E-03     5.18522E+06     3.15572E+06    -2.65017E+06    -819.709E+03     3.35475E+06     3.15572E+06    -1.26761E+06         85.2365
            1009     9.31038E-03     21.4826E-03     410.555E-03     405.962E-03        -1.41391     410.365E-03        -1.41372     405.962E-03     3.59850E-03     664.186E-03    -328.598E-03    -337.768E-03    -331.237E-03     657.656E-03    -328.598E-03     160.917E-03     3.78798E+06     2.03856E+06    -2.52960E+06    -1.47158E+06     2.72996E+06     2.03856E+06    -218.029E+03         83.4062
            1010     8.60133E-03     21.2369E-03     409.950E-03     405.834E-03        -1.41257     409.821E-03        -1.41244     405.834E-03     12.6468E-03     660.842E-03    -326.784E-03    -334.015E-03    -328.623E-03     655.450E-03    -326.784E-03     145.457E-03     3.37769E+06     1.29118E+06    -2.95654E+06    -2.10954E+06     2.41222E+06     1.40965E+06    -47.0232E+03         81.9721
            1011     7.89042E-03     21.0279E-03     407.884E-03     404.414E-03        -1.41023     406.490E-03        -1.41021     405.789E-03    -7.75033E-03     655.007E-03    -325.686E-03    -329.709E-03    -325.440E-03     650.830E-03    -325.779E-03     127.226E-03     3.92771E+06     865.444E+03    -3.74107E+06    -2.51720E+06     2.58537E+06     983.914E+03    -408.861E+03         80.7364
            1012     7.17666E-03     20.8489E-03     407.851E-03     403.872E-03        -1.41023     405.818E-03        -1.41022     405.901E-03     2.13016E-03     648.722E-03    -324.898E-03    -326.419E-03    -322.376E-03     645.683E-03    -325.902E-03     107.814E-03     3.77502E+06    -109.149E+03    -4.14906E+06    -2.67322E+06     2.29919E+06    -109.149E+03    -382.997E+03         79.6936
            1013     6.46086E-03     20.6990E-03     409.014E-03     404.590E-03        -1.41205     407.538E-03        -1.41195     405.973E-03    -14.8972E-03     645.817E-03    -323.907E-03    -325.989E-03    -321.875E-03     643.785E-03    -325.989E-03     87.8564E-03     2.44453E+06    -1.32648E+06    -4.61491E+06    -2.79065E+06     620.269E+03    -1.32648E+06     256.798E+03         78.8985
            1014     5.74451E-03     20.5948E-03     407.953E-03     405.241E-03        -1.41194     407.118E-03        -1.41183     405.971E-03    -25.1696E-03     646.794E-03    -323.112E-03    -327.246E-03    -321.922E-03     645.605E-03    -327.246E-03     66.5995E-03     1.48497E+06    -2.26095E+06    -5.34063E+06    -3.09962E+06    -756.041E+03    -2.26095E+06     4.25353E+03         78.2985
            1015     5.02341E-03     20.5233E-03     408.905E-03     405.071E-03        -1.41317     408.092E-03        -1.41314     405.853E-03    -404.238E-06     649.752E-03    -322.119E-03    -327.248E-03    -321.547E-03     649.180E-03    -327.248E-03     45.4860E-03     1.20223E+06    -2.56994E+06    -6.86363E+06    -3.57308E+06    -3.34432E+06    -1.31394E+06     -537.49E+03         77.6835
            1016     4.28789E-03     20.4971E-03     414.395E-03     404.332E-03        -1.41816     412.614E-03        -1.41716     405.114E-03    -52.6435E-03     652.854E-03    -324.013E-03    -326.484E-03    -323.787E-03     652.628E-03    -326.484E-03     27.4145E-03     62.3060E+03    -2.32650E+06    -6.46276E+06    -3.76432E+06    -3.89213E+06    -1.07050E+06    -419.517E+03         77.0161
            1017     3.57309E-03     20.5095E-03     414.380E-03     403.697E-03        -1.41765     411.645E-03        -1.41492     403.697E-03     19.3864E-03     654.179E-03    -326.659E-03    -327.161E-03    -326.790E-03     654.114E-03    -326.965E-03     13.5474E-03    -38.8256E+03    -1.61600E+06    -8.40775E+06    -3.18007E+06    -6.27628E+06    -606.233E+03     90.9419E+03         76.4477
            1018     2.85833E-03     20.5408E-03     417.128E-03     402.028E-03        -1.41914     409.074E-03        -1.41109     402.028E-03    -71.9584E-03     656.757E-03    -328.591E-03    -329.231E-03    -329.066E-03     656.744E-03    -328.743E-03     3.21587E-03    -647.161E+03    -2.32404E+06    -12.2854E+06    -3.31532E+06    -11.2941E+06    -647.161E+03     137.555E+03         75.9800
            1019     2.14416E-03     20.6054E-03     427.646E-03     399.994E-03        -1.42769     407.239E-03        -1.40728     399.994E-03     76.1611E-03     659.358E-03    -329.568E-03    -330.452E-03    -330.298E-03     659.356E-03    -329.720E-03    -1.99693E-03    -2.32491E+06    -4.76084E+06    -10.7132E+06    -4.37855E+06    -10.4304E+06    -2.99004E+06    -268.179E+03         75.5667
            1020     1.42651E-03     20.6617E-03     469.329E-03     396.316E-03        -1.46543     406.722E-03        -1.40282     396.316E-03    -201.958E-03     662.316E-03    -331.028E-03    -331.817E-03    -331.812E-03     662.310E-03    -331.028E-03    -3.61264E-03    -2.05319E+06    -7.80925E+06    -11.9945E+06    -5.26947E+06    -11.7850E+06    -4.80240E+06    -259.303E+03         75.2545
            1021     714.699E-06     20.7178E-03     674.081E-03     384.470E-03        -1.65923     404.060E-03        -1.38921     384.470E-03     560.041E-03     666.263E-03    -331.555E-03    -335.094E-03    -332.993E-03     666.255E-03    -333.648E-03    -4.45402E-03    -2.42721E+06    -9.41142E+06    -17.5948E+06    -6.24923E+06    -16.3930E+06     -6.7912E+06     339.846E+03         75.1194
            1022     12.1885E-03     21.0398E-03     410.401E-03     407.600E-03        -1.41472     410.397E-03        -1.41472     407.600E-03     2.55295E-03     693.275E-03    -331.794E-03    -366.180E-03    -351.441E-03     678.536E-03    -331.794E-03     242.223E-03     8.68958E+06     3.10349E+06    -7.52606E+06     583.389E+03     328.327E+03     3.35531E+06     128.545E+03         93.6724
            1023     11.4883E-03     20.4819E-03     411.579E-03     407.785E-03        -1.41795     411.472E-03        -1.41794     407.885E-03    -5.91102E-03     690.217E-03    -332.035E-03    -365.769E-03    -350.939E-03     675.388E-03    -332.035E-03     242.866E-03     7.61489E+06     2.13772E+06    -7.94805E+06    -957.572E+03     624.408E+03     2.13772E+06    -1.06840E+06         90.7998
            1024     10.7782E-03     20.1446E-03     412.806E-03     407.863E-03        -1.41897     412.591E-03        -1.41885     407.963E-03     15.1700E-03     677.556E-03    -330.607E-03    -352.498E-03    -343.634E-03     668.692E-03    -330.607E-03     190.144E-03     7.63809E+06     1.73003E+06    -4.67451E+06    -461.045E+03     3.42463E+06     1.73003E+06    -1.30382E+06         87.8451
            1025     10.0706E-03     19.7947E-03     412.542E-03     407.886E-03        -1.41916     412.375E-03        -1.41899     407.886E-03     5.55746E-03     672.465E-03    -328.768E-03    -346.907E-03    -339.237E-03     664.795E-03    -328.768E-03     175.189E-03     3.80258E+06     1.30694E+06    -3.77391E+06    -2.07565E+06     2.10432E+06     1.30694E+06    -197.359E+03         85.3256
            1026     9.33381E-03     19.5221E-03     411.630E-03     407.708E-03        -1.41830     411.336E-03        -1.41811     407.817E-03     7.07079E-03     664.567E-03    -326.065E-03    -340.235E-03    -334.766E-03     659.098E-03    -326.065E-03     147.511E-03     3.38535E+06     2.23981E+06    -2.92092E+06    -2.31735E+06     2.78178E+06     2.23981E+06    -168.446E+03         83.3578
            1027     8.62777E-03     19.2851E-03     410.892E-03     407.713E-03        -1.41761     410.627E-03        -1.41745     407.822E-03     12.5134E-03     659.187E-03    -323.951E-03    -335.244E-03    -330.979E-03     654.923E-03    -323.951E-03     129.575E-03     3.18584E+06     1.70583E+06    -3.69596E+06    -2.68954E+06     2.06095E+06     1.82430E+06    -577.601E+03         81.7909
            1028     7.91883E-03     19.0756E-03     412.189E-03     406.474E-03        -1.41803     410.784E-03        -1.41800     407.849E-03    -8.71171E-03     652.501E-03    -322.363E-03    -330.240E-03    -327.111E-03     649.372E-03    -322.363E-03     110.140E-03     4.01513E+06     1.19269E+06    -4.83135E+06    -2.53171E+06     1.59702E+06     1.31116E+06     1.21781E+03         80.4154
            1029     7.20586E-03     18.9082E-03     411.390E-03     405.840E-03        -1.41669     409.360E-03        -1.41669     407.869E-03     2.09753E-03     645.131E-03    -322.053E-03    -325.794E-03    -323.462E-03     642.980E-03    -322.234E-03     90.5158E-03     4.10663E+06     681.067E+03    -5.63853E+06    -3.28285E+06     1.75095E+06     681.067E+03     3.87444E+03         79.1993
            1030     6.48913E-03     18.7646E-03     408.663E-03     405.955E-03        -1.41448     406.570E-03        -1.41444     408.015E-03    -8.35303E-03     640.900E-03    -321.029E-03    -322.908E-03    -320.996E-03     639.583E-03    -321.623E-03     69.2414E-03     1.52846E+06    -964.690E+03    -5.63311E+06    -4.50233E+06     397.682E+03    -964.690E+03    -350.388E+03         78.1643
            1031     5.76853E-03     18.6618E-03     410.461E-03     406.706E-03        -1.41710     408.940E-03        -1.41698     408.113E-03    -25.5991E-03     638.735E-03    -319.371E-03    -322.066E-03    -318.964E-03     638.079E-03    -321.816E-03     47.8753E-03     1.26182E+06    -1.26266E+06    -4.60759E+06    -3.33641E+06    -9.36152E+03    -1.26266E+06    -77.8613E+03         77.3322
            1032     5.03403E-03     18.6014E-03     413.135E-03     407.706E-03        -1.42022     412.942E-03        -1.42003     407.706E-03     1.81547E-03     638.967E-03    -318.088E-03    -322.012E-03    -317.823E-03     638.702E-03    -322.012E-03     29.2658E-03     483.620E+03    -2.37365E+06     -4.9389E+06    -3.12590E+06    -1.32938E+06    -2.37365E+06    -25.1393E+03         76.6151
            1033     4.30834E-03     18.5863E-03     413.919E-03     405.664E-03        -1.41939     411.233E-03        -1.41801     406.968E-03    -50.9496E-03     642.061E-03    -319.269E-03    -321.557E-03    -319.201E-03     641.993E-03    -321.557E-03     13.0088E-03    -1.77261E+06    -4.32017E+06    -5.82953E+06    -4.14102E+06    -3.46112E+06    -4.32017E+06    -422.033E+03         75.9083
            1034     3.59193E-03     18.5939E-03     412.679E-03     405.103E-03        -1.41929     408.070E-03        -1.41598     406.407E-03     17.9990E-03     643.441E-03    -321.132E-03    -321.579E-03    -321.166E-03     643.425E-03    -321.528E-03     861.233E-06    -2.79281E+06    -4.81260E+06    -10.2270E+06    -4.58495E+06    -8.89706E+06    -4.35043E+06    -595.340E+03         75.2857
            1035     2.87139E-03     18.6331E-03     420.452E-03     405.465E-03        -1.42736     410.751E-03        -1.41766     405.465E-03    -82.2953E-03     646.323E-03    -322.924E-03    -323.571E-03    -323.393E-03     646.298E-03    -323.076E-03    -6.90315E-03    -2.05510E+06    -4.51987E+06    -12.1276E+06    -4.21266E+06    -10.6398E+06    -3.85012E+06    -592.717E+03         74.8159
            1036     2.14895E-03     18.6785E-03     431.889E-03     404.209E-03        -1.43652     406.328E-03        -1.41096     404.209E-03     87.1534E-03     651.938E-03    -325.566E-03    -326.744E-03    -326.549E-03     651.895E-03    -325.718E-03    -10.5500E-03    -2.15491E+06    -6.14858E+06    -12.3675E+06    -4.50157E+06    -11.3321E+06    -4.83730E+06    -574.116E+03         74.4709
            1037     1.43524E-03     18.7373E-03     482.664E-03     402.969E-03        -1.48476     404.857E-03        -1.40696     402.969E-03    -226.719E-03     656.401E-03    -327.885E-03    -328.855E-03    -328.560E-03     656.367E-03    -328.145E-03    -10.2608E-03    -1.91245E+06    -8.59384E+06    -14.6901E+06    -5.32785E+06    -14.5026E+06    -5.36597E+06     207.730E+03         74.2401
            1038     716.510E-06     18.7890E-03     749.962E-03     392.416E-03        -1.73718     410.558E-03        -1.39778     392.416E-03     663.916E-03     660.146E-03    -328.339E-03    -332.012E-03    -331.735E-03     660.129E-03    -328.599E-03    -8.20692E-03    -421.917E+03    -7.54397E+06    -16.3111E+06    -4.52322E+06    -15.0510E+06    -4.70273E+06     611.362E+03         74.1571
            1039     12.1912E-03     19.0539E-03     414.631E-03     409.683E-03        -1.42601     414.621E-03        -1.42600     409.683E-03     5.11061E-03     701.214E-03    -331.449E-03    -374.089E-03    -359.992E-03     687.117E-03    -331.449E-03     239.246E-03     9.80313E+06     2.64886E+06    -6.91601E+06    -189.942E+03     3.01323E+06     2.71270E+06    -254.480E+03         94.2287
            1040     11.5024E-03     18.4911E-03     415.382E-03     409.806E-03        -1.42541     415.366E-03        -1.42539     409.806E-03    -1.29059E-03     696.805E-03    -331.049E-03    -373.447E-03    -359.495E-03     682.853E-03    -331.049E-03     237.169E-03     8.15626E+06     1.62753E+06    -5.65585E+06    -172.758E+03     2.67317E+06     1.62753E+06    -289.666E+03         91.3598
            1041     10.7944E-03     18.1666E-03     414.011E-03     409.931E-03        -1.42369     413.914E-03        -1.42359     409.931E-03     12.9061E-03     683.061E-03    -328.858E-03    -359.659E-03    -351.392E-03     674.794E-03    -328.858E-03     184.885E-03     4.89604E+06     121.861E+03    -5.70257E+06    -1.52945E+06     722.912E+03     121.861E+03     317.804E+03         88.3382
            1042     10.0849E-03     17.8286E-03     412.686E-03     408.852E-03        -1.42274     411.145E-03        -1.42255     410.209E-03    -709.445E-06     677.372E-03    -326.428E-03    -353.660E-03    -346.496E-03     670.207E-03    -326.428E-03     170.451E-03     3.34358E+06     1.13079E+06    -2.86575E+06    -1.17666E+06     1.65449E+06     1.13079E+06     595.043E+03         85.7285
            1043     9.36520E-03     17.5678E-03     412.236E-03     409.181E-03        -1.42292     410.595E-03        -1.42274     410.648E-03    -1.76534E-03     668.009E-03    -323.148E-03    -346.152E-03    -341.129E-03     662.986E-03    -323.148E-03     142.094E-03     2.89882E+06     1.19275E+06    -2.46336E+06    -1.66384E+06     2.26015E+06     1.03190E+06    -68.8842E+03         83.6581
            1044     8.66154E-03     17.3379E-03     414.100E-03     410.862E-03        -1.42556     413.871E-03        -1.42544     410.971E-03     4.74502E-03     659.885E-03    -320.876E-03    -339.671E-03    -335.981E-03     656.196E-03    -320.876E-03     120.685E-03     4.16278E+06     1.21195E+06    -2.85335E+06    -1.60242E+06     3.07270E+06     1.05111E+06    -187.504E+03         81.9463
            1045     7.95387E-03     17.1450E-03     416.605E-03     410.971E-03        -1.42814     416.564E-03        -1.42810     410.971E-03    -11.2896E-03     651.588E-03    -318.314E-03    -333.587E-03    -331.118E-03     649.119E-03    -318.314E-03     97.6598E-03     4.90840E+06     455.242E+03    -4.64190E+06    -2.02677E+06     2.29327E+06     455.242E+03    -58.5971E+03         80.3787
            1046     7.24297E-03     16.9746E-03     417.460E-03     410.683E-03        -1.42923     417.457E-03        -1.42922     410.683E-03     1.78034E-03     642.255E-03    -316.741E-03    -327.476E-03    -325.982E-03     640.762E-03    -316.741E-03     74.9539E-03     4.64168E+06    -198.428E+03    -5.79365E+06    -2.05796E+06     905.992E+03    -198.428E+03     61.6936E+03         78.9308
            1047     6.53013E-03     16.8355E-03     417.403E-03     409.536E-03        -1.42832     416.717E-03        -1.42831     410.213E-03    -3.34209E-03     635.405E-03    -315.577E-03    -321.834E-03    -321.091E-03     634.662E-03    -315.577E-03     51.4416E-03     3.24630E+06    -87.3348E+03    -4.17847E+06    -1.94649E+06     1.01432E+06    -87.3348E+03     47.7685E+03         77.5891
            1048     5.81070E-03     16.7480E-03     415.394E-03     409.001E-03        -1.42495     414.523E-03        -1.42475     409.678E-03    -30.5102E-03     630.464E-03    -314.065E-03    -318.049E-03    -317.013E-03     630.206E-03    -314.844E-03     28.3727E-03     740.374E+03    -1.65456E+06    -5.14783E+06    -3.75526E+06    -652.190E+03    -1.65456E+06     225.445E+03         76.3969
            1049     5.05575E-03     16.6897E-03     412.223E-03     409.241E-03        -1.42114     411.834E-03        -1.42075     409.241E-03     1.00622E-03     626.732E-03    -312.719E-03    -315.843E-03    -313.725E-03     626.653E-03    -314.759E-03     9.17357E-03    -297.037E+03    -2.47549E+06    -5.71669E+06    -4.02990E+06    -1.98383E+06    -2.47549E+06     738.067E+03         75.4080
            1050     4.33698E-03     16.6676E-03     411.453E-03     407.799E-03        -1.41971     408.743E-03        -1.41830     409.103E-03    -39.0481E-03     626.655E-03    -312.501E-03    -314.401E-03    -312.446E-03     626.600E-03    -314.401E-03    -5.38687E-03    -305.968E+03    -3.64687E+06    -6.33186E+06    -4.01532E+06    -2.62251E+06    -3.64687E+06     1.38648E+06         74.5639
            1051     3.61427E-03     16.6873E-03     411.862E-03     405.427E-03        -1.41862     404.367E-03        -1.41536     409.655E-03     20.3274E-03     628.121E-03    -313.597E-03    -314.540E-03    -313.806E-03     628.026E-03    -314.235E-03    -15.3726E-03    -1.51827E+06    -5.26465E+06    -10.3055E+06    -5.29615E+06    -6.52758E+06    -5.26465E+06     936.316E+03         73.8615
            1052     2.89060E-03     16.7219E-03     416.874E-03     408.017E-03        -1.42661     404.480E-03        -1.41714     410.940E-03    -78.7621E-03     631.523E-03    -315.138E-03    -316.101E-03    -315.973E-03     631.395E-03    -315.138E-03    -20.6108E-03    -3.06411E+06    -6.18693E+06    -12.7761E+06    -5.55615E+06    -10.2841E+06    -6.18693E+06    -141.225E+03         73.3589
            1053     2.17058E-03     16.7687E-03     432.593E-03     412.732E-03        -1.44662     406.153E-03        -1.42018     412.732E-03     100.584E-03     637.724E-03    -318.295E-03    -319.309E-03    -319.079E-03     637.603E-03    -318.404E-03    -21.1667E-03    -3.06704E+06    -7.79160E+06    -14.0398E+06    -5.66386E+06    -13.0034E+06    -6.23119E+06    -217.589E+03         73.0625
            1054     1.44401E-03     16.8247E-03     488.721E-03     415.219E-03        -1.50251     409.070E-03        -1.42286     415.219E-03    -221.598E-03     643.952E-03    -321.406E-03    -322.803E-03    -321.577E-03     643.876E-03    -322.556E-03    -16.3591E-03    -1.64074E+06    -8.30824E+06    -14.5700E+06    -5.51434E+06    -14.3810E+06    -4.62365E+06    -321.219E+03         72.9300
            1055     722.189E-06     16.8647E-03     757.953E-03     422.730E-03        -1.77732     409.883E-03        -1.42925     422.730E-03     689.848E-03     649.617E-03    -322.295E-03    -327.641E-03    -324.459E-03     649.591E-03    -325.451E-03    -6.37766E-03    -1.39831E+06    -9.84363E+06    -17.2703E+06    -6.72384E+06    -16.5799E+06    -5.20852E+06    -965.399E+03         72.9241
            1056     12.2015E-03     17.0442E-03     415.950E-03     412.090E-03        -1.43222     415.866E-03        -1.43220     412.149E-03     6.37207E-03     709.219E-03    -331.111E-03    -382.300E-03    -368.599E-03     695.519E-03    -331.111E-03     236.778E-03     10.7933E+06     1.57847E+06    -7.73028E+06     408.349E+03     2.59081E+06     1.64230E+06     619.817E+03         94.9782
            1057     11.5127E-03     16.4874E-03     414.941E-03     412.680E-03        -1.43019     414.789E-03        -1.43010     412.739E-03    -5.24159E-03     700.665E-03    -329.989E-03    -378.650E-03    -364.676E-03     686.692E-03    -329.989E-03     238.864E-03     7.51929E+06     2.10201E+06    -5.74120E+06    -930.615E+03     2.70871E+06     2.10201E+06     205.201E+03         92.1129
            1058     10.8156E-03     16.1690E-03     414.816E-03     413.400E-03        -1.43098     414.650E-03        -1.43082     413.400E-03     4.31974E-03     686.995E-03    -327.253E-03    -365.565E-03    -356.971E-03     678.401E-03    -327.253E-03     189.320E-03     6.05921E+06     1.48887E+06    -4.16797E+06    -394.756E+03     312.773E+03     3.46210E+06     220.219E+03         89.0774
            1059     10.0892E-03     15.8422E-03     416.138E-03     412.666E-03        -1.43138     414.586E-03        -1.43118     414.024E-03    -619.089E-06     683.410E-03    -324.280E-03    -361.430E-03    -353.809E-03     675.788E-03    -324.280E-03     177.041E-03     4.71194E+06    -167.762E+03    -2.72891E+06    -601.609E+03     758.781E+03     1.65810E+06    -190.647E+03         86.4577
            1060     9.38943E-03     15.5882E-03     419.244E-03     413.083E-03        -1.43336     417.757E-03        -1.43323     414.440E-03    -9.16386E-03     674.691E-03    -320.337E-03    -355.396E-03    -350.076E-03     669.370E-03    -320.337E-03     147.149E-03     4.72736E+06    -88.1777E+03    -2.09795E+06    -380.853E+03     3.31847E+06    -396.389E+03     336.334E+03         84.3507
            1061     8.69541E-03     15.3732E-03     421.262E-03     414.439E-03        -1.43595     421.218E-03        -1.43591     414.439E-03     6.20027E-03     664.594E-03    -317.496E-03    -348.632E-03    -344.931E-03     660.893E-03    -317.496E-03     121.645E-03     4.29281E+06    -454.379E+03    -2.94722E+06    -791.986E+03     2.65017E+06    -966.972E+03     835.148E+03         82.5385
            1062     7.99497E-03     15.1919E-03     417.755E-03     414.311E-03        -1.43423     417.738E-03        -1.43421     414.311E-03    -5.53816E-03     654.530E-03    -313.465E-03    -341.204E-03    -338.903E-03     652.228E-03    -313.465E-03     94.5852E-03     5.34548E+06    -1.20967E+06    -4.43857E+06    -1.19250E+06     2.45117E+06    -1.56141E+06     278.094E+03         80.7903
            1063     7.28921E-03     15.0411E-03     417.712E-03     413.210E-03        -1.43472     416.607E-03        -1.43471     414.306E-03    -6.31489E-03     642.530E-03    -309.978E-03    -332.810E-03    -331.659E-03     641.379E-03    -309.978E-03     65.4050E-03     4.61803E+06    -2.58176E+06    -5.13657E+06    -1.49640E+06      977.86E+03    -2.58176E+06     886.759E+03         79.1087
            1064     6.57410E-03     14.9302E-03     421.183E-03     413.010E-03        -1.43762     420.080E-03        -1.43761     414.105E-03    -5.22222E-03     630.758E-03    -308.058E-03    -324.591E-03    -324.167E-03     630.334E-03    -308.058E-03     36.7500E-03     3.35541E+06    -3.25143E+06    -5.15247E+06    -1.90311E+06     455.095E+03    -3.60048E+06     1.69382E+06         77.4698
            1065     5.85392E-03     14.8468E-03     420.659E-03     413.534E-03        -1.43574     420.489E-03        -1.43557     413.534E-03    -25.4023E-03     622.026E-03    -306.385E-03    -317.441E-03    -317.346E-03     621.931E-03    -306.385E-03     10.9574E-03     1.82909E+06    -3.79019E+06    -5.68520E+06    -2.88010E+06    -440.561E+03    -4.32565E+06     1.89658E+06         75.8767
            1066     5.10254E-03     14.8124E-03     417.343E-03     412.904E-03        -1.43131     417.024E-03        -1.43099     412.904E-03    -1.44860E-03     614.405E-03    -304.754E-03    -311.633E-03    -311.040E-03     614.345E-03    -305.286E-03    -9.60079E-03    -568.044E+03    -4.51053E+06    -7.25550E+06    -4.61728E+06    -3.01986E+06    -4.69693E+06     2.29963E+06         74.4622
            1067     4.37569E-03     14.7997E-03     419.096E-03     412.152E-03        -1.43238     417.924E-03        -1.43121     412.152E-03    -38.3201E-03     609.931E-03    -303.629E-03    -307.615E-03    -306.552E-03     609.739E-03    -304.500E-03    -24.5842E-03    -152.335E+03    -4.08271E+06    -7.96816E+06    -4.99385E+06    -3.12665E+06    -4.08271E+06     2.41923E+06         73.3019
            1068     3.64801E-03     14.8154E-03     420.908E-03     408.382E-03        -1.43119     414.865E-03        -1.42807     411.306E-03     26.1040E-03     609.155E-03    -303.956E-03    -305.808E-03    -305.164E-03     608.849E-03    -304.295E-03    -32.4594E-03     1.79384E+06    -2.70290E+06    -6.92159E+06    -3.57482E+06    -1.55293E+06    -2.70290E+06     2.02361E+06         72.4122
            1069     2.92126E-03     14.8564E-03     420.335E-03     408.347E-03        -1.43258     408.883E-03        -1.42405     411.271E-03    -66.1709E-03     610.467E-03    -304.820E-03    -305.732E-03    -305.205E-03     610.166E-03    -305.046E-03    -32.6872E-03     22.1041E+03    -4.92699E+06    -10.6990E+06    -4.95725E+06    -7.76967E+06    -2.87701E+06     1.49999E+06         71.8013
            1070     2.18698E-03     14.9015E-03     431.408E-03     412.317E-03        -1.44776     408.487E-03        -1.42484     412.317E-03     94.1013E-03     616.135E-03    -307.737E-03    -308.328E-03    -307.722E-03     615.906E-03    -308.114E-03    -28.5805E-03    -2.27258E+06    -8.10725E+06    -12.8789E+06    -6.29461E+06    -12.2057E+06    -4.75843E+06     1.09147E+06         71.4650
            1071     1.45910E-03     14.9579E-03     476.816E-03     414.278E-03        -1.49332     409.659E-03        -1.42616     414.278E-03    -194.810E-03     625.775E-03    -311.964E-03    -313.993E-03    -312.921E-03     625.635E-03    -312.896E-03    -22.2720E-03    -3.53356E+06     -9.7242E+06    -14.6816E+06    -6.96375E+06    -13.8244E+06    -7.15113E+06     527.217E+03         71.3538
            1072     726.092E-06     15.0047E-03     696.968E-03     425.379E-03        -1.71923     406.298E-03        -1.42856     425.379E-03     609.257E-03     631.501E-03    -313.786E-03    -317.946E-03    -314.800E-03     631.417E-03    -316.848E-03    -13.3624E-03    -2.23215E+06    -11.1507E+06    -18.5548E+06    -6.70530E+06    -17.8667E+06    -7.36557E+06    -410.308E+03         71.3900
            1073     12.2071E-03     15.0303E-03     417.628E-03     415.199E-03        -1.43332     416.533E-03        -1.43313     416.099E-03     1.38524E-03     712.032E-03    -330.730E-03    -385.885E-03    -371.584E-03     697.731E-03    -330.730E-03     239.619E-03     12.6635E+06     1.47874E+06    -11.3800E+06    -1.15191E+06     2.29398E+06     1.62014E+06     987.021E+03         95.6932
            1074     11.5213E-03     14.4829E-03     417.742E-03     415.244E-03        -1.43460     415.428E-03        -1.43427     417.219E-03    -12.0821E-03     703.564E-03    -329.381E-03    -381.674E-03    -365.974E-03     687.865E-03    -329.381E-03     254.257E-03     11.6752E+06     2.83325E+06    -5.76267E+06     521.378E+03     5.39118E+06     2.83325E+06     1.24631E+06         92.9008
            1075     10.8199E-03     14.1677E-03     421.356E-03     416.290E-03        -1.43985     419.101E-03        -1.43952     418.207E-03    -11.1731E-03     692.596E-03    -326.552E-03    -371.464E-03    -361.279E-03     682.411E-03    -326.552E-03     206.846E-03     8.01203E+06     496.638E+03    -4.81930E+06     331.517E+03     1.62754E+06     1.73031E+06    -292.562E+03         89.9991
            1076     10.0955E-03     13.8523E-03     426.278E-03     418.683E-03        -1.44565     426.101E-03        -1.44548     418.683E-03     286.404E-06     692.295E-03    -322.982E-03    -370.582E-03    -361.579E-03     683.292E-03    -322.982E-03     193.701E-03     5.69016E+06    -1.43791E+06    -5.19977E+06    -830.881E+03     234.961E+03    -351.603E+03     855.946E+03         87.5055
            1077     9.40449E-03     13.5963E-03     427.604E-03     418.724E-03        -1.44628     427.514E-03        -1.44619     418.724E-03    -15.1380E-03     684.561E-03    -318.292E-03    -366.562E-03    -360.310E-03     678.309E-03    -318.292E-03     160.987E-03     4.96930E+06    -1.40800E+06    -4.81934E+06    -1.84871E+06     2.14603E+06    -1.55536E+06     889.845E+03         85.4467
            1078     8.71563E-03     13.4051E-03     424.480E-03     418.676E-03        -1.44426     424.473E-03        -1.44425     418.676E-03     3.20756E-03     673.884E-03    -314.197E-03    -361.301E-03    -356.982E-03     669.565E-03    -314.197E-03     132.636E-03     4.99789E+06    -2.58530E+06    -4.23991E+06    -742.769E+03     1.85249E+06    -2.93704E+06     1.17720E+06         83.5794
            1079     8.02338E-03     13.2324E-03     422.153E-03     418.741E-03        -1.44425     422.101E-03        -1.44419     418.741E-03    -11.2867E-03     661.841E-03    -309.094E-03    -353.739E-03    -351.248E-03     659.350E-03    -309.094E-03     98.7667E-03     5.06852E+06    -2.79725E+06    -4.87745E+06    -110.104E+03     1.81752E+06    -4.31360E+06     2.22249E+06         81.6771
            1080     7.32667E-03     13.1084E-03     421.307E-03     417.783E-03        -1.44410     420.153E-03        -1.44405     418.878E-03    -14.3382E-03     646.256E-03    -304.141E-03    -342.471E-03    -341.412E-03     645.197E-03    -304.141E-03     62.6912E-03     5.22001E+06    -3.29717E+06    -5.64236E+06    -617.976E+03     1.36022E+06    -4.46177E+06     3.04873E+06         79.7852
            1081     6.62489E-03     13.0179E-03     420.188E-03     416.733E-03        -1.44214     417.786E-03        -1.44212     419.118E-03    -6.50526E-03     629.259E-03    -300.382E-03    -329.859E-03    -329.551E-03     628.951E-03    -300.382E-03     31.0082E-03     4.73306E+06    -4.48102E+06    -6.09603E+06    -1.90570E+06     891.772E+03    -4.83006E+06     3.84606E+06         77.8982
            1082     5.90995E-03     12.9720E-03     422.822E-03     417.774E-03        -1.44466     421.290E-03        -1.44454     419.186E-03    -24.3605E-03     613.869E-03    -297.227E-03    -318.471E-03    -318.426E-03     613.824E-03    -297.227E-03     4.41054E-03     3.02055E+06    -4.07167E+06    -6.41089E+06    -2.63789E+06    -217.002E+03    -4.60712E+06     3.77888E+06         75.9722
            1083     5.14453E-03     12.9597E-03     424.737E-03     418.557E-03        -1.44668     424.422E-03        -1.44649     418.679E-03    -2.91618E-03     602.356E-03    -294.470E-03    -309.516E-03    -309.416E-03     602.256E-03    -294.470E-03    -16.5704E-03     1.85920E+06    -4.05164E+06    -6.57590E+06    -2.89926E+06    -1.63103E+06    -4.23805E+06     3.57849E+06         74.1416
            1084     4.42210E-03     12.9705E-03     426.089E-03     417.612E-03        -1.44757     424.979E-03        -1.44646     417.612E-03    -44.6212E-03     594.893E-03    -292.744E-03    -302.702E-03    -302.409E-03     594.600E-03    -292.744E-03    -31.8216E-03     2.21554E+06    -4.29340E+06    -6.07466E+06    -2.67341E+06    -1.18571E+06    -4.29340E+06     3.05766E+06         72.5456
            1085     3.68914E-03     12.9991E-03     428.008E-03     415.942E-03        -1.44944     425.394E-03        -1.44683     415.942E-03     14.5286E-03     588.868E-03    -291.671E-03    -297.389E-03    -296.932E-03     588.410E-03    -291.671E-03    -40.0892E-03     2.03065E+06    -3.80389E+06    -6.37111E+06    -3.04775E+06    -1.29271E+06    -3.80389E+06     2.81611E+06         71.2688
            1086     2.94925E-03     13.0375E-03     430.140E-03     413.611E-03        -1.45115     423.351E-03        -1.44437     413.611E-03    -62.8907E-03     585.988E-03    -291.200E-03    -294.934E-03    -294.176E-03     585.456E-03    -291.426E-03    -42.7905E-03     1.88648E+06    -5.08208E+06    -7.96767E+06    -3.23724E+06    -4.89392E+06    -3.03211E+06     2.78862E+06         70.3685
            1087     2.21254E-03     13.0850E-03     434.859E-03     411.142E-03        -1.45341     417.723E-03        -1.43628     411.142E-03     68.9221E-03     590.213E-03    -293.586E-03    -296.667E-03    -295.911E-03     589.725E-03    -293.854E-03    -40.5863E-03    -19.5284E+03    -8.29503E+06    -10.2877E+06    -4.77766E+06    -9.04502E+06    -4.77956E+06     1.86844E+06         69.8270
            1088     1.47333E-03     13.1298E-03     458.959E-03     409.285E-03        -1.47259     412.211E-03        -1.42584     409.285E-03    -152.188E-03     596.897E-03    -297.222E-03    -299.686E-03    -299.337E-03     596.600E-03    -297.274E-03    -31.1015E-03     512.301E+03    -5.57074E+06    -11.3437E+06    -3.02650E+06    -10.5446E+06    -2.83102E+06     920.061E+03         69.5818
            1089     744.764E-06     13.1686E-03     608.100E-03     416.298E-03        -1.62822     400.978E-03        -1.42110     416.298E-03     497.573E-03     602.104E-03    -299.369E-03    -302.732E-03    -302.439E-03     601.987E-03    -299.546E-03    -18.0737E-03     1.06899E+06    -7.87144E+06    -18.5243E+06    -5.37180E+06    -16.1648E+06    -3.79019E+06     984.272E+03         69.5744
            1090     12.2018E-03     13.0277E-03     421.211E-03     415.794E-03        -1.43522     415.793E-03        -1.43484     420.835E-03    -8.93078E-03     709.037E-03    -330.846E-03    -382.266E-03    -366.346E-03     693.117E-03    -330.846E-03     249.445E-03     17.0632E+06    -1.99679E+06    -16.5585E+06     -44.239E+03       407.6E+03    -1.85540E+06    -996.684E+03         96.3761
            1091     11.5094E-03     12.4743E-03     423.929E-03     418.419E-03        -1.44219     419.835E-03        -1.44171     422.035E-03    -14.9437E-03     707.855E-03    -329.680E-03    -384.000E-03    -365.698E-03     689.552E-03    -329.680E-03     275.328E-03     13.2853E+06    -4.48473E+06    -14.7601E+06    -795.191E+03    -679.516E+03    -4.48473E+06    -1.29720E+06         93.7694
            1092     10.8114E-03     12.1652E-03     427.208E-03     419.713E-03        -1.44728     423.601E-03        -1.44688     422.915E-03    -22.3586E-03     700.631E-03    -326.650E-03    -377.763E-03    -365.878E-03     688.746E-03    -326.650E-03     225.084E-03     9.28123E+06    -4.63881E+06    -11.8376E+06    -108.345E+03    -1.70845E+06    -5.37836E+06     2.72761E+06         91.0888
            1093     10.0916E-03     11.8321E-03     429.664E-03     418.687E-03        -1.44951     424.735E-03        -1.44941     423.512E-03     401.562E-06     702.303E-03    -322.642E-03    -380.372E-03    -370.201E-03     692.133E-03    -322.642E-03     207.646E-03     5.85644E+06    -1.99502E+06    -9.24804E+06    -825.385E+03     14.4316E+03    -4.57566E+06     3.68702E+06         88.7503
            1094     9.40406E-03     11.6002E-03     428.657E-03     418.577E-03        -1.44962     423.011E-03        -1.44955     424.155E-03    -19.5427E-03     694.604E-03    -317.269E-03    -377.745E-03    -370.969E-03     687.829E-03    -317.269E-03     169.273E-03     6.45387E+06    -93.1444E+03    -5.33279E+06     1.10809E+06     2.78240E+06    -2.86255E+06     1.38784E+06         86.7320
            1095     8.72585E-03     11.3990E-03     426.584E-03     422.398E-03        -1.45222     424.134E-03        -1.45221     424.831E-03    -5.46449E-03     681.353E-03    -312.375E-03    -371.403E-03    -366.759E-03     676.709E-03    -312.375E-03     138.857E-03     7.09069E+06    -1.92743E+06    -4.12115E+06     312.534E+03      4.3416E+06    -3.61203E+06     1.37100E+06         84.7763
            1096     8.04896E-03     11.2614E-03     427.723E-03     423.463E-03        -1.45586     425.682E-03        -1.45571     425.351E-03    -23.0137E-03     666.574E-03    -306.807E-03    -363.096E-03    -360.216E-03     663.694E-03    -306.807E-03     107.228E-03     6.41844E+06    -2.78754E+06    -5.95662E+06    -451.371E+03     2.83407E+06    -4.70843E+06     3.10838E+06         82.7258
            1097     7.36016E-03     11.1720E-03     428.005E-03     424.169E-03        -1.45803     426.359E-03        -1.45788     425.663E-03    -22.4352E-03     649.462E-03    -300.802E-03    -350.671E-03    -349.149E-03     647.940E-03    -300.802E-03     75.5982E-03     6.32403E+06    -3.56150E+06    -6.83269E+06    -422.795E+03     1.07874E+06    -4.72610E+06     5.18035E+06         80.6764
            1098     6.65682E-03     11.1229E-03     427.034E-03     424.545E-03        -1.45804     425.686E-03        -1.45798     425.835E-03    -12.5912E-03     629.579E-03    -295.118E-03    -335.327E-03    -334.681E-03     628.932E-03    -295.118E-03     46.2613E-03     6.43517E+06    -3.50679E+06    -5.45930E+06    -295.425E+03     1.27130E+06    -3.50679E+06     5.54578E+06         78.6629
            1099     5.94141E-03     11.1145E-03     426.634E-03     423.227E-03        -1.45718     423.616E-03        -1.45697     426.035E-03    -37.4838E-03     612.297E-03    -290.524E-03    -322.538E-03    -322.370E-03     612.129E-03    -290.524E-03     18.6021E-03     5.66288E+06    -2.28924E+06    -5.15352E+06    -358.823E+03     868.186E+03    -2.28924E+06     5.09731E+06         76.5979
            1100     5.18495E-03     11.1260E-03     428.324E-03     423.216E-03        -1.45944     425.175E-03        -1.45925     426.181E-03    -15.5832E-03     597.916E-03    -286.589E-03    -311.324E-03    -311.246E-03     597.839E-03    -286.589E-03    -6.22864E-03     4.54503E+06    -2.09910E+06    -4.43750E+06    -706.468E+03     814.004E+03    -2.09910E+06     4.28051E+06         74.5142
            1101     4.45586E-03     11.1573E-03     429.906E-03     424.491E-03        -1.46273     427.583E-03        -1.46185     425.938E-03    -47.9084E-03     585.457E-03    -283.411E-03    -301.958E-03    -301.725E-03     585.224E-03    -283.411E-03    -26.5635E-03     3.06310E+06    -3.29150E+06    -3.72781E+06    -1.08027E+06     415.557E+03    -3.29150E+06     3.12025E+06         72.5564
            1102     3.72091E-03     11.2123E-03     430.078E-03     422.308E-03        -1.46157     425.119E-03        -1.45986     425.557E-03    -240.538E-06     575.121E-03    -280.745E-03    -294.947E-03    -294.482E-03     574.656E-03    -280.745E-03    -39.8730E-03     3.68244E+06    -3.86281E+06    -4.38494E+06    -227.131E+03    -475.369E+03    -3.86281E+06     3.30996E+06         70.8643
            1103     2.98634E-03     11.2567E-03     434.127E-03     421.773E-03        -1.46408     426.512E-03        -1.45971     425.022E-03    -57.5990E-03     567.748E-03    -278.954E-03    -289.092E-03    -288.478E-03     567.134E-03    -278.954E-03    -45.7830E-03     4.27240E+06    -3.87059E+06    -5.96852E+06    -5.71275E+03    -3.01883E+06    -2.54217E+06     3.49606E+06         69.5424
            1104     2.24393E-03     11.3094E-03     438.567E-03     423.414E-03        -1.47023     428.789E-03        -1.46046     423.414E-03     38.8669E-03     564.381E-03    -279.091E-03    -285.358E-03    -284.806E-03     563.828E-03    -279.091E-03    -42.8348E-03     5.61152E+06    -3.19476E+06    -5.95352E+06     1.28254E+06    -4.68001E+06    -139.281E+03     2.79127E+06         68.6253
            1105     1.50306E-03     11.3618E-03     448.978E-03     421.325E-03        -1.48036     423.297E-03        -1.45468     421.325E-03    -116.548E-03     563.760E-03    -280.626E-03    -283.134E-03    -282.799E-03     563.436E-03    -280.637E-03    -32.1781E-03     6.12944E+06    -903.249E+03    -7.24269E+06     2.53770E+06    -6.34956E+06     1.79535E+06     1.49491E+06         68.1140
            1106     742.752E-06     11.4174E-03     524.766E-03     432.665E-03        -1.57233     406.925E-03        -1.45449     432.665E-03     356.342E-03     571.617E-03    -284.286E-03    -287.356E-03    -286.440E-03     571.500E-03    -285.086E-03    -17.2150E-03     5.95798E+06    -4.45181E+06    -16.1716E+06    -595.629E+03    -13.3965E+06    -673.239E+03     752.386E+03         67.9988
            1107     12.1846E-03     11.0257E-03     424.585E-03     417.480E-03        -1.44122     417.054E-03        -1.44079     424.585E-03    -19.3952E-03     706.031E-03    -331.552E-03    -377.864E-03    -360.387E-03     688.554E-03    -331.552E-03     262.563E-03     22.7965E+06    -5.00429E+06    -22.0855E+06     2.73734E+06    -2.02635E+06    -5.00429E+06     1.84152E+06         97.4086
            1108     11.4872E-03     10.4676E-03     427.177E-03     415.714E-03        -1.44593     416.936E-03        -1.44563     425.659E-03    -10.8327E-03     714.756E-03    -330.519E-03    -388.811E-03    -369.591E-03     695.535E-03    -330.519E-03     282.724E-03     19.4242E+06    -6.53871E+06    -24.0998E+06    -1.23424E+06    -3.44135E+06    -6.53871E+06     6.41903E+06         94.9858
            1109     10.7935E-03     10.1290E-03     428.406E-03     413.996E-03        -1.44477     415.263E-03        -1.44452     426.887E-03    -23.7225E-03     708.799E-03    -326.914E-03    -384.177E-03    -372.626E-03     697.249E-03    -326.914E-03     223.314E-03     14.6810E+06    -5.18732E+06    -17.4282E+06    -3.74655E+06     999.432E+03    -5.18732E+06     3.08403E+06         92.3271
            1110     10.0888E-03     9.81052E-03     428.348E-03     415.254E-03        -1.44571     415.190E-03        -1.44564     428.348E-03    -7.43025E-03     707.158E-03    -322.463E-03    -385.190E-03    -375.597E-03     697.565E-03    -322.463E-03     202.536E-03     12.5391E+06    -1.23353E+06    -8.42156E+06     1.70705E+06     6.35703E+06    -5.18010E+06    -1.36742E+06         89.8090
            1111     9.40453E-03     9.55732E-03     429.839E-03     418.038E-03        -1.45185     417.912E-03        -1.45172     429.839E-03    -28.5867E-03     696.182E-03    -316.662E-03    -379.992E-03    -373.370E-03     689.561E-03    -316.662E-03     167.832E-03     6.71109E+06    -1.58645E+06    -8.65197E+06     2.25359E+06     2.87106E+06    -8.65197E+06     884.022E+03         87.5431
            1112     8.73673E-03     9.40161E-03     431.090E-03     422.037E-03        -1.45899     421.940E-03        -1.45889     431.090E-03    -13.3388E-03     681.695E-03    -311.718E-03    -371.169E-03    -366.195E-03     676.721E-03    -311.718E-03     143.965E-03     7.95911E+06    -3.50703E+06    -8.89288E+06     2.28406E+06     657.416E+03    -7.38227E+06     3.81558E+06         85.3710
            1113     8.04762E-03     9.28395E-03     432.068E-03     425.303E-03        -1.46392     425.102E-03        -1.46372     432.068E-03    -23.0782E-03     666.412E-03    -305.802E-03    -362.134E-03    -358.673E-03     662.951E-03    -305.802E-03     118.284E-03     8.29887E+06    -2.95513E+06    -7.27859E+06     1.47361E+06     302.955E+03    -3.71141E+06     5.76040E+06         83.2053
            1114     7.35513E-03     9.23394E-03     432.863E-03     427.926E-03        -1.46803     427.789E-03        -1.46783     432.797E-03    -23.4952E-03     649.902E-03    -299.748E-03    -351.913E-03    -349.767E-03     647.756E-03    -299.748E-03     92.0070E-03     6.44330E+06    -1.80451E+06    -4.46105E+06     782.558E+03     1.19969E+06    -1.80451E+06     5.25862E+06         81.1275
            1115     6.65702E-03     9.22331E-03     433.890E-03     430.427E-03        -1.47291     431.027E-03        -1.47285     433.224E-03    -10.3280E-03     631.052E-03    -294.102E-03    -339.418E-03    -338.202E-03     629.836E-03    -294.102E-03     67.0176E-03     8.55308E+06    -636.040E+03    -3.12137E+06     2.59312E+06     2.83859E+06    -636.040E+03     5.63520E+06         79.1475
            1116     5.94962E-03     9.24580E-03     434.034E-03     430.965E-03        -1.47562     431.385E-03        -1.47544     433.434E-03    -34.0022E-03     614.908E-03    -288.843E-03    -327.335E-03    -326.787E-03     614.360E-03    -288.843E-03     42.1938E-03     10.1483E+06     720.667E+03    -1.87058E+06     4.37801E+06     3.99000E+06     630.404E+03     5.82312E+06         77.1571
            1117     5.19328E-03     9.29400E-03     433.801E-03     428.585E-03        -1.47475     428.461E-03        -1.47462     433.801E-03    -17.2566E-03     599.091E-03    -283.964E-03    -315.899E-03    -315.692E-03     598.885E-03    -283.964E-03     19.7502E-03     9.06370E+06     1.11651E+06    -533.473E+03     4.38851E+06     4.23197E+06     1.02624E+06     4.58179E+06         75.1094
            1118     4.47612E-03     9.36462E-03     434.793E-03     428.222E-03        -1.47477     428.006E-03        -1.47424     434.476E-03    -41.9453E-03     583.258E-03    -279.034E-03    -305.626E-03    -305.474E-03     583.106E-03    -279.034E-03    -431.687E-06     7.45320E+06     1.40152E+06    -446.211E+03     3.36067E+06     3.64632E+06     1.40152E+06     3.78469E+06         73.0760
            1119     3.75040E-03     9.42951E-03     437.461E-03     429.355E-03        -1.47674     430.506E-03        -1.47561     435.185E-03     2.84274E-03     569.838E-03    -274.722E-03    -295.810E-03    -295.571E-03     569.598E-03    -274.722E-03    -15.9367E-03     7.97843E+06    -236.358E+03    -1.39819E+06     2.64185E+06     1.34788E+06     2.35414E+06     3.05983E+06         71.1781
            1120     3.01015E-03     9.50456E-03     438.742E-03     429.219E-03        -1.47741     429.203E-03        -1.47489     436.235E-03    -37.8256E-03     557.984E-03    -271.658E-03    -286.095E-03    -285.800E-03     557.690E-03    -271.658E-03    -25.1907E-03     7.91246E+06    -1.56927E+06    -3.94137E+06     2.19153E+06    -2.13937E+06     2.34966E+06     3.25794E+06         69.5502
            1121     2.26392E-03     9.57276E-03     439.771E-03     433.072E-03        -1.48390     429.274E-03        -1.47863     438.296E-03     26.8037E-03     549.987E-03    -270.706E-03    -279.174E-03    -278.908E-03     549.722E-03    -270.706E-03    -27.5656E-03     9.45246E+06     1.63642E+06    -2.88788E+06     3.89543E+06     1.34072E+06     2.96485E+06     3.19513E+06         68.3159
            1122     1.50655E-03     9.64272E-03     448.763E-03     439.896E-03        -1.50320     433.607E-03        -1.48950     441.354E-03    -85.8803E-03     546.770E-03    -271.237E-03    -275.538E-03    -275.353E-03     546.585E-03    -271.237E-03    -24.2226E-03     7.99574E+06     364.326E+03    -7.77606E+06     2.94786E+06    -3.69972E+06     1.33587E+06     2.11114E+06         67.5819
            1123     762.510E-06     9.68657E-03     496.661E-03     451.365E-03        -1.56279     434.462E-03        -1.50059     451.365E-03     259.497E-03     552.378E-03    -275.076E-03    -277.330E-03    -276.450E-03     552.287E-03    -275.865E-03    -14.8155E-03     10.0127E+06    -175.323E+03    -13.5334E+06     2.70101E+06    -8.85000E+06     2.45295E+06     462.106E+03         67.3701
            1124     12.1630E-03     9.02984E-03     427.595E-03     410.838E-03        -1.44312     410.502E-03        -1.44278     427.595E-03    -28.3586E-03     708.887E-03    -331.936E-03    -380.163E-03    -363.074E-03     691.799E-03    -331.936E-03     264.044E-03     22.3773E+06    -11.5144E+06    -38.9862E+06    -8.68985E+06    -7.91911E+06    -11.5144E+06     2.30786E+06         99.0883
            1125     11.4787E-03     8.44282E-03     429.623E-03     410.949E-03        -1.44154     410.577E-03        -1.44117     429.623E-03    -27.9950E-03     721.036E-03    -330.435E-03    -393.796E-03    -376.061E-03     703.302E-03    -330.435E-03     273.143E-03     31.7018E+06    -10.2750E+06    -35.5822E+06    -2.28847E+06    -1.59185E+06    -10.2750E+06    -6.61979E+06         96.4892
            1126     10.8030E-03     8.08549E-03     431.758E-03     417.156E-03        -1.44700     416.737E-03        -1.44658     431.758E-03    -47.8667E-03     712.743E-03    -326.206E-03    -387.480E-03    -377.053E-03     702.315E-03    -326.206E-03     213.177E-03     30.9004E+06    -9.03339E+06    -21.4114E+06     10.3509E+06     2.35529E+06    -12.2505E+06    -6.17707E+06         93.2452
            1127     10.0914E-03     7.76210E-03     433.443E-03     423.862E-03        -1.45920     423.710E-03        -1.45905     433.443E-03    -31.1415E-03     705.064E-03    -321.629E-03    -384.365E-03    -376.037E-03     696.736E-03    -321.629E-03     188.547E-03     19.7414E+06    -5.94781E+06    -13.7189E+06     11.2095E+06     135.557E+03    -11.2704E+06     1.93848E+06         89.9432
            1128     9.40223E-03     7.54295E-03     434.598E-03     427.741E-03        -1.46890     427.536E-03        -1.46870     434.598E-03    -38.5019E-03     689.130E-03    -316.023E-03    -374.756E-03    -369.320E-03     683.694E-03    -316.023E-03     149.878E-03     16.2197E+06    -2.06874E+06    -15.0348E+06     9.17883E+06    -3.69773E+06    -6.36486E+06     8.67445E+06         86.9876
            1129     8.71399E-03     7.39051E-03     435.622E-03     428.549E-03        -1.47312     428.601E-03        -1.47297     435.419E-03    -14.6939E-03     673.826E-03    -311.472E-03    -363.078E-03    -359.279E-03     670.028E-03    -311.472E-03     122.158E-03     15.3582E+06     10.2491E+03    -13.3820E+06     6.97548E+06    -2.80862E+06    -2.18039E+06     11.7497E+06         84.4431
            1130     8.03214E-03     7.31283E-03     436.241E-03     431.005E-03        -1.47711     431.007E-03        -1.47690     436.038E-03    -18.7752E-03     659.052E-03    -306.341E-03    -351.802E-03    -349.098E-03     656.348E-03    -306.341E-03     102.205E-03     13.7396E+06     898.648E+03    -5.09556E+06     6.69622E+06     1.94783E+06     898.648E+03     8.97496E+06         82.2144
            1131     7.33717E-03     7.29500E-03     436.899E-03     432.926E-03        -1.48080     433.131E-03        -1.48056     436.459E-03    -13.8385E-03     642.511E-03    -301.449E-03    -341.390E-03    -339.324E-03     640.445E-03    -301.449E-03     89.7735E-03     12.3345E+06     3.11679E+06    -467.066E+03     7.15238E+06     4.71501E+06     3.11679E+06     6.18176E+06         80.2631
            1132     6.63324E-03     7.31442E-03     437.264E-03     432.784E-03        -1.48284     433.117E-03        -1.48273     436.824E-03    -1.13773E-03     626.827E-03    -296.965E-03    -331.552E-03    -329.788E-03     625.063E-03    -296.965E-03     81.5361E-03     11.0078E+06     4.08339E+06     462.737E+03     6.46126E+06     5.32350E+06     3.76913E+06     4.94018E+06         78.5175
            1133     5.92466E-03     7.37306E-03     437.244E-03     433.622E-03        -1.48626     433.545E-03        -1.48619     437.244E-03    -21.7352E-03     613.338E-03    -292.460E-03    -321.816E-03    -320.288E-03     611.811E-03    -292.460E-03     72.8381E-03     11.7563E+06     4.15953E+06     1.09404E+06     7.05337E+06     6.20151E+06     3.75502E+06     4.91662E+06         76.8325
            1134     5.17193E-03     7.45667E-03     438.271E-03     434.002E-03        -1.48854     434.534E-03        -1.48848     437.680E-03     2.52939E-03     599.720E-03    -287.905E-03    -313.511E-03    -312.166E-03     598.375E-03    -287.905E-03     63.7128E-03     13.2190E+06     4.42646E+06     2.19428E+06     7.95995E+06     7.54358E+06     4.33619E+06     5.33387E+06         75.1632
            1135     4.45742E-03     7.55127E-03     438.938E-03     432.559E-03        -1.48583     432.795E-03        -1.48547     438.347E-03    -23.9975E-03     587.266E-03    -283.356E-03    -305.533E-03    -304.420E-03     586.153E-03    -283.356E-03     53.4916E-03     13.5678E+06     5.26512E+06     2.92198E+06     7.81707E+06     8.67267E+06     5.26512E+06     5.22482E+06         73.5029
            1136     3.73299E-03     7.65985E-03     441.095E-03     434.589E-03        -1.48830     435.750E-03        -1.48750     439.136E-03     7.82871E-03     575.584E-03    -279.125E-03    -296.260E-03    -295.432E-03     574.756E-03    -279.125E-03     41.2483E-03     11.9337E+06     3.74800E+06    -817.791E+03     5.56488E+06     2.96048E+06     6.33850E+06     4.27304E+06         71.8628
            1137     2.99992E-03     7.76341E-03     442.176E-03     435.236E-03        -1.49176     435.832E-03        -1.49016     439.987E-03    -21.5851E-03     564.882E-03    -275.641E-03    -288.065E-03    -287.513E-03     564.331E-03    -275.641E-03     26.8877E-03     11.6845E+06     3.64628E+06    -1.54608E+06     5.47371E+06     299.553E+03     8.01141E+06     3.24308E+06         70.3578
            1138     2.25916E-03     7.85834E-03     442.876E-03     436.438E-03        -1.49650     434.945E-03        -1.49380     441.662E-03     12.0556E-03     556.057E-03    -273.526E-03    -282.268E-03    -281.906E-03     555.695E-03    -273.526E-03     13.9066E-03     12.5515E+06     5.36577E+06     36.5744E+03     5.58508E+06     5.22835E+06     7.14039E+06     3.67507E+06         69.1601
            1139     1.51748E-03     7.92916E-03     447.097E-03     443.028E-03        -1.50559     438.270E-03        -1.49822     444.486E-03    -73.3936E-03     550.994E-03    -273.233E-03    -277.923E-03    -277.705E-03     550.777E-03    -273.233E-03     5.42807E-03     13.5664E+06     6.19122E+06    -5.28447E+06     3.98181E+06     4.30016E+06     6.19122E+06     2.63864E+06         68.4474
            1140     754.618E-06     7.99861E-03     477.651E-03     451.985E-03        -1.54075     440.623E-03        -1.50372     451.985E-03     201.733E-03     557.446E-03    -277.741E-03    -279.774E-03    -279.059E-03     557.379E-03    -278.389E-03     3.06133E-03     13.4326E+06     1.31395E+06    -13.4358E+06     2.23068E+06    -3.89061E+06     2.97067E+06     1.06878E+06         68.2701
            1141     12.1701E-03     7.01485E-03     432.546E-03     413.882E-03        -1.43941     413.435E-03        -1.43896     432.546E-03    -45.6974E-03     727.109E-03    -331.975E-03    -396.987E-03    -378.349E-03     708.470E-03    -331.975E-03     283.859E-03     44.3504E+06    -9.83103E+06    -37.4258E+06     15.5430E+06    -8.19345E+06    -10.2560E+06    -5.18182E+06         100.651
            1142     11.4986E-03     6.39246E-03     436.692E-03     424.486E-03        -1.45112     425.452E-03        -1.45041     435.008E-03    -64.2189E-03     737.610E-03    -328.958E-03    -409.986E-03    -394.003E-03     721.627E-03    -328.958E-03     259.837E-03     67.2097E+06    -6.53198E+06    -36.6717E+06     34.4051E+06    -3.44220E+06    -6.95696E+06     1.84055E+06         97.4323
            1143     10.8128E-03     6.02520E-03     440.261E-03     433.252E-03        -1.47197     436.730E-03        -1.47144     436.248E-03    -60.8039E-03     717.376E-03    -323.562E-03    -394.561E-03    -387.517E-03     710.331E-03    -323.562E-03     168.855E-03     46.0115E+06    -5.37433E+06    -34.1599E+06     23.2015E+06    -8.13273E+06    -8.59148E+06     15.9853E+06         93.1409
            1144     10.0884E-03     5.71492E-03     440.429E-03     435.176E-03        -1.48450     438.914E-03        -1.48430     436.487E-03    -32.8391E-03     697.366E-03    -319.029E-03    -380.484E-03    -376.021E-03     692.903E-03    -319.029E-03     123.080E-03     24.8855E+06    -2.65636E+06    -28.2529E+06     9.88945E+06    -10.0397E+06    -5.87351E+06     20.6059E+06         88.7048
            1145     9.40143E-03     5.51306E-03     438.991E-03     435.783E-03        -1.49001     438.246E-03        -1.48990     436.418E-03    -20.9593E-03     671.465E-03    -313.791E-03    -361.725E-03    -359.366E-03     669.106E-03    -313.791E-03     86.4985E-03     27.7653E+06     2.70683E+06    -19.3408E+06     7.64258E+06     781.918E+03     2.70683E+06     19.2458E+06         84.8146
            1146     8.72750E-03     5.40400E-03     440.122E-03     435.946E-03        -1.49256     439.766E-03        -1.49246     436.198E-03     613.178E-06     648.470E-03    -310.255E-03    -341.248E-03    -339.736E-03     646.958E-03    -310.255E-03     74.0869E-03     22.4838E+06     5.73326E+06    -6.23508E+06     8.23898E+06     8.00973E+06     5.73326E+06     12.4033E+06         81.7037
            1147     8.02128E-03     5.36180E-03     440.178E-03     435.705E-03        -1.49239     439.881E-03        -1.49225     435.860E-03    -2.81411E-03     632.274E-03    -304.727E-03    -326.875E-03    -322.417E-03     630.631E-03    -307.542E-03     78.7832E-03     19.2446E+06     6.11174E+06     292.960E+03     10.9156E+06     8.62194E+06     6.11174E+06     9.26440E+06         79.3285
            1148     7.30896E-03     5.37080E-03     438.518E-03     435.418E-03        -1.49142     438.201E-03        -1.49126     435.574E-03     11.8813E-06     619.361E-03    -298.371E-03    -320.028E-03    -310.492E-03     617.025E-03    -305.572E-03     91.9422E-03     18.4731E+06     5.01958E+06     474.225E+03     9.89860E+06     9.04870E+06     5.01958E+06     8.80519E+06         77.6024
            1149     6.58579E-03     5.41759E-03     438.320E-03     434.200E-03        -1.49197     436.967E-03        -1.49186     435.443E-03     7.16224E-03     609.195E-03    -294.369E-03    -315.955E-03    -302.786E-03     606.050E-03    -304.392E-03     104.953E-03     15.5332E+06     4.71381E+06     560.291E+03     7.67209E+06     8.73561E+06     4.39955E+06     7.13288E+06         76.3875
            1150     5.85840E-03     5.50411E-03     436.917E-03     432.597E-03        -1.49058     433.836E-03        -1.49053     435.630E-03    -9.65311E-03     603.930E-03    -292.491E-03    -313.131E-03    -298.384E-03     600.088E-03    -303.396E-03     114.606E-03     14.4336E+06     5.72853E+06     1.51872E+06     6.75407E+06     9.51246E+06     5.41428E+06     5.80901E+06         75.4426
            1151     5.09383E-03     5.60922E-03     439.079E-03     434.084E-03        -1.49339     437.247E-03        -1.49334     435.874E-03     10.1661E-03     601.449E-03    -292.686E-03    -311.315E-03    -297.046E-03     597.187E-03    -302.693E-03     120.188E-03     14.6897E+06     5.54457E+06     1.26330E+06     5.96337E+06     9.98962E+06     5.54457E+06     6.26426E+06         74.6257
            1152     4.37345E-03     5.73100E-03     441.278E-03     434.722E-03        -1.49489     440.148E-03        -1.49474     435.703E-03    -4.31513E-03     600.539E-03    -292.914E-03    -309.184E-03    -296.002E-03     596.340E-03    -301.897E-03     118.548E-03     14.4138E+06     5.63421E+06     2.28927E+06     6.51084E+06     10.1922E+06     5.63421E+06     5.75673E+06         73.8732
            1153     3.65217E-03     5.85935E-03     441.520E-03     433.388E-03        -1.49442     439.204E-03        -1.49407     435.354E-03     14.8282E-03     599.971E-03    -293.547E-03    -306.613E-03    -295.606E-03     596.284E-03    -300.867E-03     110.057E-03     13.8928E+06     5.96384E+06     1.28679E+06     7.25549E+06     7.92408E+06     5.96384E+06     4.91261E+06         73.1416
            1154     2.92931E-03     5.98401E-03     439.810E-03     434.153E-03        -1.49545     438.121E-03        -1.49475     435.137E-03    -11.0265E-03     599.831E-03    -294.780E-03    -304.747E-03    -296.704E-03     596.963E-03    -299.957E-03     95.8261E-03     12.8036E+06     5.28440E+06     424.983E+03     5.75409E+06     5.69987E+06     7.05903E+06     3.98583E+06         72.4440
            1155     2.20391E-03     6.09536E-03     439.852E-03     434.770E-03        -1.49702     438.456E-03        -1.49562     434.770E-03     18.5032E-03     598.309E-03    -295.674E-03    -302.572E-03    -297.520E-03     596.425E-03    -298.843E-03     76.6046E-03     13.5826E+06     6.35222E+06     1.98876E+06     5.55010E+06     8.24664E+06     8.12684E+06     2.25116E+06         71.8513
            1156     1.46811E-03     6.19271E-03     440.213E-03     434.430E-03        -1.49291     435.732E-03        -1.48843     434.430E-03    -55.3150E-03     598.856E-03    -297.958E-03    -301.082E-03    -298.594E-03     597.921E-03    -299.510E-03     53.1607E-03     15.7130E+06     8.90998E+06    -695.285E+03     5.87013E+06     9.14762E+06     8.90998E+06     1.69001E+06         71.5179
            1157     740.446E-06     6.25909E-03     458.337E-03     436.432E-03        -1.50976     433.210E-03        -1.48464     436.432E-03     176.249E-03     611.716E-03    -303.998E-03    -307.743E-03    -306.299E-03     611.405E-03    -305.132E-03     28.9577E-03     17.6292E+06     7.08713E+06    -6.07343E+06     6.96708E+06     3.56259E+06     8.11324E+06     1.39439E+06         71.5404
            1158     12.1600E-03     4.89890E-03     436.016E-03     424.161E-03        -1.45000     422.823E-03        -1.44866     436.016E-03    -88.7314E-03     775.119E-03    -330.627E-03    -444.654E-03    -424.033E-03     754.498E-03    -330.627E-03     292.733E-03     43.8584E+06    -5.94809E+06    -42.7408E+06     20.1545E+06    -10.9137E+06    -14.0713E+06     11.3739E+06         100.872
            1159     11.5004E-03     4.28538E-03     439.452E-03     435.772E-03        -1.48821     438.472E-03        -1.48748     436.022E-03    -68.8591E-03     763.658E-03    -324.642E-03    -440.723E-03    -432.219E-03     755.154E-03    -324.642E-03     152.591E-03     22.8745E+06    -29.1402E+06    -79.3479E+06    -15.7665E+06    -43.9442E+06    -25.9029E+06     21.3681E+06         97.2046
            1160     10.8628E-03     3.95518E-03     442.809E-03     435.152E-03        -1.50176     442.611E-03        -1.50156     435.152E-03    -34.5485E-03     713.697E-03    -317.513E-03    -398.067E-03    -396.087E-03     711.717E-03    -317.513E-03     54.5855E-03     26.7545E+06     4.48781E+03    -53.5065E+06    -19.2367E+06    -13.0780E+06     5.56722E+06     16.5743E+06         92.2404
            1161     10.1485E-03     3.70704E-03     440.358E-03     434.140E-03        -1.50254     440.258E-03        -1.50244     434.140E-03    -6.34574E-03     671.838E-03    -313.031E-03    -360.984E-03    -360.424E-03     671.279E-03    -313.031E-03     33.5704E-03     28.1237E+06     13.7135E+06    -27.2116E+06    -7.95786E+06     6.96957E+06     15.6140E+06     14.2033E+06         86.9709
            1162     9.46266E-03     3.56033E-03     436.398E-03     433.279E-03        -1.49986     436.208E-03        -1.49983     433.445E-03     6.58751E-03     630.818E-03    -302.499E-03    -331.727E-03    -324.204E-03     630.450E-03    -309.654E-03     35.7645E-03     26.1437E+06     11.7184E+06    -10.8158E+06    -1.13945E+06     16.4674E+06     11.7184E+06     8.34229E+06         82.3302
            1163     8.72671E-03     3.50352E-03     436.811E-03     432.846E-03        -1.49831     436.595E-03        -1.49826     433.011E-03     12.3456E-03     603.562E-03    -290.136E-03    -316.444E-03    -296.759E-03     602.653E-03    -308.912E-03     55.3593E-03     19.9762E+06     6.21129E+06     1.92165E+06     5.53687E+06     16.3610E+06     6.21129E+06     5.46390E+06         78.6283
            1164     7.98457E-03     3.50147E-03     438.436E-03     432.551E-03        -1.49729     438.385E-03        -1.49724     432.551E-03     10.7416E-03     592.740E-03    -281.423E-03    -311.041E-03    -280.300E-03     590.870E-03    -310.294E-03     79.3899E-03     18.5820E+06     3.85425E+06    -438.032E+03     5.89501E+06     12.2490E+06     3.85425E+06     8.26607E+06         75.9638
            1165     7.23457E-03     3.53149E-03     437.761E-03     432.032E-03        -1.49575     437.733E-03        -1.49572     432.032E-03     6.31638E-03     589.040E-03    -275.172E-03    -313.429E-03    -272.065E-03     585.933E-03    -313.429E-03     102.489E-03     19.4063E+06     4.06339E+06    -362.910E+03     6.64586E+06     12.3976E+06     4.06339E+06     9.25558E+06         74.3701
            1166     6.48371E-03     3.58918E-03     437.141E-03     431.531E-03        -1.49470     437.114E-03        -1.49467     431.531E-03     8.34997E-03     591.270E-03    -274.912E-03    -317.891E-03    -270.587E-03     586.945E-03    -317.891E-03     121.837E-03     21.1867E+06     6.20162E+06     1.55481E+06     8.10950E+06     14.6320E+06     6.20162E+06     8.95097E+06         73.7565
            1167     5.73432E-03     3.67417E-03     436.808E-03     430.570E-03        -1.49228     436.320E-03        -1.49228     431.055E-03     1.74098E-03     600.632E-03    -280.440E-03    -322.605E-03    -275.059E-03     595.252E-03    -322.605E-03     137.156E-03     19.8699E+06     7.56238E+06     2.23360E+06     6.93725E+06     15.1662E+06     7.56238E+06     7.54173E+06         73.8682
            1168     4.99354E-03     3.76666E-03     436.071E-03     429.845E-03        -1.48993     435.276E-03        -1.48992     430.632E-03     6.43810E-03     613.865E-03    -289.070E-03    -327.201E-03    -283.012E-03     607.807E-03    -327.201E-03     147.404E-03     18.6677E+06     10.7901E+06     4.50384E+06     8.12541E+06     15.0461E+06     10.7901E+06     5.03502E+06         74.3199
            1169     4.23271E-03     3.87838E-03     435.207E-03     429.718E-03        -1.49027     434.661E-03        -1.49023     430.224E-03    -5.11433E-03     629.191E-03    -298.853E-03    -331.730E-03    -292.748E-03     623.086E-03    -331.730E-03     149.957E-03     16.3556E+06     11.5463E+06     5.57870E+06     8.59334E+06     13.3409E+06     11.5463E+06     3.71942E+06         74.8732
            1170     3.51363E-03     3.99590E-03     437.098E-03     429.217E-03        -1.49270     436.745E-03        -1.49255     429.421E-03     10.3427E-03     645.772E-03    -310.204E-03    -335.917E-03    -304.669E-03     640.237E-03    -335.917E-03     144.782E-03     14.8429E+06     9.55788E+06     5.81188E+06     8.04030E+06     11.9137E+06     10.2586E+06     3.35829E+06         75.4997
            1171     2.80232E-03     4.11214E-03     434.363E-03     427.428E-03        -1.48860     432.877E-03        -1.48810     428.409E-03    -18.5943E-03     661.797E-03    -322.072E-03    -340.159E-03    -317.640E-03     657.364E-03    -340.159E-03     131.152E-03     14.4377E+06     9.09607E+06     7.25823E+06     9.60408E+06     11.7113E+06     9.47668E+06     2.31153E+06         76.1226
            1172     2.09448E-03     4.21823E-03     434.003E-03     426.430E-03        -1.48605     431.606E-03        -1.48463     427.412E-03     24.6614E-03     676.103E-03    -332.497E-03    -343.777E-03    -329.490E-03     673.096E-03    -343.777E-03     108.806E-03     13.4916E+06     8.31391E+06     5.55585E+06     8.54021E+06     10.8274E+06     7.99374E+06     961.421E+03         76.6222
            1173     1.39943E-03     4.30843E-03     433.943E-03     423.665E-03        -1.48155     426.586E-03        -1.47760     427.065E-03    -42.0709E-03     690.293E-03    -342.398E-03    -347.833E-03    -340.832E-03     688.727E-03    -347.833E-03     78.2672E-03     14.5839E+06     8.91543E+06     3.20357E+06     8.99428E+06     8.79323E+06     8.91543E+06     798.156E+03         77.0069
            1174     693.313E-06     4.37104E-03     449.749E-03     425.962E-03        -1.49727     425.129E-03        -1.47675     430.061E-03     155.368E-03     707.383E-03    -351.583E-03    -355.770E-03    -353.750E-03     706.830E-03    -353.052E-03     45.5360E-03     15.0618E+06     10.2366E+06     629.859E+03     7.71599E+06     6.94957E+06     11.2627E+06     1.15193E+06         77.3523
            1175     12.1971E-03     2.56337E-03     448.958E-03     425.506E-03        -1.52122     440.554E-03        -1.51986     432.550E-03    -96.3872E-03     912.112E-03    -327.892E-03    -583.215E-03    -566.612E-03     895.510E-03    -327.892E-03     229.611E-03     10.2035E+06    -25.7180E+06    -71.4111E+06    -19.1007E+06    -37.9674E+06    -29.8575E+06    -1.12781E+06         100.309
            1176     11.6356E-03     2.16146E-03     439.884E-03     430.672E-03        -1.53153     439.340E-03        -1.53114     430.828E-03    -44.7090E-03     786.424E-03    -317.302E-03    -468.946E-03    -467.786E-03     785.264E-03    -317.302E-03    -4.00473E-03     14.0231E+06    -24.9679E+06    -79.1999E+06    -30.0980E+06    -38.7412E+06    -21.3056E+06    -22.9321E+06         96.9101
            1177     10.9927E-03     1.92428E-03     434.034E-03     428.320E-03        -1.51899     432.599E-03        -1.51895     429.717E-03    -14.2466E-03     689.716E-03    -309.774E-03    -380.409E-03    -380.275E-03     689.583E-03    -309.774E-03    -21.5267E-03     29.3481E+06    -5.86869E+06    -42.7045E+06    -12.8342E+06    -5.05611E+06    -1.33482E+06    -22.5957E+06         91.9047
            1178     10.2217E-03     1.78117E-03     431.465E-03     426.796E-03        -1.50793     429.041E-03        -1.50790     429.188E-03     1.90328E-03     623.980E-03    -296.871E-03    -328.315E-03    -318.328E-03     623.935E-03    -306.813E-03     1.59087E-03     25.8863E+06    -2.41841E+06    -29.5000E+06    -5.72820E+06     1.24289E+06    -1.54685E+06    -14.1691E+06         86.3349
            1179     9.47069E-03     1.73280E-03     429.408E-03     427.302E-03        -1.50045     427.659E-03        -1.50043     429.029E-03     8.24391E-03     581.161E-03    -273.236E-03    -309.373E-03    -275.623E-03     580.913E-03    -306.738E-03     25.9275E-03     20.0407E+06     3.34200E+06    -12.6382E+06     138.864E+03     7.26362E+06     3.34200E+06    -10.1594E+06         81.3619
            1180     8.69602E-03     1.71888E-03     429.155E-03     427.598E-03        -1.49657     427.658E-03        -1.49656     429.077E-03     8.57772E-03     563.486E-03    -254.688E-03    -310.253E-03    -253.962E-03     562.760E-03    -310.253E-03     46.7224E-03     10.9378E+06     4.05943E+06    -1.46996E+06    -362.312E+03     9.83012E+06     4.05943E+06     2.60168E+06         77.3697
            1181     7.91247E-03     1.72554E-03     430.937E-03     426.860E-03        -1.49482     428.610E-03        -1.49480     429.167E-03     6.19829E-03     563.028E-03    -247.376E-03    -315.891E-03    -245.994E-03     561.646E-03    -315.891E-03     63.4981E-03     15.5435E+06     5.70731E+06    -2.39622E+06     16.0907E+03     13.1312E+06     5.70731E+06     5.60361E+06         74.4935
            1182     7.14012E-03     1.75671E-03     432.604E-03     427.563E-03        -1.49357     431.037E-03        -1.49357     429.124E-03     2.68472E-03     570.529E-03    -247.806E-03    -323.205E-03    -245.729E-03     568.452E-03    -323.205E-03     77.4191E-03     21.2443E+06     7.66899E+06    -432.364E+03     2.95564E+06     17.8563E+06     7.66899E+06     6.10825E+06         72.8668
            1183     6.37197E-03     1.79490E-03     433.495E-03     428.780E-03        -1.49129     433.483E-03        -1.49128     428.780E-03    -388.779E-06     586.627E-03    -255.194E-03    -332.157E-03    -252.554E-03     583.986E-03    -332.157E-03     87.7655E-03     22.4279E+06     8.80808E+06     2.13223E+06     4.98355E+06     19.5766E+06     8.80808E+06     5.37232E+06         72.5499
            1184     5.60874E-03     1.84274E-03     434.503E-03     428.116E-03        -1.48919     434.494E-03        -1.48918     428.116E-03    -4.33620E-03     609.755E-03    -268.739E-03    -341.616E-03    -265.640E-03     606.656E-03    -341.616E-03     95.8754E-03     21.8269E+06     9.51763E+06     4.68526E+06     7.28380E+06     19.2283E+06     9.51763E+06     4.69436E+06         73.4093
            1185     4.85798E-03     1.90258E-03     431.974E-03     427.123E-03        -1.48644     431.665E-03        -1.48644     427.426E-03    -1.18330E-03     636.714E-03    -285.602E-03    -350.882E-03    -282.171E-03     633.283E-03    -350.882E-03     102.839E-03     19.0702E+06     10.6781E+06     6.95843E+06     8.86925E+06     17.1594E+06     10.6781E+06     1.95498E+06         74.9649
            1186     4.09589E-03     1.97217E-03     428.289E-03     425.719E-03        -1.48248     426.755E-03        -1.48242     427.200E-03    -14.7592E-03     665.334E-03    -304.990E-03    -360.132E-03    -301.576E-03     661.920E-03    -360.132E-03     104.750E-03     16.5530E+06     11.7167E+06     7.59274E+06     9.35995E+06     15.3644E+06     11.1380E+06     1.73783E+06         76.7483
            1187     3.38117E-03     2.04150E-03     428.730E-03     425.963E-03        -1.48304     427.348E-03        -1.48291     427.219E-03     3.54421E-03     695.786E-03    -326.321E-03    -369.188E-03    -323.251E-03     692.716E-03    -369.188E-03     101.679E-03     16.8059E+06     11.9529E+06     8.55708E+06     10.6705E+06     14.7319E+06     11.9134E+06     1.59268E+06         78.5888
            1188     2.68268E-03     2.11081E-03     428.608E-03     425.855E-03        -1.48103     427.028E-03        -1.48069     427.097E-03    -9.38211E-03     725.705E-03    -347.645E-03    -378.013E-03    -345.194E-03     723.255E-03    -378.013E-03     93.2397E-03     15.3293E+06     12.8701E+06     10.2958E+06     11.9603E+06     13.4459E+06     13.0892E+06     438.316E+03         80.3723
            1189     1.99916E-03     2.17978E-03     430.135E-03     425.536E-03        -1.48152     428.110E-03        -1.48067     426.701E-03     19.2717E-03     753.168E-03    -367.121E-03    -385.869E-03    -365.465E-03     751.512E-03    -385.869E-03     77.3645E-03     14.5949E+06     11.6842E+06     7.98843E+06     11.1101E+06     11.7934E+06     11.3640E+06     2.13601E+06         81.9215
            1190     1.31987E-03     2.23392E-03     430.596E-03     423.326E-03        -1.48202     424.815E-03        -1.47963     426.725E-03    -23.5227E-03     777.683E-03    -384.225E-03    -393.145E-03    -383.336E-03     776.794E-03    -393.145E-03     56.1709E-03     12.9294E+06     9.12800E+06     5.28982E+06     8.09149E+06     10.0614E+06     9.19435E+06     2.14560E+06         83.0976
            1191     664.074E-06     2.27396E-03     438.184E-03     425.581E-03        -1.49153     415.994E-03        -1.48151     437.747E-03     100.241E-03     797.815E-03    -395.913E-03    -401.839E-03    -395.797E-03     797.490E-03    -401.630E-03     33.7606E-03     13.6904E+06     9.04825E+06     4.39876E+06     8.95544E+06     9.06738E+06      9.1146E+06     973.428E+03         83.8559
            1192     713.884E-06     110.061E-03         1.39031     255.753E-03        -2.03644     244.424E-03    -890.555E-03     255.753E-03         1.35434     668.893E-03    -333.407E-03    -335.401E-03    -334.506E-03     668.892E-03    -334.300E-03     238.382E-06     608.960E+03    -3.24353E+06    -10.6116E+06    -1.21986E+06    -9.59520E+06    -2.43115E+06     575.746E+03         76.5519
            1193     1.43058E-03     110.090E-03     592.547E-03     249.367E-03        -1.23351     247.098E-03    -888.057E-03     249.367E-03    -441.652E-03     669.277E-03    -334.587E-03    -334.977E-03    -334.736E-03     669.273E-03    -334.824E-03     3.14213E-03    -650.562E+03    -2.56155E+06    -10.0412E+06    -1.56301E+06    -9.12877E+06    -2.56155E+06     751.115E+03         76.7817
            1194     2.14412E-03     110.091E-03     367.572E-03     249.139E-03        -1.01056     251.254E-03    -894.246E-03     249.139E-03     215.921E-03     666.901E-03    -333.120E-03    -334.730E-03    -333.222E-03     666.870E-03    -334.596E-03     9.93528E-03     566.121E+03    -1.36581E+06    -8.06269E+06    -1.02935E+06    -7.82906E+06    -3.96881E+03     1.07562E+06         77.1467
            1195     2.85966E-03     110.072E-03     292.865E-03     249.746E-03    -936.576E-03     251.741E-03    -895.452E-03     249.746E-03    -94.1059E-03     660.510E-03    -329.413E-03    -332.604E-03    -329.292E-03     660.389E-03    -332.604E-03     20.9663E-03     2.89800E+06     226.969E+03    -7.38200E+06    -453.449E+03    -6.27033E+06     2.46675E+06     1.19367E+06         77.6190
            1196     3.57540E-03     110.066E-03     271.096E-03     250.178E-03    -913.804E-03     251.959E-03    -894.666E-03     250.178E-03     43.8344E-03     659.281E-03    -328.135E-03    -331.755E-03    -327.794E-03     658.940E-03    -331.755E-03     35.6727E-03     2.81839E+06    -548.039E+03    -5.88285E+06    -1.12063E+06    -2.86753E+06     375.664E+03     660.259E+03         78.2156
            1197     4.29140E-03     110.086E-03     266.710E-03     250.727E-03    -909.770E-03     255.213E-03    -898.274E-03     250.727E-03    -21.3694E-03     658.343E-03    -326.683E-03    -331.353E-03    -325.904E-03     657.563E-03    -331.353E-03     54.3541E-03     2.69741E+06    -1.61439E+06    -3.56220E+06    -1.54903E+06     638.468E+03    -1.56863E+06    -507.083E+03         78.9163
            1198     5.00943E-03     110.153E-03     267.224E-03     251.604E-03    -911.421E-03     259.286E-03    -903.484E-03     251.604E-03     16.9843E-03     655.499E-03    -325.311E-03    -331.766E-03    -323.851E-03     654.038E-03    -331.766E-03     74.8601E-03     4.09923E+06    -1.48648E+06    -4.01074E+06    -1.50285E+06     1.59134E+06    -1.48648E+06    -1.27789E+06         79.7020
            1199     5.72467E-03     110.276E-03     269.085E-03     252.725E-03    -913.972E-03     263.468E-03    -908.355E-03     252.725E-03    -12.9367E-03     654.380E-03    -323.307E-03    -331.724E-03    -320.877E-03     651.951E-03    -331.724E-03     96.6158E-03     4.83074E+06    -74.9640E+03    -4.31849E+06    -657.726E+03     708.372E+03     386.641E+03    -511.439E+03         80.5742
            1200     6.44674E-03     110.360E-03     272.197E-03     254.061E-03    -917.952E-03     268.122E-03    -913.877E-03     254.061E-03     10.5527E-03     652.022E-03    -323.745E-03    -330.624E-03    -320.015E-03     648.292E-03    -330.624E-03     119.845E-03     8.12421E+06    -280.858E+03    -5.73110E+06    -207.896E+03     2.13940E+06     180.747E+03     1.30185E+06         81.4613
            1201     7.17623E-03     110.439E-03     274.322E-03     255.361E-03    -919.822E-03     271.604E-03    -917.104E-03     255.361E-03    -15.2752E-03     654.866E-03    -327.496E-03    -330.131E-03    -322.396E-03     649.766E-03    -330.131E-03     140.932E-03     9.86132E+06    -1.44136E+06    -5.08377E+06    -572.879E+03     5.35042E+06    -1.44136E+06    -441.312E+03         82.2394
            1202     7.87469E-03     110.762E-03     272.663E-03     256.303E-03    -917.860E-03     271.328E-03    -916.525E-03     256.303E-03     20.3659E-03     662.424E-03    -329.579E-03    -330.453E-03    -323.264E-03     656.110E-03    -330.453E-03     157.622E-03     9.42833E+06    -643.943E+03    -6.57249E+06    -1.18191E+06     4.03774E+06    -643.943E+03    -1.37415E+06         82.9299
            1203     8.60051E-03     110.970E-03     267.938E-03     256.793E-03    -913.925E-03     267.591E-03    -913.578E-03     256.793E-03    -24.4938E-03     662.740E-03    -330.750E-03    -331.883E-03    -323.204E-03     655.139E-03    -331.827E-03     172.939E-03     8.31650E+06     444.134E+03    -8.81056E+06    -1.46182E+06     307.498E+03     1.10439E+06    -534.484E+03         83.6374
            1204     9.31121E-03     111.236E-03     262.661E-03     255.798E-03    -908.326E-03     261.732E-03    -908.310E-03     256.711E-03    -379.431E-06     663.354E-03    -331.467E-03    -334.461E-03    -324.850E-03     654.521E-03    -332.245E-03     186.783E-03     7.42056E+06     1.75991E+06    -7.87606E+06    -1.02911E+06    -171.034E+03     2.50455E+06    -334.483E+03         84.4858
            1205     10.0538E-03     111.485E-03     260.068E-03     255.139E-03    -905.012E-03     259.132E-03    -904.989E-03     256.052E-03     620.120E-06     667.143E-03    -331.387E-03    -337.894E-03    -326.648E-03     655.897E-03    -331.387E-03     210.688E-03     9.89549E+06     1.88067E+06    -9.24907E+06    -373.301E+03     585.941E+03     2.31445E+06    -149.635E+03         85.7519
            1206     10.7705E-03     111.891E-03     262.051E-03     255.180E-03    -905.259E-03     261.854E-03    -905.062E-03     255.180E-03    -15.8023E-03     669.767E-03    -331.752E-03    -340.039E-03    -328.332E-03     658.060E-03    -331.752E-03     215.762E-03     11.3352E+06    -8.80087E+03    -9.78917E+06     654.462E+03     542.160E+03     340.603E+03    -963.984E+03         87.6843
            1207     11.4755E-03     112.227E-03     264.334E-03     254.337E-03    -904.681E-03     264.099E-03    -904.446E-03     254.337E-03    -10.2699E-03     684.389E-03    -331.324E-03    -353.917E-03    -336.772E-03     667.244E-03    -331.324E-03     259.553E-03     12.4493E+06    -454.614E+03    -9.31789E+06     568.133E+03     2.56329E+06    -454.614E+03    -574.669E+03         90.2740
            1208     12.2042E-03     112.804E-03     264.577E-03     253.630E-03    -903.678E-03     264.496E-03    -903.597E-03     253.630E-03     4.44523E-03     685.212E-03    -331.742E-03    -354.262E-03    -339.064E-03     670.014E-03    -331.742E-03     238.316E-03     11.2877E+06    -592.263E+03    -14.4926E+06    -2.37686E+06    -1.93531E+06     515.058E+03    -1.13248E+06         93.0222
            1209     716.331E-06     112.023E-03         1.34608     235.613E-03        -1.96372     259.724E-03    -877.367E-03     235.613E-03         1.30854     671.607E-03    -335.103E-03    -336.616E-03    -336.183E-03     671.605E-03    -335.535E-03     657.056E-06    -1.94689E+06    -4.28030E+06    -12.4968E+06    -4.52752E+06    -11.4272E+06    -2.76924E+06     205.203E+03         76.5642
            1210     1.42882E-03     112.054E-03     566.337E-03     248.583E-03        -1.20150     252.447E-03    -887.609E-03     248.583E-03    -440.119E-03     670.918E-03    -335.109E-03    -336.052E-03    -335.101E-03     670.910E-03    -336.052E-03     4.85150E-03    -1.36195E+06    -3.74319E+06    -11.1716E+06    -3.34229E+06    -10.2395E+06    -2.69502E+06     237.335E+03         76.7396
            1211     2.14343E-03     112.067E-03     347.485E-03     249.457E-03    -982.844E-03     248.987E-03    -884.346E-03     249.457E-03     206.265E-03     666.800E-03    -332.802E-03    -335.020E-03    -332.765E-03     666.764E-03    -335.020E-03     11.1755E-03    -1.22559E+06    -3.64607E+06    -9.67521E+06    -3.29235E+06    -9.48653E+06    -1.76800E+06     554.664E+03         77.0688
            1212     2.85785E-03     112.056E-03     283.307E-03     249.567E-03    -917.994E-03     251.102E-03    -885.789E-03     249.567E-03    -91.5460E-03     661.041E-03    -329.951E-03    -332.793E-03    -329.814E-03     660.903E-03    -332.793E-03     22.1451E-03     1.50396E+06    -1.36484E+06    -8.02000E+06    -2.12209E+06    -5.92254E+06     163.749E+03     325.328E+03         77.5714
            1213     3.57365E-03     112.063E-03     270.222E-03     250.363E-03    -906.155E-03     256.298E-03    -892.231E-03     250.363E-03     35.0172E-03     660.137E-03    -328.643E-03    -332.026E-03    -328.271E-03     659.765E-03    -332.026E-03     37.4189E-03     3.28565E+06     87.4525E+03    -4.74535E+06    -588.410E+03    -955.853E+03     172.014E+03    -563.442E+03         78.2388
            1214     4.28974E-03     112.089E-03     264.942E-03     251.407E-03    -902.315E-03     256.396E-03    -893.770E-03     251.407E-03    -16.7170E-03     658.155E-03    -326.182E-03    -331.752E-03    -325.371E-03     657.344E-03    -331.752E-03     55.5639E-03     3.64826E+06     440.202E+03    -2.11639E+06    -337.213E+03     1.75750E+06     551.791E+03    -737.331E+03         79.0087
            1215     5.01253E-03     112.157E-03     260.082E-03     252.045E-03    -898.422E-03     254.044E-03    -892.384E-03     252.045E-03     15.0830E-03     656.087E-03    -325.400E-03    -332.142E-03    -323.875E-03     654.562E-03    -332.142E-03     76.5121E-03     3.98076E+06     1.86179E+06    -3.13867E+06    -329.365E+03     711.202E+03     2.32205E+06    -258.629E+03         79.8458
            1216     5.72295E-03     112.277E-03     258.743E-03     250.245E-03    -896.707E-03     252.247E-03    -892.245E-03     252.280E-03    -7.23715E-03     656.475E-03    -324.906E-03    -332.063E-03    -322.392E-03     653.960E-03    -332.063E-03     98.6037E-03     3.66631E+06     2.05143E+06    -4.76829E+06    -563.594E+03    -1.43322E+06     2.94626E+06     621.521E+03         80.7526
            1217     6.44573E-03     112.355E-03     258.895E-03     248.722E-03    -895.195E-03     251.797E-03    -891.657E-03     252.284E-03     8.25109E-03     654.265E-03    -325.323E-03    -331.090E-03    -321.502E-03     650.443E-03    -331.090E-03     121.509E-03     7.85384E+06     1.28375E+06    -5.74711E+06     169.044E+03     1.47608E+06     1.74535E+06     458.383E+03         81.6506
            1218     7.17102E-03     112.437E-03     258.632E-03     249.007E-03    -893.426E-03     253.088E-03    -891.018E-03     252.144E-03    -14.8391E-03     656.761E-03    -328.288E-03    -330.607E-03    -323.108E-03     651.581E-03    -330.607E-03     142.255E-03     12.5032E+06     784.999E+03    -5.50162E+06     920.787E+03     6.08082E+06     784.999E+03     144.965E+03         82.4240
            1219     7.87303E-03     112.752E-03     257.167E-03     248.847E-03    -890.434E-03     252.974E-03    -889.233E-03     251.839E-03     17.1278E-03     663.049E-03    -329.809E-03    -330.697E-03    -323.397E-03     656.638E-03    -330.697E-03     158.838E-03     11.8686E+06     1.82583E+06    -5.91677E+06     903.380E+03     5.04842E+06     1.82583E+06     857.316E+03         83.1039
            1220     8.59794E-03     112.943E-03     255.337E-03     248.966E-03    -888.049E-03     252.592E-03    -887.710E-03     251.373E-03    -23.0720E-03     661.519E-03    -329.887E-03    -331.962E-03    -322.167E-03     653.799E-03    -331.962E-03     174.078E-03     9.73860E+06     2.94931E+06    -6.37607E+06     455.036E+03     2.24724E+06     3.60957E+06     349.114E+03         83.7861
            1221     9.31180E-03     113.214E-03     253.954E-03     248.839E-03    -887.018E-03     252.003E-03    -887.005E-03     250.777E-03     1.67317E-03     661.784E-03    -330.639E-03    -333.827E-03    -323.325E-03     652.919E-03    -332.276E-03     186.838E-03     8.47872E+06     2.82890E+06    -6.92334E+06     265.978E+03     544.764E+03     3.57353E+06    -26.0903E+03         84.5982
            1222     10.0584E-03     113.472E-03     254.122E-03     249.233E-03    -887.120E-03     253.186E-03    -887.098E-03     250.146E-03     2.70149E-03     666.454E-03    -331.242E-03    -336.426E-03    -325.337E-03     655.366E-03    -331.242E-03     209.071E-03     9.57899E+06     1.89483E+06    -7.90272E+06     505.276E+03     1.08662E+06     1.97921E+06    -1.10147E+06         85.8176
            1223     10.7741E-03     113.879E-03     255.665E-03     249.639E-03    -887.724E-03     255.491E-03    -887.550E-03     249.639E-03    -13.4276E-03     668.682E-03    -331.617E-03    -338.465E-03    -327.016E-03     657.233E-03    -331.617E-03     213.103E-03     10.2368E+06     1.96919E+06    -8.97329E+06    -232.025E+03     1.49551E+06     1.96919E+06    -1.46132E+06         87.6886
            1224     11.4858E-03     114.240E-03     257.493E-03     249.250E-03    -888.089E-03     257.209E-03    -887.805E-03     249.250E-03    -1.88394E-03     683.635E-03    -331.220E-03    -353.221E-03    -336.549E-03     666.963E-03    -331.220E-03     255.943E-03     12.6892E+06     3.79720E+06    -9.29908E+06     206.961E+03     3.18315E+06     3.79720E+06     42.2451E+03         90.2006
            1225     12.2028E-03     114.833E-03     259.449E-03     249.017E-03    -889.284E-03     259.266E-03    -889.101E-03     249.017E-03     5.79032E-03     686.475E-03    -331.627E-03    -355.451E-03    -340.658E-03     671.681E-03    -331.627E-03     235.601E-03     12.8647E+06     4.05408E+06    -13.5915E+06     103.586E+03    -1.93765E+06     5.16140E+06     649.059E+03         92.8746
            1226     713.200E-06     113.992E-03         1.17326     235.546E-03        -1.79180     267.812E-03    -886.357E-03     235.546E-03         1.15939     673.430E-03    -336.296E-03    -337.307E-03    -336.672E-03     673.428E-03    -336.929E-03     1.38728E-03    -2.20810E+06    -4.91727E+06    -12.8710E+06    -3.86134E+06    -11.9646E+06    -4.17040E+06    -376.683E+03         76.6125
            1227     1.43022E-03     114.015E-03     500.984E-03     252.345E-03        -1.13323     254.380E-03    -886.627E-03     252.345E-03    -389.697E-03     670.167E-03    -334.416E-03    -335.992E-03    -334.408E-03     670.159E-03    -335.992E-03     4.82024E-03    -2.19789E+06    -5.79883E+06    -12.2688E+06    -4.80805E+06    -11.3289E+06    -4.12850E+06     29.7067E+03         76.7535
            1228     2.14577E-03     114.037E-03     323.460E-03     252.951E-03    -954.852E-03     252.889E-03    -884.282E-03     252.951E-03     194.280E-03     664.777E-03    -331.750E-03    -334.269E-03    -331.713E-03     664.740E-03    -334.269E-03     11.2444E-03    -669.580E+03    -3.21436E+06    -9.30386E+06    -3.48660E+06    -9.03162E+06    -669.580E+03    -194.144E+03         77.0606
            1229     2.86121E-03     114.035E-03     273.844E-03     252.639E-03    -904.840E-03     254.593E-03    -886.146E-03     253.197E-03    -76.1079E-03     661.217E-03    -330.292E-03    -332.833E-03    -330.153E-03     661.078E-03    -332.833E-03     22.3254E-03     2.72160E+06    -1.49100E+06    -6.99433E+06    -2.39902E+06    -3.44684E+06     82.1295E+03    -781.713E+03         77.5526
            1230     3.57372E-03     114.069E-03     261.541E-03     251.694E-03    -890.987E-03     252.458E-03    -883.567E-03     253.359E-03     23.5662E-03     660.594E-03    -328.749E-03    -332.140E-03    -328.373E-03     660.217E-03    -332.140E-03     37.6472E-03     3.35002E+06    -1.52402E+06    -4.29682E+06    -2.29769E+06     889.749E+03    -1.06288E+06    -774.182E+03         78.2128
            1231     4.28843E-03     114.110E-03     259.544E-03     249.977E-03    -887.499E-03     251.237E-03    -882.380E-03     253.164E-03    -6.10266E-03     658.847E-03    -326.430E-03    -332.086E-03    -325.634E-03     658.051E-03    -332.086E-03     55.1725E-03     2.24055E+06    -1.63433E+06    -3.19084E+06    -2.02109E+06     582.634E+03    -1.14616E+06    -447.270E+03         78.9879
            1232     5.00681E-03     114.186E-03     256.125E-03     249.448E-03    -884.704E-03     248.409E-03    -880.225E-03     252.684E-03     3.14181E-03     656.892E-03    -325.868E-03    -332.581E-03    -324.386E-03     655.410E-03    -332.581E-03     75.4640E-03     2.70170E+06    -528.303E+03     -4.8275E+06    -1.27501E+06    -1.31104E+06    -68.0496E+03    -178.034E+03         79.8366
            1233     5.72249E-03     114.300E-03     252.770E-03     248.052E-03    -881.129E-03     245.206E-03    -877.390E-03     251.878E-03    -9.85520E-03     657.415E-03    -326.022E-03    -332.351E-03    -323.536E-03     654.929E-03    -332.351E-03     98.0907E-03     4.14147E+06     244.971E+03    -6.02541E+06    -1.13885E+06    -1.17831E+06     678.198E+03    -294.369E+03         80.7596
            1234     6.44064E-03     114.375E-03     250.883E-03     245.536E-03    -876.167E-03     242.486E-03    -873.117E-03     250.883E-03     2.70204E-03     655.972E-03    -326.879E-03    -331.393E-03    -322.957E-03     652.050E-03    -331.393E-03     123.163E-03     7.82572E+06     806.347E+03    -6.87132E+06    -1.15692E+06     2.11132E+06     806.347E+03    -462.352E+03         81.6813
            1235     7.16626E-03     114.466E-03     249.783E-03     242.983E-03    -871.520E-03     240.594E-03    -869.132E-03     249.783E-03    -11.8371E-03     658.489E-03    -328.701E-03    -330.981E-03    -323.298E-03     653.086E-03    -330.981E-03     145.445E-03     10.9312E+06     2.09037E+06    -6.74790E+06    -411.180E+03     4.59452E+06     2.09037E+06     192.794E+03         82.4798
            1236     7.86958E-03     114.779E-03     248.667E-03     241.116E-03    -867.821E-03     239.877E-03    -866.582E-03     248.667E-03     19.1384E-03     662.876E-03    -328.969E-03    -331.134E-03    -322.375E-03     656.283E-03    -331.134E-03     161.037E-03     9.68544E+06     1.83767E+06    -5.83980E+06    -709.575E+03     4.55522E+06     1.83767E+06     104.199E+03         83.1844
            1237     8.59859E-03     114.974E-03     247.765E-03     242.002E-03    -867.592E-03     241.597E-03    -867.187E-03     247.765E-03    -14.2761E-03     660.711E-03    -329.227E-03    -332.241E-03    -321.422E-03     652.907E-03    -332.241E-03     174.934E-03     7.59920E+06     234.767E+03    -4.50088E+06    -259.659E+03     3.35798E+06     234.767E+03     396.602E+03         83.8927
            1238     9.31142E-03     115.240E-03     248.921E-03     244.048E-03    -870.033E-03     245.613E-03    -869.932E-03     247.256E-03     9.91337E-03     662.190E-03    -330.572E-03    -333.932E-03    -323.381E-03     653.262E-03    -332.195E-03     187.548E-03     8.33118E+06    -612.508E+03    -4.12701E+06     145.398E+03     4.05878E+06    -612.508E+03     62.4528E+03         84.7093
            1239     10.0545E-03     115.517E-03     250.976E-03     245.493E-03    -872.460E-03     249.201E-03    -872.296E-03     247.105E-03     15.3625E-03     667.112E-03    -331.181E-03    -336.938E-03    -325.915E-03     656.089E-03    -331.181E-03     208.697E-03     8.12152E+06     1.64693E+06    -6.41761E+06    -532.564E+03     2.23647E+06     1.64693E+06    -487.898E+03         85.8850
            1240     10.7711E-03     115.934E-03     250.371E-03     246.351E-03    -871.606E-03     249.313E-03    -871.286E-03     247.089E-03    -1.56330E-03     669.066E-03    -331.673E-03    -339.137E-03    -327.892E-03     657.820E-03    -331.673E-03     211.343E-03     9.21977E+06     4.88100E+06    -7.75527E+06     416.768E+03     1.04773E+06     4.88100E+06    -275.745E+03         87.6690
            1241     11.4763E-03     116.280E-03     250.976E-03     247.145E-03    -871.674E-03     250.605E-03    -871.303E-03     247.145E-03     3.04022E-03     684.288E-03    -331.387E-03    -353.559E-03    -336.956E-03     667.685E-03    -331.387E-03     255.293E-03     12.0329E+06     4.21225E+06    -11.3469E+06    -306.373E+03     992.330E+03     4.21225E+06     -380.37E+03         90.0706
            1242     12.2014E-03     116.864E-03     253.969E-03     247.399E-03    -874.101E-03     253.699E-03    -873.831E-03     247.399E-03     10.4754E-03     686.823E-03    -331.755E-03    -355.499E-03    -340.681E-03     672.005E-03    -331.755E-03     235.797E-03     11.8566E+06     2.79294E+06    -16.7324E+06    -1.16974E+06    -3.70611E+06     2.79294E+06     988.122E+03         92.6477
            1243     715.893E-06     115.964E-03     967.529E-03     238.102E-03        -1.58325     275.130E-03    -890.853E-03     238.102E-03     989.404E-03     673.618E-03    -335.566E-03    -338.181E-03    -337.707E-03     673.616E-03    -336.038E-03     1.01144E-03    -900.577E+03    -4.30230E+06    -10.9630E+06    -2.90525E+06    -10.4294E+06    -2.83119E+06    -311.498E+03         76.6483
            1244     1.42959E-03     115.990E-03     425.311E-03     256.897E-03        -1.05611     258.452E-03    -889.252E-03     256.897E-03    -325.308E-03     670.500E-03    -334.574E-03    -336.090E-03    -334.569E-03     670.496E-03    -336.090E-03     3.57692E-03    -6.02245E+03    -5.00666E+06    -10.6656E+06    -2.54031E+06    -9.99726E+06    -3.14074E+06    -777.908E+03         76.7624
            1245     2.14455E-03     116.033E-03     295.232E-03     256.666E-03    -924.405E-03     253.138E-03    -882.311E-03     256.666E-03     157.389E-03     666.488E-03    -332.570E-03    -335.145E-03    -332.536E-03     666.454E-03    -335.145E-03     10.5288E-03    -78.5964E+03    -2.85942E+06    -8.91888E+06    -1.78560E+06    -8.51324E+06    -1.55806E+06    -483.926E+03         77.0104
            1246     2.85790E-03     116.054E-03     262.012E-03     253.581E-03    -888.976E-03     250.686E-03    -879.491E-03     255.423E-03    -62.4878E-03     662.363E-03    -330.541E-03    -333.709E-03    -330.409E-03     662.232E-03    -333.709E-03     21.8517E-03     2.07759E+06    -844.059E+03    -6.11506E+06    -2.00957E+06    -2.94369E+06     71.7173E+03    -134.936E+03         77.4125
            1247     3.57364E-03     116.091E-03     253.865E-03     248.579E-03    -875.271E-03     245.041E-03    -871.733E-03     253.865E-03     13.1216E-03     660.372E-03    -328.410E-03    -332.212E-03    -328.036E-03     659.997E-03    -332.212E-03     37.3710E-03     3.00677E+06    -700.299E+03    -3.47225E+06    -2.39597E+06    -46.0603E+03     1.27626E+06     225.705E+03         77.9931
            1248     4.28724E-03     116.142E-03     251.989E-03     244.104E-03    -868.480E-03     241.505E-03    -865.881E-03     251.989E-03    -3.34877E-03     659.586E-03    -327.252E-03    -332.212E-03    -326.418E-03     658.753E-03    -332.212E-03     56.4259E-03     3.43554E+06    -506.253E+03    -1.80147E+06    -1.66452E+06     970.081E+03     1.82226E+06    -12.6244E+03         78.7486
            1249     5.00471E-03     116.214E-03     250.312E-03     244.052E-03    -866.398E-03     241.221E-03    -863.567E-03     250.312E-03    -6.92501E-03     658.343E-03    -326.847E-03    -332.848E-03    -325.297E-03     656.792E-03    -332.848E-03     77.3182E-03     4.57065E+06     515.473E+03    -2.84309E+06    -571.692E+03     1.01383E+06     1.80089E+06    -847.605E+03         79.6283
            1250     5.71701E-03     116.323E-03     249.164E-03     246.480E-03    -866.517E-03     243.667E-03    -863.704E-03     249.164E-03    -4.38878E-03     658.182E-03    -326.491E-03    -332.611E-03    -323.962E-03     655.653E-03    -332.611E-03     99.0723E-03     5.16692E+06     810.498E+03    -7.12169E+06    -373.757E+03    -2.27792E+06     1.50740E+06    -1.01986E+06         80.5750
            1251     6.44168E-03     116.398E-03     249.068E-03     246.478E-03    -866.220E-03     244.766E-03    -863.935E-03     248.495E-03     5.27951E-03     656.590E-03    -327.284E-03    -331.676E-03    -323.425E-03     652.731E-03    -331.676E-03     122.330E-03     9.07458E+06     596.808E+03    -8.41401E+06    -524.509E+03     1.18508E+06     596.808E+03    -202.383E+03         81.5101
            1252     7.16521E-03     116.493E-03     249.952E-03     244.345E-03    -865.470E-03     244.204E-03    -863.386E-03     248.009E-03     842.411E-06     658.787E-03    -328.288E-03    -331.238E-03    -323.060E-03     653.559E-03    -331.238E-03     143.031E-03     10.3681E+06    -252.724E+03    -7.48726E+06    -463.888E+03     3.34473E+06    -252.724E+03    -1.85438E+03         82.3306
            1253     7.86965E-03     116.818E-03     248.951E-03     243.013E-03    -863.224E-03     243.144E-03    -861.976E-03     247.572E-03     27.7125E-03     661.848E-03    -327.646E-03    -331.477E-03    -321.183E-03     655.384E-03    -331.477E-03     159.181E-03     8.81661E+06    -623.130E+03    -5.40444E+06     141.322E+03     3.27085E+06    -623.130E+03     507.258E+03         83.0528
            1254     8.59469E-03     117.007E-03     247.271E-03     243.801E-03    -862.043E-03     243.497E-03    -861.731E-03     247.263E-03    -6.12156E-03     660.677E-03    -329.127E-03    -332.494E-03    -321.339E-03     652.889E-03    -332.494E-03     174.735E-03     6.03532E+06    -335.281E+03    -3.12973E+06    -716.029E+03     3.62161E+06    -335.281E+03     103.281E+03         83.7853
            1255     9.30899E-03     117.282E-03     247.105E-03     244.081E-03    -860.913E-03     243.969E-03    -860.801E-03     247.105E-03     13.7984E-03     663.227E-03    -331.175E-03    -334.355E-03    -324.467E-03     654.348E-03    -332.184E-03     187.250E-03     5.81055E+06     896.185E+03    -2.83666E+06    -1.29425E+06     4.26815E+06     896.185E+03     36.4581E+03         84.6345
            1256     10.0506E-03     117.576E-03     247.333E-03     244.697E-03    -859.592E-03     244.801E-03    -859.406E-03     247.043E-03     18.9205E-03     667.838E-03    -331.251E-03    -338.146E-03    -327.265E-03     656.957E-03    -331.251E-03     207.570E-03     7.90645E+06     1.81238E+06    -4.95196E+06    -653.781E+03     3.60827E+06     1.81238E+06     527.371E+03         85.8096
            1257     10.7649E-03     117.984E-03     249.033E-03     246.417E-03    -861.100E-03     247.968E-03    -860.773E-03     247.155E-03     1.71126E-03     669.956E-03    -331.794E-03    -340.376E-03    -329.239E-03     658.818E-03    -331.794E-03     210.582E-03     8.03535E+06     131.698E+03    -7.85254E+06    -1.41479E+06     1.59760E+06     131.698E+03    -41.5988E+03         87.5353
            1258     11.4758E-03     118.316E-03     250.221E-03     247.117E-03    -862.015E-03     249.537E-03    -861.668E-03     247.455E-03     3.48657E-03     684.494E-03    -331.702E-03    -353.385E-03    -336.955E-03     668.064E-03    -331.702E-03     254.018E-03     8.22741E+06    -422.118E+03    -11.6524E+06    -1.93389E+06    -1.83119E+06    -81.9960E+03    -218.346E+03         89.8428
            1259     12.2012E-03     118.888E-03     250.771E-03     246.109E-03    -858.853E-03     248.852E-03    -858.561E-03     247.736E-03     7.46164E-03     685.190E-03    -331.989E-03    -353.566E-03    -338.878E-03     670.502E-03    -331.989E-03     234.710E-03     10.1180E+06    -21.7068E+03    -15.8717E+06    -1.49434E+06    -4.59951E+06     318.415E+03    -132.893E+03         92.3423
            1260     713.384E-06     117.948E-03     803.218E-03     233.899E-03        -1.40095     265.163E-03    -862.898E-03     233.899E-03     837.341E-03     673.544E-03    -335.313E-03    -338.064E-03    -337.836E-03     673.542E-03    -335.540E-03     610.340E-06    -641.889E+03    -3.92176E+06    -10.2934E+06    -2.42619E+06    -9.93205E+06    -2.49883E+06     191.526E+03         76.5807
            1261     1.42933E-03     117.977E-03     364.765E-03     249.205E-03    -981.045E-03     249.230E-03    -865.510E-03     249.205E-03    -281.912E-03     672.235E-03    -335.450E-03    -336.827E-03    -335.443E-03     672.228E-03    -336.827E-03     4.37696E-03     1.45244E+06    -4.03503E+06    -9.70900E+06    -2.25762E+06    -8.61967E+06    -1.41430E+06    -89.4751E+03         76.6783
            1262     2.14358E-03     118.023E-03     272.069E-03     248.625E-03    -886.601E-03     247.135E-03    -861.666E-03     248.625E-03     122.093E-03     667.440E-03    -332.760E-03    -335.844E-03    -332.718E-03     667.398E-03    -335.844E-03     11.9904E-03     975.391E+03    -3.85216E+06    -9.71060E+06    -3.40509E+06    -8.67821E+06    -504.069E+03    -268.627E+03         76.8769
            1263     2.85991E-03     118.048E-03     256.234E-03     247.092E-03    -869.085E-03     250.206E-03    -864.340E-03     248.376E-03    -60.6911E-03     661.797E-03    -330.161E-03    -333.570E-03    -330.020E-03     661.656E-03    -333.570E-03     22.8234E-03     2.28315E+06    -1.50138E+06    -6.80121E+06    -3.02662E+06    -3.69914E+06     706.317E+03    -170.047E+03         77.2324
            1264     3.57436E-03     118.080E-03     252.362E-03     244.753E-03    -864.694E-03     247.781E-03    -863.734E-03     248.375E-03     14.6491E-03     660.669E-03    -328.698E-03    -332.133E-03    -328.319E-03     660.290E-03    -332.133E-03     37.6970E-03     3.08923E+06     432.951E+03    -3.36634E+06    -1.55573E+06     51.6024E+03     1.65996E+06    -217.161E+03         77.7968
            1265     4.28890E-03     118.154E-03     251.513E-03     243.304E-03    -862.452E-03     246.035E-03    -861.672E-03     248.002E-03     9.05395E-03     659.606E-03    -327.324E-03    -332.306E-03    -326.497E-03     658.779E-03    -332.306E-03     56.2546E-03     4.17332E+06     324.232E+03    -1.44392E+06    -601.018E+03     1.75146E+06     1.90318E+06    -85.4673E+03         78.5644
            1266     5.00757E-03     118.216E-03     251.300E-03     244.704E-03    -860.834E-03     247.407E-03    -859.964E-03     247.727E-03    -2.15768E-03     658.886E-03    -326.936E-03    -332.921E-03    -325.389E-03     657.339E-03    -332.921E-03     77.2055E-03     3.89570E+06     416.034E+03    -2.37494E+06    -1.34507E+06     1.58041E+06     1.70145E+06     92.7134E+03         79.4627
            1267     5.72043E-03     118.333E-03     249.134E-03     245.949E-03    -858.408E-03     246.177E-03    -857.087E-03     247.586E-03     11.2639E-03     659.337E-03    -327.301E-03    -332.634E-03    -324.736E-03     656.772E-03    -332.634E-03     99.8120E-03     3.28645E+06     1.82867E+06    -6.79745E+06    -1.33947E+06    -2.99679E+06     2.65393E+06    -126.668E+03         80.4205
            1268     6.43812E-03     118.405E-03     247.944E-03     246.072E-03    -857.265E-03     245.222E-03    -855.842E-03     247.371E-03     6.46667E-03     656.900E-03    -327.893E-03    -331.898E-03    -323.925E-03     652.933E-03    -331.898E-03     124.015E-03     8.61196E+06     548.707E+03    -8.59942E+06    -152.255E+03      36.435E+03     677.070E+03     17.2206E+03         81.3697
            1269     7.16051E-03     118.512E-03     249.133E-03     245.969E-03    -859.204E-03     246.645E-03    -857.936E-03     247.190E-03     2.12198E-03     658.258E-03    -327.838E-03    -331.408E-03    -322.533E-03     652.952E-03    -331.408E-03     144.036E-03     10.5560E+06    -1.54135E+06    -7.39229E+06    -318.125E+03     3.48186E+06    -1.54135E+06     807.939E+03         82.2050
            1270     7.86533E-03     118.824E-03     249.262E-03     246.199E-03    -860.065E-03     247.570E-03    -859.267E-03     247.093E-03     21.9415E-03     661.869E-03    -327.690E-03    -331.500E-03    -321.148E-03     655.327E-03    -331.500E-03     160.118E-03     6.63205E+06    -1.15363E+06    -5.26084E+06    -1.80789E+06     3.17911E+06    -1.15363E+06     541.059E+03         82.9477
            1271     8.59884E-03     119.013E-03     248.048E-03     246.904E-03    -857.926E-03     247.810E-03    -857.794E-03     247.010E-03    -12.5649E-03     661.461E-03    -330.404E-03    -332.544E-03    -322.651E-03     653.688E-03    -332.524E-03     174.814E-03     5.10469E+06    -552.068E+03    -2.96820E+06    -2.16182E+06     4.29831E+06    -552.068E+03     1.04102E+06         83.7140
            1272     9.30962E-03     119.289E-03     249.595E-03     246.099E-03    -856.065E-03     248.740E-03    -856.051E-03     246.941E-03     3.44866E-03     663.348E-03    -331.975E-03    -334.525E-03    -325.547E-03     654.615E-03    -332.220E-03     185.790E-03     4.36904E+06     35.4907E+03    -3.05108E+06    -1.75006E+06     3.06802E+06     35.4907E+03     1.14752E+06         84.6028
            1273     10.0497E-03     119.580E-03     253.467E-03     246.318E-03    -857.790E-03     252.690E-03    -857.747E-03     247.053E-03     6.05104E-03     668.306E-03    -331.306E-03    -338.629E-03    -327.873E-03     657.550E-03    -331.306E-03     206.492E-03     5.02657E+06    -330.393E+03    -3.97720E+06    -1.57001E+06     2.75548E+06    -466.509E+03     413.262E+03         85.7924
            1274     10.7638E-03     119.995E-03     253.272E-03     247.320E-03    -857.684E-03     253.120E-03    -857.532E-03     247.320E-03    -9.42249E-03     670.700E-03    -331.828E-03    -340.689E-03    -329.737E-03     659.747E-03    -331.828E-03     208.934E-03     9.21359E+06    -739.268E+03    -6.25254E+06    -1.59627E+06     4.69344E+06    -875.385E+03     826.805E+03         87.4828
            1275     11.4715E-03     120.304E-03     249.278E-03     246.840E-03    -852.047E-03     248.603E-03    -851.857E-03     247.325E-03    -4.50017E-03     683.985E-03    -331.670E-03    -352.961E-03    -336.761E-03     667.785E-03    -331.670E-03     251.981E-03     10.5686E+06     1.02779E+06    -11.2624E+06    -601.791E+03    -432.182E+03     1.36791E+06     636.190E+03         89.7308
            1276     12.1928E-03     120.806E-03     247.161E-03     245.184E-03    -845.412E-03     245.223E-03    -845.249E-03     246.959E-03    -2.14728E-03     683.386E-03    -332.089E-03    -351.841E-03    -337.307E-03     668.851E-03    -332.089E-03     233.140E-03     11.6753E+06     2.20754E+06    -13.4005E+06     1.46859E+06    -5.24092E+06     4.25468E+06    -849.280E+03         92.2018
            1277     716.799E-06     119.920E-03     723.201E-03     235.622E-03        -1.31677     238.179E-03    -831.746E-03     235.622E-03     754.955E-03     672.256E-03    -335.458E-03    -336.485E-03    -336.299E-03     672.254E-03    -335.642E-03     1.17765E-03    -1.19754E+06    -4.93437E+06    -11.2560E+06    -2.98074E+06    -10.6305E+06    -3.77672E+06    -98.5600E+03         76.4516
            1278     1.43049E-03     119.957E-03     348.330E-03     238.262E-03    -944.284E-03     244.057E-03    -840.012E-03     238.262E-03    -260.470E-03     671.426E-03    -335.307E-03    -336.318E-03    -335.298E-03     671.418E-03    -336.318E-03     5.09451E-03     215.544E+03    -5.52892E+06    -11.0359E+06    -3.57583E+06    -9.77915E+06    -2.99430E+06     477.709E+03         76.5639
            1279     2.14574E-03     120.012E-03     266.815E-03     240.605E-03    -865.975E-03     245.912E-03    -845.072E-03     240.605E-03     127.370E-03     667.591E-03    -333.369E-03    -335.424E-03    -333.331E-03     667.554E-03    -335.424E-03     11.5767E-03     1.61388E+06    -3.84423E+06    -9.87742E+06    -3.19364E+06    -8.41800E+06    -496.134E+03     688.779E+03         76.7730
            1280     2.86018E-03     120.049E-03     248.861E-03     240.949E-03    -849.429E-03     244.983E-03    -846.485E-03     241.884E-03    -48.6101E-03     662.894E-03    -331.253E-03    -333.418E-03    -331.120E-03     662.762E-03    -333.418E-03     21.9686E-03     4.27718E+06    -1.11073E+06    -7.40644E+06    -2.11694E+06    -4.53593E+06     2.41289E+06     976.143E+03         77.1262
            1281     3.57419E-03     120.092E-03     248.351E-03     241.694E-03    -850.096E-03     246.917E-03    -849.596E-03     242.629E-03     14.6753E-03     661.797E-03    -329.345E-03    -332.372E-03    -328.980E-03     661.433E-03    -332.372E-03     37.0206E-03     5.91250E+06     886.679E+03    -4.50454E+06    -1.24923E+06     1.10469E+06     2.43917E+06     1.09511E+06         77.6748
            1282     4.28732E-03     120.157E-03     251.395E-03     243.548E-03    -854.062E-03     251.058E-03    -853.725E-03     243.548E-03     5.79989E-03     659.999E-03    -327.306E-03    -332.654E-03    -326.489E-03     659.181E-03    -332.654E-03     55.8308E-03     4.13583E+06    -394.689E+03    -3.45888E+06    -2.15441E+06     2.61503E+06    -178.361E+03     293.517E+03         78.4050
            1283     5.00630E-03     120.221E-03     251.683E-03     244.471E-03    -853.604E-03     251.251E-03    -853.172E-03     244.471E-03    -5.52129E-03     658.328E-03    -326.484E-03    -333.044E-03    -324.936E-03     656.781E-03    -333.044E-03     77.2030E-03     1.72523E+06    -1.10578E+06    -3.67683E+06    -2.09487E+06    -73.0607E+03    -889.450E+03     140.263E+03         79.2673
            1284     5.71886E-03     120.339E-03     251.458E-03     244.306E-03    -851.957E-03     250.095E-03    -851.336E-03     245.049E-03     3.01503E-03     658.240E-03    -326.491E-03    -332.505E-03    -323.824E-03     655.573E-03    -332.505E-03     101.465E-03     2.30444E+06    -694.813E+03    -5.75865E+06    -1.34732E+06    -2.23525E+06    -566.450E+03     265.186E+03         80.2464
            1285     6.44096E-03     120.416E-03     250.253E-03     244.271E-03    -850.551E-03     248.348E-03    -849.713E-03     245.340E-03    -5.58263E-03     655.415E-03    -326.810E-03    -331.768E-03    -322.657E-03     651.261E-03    -331.768E-03     126.823E-03     6.82775E+06     698.369E+03    -8.38258E+06    -1.14139E+06    -541.801E+03     826.732E+03     33.8230E+03         81.2749
            1286     7.16846E-03     120.515E-03     247.094E-03     244.020E-03    -847.761E-03     245.174E-03    -847.062E-03     245.240E-03    -12.7852E-03     658.482E-03    -328.173E-03    -331.423E-03    -322.840E-03     653.034E-03    -331.309E-03     146.073E-03     9.74070E+06     2.03341E+06    -7.67199E+06    -1.31732E+06     3.38603E+06     2.03341E+06     1.24123E+06         82.1990
            1287     7.87035E-03     120.845E-03     247.901E-03     244.040E-03    -848.079E-03     246.664E-03    -847.736E-03     244.935E-03     3.34732E-03     664.411E-03    -330.017E-03    -332.139E-03    -324.158E-03     657.908E-03    -331.495E-03     160.187E-03     6.94301E+06     1.20907E+06    -3.76684E+06    -856.691E+03     2.52190E+06     2.72003E+06     1.79631E+06         83.0186
            1288     8.59341E-03     121.013E-03     250.397E-03     244.878E-03    -849.268E-03     250.278E-03    -849.149E-03     244.878E-03    -16.5349E-03     662.809E-03    -331.999E-03    -333.148E-03    -324.964E-03     655.213E-03    -332.587E-03     173.116E-03     5.74938E+06     265.746E+03    -1.21381E+06    -75.1890E+03     3.09979E+06     1.77671E+06     1.15756E+06         83.8416
            1289     9.30629E-03     121.290E-03     253.657E-03     245.109E-03    -849.916E-03     253.638E-03    -849.897E-03     245.109E-03    -5.37953E-03     663.339E-03    -332.306E-03    -334.492E-03    -325.837E-03     654.683E-03    -332.306E-03     184.977E-03     5.72614E+06    -85.9316E+03    -1.15209E+06     448.052E+03     4.23546E+06    -195.397E+03     713.451E+03         84.7653
            1290     10.0458E-03     121.545E-03     254.344E-03     245.189E-03    -849.408E-03     254.108E-03    -849.388E-03     245.404E-03    -6.58228E-03     669.470E-03    -331.419E-03    -338.948E-03    -327.981E-03     658.503E-03    -331.419E-03     208.521E-03     5.10141E+06     853.198E+03    -1.98355E+06     973.493E+03     2.38995E+06     607.616E+03     648.694E+03         85.9729
            1291     10.7629E-03     121.900E-03     250.156E-03     244.827E-03    -845.068E-03     249.494E-03    -844.979E-03     245.401E-03    -15.3198E-03     671.493E-03    -331.818E-03    -340.654E-03    -329.425E-03     660.263E-03    -331.818E-03     211.551E-03     10.2999E+06     1.64394E+06    -5.10040E+06     1.82166E+06     3.51400E+06     1.50782E+06     995.570E+03         87.6524
            1292     11.4698E-03     122.194E-03     245.893E-03     243.840E-03    -839.880E-03     244.789E-03    -839.781E-03     244.845E-03    -8.87808E-03     683.763E-03    -331.623E-03    -353.005E-03    -336.297E-03     667.055E-03    -331.623E-03     255.577E-03     13.6136E+06     2.38472E+06    -10.4675E+06     1.67622E+06     1.46986E+06     2.38472E+06     483.339E+03         89.8804
            1293     12.1997E-03     122.786E-03     244.243E-03     242.715E-03    -836.705E-03     242.850E-03    -836.637E-03     244.041E-03    -6.18570E-03     685.361E-03    -332.319E-03    -354.093E-03    -339.157E-03     670.426E-03    -332.319E-03     235.912E-03     11.5241E+06     1.38971E+06    -12.7072E+06     278.248E+03    -3.16834E+06     3.09673E+06    -180.040E+03         92.3633
            1294     715.053E-06     121.888E-03     778.959E-03     252.266E-03        -1.38738     224.635E-03    -833.056E-03     252.266E-03     805.800E-03     670.998E-03    -335.098E-03    -335.655E-03    -335.181E-03     670.998E-03    -335.572E-03     434.191E-06    -1.18076E+06     -6.0894E+06    -11.9625E+06    -4.29985E+06    -11.2667E+06    -3.66606E+06     169.661E+03         76.3011
            1295     1.43244E-03     121.937E-03     369.642E-03     238.951E-03    -960.760E-03     239.266E-03    -830.385E-03     238.951E-03    -280.240E-03     670.210E-03    -334.868E-03    -335.689E-03    -334.862E-03     670.203E-03    -335.689E-03     4.23509E-03    -1.21315E+06    -6.35189E+06    -11.1906E+06    -3.64514E+06    -10.5871E+06    -4.52342E+06     42.2217E+03         76.4094
            1296     2.14575E-03     122.001E-03     266.205E-03     238.550E-03    -857.853E-03     235.521E-03    -827.168E-03     238.550E-03     133.221E-03     667.398E-03    -333.730E-03    -334.848E-03    -333.692E-03     667.359E-03    -334.848E-03     11.4517E-03    -367.216E+03    -3.79517E+06    -9.80411E+06    -1.85948E+06    -8.98266E+06    -3.12436E+06     49.3522E+03         76.6215
            1297     2.85959E-03     122.048E-03     242.200E-03     236.736E-03    -832.597E-03     235.420E-03    -826.751E-03     237.670E-03    -73.4440E-03     663.122E-03    -331.563E-03    -333.131E-03    -331.415E-03     662.974E-03    -333.131E-03     23.1254E-03     1.62372E+06    -1.80187E+06    -8.41291E+06    -1.34193E+06    -6.99974E+06    -249.375E+03     673.500E+03         76.9571
            1298     3.57259E-03     122.096E-03     241.988E-03     235.587E-03    -830.309E-03     239.445E-03    -829.612E-03     237.433E-03     5.23631E-03     660.940E-03    -328.985E-03    -332.242E-03    -328.589E-03     660.544E-03    -332.242E-03     38.6001E-03     4.53421E+06    -925.084E+03    -5.37256E+06    -955.019E+03    -1.43583E+06     627.409E+03     1.45472E+06         77.4515
            1299     4.28803E-03     122.172E-03     242.895E-03     236.842E-03    -830.564E-03     241.626E-03    -830.207E-03     237.754E-03    -12.0311E-03     658.695E-03    -326.434E-03    -332.154E-03    -325.553E-03     657.815E-03    -332.154E-03     57.8264E-03     7.43831E+06     1.11883E+06    -2.41162E+06    -68.3275E+03     4.87869E+06     1.33516E+06     1.57992E+06         78.1033
            1300     5.00535E-03     122.229E-03     247.953E-03     238.480E-03    -836.243E-03     247.559E-03    -835.849E-03     238.480E-03    -13.9419E-03     656.386E-03    -325.459E-03    -332.217E-03    -323.826E-03     654.753E-03    -332.217E-03     79.2827E-03     6.38392E+06     1.70230E+06    -4.67184E+06    -93.9590E+03     404.360E+03     3.10398E+06     575.910E+03         78.9332
            1301     5.72181E-03     122.330E-03     252.795E-03     239.646E-03    -841.486E-03     252.307E-03    -840.999E-03     239.646E-03    -7.31841E-03     655.915E-03    -325.500E-03    -331.787E-03    -322.881E-03     653.296E-03    -331.787E-03     100.618E-03     7.58138E+06     2.92551E+06    -6.70896E+06     463.509E+03    -776.439E+03     4.11086E+06     327.681E+03         79.9697
            1302     6.44554E-03     122.396E-03     253.102E-03     240.828E-03    -843.034E-03     252.661E-03    -842.593E-03     240.828E-03    -3.71831E-03     655.808E-03    -326.823E-03    -331.600E-03    -323.065E-03     652.050E-03    -331.600E-03     120.769E-03     9.71728E+06     3.23555E+06    -9.05291E+06    -760.412E+03     1.42478E+06     3.23555E+06     1.04643E+06         81.1138
            1303     7.16950E-03     122.486E-03     251.174E-03     241.631E-03    -842.564E-03     250.864E-03    -842.254E-03     241.631E-03    -13.8897E-03     660.997E-03    -329.416E-03    -331.877E-03    -324.513E-03     655.980E-03    -331.763E-03     140.246E-03     9.18322E+06     1.85318E+06    -8.75327E+06    -955.513E+03     1.38546E+06     1.85318E+06     1.33551E+06         82.1604
            1304     7.86650E-03     122.783E-03     250.888E-03     242.164E-03    -842.052E-03     250.796E-03    -841.960E-03     242.164E-03     2.58711E-03     665.109E-03    -330.239E-03    -332.390E-03    -324.489E-03     658.714E-03    -331.746E-03     158.837E-03     6.29329E+06    -210.215E+03    -4.05101E+06     90.8179E+03     697.048E+03     1.24420E+06     1.00252E+06         83.0617
            1305     8.59876E-03     122.916E-03     250.647E-03     242.646E-03    -840.246E-03     250.570E-03    -840.170E-03     242.646E-03    -11.0746E-03     663.508E-03    -331.526E-03    -333.456E-03    -324.792E-03     655.777E-03    -332.459E-03     174.663E-03     5.18587E+06    -839.952E+03    -1.56725E+06     48.1793E+03     2.11602E+06     614.462E+03    -188.095E+03         83.9164
            1306     9.29941E-03     123.273E-03     249.359E-03     241.932E-03    -837.195E-03     248.332E-03    -837.152E-03     242.916E-03    -7.39554E-03     665.936E-03    -332.346E-03    -335.691E-03    -326.927E-03     657.172E-03    -332.346E-03     186.522E-03     6.15598E+06     863.013E+03    -1.17078E+06    -120.214E+03     5.21487E+06     753.548E+03    -146.881E+03         84.8542
            1307     10.0304E-03     123.569E-03     245.649E-03     241.520E-03    -832.430E-03     244.312E-03    -832.407E-03     242.833E-03    -3.15274E-03     670.660E-03    -331.692E-03    -339.355E-03    -328.255E-03     659.560E-03    -331.692E-03     209.809E-03     7.00465E+06     1.71602E+06    -2.50972E+06     4.00641E+03     4.60039E+06     1.60655E+06     241.137E+03         86.1125
            1308     10.7723E-03     123.785E-03     242.424E-03     240.586E-03    -828.281E-03     240.544E-03    -828.240E-03     242.424E-03    -9.25083E-03     670.533E-03    -331.910E-03    -339.422E-03    -327.926E-03     659.037E-03    -331.910E-03     213.807E-03     9.67274E+06     798.298E+03    -7.04941E+06    -661.156E+03     3.28449E+06     798.298E+03     100.948E+03         87.8507
            1309     11.4643E-03     124.190E-03     241.707E-03     237.906E-03    -825.162E-03     237.840E-03    -825.096E-03     241.707E-03    -1.48906E-03     683.994E-03    -331.864E-03    -353.149E-03    -336.324E-03     667.168E-03    -331.864E-03     256.898E-03     11.3006E+06    -152.162E+03    -11.9125E+06    -1.22306E+06     611.237E+03    -152.162E+03    -271.641E+03         90.0916
            1310     12.1929E-03     124.778E-03     240.920E-03     237.003E-03    -823.324E-03     236.928E-03    -823.249E-03     240.920E-03    -2.92615E-03     686.930E-03    -332.725E-03    -355.512E-03    -340.535E-03     671.954E-03    -332.725E-03     236.814E-03     10.4414E+06     492.485E+03    -12.8762E+06     160.704E+03    -2.98586E+06     882.844E+03     60.2911E+03         92.5731
            1311     716.702E-06     123.805E-03     938.791E-03     263.045E-03        -1.54775     217.241E-03    -826.196E-03     263.045E-03     953.011E-03     669.781E-03    -334.425E-03    -335.287E-03    -334.425E-03     669.780E-03    -335.287E-03     553.244E-06     2.39716E+03    -5.52226E+06    -10.7348E+06    -2.90694E+06    -10.3983E+06    -2.94937E+06    -123.569E+03         76.3199
            1312     1.43212E-03     123.832E-03     421.062E-03     237.888E-03        -1.00557     229.601E-03    -814.109E-03     237.888E-03    -326.478E-03     668.180E-03    -333.736E-03    -334.837E-03    -333.731E-03     668.174E-03    -334.837E-03     4.02402E-03    -263.704E+03    -4.91339E+06    -9.74549E+06    -2.53350E+06    -9.45371E+06    -2.93537E+06    -582.898E+03         76.4088
            1313     2.15030E-03     123.866E-03     285.579E-03     235.570E-03    -867.646E-03     235.044E-03    -817.111E-03     235.570E-03     162.586E-03     664.184E-03    -331.629E-03    -333.637E-03    -331.592E-03     664.148E-03    -333.637E-03     10.9676E-03    -321.035E+03    -4.14770E+06    -10.5258E+06    -3.66912E+06    -9.44867E+06    -1.87676E+06    -1.08997E+06         76.5977
            1314     2.86798E-03     123.878E-03     248.304E-03     235.562E-03    -829.989E-03     236.786E-03    -818.470E-03     235.562E-03    -81.2886E-03     659.549E-03    -329.094E-03    -331.772E-03    -328.953E-03     659.408E-03    -331.772E-03     22.4705E-03     1.05677E+06    -2.07660E+06    -10.0579E+06    -2.40240E+06    -8.19891E+06    -476.476E+03    -1.02815E+06         76.9222
            1315     3.58491E-03     123.905E-03     241.736E-03     235.059E-03    -821.698E-03     238.398E-03    -819.272E-03     235.972E-03     34.1224E-03     658.389E-03    -327.863E-03    -331.416E-03    -327.483E-03     658.009E-03    -331.416E-03     37.6955E-03     2.40973E+06    -2.42784E+06    -7.11069E+06    -1.16824E+06    -3.45542E+06    -2.50514E+06    -353.256E+03         77.4019
            1316     4.30231E-03     123.969E-03     240.185E-03     235.549E-03    -819.619E-03     238.604E-03    -818.950E-03     236.461E-03    -1.50123E-03     656.651E-03    -325.782E-03    -330.883E-03    -324.970E-03     655.838E-03    -330.883E-03     55.5221E-03     5.82894E+06    -2.19856E+06    -3.73684E+06    -606.645E+03     2.82197E+06    -2.32178E+06     952.802E+03         78.0327
            1317     5.02656E-03     124.009E-03     244.666E-03     235.960E-03    -823.868E-03     242.905E-03    -823.273E-03     237.126E-03     1.31483E-03     653.636E-03    -324.417E-03    -330.538E-03    -322.888E-03     652.106E-03    -330.538E-03     76.3500E-03     8.86661E+06    -60.1711E+03    -7.01462E+06    -1.60155E+06     2.31411E+06     1.07926E+06     1.32098E+06         78.8383
            1318     5.74614E-03     124.045E-03     247.693E-03     237.000E-03    -827.783E-03     245.824E-03    -827.080E-03     238.165E-03     6.16809E-03     653.544E-03    -324.514E-03    -330.464E-03    -321.981E-03     651.011E-03    -330.464E-03     98.7560E-03     9.02224E+06     2.01482E+06    -11.2470E+06    -2.84154E+06    -568.619E+03     3.20018E+06     1.71815E+06         79.8308
            1319     6.45096E-03     124.253E-03     247.962E-03     239.144E-03    -830.317E-03     247.202E-03    -829.775E-03     239.362E-03     15.0599E-03     656.954E-03    -327.346E-03    -331.599E-03    -323.576E-03     653.184E-03    -331.599E-03     120.950E-03     6.93863E+06     2.23894E+06    -11.7167E+06    -1.66658E+06    -3.11152E+06     2.23894E+06     1.71686E+06         80.9253
            1320     7.13563E-03     124.608E-03     248.295E-03     240.195E-03    -831.107E-03     247.904E-03    -830.934E-03     240.414E-03    -2.27738E-03     662.353E-03    -329.947E-03    -332.692E-03    -324.798E-03     657.204E-03    -332.692E-03     142.134E-03     6.75474E+06     173.758E+03    -7.78398E+06    -648.679E+03    -380.558E+03     173.758E+03     200.839E+03         81.9590
            1321     7.86663E-03     124.721E-03     247.886E-03     240.569E-03    -830.391E-03     247.231E-03    -830.313E-03     241.146E-03     14.4880E-03     663.928E-03    -328.853E-03    -331.844E-03    -322.230E-03     657.305E-03    -331.844E-03     161.327E-03     6.97691E+06    -1.23823E+06    -3.76874E+06    -1.03419E+06     4.29891E+06    -1.29478E+06    -170.405E+03         82.8710
            1322     8.60773E-03     124.818E-03     244.962E-03     240.256E-03    -826.222E-03     243.743E-03    -826.198E-03     241.450E-03    -1.62274E-03     663.454E-03    -330.435E-03    -332.993E-03    -323.522E-03     655.557E-03    -332.009E-03     176.490E-03     6.09097E+06    -1.15887E+06    -3.23472E+06    -1.37235E+06     4.28516E+06    -1.21542E+06     759.371E+03         83.7068
            1323     9.29338E-03     125.323E-03     241.805E-03     238.087E-03    -819.913E-03     238.595E-03    -819.872E-03     241.255E-03     2.14935E-03     667.608E-03    -332.310E-03    -336.343E-03    -327.595E-03     658.860E-03    -332.310E-03     186.582E-03     5.23602E+06     127.445E+03    -3.08751E+06    -1.29633E+06     3.90772E+06    -335.443E+03     1.17118E+06         84.6384
            1324     10.0276E-03     125.584E-03     240.774E-03     235.937E-03    -816.716E-03     235.916E-03    -816.695E-03     240.774E-03     5.86105E-03     670.828E-03    -331.883E-03    -339.351E-03    -328.286E-03     659.763E-03    -331.883E-03     209.448E-03     6.83721E+06     58.9509E+03    -5.20691E+06    -2.11201E+06     4.20519E+06    -403.937E+03     1.08249E+06         85.9546
            1325     10.7681E-03     125.813E-03     240.235E-03     235.611E-03    -814.983E-03     235.591E-03    -814.964E-03     240.235E-03     563.415E-06     670.667E-03    -332.103E-03    -340.262E-03    -328.690E-03     659.095E-03    -332.103E-03     214.646E-03     10.7820E+06    -378.633E+03    -7.50218E+06    -1.83837E+06     5.11822E+06    -378.633E+03     603.330E+03         87.7737
            1326     11.4661E-03     126.165E-03     239.611E-03     234.089E-03    -811.982E-03     234.053E-03    -811.946E-03     239.611E-03     5.28538E-03     685.476E-03    -332.032E-03    -354.649E-03    -337.754E-03     668.582E-03    -332.032E-03     257.982E-03     12.1601E+06     1.58461E+06    -10.4846E+06    -667.522E+03     2.20246E+06     1.72524E+06    -228.487E+03         90.0605
            1327     12.1919E-03     126.685E-03     238.973E-03     233.584E-03    -808.587E-03     233.541E-03    -808.545E-03     238.973E-03     2.13248E-03     687.306E-03    -332.869E-03    -355.391E-03    -340.364E-03     672.279E-03    -332.869E-03     237.643E-03     11.7638E+06     5.87467E+06    -13.1565E+06     2.05731E+06    -3.98104E+06     6.40566E+06     271.701E+03         92.5425
            1328     715.495E-06     125.746E-03         1.15152     260.410E-03        -1.74457     227.161E-03    -820.211E-03     260.410E-03         1.16584     669.434E-03    -334.159E-03    -335.208E-03    -334.505E-03     669.433E-03    -334.861E-03     715.342E-06     116.071E+03    -4.13683E+06    -10.3555E+06    -3.34354E+06    -9.96011E+06    -1.07264E+06     60.1034E+03         76.7638
            1329     1.43307E-03     125.782E-03     495.362E-03     243.074E-03        -1.07530     239.598E-03    -819.539E-03     243.074E-03    -368.605E-03     667.214E-03    -333.045E-03    -334.475E-03    -333.040E-03     667.209E-03    -334.475E-03     3.67359E-03    -400.680E+03    -3.03018E+06    -9.93576E+06    -3.05554E+06    -9.00179E+06    -1.30928E+06     128.069E+03         76.8755
            1330     2.14948E-03     125.812E-03     321.316E-03     242.977E-03    -902.075E-03     246.513E-03    -827.272E-03     242.977E-03     201.587E-03     663.851E-03    -331.050E-03    -333.689E-03    -331.021E-03     663.822E-03    -333.689E-03     9.84404E-03     737.262E+03    -2.07541E+06    -9.86474E+06    -2.54646E+06    -8.26330E+06    -393.132E+03     354.419E+03         77.0573
            1331     2.86869E-03     125.831E-03     263.029E-03     243.652E-03    -842.602E-03     243.217E-03    -822.789E-03     243.652E-03    -73.0934E-03     659.164E-03    -328.432E-03    -331.829E-03    -328.321E-03     659.053E-03    -331.829E-03     20.0913E-03     3.86846E+06     206.347E+03    -9.55055E+06    -2.29050E+06    -6.60895E+06     3.42371E+06    -347.586E+03         77.3465
            1332     3.58557E-03     125.856E-03     249.397E-03     240.982E-03    -826.823E-03     240.624E-03    -820.556E-03     243.488E-03     59.0234E-03     657.187E-03    -327.315E-03    -331.350E-03    -326.978E-03     656.850E-03    -331.350E-03     35.2306E-03     6.03446E+06    -132.461E+03    -8.97667E+06    -1.95332E+06    -4.10369E+06     2.98233E+06    -684.609E+03         77.7926
            1333     4.30132E-03     125.897E-03     246.165E-03     240.461E-03    -823.854E-03     241.376E-03    -821.850E-03     243.246E-03    -2.01891E-03     655.103E-03    -325.464E-03    -330.571E-03    -324.642E-03     654.281E-03    -330.571E-03     55.4467E-03     4.19939E+06    -1.46290E+06    -7.50196E+06    -2.72674E+06    -2.02745E+06     -11.267E+03     720.792E+03         78.4115
            1334     5.01999E-03     125.919E-03     244.742E-03     239.531E-03    -821.152E-03     239.967E-03    -819.883E-03     243.038E-03     16.8506E-03     651.831E-03    -322.931E-03    -329.593E-03    -321.269E-03     650.168E-03    -329.593E-03     79.1307E-03     6.27150E+06    -2.41753E+06    -9.60662E+06    -1.90228E+06    -1.38692E+06    -2.46345E+06     2.38859E+06         79.1780
            1335     5.74786E-03     125.975E-03     243.991E-03     235.946E-03    -817.178E-03     236.226E-03    -816.218E-03     242.750E-03     9.04962E-03     651.687E-03    -321.991E-03    -329.503E-03    -319.213E-03     648.909E-03    -329.503E-03     103.174E-03     9.37242E+06    -4.00712E+06    -12.0196E+06    -1.18022E+06    -1.46698E+06    -4.00712E+06     1.64802E+06         80.0390
            1336     6.44176E-03     126.340E-03     243.808E-03     235.377E-03    -814.819E-03     235.908E-03    -814.110E-03     242.568E-03     20.9149E-03     656.097E-03    -325.683E-03    -331.555E-03    -321.718E-03     652.133E-03    -331.555E-03     124.121E-03     7.40189E+06    -2.41610E+06    -10.5691E+06    -1.75962E+06    -1.40759E+06    -2.41610E+06     849.320E+03         80.9693
            1337     7.14287E-03     126.564E-03     242.451E-03     234.276E-03    -810.734E-03     234.285E-03    -810.551E-03     242.259E-03    -2.25912E-03     661.931E-03    -329.416E-03    -332.905E-03    -324.269E-03     656.783E-03    -332.905E-03     142.173E-03     7.06688E+06    -424.697E+03    -6.92672E+06    -1.52223E+06     1.66239E+06    -424.697E+03     911.040E+03         81.9152
            1338     7.87481E-03     126.668E-03     241.801E-03     232.897E-03    -808.539E-03     232.986E-03    -808.437E-03     241.610E-03     18.2163E-03     664.331E-03    -329.357E-03    -331.504E-03    -322.849E-03     657.823E-03    -331.504E-03     159.973E-03     7.49553E+06     29.3197E+03    -4.31767E+06    -1.29387E+06     4.47173E+06     29.3197E+03     793.063E+03         82.7932
            1339     8.61049E-03     126.796E-03     240.851E-03     233.054E-03    -807.136E-03     233.010E-03    -807.092E-03     240.851E-03     2.03743E-03     662.767E-03    -330.936E-03    -332.171E-03    -323.584E-03     654.888E-03    -331.644E-03     176.184E-03     5.85729E+06     152.524E+03    -4.09623E+06    -645.638E+03     1.37318E+06     1.18603E+06     1.27070E+06         83.5940
            1340     9.29408E-03     127.266E-03     240.140E-03     233.717E-03    -806.146E-03     233.646E-03    -806.075E-03     240.140E-03     6.40702E-03     665.895E-03    -332.278E-03    -335.426E-03    -326.728E-03     657.207E-03    -332.288E-03     185.714E-03     5.93167E+06     542.408E+03    -3.27357E+06    -188.415E+03     2.27590E+06     1.11303E+06     1.59008E+06         84.5070
            1341     10.0349E-03     127.483E-03     239.455E-03     232.040E-03    -803.553E-03     231.980E-03    -803.493E-03     239.455E-03     6.48188E-03     670.803E-03    -331.837E-03    -339.150E-03    -328.430E-03     660.083E-03    -331.837E-03     206.225E-03     10.3037E+06     1.61776E+06    -3.21645E+06     998.010E+03     6.55211E+06     1.15487E+06     1.24116E+06         85.8054
            1342     10.7607E-03     127.724E-03     238.689E-03     230.039E-03    -800.784E-03     230.015E-03    -800.760E-03     238.689E-03     1.49960E-03     671.393E-03    -332.114E-03    -341.025E-03    -329.777E-03     660.144E-03    -332.114E-03     211.860E-03     12.9951E+06     1.88174E+06    -5.37077E+06     796.965E+03     6.82737E+06     1.88174E+06    -270.570E+03         87.6183
            1343     11.4586E-03     128.075E-03     237.772E-03     229.648E-03    -797.857E-03     229.622E-03    -797.831E-03     237.772E-03     1.90943E-03     685.074E-03    -331.996E-03    -354.396E-03    -337.626E-03     668.305E-03    -331.996E-03     256.757E-03     12.9448E+06     4.35480E+06    -10.7678E+06     288.140E+03     1.74821E+06     4.49543E+06    -641.886E+03         89.9222
            1344     12.1941E-03     128.528E-03     236.772E-03     228.165E-03    -792.361E-03     228.147E-03    -792.343E-03     236.772E-03    -1.99497E-03     686.965E-03    -332.784E-03    -355.224E-03    -340.294E-03     672.035E-03    -332.784E-03     236.552E-03     10.8759E+06     4.59647E+06    -16.4770E+06    -1.63685E+06    -4.10486E+06     4.73710E+06    -67.9459E+03         92.4101
            1345     715.442E-06     127.701E-03         1.30035     260.690E-03        -1.88978     250.340E-03    -839.770E-03     260.690E-03         1.28984     671.348E-03    -333.993E-03    -337.241E-03    -336.626E-03     671.348E-03    -334.608E-03     522.074E-06    -1.53715E+06    -5.75745E+06    -12.2198E+06    -4.09690E+06    -11.4171E+06    -4.00046E+06     561.635E+03         77.3336
            1346     1.43027E-03     127.721E-03     547.957E-03     254.276E-03        -1.13051     248.648E-03    -831.200E-03     254.276E-03    -412.206E-03     668.068E-03    -333.070E-03    -335.213E-03    -333.066E-03     668.064E-03    -335.213E-03     3.25940E-03    -2.39288E+06    -3.90376E+06    -12.1889E+06    -4.11353E+06    -10.8819E+06    -3.49007E+06     821.262E+03         77.5163
            1347     2.14918E-03     127.716E-03     338.870E-03     251.624E-03    -919.709E-03     243.641E-03    -824.480E-03     251.624E-03     202.840E-03     664.381E-03    -331.021E-03    -334.150E-03    -330.987E-03     664.348E-03    -334.150E-03     10.4010E-03    -507.741E+03    -2.93664E+06    -11.8896E+06    -3.83307E+06    -9.82554E+06    -1.67540E+06     888.321E+03         77.7540
            1348     2.86632E-03     127.715E-03     275.294E-03     249.928E-03    -854.277E-03     246.831E-03    -825.814E-03     249.928E-03    -99.0382E-03     659.301E-03    -328.137E-03    -332.127E-03    -328.002E-03     659.165E-03    -332.127E-03     21.9744E-03     2.90527E+06    -1.22079E+06    -8.16655E+06    -3.11619E+06    -4.60674E+06     1.24087E+06     1.02624E+06         78.0321
            1349     3.58416E-03     127.732E-03     258.134E-03     246.801E-03    -833.148E-03     246.780E-03    -824.300E-03     249.307E-03     52.2813E-03     655.966E-03    -326.237E-03    -331.512E-03    -325.845E-03     655.574E-03    -331.512E-03     37.9960E-03     4.49042E+06    -219.344E+03    -7.70256E+06    -2.92478E+06    -3.55452E+06     3.04781E+06     968.243E+03         78.4358
            1350     4.30407E-03     127.779E-03     250.439E-03     242.933E-03    -821.924E-03     241.627E-03    -818.683E-03     248.505E-03    -21.4498E-03     652.851E-03    -323.926E-03    -330.625E-03    -323.010E-03     651.935E-03    -330.625E-03     58.6316E-03     5.03342E+06     2.39047E+06    -10.7774E+06    -1.53690E+06    -6.19162E+06     4.37505E+06     1.23083E+06         79.0247
            1351     5.03156E-03     127.808E-03     247.281E-03     239.633E-03    -816.853E-03     238.063E-03    -815.283E-03     247.281E-03     13.4689E-03     650.859E-03    -322.142E-03    -329.302E-03    -320.383E-03     649.099E-03    -329.302E-03     81.7247E-03     7.98031E+06     2.83537E+06    -12.0673E+06    -75.6971E+03    -4.01131E+06     2.83537E+06     1.48985E+06         79.7709
            1352     5.75416E-03     127.854E-03     245.910E-03     235.334E-03    -810.840E-03     234.351E-03    -809.857E-03     245.910E-03    -2.59638E-03     652.138E-03    -322.365E-03    -329.263E-03    -319.555E-03     649.329E-03    -329.263E-03     103.947E-03     10.1163E+06     968.950E+03    -11.7551E+06    -780.382E+03    -858.389E+03     968.950E+03     1.58098E+06         80.6051
            1353     6.44877E-03     128.116E-03     244.429E-03     231.262E-03    -804.129E-03     230.677E-03    -803.544E-03     244.429E-03     14.4523E-03     656.254E-03    -325.495E-03    -331.633E-03    -321.695E-03     652.454E-03    -331.633E-03     121.720E-03     10.0175E+06    -688.076E+03    -9.50855E+06    -948.172E+03     1.45714E+06    -688.076E+03     2.22076E+06         81.5084
            1354     7.14715E-03     128.378E-03     242.882E-03     228.291E-03    -798.786E-03     228.128E-03    -798.623E-03     242.882E-03    -8.10651E-03     661.819E-03    -329.093E-03    -332.837E-03    -324.201E-03     656.927E-03    -332.837E-03     138.603E-03     8.38380E+06    -572.796E+03    -6.08843E+06    -929.033E+03     3.86673E+06    -1.21512E+06     1.02326E+06         82.4231
            1355     7.87736E-03     128.495E-03     241.386E-03     226.812E-03    -795.087E-03     226.754E-03    -795.029E-03     241.386E-03     14.4272E-03     664.273E-03    -329.675E-03    -331.243E-03    -323.334E-03     657.932E-03    -331.243E-03     157.940E-03     7.79203E+06     590.284E+03    -3.66957E+06    -180.600E+03     4.94538E+06    -52.0416E+03    -465.279E+03         83.2576
            1356     8.61436E-03     128.616E-03     239.985E-03     226.322E-03    -792.482E-03     226.240E-03    -792.400E-03     239.985E-03    -4.39342E-03     662.106E-03    -331.053E-03    -331.588E-03    -323.436E-03     654.375E-03    -331.474E-03     174.435E-03     5.83442E+06     44.6094E+03    -5.05753E+06    -76.2301E+03    -646.697E+03     1.54443E+06     285.897E+03         84.0214
            1357     9.30498E-03     129.059E-03     238.653E-03     226.046E-03    -790.327E-03     225.945E-03    -790.225E-03     238.653E-03    -1.64493E-03     665.359E-03    -332.280E-03    -334.835E-03    -326.369E-03     656.903E-03    -332.290E-03     183.130E-03     6.40096E+06     317.509E+03    -4.86041E+06    -243.295E+03     284.025E+03     1.81733E+06     555.404E+03         84.8843
            1358     10.0361E-03     129.294E-03     237.403E-03     225.708E-03    -788.650E-03     225.612E-03    -788.554E-03     237.403E-03    -562.076E-06     670.472E-03    -331.754E-03    -338.590E-03    -328.084E-03     659.966E-03    -331.754E-03     203.984E-03     11.2645E+06     1.33787E+06    -3.38925E+06     525.068E+03     7.35014E+06     1.33787E+06     78.3582E+03         86.1009
            1359     10.7713E-03     129.511E-03     236.132E-03     224.617E-03    -785.364E-03     224.562E-03    -785.309E-03     236.132E-03    -8.25656E-03     671.008E-03    -331.961E-03    -340.357E-03    -329.120E-03     659.771E-03    -331.961E-03     211.706E-03     11.4408E+06     1.68283E+06    -5.28299E+06    -183.719E+03     6.34156E+06     1.68283E+06     560.592E+03         87.8153
            1360     11.4668E-03     129.872E-03     234.587E-03     221.883E-03    -780.033E-03     221.823E-03    -779.973E-03     234.587E-03    -8.83461E-03     685.124E-03    -331.911E-03    -354.452E-03    -337.462E-03     668.134E-03    -331.911E-03     258.370E-03     13.3810E+06     2.72873E+06    -11.6372E+06    -859.649E+03     2.60354E+06     2.72873E+06     1.47973E+06         90.0212
            1361     12.1977E-03     130.345E-03     232.937E-03     220.482E-03    -775.728E-03     220.414E-03    -775.659E-03     232.937E-03    -8.01507E-03     686.938E-03    -332.730E-03    -355.578E-03    -340.385E-03     671.744E-03    -332.730E-03     238.867E-03     14.7062E+06     3.60213E+06    -16.9449E+06    -155.489E+03    -2.08328E+06     3.60213E+06     1.16492E+06         92.4402
            1362     712.290E-06     129.638E-03         1.27111     241.343E-03        -1.83306     258.883E-03    -820.835E-03     241.343E-03         1.24694     671.125E-03    -334.179E-03    -337.116E-03    -336.545E-03     671.123E-03    -334.747E-03     1.20344E-03    -2.71926E+06    -7.74172E+06    -14.8840E+06    -6.76729E+06    -13.3951E+06    -5.18257E+06     149.511E+03         77.5018
            1363     1.42904E-03     129.654E-03     539.863E-03     249.671E-03        -1.11265     249.050E-03    -821.833E-03     249.671E-03    -390.368E-03     668.071E-03    -333.122E-03    -335.084E-03    -333.108E-03     668.057E-03    -335.084E-03     6.21867E-03    -3.69027E+06    -5.71919E+06    -13.5744E+06    -5.23619E+06    -12.4010E+06    -5.34661E+06     466.634E+03         77.7439
            1364     2.14606E-03     129.651E-03     341.394E-03     248.791E-03    -914.532E-03     244.572E-03    -817.710E-03     248.791E-03     194.796E-03     664.289E-03    -330.975E-03    -334.116E-03    -330.923E-03     664.237E-03    -334.116E-03     13.4939E-03    -1.41302E+06    -5.29871E+06    -13.1040E+06    -4.49067E+06    -11.2054E+06    -4.11963E+06     655.990E+03         78.0647
            1365     2.86694E-03     129.642E-03     275.904E-03     247.826E-03    -846.843E-03     245.641E-03    -816.580E-03     247.826E-03    -102.641E-03     658.381E-03    -327.386E-03    -331.924E-03    -327.223E-03     658.218E-03    -331.924E-03     24.3886E-03     685.574E+03    -3.38831E+06    -10.0531E+06    -4.16658E+06    -6.63060E+06    -1.95862E+06     1.08075E+06         78.4111
            1366     3.58763E-03     129.645E-03     254.328E-03     245.834E-03    -821.143E-03     243.646E-03    -811.789E-03     247.162E-03     56.4270E-03     654.901E-03    -325.346E-03    -331.099E-03    -324.934E-03     654.489E-03    -331.099E-03     39.2792E-03     960.683E+03    -3.48671E+06    -7.81836E+06    -3.71690E+06    -3.80111E+06    -2.82638E+06     1.21574E+06         78.8477
            1367     4.30722E-03     129.678E-03     248.629E-03     242.208E-03    -811.172E-03     241.554E-03    -808.212E-03     246.323E-03    -26.8773E-03     652.724E-03    -324.002E-03    -330.296E-03    -323.121E-03     651.843E-03    -330.296E-03     57.7162E-03     3.60559E+06    -586.688E+03    -10.9804E+06    -2.75768E+06    -5.02685E+06    -176.959E+03     513.405E+03         79.4362
            1368     5.02908E-03     129.705E-03     245.642E-03     238.730E-03    -805.580E-03     237.770E-03    -804.249E-03     245.270E-03     6.99718E-03     651.183E-03    -323.085E-03    -329.224E-03    -321.412E-03     649.509E-03    -329.224E-03     79.7621E-03     7.43182E+06     3.83061E+06    -15.2297E+06    -2.00308E+06    -5.79478E+06     3.83061E+06     753.631E+03         80.1777
            1369     5.74786E-03     129.791E-03     243.824E-03     234.802E-03    -800.965E-03     233.783E-03    -799.945E-03     243.824E-03    -2.40530E-03     652.869E-03    -323.364E-03    -329.639E-03    -320.698E-03     650.202E-03    -329.639E-03     101.422E-03     9.46567E+06     4.39848E+06    -14.1793E+06    -1.75685E+06    -2.95682E+06     4.39848E+06     1.91028E+06         81.0369
            1370     6.43349E-03     130.143E-03     242.047E-03     230.263E-03    -795.617E-03     229.654E-03    -795.008E-03     242.047E-03     14.8193E-03     657.834E-03    -326.374E-03    -332.185E-03    -322.667E-03     654.126E-03    -332.185E-03     120.258E-03     9.94828E+06     4.60601E+06    -8.44101E+06    -465.115E+03     1.82219E+06     4.75621E+06     1.18574E+06         81.9711
            1371     7.14410E-03     130.278E-03     240.275E-03     226.697E-03    -790.132E-03     226.537E-03    -789.971E-03     240.275E-03    -8.87339E-03     662.787E-03    -329.683E-03    -333.079E-03    -324.762E-03     657.866E-03    -333.079E-03     139.098E-03     10.3073E+06     4.27881E+06    -3.79775E+06     636.657E+03     6.36502E+06     3.78668E+06     579.445E+03         82.8918
            1372     7.87761E-03     130.387E-03     238.682E-03     225.405E-03    -785.868E-03     225.373E-03    -785.836E-03     238.682E-03     7.77987E-03     664.017E-03    -329.524E-03    -331.344E-03    -323.150E-03     657.643E-03    -331.344E-03     158.334E-03     10.4832E+06     2.61407E+06    -4.26298E+06     627.814E+03     5.56237E+06     2.64415E+06     542.677E+03         83.7156
            1373     8.61238E-03     130.514E-03     237.004E-03     224.275E-03    -781.157E-03     224.177E-03    -781.059E-03     237.004E-03    -13.3921E-03     662.129E-03    -330.601E-03    -331.663E-03    -322.963E-03     654.377E-03    -331.549E-03     174.628E-03     6.89452E+06     763.456E+03    -5.93393E+06    -3.67606E+03    -1.56033E+06     3.28806E+06     728.929E+03         84.4381
            1374     9.28736E-03     131.007E-03     235.124E-03     221.458E-03    -775.258E-03     221.346E-03    -775.146E-03     235.124E-03    -13.4611E-03     665.456E-03    -332.083E-03    -334.344E-03    -325.456E-03     656.750E-03    -332.265E-03     185.662E-03     7.03833E+06     803.073E+03    -3.97098E+06    -90.4522E+03     1.30560E+06     2.65528E+06     724.609E+03         85.2399
            1375     10.0364E-03     131.173E-03     233.392E-03     219.845E-03    -771.655E-03     219.718E-03    -771.528E-03     233.392E-03    -14.4408E-03     670.214E-03    -331.689E-03    -338.348E-03    -327.350E-03     659.217E-03    -331.689E-03     208.628E-03     9.33601E+06     1.36048E+06    -3.84143E+06    -439.733E+03     5.93432E+06     1.36048E+06     865.410E+03         86.4155
            1376     10.7709E-03     131.392E-03     231.794E-03     218.939E-03    -768.475E-03     218.812E-03    -768.347E-03     231.794E-03    -10.8104E-03     671.424E-03    -331.864E-03    -341.040E-03    -329.380E-03     659.764E-03    -331.864E-03     215.715E-03     9.55280E+06     859.110E+03    -5.76416E+06    -913.685E+03     4.70232E+06     859.110E+03     1.72222E+06         88.0671
            1377     11.4672E-03     131.731E-03     230.087E-03     218.123E-03    -765.353E-03     217.998E-03    -765.228E-03     230.087E-03    -10.6525E-03     685.449E-03    -331.903E-03    -354.742E-03    -337.502E-03     668.210E-03    -331.903E-03     260.603E-03     14.5255E+06     1.52225E+06    -9.72942E+06     186.807E+03     4.60923E+06     1.52225E+06     1.71449E+06         90.1759
            1378     12.2013E-03     132.174E-03     228.546E-03     219.154E-03    -763.516E-03     218.969E-03    -763.331E-03     228.546E-03    -3.19826E-03     686.494E-03    -332.709E-03    -355.197E-03    -339.909E-03     671.206E-03    -332.709E-03     239.452E-03     15.1437E+06     2.80753E+06    -15.3788E+06     171.163E+03    -406.302E+03     2.80753E+06     800.373E+03         92.5040
            1379     717.822E-06     131.558E-03         1.08017     220.567E-03        -1.61330     259.501E-03    -792.634E-03     220.567E-03         1.05908     669.365E-03    -334.112E-03    -335.526E-03    -334.328E-03     669.363E-03    -335.307E-03     1.38931E-03    -1.91185E+06    -8.23735E+06    -15.0020E+06    -6.16617E+06    -13.3068E+06    -5.67820E+06    -195.167E+03         77.2922
            1380     1.43264E-03     131.567E-03     472.253E-03     241.293E-03        -1.02856     245.631E-03    -801.938E-03     241.293E-03    -326.063E-03     668.009E-03    -333.576E-03    -334.588E-03    -333.697E-03     667.994E-03    -334.452E-03     6.31479E-03    -3.78228E+06    -6.21705E+06    -13.7323E+06    -5.57892E+06    -12.3082E+06    -5.84447E+06    -173.373E+03         77.5521
            1381     2.15012E-03     131.560E-03     317.659E-03     242.449E-03    -875.398E-03     242.523E-03    -800.261E-03     242.449E-03     165.519E-03     663.756E-03    -331.317E-03    -333.452E-03    -331.263E-03     663.702E-03    -333.452E-03     13.8009E-03    -1.90189E+06    -5.72873E+06    -14.3350E+06    -5.36162E+06    -11.7928E+06    -4.81121E+06     88.5896E+03         77.9205
            1382     2.86773E-03     131.528E-03     265.326E-03     242.359E-03    -823.478E-03     240.862E-03    -799.014E-03     242.359E-03    -78.1735E-03     658.303E-03    -328.119E-03    -331.581E-03    -327.961E-03     658.145E-03    -331.581E-03     24.2021E-03     950.002E+03     -3.0345E+06    -13.2578E+06    -4.25415E+06    -9.55648E+06    -1.53171E+06     311.251E+03         78.3565
            1383     3.58839E-03     131.513E-03     244.386E-03     239.983E-03    -799.414E-03     234.366E-03    -790.907E-03     241.497E-03     56.9294E-03     656.004E-03    -326.757E-03    -330.806E-03    -326.366E-03     655.613E-03    -330.806E-03     38.3372E-03     2.82114E+06    -1.53273E+06    -10.1739E+06    -3.00014E+06    -5.08192E+06    -803.437E+03     126.330E+03         78.8696
            1384     4.30776E-03     131.539E-03     240.775E-03     238.563E-03    -792.374E-03     236.445E-03    -789.884E-03     240.403E-03    -23.2594E-03     654.596E-03    -325.595E-03    -330.120E-03    -324.735E-03     653.736E-03    -330.120E-03     57.0523E-03     5.20611E+06    -259.140E+03    -11.7836E+06    -2.32686E+06    -4.39468E+06    -115.115E+03     529.757E+03         79.4728
            1385     5.02920E-03     131.569E-03     240.026E-03     236.431E-03    -788.926E-03     235.748E-03    -787.872E-03     239.655E-03     11.0131E-03     651.799E-03    -323.607E-03    -329.384E-03    -321.953E-03     650.144E-03    -329.384E-03     79.3331E-03     7.54013E+06     1.04643E+06    -16.0460E+06    -1.45839E+06    -7.04745E+06     1.04643E+06     946.760E+03         80.1875
            1386     5.75035E-03     131.643E-03     238.340E-03     230.579E-03    -783.125E-03     229.852E-03    -782.398E-03     238.340E-03    -738.049E-06     652.369E-03    -322.510E-03    -330.135E-03    -319.903E-03     649.763E-03    -330.135E-03     100.257E-03     9.46419E+06     859.101E+03    -10.6363E+06    -1.23261E+06     60.5001E+03     859.101E+03     735.524E+03         81.0134
            1387     6.42654E-03     132.008E-03     236.330E-03     225.785E-03    -777.170E-03     225.295E-03    -776.680E-03     236.330E-03     9.79599E-03     658.643E-03    -326.302E-03    -332.696E-03    -322.580E-03     654.920E-03    -332.696E-03     120.420E-03     7.86888E+06     295.318E+03    -6.35570E+06    -1.39022E+06     2.75320E+06     445.511E+03     452.971E+03         81.9182
            1388     7.14474E-03     132.145E-03     234.457E-03     223.482E-03    -773.288E-03     223.327E-03    -773.133E-03     234.457E-03    -14.9801E-03     663.985E-03    -330.244E-03    -333.369E-03    -325.214E-03     658.955E-03    -333.369E-03     140.750E-03     7.38917E+06     1.94552E+06    -5.59791E+06    -880.464E+03     2.52153E+06     2.09572E+06     573.087E+03         82.8254
            1389     7.87355E-03     132.247E-03     232.972E-03     223.179E-03    -770.654E-03     223.152E-03    -770.627E-03     232.972E-03    -453.551E-06     664.416E-03    -329.691E-03    -331.548E-03    -323.076E-03     657.801E-03    -331.548E-03     161.186E-03     10.4096E+06     2.94900E+06    -5.43014E+06    -450.005E+03     4.75705E+06     3.62139E+06     1.57434E+06         83.6466
            1390     8.60849E-03     132.380E-03     231.455E-03     223.677E-03    -767.770E-03     223.590E-03    -767.683E-03     231.455E-03    -14.2971E-03     661.866E-03    -330.360E-03    -331.640E-03    -322.300E-03     653.807E-03    -331.640E-03     177.994E-03     7.97966E+06    -151.792E+03    -6.31290E+06    -1.80975E+06    -824.991E+03     4.14970E+06     1.07552E+06         84.3544
            1391     9.29071E-03     132.842E-03     229.856E-03     222.708E-03    -763.481E-03     222.545E-03    -763.318E-03     229.856E-03    -7.45448E-03     664.965E-03    -331.722E-03    -334.122E-03    -324.777E-03     656.118E-03    -332.221E-03     187.088E-03     5.43784E+06    -565.867E+03    -4.16603E+06    -2.43739E+06     80.1033E+03     3.06323E+06     1.22044E+06         85.1404
            1392     10.0415E-03     132.994E-03     228.499E-03     218.944E-03    -758.518E-03     218.777E-03    -758.351E-03     228.499E-03    -7.39451E-03     670.577E-03    -331.711E-03    -338.435E-03    -327.509E-03     659.651E-03    -331.711E-03     208.106E-03     7.11742E+06     2.09055E+06    -4.04079E+06    -1.57969E+06     4.65632E+06     2.09055E+06     1.99874E+06         86.3269
            1393     10.7673E-03     133.214E-03     227.234E-03     216.534E-03    -754.970E-03     216.376E-03    -754.811E-03     227.234E-03    -1.48972E-03     671.692E-03    -331.945E-03    -341.130E-03    -329.576E-03     660.138E-03    -331.945E-03     214.824E-03     9.22591E+06     2.74939E+06    -6.28877E+06    -1.04826E+06     3.98541E+06     2.74939E+06     1.48016E+06         88.0085
            1394     11.4647E-03     133.564E-03     225.898E-03     216.797E-03    -752.276E-03     216.598E-03    -752.076E-03     225.898E-03    -4.60070E-03     685.634E-03    -331.937E-03    -354.525E-03    -337.548E-03     668.657E-03    -331.937E-03     258.882E-03     15.5234E+06     4.06210E+06    -10.6889E+06    -809.502E+03     5.64406E+06     4.06210E+06     936.067E+03         90.1491
            1395     12.2014E-03     133.968E-03     224.600E-03     214.634E-03    -746.516E-03     214.278E-03    -746.160E-03     224.600E-03     4.47195E-03     686.846E-03    -332.719E-03    -355.257E-03    -340.419E-03     672.007E-03    -332.719E-03     235.393E-03     15.3050E+06     5.50194E+06    -15.2247E+06    -1.46138E+06     1.54162E+06     5.50194E+06     651.486E+03         92.4834
            1396     715.636E-06     133.438E-03     813.431E-03     202.068E-03        -1.32081     255.447E-03    -762.829E-03     202.068E-03     776.702E-03     669.603E-03    -333.262E-03    -336.360E-03    -335.278E-03     669.603E-03    -334.344E-03     824.474E-06    -1.93956E+06    -7.84516E+06    -15.5384E+06    -5.45819E+06    -13.0577E+06    -6.80724E+06     100.875E+03         77.0451
            1397     1.43243E-03     133.444E-03     383.687E-03     230.775E-03    -918.688E-03     238.483E-03    -773.484E-03     230.775E-03    -256.025E-03     668.753E-03    -334.251E-03    -334.753E-03    -334.382E-03     668.748E-03    -334.617E-03     3.87411E-03    -2.99110E+06    -5.97436E+06    -15.5744E+06    -6.35705E+06    -12.2084E+06    -5.97436E+06     61.0276E+03         77.3136
            1398     2.14974E-03     133.424E-03     274.476E-03     232.308E-03    -810.860E-03     229.156E-03    -765.540E-03     232.308E-03     121.466E-03     663.561E-03    -331.632E-03    -333.192E-03    -331.597E-03     663.526E-03    -333.192E-03     10.8389E-03    -1.10809E+06    -3.76643E+06    -15.4000E+06    -6.72223E+06    -10.9167E+06    -2.63558E+06     321.912E+03         77.7219
            1399     2.87007E-03     133.396E-03     244.119E-03     231.727E-03    -783.605E-03     229.650E-03    -769.136E-03     231.727E-03    -62.9453E-03     658.837E-03    -328.970E-03    -331.517E-03    -328.833E-03     658.700E-03    -331.517E-03     22.1534E-03     596.535E+03    -2.61583E+06    -15.0876E+06    -6.40797E+06    -10.0153E+06    -683.588E+03     48.4606E+03         78.2299
            1400     3.58932E-03     133.373E-03     238.253E-03     231.533E-03    -778.089E-03     233.080E-03    -773.101E-03     231.719E-03     34.8588E-03     657.292E-03    -328.026E-03    -330.875E-03    -327.628E-03     656.895E-03    -330.875E-03     38.3930E-03     2.34896E+06    -2.18677E+06    -13.0354E+06    -5.06088E+06    -6.57094E+06    -1.24135E+06    -78.6601E+03         78.7914
            1401     4.30638E-03     133.390E-03     236.295E-03     229.963E-03    -773.236E-03     232.655E-03    -771.498E-03     231.865E-03    -18.0888E-03     655.020E-03    -325.698E-03    -330.146E-03    -324.800E-03     654.121E-03    -330.146E-03     58.3541E-03      4.6794E+06    -1.02710E+06    -14.5796E+06    -4.19851E+06    -5.84570E+06    -883.071E+03     417.702E+03         79.3922
            1402     5.02779E-03     133.420E-03     231.310E-03     226.538E-03    -763.212E-03     225.841E-03    -762.515E-03     231.310E-03     10.0793E-03     651.381E-03    -323.395E-03    -329.556E-03    -321.686E-03     649.671E-03    -329.556E-03     80.5951E-03     5.56019E+06    -1.89536E+06    -15.8320E+06    -4.90679E+06    -5.36502E+06    -1.89536E+06     971.059E+03         80.0752
            1403     5.74536E-03     133.491E-03     229.945E-03     224.739E-03    -758.949E-03     224.560E-03    -758.631E-03     229.806E-03    -6.92183E-03     652.566E-03    -323.004E-03    -330.344E-03    -320.290E-03     649.853E-03    -330.344E-03     102.251E-03     5.79211E+06    -3.34933E+06    -9.54367E+06    -3.52331E+06    -228.241E+03    -3.34933E+06     461.305E+03         80.8671
            1404     6.43034E-03     133.857E-03     229.706E-03     223.088E-03    -757.623E-03     224.562E-03    -757.434E-03     228.044E-03     1.84252E-03     659.022E-03    -326.482E-03    -332.773E-03    -322.612E-03     655.152E-03    -332.773E-03     122.854E-03     4.89624E+06    -4.05136E+06    -6.54873E+06    -3.29684E+06     1.76222E+06    -4.16923E+06      2.2035E+03         81.7433
            1405     7.14464E-03     133.981E-03     228.344E-03     222.008E-03    -755.808E-03     223.421E-03    -755.698E-03     226.820E-03    -10.9026E-03     663.322E-03    -329.591E-03    -333.424E-03    -324.456E-03     658.187E-03    -333.424E-03     142.173E-03     3.62904E+06    -4.34763E+06    -6.96178E+06    -4.24099E+06     1.02612E+06     -4.4655E+06     634.229E+03         82.6135
            1406     7.87725E-03     134.087E-03     227.049E-03     222.546E-03    -754.850E-03     223.481E-03    -754.826E-03     226.090E-03     614.347E-06     663.320E-03    -328.815E-03    -331.492E-03    -322.129E-03     656.634E-03    -331.492E-03     161.901E-03     4.93574E+06    -3.72403E+06    -9.81555E+06    -4.82132E+06    -58.4861E+03    -3.72403E+06     2.26191E+06         83.4030
            1407     8.61467E-03     134.198E-03     227.996E-03     223.233E-03    -755.391E-03     225.829E-03    -755.333E-03     225.343E-03    -10.8687E-03     662.100E-03    -330.129E-03    -332.188E-03    -322.784E-03     654.085E-03    -331.518E-03     177.626E-03     4.68101E+06    -2.69329E+06    -8.26425E+06    -3.81558E+06    -2.01086E+06    -450.079E+03     1.31520E+06         84.1159
            1408     9.28937E-03     134.649E-03     227.321E-03     222.667E-03    -751.987E-03     225.314E-03    -751.831E-03     224.518E-03     2.98452E-03     666.698E-03    -331.913E-03    -335.513E-03    -326.629E-03     658.132E-03    -332.230E-03     184.488E-03     5.22227E+06    -1.08021E+06    -4.14608E+06    -2.91980E+06     1.75279E+06     1.16300E+06     355.367E+03         84.9285
            1409     10.0353E-03     134.798E-03     226.356E-03     219.808E-03    -748.012E-03     222.063E-03    -747.747E-03     223.835E-03    -2.86810E-03     671.160E-03    -331.857E-03    -338.549E-03    -328.004E-03     660.614E-03    -331.857E-03     204.517E-03     8.64732E+06     1.82027E+06    -4.91537E+06    -2.69210E+06     6.42405E+06     1.82027E+06     686.978E+03         86.1420
            1410     10.7679E-03     135.013E-03     224.425E-03     216.451E-03    -743.616E-03     217.487E-03    -743.241E-03     223.013E-03     2.77056E-03     671.057E-03    -332.133E-03    -340.312E-03    -329.079E-03     659.824E-03    -332.133E-03     211.702E-03     9.38836E+06     4.09283E+06    -6.97143E+06    -1.44673E+06     2.95537E+06     5.00111E+06     507.352E+03         87.8646
            1411     11.4676E-03     135.356E-03     221.594E-03     211.250E-03    -735.226E-03     210.657E-03    -734.633E-03     221.594E-03    -5.89232E-03     685.674E-03    -332.079E-03    -354.270E-03    -337.704E-03     669.108E-03    -332.079E-03     255.728E-03     14.2126E+06     6.69606E+06    -9.56823E+06    -863.865E+03     4.59995E+06     7.60435E+06     1.93008E+06         90.0671
            1412     12.1991E-03     135.726E-03     219.758E-03     206.504E-03    -725.532E-03     205.626E-03    -724.654E-03     219.758E-03     4.54692E-03     686.670E-03    -332.847E-03    -354.640E-03    -340.026E-03     672.057E-03    -332.847E-03     234.165E-03     16.5553E+06     10.1308E+06    -10.4572E+06     1.88682E+06     4.21128E+06     10.1308E+06     1.32633E+06         92.4566
            1413     716.337E-06     135.327E-03     546.011E-03     183.055E-03        -1.02858     245.462E-03    -728.030E-03     183.055E-03     488.777E-03     670.339E-03    -334.054E-03    -336.291E-03    -336.137E-03     670.338E-03    -334.206E-03     409.075E-06    -2.35457E+06    -9.04037E+06    -18.4529E+06    -7.52891E+06    -14.3164E+06    -8.00245E+06    -212.801E+03         76.8601
            1414     1.43180E-03     135.311E-03     298.217E-03     216.596E-03    -812.028E-03     225.367E-03    -739.178E-03     216.596E-03    -165.996E-03     668.631E-03    -334.284E-03    -334.711E-03    -334.277E-03     668.623E-03    -334.711E-03     4.71673E-03    -3.49701E+06    -6.69220E+06    -18.4029E+06    -8.42528E+06    -13.4746E+06    -6.69220E+06     536.986E+03         77.1221
            1415     2.14835E-03     135.288E-03     241.417E-03     219.061E-03    -757.969E-03     219.557E-03    -736.108E-03     219.061E-03     84.5869E-03     663.970E-03    -331.899E-03    -333.351E-03    -331.862E-03     663.933E-03    -333.351E-03     11.3444E-03    -1.09257E+06    -3.52738E+06    -16.2119E+06    -6.68884E+06    -10.8290E+06    -3.31405E+06     799.996E+03         77.5478
            1416     2.86620E-03     135.247E-03     229.325E-03     219.767E-03    -748.415E-03     223.187E-03    -742.276E-03     219.767E-03    -44.9077E-03     659.793E-03    -329.483E-03    -331.947E-03    -329.339E-03     659.649E-03    -331.947E-03     22.6688E-03     1.43575E+06    -1.95363E+06    -15.4284E+06    -5.61774E+06    -9.38963E+06    -938.909E+03     1.06376E+06         78.0771
            1417     3.58667E-03     135.216E-03     225.534E-03     216.439E-03    -743.766E-03     219.956E-03    -742.030E-03     220.280E-03     20.9331E-03     657.015E-03    -327.674E-03    -331.061E-03    -327.255E-03     656.596E-03    -331.061E-03     39.4335E-03     2.77733E+06    -2.44117E+06    -15.1977E+06    -6.07457E+06    -7.14723E+06    -1.63978E+06     1.29918E+06         78.6385
            1418     4.30745E-03     135.216E-03     226.721E-03     215.025E-03    -744.327E-03     220.790E-03    -743.627E-03     220.257E-03    -5.88319E-03     653.878E-03    -324.614E-03    -330.121E-03    -323.696E-03     652.960E-03    -330.121E-03     59.0261E-03     3.82677E+06    -1.57513E+06    -16.7597E+06    -6.47905E+06    -6.45392E+06    -1.57513E+06     892.874E+03         79.2317
            1419     5.03108E-03     135.249E-03     226.249E-03     217.470E-03    -744.257E-03     223.081E-03    -743.870E-03     220.251E-03     10.4652E-03     650.889E-03    -322.825E-03    -329.583E-03    -321.090E-03     649.153E-03    -329.583E-03     81.1714E-03     5.65109E+06    -605.885E+03    -14.9672E+06    -3.99332E+06    -5.32275E+06    -605.885E+03     409.609E+03         79.9147
            1420     5.74850E-03     135.343E-03     227.556E-03     218.722E-03    -744.517E-03     226.014E-03    -744.366E-03     220.113E-03    -4.50564E-03     653.392E-03    -324.022E-03    -330.459E-03    -321.264E-03     650.635E-03    -330.459E-03     103.224E-03     5.43478E+06    -1.52375E+06    -9.62099E+06    -4.09504E+06    -91.1658E+03    -1.52375E+06     144.744E+03         80.7063
            1421     6.42595E-03     135.693E-03     226.949E-03     219.886E-03    -744.373E-03     226.908E-03    -744.332E-03     219.886E-03     4.36426E-03     659.963E-03    -327.793E-03    -332.892E-03    -323.928E-03     656.098E-03    -332.892E-03     122.985E-03     4.06451E+06    -2.32993E+06    -7.37489E+06    -4.34377E+06     221.307E+03    -1.51785E+06     77.8718E+03         81.5771
            1422     7.14464E-03     135.814E-03     225.869E-03     219.320E-03    -744.161E-03     225.247E-03    -744.128E-03     219.909E-03    -2.09024E-03     663.135E-03    -329.636E-03    -333.513E-03    -324.584E-03     658.082E-03    -333.513E-03     141.043E-03     5.26569E+06    -1.47281E+06    -7.68337E+06    -2.52964E+06    -1.40004E+06     39.2048E+03     811.003E+03         82.4399
            1423     7.87620E-03     135.898E-03     223.289E-03     218.831E-03    -741.839E-03     222.129E-03    -741.800E-03     219.952E-03     5.02916E-03     662.932E-03    -328.532E-03    -331.476E-03    -322.079E-03     656.480E-03    -331.476E-03     159.123E-03     5.99772E+06    -192.017E+03    -8.99239E+06    -1.41539E+06    -2.27920E+06     507.905E+03     1.23443E+06         83.2190
            1424     8.61264E-03     136.008E-03     222.072E-03     217.825E-03    -737.029E-03     220.269E-03    -736.820E-03     219.418E-03    -13.7931E-03     663.082E-03    -330.426E-03    -332.748E-03    -323.825E-03     655.241E-03    -331.510E-03     175.819E-03     5.68900E+06    -175.399E+03    -6.28700E+06    -756.853E+03     158.851E+03    -175.399E+03     2.09001E+06         83.9287
            1425     9.28466E-03     136.455E-03     222.271E-03     217.444E-03    -733.633E-03     220.924E-03    -733.346E-03     218.505E-03    -4.60945E-03     668.402E-03    -332.375E-03    -336.519E-03    -327.941E-03     659.824E-03    -332.375E-03     184.887E-03     8.40239E+06     804.442E+03    -3.55181E+06    -501.883E+03     5.35247E+06     804.442E+03     1.55923E+06         84.7598
            1426     10.0343E-03     136.564E-03     222.390E-03     217.872E-03    -732.660E-03     221.811E-03    -732.081E-03     217.872E-03    -16.6254E-03     672.011E-03    -332.063E-03    -339.368E-03    -328.735E-03     661.377E-03    -332.063E-03     205.475E-03     11.1304E+06     2.93642E+06    -4.84612E+06    -1.18712E+06     7.47140E+06     2.93642E+06     98.2657E+03         86.0005
            1427     10.7662E-03     136.747E-03     219.380E-03     213.228E-03    -726.169E-03     214.627E-03    -725.121E-03     216.934E-03     1.67278E-03     671.625E-03    -332.259E-03    -341.073E-03    -329.609E-03     660.161E-03    -332.259E-03     213.997E-03     9.62232E+06     3.60902E+06    -7.26856E+06    -2.72868E+06     4.17416E+06     4.51731E+06     842.259E+03         87.7442
            1428     11.4578E-03     137.133E-03     214.923E-03     206.110E-03    -715.202E-03     204.607E-03    -713.699E-03     214.923E-03    -9.43460E-03     685.640E-03    -332.217E-03    -353.949E-03    -336.913E-03     668.604E-03    -332.217E-03     259.136E-03     9.39684E+06     4.23151E+06    -9.14407E+06    -1.92867E+06     1.27317E+06     5.13980E+06    -18.9614E+03         89.9695
            1429     12.1964E-03     137.589E-03     212.507E-03     203.690E-03    -708.304E-03     201.865E-03    -706.478E-03     212.507E-03    -1.07094E-03     685.906E-03    -332.925E-03    -353.570E-03    -338.540E-03     670.875E-03    -332.925E-03     237.233E-03     11.7914E+06     5.12730E+06    -7.71833E+06      1.0568E+06     3.01628E+06     5.12730E+06    -293.899E+03         92.3911
            1430     715.350E-06     137.209E-03     340.524E-03     185.552E-03    -826.218E-03     230.740E-03    -716.434E-03     185.552E-03     258.504E-03     670.422E-03    -334.962E-03    -335.323E-03    -335.163E-03     670.420E-03    -335.120E-03     1.43773E-03    -2.21459E+06    -11.2962E+06    -22.9041E+06    -10.2113E+06    -16.6269E+06    -9.57679E+06     864.098E+03         76.6969
            1431     1.43217E-03     137.178E-03     238.120E-03     209.013E-03    -741.901E-03     213.443E-03    -717.223E-03     209.013E-03    -83.5330E-03     667.624E-03    -333.731E-03    -334.322E-03    -333.721E-03     667.614E-03    -334.322E-03     5.57772E-03    -3.58252E+06    -8.22661E+06    -20.9499E+06    -9.45365E+06    -15.0787E+06    -8.22661E+06     765.656E+03         76.9067
            1432     2.14917E-03     137.131E-03     222.980E-03     210.963E-03    -725.694E-03     215.633E-03    -718.347E-03     210.963E-03     42.1244E-03     662.836E-03    -331.115E-03    -333.003E-03    -331.066E-03     662.787E-03    -333.003E-03     13.0086E-03    -1.85333E+06    -5.27491E+06    -19.3378E+06    -8.23719E+06    -12.9539E+06    -5.27491E+06     510.151E+03         77.2926
            1433     2.86782E-03     137.079E-03     220.034E-03     210.805E-03    -724.157E-03     216.120E-03    -721.772E-03     212.334E-03    -14.0735E-03     659.661E-03    -329.352E-03    -332.078E-03    -329.179E-03     659.489E-03    -332.078E-03     25.0966E-03     764.018E+03    -3.30297E+06    -17.6649E+06    -6.12928E+06    -10.7716E+06    -3.30297E+06     628.446E+03         77.8098
            1434     3.58788E-03     137.032E-03     213.184E-03     206.994E-03    -716.843E-03     206.871E-03    -715.901E-03     212.365E-03     25.1137E-03     656.854E-03    -327.464E-03    -331.116E-03    -327.034E-03     656.423E-03    -331.116E-03     40.3493E-03     3.56565E+06    -2.44062E+06    -15.8036E+06    -5.37798E+06    -6.85994E+06    -2.44062E+06     1.11422E+06         78.3810
            1435     4.30803E-03     137.023E-03     214.747E-03     207.898E-03    -720.511E-03     210.610E-03    -720.215E-03     211.739E-03     3.67298E-03     653.916E-03    -324.556E-03    -330.155E-03    -323.674E-03     653.034E-03    -330.155E-03     57.9280E-03     6.69403E+06     266.105E+03    -15.1844E+06    -3.52349E+06    -4.96693E+06     266.105E+03     796.270E+03         78.9967
            1436     5.03038E-03     137.051E-03     220.869E-03     212.153E-03    -728.579E-03     220.705E-03    -728.415E-03     212.153E-03     17.3624E-03     651.485E-03    -323.276E-03    -329.701E-03    -321.648E-03     649.858E-03    -329.701E-03     78.7745E-03     6.63573E+06     2.43331E+06    -15.4742E+06    -2.83441E+06    -6.00409E+06     2.43331E+06    -8.92381E+03         79.6945
            1437     5.74409E-03     137.160E-03     224.564E-03     213.044E-03    -731.171E-03     224.542E-03    -731.149E-03     213.044E-03     6.03112E-03     653.460E-03    -323.947E-03    -330.619E-03    -321.350E-03     650.864E-03    -330.619E-03     100.144E-03     6.97043E+06     1.96061E+06    -9.53076E+06    -2.52826E+06    -32.0771E+03     1.96061E+06     389.358E+03         80.4843
            1438     6.42948E-03     137.479E-03     221.029E-03     213.469E-03    -728.040E-03     221.006E-03    -728.018E-03     213.469E-03     7.84171E-03     659.523E-03    -327.126E-03    -333.043E-03    -323.399E-03     655.796E-03    -333.043E-03     120.636E-03     6.91563E+06     1.09387E+06    -6.90580E+06    -2.93009E+06     677.979E+03     3.35581E+06     821.315E+03         81.3614
            1439     7.14503E-03     137.582E-03     218.106E-03     211.420E-03    -724.919E-03     216.037E-03    -724.896E-03     213.466E-03    -3.85632E-03     664.000E-03    -329.990E-03    -333.626E-03    -324.935E-03     658.946E-03    -333.626E-03     141.052E-03     6.87954E+06     1.35979E+06    -9.68323E+06    -3.21170E+06    -2.55385E+06     4.32166E+06     261.365E+03         82.2564
            1440     7.87602E-03     137.662E-03     216.399E-03     210.636E-03    -722.467E-03     213.775E-03    -722.422E-03     213.214E-03     1.22118E-03     664.981E-03    -330.015E-03    -331.843E-03    -323.713E-03     658.450E-03    -331.613E-03     160.418E-03     7.22864E+06     1.54254E+06    -9.64550E+06    -2.19367E+06    -2.15858E+06     3.47792E+06    -49.3629E+03         83.0575
            1441     8.61152E-03     137.764E-03     215.324E-03     210.828E-03    -718.454E-03     213.448E-03    -718.171E-03     212.421E-03    -14.4933E-03     663.736E-03    -331.328E-03    -332.617E-03    -324.388E-03     655.889E-03    -331.710E-03     176.005E-03     7.77857E+06     1.14139E+06    -7.04828E+06    -2.14533E+06     1.64015E+06     2.37685E+06     2.10378E+06         83.7580
            1442     9.28383E-03     138.228E-03     214.291E-03     209.787E-03    -711.799E-03     212.419E-03    -711.374E-03     211.233E-03    -4.09115E-03     666.730E-03    -332.501E-03    -334.808E-03    -326.263E-03     658.186E-03    -332.501E-03     184.219E-03     8.82428E+06     1.94036E+06    -5.43569E+06    -2.30988E+06     5.69847E+06     1.94036E+06     2.38039E+06         84.5836
            1443     10.0342E-03     138.361E-03     212.155E-03     206.886E-03    -705.121E-03     208.081E-03    -704.319E-03     210.158E-03    -16.3742E-03     671.238E-03    -332.011E-03    -338.673E-03    -327.825E-03     660.390E-03    -332.011E-03     207.189E-03     8.66079E+06     2.66266E+06    -5.97415E+06    -2.73283E+06     5.41947E+06     2.66266E+06     1.50850E+06         85.8318
            1444     10.7631E-03     138.617E-03     209.666E-03     202.144E-03    -699.099E-03     201.364E-03    -697.285E-03     208.631E-03     11.4543E-03     671.848E-03    -332.177E-03    -341.282E-03    -329.453E-03     660.019E-03    -332.177E-03     217.386E-03     8.31623E+06     2.99311E+06    -6.02024E+06    -2.80390E+06     5.09989E+06     2.99311E+06     632.893E+03         87.5836
            1445     11.4652E-03     139.090E-03     206.246E-03     200.099E-03    -693.858E-03     197.454E-03    -691.213E-03     206.246E-03    -5.49992E-03     685.061E-03    -332.117E-03    -353.273E-03    -335.989E-03     667.778E-03    -332.117E-03     261.035E-03     9.06461E+06     4.60318E+06    -8.68386E+06    -1.98509E+06     2.36584E+06     4.60318E+06    -1.41830E+06         89.8185
            1446     12.2004E-03     139.582E-03     203.780E-03     199.597E-03    -688.137E-03     196.311E-03    -684.850E-03     203.780E-03     4.55699E-03     686.213E-03    -332.779E-03    -353.991E-03    -338.858E-03     671.080E-03    -332.779E-03     237.848E-03     10.3045E+06     5.13143E+06    -10.3584E+06    -1.98254E+06     1.92861E+06     5.13143E+06    -1.74458E+06         92.2590
            1447     717.067E-06     139.081E-03     238.225E-03     188.594E-03    -722.744E-03     217.416E-03    -701.935E-03     188.594E-03     92.8980E-03     670.573E-03    -334.926E-03    -335.347E-03    -334.922E-03     670.570E-03    -335.347E-03     922.109E-06    -2.48742E+06    -11.5865E+06    -24.4200E+06    -11.6090E+06    -17.0179E+06    -9.86706E+06     233.775E+03         76.5944
            1448     1.43228E-03     139.024E-03     214.842E-03     203.314E-03    -709.106E-03     210.056E-03    -705.855E-03     204.849E-03    -24.3855E-03     666.615E-03    -332.785E-03    -334.145E-03    -332.776E-03     666.606E-03    -334.145E-03     5.34968E-03    -2.70687E+06    -7.98036E+06    -21.8378E+06    -9.73161E+06    -14.8131E+06    -7.98036E+06    -201.523E+03         76.7589
            1449     2.14971E-03     138.946E-03     210.179E-03     202.791E-03    -699.812E-03     205.560E-03    -698.674E-03     206.272E-03     12.1368E-03     661.648E-03    -330.254E-03    -332.714E-03    -330.203E-03     661.597E-03    -332.714E-03     13.1466E-03    -1.44393E+06    -5.13857E+06    -19.9893E+06    -8.20063E+06    -13.2326E+06    -5.13857E+06    -103.463E+03         77.1090
            1450     2.87049E-03     138.869E-03     207.704E-03     202.615E-03    -699.132E-03     203.460E-03    -698.363E-03     206.090E-03     1.33008E-03     659.759E-03    -329.464E-03    -332.094E-03    -329.298E-03     659.593E-03    -332.094E-03     24.7969E-03    -775.819E+03    -4.52636E+06    -19.7061E+06    -8.00061E+06    -12.4813E+06    -4.52636E+06     433.239E+03         77.6218
            1451     3.58988E-03     138.813E-03     209.041E-03     204.550E-03    -705.059E-03     207.081E-03    -704.628E-03     206.080E-03     7.38220E-03     657.487E-03    -328.108E-03    -331.258E-03    -327.704E-03     657.082E-03    -331.258E-03     39.0551E-03     2.52394E+06    -3.54405E+06    -16.6601E+06    -6.05622E+06    -8.07993E+06    -3.54405E+06     400.599E+03         78.2237
            1452     4.30939E-03     138.773E-03     209.735E-03     206.480E-03    -707.530E-03     209.602E-03    -707.438E-03     206.521E-03    -960.214E-06     654.850E-03    -325.731E-03    -330.308E-03    -324.836E-03     653.955E-03    -330.308E-03     58.1628E-03     4.54453E+06    -2.39126E+06    -13.7135E+06    -5.39159E+06    -3.77739E+06    -2.39126E+06     192.944E+03         78.8778
            1453     5.02926E-03     138.820E-03     210.057E-03     206.827E-03    -705.444E-03     209.843E-03    -705.272E-03     206.868E-03    -1.92187E-03     652.169E-03    -324.198E-03    -329.794E-03    -322.508E-03     650.479E-03    -329.794E-03     80.3441E-03     2.22877E+06    -1.62324E+06    -16.0490E+06    -6.84050E+06    -6.97970E+06    -1.62324E+06     389.518E+03         79.5815
            1454     5.74701E-03     138.898E-03     212.216E-03     206.766E-03    -706.149E-03     212.093E-03    -706.026E-03     206.766E-03    -4.32854E-03     653.245E-03    -323.527E-03    -330.681E-03    -320.873E-03     650.590E-03    -330.681E-03     101.228E-03     5.04151E+06     752.619E+03    -12.1815E+06    -5.25713E+06    -1.88281E+06     752.619E+03     1.11579E+06         80.3566
            1455     6.42642E-03     139.258E-03     209.852E-03     206.201E-03    -703.465E-03     209.815E-03    -703.428E-03     206.201E-03     1.69793E-03     658.776E-03    -326.051E-03    -333.014E-03    -322.329E-03     655.054E-03    -333.014E-03     120.497E-03     6.69318E+06     96.6138E+03    -8.31137E+06    -4.85743E+06     1.90724E+06     1.42860E+06     1.70647E+06         81.2349
            1456     7.14784E-03     139.393E-03     206.980E-03     203.469E-03    -699.339E-03     204.895E-03    -699.300E-03     205.515E-03    -6.52180E-03     663.735E-03    -329.622E-03    -333.561E-03    -324.625E-03     658.739E-03    -333.561E-03     140.192E-03     6.08418E+06    -993.118E+03    -11.4689E+06    -6.21359E+06    -1.92406E+06     1.75979E+06     1.75604E+06         82.1421
            1457     7.87679E-03     139.500E-03     206.239E-03     202.637E-03    -697.505E-03     203.954E-03    -697.482E-03     204.899E-03    -1.32485E-03     665.369E-03    -330.209E-03    -331.887E-03    -323.815E-03     658.745E-03    -331.657E-03     161.479E-03     6.73128E+06     376.192E+03    -12.1144E+06    -5.95253E+06    -3.22782E+06     4.17339E+06     2.15670E+06         82.9492
            1458     8.60963E-03     139.626E-03     206.850E-03     203.671E-03    -696.143E-03     206.429E-03    -695.938E-03     203.886E-03    -15.7982E-03     663.485E-03    -331.498E-03    -332.561E-03    -324.159E-03     655.356E-03    -331.771E-03     179.058E-03     6.13429E+06     2.80138E+06    -7.63327E+06    -4.61529E+06     740.024E+03     5.17766E+06     1.01943E+06         83.6522
            1459     9.28580E-03     140.177E-03     204.801E-03     202.006E-03    -689.325E-03     203.956E-03    -688.865E-03     202.392E-03     2.90563E-03     665.944E-03    -332.483E-03    -334.671E-03    -325.838E-03     657.111E-03    -332.483E-03     187.164E-03     7.65044E+06     2.73658E+06    -6.46962E+06    -4.04692E+06     3.38787E+06     4.57645E+06     599.572E+03         84.4870
            1460     10.0365E-03     140.336E-03     202.704E-03     197.714E-03    -681.978E-03     198.365E-03    -680.911E-03     200.986E-03    -15.5274E-03     670.708E-03    -331.818E-03    -338.306E-03    -327.315E-03     659.718E-03    -331.818E-03     208.571E-03     9.65308E+06     2.97786E+06    -5.75455E+06    -2.22078E+06     4.27943E+06     4.81772E+06     1.44158E+06         85.7339
            1461     10.7703E-03     140.599E-03     201.647E-03     194.020E-03    -678.185E-03     194.012E-03    -675.823E-03     199.293E-03     14.9794E-03     671.434E-03    -331.998E-03    -340.553E-03    -328.892E-03     659.773E-03    -331.998E-03     215.627E-03     10.9359E+06     5.33220E+06    -2.17061E+06     62.0888E+03     8.70316E+06     5.33220E+06     68.6427E+03         87.4706
            1462     11.4659E-03     141.053E-03     199.072E-03     193.493E-03    -673.843E-03     191.944E-03    -670.098E-03     196.876E-03    -8.86295E-03     684.650E-03    -331.978E-03    -353.012E-03    -336.168E-03     667.806E-03    -331.978E-03     257.554E-03     12.2802E+06     6.70595E+06    -5.92117E+06     240.877E+03     6.11813E+06     6.70595E+06    -526.904E+03         89.6961
            1463     12.2008E-03     141.570E-03     198.108E-03     192.875E-03    -669.422E-03     191.877E-03    -664.740E-03     194.423E-03     4.59373E-03     686.112E-03    -332.696E-03    -354.289E-03    -339.479E-03     671.302E-03    -332.696E-03     235.367E-03     12.1413E+06     9.19490E+06    -11.2664E+06      -474.4E+03     1.32106E+06     9.22321E+06    -694.998E+03         92.1383
            1464     714.285E-06     141.010E-03     213.556E-03     181.002E-03    -679.451E-03     204.627E-03    -670.522E-03     181.002E-03    -55.4215E-03     669.720E-03    -334.344E-03    -335.448E-03    -334.340E-03     669.716E-03    -335.448E-03     1.24702E-03    -4.24606E+06    -12.3634E+06    -25.3305E+06    -12.2961E+06    -18.2042E+06    -11.4397E+06     656.181E+03         76.5694
            1465     1.43225E-03     140.951E-03     204.018E-03     193.573E-03    -680.041E-03     201.721E-03    -679.280E-03     195.108E-03     15.1953E-03     666.881E-03    -332.945E-03    -334.214E-03    -332.938E-03     666.874E-03    -334.214E-03     4.65056E-03    -3.55833E+06    -9.33887E+06    -23.7811E+06    -11.1234E+06    -16.2160E+06    -9.33887E+06     1.14475E+06         76.7429
            1466     2.15206E-03     140.832E-03     200.978E-03     193.897E-03    -676.677E-03     197.424E-03    -676.603E-03     197.378E-03    -2.57877E-03     663.126E-03    -331.118E-03    -333.267E-03    -331.078E-03     663.086E-03    -333.267E-03     11.4120E-03    -4.73445E+06    -8.44586E+06    -20.4803E+06    -12.0386E+06    -13.1762E+06    -8.44586E+06     1.01036E+06         77.0814
            1467     2.86956E-03     140.755E-03     201.247E-03     196.039E-03    -681.480E-03     199.259E-03    -681.438E-03     197.984E-03    -251.113E-06     659.719E-03    -329.186E-03    -332.297E-03    -329.042E-03     659.575E-03    -332.297E-03     22.9500E-03    -3.54793E+06    -6.47579E+06    -18.5602E+06    -10.4420E+06    -11.6662E+06    -6.47579E+06      88.341E+03         77.5623
            1468     3.59018E-03     140.686E-03     201.077E-03     197.436E-03    -683.732E-03     199.919E-03    -683.684E-03     198.546E-03    -11.9601E-03     656.819E-03    -327.601E-03    -331.363E-03    -327.190E-03     656.407E-03    -331.363E-03     39.0284E-03    -551.326E+03    -4.04618E+06    -17.9534E+06    -9.06574E+06    -9.43896E+06    -4.04618E+06     458.114E+03         78.1612
            1469     4.30939E-03     140.656E-03     201.977E-03     197.774E-03    -684.126E-03     200.721E-03    -684.022E-03     198.926E-03     355.269E-06     654.274E-03    -325.524E-03    -330.304E-03    -324.580E-03     653.331E-03    -330.304E-03     59.7307E-03     1.08923E+06    -2.80686E+06    -15.0106E+06    -8.60172E+06    -5.54468E+06    -2.58186E+06     1.21813E+06         78.8372
            1470     5.03018E-03     140.681E-03     201.368E-03     198.991E-03    -682.833E-03     201.043E-03    -682.549E-03     199.032E-03    -12.0818E-03     651.535E-03    -323.672E-03    -329.629E-03    -321.897E-03     649.760E-03    -329.629E-03     82.2926E-03     1.75637E+06    -1.55388E+06    -16.1337E+06    -7.71303E+06    -7.29326E+06    -924.967E+03     1.79685E+06         79.5539
            1471     5.74743E-03     140.802E-03     200.724E-03     197.288E-03    -678.663E-03     199.258E-03    -678.344E-03     198.435E-03    -8.42110E-03     653.641E-03    -323.658E-03    -330.537E-03    -320.912E-03     650.895E-03    -330.537E-03     103.064E-03     2.15813E+06    -1.60561E+06    -14.6222E+06    -8.49372E+06    -4.37425E+06    -1.20170E+06     2.24537E+06         80.3331
            1472     6.43267E-03     141.218E-03     198.688E-03     195.125E-03    -674.739E-03     196.407E-03    -674.529E-03     197.197E-03    -1.68704E-03     659.859E-03    -326.818E-03    -332.920E-03    -323.025E-03     656.066E-03    -332.920E-03     121.790E-03     5.44443E+06    -722.203E+03    -9.59384E+06    -6.08345E+06     435.631E+03     776.209E+03     2.24583E+06         81.2083
            1473     7.14368E-03     141.375E-03     198.448E-03     195.355E-03    -674.657E-03     197.392E-03    -674.526E-03     196.281E-03    -8.30971E-03     663.929E-03    -329.806E-03    -333.582E-03    -324.686E-03     658.808E-03    -333.582E-03     141.880E-03     6.89789E+06     752.604E+03    -9.50062E+06    -4.08567E+06    -2.89584E+06     5.13138E+06     2.56001E+06         82.1009
            1474     7.87743E-03     141.487E-03     197.184E-03     194.155E-03    -671.698E-03     195.562E-03    -671.664E-03     195.744E-03     2.99498E-03     663.986E-03    -329.163E-03    -331.634E-03    -322.460E-03     657.283E-03    -331.634E-03     162.257E-03     6.72428E+06     1.29887E+06    -10.6359E+06    -3.95313E+06    -5.38393E+06     6.72428E+06     2.31529E+06         82.8964
            1475     8.61695E-03     141.613E-03     194.464E-03     190.397E-03    -663.916E-03     190.302E-03    -663.761E-03     194.404E-03    -17.1557E-03     661.693E-03    -330.520E-03    -332.067E-03    -322.909E-03     653.630E-03    -331.615E-03     178.054E-03     6.96522E+06     3.51251E+06    -6.57664E+06    -3.04237E+06     885.898E+03     6.05756E+06     550.761E+03         83.6082
            1476     9.29254E-03     142.174E-03     192.602E-03     187.892E-03    -657.607E-03     187.736E-03    -657.137E-03     192.289E-03     7.03426E-03     666.458E-03    -332.428E-03    -335.847E-03    -327.114E-03     657.776E-03    -332.480E-03     185.691E-03     9.23407E+06     4.74277E+06    -3.82752E+06    -1.51624E+06     5.08293E+06     6.58263E+06     183.555E+03         84.4617
            1477     10.0378E-03     142.326E-03     192.309E-03     188.315E-03    -656.951E-03     188.625E-03    -655.544E-03     190.591E-03    -19.9507E-03     671.595E-03    -331.839E-03    -339.557E-03    -328.797E-03     660.835E-03    -331.839E-03     206.580E-03     12.2857E+06     5.65282E+06    -4.11323E+06    -342.268E+03     6.67490E+06     7.49268E+06     530.042E+03         85.7121
            1478     10.7686E-03     142.579E-03     193.486E-03     188.733E-03    -657.192E-03     190.263E-03    -654.269E-03     189.032E-03     12.5043E-03     671.322E-03    -332.011E-03    -340.531E-03    -329.016E-03     659.807E-03    -332.011E-03     214.335E-03     12.9326E+06     7.35895E+06    -3.34976E+06    -287.348E+03     9.87017E+06     7.35895E+06     575.202E+03         87.4376
            1479     11.4684E-03     143.041E-03     193.086E-03     186.912E-03    -654.359E-03     188.738E-03    -650.011E-03     186.912E-03    -9.47410E-03     685.361E-03    -332.026E-03    -353.622E-03    -336.787E-03     668.527E-03    -332.026E-03     257.654E-03     15.2615E+06     9.11858E+06    -5.68276E+06    -132.386E+03     7.85092E+06     10.9788E+06     373.594E+03         89.6553
            1480     12.1995E-03     143.549E-03     192.954E-03     184.818E-03    -653.729E-03     187.853E-03    -648.627E-03     184.818E-03     1.03704E-03     687.053E-03    -332.763E-03    -355.195E-03    -340.378E-03     672.237E-03    -332.763E-03     235.673E-03     18.0358E+06     10.9455E+06    -10.1739E+06     -28.136E+03     2.55805E+06     16.2774E+06     254.447E+03         92.0890
            1481     717.618E-06     142.995E-03     212.119E-03     178.775E-03    -667.503E-03     192.319E-03    -649.700E-03     180.773E-03    -117.677E-03     669.331E-03    -334.166E-03    -335.422E-03    -334.642E-03     669.328E-03    -334.943E-03     796.212E-06    -7.10768E+06    -15.7168E+06    -29.1617E+06    -15.5977E+06    -21.6985E+06    -14.6899E+06     1.02705E+06         76.5367
            1482     1.43284E-03     142.927E-03     191.799E-03     184.705E-03    -653.070E-03     188.136E-03    -651.404E-03     186.702E-03     39.7495E-03     667.177E-03    -333.303E-03    -334.167E-03    -333.292E-03     667.166E-03    -334.167E-03     4.46950E-03    -7.29830E+06    -12.3833E+06    -26.9586E+06    -15.3236E+06    -19.0364E+06    -12.2801E+06     1.46109E+06         76.7095
            1483     2.14650E-03     142.838E-03     193.551E-03     188.175E-03    -658.891E-03     193.423E-03    -658.763E-03     188.175E-03    -17.4515E-03     663.480E-03    -331.089E-03    -333.534E-03    -331.041E-03     663.431E-03    -333.534E-03     12.7198E-03    -7.04334E+06    -10.3856E+06    -21.9855E+06    -14.3960E+06    -14.8336E+06    -10.1847E+06     1.86311E+06         77.0270
            1484     2.86759E-03     142.747E-03     195.124E-03     189.973E-03    -662.581E-03     194.963E-03    -662.421E-03     189.973E-03     2.53197E-03     659.010E-03    -328.119E-03    -332.268E-03    -327.963E-03     658.855E-03    -332.268E-03     23.8131E-03    -5.84078E+06    -7.60704E+06    -17.8151E+06    -13.3436E+06    -10.5130E+06    -7.40621E+06     1.46201E+06         77.4784
            1485     3.59032E-03     142.670E-03     194.144E-03     189.891E-03    -661.768E-03     192.649E-03    -661.383E-03     191.000E-03    -8.73060E-03     655.738E-03    -326.394E-03    -331.286E-03    -325.970E-03     655.314E-03    -331.286E-03     39.6334E-03    -3.47031E+06    -5.67777E+06    -17.2361E+06    -12.1256E+06    -8.76625E+06    -5.49231E+06     864.590E+03         78.0703
            1486     4.31200E-03     142.639E-03     193.809E-03     189.742E-03    -661.036E-03     191.369E-03    -660.115E-03     191.261E-03     12.8335E-03     652.903E-03    -324.337E-03    -330.263E-03    -323.424E-03     651.990E-03    -330.263E-03     58.8599E-03    -121.551E+03    -2.20063E+06    -18.1535E+06    -10.1077E+06    -9.00063E+06    -1.36734E+06     1.83247E+06         78.7521
            1487     5.03442E-03     142.672E-03     192.911E-03     189.068E-03    -657.993E-03     189.753E-03    -656.814E-03     191.047E-03     1.83097E-03     650.972E-03    -322.759E-03    -329.465E-03    -321.043E-03     649.257E-03    -329.465E-03     80.7091E-03     1.85685E+06     731.816E+03    -19.0569E+06    -8.81864E+06    -9.50644E+06     1.85685E+06     2.04675E+06         79.4791
            1488     5.75034E-03     142.783E-03     191.963E-03     187.460E-03    -654.828E-03     188.146E-03    -653.727E-03     190.176E-03     1.21956E-03     653.800E-03    -323.892E-03    -330.386E-03    -321.182E-03     651.089E-03    -330.386E-03     102.393E-03     5.05677E+06     361.403E+03    -13.8862E+06    -6.99724E+06    -4.74006E+06     3.26930E+06     1.45236E+06         80.2769
            1489     6.42761E-03     143.217E-03     189.541E-03     185.542E-03    -649.398E-03     185.417E-03    -648.540E-03     188.808E-03     8.18422E-03     660.374E-03    -327.373E-03    -332.854E-03    -323.581E-03     656.581E-03    -332.854E-03     121.816E-03     7.05904E+06     43.3546E+03    -10.7206E+06    -6.40295E+06    -1.18777E+06     3.97246E+06     1.32018E+06         81.1673
            1490     7.14821E-03     143.355E-03     188.424E-03     180.912E-03    -642.913E-03     181.376E-03    -642.470E-03     187.517E-03    -6.02299E-03     664.478E-03    -329.910E-03    -333.517E-03    -324.737E-03     659.305E-03    -333.517E-03     142.633E-03     5.86667E+06     775.104E+03    -10.3214E+06    -4.68947E+06    -3.55771E+06     4.56756E+06     1.03722E+06         82.0746
            1491     7.87873E-03     143.465E-03     187.258E-03     178.976E-03    -639.124E-03     179.716E-03    -638.958E-03     186.351E-03     11.4449E-03     664.078E-03    -329.387E-03    -331.565E-03    -322.758E-03     657.450E-03    -331.565E-03     161.509E-03     6.31596E+06    -372.411E+03    -10.2095E+06    -3.57051E+06    -4.02126E+06     3.32586E+06     1.24025E+06         82.8784
            1492     8.61448E-03     143.590E-03     184.937E-03     179.402E-03    -635.750E-03     179.564E-03    -635.686E-03     184.711E-03    -11.1000E-03     661.808E-03    -330.743E-03    -331.846E-03    -323.148E-03     653.992E-03    -331.625E-03     175.378E-03     6.93393E+06     1.29464E+06    -6.69200E+06    -2.74262E+06     1.58032E+06     2.69886E+06     1.32807E+06         83.5825
            1493     9.28810E-03     144.156E-03     183.456E-03     178.300E-03    -631.895E-03     178.727E-03    -631.564E-03     182.697E-03     13.6728E-03     665.917E-03    -332.468E-03    -335.058E-03    -326.447E-03     657.357E-03    -332.519E-03     184.285E-03     7.62817E+06     3.55527E+06    -3.52656E+06    -2.07834E+06     6.17995E+06     3.55527E+06     638.972E+03         84.4290
            1494     10.0373E-03     144.316E-03     181.735E-03     178.831E-03    -629.289E-03     178.295E-03    -628.221E-03     181.203E-03    -13.5904E-03     671.552E-03    -331.834E-03    -339.605E-03    -328.714E-03     660.660E-03    -331.834E-03     207.753E-03     11.0942E+06     5.34565E+06    -4.30250E+06    -2.09773E+06     8.88939E+06     5.34565E+06    -518.290E+03         85.6889
            1495     10.7708E-03     144.564E-03     182.491E-03     179.595E-03    -629.829E-03     179.264E-03    -626.997E-03     179.989E-03     22.8031E-03     671.964E-03    -332.029E-03    -341.623E-03    -329.996E-03     660.337E-03    -332.029E-03     215.486E-03     12.9347E+06     7.83330E+06    -4.77159E+06    -1.89921E+06     8.82022E+06     9.07535E+06     153.062E+03         87.4260
            1496     11.4667E-03     145.033E-03     184.704E-03     178.586E-03    -630.888E-03     180.808E-03    -626.992E-03     178.586E-03     3.06760E-03     685.646E-03    -332.114E-03    -354.180E-03    -337.399E-03     668.866E-03    -332.114E-03     257.367E-03     16.2234E+06     10.7656E+06    -7.43056E+06    -1.35567E+06     7.04626E+06     13.8679E+06     1.52198E+06         89.6392
            1497     12.1979E-03     145.546E-03     186.853E-03     177.448E-03    -632.281E-03     182.619E-03    -628.047E-03     177.448E-03     7.76397E-03     687.212E-03    -332.835E-03    -355.298E-03    -340.514E-03     672.428E-03    -332.835E-03     235.575E-03     17.7037E+06     10.8123E+06    -9.51861E+06    -1.40779E+06     4.28929E+06     16.1159E+06     1.85081E+06         92.0592
            1498     713.970E-06     144.969E-03     205.854E-03     175.965E-03    -652.919E-03     188.424E-03    -637.486E-03     177.963E-03    -107.186E-03     669.569E-03    -334.182E-03    -335.379E-03    -335.154E-03     669.563E-03    -334.402E-03     1.60081E-03    -9.33427E+06    -18.0813E+06    -30.6499E+06    -17.8477E+06    -22.8780E+06    -17.3398E+06    -780.371E+03         76.4365
            1499     1.43041E-03     144.922E-03     185.578E-03     179.644E-03    -637.263E-03     180.549E-03    -635.659E-03     183.070E-03     32.5102E-03     666.072E-03    -332.397E-03    -333.885E-03    -332.382E-03     666.057E-03    -333.885E-03     5.93829E-03    -9.23400E+06    -14.0582E+06    -26.3889E+06    -15.5646E+06    -20.1615E+06    -13.9551E+06     91.0383E+03         76.5958
            1500     2.15183E-03     144.805E-03     184.225E-03     179.537E-03    -635.983E-03     181.069E-03    -635.740E-03     182.450E-03    -26.5603E-03     662.170E-03    -330.150E-03    -332.955E-03    -330.096E-03     662.116E-03    -332.955E-03     13.7628E-03    -7.41518E+06    -10.7588E+06    -23.2535E+06    -13.1179E+06    -17.7516E+06    -10.5579E+06     312.216E+03         76.9213
            1501     2.87117E-03     144.725E-03     184.605E-03     180.796E-03    -635.947E-03     182.612E-03    -635.668E-03     182.510E-03     7.38625E-03     659.549E-03    -328.611E-03    -332.016E-03    -328.446E-03     659.384E-03    -332.016E-03     24.6118E-03    -4.51994E+06    -6.93429E+06    -18.7774E+06    -11.6512E+06    -11.8900E+06    -6.69039E+06     1.38383E+06         77.4099
            1502     3.59061E-03     144.655E-03     187.042E-03     182.832E-03    -638.474E-03     185.901E-03    -637.563E-03     183.062E-03    -15.5656E-03     656.178E-03    -326.897E-03    -331.319E-03    -326.490E-03     655.771E-03    -331.319E-03     39.1823E-03    -1.98716E+06    -3.73297E+06    -17.7104E+06    -11.1396E+06    -9.60801E+06    -2.68295E+06     2.00537E+06         78.0303
            1503     4.31171E-03     144.627E-03     187.107E-03     183.115E-03    -638.578E-03     184.438E-03    -636.319E-03     183.525E-03     16.0443E-03     652.531E-03    -324.264E-03    -330.415E-03    -323.402E-03     651.669E-03    -330.415E-03     57.1221E-03     196.393E+03    -1.28836E+06    -19.9393E+06    -10.1784E+06    -11.0493E+06     196.393E+03     1.60922E+06         78.7088
            1504     5.03413E-03     144.656E-03     185.298E-03     181.244E-03    -636.007E-03     180.156E-03    -632.844E-03     183.223E-03     246.938E-06     650.574E-03    -322.269E-03    -329.409E-03    -320.586E-03     648.892E-03    -329.409E-03     79.7985E-03     3.26140E+06     1.70972E+06    -17.5120E+06    -7.33732E+06    -8.46494E+06     3.26140E+06     1.18736E+06         79.4186
            1505     5.75075E-03     144.759E-03     183.902E-03     179.936E-03    -632.957E-03     178.758E-03    -629.894E-03     182.017E-03    -2.17829E-03     652.935E-03    -323.140E-03    -330.158E-03    -320.419E-03     650.214E-03    -330.158E-03     102.478E-03     4.94727E+06     288.599E+03    -13.0993E+06    -6.07752E+06    -6.73322E+06     4.94727E+06     1.54113E+06         80.2115
            1506     6.43565E-03     145.187E-03     181.017E-03     177.686E-03    -625.618E-03     176.244E-03    -623.443E-03     180.284E-03     14.4760E-03     659.914E-03    -327.535E-03    -332.622E-03    -323.720E-03     656.099E-03    -332.622E-03     122.194E-03     5.56819E+06    -1.40125E+06    -11.0532E+06    -7.37034E+06    -1.69942E+06     2.18353E+06     2.11634E+06         81.1170
            1507     7.14718E-03     145.337E-03     181.267E-03     172.228E-03    -618.985E-03     173.384E-03    -617.675E-03     178.800E-03    -3.92769E-03     665.261E-03    -330.890E-03    -333.480E-03    -325.865E-03     660.235E-03    -333.480E-03     140.877E-03     5.22688E+06    -96.8598E+03    -11.7523E+06    -7.16484E+06    -1.29963E+06     1.84221E+06     1.38910E+06         82.0562
            1508     7.88078E-03     145.450E-03     180.185E-03     170.407E-03    -615.056E-03     172.248E-03    -614.430E-03     177.718E-03     21.6340E-03     665.154E-03    -330.427E-03    -331.688E-03    -323.932E-03     658.658E-03    -331.688E-03     159.946E-03     6.91187E+06     828.454E+03    -7.28533E+06    -4.04733E+06     580.543E+03     3.92177E+06    -158.586E+03         82.8829
            1509     8.61417E-03     145.584E-03     176.701E-03     172.404E-03    -613.245E-03     172.573E-03    -613.189E-03     176.474E-03    -4.68673E-03     662.397E-03    -331.144E-03    -331.962E-03    -323.466E-03     654.498E-03    -331.740E-03     176.381E-03     7.54151E+06     1.12306E+06    -4.17371E+06    -3.23651E+06     3.63144E+06     4.09593E+06     863.545E+03         83.5840
            1510     9.29341E-03     146.126E-03     176.471E-03     173.912E-03    -613.974E-03     174.932E-03    -613.681E-03     175.157E-03     23.5447E-03     665.073E-03    -332.253E-03    -334.365E-03    -325.373E-03     656.392E-03    -332.564E-03     185.434E-03     8.48694E+06     3.61124E+06    -4.92194E+06    -3.41915E+06     5.16554E+06     5.42986E+06     1.11824E+06         84.4209
            1511     10.0406E-03     146.302E-03     177.061E-03     174.272E-03    -613.951E-03     176.396E-03    -613.380E-03     174.367E-03    -404.479E-06     670.711E-03    -331.814E-03    -338.907E-03    -328.062E-03     659.867E-03    -331.814E-03     207.304E-03     12.6693E+06     5.04088E+06    -4.99753E+06    -3.33571E+06     7.67124E+06     8.37717E+06     37.8714E+03         85.6742
            1512     10.7723E-03     146.558E-03     179.783E-03     173.737E-03    -614.022E-03     177.661E-03    -611.995E-03     173.832E-03     31.0633E-03     672.246E-03    -332.042E-03    -342.294E-03    -330.836E-03     660.787E-03    -332.042E-03     214.034E-03     14.5242E+06     6.72502E+06    -5.85204E+06    -3.38055E+06     7.47435E+06     11.3034E+06     1.14574E+06         87.3998
            1513     11.4626E-03     147.024E-03     182.166E-03     173.170E-03    -612.624E-03     179.136E-03    -609.594E-03     173.170E-03     6.91469E-03     686.041E-03    -332.162E-03    -354.887E-03    -338.095E-03     669.249E-03    -332.162E-03     257.360E-03     15.3798E+06     9.76872E+06    -9.98435E+06    -2.88110E+06     5.61251E+06     12.4327E+06     2.34008E+06         89.5931
            1514     12.1966E-03     147.530E-03     180.463E-03     172.507E-03    -608.283E-03     177.555E-03    -605.375E-03     172.507E-03     4.44100E-03     686.546E-03    -332.868E-03    -354.616E-03    -339.781E-03     671.710E-03    -332.868E-03     235.678E-03     15.1876E+06     11.8381E+06    -9.03608E+06    -88.5048E+03     4.47830E+06     13.5998E+06     2.01077E+06         91.9975
            1515     718.276E-06     146.948E-03     189.561E-03     172.925E-03    -626.105E-03     176.871E-03    -614.965E-03     174.474E-03    -87.8149E-03     667.722E-03    -333.065E-03    -334.389E-03    -333.557E-03     667.716E-03    -333.891E-03     1.73209E-03    -8.11896E+06    -16.7103E+06    -29.2461E+06    -16.6613E+06    -22.1778E+06    -15.2363E+06     364.292E+03         76.3741
            1516     1.43493E-03     146.884E-03     176.865E-03     172.491E-03    -613.518E-03     172.861E-03    -612.302E-03     175.281E-03     36.7949E-03     665.615E-03    -332.324E-03    -333.516E-03    -332.312E-03     665.603E-03    -333.516E-03     5.85766E-03     -9.1852E+06    -14.9495E+06    -26.1369E+06    -15.5772E+06    -20.5805E+06    -14.1139E+06    -89.9973E+03         76.5616
            1517     2.15047E-03     146.781E-03     174.325E-03     169.707E-03    -607.788E-03     169.220E-03    -607.302E-03     174.325E-03    -21.8415E-03     662.695E-03    -330.847E-03    -332.741E-03    -330.801E-03     662.648E-03    -332.741E-03     12.7721E-03    -7.80262E+06    -11.7180E+06    -23.4688E+06    -13.7753E+06    -18.0610E+06    -11.1530E+06    -558.463E+03         76.9178
            1518     2.87144E-03     146.701E-03     173.432E-03     170.357E-03    -605.794E-03     169.622E-03    -605.059E-03     173.432E-03     6.49803E-03     659.806E-03    -329.165E-03    -331.877E-03    -329.007E-03     659.648E-03    -331.877E-03     23.9855E-03    -6.00011E+06    -8.52850E+06    -22.0133E+06    -12.7843E+06    -15.8372E+06    -7.92047E+06     8.21195E+03         77.4315
            1519     3.59200E-03     146.638E-03     173.950E-03     171.595E-03    -606.403E-03     170.618E-03    -604.506E-03     173.029E-03    -21.2546E-03     656.313E-03    -327.299E-03    -331.343E-03    -326.889E-03     655.903E-03    -331.343E-03     39.2157E-03    -4.07875E+06    -6.39766E+06    -20.0827E+06    -11.3046E+06    -13.7214E+06    -5.53310E+06     1.73781E+06         78.0652
            1520     4.31210E-03     146.602E-03     175.414E-03     172.604E-03    -609.644E-03     171.380E-03    -605.799E-03     172.793E-03     14.6411E-03     653.054E-03    -324.799E-03    -330.384E-03    -323.909E-03     652.164E-03    -330.384E-03     58.0503E-03    -1.40434E+06    -3.72099E+06    -16.9553E+06    -10.2001E+06    -9.03603E+06    -2.84453E+06     1.76250E+06         78.7426
            1521     5.03452E-03     146.634E-03     177.524E-03     172.444E-03    -612.552E-03     172.057E-03    -607.086E-03     172.444E-03    -7.87084E-03     650.763E-03    -322.554E-03    -329.335E-03    -320.877E-03     649.085E-03    -329.335E-03     79.8635E-03    -412.938E+03    -2.73877E+06    -16.9282E+06    -10.0088E+06    -8.38786E+06    -1.68321E+06     1.88830E+06         79.4368
            1522     5.75619E-03     146.719E-03     178.635E-03     170.967E-03    -610.568E-03     172.644E-03    -605.088E-03     171.479E-03    -7.70752E-03     652.442E-03    -322.219E-03    -329.988E-03    -319.617E-03     649.840E-03    -329.988E-03     100.184E-03    -661.711E+03    -3.75792E+06    -14.9997E+06    -9.08329E+06    -8.83558E+06    -1.50044E+06     2.26568E+06         80.2094
            1523     6.43567E-03     147.155E-03     178.419E-03     168.681E-03    -606.129E-03     173.250E-03    -602.365E-03     170.085E-03     15.6362E-03     658.852E-03    -326.111E-03    -332.479E-03    -322.403E-03     655.144E-03    -332.479E-03     120.179E-03     2.83723E+06    -792.453E+03    -10.0473E+06    -6.81482E+06    -1.65209E+06     464.422E+03     1.74798E+06         81.1055
            1524     7.15108E-03     147.326E-03     180.449E-03     168.603E-03    -605.367E-03     177.249E-03    -603.060E-03     169.496E-03    -6.68167E-03     665.013E-03    -330.722E-03    -333.411E-03    -325.629E-03     659.920E-03    -333.411E-03     141.705E-03     4.91853E+06     1.23056E+06    -8.78182E+06    -6.50406E+06     1.32561E+06     2.54573E+06     775.744E+03         82.0510
            1525     7.87629E-03     147.443E-03     181.470E-03     168.439E-03    -605.564E-03     179.054E-03    -604.455E-03     169.746E-03     24.2716E-03     665.789E-03    -330.859E-03    -331.891E-03    -324.412E-03     659.093E-03    -331.643E-03     162.469E-03     6.73271E+06     572.400E+03    -8.25606E+06    -7.65252E+06     3.65975E+06     3.04182E+06    -51.5098E+03         82.9009
            1526     8.61602E-03     147.571E-03     179.024E-03     167.091E-03    -602.546E-03     176.255E-03    -602.330E-03     169.645E-03    -4.79733E-03     662.755E-03    -331.177E-03    -332.793E-03    -324.296E-03     654.795E-03    -331.713E-03     177.228E-03     9.39654E+06     2.20335E+06    -6.93648E+06    -6.39139E+06     5.34915E+06     5.70565E+06     848.670E+03         83.6271
            1527     9.29300E-03     148.113E-03     175.057E-03     167.732E-03    -598.984E-03     173.595E-03    -598.767E-03     168.978E-03     20.8676E-03     666.504E-03    -332.301E-03    -336.199E-03    -327.409E-03     658.025E-03    -332.612E-03     183.595E-03     11.0226E+06     3.58007E+06    -6.86882E+06    -4.81580E+06     3.04448E+06     9.50514E+06     994.276E+03         84.4620
            1528     10.0348E-03     148.288E-03     175.029E-03     168.490E-03    -598.311E-03     174.618E-03    -597.899E-03     168.490E-03    -8.64577E-03     671.299E-03    -331.922E-03    -339.394E-03    -328.808E-03     660.713E-03    -331.922E-03     204.877E-03     13.9625E+06     4.06015E+06    -7.34488E+06    -4.24036E+06     3.94470E+06     10.9735E+06     1.48767E+06         85.6823
            1529     10.7702E-03     148.541E-03     180.796E-03     168.156E-03    -600.370E-03     179.601E-03    -599.176E-03     168.156E-03     16.7926E-03     671.330E-03    -332.138E-03    -340.862E-03    -329.517E-03     659.985E-03    -332.138E-03     212.795E-03     14.2344E+06     6.58772E+06    -9.15126E+06    -3.49121E+06     3.92955E+06     11.2325E+06     2.08701E+06         87.3696
            1530     11.4651E-03     149.021E-03     182.159E-03     167.460E-03    -598.803E-03     180.080E-03    -596.723E-03     167.460E-03    -5.50208E-03     685.300E-03    -332.155E-03    -353.784E-03    -337.004E-03     668.520E-03    -332.155E-03     257.048E-03     17.4007E+06     10.8718E+06    -11.2806E+06    -1.81613E+06     5.20578E+06     13.6022E+06     1.72318E+06         89.5462
            1531     12.1963E-03     149.506E-03     176.781E-03     166.455E-03    -591.622E-03     174.710E-03    -589.551E-03     166.455E-03    -4.93471E-03     686.021E-03    -332.817E-03    -354.031E-03    -339.109E-03     671.099E-03    -332.817E-03     236.701E-03     18.7828E+06     12.1980E+06    -7.60712E+06    -1.11646E+06     7.97549E+06     16.5147E+06     1.04417E+06         91.9526
            1532     715.723E-06     148.912E-03     166.608E-03     154.935E-03    -578.731E-03     150.204E-03    -573.921E-03     166.529E-03    -37.4613E-03     667.171E-03    -332.633E-03    -334.196E-03    -333.416E-03     667.167E-03    -333.409E-03     953.273E-06    -9.19402E+06    -17.0692E+06    -29.2098E+06    -17.4048E+06    -22.4577E+06    -15.6105E+06     277.168E+03         76.3991
            1533     1.43370E-03     148.868E-03     158.029E-03     151.749E-03    -566.507E-03     151.102E-03    -565.573E-03     157.742E-03     33.6536E-03     666.221E-03    -332.900E-03    -333.648E-03    -332.894E-03     666.215E-03    -333.648E-03     4.00071E-03    -10.1192E+06    -15.2682E+06    -26.6949E+06    -16.8611E+06    -20.7886E+06    -14.4325E+06     441.243E+03         76.6072
            1534     2.15360E-03     148.756E-03     160.125E-03     155.292E-03    -569.859E-03     156.078E-03    -567.517E-03     156.997E-03    -26.2034E-03     663.333E-03    -331.404E-03    -333.011E-03    -331.363E-03     663.291E-03    -333.011E-03     11.4807E-03    -10.3865E+06    -13.2316E+06    -25.8741E+06    -16.9102E+06    -19.9154E+06    -12.6667E+06     1.28516E+06         76.9549
            1535     2.87128E-03     148.689E-03     163.522E-03     156.517E-03    -573.870E-03     159.207E-03    -570.915E-03     157.878E-03    -10.3194E-03     659.415E-03    -328.615E-03    -331.962E-03    -328.468E-03     659.267E-03    -331.962E-03     23.1767E-03    -9.34221E+06    -10.7303E+06    -24.4366E+06    -16.0660E+06    -18.2778E+06    -10.1654E+06     1.62710E+06         77.4415
            1536     3.59268E-03     148.626E-03     165.101E-03     157.480E-03    -577.576E-03     159.573E-03    -573.253E-03     158.685E-03    -30.3007E-03     655.778E-03    -326.707E-03    -331.310E-03    -326.308E-03     655.379E-03    -331.310E-03     38.5270E-03    -7.71325E+06    -10.1762E+06    -23.2953E+06    -14.8430E+06    -17.1157E+06    -9.22604E+06     1.79442E+06         78.0636
            1537     4.31487E-03     148.592E-03     168.136E-03     159.006E-03    -582.138E-03     161.736E-03    -575.927E-03     159.195E-03    -2.52648E-03     653.189E-03    -325.171E-03    -330.233E-03    -324.285E-03     652.303E-03    -330.233E-03     57.8887E-03    -2.52281E+06    -8.78176E+06    -19.5074E+06    -13.1913E+06    -9.78894E+06    -7.83163E+06     2.48864E+06         78.7509
            1538     5.03419E-03     148.624E-03     173.303E-03     159.662E-03    -587.351E-03     165.939E-03    -579.988E-03     159.662E-03    -16.1216E-03     651.566E-03    -323.151E-03    -329.230E-03    -321.464E-03     649.878E-03    -329.230E-03     80.0980E-03    -1.13899E+06    -8.21581E+06    -18.5782E+06    -12.9206E+06    -8.73453E+06    -6.27789E+06     1.50826E+06         79.4580
            1539     5.75082E-03     148.711E-03     177.616E-03     159.805E-03    -591.086E-03     169.831E-03    -583.301E-03     159.805E-03    -11.0038E-03     653.046E-03    -322.371E-03    -329.956E-03    -319.691E-03     650.366E-03    -329.956E-03     101.591E-03    -1.16971E+06    -4.99795E+06    -16.3794E+06    -11.7743E+06    -8.76434E+06    -2.00845E+06     673.566E+03         80.2311
            1540     6.43466E-03     149.137E-03     179.253E-03     159.726E-03    -589.905E-03     173.887E-03    -584.539E-03     159.726E-03     15.3844E-03     658.607E-03    -325.738E-03    -332.519E-03    -321.994E-03     654.863E-03    -332.519E-03     120.810E-03     3.04323E+06     245.653E+03    -10.9714E+06    -8.57864E+06    -401.109E+03     1.29725E+06     583.864E+03         81.1212
            1541     7.15115E-03     149.303E-03     179.229E-03     160.238E-03    -587.872E-03     176.148E-03    -584.791E-03     160.238E-03    -15.8088E-03     663.692E-03    -329.572E-03    -333.297E-03    -324.566E-03     658.687E-03    -333.297E-03     140.312E-03     4.63856E+06     338.544E+03    -8.53293E+06    -7.09540E+06     646.999E+03     2.89258E+06     886.549E+03         82.0563
            1542     7.88677E-03     149.422E-03     180.116E-03     161.236E-03    -588.767E-03     178.549E-03    -587.200E-03     161.236E-03     12.4520E-03     665.016E-03    -330.174E-03    -331.710E-03    -323.962E-03     658.555E-03    -331.462E-03     159.505E-03     6.78079E+06    -1.60254E+06    -9.49420E+06    -9.10822E+06     1.70237E+06     3.08991E+06     1.50272E+06         82.9049
            1543     8.61716E-03     149.548E-03     180.114E-03     161.665E-03    -588.744E-03     179.447E-03    -588.077E-03     161.665E-03    -13.0800E-03     664.127E-03    -331.510E-03    -333.403E-03    -325.476E-03     656.344E-03    -331.654E-03     175.370E-03     8.70308E+06     1.85124E+06    -9.46475E+06    -9.28705E+06     5.85755E+06     4.51907E+06     871.477E+03         83.6360
            1544     9.29138E-03     150.109E-03     177.691E-03     161.379E-03    -585.349E-03     177.547E-03    -585.205E-03     161.379E-03     12.1416E-03     667.943E-03    -332.635E-03    -336.825E-03    -328.268E-03     659.386E-03    -332.635E-03     184.641E-03     9.10044E+06     2.76181E+06    -9.22718E+06    -7.40102E+06     3.16783E+06     6.86826E+06     481.516E+03         84.4622
            1545     10.0349E-03     150.273E-03     176.669E-03     161.315E-03    -583.074E-03     176.374E-03    -582.779E-03     161.315E-03    -22.9199E-03     671.589E-03    -331.993E-03    -339.394E-03    -328.487E-03     660.682E-03    -331.993E-03     207.850E-03     11.5999E+06     2.41053E+06    -10.5100E+06    -5.67235E+06     783.542E+03     8.38916E+06     1.13997E+06         85.6727
            1546     10.7673E-03     150.523E-03     173.464E-03     161.120E-03    -579.413E-03     172.631E-03    -578.581E-03     161.120E-03     7.35438E-03     671.618E-03    -332.169E-03    -340.734E-03    -328.984E-03     659.868E-03    -332.169E-03     216.513E-03     13.2207E+06     7.87584E+06    -10.7121E+06    -3.67253E+06     2.47103E+06     11.5859E+06     845.465E+03         87.3549
            1547     11.4617E-03     150.999E-03     170.123E-03     160.141E-03    -573.909E-03     168.599E-03    -572.386E-03     160.141E-03    -9.88974E-03     685.190E-03    -332.082E-03    -353.236E-03    -336.237E-03     668.192E-03    -332.082E-03     258.899E-03     17.5022E+06     11.4578E+06    -10.9362E+06    -2.98074E+06     5.93370E+06     15.0709E+06     342.910E+03         89.5343
            1548     12.2016E-03     151.485E-03     169.817E-03     159.008E-03    -572.469E-03     168.088E-03    -570.739E-03     159.008E-03    -4.74141E-03     686.094E-03    -332.605E-03    -353.936E-03    -338.969E-03     671.127E-03    -332.605E-03     236.884E-03     20.0832E+06     12.7755E+06    -7.08415E+06    -1.90788E+06     9.86740E+06     17.8150E+06     134.483E+03         91.9533
            1549     717.816E-06     150.885E-03     150.035E-03     123.675E-03    -523.381E-03     134.779E-03    -518.169E-03     133.719E-03     31.5516E-03     668.327E-03    -333.134E-03    -334.854E-03    -334.378E-03     668.321E-03    -333.604E-03     585.107E-06    -14.5455E+06    -21.5965E+06    -33.5389E+06    -22.0608E+06    -26.7821E+06    -20.8381E+06     1.23389E+06         76.4069
            1550     1.43306E-03     150.837E-03     147.386E-03     131.842E-03    -527.979E-03     139.965E-03    -525.191E-03     136.475E-03     19.9267E-03     666.110E-03    -332.598E-03    -333.849E-03    -332.588E-03     666.100E-03    -333.849E-03     5.06689E-03    -14.5666E+06    -18.8892E+06    -29.5839E+06    -20.3711E+06    -23.9148E+06    -18.7538E+06     1.59494E+06         76.5833
            1551     2.14903E-03     150.735E-03     154.609E-03     139.487E-03    -542.245E-03     148.877E-03    -536.512E-03     139.487E-03    -23.5754E-03     662.708E-03    -330.793E-03    -333.028E-03    -330.748E-03     662.663E-03    -333.028E-03     12.2215E-03    -14.2609E+06    -16.6676E+06    -28.3982E+06    -20.1524E+06    -22.7595E+06    -16.4149E+06     2.12091E+06         76.9163
            1552     2.87136E-03     150.660E-03     161.468E-03     142.932E-03    -551.824E-03     154.577E-03    -544.933E-03     142.932E-03    -8.60361E-03     659.292E-03    -328.282E-03    -331.990E-03    -328.133E-03     659.143E-03    -331.990E-03     23.3287E-03    -11.7296E+06    -13.1924E+06    -26.6964E+06    -19.1015E+06    -20.4098E+06    -12.1071E+06     2.49970E+06         77.4124
            1553     3.59311E-03     150.599E-03     165.093E-03     145.822E-03    -557.708E-03     157.450E-03    -550.065E-03     145.822E-03    -16.6336E-03     655.884E-03    -326.660E-03    -331.279E-03    -326.259E-03     655.483E-03    -331.279E-03     38.6337E-03    -6.77149E+06    -8.94836E+06    -24.6624E+06    -16.9179E+06    -16.6344E+06    -6.82993E+06     2.08686E+06         78.0393
            1554     4.31343E-03     150.569E-03     169.396E-03     148.117E-03    -564.095E-03     160.400E-03    -555.099E-03     148.117E-03    -472.616E-06     652.820E-03    -324.924E-03    -330.274E-03    -324.031E-03     651.927E-03    -330.274E-03     58.0949E-03     1.09512E+06    -7.88488E+06    -21.9827E+06    -14.7445E+06    -11.2544E+06    -2.77351E+06     1.48144E+06         78.7331
            1555     5.03649E-03     150.602E-03     172.957E-03     149.990E-03    -569.417E-03     163.130E-03    -559.590E-03     149.990E-03    -8.53412E-03     651.213E-03    -322.757E-03    -329.131E-03    -321.059E-03     649.515E-03    -329.131E-03     80.3420E-03     4.34416E+06    -5.81165E+06    -18.4178E+06    -11.8385E+06    -8.52232E+06     475.529E+03     1.71123E+06         79.4623
            1556     5.75817E-03     150.687E-03     172.902E-03     151.145E-03    -570.236E-03     163.169E-03    -560.503E-03     151.145E-03    -8.25258E-03     653.711E-03    -322.963E-03    -329.852E-03    -320.258E-03     651.006E-03    -329.852E-03     102.120E-03     1.69317E+06    -2.07298E+06    -15.4567E+06    -11.0650E+06    -6.46464E+06     1.69317E+06     1.34533E+06         80.2559
            1557     6.43700E-03     151.128E-03     171.257E-03     151.676E-03    -567.579E-03     164.150E-03    -560.471E-03     151.676E-03     17.4833E-03     660.219E-03    -327.292E-03    -332.618E-03    -323.582E-03     656.510E-03    -332.618E-03     120.543E-03     3.91710E+06    -2.23939E+06    -13.2015E+06    -11.5420E+06    -2.44013E+06     2.45836E+06     1.15790E+06         81.1497
            1558     7.14889E-03     151.288E-03     171.081E-03     152.407E-03    -566.316E-03     166.911E-03    -562.146E-03     152.407E-03    -16.5285E-03     664.665E-03    -330.421E-03    -333.528E-03    -325.531E-03     659.775E-03    -333.528E-03     138.806E-03     7.02175E+06    -855.953E+03    -11.1845E+06    -9.78246E+06    -799.299E+03     5.56301E+06     2.39077E+06         82.0641
            1559     7.87768E-03     151.403E-03     170.409E-03     153.396E-03    -564.933E-03     168.271E-03    -562.795E-03     153.396E-03     15.1321E-03     664.707E-03    -329.880E-03    -331.680E-03    -323.489E-03     658.316E-03    -331.680E-03     158.547E-03     7.58622E+06     1.29169E+06    -8.48085E+06    -7.40105E+06     211.887E+03     7.58622E+06     2.91624E+06         82.8698
            1560     8.61619E-03     151.550E-03     169.329E-03     153.926E-03    -562.789E-03     168.335E-03    -561.795E-03     153.926E-03    -9.64775E-03     662.632E-03    -330.557E-03    -332.404E-03    -323.461E-03     654.866E-03    -331.734E-03     174.856E-03     7.41821E+06     3.09756E+06    -6.91769E+06    -6.44978E+06     3.12278E+06     6.92509E+06     1.00732E+06         83.5648
            1561     9.29080E-03     152.104E-03     170.290E-03     154.083E-03    -562.406E-03     169.951E-03    -562.066E-03     154.083E-03     19.9088E-03     665.850E-03    -331.961E-03    -335.068E-03    -325.712E-03     657.150E-03    -332.618E-03     185.717E-03     9.40132E+06     3.44009E+06    -6.76053E+06    -6.47611E+06     5.38785E+06     7.16914E+06     934.989E+03         84.3975
            1562     10.0371E-03     152.257E-03     168.384E-03     154.392E-03    -560.811E-03     168.260E-03    -560.687E-03     154.392E-03    -11.0059E-03     671.206E-03    -331.938E-03    -338.713E-03    -327.665E-03     660.157E-03    -331.938E-03     209.264E-03     13.6383E+06     4.01786E+06    -8.72126E+06    -5.89128E+06     2.92695E+06     11.8992E+06     1.12281E+06         85.6419
            1563     10.7703E-03     152.522E-03     163.812E-03     154.343E-03    -556.652E-03     162.904E-03    -555.744E-03     154.343E-03     24.0108E-03     672.069E-03    -332.108E-03    -340.970E-03    -329.274E-03     660.373E-03    -332.108E-03     216.061E-03     17.1678E+06     8.80112E+06    -9.17336E+06    -3.75830E+06     3.54922E+06     17.0047E+06     430.119E+03         87.3414
            1564     11.4656E-03     152.983E-03     161.976E-03     153.661E-03    -553.258E-03     160.346E-03    -551.628E-03     153.661E-03    -919.379E-06     685.401E-03    -332.003E-03    -353.290E-03    -336.313E-03     668.424E-03    -332.003E-03     258.641E-03     21.0777E+06     12.3876E+06    -8.04746E+06    -1.34723E+06     5.85050E+06     20.9145E+06     282.688E+03         89.5247
            1565     12.1988E-03     153.462E-03     162.738E-03     152.987E-03    -551.399E-03     161.087E-03    -549.748E-03     152.987E-03    -468.530E-06     686.748E-03    -332.420E-03    -354.314E-03    -339.326E-03     671.759E-03    -332.420E-03     237.092E-03     22.8418E+06     13.8160E+06    -5.81674E+06    -1.75718E+06     9.75644E+06     22.8418E+06     2.68325E+03         91.9541
            1566     714.829E-06     152.839E-03     171.105E-03     140.814E-03    -550.429E-03     141.959E-03    -521.283E-03     140.814E-03     102.398E-03     668.694E-03    -333.415E-03    -334.753E-03    -333.872E-03     668.687E-03    -334.290E-03     927.847E-06    -21.6553E+06    -27.7864E+06    -38.8109E+06    -28.0536E+06    -32.5481E+06    -27.6510E+06     638.625E+03         76.3694
            1567     1.43344E-03     152.798E-03     157.043E-03     141.049E-03    -536.227E-03     146.642E-03    -525.826E-03     141.049E-03     10.2220E-03     664.483E-03    -331.337E-03    -333.552E-03    -331.325E-03     664.470E-03    -333.552E-03     6.01595E-03    -19.8382E+06    -23.8310E+06    -34.8852E+06    -26.8328E+06    -28.7489E+06    -22.9727E+06     1.40260E+06         76.5233
            1568     2.15455E-03     152.689E-03     156.988E-03     141.966E-03    -539.456E-03     145.972E-03    -528.714E-03     142.240E-03     2.11911E-03     661.191E-03    -329.808E-03    -332.453E-03    -329.755E-03     661.137E-03    -332.453E-03     13.8306E-03    -16.7464E+06    -19.6419E+06    -31.1179E+06    -24.1219E+06    -25.0107E+06    -18.3735E+06     1.81773E+06         76.8794
            1569     2.87353E-03     152.627E-03     156.282E-03     142.449E-03    -538.992E-03     145.409E-03    -528.393E-03     142.723E-03     2.46750E-03     659.731E-03    -328.852E-03    -331.788E-03    -328.685E-03     659.563E-03    -331.788E-03     24.7978E-03    -13.4216E+06    -15.0393E+06    -28.5426E+06    -22.0856E+06    -21.4963E+06    -13.4216E+06     2.10828E+06         77.4226
            1570     3.59448E-03     152.577E-03     162.805E-03     143.619E-03    -546.060E-03     150.877E-03    -534.133E-03     143.619E-03    -8.50210E-03     656.387E-03    -327.083E-03    -331.205E-03    -326.667E-03     655.971E-03    -331.205E-03     39.5742E-03    -7.76649E+06    -10.3952E+06    -24.7278E+06    -19.7486E+06    -15.3744E+06    -7.76649E+06     1.65741E+06         78.0637
            1571     4.31530E-03     152.557E-03     168.181E-03     145.115E-03    -552.128E-03     154.864E-03    -538.811E-03     145.115E-03     3.26625E-03     652.943E-03    -324.707E-03    -330.303E-03    -323.823E-03     652.059E-03    -330.303E-03     57.8428E-03    -2.88238E+06    -8.38349E+06    -22.9297E+06    -18.3564E+06    -12.8378E+06    -3.00136E+06     1.90737E+06         78.7501
            1572     5.03694E-03     152.581E-03     167.326E-03     146.436E-03    -552.732E-03     153.928E-03    -539.334E-03     146.436E-03     1.69630E-03     651.338E-03    -322.960E-03    -329.210E-03    -321.324E-03     649.702E-03    -329.210E-03     78.9760E-03     548.119E+03    -6.69419E+06    -20.2424E+06    -16.5404E+06    -10.2773E+06     429.141E+03     2.66608E+06         79.4785
            1573     5.75364E-03     152.681E-03     166.881E-03     147.271E-03    -552.338E-03     154.505E-03    -539.962E-03     147.271E-03    -5.96839E-03     654.439E-03    -323.802E-03    -329.995E-03    -321.166E-03     651.803E-03    -329.995E-03     100.848E-03     3.77324E+06    -3.25622E+06    -15.0086E+06    -13.9448E+06    -4.32007E+06     3.77324E+06     2.53554E+06         80.2763
            1574     6.43250E-03     153.124E-03     164.431E-03     147.918E-03    -549.691E-03     155.790E-03    -541.050E-03     147.918E-03     26.5630E-03     660.789E-03    -327.560E-03    -332.810E-03    -323.835E-03     657.064E-03    -332.810E-03     120.785E-03     7.72033E+06    -1.56995E+06    -14.3422E+06    -11.6085E+06    -4.30367E+06     7.72033E+06     2.93599E+06         81.1644
            1575     7.14926E-03     153.280E-03     161.464E-03     148.593E-03    -546.819E-03     156.331E-03    -541.686E-03     148.593E-03    -7.55923E-03     664.539E-03    -330.312E-03    -333.564E-03    -325.279E-03     659.505E-03    -333.564E-03     140.742E-03     8.75323E+06    -83.1401E+03    -13.3499E+06    -10.4989E+06    -2.93413E+06     8.75323E+06     3.48094E+06         82.0578
            1576     7.88266E-03     153.387E-03     160.570E-03     149.297E-03    -545.519E-03     157.930E-03    -542.879E-03     149.297E-03     32.9544E-03     663.720E-03    -329.100E-03    -331.610E-03    -322.350E-03     656.970E-03    -331.610E-03     162.738E-03     8.40991E+06     1.26399E+06    -9.62982E+06    -8.43013E+06     64.3051E+03     8.40991E+06     3.16205E+06         82.8342
            1577     8.61657E-03     153.529E-03     159.173E-03     149.804E-03    -542.906E-03     158.295E-03    -542.028E-03     149.804E-03     3.07088E-03     661.243E-03    -329.710E-03    -331.886E-03    -321.748E-03     653.115E-03    -331.720E-03     178.708E-03     10.2235E+06     1.93723E+06    -7.29698E+06    -6.68890E+06     1.32915E+06     10.2235E+06     1.55775E+06         83.5166
            1578     9.29703E-03     154.082E-03     156.510E-03     149.773E-03    -538.362E-03     155.814E-03    -537.865E-03     149.971E-03     29.2122E-03     665.879E-03    -331.949E-03    -335.310E-03    -325.948E-03     657.174E-03    -332.606E-03     185.812E-03     14.8129E+06     6.31306E+06    -6.01448E+06    -5.82847E+06     7.03851E+06     13.9015E+06     1.06139E+06         84.3682
            1579     10.0388E-03     154.238E-03     152.918E-03     149.470E-03    -533.480E-03     152.477E-03    -533.472E-03     149.903E-03     2.61568E-03     671.731E-03    -331.878E-03    -339.234E-03    -328.441E-03     660.938E-03    -331.878E-03     206.940E-03     18.0742E+06     7.81986E+06    -6.51040E+06    -4.64920E+06     6.87011E+06     17.1628E+06     1.44699E+06         85.6350
            1580     10.7674E-03     154.494E-03     153.987E-03     149.371E-03    -533.696E-03     153.009E-03    -532.953E-03     149.605E-03     31.4594E-03     671.829E-03    -332.055E-03    -340.303E-03    -328.818E-03     660.343E-03    -332.055E-03     214.085E-03     19.7094E+06     9.23679E+06    -8.47743E+06    -4.00144E+06     4.76080E+06     19.7094E+06     687.818E+03         87.3388
            1581     11.4632E-03     154.948E-03     157.214E-03     149.162E-03    -535.053E-03     155.755E-03    -533.594E-03     149.162E-03     432.309E-06     685.182E-03    -331.950E-03    -352.839E-03    -335.915E-03     668.257E-03    -331.950E-03     258.039E-03     23.2916E+06     11.1346E+06    -8.06574E+06    -3.54578E+06     6.61463E+06     23.2916E+06     450.646E+03         89.5198
            1582     12.2056E-03     155.426E-03     157.979E-03     148.788E-03    -532.458E-03     156.261E-03    -530.739E-03     148.788E-03     5.37321E-03     686.572E-03    -332.225E-03    -353.989E-03    -338.988E-03     671.572E-03    -332.225E-03     237.145E-03     26.5946E+06     11.9748E+06    -3.78645E+06    -1.73709E+06     9.92546E+06     26.5946E+06     664.380E+03         91.9520
            1583     717.843E-06     154.816E-03     219.699E-03     158.669E-03    -604.024E-03     153.811E-03    -538.136E-03     158.669E-03     149.803E-03     667.374E-03    -332.873E-03    -333.944E-03    -333.386E-03     667.370E-03    -333.426E-03     2.03015E-03    -26.9130E+06    -31.2158E+06    -41.5284E+06    -32.5523E+06    -35.8891E+06    -31.2158E+06     229.829E+03         76.3363
            1584     1.43490E-03     154.769E-03     168.514E-03     154.190E-03    -551.548E-03     145.158E-03    -528.192E-03     154.190E-03    -26.1307E-03     664.137E-03    -331.418E-03    -333.121E-03    -331.588E-03     664.129E-03    -332.942E-03     5.22703E-03    -25.1608E+06    -28.2830E+06    -38.4719E+06    -31.3878E+06    -32.9677E+06    -27.5601E+06     1.34096E+06         76.5144
            1585     2.15422E-03     154.675E-03     158.649E-03     150.014E-03    -540.614E-03     140.377E-03    -522.616E-03     150.288E-03     4.17038E-03     660.847E-03    -329.958E-03    -331.989E-03    -329.915E-03     660.803E-03    -331.989E-03     12.2318E-03    -20.0941E+06    -22.3935E+06    -34.4922E+06    -28.3364E+06    -28.1622E+06    -20.4812E+06     2.32153E+06         76.8928
            1586     2.87538E-03     154.613E-03     154.028E-03     147.260E-03    -534.776E-03     138.795E-03    -519.818E-03     147.534E-03    -16.9011E-03     659.987E-03    -329.378E-03    -331.668E-03    -329.228E-03     659.837E-03    -331.668E-03     23.4035E-03    -16.3095E+06    -18.0400E+06    -31.7345E+06    -25.1825E+06    -24.2905E+06    -16.6110E+06     2.60530E+06         77.4537
            1587     3.59538E-03     154.561E-03     156.951E-03     145.982E-03    -535.489E-03     141.639E-03    -520.178E-03     145.982E-03    -20.6016E-03     656.896E-03    -327.731E-03    -331.243E-03    -327.343E-03     656.507E-03    -331.243E-03     38.1856E-03    -11.5386E+06    -13.4895E+06    -28.5790E+06    -23.3721E+06    -18.2058E+06    -12.0291E+06     3.66809E+06         78.1006
            1588     4.31530E-03     154.536E-03     161.526E-03     145.470E-03    -538.869E-03     144.721E-03    -522.064E-03     145.470E-03    -9.14950E-03     653.677E-03    -325.310E-03    -330.436E-03    -324.455E-03     652.822E-03    -330.436E-03     56.8507E-03    -5.01576E+06    -10.5769E+06    -25.9005E+06    -21.4804E+06    -14.6891E+06    -5.32369E+06     4.08181E+06         78.7704
            1589     5.03505E-03     154.570E-03     164.940E-03     145.687E-03    -541.099E-03     149.736E-03    -525.895E-03     145.687E-03    -64.8461E-06     652.024E-03    -323.248E-03    -329.497E-03    -321.577E-03     650.354E-03    -329.497E-03     79.6705E-03     1.17403E+06    -7.51582E+06    -22.8745E+06    -19.5700E+06    -8.93689E+06    -709.389E+03     2.68324E+06         79.4614
            1590     5.75347E-03     154.685E-03     165.473E-03     146.296E-03    -541.134E-03     151.975E-03    -527.636E-03     146.296E-03    -11.9754E-03     654.262E-03    -323.174E-03    -330.284E-03    -320.437E-03     651.525E-03    -330.284E-03     102.775E-03     4.88437E+06    -6.29007E+06    -18.6662E+06    -17.4225E+06    -5.76931E+06     3.11993E+06     1.89496E+06         80.2277
            1591     6.43379E-03     155.122E-03     161.073E-03     146.851E-03    -536.370E-03     151.903E-03    -527.200E-03     146.851E-03     24.1499E-03     659.700E-03    -326.559E-03    -332.901E-03    -322.652E-03     655.793E-03    -332.901E-03     123.532E-03     5.57211E+06    -3.80249E+06    -18.5207E+06    -15.6406E+06    -6.68255E+06     5.57211E+06     2.59071E+06         81.1137
            1592     7.15092E-03     155.259E-03     156.577E-03     147.229E-03    -531.176E-03     151.072E-03    -525.671E-03     147.229E-03    -10.9836E-03     663.288E-03    -329.520E-03    -333.297E-03    -324.293E-03     658.062E-03    -333.297E-03     143.356E-03     6.74782E+06    -828.876E+03    -15.6466E+06    -13.4540E+06    -3.02152E+06     6.74782E+06     2.28587E+06         82.0313
            1593     7.88301E-03     155.366E-03     153.012E-03     147.426E-03    -528.314E-03     149.919E-03    -525.220E-03     147.426E-03     24.4816E-03     663.297E-03    -328.887E-03    -331.249E-03    -322.214E-03     656.624E-03    -331.249E-03     161.904E-03     9.71700E+06    -98.8986E+03    -11.2550E+06    -10.8648E+06    -489.082E+03     9.71700E+06     1.65495E+06         82.8324
            1594     8.62504E-03     155.497E-03     150.911E-03     147.247E-03    -525.454E-03     149.496E-03    -524.039E-03     147.247E-03    -2.75944E-03     662.486E-03    -330.523E-03    -332.118E-03    -323.130E-03     654.612E-03    -331.638E-03     176.069E-03     12.8708E+06     3.86216E+06    -10.5038E+06    -9.61032E+06     2.96867E+06     12.8708E+06     2.96762E+06         83.5203
            1595     9.29348E-03     156.072E-03     148.801E-03     146.540E-03    -520.704E-03     148.000E-03    -520.101E-03     146.739E-03     29.3618E-03     666.193E-03    -332.639E-03    -335.008E-03    -326.509E-03     657.694E-03    -332.639E-03     183.661E-03     16.4142E+06     8.65728E+06    -8.33436E+06    -7.64857E+06     8.88294E+06     15.5027E+06     2.61594E+06         84.3647
            1596     10.0396E-03     156.202E-03     148.473E-03     145.885E-03    -518.528E-03     148.013E-03    -518.501E-03     146.318E-03    -2.54466E-03     670.444E-03    -331.837E-03    -338.453E-03    -327.504E-03     659.494E-03    -331.837E-03     207.896E-03     19.6603E+06     8.70388E+06    -7.97290E+06    -6.16924E+06     7.81167E+06     18.7489E+06     1.18917E+06         85.6333
            1597     10.7709E-03     156.467E-03     150.046E-03     145.714E-03    -518.230E-03     149.193E-03    -517.611E-03     145.948E-03     24.5135E-03     671.765E-03    -331.934E-03    -340.847E-03    -328.995E-03     659.914E-03    -331.934E-03     217.407E-03     21.5325E+06     7.72157E+06    -9.57857E+06    -6.48412E+06     4.62711E+06     21.5325E+06     1.62284E+06         87.3498
            1598     11.4705E-03     156.912E-03     150.792E-03     145.360E-03    -516.122E-03     149.077E-03    -514.407E-03     145.360E-03    -9.30755E-03     685.557E-03    -331.862E-03    -353.646E-03    -336.573E-03     668.484E-03    -331.862E-03     259.511E-03     25.8665E+06     11.8728E+06    -7.41058E+06    -4.23274E+06     8.69498E+06     25.8665E+06     1.52592E+06         89.5361
            1599     12.2020E-03     157.402E-03     151.383E-03     144.679E-03    -514.704E-03     149.345E-03    -512.666E-03     144.679E-03    -2.97047E-03     686.295E-03    -332.089E-03    -353.944E-03    -338.889E-03     671.240E-03    -332.089E-03     237.611E-03     30.2886E+06     14.7031E+06    -3.17215E+06    -782.648E+03     12.3136E+06     30.2886E+06     364.328E+03         91.9525
            1600     718.279E-06     156.779E-03     252.270E-03     135.136E-03    -611.776E-03     154.686E-03    -514.191E-03     135.136E-03     186.785E-03     666.362E-03    -332.277E-03    -333.865E-03    -332.823E-03     666.360E-03    -333.317E-03    -669.826E-06    -33.4130E+06    -36.7460E+06    -46.5091E+06    -38.5753E+06    -41.3468E+06    -36.7460E+06     2.18608E+06         76.3703
            1601     1.43607E-03     156.743E-03     178.853E-03     145.888E-03    -551.392E-03     145.976E-03    -518.516E-03     145.888E-03    -39.0535E-03     665.747E-03    -332.696E-03    -333.279E-03    -332.900E-03     665.742E-03    -333.070E-03     2.95071E-03    -29.2091E+06    -30.7993E+06    -41.1276E+06    -34.7877E+06    -35.5490E+06    -30.7993E+06     1.90132E+06         76.5697
            1602     2.15393E-03     156.643E-03     168.471E-03     146.311E-03    -540.426E-03     146.386E-03    -518.340E-03     146.311E-03     15.9906E-03     662.618E-03    -330.974E-03    -332.571E-03    -330.939E-03     662.582E-03    -332.571E-03     10.5580E-03    -25.2352E+06    -26.9279E+06    -38.4321E+06    -32.4611E+06    -32.1028E+06    -26.0313E+06     2.23286E+06         76.9319
            1603     2.87348E-03     156.587E-03     161.844E-03     146.436E-03    -531.939E-03     145.956E-03    -516.051E-03     146.436E-03    -23.4323E-03     659.685E-03    -328.669E-03    -331.924E-03    -328.527E-03     659.543E-03    -331.924E-03     22.6351E-03    -19.6883E+06    -22.9285E+06    -37.1129E+06    -30.5739E+06    -29.0583E+06    -20.0976E+06     3.47351E+06         77.4636
            1604     3.59432E-03     156.541E-03     157.909E-03     146.105E-03    -528.706E-03     142.998E-03    -513.795E-03     146.105E-03    -16.7298E-03     656.520E-03    -327.239E-03    -331.366E-03    -326.844E-03     656.125E-03    -331.366E-03     38.3456E-03    -11.6304E+06    -17.6891E+06    -32.7993E+06    -27.0669E+06    -22.9311E+06    -12.1209E+06     3.52436E+06         78.0936
            1605     4.31479E-03     156.521E-03     156.964E-03     145.472E-03    -527.137E-03     141.513E-03    -511.686E-03     145.472E-03    -13.4599E-03     653.701E-03    -325.455E-03    -330.555E-03    -324.561E-03     652.806E-03    -330.555E-03     58.1267E-03    -2.77628E+06    -13.6388E+06    -28.4874E+06    -23.5809E+06    -15.3490E+06    -5.97264E+06     3.58890E+06         78.7421
            1606     5.03635E-03     156.552E-03     159.144E-03     145.064E-03    -527.163E-03     144.371E-03    -512.390E-03     145.064E-03    -9.60086E-03     651.680E-03    -322.746E-03    -329.515E-03    -321.015E-03     649.949E-03    -329.515E-03     81.1336E-03     2.96034E+06    -7.80735E+06    -25.0621E+06    -20.6618E+06    -7.43584E+06    -1.81150E+06     3.98192E+06         79.3895
            1607     5.75293E-03     156.678E-03     159.246E-03     144.857E-03    -525.810E-03     146.409E-03    -512.974E-03     144.857E-03    -24.2329E-03     653.531E-03    -322.167E-03    -330.232E-03    -319.399E-03     650.764E-03    -330.232E-03     103.312E-03     4.38820E+06    -6.07334E+06    -21.5098E+06    -19.0687E+06    -6.74999E+06     2.62376E+06     3.63754E+06         80.1178
            1608     6.43601E-03     157.098E-03     154.289E-03     144.568E-03    -518.978E-03     146.219E-03    -510.908E-03     144.568E-03     13.9753E-03     658.679E-03    -325.776E-03    -332.832E-03    -321.856E-03     654.759E-03    -332.832E-03     123.619E-03     5.73298E+06    -5.12955E+06    -19.9848E+06    -17.9007E+06    -7.21359E+06     5.73298E+06     2.61138E+06         81.0123
            1609     7.15630E-03     157.243E-03     149.928E-03     144.311E-03    -513.789E-03     144.950E-03    -508.811E-03     144.311E-03    -18.9052E-03     663.250E-03    -329.664E-03    -333.151E-03    -324.475E-03     658.061E-03    -333.151E-03     142.908E-03     8.14375E+06     1.72337E+06    -17.0291E+06    -15.7833E+06     477.564E+03     8.14375E+06     1.42843E+06         81.9768
            1610     7.88996E-03     157.334E-03     146.971E-03     144.092E-03    -510.539E-03     144.328E-03    -507.895E-03     144.092E-03     12.4683E-03     665.256E-03    -330.240E-03    -331.432E-03    -323.925E-03     658.618E-03    -331.108E-03     161.728E-03     9.76718E+06     126.752E+03    -15.0046E+06    -14.7911E+06    -86.7912E+03     9.76718E+06     868.605E+03         82.8085
            1611     8.61774E-03     157.476E-03     144.832E-03     142.796E-03    -506.876E-03     142.514E-03    -505.313E-03     143.551E-03    -6.61697E-03     663.401E-03    -330.913E-03    -332.277E-03    -323.524E-03     655.374E-03    -331.639E-03     177.787E-03     10.4078E+06     2.30147E+06    -14.3527E+06    -13.1527E+06     1.10145E+06     10.4078E+06     3.65015E+06         83.4831
            1612     9.29439E-03     158.037E-03     143.677E-03     141.323E-03    -503.907E-03     141.658E-03    -503.298E-03     142.734E-03     25.6281E-03     664.731E-03    -332.049E-03    -334.064E-03    -324.643E-03     655.898E-03    -332.638E-03     186.862E-03     13.1231E+06     9.29337E+06    -12.8527E+06    -11.6871E+06     8.38544E+06     12.8654E+06     4.11202E+06         84.3158
            1613     10.0457E-03     158.176E-03     144.351E-03     141.494E-03    -503.493E-03     143.616E-03    -503.413E-03     142.150E-03    -11.8452E-03     669.553E-03    -331.786E-03    -337.837E-03    -326.716E-03     658.432E-03    -331.786E-03     209.599E-03     18.1392E+06     7.74405E+06    -10.9943E+06    -10.6219E+06     7.62931E+06     17.8816E+06     2.24339E+06         85.6037
            1614     10.7744E-03     158.449E-03     146.156E-03     141.644E-03    -503.904E-03     145.550E-03    -503.297E-03     141.644E-03     16.6519E-03     671.621E-03    -331.858E-03    -341.042E-03    -329.249E-03     659.828E-03    -331.858E-03     216.872E-03     23.8560E+06     7.65308E+06    -8.87276E+06    -7.18581E+06     5.96613E+06     23.8560E+06     882.339E+03         87.3408
            1615     11.4721E-03     158.894E-03     147.239E-03     140.874E-03    -502.832E-03     145.412E-03    -501.005E-03     140.874E-03    -14.4986E-03     685.293E-03    -331.784E-03    -353.406E-03    -336.379E-03     668.267E-03    -331.784E-03     259.035E-03     28.0291E+06     13.2147E+06    -7.41716E+06    -4.72835E+06     10.5259E+06     28.0291E+06    -1.20074E+06         89.5262
            1616     12.2087E-03     159.384E-03     147.997E-03     140.132E-03    -501.474E-03     145.989E-03    -499.467E-03     140.132E-03    -10.4087E-03     685.737E-03    -331.954E-03    -353.369E-03    -338.230E-03     670.598E-03    -331.954E-03     238.621E-03     32.8812E+06     14.9157E+06    -4.59629E+06    -2.80139E+06     13.1208E+06     32.8812E+06    -988.274E+03         91.9242
            1617     716.252E-06     158.728E-03     238.062E-03     123.754E-03    -591.159E-03     145.032E-03    -498.129E-03     123.754E-03     178.107E-03     666.856E-03    -332.292E-03    -334.279E-03    -333.097E-03     666.854E-03    -333.472E-03     1.48502E-03    -36.2097E+06    -41.5078E+06    -49.4201E+06    -41.5480E+06    -44.0818E+06    -41.5078E+06    -596.972E+03         76.4256
            1618     1.43254E-03     158.700E-03     173.768E-03     136.116E-03    -533.009E-03     143.209E-03    -502.450E-03     136.116E-03    -40.0740E-03     665.562E-03    -332.301E-03    -333.473E-03    -332.319E-03     665.551E-03    -333.444E-03     4.91136E-03    -33.3186E+06    -36.6152E+06    -46.1196E+06    -39.6098E+06    -39.8284E+06    -36.6152E+06     1.43508E+06         76.6187
            1619     2.15027E-03     158.622E-03     167.459E-03     139.502E-03    -525.824E-03     147.917E-03    -506.282E-03     139.502E-03     16.0438E-03     662.747E-03    -330.567E-03    -332.947E-03    -330.516E-03     662.695E-03    -332.947E-03     12.8033E-03    -29.3488E+06    -31.8579E+06    -44.4027E+06    -38.5872E+06    -36.4570E+06    -30.5652E+06     2.59423E+06         76.9609
            1620     2.87312E-03     158.549E-03     161.771E-03     141.957E-03    -521.572E-03     148.614E-03    -508.416E-03     141.957E-03    -26.3216E-03     659.264E-03    -327.842E-03    -331.907E-03    -327.663E-03     659.085E-03    -331.907E-03     25.3939E-03    -21.2570E+06    -25.5513E+06    -39.4621E+06    -34.6590E+06    -30.2467E+06    -21.3647E+06     2.66097E+06         77.4599
            1621     3.59538E-03     158.514E-03     157.274E-03     143.148E-03    -518.812E-03     145.422E-03    -506.960E-03     143.148E-03    -16.6873E-03     655.631E-03    -326.127E-03    -331.268E-03    -325.678E-03     655.181E-03    -331.268E-03     41.1355E-03    -14.6200E+06    -21.4615E+06    -34.3402E+06    -30.4582E+06    -25.3435E+06    -14.6200E+06     2.50651E+06         78.0605
            1622     4.31712E-03     158.492E-03     153.421E-03     143.260E-03    -515.454E-03     141.497E-03    -503.530E-03     143.260E-03    -16.7920E-03     653.089E-03    -325.099E-03    -330.406E-03    -324.144E-03     652.133E-03    -330.406E-03     60.1384E-03    -7.07041E+06    -18.0863E+06    -31.5653E+06    -27.1293E+06    -19.5150E+06    -10.0778E+06     2.51295E+06         78.7010
            1623     5.03850E-03     158.525E-03     151.551E-03     142.753E-03    -513.721E-03     138.838E-03    -501.009E-03     142.753E-03    -21.3218E-03     651.638E-03    -322.891E-03    -329.245E-03    -321.132E-03     649.879E-03    -329.245E-03     81.9390E-03    -285.182E+03    -11.2259E+06    -28.5395E+06    -24.3974E+06    -10.4518E+06    -5.20149E+06     4.00224E+06         79.3408
            1624     5.75770E-03     158.640E-03     152.294E-03     142.075E-03    -511.105E-03     139.940E-03    -498.751E-03     142.075E-03    -24.3726E-03     654.013E-03    -322.675E-03    -330.040E-03    -319.938E-03     651.275E-03    -330.040E-03     102.827E-03     3.33639E+06    -5.52297E+06    -23.4979E+06    -21.3440E+06    -5.76795E+06     1.42748E+06     4.45361E+06         80.0474
            1625     6.43969E-03     159.061E-03     146.688E-03     141.480E-03    -501.406E-03     139.798E-03    -494.516E-03     141.480E-03     22.3030E-03     658.681E-03    -326.356E-03    -332.823E-03    -322.581E-03     654.906E-03    -332.823E-03     121.413E-03     7.21196E+06    -3.82262E+06    -20.2443E+06    -18.6369E+06    -5.43008E+06     7.21196E+06     3.49758E+06         80.9369
            1626     7.15694E-03     159.200E-03     142.369E-03     139.681E-03    -495.000E-03     137.283E-03    -491.182E-03     140.949E-03    -11.2689E-03     662.221E-03    -329.319E-03    -333.198E-03    -324.269E-03     657.170E-03    -333.198E-03     140.779E-03     9.54538E+06     1.71767E+06    -19.2032E+06    -17.3335E+06    -152.111E+03     9.54538E+06     3.50926E+06         81.9101
            1627     7.88653E-03     159.308E-03     141.616E-03     137.879E-03    -492.279E-03     137.056E-03    -490.281E-03     140.440E-03     17.2151E-03     663.160E-03    -328.518E-03    -331.428E-03    -322.042E-03     656.360E-03    -331.104E-03     163.217E-03     11.4265E+06     2.78327E+06    -16.2924E+06    -14.9161E+06     1.40694E+06     11.4265E+06     3.47117E+06         82.7383
            1628     8.62638E-03     159.443E-03     140.369E-03     136.393E-03    -489.953E-03     136.060E-03    -488.968E-03     139.716E-03    -1.96776E-03     661.252E-03    -329.693E-03    -332.030E-03    -321.774E-03     652.894E-03    -331.591E-03     181.168E-03     14.1062E+06     1.88731E+06    -14.7050E+06    -13.3773E+06     559.575E+03     14.1062E+06     4.19239E+06         83.4075
            1629     9.30392E-03     160.002E-03     138.797E-03     136.093E-03    -487.631E-03     135.629E-03    -487.168E-03     138.797E-03     21.0343E-03     665.375E-03    -331.942E-03    -335.585E-03    -325.900E-03     656.279E-03    -332.531E-03     189.886E-03     17.8363E+06     7.62397E+06    -13.3933E+06    -12.1968E+06     6.68511E+06     17.5787E+06     4.45148E+06         84.2523
            1630     10.0479E-03     160.147E-03     138.165E-03     137.048E-03    -485.874E-03     137.023E-03    -485.802E-03     138.118E-03    -11.1015E-03     671.086E-03    -331.722E-03    -339.708E-03    -328.538E-03     659.916E-03    -331.722E-03     210.565E-03     22.0830E+06     9.15454E+06    -9.61089E+06    -9.10843E+06     8.90972E+06     21.8254E+06     2.47828E+06         85.5598
            1631     10.7693E-03     160.433E-03     139.493E-03     137.232E-03    -485.415E-03     138.471E-03    -484.789E-03     137.628E-03     18.0355E-03     671.316E-03    -331.693E-03    -340.294E-03    -328.483E-03     659.504E-03    -331.693E-03     217.016E-03     26.6721E+06     11.3823E+06    -5.83006E+06    -5.49932E+06     11.0516E+06     26.6721E+06     345.329E+03         87.3050
            1632     11.4795E-03     160.877E-03     141.962E-03     137.214E-03    -485.235E-03     140.664E-03    -483.937E-03     137.214E-03    -3.51354E-03     684.016E-03    -331.603E-03    -351.898E-03    -334.617E-03     666.734E-03    -331.603E-03     260.573E-03     34.0829E+06     15.5039E+06    -5.52386E+06    -3.89949E+06     13.8796E+06     34.0829E+06    -746.776E+03         89.4953
            1633     12.2111E-03     161.359E-03     142.291E-03     136.992E-03    -483.778E-03     140.863E-03    -482.351E-03     136.992E-03    -579.442E-06     683.886E-03    -331.657E-03    -352.193E-03    -336.799E-03     668.492E-03    -331.657E-03     240.365E-03     42.7741E+06     13.5122E+06    -3.15247E+06    -1.17137E+06     11.5311E+06     42.7741E+06    -87.8946E+03         91.9223
            1634     716.863E-06     160.694E-03     191.499E-03     126.025E-03    -533.547E-03     142.099E-03    -484.147E-03     126.025E-03     115.200E-03     664.203E-03    -330.976E-03    -332.930E-03    -332.784E-03     664.197E-03    -331.115E-03     4.06279E-03    -37.7322E+06    -43.1405E+06    -51.1148E+06    -43.7446E+06    -45.1024E+06    -43.1405E+06     422.767E+03         76.3043
            1635     1.43436E-03     160.668E-03     153.933E-03     134.476E-03    -502.703E-03     136.107E-03    -484.877E-03     134.476E-03    -19.0553E-03     662.789E-03    -330.966E-03    -332.111E-03    -331.189E-03     662.766E-03    -331.865E-03     9.07319E-03    -38.4992E+06    -42.2757E+06    -52.9481E+06    -46.6202E+06    -44.8271E+06    -42.2757E+06     376.810E+03         76.5090
            1636     2.15597E-03     160.582E-03     151.257E-03     135.352E-03    -497.497E-03     137.837E-03    -484.077E-03     135.352E-03     3.18409E-03     661.360E-03    -330.070E-03    -331.896E-03    -330.376E-03     661.295E-03    -331.525E-03     15.5828E-03    -32.1968E+06    -37.4756E+06    -49.1379E+06    -42.6973E+06    -39.9300E+06    -36.1829E+06     1.04267E+06         76.8942
            1637     2.87598E-03     160.517E-03     152.167E-03     136.650E-03    -500.133E-03     142.734E-03    -490.701E-03     136.650E-03    -28.6202E-03     659.086E-03    -327.901E-03    -331.290E-03    -327.901E-03     658.901E-03    -331.106E-03     26.0885E-03    -25.3474E+06    -31.1091E+06    -43.9946E+06    -38.9857E+06    -32.6085E+06    -28.8568E+06     2.46401E+06         77.4295
            1638     3.59836E-03     160.464E-03     149.438E-03     137.935E-03    -499.974E-03     142.063E-03    -492.598E-03     137.935E-03    -12.0389E-03     655.184E-03    -325.583E-03    -330.878E-03    -325.113E-03     654.713E-03    -330.878E-03     41.9024E-03    -19.3401E+06    -24.8549E+06    -39.2438E+06    -36.6814E+06    -26.0193E+06    -20.7381E+06     2.87672E+06         78.0322
            1639     4.32094E-03     160.452E-03     148.074E-03     138.553E-03    -500.066E-03     140.629E-03    -492.620E-03     138.553E-03    -11.9383E-03     652.539E-03    -324.643E-03    -330.103E-03    -323.656E-03     651.552E-03    -330.103E-03     61.2228E-03    -10.7290E+06    -19.1797E+06    -36.1259E+06    -33.0566E+06    -22.2490E+06    -10.7290E+06     2.57970E+06         78.6748
            1640     5.04211E-03     160.478E-03     150.170E-03     138.849E-03    -501.092E-03     141.821E-03    -492.744E-03     138.849E-03    -20.2652E-03     652.065E-03    -323.541E-03    -328.975E-03    -321.739E-03     650.264E-03    -328.975E-03     82.9418E-03    -2.02119E+06    -13.7892E+06    -31.8694E+06    -29.0980E+06    -14.6516E+06    -3.93010E+06     2.22595E+06         79.3172
            1641     5.75517E-03     160.616E-03     147.500E-03     138.679E-03    -495.906E-03     138.349E-03    -486.755E-03     138.679E-03    -13.0450E-03     654.977E-03    -323.571E-03    -330.015E-03    -320.768E-03     652.174E-03    -330.015E-03     104.149E-03     1.59246E+06    -6.49768E+06    -26.5453E+06    -25.7392E+06    -5.39491E+06    -316.459E+03     3.17315E+06         79.9883
            1642     6.43660E-03     161.032E-03     142.136E-03     137.990E-03    -487.027E-03     136.188E-03    -481.079E-03     137.990E-03     17.8481E-03     658.301E-03    -326.754E-03    -332.761E-03    -322.753E-03     654.299E-03    -332.761E-03     124.706E-03     3.95494E+06    -3.88111E+06    -24.4938E+06    -22.7947E+06    -5.58013E+06     3.95494E+06     3.56481E+06         80.8405
            1643     7.15545E-03     161.171E-03     140.606E-03     136.126E-03    -482.015E-03     136.083E-03    -478.760E-03     137.394E-03    -13.4875E-03     661.136E-03    -329.044E-03    -332.998E-03    -323.608E-03     655.700E-03    -332.998E-03     145.874E-03     8.29831E+06    -950.625E+03    -21.6603E+06    -19.6242E+06    -2.98668E+06     8.29831E+06     3.44084E+06         81.8134
            1644     7.89388E-03     161.263E-03     138.184E-03     134.354E-03    -478.226E-03     133.875E-03    -476.479E-03     136.916E-03     10.7206E-03     661.749E-03    -327.788E-03    -331.059E-03    -320.924E-03     654.885E-03    -331.059E-03     164.005E-03     13.7428E+06     2.36430E+06    -17.6338E+06    -15.8083E+06     538.830E+03     13.7428E+06     4.13098E+06         82.6607
            1645     8.63186E-03     161.411E-03     138.369E-03     133.729E-03    -476.932E-03     134.789E-03    -475.920E-03     136.298E-03    -3.86122E-03     660.329E-03    -329.600E-03    -331.761E-03    -321.785E-03     652.398E-03    -331.646E-03     176.439E-03     19.0138E+06     443.269E+03    -13.8530E+06    -12.4037E+06    -1.00603E+06     19.0138E+06     2.86936E+06         83.3308
            1646     9.30616E-03     161.981E-03     137.471E-03     134.421E-03    -475.886E-03     135.738E-03    -475.447E-03     135.714E-03     23.9177E-03     664.148E-03    -332.209E-03    -335.150E-03    -325.963E-03     655.367E-03    -332.615E-03     186.422E-03     22.8510E+06     6.50133E+06    -10.1931E+06    -9.07519E+06     5.38340E+06     22.8510E+06     2.93807E+06         84.1425
            1647     10.0519E-03     162.129E-03     136.632E-03     134.999E-03    -474.695E-03     136.194E-03    -474.672E-03     135.414E-03    -1.95812E-03     668.733E-03    -331.696E-03    -338.559E-03    -327.217E-03     657.390E-03    -331.696E-03     211.666E-03     28.0751E+06     12.8841E+06    -6.57863E+06    -5.89156E+06     12.1970E+06     28.0751E+06     2.67148E+06         85.4492
            1648     10.7806E-03     162.402E-03     140.344E-03     134.967E-03    -475.607E-03     139.425E-03    -475.084E-03     135.363E-03     21.8806E-03     670.578E-03    -331.342E-03    -340.008E-03    -327.835E-03     658.405E-03    -331.342E-03     220.179E-03     34.3005E+06     14.5642E+06    -5.01106E+06    -4.67475E+06     14.2279E+06     34.3005E+06     1.94822E+06         87.2480
            1649     11.4817E-03     162.849E-03     140.956E-03     135.353E-03    -474.340E-03     140.000E-03    -473.385E-03     135.353E-03     1.69275E-03     683.549E-03    -331.258E-03    -352.060E-03    -334.565E-03     666.054E-03    -331.258E-03     262.414E-03     42.1437E+06     17.4442E+06    -4.22651E+06    -3.61508E+06     16.8328E+06     42.1437E+06     3.30617E+06         89.5065
            1650     12.2225E-03     163.328E-03     137.923E-03     135.205E-03    -469.482E-03     136.965E-03    -468.523E-03     135.205E-03     1.65200E-03     683.521E-03    -331.443E-03    -352.572E-03    -337.255E-03     668.204E-03    -331.443E-03     239.107E-03     48.9307E+06     14.4354E+06    -4.95142E+06    -4.15184E+06     13.6359E+06     48.9307E+06     1.26125E+06         91.9978
            1651     719.486E-06     162.652E-03     154.942E-03     127.359E-03    -481.262E-03     141.163E-03    -468.955E-03     128.831E-03     36.3274E-03     660.128E-03    -329.160E-03    -330.664E-03    -330.204E-03     660.123E-03    -329.615E-03     1.09707E-03    -46.4546E+06    -51.1672E+06    -59.5827E+06    -53.0754E+06    -52.9619E+06    -51.1672E+06     2.77458E+06         76.0879
            1652     1.44075E-03     162.614E-03     142.050E-03     133.536E-03    -476.289E-03     135.457E-03    -471.167E-03     135.008E-03     8.34035E-03     660.138E-03    -329.854E-03    -330.511E-03    -330.496E-03     660.122E-03    -329.854E-03     6.08092E-03    -40.6857E+06    -45.1976E+06    -56.6316E+06    -50.6423E+06    -46.6751E+06    -45.1976E+06     2.15367E+06         76.3318
            1653     2.15689E-03     162.543E-03     140.818E-03     134.681E-03    -475.194E-03     134.652E-03    -469.356E-03     135.011E-03    -4.04907E-03     660.315E-03    -329.749E-03    -330.633E-03    -330.579E-03     660.262E-03    -329.749E-03     13.7864E-03    -35.2589E+06    -40.4380E+06    -54.9518E+06    -48.4752E+06    -42.8659E+06    -39.3076E+06     1.42988E+06         76.7845
            1654     2.87719E-03     162.480E-03     139.979E-03     131.690E-03    -471.812E-03     132.958E-03    -467.797E-03     134.695E-03    -22.6189E-03     659.475E-03    -328.470E-03    -330.336E-03    -328.597E-03     659.304E-03    -330.038E-03     25.0544E-03    -27.4843E+06    -35.9334E+06    -49.0303E+06    -45.2115E+06    -36.2427E+06    -30.9937E+06     1.15304E+06         77.3936
            1655     3.60087E-03     162.428E-03     140.061E-03     131.789E-03    -473.690E-03     134.316E-03    -470.621E-03     134.465E-03    -13.5831E-03     655.960E-03    -325.877E-03    -330.259E-03    -325.425E-03     655.509E-03    -330.259E-03     41.0254E-03    -18.5037E+06    -28.5858E+06    -42.5396E+06    -41.3830E+06    -28.3444E+06    -19.9017E+06     2.31740E+06         78.0185
            1656     4.32297E-03     162.424E-03     140.319E-03     132.904E-03    -476.224E-03     135.449E-03    -472.970E-03     134.519E-03    -7.45710E-03     651.802E-03    -324.010E-03    -329.753E-03    -323.049E-03     650.841E-03    -329.753E-03     60.3531E-03    -11.4274E+06    -21.2678E+06    -39.3484E+06    -37.1491E+06    -23.4671E+06    -11.4274E+06     3.29706E+06         78.6273
            1657     5.04538E-03     162.455E-03     140.266E-03     131.457E-03    -473.304E-03     133.130E-03    -469.068E-03     134.356E-03    -18.4628E-03     650.688E-03    -322.855E-03    -328.746E-03    -321.011E-03     648.843E-03    -328.746E-03     83.6374E-03    -2.35766E+06    -13.8386E+06    -35.3995E+06    -33.4804E+06    -13.8078E+06    -4.30750E+06     2.93737E+06         79.2279
            1658     5.75826E-03     162.607E-03     139.411E-03     132.391E-03    -471.539E-03     133.431E-03    -466.843E-03     133.674E-03    -13.1622E-03     653.905E-03    -322.844E-03    -329.891E-03    -319.893E-03     650.955E-03    -329.891E-03     106.768E-03     4.55053E+06    -9.12314E+06    -29.9632E+06    -29.6261E+06    -7.51043E+06     2.60069E+06     1.87603E+06         79.8603
            1659     6.44438E-03     162.996E-03     139.723E-03     133.020E-03    -471.037E-03     136.527E-03    -467.841E-03     133.020E-03     7.78859E-03     657.224E-03    -326.238E-03    -332.263E-03    -322.103E-03     653.089E-03    -332.263E-03     126.810E-03     8.78547E+06    -8.55978E+06    -26.6233E+06    -25.3530E+06    -9.83008E+06     8.78547E+06     2.50483E+06         80.6862
            1660     7.16822E-03     163.138E-03     139.865E-03     132.937E-03    -470.029E-03     137.712E-03    -467.876E-03     132.937E-03    -6.72723E-03     660.368E-03    -329.217E-03    -332.393E-03    -323.758E-03     654.909E-03    -332.393E-03     146.215E-03     12.8525E+06    -1.80564E+06    -24.6034E+06    -22.7669E+06    -3.64210E+06     12.8525E+06     3.65909E+06         81.6685
            1661     7.89684E-03     163.241E-03     139.601E-03     133.196E-03    -470.065E-03     138.433E-03    -468.897E-03     133.196E-03     10.5441E-03     661.794E-03    -329.379E-03    -331.050E-03    -322.553E-03     654.864E-03    -330.945E-03     164.847E-03     15.6852E+06     525.696E+03    -19.9331E+06    -18.7527E+06    -654.709E+03     15.6852E+06     2.56583E+06         82.5392
            1662     8.62939E-03     163.386E-03     139.253E-03     133.335E-03    -469.956E-03     138.551E-03    -469.254E-03     133.335E-03    -1.14622E-03     660.753E-03    -330.509E-03    -331.679E-03    -322.233E-03     652.372E-03    -331.575E-03     181.218E-03     17.8037E+06    -1.38910E+06    -15.0376E+06    -14.3119E+06    -2.11482E+06     17.8037E+06    -185.748E+03         83.1943
            1663     9.30364E-03     163.953E-03     138.787E-03     133.315E-03    -468.484E-03     138.462E-03    -468.159E-03     133.315E-03     21.5328E-03     662.007E-03    -331.943E-03    -333.727E-03    -323.652E-03     652.667E-03    -332.678E-03     191.724E-03     20.4873E+06     5.21728E+06    -13.7515E+06    -13.0031E+06     4.46890E+06     20.4873E+06    -115.587E+03         83.9631
            1664     10.0597E-03     164.097E-03     138.217E-03     133.353E-03    -467.067E-03     138.149E-03    -467.000E-03     133.353E-03    -4.02389E-03     666.312E-03    -331.560E-03    -336.832E-03    -325.244E-03     654.724E-03    -331.560E-03     213.636E-03     28.2803E+06     13.6161E+06    -11.8876E+06    -10.9024E+06     12.6309E+06     28.2803E+06     2.61938E+06         85.2882
            1665     10.7837E-03     164.379E-03     138.326E-03     133.301E-03    -465.791E-03     138.048E-03    -465.513E-03     133.301E-03     8.88842E-03     670.104E-03    -330.984E-03    -339.912E-03    -327.749E-03     657.942E-03    -330.984E-03     219.952E-03     37.0109E+06     14.9950E+06    -9.69375E+06    -9.06034E+06     14.3615E+06     37.0109E+06     3.42008E+06         87.1919
            1666     11.4946E-03     164.798E-03     137.066E-03     132.898E-03    -463.111E-03     136.478E-03    -462.523E-03     132.898E-03    -5.47653E-03     683.907E-03    -331.062E-03    -353.234E-03    -335.908E-03     666.580E-03    -331.062E-03     261.365E-03     43.0612E+06     15.2898E+06    -8.51605E+06    -8.26006E+06     15.0338E+06     43.0612E+06     2.18420E+06         89.5900
            1667     12.2209E-03     165.281E-03     134.440E-03     132.269E-03    -459.117E-03     133.850E-03    -458.527E-03     132.269E-03    -7.71750E-03     682.242E-03    -331.061E-03    -351.875E-03    -336.439E-03     666.806E-03    -331.061E-03     240.975E-03     49.3043E+06     17.6785E+06    -4.89694E+06    -4.32375E+06     17.1053E+06     49.3043E+06     1.58261E+06         92.1850
            1668     718.987E-06     164.590E-03     142.660E-03     115.315E-03    -449.617E-03     134.327E-03    -442.755E-03     116.787E-03    -44.4289E-03     660.215E-03    -329.463E-03    -330.423E-03    -329.571E-03     660.213E-03    -330.313E-03    -48.4814E-06    -54.5904E+06    -61.5207E+06    -68.6638E+06    -62.6712E+06    -60.5830E+06    -61.5207E+06     822.944E+03         75.9991
            1669     1.43515E-03     164.555E-03     135.540E-03     126.058E-03    -450.339E-03     132.365E-03    -448.636E-03     127.530E-03     7.82965E-03     659.066E-03    -329.176E-03    -330.069E-03    -329.676E-03     659.056E-03    -329.559E-03     4.68482E-03    -48.0880E+06    -52.7695E+06    -63.0847E+06    -58.2386E+06    -52.9341E+06    -52.7695E+06     2.14905E+06         76.2689
            1670     2.15868E-03     164.490E-03     135.319E-03     129.446E-03    -453.544E-03     133.642E-03    -452.197E-03     129.775E-03    -26.0030E-03     658.375E-03    -328.743E-03    -329.658E-03    -329.226E-03     658.325E-03    -329.126E-03     13.1151E-03    -38.9392E+06    -42.3081E+06    -60.5674E+06    -54.5541E+06    -46.0830E+06    -41.1777E+06     3.18808E+06         76.7441
            1671     2.88143E-03     164.426E-03     136.392E-03     127.894E-03    -453.324E-03     132.425E-03    -452.363E-03     130.899E-03    -22.6306E-03     658.889E-03    -328.575E-03    -329.369E-03    -328.535E-03     658.717E-03    -329.236E-03     25.0779E-03    -27.8206E+06    -34.7504E+06    -54.1745E+06    -50.6304E+06    -38.1681E+06    -27.9469E+06     3.50252E+06         77.3858
            1672     3.60155E-03     164.386E-03     134.632E-03     127.516E-03    -450.496E-03     130.063E-03    -449.532E-03     131.121E-03    -27.7573E-03     656.176E-03    -326.077E-03    -329.361E-03    -325.632E-03     655.731E-03    -329.361E-03     40.8316E-03    -18.9276E+06    -29.1919E+06    -47.1586E+06    -46.0023E+06    -30.3481E+06    -18.9276E+06     3.26363E+06         78.0282
            1673     4.32398E-03     164.378E-03     131.740E-03     126.672E-03    -448.445E-03     126.568E-03    -447.289E-03     130.688E-03    -1.93648E-03     651.018E-03    -323.331E-03    -329.263E-03    -322.363E-03     650.050E-03    -329.263E-03     60.3501E-03    -12.0783E+06    -22.3645E+06    -43.4335E+06    -41.3684E+06    -24.4297E+06    -12.0783E+06     3.04549E+06         78.5924
            1674     5.04781E-03     164.415E-03     130.958E-03     125.513E-03    -448.917E-03     124.786E-03    -447.113E-03     129.882E-03    -14.1954E-03     648.205E-03    -320.930E-03    -328.556E-03    -319.129E-03     646.404E-03    -328.556E-03     82.6580E-03    -657.277E+03    -14.7429E+06    -39.4514E+06    -36.0201E+06    -16.2245E+06    -2.60711E+06     3.73127E+06         79.1286
            1675     5.76772E-03     164.542E-03     134.187E-03     128.110E-03    -452.411E-03     131.100E-03    -450.607E-03     129.394E-03    -14.5730E-03     650.893E-03    -321.207E-03    -329.360E-03    -318.308E-03     647.994E-03    -329.360E-03     105.428E-03     9.23399E+06    -11.2862E+06    -33.7935E+06    -31.9432E+06    -11.1868E+06     7.28416E+06     2.10779E+06         79.7403
            1676     6.44877E-03     164.970E-03     136.888E-03     129.608E-03    -454.379E-03     136.194E-03    -453.685E-03     129.608E-03     8.85416E-03     656.192E-03    -326.228E-03    -331.386E-03    -322.175E-03     652.139E-03    -331.386E-03     125.643E-03     13.2994E+06    -10.2694E+06    -31.2804E+06    -30.5536E+06    -10.9962E+06     13.2994E+06     1.72706E+06         80.5719
            1677     7.16391E-03     165.113E-03     137.702E-03     130.180E-03    -456.307E-03     137.152E-03    -455.757E-03     130.180E-03     1.22961E-03     658.826E-03    -328.908E-03    -331.537E-03    -323.441E-03     653.360E-03    -331.537E-03     146.003E-03     16.7136E+06    -1.41184E+06    -26.8336E+06    -25.4797E+06    -2.76568E+06     16.7136E+06     3.46497E+06         81.5405
            1678     7.90208E-03     165.222E-03     138.168E-03     130.766E-03    -458.888E-03     137.742E-03    -458.462E-03     130.766E-03     6.25734E-03     658.039E-03    -327.766E-03    -330.554E-03    -320.626E-03     650.795E-03    -330.449E-03     168.000E-03     18.7762E+06     2.03759E+06    -22.7279E+06    -21.5714E+06     881.118E+03     18.7762E+06     3.04871E+06         82.3637
            1679     8.64084E-03     165.366E-03     135.394E-03     129.805E-03    -457.176E-03     134.027E-03    -456.955E-03     130.951E-03     4.55174E-03     657.891E-03    -329.114E-03    -331.226E-03    -320.295E-03     648.967E-03    -331.122E-03     186.687E-03     22.2473E+06    -145.700E+03    -21.0733E+06    -20.2462E+06    -972.782E+03     22.2473E+06     134.250E+03         82.9879
            1680     9.32119E-03     165.906E-03     134.419E-03     128.809E-03    -453.938E-03     132.372E-03    -453.786E-03     130.703E-03     11.9455E-03     661.957E-03    -331.441E-03    -334.379E-03    -324.071E-03     652.282E-03    -332.074E-03     195.307E-03     28.4805E+06     4.95314E+06    -17.6005E+06    -16.8027E+06     4.15538E+06     28.4805E+06    -931.473E+03         83.7876
            1681     10.0645E-03     166.056E-03     134.359E-03     129.715E-03    -452.269E-03     133.551E-03    -452.209E-03     130.463E-03    -7.54503E-03     666.844E-03    -330.914E-03    -338.406E-03    -326.706E-03     655.143E-03    -330.914E-03     214.810E-03     33.3170E+06     10.9371E+06    -15.5980E+06    -14.6867E+06     10.0258E+06     33.3170E+06     2.96444E+06         85.1751
            1682     10.7925E-03     166.315E-03     131.660E-03     129.545E-03    -448.254E-03     130.976E-03    -448.108E-03     130.083E-03     3.76804E-03     668.476E-03    -330.528E-03    -339.955E-03    -327.476E-03     655.998E-03    -330.528E-03     222.619E-03     37.0752E+06     13.1745E+06    -12.6711E+06    -11.9502E+06     12.4536E+06     37.0752E+06     4.19445E+06         87.1503
            1683     11.4964E-03     166.742E-03     129.785E-03     127.228E-03    -442.373E-03     127.442E-03    -442.085E-03     129.283E-03    -4.35042E-03     682.139E-03    -330.873E-03    -352.018E-03    -333.649E-03     663.770E-03    -330.873E-03     268.107E-03     43.4536E+06     17.4567E+06    -8.16100E+06    -7.55811E+06     16.8538E+06     43.4536E+06     3.40688E+06         89.6450
            1684     12.2178E-03     167.216E-03     129.001E-03     124.113E-03    -438.010E-03     124.544E-03    -437.775E-03     128.335E-03    -8.62233E-03     680.130E-03    -330.090E-03    -350.137E-03    -333.426E-03     663.419E-03    -330.090E-03     250.971E-03     50.9411E+06     21.8309E+06    -2.89103E+06    -2.00271E+06     20.9426E+06     50.9411E+06     2.27651E+06         92.3494
            1685     717.052E-06     166.548E-03     146.501E-03     119.410E-03    -448.820E-03     127.843E-03    -430.549E-03     119.798E-03    -80.0881E-03     659.648E-03    -328.849E-03    -330.785E-03    -330.181E-03     659.645E-03    -329.450E-03     3.24358E-03    -59.8464E+06    -67.2848E+06    -73.1091E+06    -67.9835E+06    -64.6154E+06    -67.6413E+06     113.779E+03         75.9731
            1686     1.43793E-03     166.520E-03     132.531E-03     123.989E-03    -437.445E-03     128.810E-03    -434.112E-03     124.376E-03     28.1682E-03     657.948E-03    -328.529E-03    -329.691E-03    -329.089E-03     657.934E-03    -329.116E-03     6.90459E-03    -54.7089E+06    -60.1117E+06    -70.9702E+06    -66.3436E+06    -58.9790E+06    -60.4682E+06       2.145E+06         76.2658
            1687     2.15894E-03     166.442E-03     131.490E-03     123.824E-03    -433.202E-03     128.514E-03    -432.204E-03     125.802E-03    -12.4487E-03     657.532E-03    -328.317E-03    -329.220E-03    -328.751E-03     657.470E-03    -328.725E-03     14.6454E-03    -44.9264E+06    -48.6183E+06    -66.9207E+06    -61.2391E+06    -50.6080E+06    -48.6183E+06     2.64164E+06         76.7492
            1688     2.88014E-03     166.407E-03     133.998E-03     124.771E-03    -435.458E-03     131.000E-03    -434.437E-03     126.749E-03    -13.5457E-03     656.570E-03    -327.457E-03    -328.658E-03    -327.288E-03     656.382E-03    -328.639E-03     26.3537E-03    -35.6457E+06    -39.8386E+06    -60.4812E+06    -56.3055E+06    -42.3654E+06    -37.2948E+06     3.44983E+06         77.3894
            1689     3.60412E-03     166.355E-03     134.199E-03     126.818E-03    -438.727E-03     132.177E-03    -437.634E-03     127.748E-03    -18.9815E-03     654.032E-03    -325.036E-03    -328.368E-03    -324.553E-03     653.549E-03    -328.368E-03     42.3579E-03    -21.3778E+06    -30.4678E+06    -52.4293E+06    -50.8918E+06    -32.0053E+06    -21.3778E+06     4.60374E+06         78.0582
            1690     4.32637E-03     166.347E-03     133.857E-03     126.013E-03    -439.663E-03     130.806E-03    -439.012E-03     128.412E-03     7.46224E-03     650.441E-03    -322.774E-03    -328.294E-03    -321.734E-03     649.401E-03    -328.294E-03     62.6243E-03    -6.94293E+06    -22.4723E+06    -47.3850E+06    -44.8983E+06    -24.9590E+06    -6.94293E+06     4.44399E+06         78.6544
            1691     5.04905E-03     166.384E-03     133.368E-03     127.368E-03    -443.169E-03     131.340E-03    -442.610E-03     128.838E-03    -9.12962E-03     647.221E-03    -320.973E-03    -327.956E-03    -319.104E-03     645.353E-03    -327.956E-03     84.2207E-03     2.67811E+06    -14.9578E+06    -43.2304E+06    -39.4982E+06    -18.6899E+06     2.67811E+06     4.11846E+06         79.1817
            1692     5.76988E-03     166.493E-03     131.966E-03     127.044E-03    -441.268E-03     129.416E-03    -440.866E-03     129.191E-03    -3.69197E-03     648.161E-03    -321.195E-03    -328.551E-03    -318.216E-03     645.182E-03    -328.551E-03     106.671E-03     10.8100E+06    -7.85591E+06    -40.5145E+06    -34.8308E+06    -13.5395E+06     10.8100E+06     6.36447E+06         79.7289
            1693     6.45449E-03     166.930E-03     132.550E-03     126.404E-03    -439.102E-03     129.440E-03    -438.998E-03     129.411E-03     2.71430E-03     652.145E-03    -324.581E-03    -330.308E-03    -320.313E-03     647.877E-03    -330.308E-03     128.476E-03     18.9598E+06    -4.31043E+06    -33.6854E+06    -29.1051E+06    -8.89075E+06     18.9598E+06     6.40006E+06         80.4508
            1694     7.17752E-03     167.084E-03     132.821E-03     125.627E-03    -439.658E-03     128.940E-03    -439.614E-03     129.465E-03     1.67466E-03     656.624E-03    -327.763E-03    -330.493E-03    -322.058E-03     650.919E-03    -330.493E-03     149.080E-03     24.4802E+06     331.759E+03    -27.1915E+06    -25.0881E+06    -1.77164E+06     24.4802E+06     4.70412E+06         81.3245
            1695     7.90937E-03     167.190E-03     131.509E-03     124.028E-03    -437.988E-03     126.262E-03    -437.956E-03     129.243E-03     1.46342E-03     657.785E-03    -327.246E-03    -330.103E-03    -320.881E-03     650.657E-03    -329.339E-03     166.814E-03     27.3905E+06     3.27420E+06    -25.1846E+06    -23.2035E+06     1.29311E+06     27.3905E+06     5.13658E+06         82.1313
            1696     8.65046E-03     167.316E-03     129.313E-03     124.535E-03    -437.077E-03     125.057E-03    -437.003E-03     128.717E-03     4.08273E-03     656.329E-03    -327.760E-03    -330.797E-03    -320.010E-03     647.815E-03    -330.033E-03     182.138E-03     32.6455E+06     7.14386E+06    -21.6704E+06    -19.6872E+06     5.16067E+06     32.6455E+06     4.57602E+06         82.8061
            1697     9.33102E-03     167.851E-03     128.054E-03     124.631E-03    -435.919E-03     124.553E-03    -435.841E-03     128.054E-03     7.67724E-03     659.400E-03    -329.605E-03    -332.820E-03    -322.418E-03     649.897E-03    -330.504E-03     193.137E-03     38.1176E+06     8.76417E+06    -18.4185E+06    -16.7522E+06     7.09780E+06     38.1176E+06     3.74352E+06         83.6532
            1698     10.0816E-03     167.939E-03     127.682E-03     124.117E-03    -431.979E-03     124.350E-03    -431.963E-03     127.433E-03     526.344E-06     663.869E-03    -329.800E-03    -336.373E-03    -324.518E-03     652.014E-03    -329.800E-03     215.601E-03     40.3683E+06     5.21872E+06    -15.8540E+06    -15.1990E+06     4.56366E+06     40.3683E+06     3.51354E+06         85.0326
            1699     10.7956E-03     168.267E-03     126.947E-03     122.145E-03    -427.755E-03     122.312E-03    -427.673E-03     126.698E-03     8.48043E-03     664.418E-03    -329.936E-03    -337.348E-03    -324.533E-03     651.603E-03    -329.936E-03     224.923E-03     44.4771E+06     13.5646E+06    -11.3945E+06    -10.7430E+06     12.9130E+06     44.4771E+06     3.61576E+06         86.9640
            1700     11.4995E-03     168.647E-03     125.917E-03     121.467E-03    -424.860E-03     121.503E-03    -424.678E-03     125.699E-03    -1.08406E-03     677.046E-03    -330.154E-03    -347.989E-03    -329.073E-03     658.130E-03    -330.154E-03     271.045E-03     51.2453E+06     20.7893E+06    -6.29187E+06    -5.70553E+06     20.2029E+06     51.2453E+06     2.20275E+06         89.4130
            1701     12.2151E-03     169.241E-03     125.933E-03     120.520E-03    -421.665E-03     121.573E-03    -421.527E-03     124.742E-03    -4.44400E-03     679.150E-03    -329.382E-03    -349.444E-03    -332.613E-03     662.319E-03    -329.382E-03     250.172E-03     58.1806E+06     22.2083E+06    -4.31362E+06    -3.92239E+06     21.8171E+06     58.1806E+06     682.853E+03         92.0891
            1702     720.385E-06     168.499E-03     163.983E-03     138.012E-03    -473.558E-03     137.430E-03    -447.392E-03     138.399E-03    -79.2697E-03     655.655E-03    -326.839E-03    -329.001E-03    -328.793E-03     655.652E-03    -327.044E-03     2.89271E-03    -65.4397E+06    -73.8738E+06    -79.3714E+06    -75.5134E+06    -68.8155E+06    -74.3560E+06     2.05611E+06         75.8797
            1703     1.44013E-03     168.473E-03     138.722E-03     133.198E-03    -441.399E-03     128.573E-03    -433.846E-03     135.794E-03     44.8983E-03     656.361E-03    -327.804E-03    -328.911E-03    -328.689E-03     656.344E-03    -328.009E-03     7.47702E-03    -57.4811E+06    -65.6552E+06    -76.1914E+06    -72.1013E+06    -61.2148E+06    -66.0117E+06     1.61119E+06         76.2174
            1704     2.16043E-03     168.413E-03     134.731E-03     128.655E-03    -433.020E-03     127.856E-03    -430.332E-03     132.841E-03    -1.51280E-03     656.625E-03    -328.000E-03    -328.837E-03    -328.591E-03     656.550E-03    -328.171E-03     16.2530E-03    -47.9871E+06    -54.0079E+06    -74.0996E+06    -68.2955E+06    -54.0645E+06    -53.7346E+06     2.87158E+06         76.7461
            1705     2.88404E-03     168.358E-03     133.202E-03     125.089E-03    -430.020E-03     124.836E-03    -427.569E-03     131.005E-03    -1.83504E-03     654.872E-03    -326.856E-03    -328.188E-03    -326.651E-03     654.667E-03    -328.188E-03     27.7301E-03    -39.4831E+06    -44.6854E+06    -68.5919E+06    -64.6980E+06    -47.0565E+06    -41.0057E+06     3.58291E+06         77.4194
            1706     3.60917E-03     168.320E-03     133.609E-03     122.501E-03    -429.402E-03     124.647E-03    -427.556E-03     129.617E-03    -12.4118E-03     652.849E-03    -324.558E-03    -328.040E-03    -324.062E-03     652.353E-03    -328.040E-03     42.9832E-03    -27.4894E+06    -36.9414E+06    -60.7040E+06    -59.0910E+06    -38.5544E+06    -27.4894E+06     4.29193E+06         78.1389
            1707     4.33132E-03     168.326E-03     135.738E-03     126.068E-03    -436.278E-03     131.051E-03    -434.769E-03     129.246E-03    -5.34157E-03     650.063E-03    -322.724E-03    -327.913E-03    -321.694E-03     649.033E-03    -327.913E-03     62.3924E-03    -12.4672E+06    -25.6582E+06    -55.6019E+06    -52.8845E+06    -28.3756E+06    -12.4672E+06     5.66525E+06         78.8339
            1708     5.05630E-03     168.344E-03     134.368E-03     129.659E-03    -439.266E-03     133.268E-03    -438.167E-03     129.659E-03    -17.6092E-03     647.765E-03    -322.257E-03    -327.507E-03    -320.333E-03     645.841E-03    -327.507E-03     85.3329E-03     989.351E+03    -15.5043E+06    -51.0008E+06    -46.1766E+06    -20.3285E+06     989.351E+03     6.44264E+06         79.4371
            1709     5.77266E-03     168.473E-03     130.213E-03     127.285E-03    -434.131E-03     127.481E-03    -433.874E-03     129.760E-03     3.25912E-03     647.842E-03    -321.924E-03    -327.853E-03    -318.850E-03     644.768E-03    -327.853E-03     108.528E-03     11.8834E+06    -8.86299E+06     -46.717E+06    -39.9160E+06    -15.6640E+06     11.8834E+06     7.44941E+06         79.8966
            1710     6.47309E-03     168.791E-03     129.253E-03     123.714E-03    -428.974E-03     123.603E-03    -428.862E-03     129.253E-03    -9.12240E-03     649.475E-03    -323.296E-03    -328.780E-03    -319.048E-03     645.226E-03    -328.780E-03     127.988E-03     21.5933E+06    -4.07263E+06    -39.7306E+06    -34.5530E+06    -9.25026E+06     21.5933E+06     7.38463E+06         80.3532
            1711     7.19273E-03     168.917E-03     128.401E-03     119.818E-03    -424.973E-03     119.757E-03    -424.911E-03     128.401E-03    -769.247E-06     652.181E-03    -325.908E-03    -328.892E-03    -320.384E-03     646.658E-03    -328.892E-03     146.308E-03     29.4884E+06    -1.08635E+06    -32.6722E+06    -30.0017E+06    -3.75680E+06     29.4884E+06     6.00223E+06         80.9935
            1712     7.92237E-03     168.985E-03     127.283E-03     117.299E-03    -421.880E-03     117.241E-03    -421.822E-03     127.283E-03    -1.79397E-03     656.124E-03    -327.176E-03    -329.034E-03    -320.923E-03     649.062E-03    -328.224E-03     165.791E-03     34.5212E+06     5.21372E+06    -27.6096E+06    -25.4935E+06     3.09759E+06     34.5212E+06     5.77937E+06         81.7753
            1713     8.62603E-03     169.246E-03     126.122E-03     118.631E-03    -420.507E-03     118.618E-03    -420.494E-03     126.122E-03    -2.81689E-03     657.577E-03    -327.813E-03    -329.781E-03    -319.871E-03     648.825E-03    -328.972E-03     184.679E-03     36.8979E+06     12.0634E+06    -23.0670E+06    -20.5145E+06     9.51095E+06     36.8979E+06     8.63458E+06         82.5405
            1714     9.36216E-03     169.442E-03     125.136E-03     119.555E-03    -419.159E-03     119.530E-03    -419.135E-03     125.136E-03     1.40392E-03     656.753E-03    -328.021E-03    -330.835E-03    -319.663E-03     646.740E-03    -329.179E-03     197.681E-03     37.6735E+06     9.09317E+06    -21.3683E+06    -18.3819E+06     6.10683E+06     37.6735E+06     8.82322E+06         83.3858
            1715     10.0877E-03     169.739E-03     124.145E-03     119.349E-03    -417.800E-03     119.244E-03    -417.694E-03     124.145E-03    -4.00310E-03     659.369E-03    -328.972E-03    -332.899E-03    -320.820E-03     647.290E-03    -328.972E-03     217.120E-03     43.2457E+06     9.17268E+06    -17.6641E+06    -16.2058E+06     7.71433E+06     43.2457E+06     5.03580E+06         84.6207
            1716     10.7959E-03     170.212E-03     123.455E-03     118.586E-03    -415.446E-03     118.779E-03    -415.188E-03     123.005E-03     5.15300E-03     661.577E-03    -329.430E-03    -334.281E-03    -321.970E-03     649.266E-03    -329.430E-03     219.668E-03     52.0226E+06     14.2233E+06    -11.4070E+06    -10.9956E+06     13.8119E+06     52.0226E+06     2.36356E+06         86.4212
            1717     11.5111E-03     170.557E-03     122.441E-03     118.784E-03    -412.783E-03     118.765E-03    -412.097E-03     121.773E-03    -8.44955E-03     675.075E-03    -329.463E-03    -347.092E-03    -329.673E-03     657.656E-03    -329.463E-03     260.139E-03     62.2990E+06     21.3918E+06    -7.27196E+06    -6.61199E+06     20.7318E+06     62.2990E+06     2.36234E+06         88.8164
            1718     12.2333E-03     171.143E-03     121.830E-03     117.809E-03    -409.229E-03     118.281E-03    -408.510E-03     120.639E-03    -9.21125E-03     678.914E-03    -328.936E-03    -350.437E-03    -335.239E-03     663.716E-03    -328.936E-03     237.020E-03     70.5668E+06     28.3670E+06    -5.39706E+06    -4.73828E+06     27.7082E+06     70.5668E+06     2.46577E+06         91.4745
            1719     721.982E-06     170.325E-03     171.761E-03     128.615E-03    -462.285E-03     141.963E-03    -432.487E-03     128.615E-03    -64.5005E-03     652.681E-03    -325.529E-03    -327.275E-03    -326.248E-03     652.679E-03    -326.555E-03     1.68782E-03    -73.9360E+06    -82.9235E+06    -94.1514E+06    -86.7445E+06    -81.9520E+06    -82.3144E+06     5.15416E+06         75.8161
            1720     1.44047E-03     170.335E-03     147.416E-03     132.863E-03    -443.279E-03     133.376E-03    -431.447E-03     135.072E-03     36.4117E-03     653.345E-03    -326.299E-03    -327.421E-03    -326.707E-03     653.327E-03    -326.995E-03     7.38649E-03    -63.1837E+06     -72.022E+06    -89.8184E+06    -84.4481E+06     -68.554E+06     -72.022E+06     6.64710E+06         76.1770
            1721     2.16080E-03     170.315E-03     138.391E-03     130.901E-03    -436.487E-03     130.422E-03    -431.620E-03     134.003E-03    -22.6048E-03     652.999E-03    -326.635E-03    -327.536E-03    -326.745E-03     652.920E-03    -327.346E-03     16.7232E-03    -54.1153E+06    -59.0857E+06    -88.5854E+06    -81.9990E+06    -61.3725E+06    -58.4149E+06     7.87183E+06         76.7248
            1722     2.88139E-03     170.294E-03     133.795E-03     127.641E-03    -432.379E-03     125.420E-03    -428.834E-03     132.472E-03    -8.31368E-03     653.564E-03    -326.958E-03    -327.493E-03    -326.734E-03     653.340E-03    -327.493E-03     28.8456E-03    -42.1570E+06    -46.8767E+06    -80.0932E+06    -75.4076E+06    -51.5622E+06    -42.1570E+06     8.42910E+06         77.3933
            1723     3.60057E-03     170.276E-03     131.448E-03     122.449E-03    -427.115E-03     120.930E-03    -424.715E-03     130.566E-03    -31.7387E-03     653.649E-03    -325.464E-03    -327.891E-03    -324.964E-03     653.149E-03    -327.891E-03     43.4418E-03    -29.0432E+06    -39.6210E+06    -72.3683E+06    -69.3437E+06    -42.6457E+06    -29.0432E+06     7.45944E+06         78.0870
            1724     4.32227E-03     170.296E-03     130.048E-03     123.272E-03    -425.364E-03     122.369E-03    -423.414E-03     129.001E-03    -26.5798E-03     652.058E-03    -324.075E-03    -328.478E-03    -323.056E-03     651.040E-03    -328.478E-03     62.1002E-03    -16.1125E+06    -29.5409E+06    -65.5168E+06    -62.7568E+06    -32.3010E+06    -16.1125E+06     7.35477E+06         78.7865
            1725     5.04241E-03     170.323E-03     129.371E-03     125.246E-03    -425.767E-03     124.512E-03    -423.778E-03     128.116E-03    -24.7402E-03     651.193E-03    -323.642E-03    -328.217E-03    -321.784E-03     649.334E-03    -328.217E-03     84.2241E-03    -2.85278E+06    -21.7864E+06    -60.9582E+06    -56.2373E+06    -26.5073E+06    -2.85278E+06     7.89134E+06         79.4660
            1726     5.76735E-03     170.392E-03     127.603E-03     123.233E-03    -422.088E-03     123.017E-03    -421.664E-03     127.396E-03     8.05082E-03     649.677E-03    -323.109E-03    -328.086E-03    -320.091E-03     646.658E-03    -328.086E-03     107.517E-03     10.6954E+06    -16.1200E+06    -54.4120E+06    -49.4485E+06    -21.0835E+06     10.6954E+06     7.01581E+06         80.0003
            1727     6.48620E-03     170.523E-03     126.406E-03     119.004E-03    -416.969E-03     118.886E-03    -416.851E-03     126.406E-03    -10.5580E-03     649.454E-03    -323.408E-03    -327.721E-03    -318.934E-03     644.981E-03    -327.721E-03     131.010E-03     21.5853E+06    -5.59415E+06    -46.9888E+06    -43.6196E+06    -8.96337E+06     21.5853E+06     7.35851E+06         80.3985
            1728     7.21158E-03     170.646E-03     125.218E-03     115.978E-03    -413.129E-03     115.938E-03    -413.088E-03     125.218E-03    -3.75699E-03     648.322E-03    -323.770E-03    -326.576E-03    -317.943E-03     642.234E-03    -326.316E-03     152.808E-03     27.5477E+06     220.829E+03    -40.8712E+06    -38.2698E+06    -2.38050E+06     27.5477E+06     7.43569E+06         80.8709
            1729     7.93921E-03     170.791E-03     123.863E-03     114.217E-03    -409.652E-03     114.173E-03    -409.607E-03     123.863E-03    -6.22864E-03     649.709E-03    -324.285E-03    -326.453E-03    -317.051E-03     642.169E-03    -326.147E-03     170.511E-03     30.6003E+06     1.06769E+06    -35.8658E+06    -33.1994E+06    -1.59869E+06     30.6003E+06     7.72739E+06         81.5294
            1730     8.62085E-03     171.295E-03     122.414E-03     113.414E-03    -405.665E-03     113.358E-03    -405.610E-03     122.414E-03    -9.50804E-03     655.597E-03    -326.060E-03    -327.844E-03    -317.510E-03     646.715E-03    -327.513E-03     185.763E-03     33.9190E+06     2.98084E+06    -31.4910E+06    -29.0458E+06     535.602E+03     33.9190E+06     8.47148E+06         82.2772
            1731     9.36687E-03     171.431E-03     121.169E-03     113.167E-03    -403.188E-03     113.112E-03    -403.133E-03     121.169E-03    -4.21344E-03     656.343E-03    -327.216E-03    -330.173E-03    -319.625E-03     646.358E-03    -327.781E-03     197.350E-03     40.7767E+06     11.2151E+06    -24.7298E+06    -22.5322E+06     9.01753E+06     40.7767E+06     6.71284E+06         83.1105
            1732     10.0960E-03     171.652E-03     119.981E-03     113.876E-03    -401.571E-03     113.636E-03    -401.331E-03     119.981E-03    -12.8873E-03     658.385E-03    -327.379E-03    -332.877E-03    -321.126E-03     646.634E-03    -327.379E-03     214.214E-03     49.3392E+06     18.9999E+06    -18.1622E+06    -16.6283E+06     17.4659E+06     49.3392E+06     5.11703E+06         84.2986
            1733     10.8046E-03     172.122E-03     119.154E-03     114.406E-03    -400.265E-03     114.269E-03    -399.678E-03     118.704E-03     3.50198E-03     662.945E-03    -327.842E-03    -336.292E-03    -324.675E-03     651.328E-03    -327.842E-03     213.726E-03     57.5005E+06     17.2810E+06    -14.4957E+06    -13.6940E+06     16.4792E+06     57.5005E+06     4.27952E+06         86.1133
            1734     11.5142E-03     172.513E-03     117.765E-03     111.852E-03    -395.548E-03     111.244E-03    -394.489E-03     117.315E-03    -7.39302E-03     677.817E-03    -328.975E-03    -350.602E-03    -334.099E-03     661.314E-03    -328.975E-03     253.836E-03     66.0773E+06     22.4093E+06    -12.0912E+06    -10.7516E+06     21.0696E+06     66.0773E+06     2.23806E+06         88.6205
            1735     12.2431E-03     173.057E-03     115.901E-03     109.207E-03    -390.928E-03     108.235E-03    -389.957E-03     115.901E-03    -10.3604E-03     678.045E-03    -328.385E-03    -350.285E-03    -335.521E-03     663.281E-03    -328.385E-03     234.820E-03     76.2666E+06     31.4895E+06    -4.90194E+06    -3.76933E+06     30.3569E+06     76.2666E+06     1.36863E+06         91.4376
            1736     721.007E-06     172.127E-03     163.364E-03     111.569E-03    -435.376E-03     130.707E-03    -402.720E-03     111.569E-03    -81.0134E-03     648.690E-03    -323.319E-03    -325.385E-03    -324.117E-03     648.682E-03    -324.578E-03     4.58039E-03    -88.1281E+06    -96.2272E+06    -116.973E+06    -95.8132E+06    -110.022E+06    -95.4923E+06     6.28010E+06         75.8765
            1737     1.44448E-03     172.168E-03     142.723E-03     123.360E-03    -427.554E-03     131.941E-03    -416.771E-03     123.360E-03     25.9518E-03     648.917E-03    -324.085E-03    -325.214E-03    -324.260E-03     648.893E-03    -325.015E-03     9.04984E-03    -78.0680E+06    -85.9815E+06    -108.655E+06    -95.6904E+06    -91.0329E+06    -85.9815E+06     12.9902E+06         76.2332
            1738     2.16654E-03     172.184E-03     134.236E-03     124.923E-03    -424.539E-03     127.811E-03    -419.007E-03     125.816E-03    -18.5935E-03     649.463E-03    -324.836E-03    -325.872E-03    -324.950E-03     649.377E-03    -325.673E-03     17.4283E-03    -61.6076E+06    -67.6848E+06    -101.936E+06    -90.8157E+06    -73.1258E+06    -67.2873E+06     15.5660E+06         76.7260
            1739     2.88484E-03     172.219E-03     131.628E-03     125.245E-03    -424.291E-03     126.151E-03    -419.707E-03     126.138E-03    -9.54253E-03     650.711E-03    -325.814E-03    -326.248E-03    -325.647E-03     650.468E-03    -326.173E-03     30.0212E-03    -45.2836E+06    -52.6894E+06    -91.9883E+06    -84.4173E+06    -56.2761E+06    -49.2680E+06     14.0071E+06         77.2780
            1740     3.60359E-03     172.241E-03     131.061E-03     125.148E-03    -424.132E-03     126.492E-03    -420.564E-03     126.149E-03    -27.2530E-03     653.705E-03    -326.032E-03    -327.438E-03    -326.182E-03     653.164E-03    -326.746E-03     45.2935E-03    -27.0446E+06    -38.9660E+06    -80.6094E+06    -75.4427E+06    -44.1327E+06    -27.0446E+06     12.5247E+06         77.8445
            1741     4.31889E-03     172.281E-03     126.983E-03     121.325E-03    -415.870E-03     119.974E-03    -413.190E-03     125.654E-03    -16.0568E-03     655.063E-03    -325.849E-03    -328.701E-03    -325.411E-03     654.009E-03    -328.085E-03     63.4859E-03    -9.00576E+06    -31.5595E+06    -72.9146E+06    -68.3394E+06    -36.1348E+06    -9.00576E+06     11.4501E+06         78.4618
            1742     5.04116E-03     172.328E-03     124.409E-03     117.385E-03    -406.284E-03     115.217E-03    -404.116E-03     124.409E-03    -23.0968E-03     653.772E-03    -324.548E-03    -328.722E-03    -322.651E-03     651.875E-03    -328.722E-03     85.1902E-03     3.32320E+06    -24.4982E+06    -68.2103E+06    -62.8860E+06    -29.8226E+06     3.32320E+06     11.0935E+06         79.1844
            1743     5.75952E-03     172.430E-03     123.069E-03     115.730E-03    -401.046E-03     115.223E-03    -400.539E-03     123.069E-03     10.1664E-03     649.579E-03    -323.061E-03    -328.270E-03    -319.963E-03     646.480E-03    -328.270E-03     108.894E-03     13.3292E+06    -16.4615E+06    -61.2738E+06    -55.8008E+06    -21.9345E+06     13.3292E+06     11.5884E+06         79.9436
            1744     6.49051E-03     172.504E-03     121.911E-03     114.472E-03    -399.715E-03     114.324E-03    -399.568E-03     121.911E-03    -5.19668E-03     647.238E-03    -321.690E-03    -327.075E-03    -317.063E-03     642.611E-03    -327.075E-03     132.980E-03     22.4979E+06    -7.45427E+06    -52.6905E+06    -48.4063E+06    -11.7384E+06     22.4979E+06     11.3868E+06         80.6030
            1745     7.22766E-03     172.594E-03     120.782E-03     112.084E-03    -397.436E-03     112.027E-03    -397.379E-03     120.782E-03     2.18912E-03     646.085E-03    -321.550E-03    -324.753E-03    -315.521E-03     639.795E-03    -324.493E-03     155.119E-03     30.1260E+06     1.09043E+06    -45.2819E+06    -41.8928E+06    -2.29865E+06     30.1260E+06     10.7138E+06         81.1777
            1746     7.96187E-03     172.678E-03     119.460E-03     110.369E-03    -394.093E-03     110.325E-03    -394.049E-03     119.460E-03    -1.70753E-03     647.422E-03    -323.155E-03    -324.821E-03    -316.232E-03     639.895E-03    -324.218E-03     170.230E-03     34.4846E+06     608.448E+03    -38.1577E+06    -35.6453E+06    -1.90394E+06     34.4846E+06     9.00696E+06         81.8214
            1747     8.64280E-03     173.108E-03     118.065E-03     110.194E-03    -391.225E-03     110.128E-03    -391.158E-03     118.065E-03    -5.82271E-03     653.312E-03    -325.059E-03    -326.999E-03    -317.402E-03     644.603E-03    -325.947E-03     183.706E-03     38.9322E+06     4.03120E+06    -31.3932E+06    -29.7601E+06     2.39811E+06     38.9322E+06     7.07147E+06         82.5910
            1748     9.39018E-03     173.241E-03     116.960E-03     109.996E-03    -388.019E-03     109.798E-03    -387.821E-03     116.960E-03     3.41799E-03     654.011E-03    -326.146E-03    -329.080E-03    -319.155E-03     644.085E-03    -326.146E-03     196.478E-03     44.7467E+06     11.3689E+06    -26.5356E+06    -25.4232E+06     10.2565E+06     44.7467E+06     5.20445E+06         83.5104
            1749     10.1384E-03     173.416E-03     115.867E-03     108.774E-03    -382.604E-03     108.213E-03    -382.043E-03     115.867E-03    -9.61346E-03     659.082E-03    -325.451E-03    -334.320E-03    -322.349E-03     647.110E-03    -325.451E-03     216.340E-03     53.0326E+06     15.5936E+06    -22.2414E+06    -21.2795E+06     14.6318E+06     53.0326E+06     4.54637E+06         84.8128
            1750     10.8273E-03     173.960E-03     114.477E-03     107.174E-03    -378.143E-03     106.432E-03    -377.401E-03     114.477E-03    -2.01944E-03     667.416E-03    -326.001E-03    -340.861E-03    -328.595E-03     655.150E-03    -326.001E-03     220.566E-03     60.7655E+06     22.7413E+06    -16.9577E+06    -16.1265E+06     21.9101E+06     60.7655E+06     4.59940E+06         86.7310
            1751     11.5395E-03     174.367E-03     113.006E-03     106.793E-03    -376.360E-03     105.987E-03    -375.554E-03     113.006E-03    -3.69454E-03     680.378E-03    -328.114E-03    -353.290E-03    -335.276E-03     662.364E-03    -328.114E-03     265.202E-03     68.9592E+06     28.2520E+06    -12.4099E+06    -11.2167E+06     27.0587E+06     68.9592E+06     1.71391E+06         89.3407
            1752     12.2541E-03     174.926E-03     111.808E-03     107.542E-03    -375.214E-03     106.872E-03    -374.544E-03     111.808E-03    -7.79492E-03     674.389E-03    -327.647E-03    -346.691E-03    -330.177E-03     657.876E-03    -327.647E-03     248.759E-03     78.7209E+06     31.7858E+06    -6.48810E+06    -5.43369E+06     30.7314E+06     78.7209E+06    -39.2663E+03         92.2400
            1753     725.420E-06     174.160E-03     159.777E-03     119.728E-03    -440.094E-03     121.279E-03    -401.597E-03     119.728E-03    -92.6533E-03     645.011E-03    -321.456E-03    -323.596E-03    -323.354E-03     645.002E-03    -321.690E-03     3.46117E-03    -97.9847E+06    -104.020E+06    -149.202E+06    -102.929E+06    -146.772E+06    -101.505E+06     8.32525E+06         75.6557
            1754     1.44784E-03     174.190E-03     133.912E-03     120.136E-03    -412.379E-03     119.524E-03    -397.991E-03     120.136E-03     19.8087E-03     646.485E-03    -323.118E-03    -323.672E-03    -323.402E-03     646.460E-03    -323.362E-03     8.85206E-03    -90.8106E+06    -96.4332E+06    -131.326E+06    -100.536E+06    -123.642E+06    -94.3921E+06     13.4811E+06         76.0387
            1755     2.16695E-03     174.199E-03     131.274E-03     120.359E-03    -411.236E-03     122.562E-03    -402.524E-03     120.359E-03    -17.9600E-03     647.885E-03    -324.036E-03    -324.587E-03    -324.155E-03     647.805E-03    -324.388E-03     16.9919E-03    -72.8015E+06    -80.4426E+06    -114.840E+06    -95.3480E+06    -94.7439E+06    -77.9926E+06     18.2964E+06         76.5570
            1756     2.88875E-03     174.181E-03     128.250E-03     120.845E-03    -409.301E-03     121.741E-03    -402.792E-03     120.845E-03    -2.35937E-03     648.790E-03    -324.820E-03    -325.486E-03    -324.917E-03     648.563E-03    -325.162E-03     28.8598E-03    -48.2607E+06    -58.6018E+06    -103.031E+06    -89.6530E+06    -65.7900E+06    -54.4505E+06     21.0174E+06         77.1306
            1757     3.60997E-03     174.172E-03     125.559E-03     119.009E-03    -402.087E-03     118.440E-03    -396.689E-03     120.731E-03    -14.8173E-03     651.818E-03    -325.085E-03    -326.487E-03    -325.489E-03     651.282E-03    -325.547E-03     44.9176E-03    -30.9314E+06    -41.8399E+06    -94.9647E+06    -84.8800E+06     -49.719E+06    -33.1369E+06     20.3229E+06         77.7323
            1758     4.33079E-03     174.175E-03     121.186E-03     115.344E-03    -394.396E-03     112.717E-03    -390.441E-03     119.858E-03     310.762E-06     653.716E-03    -324.832E-03    -327.380E-03    -324.346E-03     652.615E-03    -326.764E-03     64.6683E-03    -13.9138E+06    -32.8899E+06    -87.0942E+06    -78.8652E+06    -41.1189E+06    -13.9138E+06     18.3416E+06         78.4005
            1759     5.04830E-03     174.206E-03     118.514E-03     112.795E-03    -388.262E-03     110.056E-03    -385.523E-03     118.514E-03    -17.9385E-03     651.314E-03    -323.520E-03    -327.952E-03    -321.465E-03     649.259E-03    -327.952E-03     88.4051E-03     3.41360E+06    -22.9498E+06    -77.1037E+06    -69.4851E+06    -30.5684E+06     3.41360E+06     16.6203E+06         79.1794
            1760     5.77778E-03     174.271E-03     117.301E-03     112.934E-03    -384.473E-03     111.661E-03    -383.200E-03     117.301E-03     5.22172E-03     647.525E-03    -322.320E-03    -327.224E-03    -319.022E-03     644.228E-03    -327.224E-03     112.326E-03     15.5536E+06    -17.5819E+06    -67.6925E+06    -61.9511E+06    -23.3233E+06     15.5536E+06     14.2558E+06         80.0478
            1761     6.50000E-03     174.382E-03     116.383E-03     113.100E-03    -383.396E-03     112.501E-03    -382.797E-03     116.383E-03    -12.2678E-03     645.973E-03    -321.550E-03    -325.718E-03    -316.804E-03     641.228E-03    -325.718E-03     134.631E-03     27.4283E+06    -8.34024E+06    -58.4088E+06    -54.0977E+06    -12.6512E+06     27.4283E+06     13.1314E+06         80.8717
            1762     7.23003E-03     174.534E-03     116.697E-03     110.979E-03    -382.640E-03     111.925E-03    -382.472E-03     115.582E-03     200.755E-06     644.969E-03    -321.519E-03    -324.197E-03    -315.460E-03     638.630E-03    -323.917E-03     155.632E-03     38.4388E+06     2.09219E+06    -47.6683E+06    -44.1887E+06    -1.38734E+06     38.4388E+06     11.9680E+06         81.5805
            1763     7.96507E-03     174.693E-03     115.784E-03     109.968E-03    -381.001E-03     110.910E-03    -380.828E-03     114.670E-03    -255.919E-06     647.958E-03    -323.883E-03    -325.058E-03    -317.109E-03     640.183E-03    -324.058E-03     173.027E-03     43.7429E+06     3.92321E+06    -39.9343E+06    -37.8371E+06     1.82595E+06     43.7429E+06     9.11200E+06         82.2980
            1764     8.64354E-03     175.147E-03     113.634E-03     108.966E-03    -376.775E-03     108.798E-03    -376.608E-03     113.634E-03     674.672E-06     653.936E-03    -325.493E-03    -327.874E-03    -318.679E-03     644.740E-03    -325.493E-03     188.943E-03     47.0785E+06     7.54174E+06    -33.5702E+06    -32.0662E+06     6.03769E+06     47.0785E+06     7.59949E+06         83.1387
            1765     9.39057E-03     175.261E-03     112.688E-03     107.022E-03    -372.299E-03     106.674E-03    -371.951E-03     112.688E-03     8.11251E-03     653.496E-03    -325.504E-03    -330.023E-03    -319.537E-03     643.009E-03    -325.504E-03     201.952E-03     51.9684E+06     12.9349E+06    -27.5943E+06    -25.9478E+06     11.2884E+06     51.9684E+06     7.92621E+06         84.1438
            1766     10.1347E-03     175.487E-03     111.582E-03     106.040E-03    -370.144E-03     105.171E-03    -369.275E-03     111.582E-03    -7.76451E-03     659.616E-03    -324.896E-03    -335.516E-03    -322.699E-03     646.799E-03    -324.896E-03     223.900E-03     58.5420E+06     17.5068E+06    -21.2951E+06    -19.9699E+06     16.1816E+06     58.5420E+06     6.69032E+06         85.4537
            1767     10.8247E-03     176.034E-03     110.802E-03     106.308E-03    -367.740E-03     105.570E-03    -366.446E-03     110.247E-03     79.1396E-06     667.559E-03    -325.405E-03    -340.417E-03    -326.793E-03     653.936E-03    -325.405E-03     232.559E-03     65.0806E+06     24.9562E+06    -14.7004E+06    -13.8050E+06     24.0608E+06     65.0806E+06     4.64549E+06         87.2695
            1768     11.5333E-03     176.477E-03     109.583E-03     107.280E-03    -363.932E-03     106.248E-03    -362.344E-03     109.027E-03    -4.05976E-03     676.973E-03    -327.234E-03    -349.483E-03    -329.593E-03     657.083E-03    -327.234E-03     278.277E-03     73.7328E+06     33.3268E+06    -9.43249E+06    -8.28116E+06     32.1755E+06     73.7328E+06     3.22588E+06         89.7690
            1769     12.2531E-03     177.063E-03     108.019E-03     105.078E-03    -357.610E-03     103.552E-03    -356.084E-03     108.019E-03    -5.44497E-03     672.413E-03    -326.695E-03    -344.710E-03    -327.053E-03     654.757E-03    -326.695E-03     255.602E-03     81.4835E+06     37.4349E+06    -4.62141E+06    -3.56436E+06     36.3779E+06     81.4835E+06     1.78679E+06         92.5739
            1770     723.165E-06     176.120E-03     142.572E-03     127.280E-03    -421.894E-03     111.711E-03    -391.033E-03     127.280E-03    -48.4922E-03     644.650E-03    -321.479E-03    -323.112E-03    -322.572E-03     644.642E-03    -322.012E-03     2.95249E-03    -110.901E+06    -115.150E+06    -187.423E+06    -114.824E+06    -186.013E+06    -112.635E+06     8.84070E+06         74.7591
            1771     1.44479E-03     176.190E-03     126.839E-03     117.463E-03    -395.528E-03     109.732E-03    -378.421E-03     117.463E-03     17.0000E-03     645.077E-03    -322.309E-03    -323.078E-03    -322.389E-03     645.047E-03    -322.968E-03     9.55775E-03    -100.437E+06    -107.767E+06    -160.870E+06    -110.975E+06    -156.367E+06    -101.731E+06     13.3264E+06         75.1255
            1772     2.16801E-03     176.219E-03     122.114E-03     114.945E-03    -384.416E-03     112.019E-03    -374.322E-03     114.945E-03    -29.3540E-03     645.585E-03    -322.700E-03    -323.511E-03    -322.604E-03     645.488E-03    -323.511E-03     18.4612E-03    -84.8397E+06    -93.5057E+06    -139.251E+06    -105.913E+06    -126.456E+06    -85.2268E+06     18.6701E+06         75.6921
            1773     2.88789E-03     176.227E-03     117.028E-03     113.362E-03    -376.104E-03     110.426E-03    -370.123E-03     113.983E-03     2.34100E-03     646.219E-03    -323.696E-03    -324.315E-03    -323.681E-03     645.940E-03    -324.051E-03     31.6896E-03    -61.8215E+06    -70.4926E+06    -123.424E+06    -98.1847E+06    -93.5268E+06    -64.0270E+06     25.4900E+06         76.4211
            1774     3.60909E-03     176.227E-03     114.940E-03     110.634E-03    -371.261E-03     107.559E-03    -366.223E-03     112.977E-03    -7.59933E-03     648.112E-03    -323.867E-03    -324.696E-03    -323.595E-03     647.473E-03    -324.329E-03     48.8006E-03    -37.7978E+06    -46.8115E+06    -109.496E+06    -90.9871E+06    -61.0613E+06    -42.0570E+06     29.2160E+06         77.2463
            1775     4.33284E-03     176.246E-03     114.521E-03     109.289E-03    -369.397E-03     107.799E-03    -365.411E-03     112.025E-03     2.25130E-03     650.057E-03    -323.139E-03    -325.008E-03    -322.022E-03     648.838E-03    -324.906E-03     67.9926E-03    -17.8782E+06    -30.5207E+06    -96.5296E+06    -82.4121E+06    -42.5846E+06    -19.9318E+06     26.9530E+06         78.1143
            1776     5.06032E-03     176.267E-03     112.632E-03     109.276E-03    -368.669E-03     107.683E-03    -365.745E-03     111.300E-03    -11.0618E-03     648.503E-03    -322.727E-03    -326.077E-03    -320.598E-03     646.373E-03    -326.077E-03     90.0489E-03     739.833E+03    -19.1166E+06    -84.5070E+06    -74.2008E+06    -29.4228E+06     739.833E+03     22.6108E+06         78.9810
            1777     5.78039E-03     176.327E-03     110.587E-03     108.410E-03    -366.727E-03     106.681E-03    -364.998E-03     110.587E-03     5.90040E-03     646.183E-03    -322.234E-03    -325.834E-03    -318.780E-03     642.729E-03    -325.834E-03     114.715E-03     19.1154E+06    -12.5549E+06    -73.7953E+06    -66.3462E+06    -20.0040E+06     19.1154E+06     18.9996E+06         79.8379
            1778     6.51133E-03     176.431E-03     110.695E-03     108.357E-03    -366.380E-03     108.359E-03    -365.614E-03     109.926E-03    -17.2761E-03     645.166E-03    -321.713E-03    -324.232E-03    -316.642E-03     640.096E-03    -324.232E-03     139.161E-03     34.0696E+06    -7.07888E+06    -62.6901E+06    -58.1010E+06    -11.6680E+06     34.0696E+06     14.8017E+06         80.6452
            1779     7.24178E-03     176.568E-03     111.967E-03     109.089E-03    -367.328E-03     111.304E-03    -367.066E-03     109.490E-03    -4.95182E-03     644.230E-03    -321.935E-03    -323.901E-03    -316.191E-03     637.482E-03    -322.897E-03     160.698E-03     44.5868E+06     2.53071E+06    -53.9437E+06    -50.7424E+06    -670.596E+03     44.5868E+06     12.8793E+06         81.3716
            1780     7.97042E-03     176.737E-03     111.697E-03     108.431E-03    -365.631E-03     110.902E-03    -365.324E-03     108.918E-03    -2.58404E-03     647.154E-03    -323.501E-03    -324.970E-03    -316.734E-03     638.918E-03    -323.501E-03     178.065E-03     50.8845E+06     8.93614E+06    -45.4629E+06    -42.6352E+06     6.10844E+06     50.8845E+06     11.9529E+06         82.1102
            1781     8.65789E-03     177.161E-03     110.499E-03     106.754E-03    -363.353E-03     108.773E-03    -362.970E-03     108.096E-03    -4.66663E-03     653.744E-03    -324.701E-03    -328.365E-03    -318.736E-03     644.115E-03    -324.701E-03     193.406E-03     54.2158E+06     11.3756E+06    -37.1391E+06    -35.3567E+06     9.59310E+06     54.2158E+06     9.03164E+06         82.9534
            1782     9.40057E-03     177.262E-03     111.071E-03     104.800E-03    -363.778E-03     107.706E-03    -363.065E-03     107.452E-03     4.85528E-03     655.463E-03    -324.812E-03    -332.014E-03    -321.015E-03     644.464E-03    -324.812E-03     207.166E-03     56.9684E+06     14.2622E+06    -29.7086E+06    -28.4551E+06     13.0088E+06     56.9684E+06     6.74279E+06         83.9324
            1783     10.1351E-03     177.503E-03     109.714E-03     104.416E-03    -361.511E-03     106.314E-03    -360.436E-03     106.741E-03    -3.99902E-03     659.567E-03    -324.472E-03    -335.131E-03    -321.619E-03     646.055E-03    -324.472E-03     229.755E-03     63.4548E+06     23.0822E+06    -22.1164E+06    -21.1922E+06     22.1580E+06     63.4548E+06     5.53530E+06         85.1251
            1784     10.8399E-03     178.005E-03     108.106E-03     105.163E-03    -356.394E-03     106.172E-03    -354.988E-03     105.692E-03     1.96187E-03     661.938E-03    -324.843E-03    -335.251E-03    -321.429E-03     648.116E-03    -324.843E-03     232.758E-03     67.7582E+06     27.9022E+06    -17.9388E+06    -16.7729E+06     26.7363E+06     67.7582E+06     3.06975E+06         86.7419
            1785     11.5564E-03     178.471E-03     106.100E-03     103.312E-03    -350.940E-03     102.779E-03    -348.678E-03     104.371E-03    -10.2453E-03     669.461E-03    -326.243E-03    -343.244E-03    -324.313E-03     650.530E-03    -326.243E-03     270.077E-03     73.8552E+06     32.1355E+06    -13.2833E+06    -12.1743E+06     31.0265E+06     73.8552E+06     640.659E+03         89.0511
            1786     12.2790E-03     178.985E-03     104.245E-03     99.5663E-03    -345.414E-03     98.4012E-03    -342.983E-03     102.979E-03    -7.35727E-03     670.478E-03    -325.726E-03    -344.651E-03    -328.200E-03     654.027E-03    -325.726E-03     245.500E-03     81.2472E+06     39.9111E+06    -9.54335E+06    -8.41677E+06     38.7845E+06     81.2472E+06    -825.335E+03         91.7270
            1787     724.899E-06     178.081E-03     120.228E-03     104.168E-03    -365.131E-03     98.3130E-03    -350.685E-03     111.636E-03    -19.0090E-03     640.316E-03    -319.568E-03    -320.543E-03    -319.549E-03     640.297E-03    -320.543E-03     7.63392E-03    -125.976E+06    -130.258E+06    -215.946E+06    -128.327E+06    -215.467E+06    -128.386E+06     3.80997E+06         73.6267
            1788     1.44982E-03     178.132E-03     115.910E-03     105.212E-03    -362.966E-03     106.932E-03    -353.987E-03     105.212E-03     17.9863E-03     640.396E-03    -319.957E-03    -320.835E-03    -320.018E-03     640.332E-03    -320.710E-03     15.0081E-03    -115.667E+06    -122.961E+06    -189.511E+06    -124.234E+06    -187.330E+06    -116.575E+06     9.80298E+06         73.9316
            1789     2.17171E-03     178.162E-03     107.363E-03     103.930E-03    -350.474E-03     101.125E-03    -345.156E-03     104.849E-03    -11.9845E-03     640.819E-03    -320.301E-03    -321.202E-03    -320.311E-03     640.660E-03    -321.032E-03     24.0306E-03    -97.3286E+06    -109.755E+06    -166.365E+06    -116.570E+06    -159.550E+06    -97.3286E+06     16.8786E+06         74.4581
            1790     2.89691E-03     178.176E-03     108.135E-03     102.472E-03    -346.405E-03     102.872E-03    -342.683E-03     104.013E-03    -838.149E-06     641.343E-03    -321.170E-03    -321.550E-03    -320.896E-03     641.008E-03    -321.489E-03     35.2817E-03    -75.4894E+06    -90.3515E+06    -144.504E+06    -107.660E+06    -127.196E+06    -75.4894E+06     22.6839E+06         75.2230
            1791     3.62104E-03     178.187E-03     110.400E-03     103.415E-03    -350.988E-03     106.456E-03    -347.666E-03     104.037E-03    -4.60581E-03     642.980E-03    -321.903E-03    -322.556E-03    -321.846E-03     642.303E-03    -321.937E-03     50.2139E-03    -48.8492E+06    -60.5481E+06    -121.406E+06    -95.4213E+06    -84.4790E+06    -50.9028E+06     28.5842E+06         76.1825
            1792     4.34361E-03     178.208E-03     108.787E-03     104.267E-03    -353.273E-03     105.745E-03    -350.231E-03     104.267E-03    -1.51627E-03     646.463E-03    -322.170E-03    -323.378E-03    -321.803E-03     645.219E-03    -322.501E-03     68.7099E-03    -23.2407E+06    -31.2782E+06    -103.443E+06    -85.4086E+06    -47.2591E+06    -25.2943E+06     31.3425E+06         77.2225
            1793     5.06367E-03     178.237E-03     107.461E-03     103.775E-03    -353.113E-03     104.628E-03    -350.739E-03     104.233E-03    -10.8769E-03     647.093E-03    -322.668E-03    -324.266E-03    -320.833E-03     644.984E-03    -323.991E-03     89.6346E-03     62.8985E+03    -14.7739E+06    -91.0726E+06    -76.7427E+06    -29.1038E+06     62.8985E+03     29.4607E+06         78.2051
            1794     5.79450E-03     178.287E-03     106.954E-03     102.733E-03    -353.786E-03     104.105E-03    -352.252E-03     104.048E-03     1.38188E-03     645.238E-03    -321.878E-03    -324.647E-03    -318.531E-03     641.891E-03    -324.647E-03     112.882E-03     22.6422E+06    -4.29999E+06    -77.0126E+06    -66.3798E+06    -14.9328E+06     22.6422E+06     25.3191E+06         79.1186
            1795     6.52054E-03     178.371E-03     106.262E-03     102.217E-03    -352.972E-03     103.867E-03    -352.144E-03     103.784E-03    -16.6528E-03     642.881E-03    -320.283E-03    -323.154E-03    -315.347E-03     637.946E-03    -323.154E-03     136.917E-03     39.6653E+06     2.15771E+06    -65.3571E+06    -58.1241E+06    -5.07527E+06     39.6653E+06     20.6999E+06         79.9659
            1796     7.25316E-03     178.490E-03     104.727E-03     101.835E-03    -349.247E-03     102.856E-03    -348.905E-03     103.365E-03    -5.69482E-03     641.555E-03    -320.573E-03    -322.794E-03    -315.048E-03     634.903E-03    -321.667E-03     159.229E-03     52.0980E+06     4.96818E+06    -55.4319E+06    -49.9589E+06    -504.868E+03     52.0980E+06     16.9925E+06         80.7164
            1797     7.98300E-03     178.683E-03     105.018E-03     101.836E-03    -347.858E-03     103.812E-03    -347.472E-03     102.655E-03    -3.49400E-03     645.940E-03    -322.322E-03    -324.490E-03    -316.381E-03     637.831E-03    -322.322E-03     176.553E-03     61.1233E+06     14.3138E+06    -46.0032E+06    -41.6544E+06     9.96504E+06     61.1233E+06     15.1032E+06         81.4790
            1798     8.66965E-03     179.111E-03     106.707E-03     101.996E-03    -347.871E-03     106.223E-03    -347.387E-03     101.996E-03    -6.28709E-03     652.624E-03    -323.669E-03    -328.216E-03    -318.736E-03     643.143E-03    -323.669E-03     191.774E-03     63.6082E+06     20.4901E+06    -38.7347E+06    -35.7053E+06     17.4607E+06     63.6082E+06     12.7266E+06         82.3348
            1799     9.41631E-03     179.216E-03     106.907E-03     100.979E-03    -347.200E-03     105.443E-03    -346.434E-03     101.678E-03     1.55263E-03     654.338E-03    -323.821E-03    -330.801E-03    -319.918E-03     643.456E-03    -323.821E-03     205.809E-03     63.0934E+06     21.2117E+06    -32.3902E+06    -30.6818E+06     19.5032E+06     63.0934E+06     8.85834E+06         83.2600
            1800     10.1433E-03     179.472E-03     105.319E-03     100.310E-03    -346.217E-03     103.134E-03    -344.731E-03     101.008E-03    -10.8586E-03     656.737E-03    -323.579E-03    -333.116E-03    -319.744E-03     643.364E-03    -323.579E-03     228.008E-03     67.1989E+06     26.4463E+06    -26.1357E+06    -25.3689E+06     25.6795E+06     67.1989E+06     5.13227E+06         84.3386
            1801     10.8538E-03     179.924E-03     104.589E-03     99.5911E-03    -341.805E-03     102.819E-03    -340.035E-03     99.5911E-03    -5.55118E-03     659.159E-03    -324.313E-03    -334.301E-03    -321.183E-03     646.041E-03    -324.313E-03     226.046E-03     72.0633E+06     33.7447E+06    -20.4197E+06    -19.0848E+06     32.4098E+06     72.0633E+06     3.44656E+06         85.8368
            1802     11.5588E-03     180.412E-03     103.111E-03     97.0412E-03    -336.613E-03     99.6368E-03    -334.013E-03     97.9150E-03    -15.9094E-03     668.611E-03    -325.427E-03    -343.121E-03    -325.491E-03     650.980E-03    -325.427E-03     260.230E-03     79.5596E+06     40.6759E+06    -13.7142E+06    -11.7164E+06     38.6781E+06     79.5596E+06     366.681E+03         88.0010
            1803     12.2914E-03     180.844E-03     101.535E-03     95.6268E-03    -334.994E-03     97.9092E-03    -332.242E-03     96.5006E-03    -12.8875E-03     666.776E-03    -324.633E-03    -342.184E-03    -326.259E-03     650.851E-03    -324.633E-03     242.487E-03      84.583E+06     41.7219E+06    -8.72405E+06    -6.76505E+06     39.7629E+06      84.583E+06    -2.46344E+06         90.5359
            1804     730.450E-06     179.935E-03     102.943E-03     86.2224E-03    -319.892E-03     86.3055E-03    -315.163E-03     98.1304E-03    -3.56562E-03     631.209E-03    -315.234E-03    -315.992E-03    -315.216E-03     631.190E-03    -315.992E-03     7.18035E-03    -129.716E+06    -135.586E+06    -231.343E+06    -133.442E+06    -231.238E+06    -131.965E+06     1.73969E+06         72.9418
            1805     1.45981E-03     179.942E-03     102.800E-03     89.2779E-03    -322.271E-03     97.0812E-03    -320.347E-03     93.0734E-03     8.66774E-03     632.336E-03    -316.083E-03    -316.657E-03    -316.467E-03     632.261E-03    -316.198E-03     16.1282E-03    -124.119E+06    -131.889E+06    -212.147E+06    -131.228E+06    -211.235E+06    -125.694E+06     5.65242E+06         73.2778
            1806     2.18889E-03     179.940E-03     99.3031E-03     93.2349E-03    -329.799E-03     96.8041E-03    -328.453E-03     94.3883E-03     2.68194E-03     634.465E-03    -316.898E-03    -318.181E-03    -317.990E-03     634.273E-03    -316.898E-03     26.4560E-03    -109.947E+06    -123.050E+06    -186.997E+06    -125.263E+06    -184.784E+06    -109.947E+06     9.72350E+06         73.8291
            1807     2.91233E-03     179.953E-03     101.853E-03     94.0003E-03    -334.125E-03     98.4906E-03    -331.917E-03     95.1537E-03    -11.2704E-03     636.545E-03    -317.828E-03    -319.481E-03    -319.056E-03     636.155E-03    -317.863E-03     37.9452E-03    -86.9857E+06    -108.885E+06    -159.366E+06    -114.689E+06    -153.562E+06    -86.9857E+06     14.5819E+06         74.5948
            1808     3.63526E-03     179.959E-03     105.333E-03     96.1439E-03    -335.186E-03     103.007E-03    -332.860E-03     96.1439E-03    -7.94042E-03     637.983E-03    -318.739E-03    -320.908E-03    -320.131E-03     637.240E-03    -318.773E-03     52.3935E-03    -62.4325E+06    -84.2756E+06    -133.714E+06    -104.720E+06    -113.270E+06    -62.4325E+06     21.4151E+06         75.5649
            1809     4.35719E-03     180.045E-03     102.727E-03     96.8658E-03    -335.976E-03     100.213E-03    -333.462E-03     96.8658E-03    -10.4463E-03     641.196E-03    -319.644E-03    -322.227E-03    -320.917E-03     639.886E-03    -319.644E-03     70.2615E-03    -37.0572E+06    -47.3015E+06    -112.475E+06    -93.7348E+06    -66.0413E+06    -37.0572E+06     28.0757E+06         76.6532
            1810     5.07808E-03     180.157E-03     104.226E-03     97.1746E-03    -338.494E-03     102.058E-03    -336.325E-03     97.1746E-03    -16.4672E-03     644.356E-03    -320.962E-03    -322.691E-03    -320.175E-03     642.219E-03    -321.341E-03     90.2050E-03    -10.8916E+06    -19.7746E+06    -97.0834E+06    -82.4829E+06    -34.3752E+06    -10.8916E+06     30.0069E+06         77.7246
            1811     5.79796E-03     180.226E-03     103.076E-03     97.4816E-03    -339.833E-03     101.680E-03    -338.437E-03     97.4816E-03    -6.27571E-03     644.270E-03    -321.697E-03    -323.265E-03    -318.492E-03     640.957E-03    -323.157E-03     112.300E-03     14.2854E+06    -2.64846E+06    -83.3022E+06    -71.6484E+06    -14.3023E+06     14.2854E+06     28.1520E+06         78.7681
            1812     6.52861E-03     180.302E-03     100.991E-03     96.8249E-03    -338.310E-03     99.1648E-03    -337.194E-03     97.5350E-03    -13.3219E-03     641.954E-03    -320.774E-03    -322.800E-03    -316.273E-03     637.203E-03    -322.550E-03     134.442E-03     37.1370E+06     9.02993E+06    -70.1607E+06    -60.7280E+06    -402.711E+03     37.1370E+06     25.6134E+06         79.7369
            1813     7.26483E-03     180.404E-03     100.593E-03     95.7778E-03    -334.238E-03     98.6031E-03    -333.778E-03     97.3074E-03     748.813E-06     640.855E-03    -320.291E-03    -321.888E-03    -314.968E-03     634.629E-03    -320.985E-03     153.946E-03     54.8313E+06     12.1179E+06    -59.6042E+06    -52.0356E+06     4.54931E+06     54.8313E+06     21.9116E+06         80.5168
            1814     7.99528E-03     180.603E-03     99.1669E-03     95.7116E-03    -330.412E-03     97.8350E-03    -330.093E-03     96.7247E-03    -6.31119E-03     644.305E-03    -321.443E-03    -323.789E-03    -316.317E-03     636.832E-03    -321.443E-03     169.260E-03     66.6950E+06     17.3739E+06    -49.1300E+06    -43.7039E+06     11.9478E+06     66.6950E+06     17.9333E+06         81.2536
            1815     8.67910E-03     181.034E-03     98.2089E-03     95.2224E-03    -326.754E-03     96.9952E-03    -326.219E-03     95.9011E-03    -11.4071E-03     650.151E-03    -322.906E-03    -327.444E-03    -318.651E-03     641.358E-03    -322.906E-03     184.369E-03     73.2898E+06     25.2111E+06    -39.1663E+06    -34.7065E+06     20.7514E+06     73.2898E+06     16.0481E+06         82.1045
            1816     9.42180E-03     181.150E-03     97.4540E-03     94.0530E-03    -322.250E-03     95.5039E-03    -321.484E-03     95.2365E-03    -2.43388E-03     651.211E-03    -322.906E-03    -328.167E-03    -317.993E-03     641.037E-03    -322.906E-03     198.491E-03     75.9288E+06     31.6841E+06    -29.3697E+06    -26.0417E+06     28.3562E+06     75.9288E+06     13.4393E+06         82.9859
            1817     10.1721E-03     181.285E-03     96.1712E-03     91.2317E-03    -318.778E-03     91.1126E-03    -316.713E-03     94.2260E-03    -21.0185E-03     652.548E-03    -322.736E-03    -330.828E-03    -318.273E-03     639.994E-03    -322.736E-03     220.249E-03     79.5549E+06     38.1065E+06    -20.9653E+06    -19.1478E+06     36.2890E+06     79.5549E+06     9.42574E+06         83.9095
            1818     10.8604E-03     181.857E-03     95.6727E-03     90.2331E-03    -317.278E-03     90.7639E-03    -314.666E-03     92.5291E-03    -10.4111E-03     657.479E-03    -323.955E-03    -334.375E-03    -321.891E-03     644.995E-03    -323.955E-03     220.488E-03     82.4326E+06     41.8156E+06    -14.3857E+06    -11.9063E+06     39.3361E+06     82.4326E+06     5.08620E+06         85.1969
            1819     11.5687E-03     182.349E-03     94.9612E-03     90.8414E-03    -314.482E-03     92.2917E-03    -311.905E-03     90.9339E-03    -9.87740E-03     665.560E-03    -324.375E-03    -340.656E-03    -322.767E-03     647.671E-03    -324.375E-03     260.258E-03     86.9671E+06     48.9104E+06    -8.51161E+06    -4.44278E+06     44.8416E+06     86.9671E+06     3.13824E+06         87.1824
            1820     12.3166E-03     182.641E-03     93.4479E-03     87.6654E-03    -311.387E-03     89.3096E-03    -309.263E-03     89.6797E-03    -21.9169E-03     657.770E-03    -321.888E-03    -335.802E-03    -316.933E-03     640.348E-03    -323.334E-03     253.990E-03     91.9427E+06     46.9797E+06    -4.28036E+06    -1.00307E+06     43.7025E+06     91.9427E+06     2.65154E+06         89.6018
            1821     731.706E-06     181.843E-03     104.162E-03     94.6248E-03    -320.960E-03     86.8445E-03    -311.861E-03     102.844E-03     53.4665E-03     625.274E-03    -312.414E-03    -313.052E-03    -312.648E-03     625.262E-03    -312.805E-03     6.06664E-03    -133.885E+06    -143.016E+06    -238.554E+06    -139.302E+06    -238.378E+06    -137.776E+06     660.032E+03         72.5535
            1822     1.46393E-03     181.842E-03     98.7967E-03     88.8971E-03    -311.355E-03     92.3772E-03    -310.389E-03     94.3504E-03    -6.26478E-03     626.591E-03    -313.169E-03    -313.867E-03    -313.794E-03     626.529E-03    -313.179E-03     14.2456E-03    -127.216E+06    -136.689E+06    -221.671E+06    -135.317E+06    -221.468E+06    -128.790E+06     1.42773E+06         72.9497
            1823     2.19296E-03     181.845E-03     96.2456E-03     86.1261E-03    -313.013E-03     88.5899E-03    -312.349E-03     93.1176E-03     18.8787E-03     628.227E-03    -313.779E-03    -315.109E-03    -314.922E-03     628.040E-03    -313.779E-03     25.8315E-03    -116.140E+06    -130.085E+06    -200.216E+06    -130.568E+06    -199.733E+06    -116.140E+06     4.03340E+06         73.5740
            1824     2.92225E-03     181.846E-03     94.5584E-03     84.8735E-03    -313.592E-03     86.6870E-03    -312.580E-03     91.7335E-03    -6.24431E-03     631.123E-03    -314.723E-03    -317.255E-03    -316.798E-03     630.666E-03    -314.723E-03     40.7511E-03    -96.8870E+06    -121.025E+06    -177.408E+06    -123.018E+06    -175.416E+06    -96.8870E+06     8.47253E+06         74.4018
            1825     3.64845E-03     181.878E-03     96.1387E-03     89.7111E-03    -315.481E-03     92.9266E-03    -313.796E-03     91.2374E-03     5.79062E-03     634.629E-03    -315.966E-03    -319.609E-03    -318.703E-03     633.722E-03    -315.966E-03     58.1639E-03    -73.2538E+06    -103.845E+06    -146.042E+06    -112.094E+06    -137.794E+06    -73.2538E+06     13.5088E+06         75.4114
            1826     4.36987E-03     181.927E-03     96.1820E-03     90.6999E-03    -314.728E-03     93.1145E-03    -312.394E-03     91.4334E-03    -3.56646E-03     637.789E-03    -317.247E-03    -321.912E-03    -320.381E-03     636.257E-03    -317.247E-03     76.0127E-03    -49.1869E+06    -74.0171E+06    -117.116E+06    -100.234E+06    -90.8985E+06    -49.1869E+06     19.0703E+06         76.5542
            1827     5.08690E-03     182.033E-03     96.7025E-03     90.6157E-03    -313.472E-03     94.2131E-03    -311.915E-03     91.5476E-03    -18.4069E-03     642.057E-03    -318.696E-03    -323.042E-03    -320.762E-03     639.777E-03    -318.696E-03     93.3007E-03    -24.0041E+06    -36.7281E+06    -101.233E+06    -88.4172E+06    -49.5442E+06    -24.0041E+06     24.6042E+06         77.7462
            1828     5.80861E-03     182.181E-03     96.1362E-03     91.4904E-03    -314.003E-03     95.1467E-03    -313.212E-03     91.6889E-03    -6.50493E-03     645.235E-03    -320.915E-03    -323.764E-03    -320.243E-03     642.000E-03    -321.200E-03     111.224E-03     1.05585E+06    -9.28364E+06    -88.4428E+06    -77.5837E+06    -20.1428E+06     1.05585E+06     26.9971E+06         78.9436
            1829     6.53469E-03     182.261E-03     95.2251E-03     90.1247E-03    -314.030E-03     92.8057E-03    -313.205E-03     91.7194E-03    -5.16413E-03     644.986E-03    -321.709E-03    -324.269E-03    -319.552E-03     640.553E-03    -321.995E-03     130.297E-03     25.0801E+06     6.26657E+06    -76.5399E+06    -66.9382E+06    -3.33514E+06     25.0801E+06     26.4788E+06         80.0352
            1830     7.26321E-03     182.354E-03     94.8158E-03     89.7944E-03    -313.363E-03     92.6496E-03    -312.933E-03     91.5303E-03     4.27781E-03     643.706E-03    -320.906E-03    -323.124E-03    -317.300E-03     637.883E-03    -320.906E-03     149.263E-03     47.3173E+06     17.3660E+06    -63.8768E+06    -56.0114E+06     9.50066E+06     47.3173E+06     23.9253E+06         80.8337
            1831     7.99555E-03     182.509E-03     92.6211E-03     88.3148E-03    -308.459E-03     89.5275E-03    -307.927E-03     90.8768E-03     1.61018E-03     643.514E-03    -321.238E-03    -323.058E-03    -315.940E-03     636.396E-03    -321.238E-03     165.155E-03     65.8458E+06     24.5466E+06    -51.4099E+06    -46.0676E+06     19.2042E+06     65.8458E+06     19.3028E+06         81.4562
            1832     8.68821E-03     182.932E-03     89.6056E-03     83.3181E-03    -300.198E-03     82.4958E-03    -299.376E-03     89.6056E-03    -5.62088E-03     647.269E-03    -322.582E-03    -325.160E-03    -316.722E-03     638.832E-03    -322.582E-03     180.183E-03     78.3753E+06     27.0360E+06    -40.4168E+06    -36.5291E+06     23.1483E+06     78.3753E+06     14.7833E+06         82.1615
            1833     9.42013E-03     183.122E-03     89.2152E-03     84.6102E-03    -297.143E-03     84.3102E-03    -296.105E-03     88.4768E-03     3.27555E-03     648.693E-03    -322.572E-03    -326.245E-03    -316.347E-03     638.795E-03    -322.572E-03     195.338E-03     84.2447E+06     33.9326E+06    -30.0230E+06    -26.9672E+06     30.8768E+06     84.2447E+06     12.6529E+06         82.9432
            1834     10.1756E-03     183.208E-03     91.4255E-03     85.2234E-03    -295.788E-03     86.7458E-03    -293.404E-03     87.5194E-03    -15.4247E-03     649.418E-03    -322.122E-03    -328.758E-03    -316.135E-03     636.795E-03    -322.122E-03     220.042E-03     85.6238E+06     45.2551E+06    -21.1988E+06    -19.0785E+06     43.1348E+06     85.6238E+06     10.9364E+06         83.6758
            1835     10.8616E-03     183.801E-03     89.2295E-03     83.1205E-03    -291.495E-03     84.1238E-03    -289.327E-03     86.0584E-03    -22.6948E-03     650.282E-03    -321.832E-03    -329.439E-03    -315.067E-03     637.075E-03    -322.997E-03     225.281E-03     84.1493E+06     51.7472E+06    -16.7656E+06    -13.4443E+06     48.4259E+06     84.1493E+06     8.15849E+06         84.5916
            1836     11.5790E-03     184.263E-03     85.0813E-03     83.7706E-03    -287.650E-03     82.9485E-03    -286.251E-03     84.5050E-03    -13.1851E-03     653.297E-03    -321.552E-03    -331.404E-03    -310.401E-03     633.458E-03    -322.717E-03     270.144E-03     87.1447E+06     53.1098E+06    -15.8673E+06    -10.7997E+06     48.0422E+06     87.1447E+06     5.02631E+06         86.2593
            1837     12.3431E-03     184.544E-03     83.7722E-03     80.1179E-03    -284.209E-03     79.6635E-03    -283.182E-03     83.1993E-03    -24.2602E-03     642.357E-03    -314.440E-03    -327.605E-03    -301.017E-03     622.144E-03    -320.815E-03     271.080E-03     94.4569E+06     50.8580E+06    -8.95823E+06    -4.98714E+06     46.8869E+06     94.4569E+06     3.66108E+06         88.5491
            1838     733.476E-06     183.717E-03     114.425E-03     99.4991E-03    -329.353E-03     89.1940E-03    -311.207E-03     106.584E-03     72.0200E-03     620.467E-03    -308.645E-03    -311.995E-03    -311.888E-03     620.436E-03    -308.721E-03     9.42676E-03    -143.586E+06    -152.911E+06    -237.378E+06    -149.594E+06    -237.285E+06    -146.996E+06    -800.944E+03         71.9896
            1839     1.46376E-03     183.723E-03     98.3540E-03     91.3628E-03    -312.474E-03     90.0032E-03    -309.087E-03     96.3264E-03    -19.1497E-03     621.799E-03    -310.728E-03    -311.591E-03    -311.496E-03     621.704E-03    -310.728E-03     17.7129E-03    -135.941E+06    -146.765E+06    -223.974E+06    -145.829E+06    -223.817E+06    -137.034E+06    -679.361E+03         72.4082
            1840     2.19684E-03     183.730E-03     94.2152E-03     86.6319E-03    -300.971E-03     86.0450E-03    -299.675E-03     93.5059E-03     21.4397E-03     622.854E-03    -311.298E-03    -312.491E-03    -312.262E-03     622.624E-03    -311.298E-03     28.5292E-03    -123.453E+06    -140.639E+06    -207.397E+06    -140.744E+06    -207.292E+06    -123.453E+06    -98.2815E+03         73.0993
            1841     2.92897E-03     183.729E-03     91.2489E-03     83.9499E-03    -296.544E-03     83.1828E-03    -295.777E-03     91.2489E-03    -16.3921E-03     626.079E-03    -312.020E-03    -314.996E-03    -314.515E-03     625.599E-03    -312.020E-03     41.8918E-03    -104.891E+06    -132.337E+06    -186.736E+06    -132.757E+06    -186.317E+06    -104.891E+06     1.36441E+06         74.0148
            1842     3.65681E-03     183.763E-03     90.6293E-03     84.9315E-03    -296.585E-03     84.7765E-03    -295.519E-03     89.7183E-03     9.76973E-03     631.832E-03    -313.641E-03    -318.257E-03    -317.361E-03     630.937E-03    -313.641E-03     57.7231E-03    -84.6963E+06    -120.398E+06    -156.097E+06    -122.545E+06    -153.950E+06    -84.6963E+06     4.36476E+06         75.0837
            1843     4.38242E-03     183.828E-03     90.3951E-03     85.4188E-03    -295.690E-03     85.4655E-03    -294.198E-03     88.8564E-03     631.843E-06     636.637E-03    -315.932E-03    -321.927E-03    -320.426E-03     635.136E-03    -315.932E-03     75.1723E-03    -62.0640E+06    -98.7597E+06    -125.017E+06    -110.857E+06    -112.920E+06    -62.0640E+06     8.56932E+06         76.2793
            1844     5.10165E-03     183.944E-03     88.8689E-03     86.0328E-03    -291.699E-03     85.7836E-03    -290.823E-03     88.2413E-03    -11.2184E-03     642.147E-03    -317.599E-03    -324.953E-03    -322.713E-03     639.907E-03    -317.599E-03     92.5360E-03    -38.0181E+06    -65.5467E+06    -105.434E+06    -98.1324E+06    -72.8486E+06    -38.0181E+06     13.8184E+06         77.5710
            1845     5.80691E-03     184.121E-03     89.5044E-03     84.4412E-03    -287.452E-03     85.6848E-03    -286.936E-03     87.7450E-03    -3.78789E-03     646.619E-03    -320.024E-03    -325.740E-03    -322.558E-03     643.437E-03    -320.024E-03     110.538E-03    -14.3958E+06    -29.4830E+06    -92.5363E+06    -85.9310E+06    -36.0882E+06    -14.3958E+06     19.0339E+06         78.8699
            1846     6.52763E-03     184.222E-03     88.9399E-03     81.8074E-03    -285.521E-03     83.0204E-03    -284.975E-03     87.1805E-03    -2.69496E-03     646.856E-03    -321.465E-03    -325.740E-03    -321.122E-03     642.238E-03    -321.465E-03     132.896E-03     9.35478E+06    -2.73035E+06    -79.6753E+06    -73.0235E+06    -9.38216E+06     9.35478E+06     20.8700E+06         80.0260
            1847     7.25990E-03     184.327E-03     86.3431E-03     79.8192E-03    -283.623E-03     79.4803E-03    -283.284E-03     86.3431E-03     3.55293E-03     644.957E-03    -320.564E-03    -324.843E-03    -318.593E-03     638.708E-03    -320.564E-03     154.771E-03     32.9205E+06     14.4663E+06    -66.7615E+06    -60.9925E+06     8.69729E+06     32.9205E+06      20.301E+06         80.8500
            1848     7.99593E-03     184.467E-03     85.1770E-03     79.7991E-03    -281.891E-03     79.0739E-03    -281.166E-03     85.1770E-03     11.6205E-03     643.658E-03    -320.727E-03    -323.683E-03    -315.976E-03     635.951E-03    -320.727E-03     171.744E-03     55.6406E+06     27.9075E+06    -55.4139E+06    -50.3345E+06     22.8280E+06     55.6406E+06     19.7420E+06         81.3573
            1849     8.69061E-03     184.862E-03     83.7661E-03     77.3362E-03    -278.029E-03     76.3595E-03    -277.053E-03     83.7661E-03     4.76725E-03     646.210E-03    -322.303E-03    -323.966E-03    -314.851E-03     637.095E-03    -322.303E-03     186.944E-03     74.1794E+06     35.4065E+06    -46.2627E+06    -42.1317E+06     31.2756E+06     74.1794E+06     17.1578E+06         81.8165
            1850     9.41902E-03     185.085E-03     82.6930E-03     76.7519E-03    -275.549E-03     76.0241E-03    -274.691E-03     82.5622E-03     2.09830E-03     645.888E-03    -321.612E-03    -323.904E-03    -312.509E-03     635.158E-03    -322.276E-03     202.458E-03     85.4956E+06     38.9463E+06    -38.0882E+06    -35.3169E+06      36.175E+06     85.4956E+06     12.2137E+06         82.3907
            1851     10.1744E-03     185.173E-03     84.7276E-03     75.0658E-03    -276.373E-03     76.6179E-03    -274.626E-03     81.4291E-03    -11.4924E-03     642.717E-03    -319.120E-03    -323.882E-03    -307.483E-03     628.194E-03    -320.997E-03     233.357E-03     88.2338E+06     45.0160E+06    -28.3087E+06    -26.3359E+06     43.0432E+06     88.2338E+06     9.82509E+06         82.9377
            1852     10.8819E-03     185.712E-03     83.0162E-03     73.9047E-03    -272.360E-03     75.6756E-03    -270.964E-03     79.8485E-03    -21.0091E-03     637.842E-03    -315.289E-03    -322.481E-03    -301.145E-03     621.824E-03    -320.607E-03     244.551E-03     87.6185E+06     59.9110E+06    -22.8599E+06    -19.6728E+06     56.7239E+06     87.6185E+06     9.04524E+06         83.5684
            1853     11.6129E-03     186.076E-03     78.8467E-03     76.6675E-03    -266.407E-03     76.2459E-03    -265.412E-03     78.2738E-03    -15.5347E-03     637.213E-03    -314.847E-03    -321.768E-03    -293.360E-03     613.559E-03    -319.602E-03     290.569E-03     91.1103E+06     62.3152E+06    -19.4074E+06    -13.8707E+06     56.7786E+06     91.1103E+06     6.31261E+06         84.9403
            1854     12.3903E-03     186.455E-03     77.6177E-03     75.0220E-03    -264.491E-03     74.6398E-03    -263.536E-03     77.0448E-03    -28.0464E-03     622.247E-03    -302.869E-03    -318.925E-03    -280.785E-03     597.996E-03    -316.759E-03     291.523E-03     93.5049E+06     54.6346E+06    -14.1122E+06    -8.62086E+06     49.1433E+06     93.5049E+06     2.18475E+06         87.0890
            1855     736.186E-06     185.572E-03     107.811E-03     80.5412E-03    -303.215E-03     81.3468E-03    -280.057E-03     83.8471E-03     64.8408E-03     612.274E-03    -304.313E-03    -308.437E-03    -308.397E-03     612.234E-03    -304.313E-03     10.4648E-03    -144.716E+06    -158.249E+06    -234.449E+06    -150.956E+06    -234.414E+06    -152.044E+06    -864.846E+03         71.4725
            1856     1.47317E-03     185.561E-03     95.0011E-03     80.1932E-03    -287.152E-03     85.9957E-03    -281.453E-03     83.4990E-03    -26.1181E-03     614.048E-03    -306.465E-03    -308.054E-03    -307.918E-03     613.912E-03    -306.465E-03     21.7648E-03    -139.534E+06    -150.603E+06    -221.435E+06    -149.615E+06    -221.331E+06    -140.627E+06    -1.73453E+06         71.9350
            1857     2.20529E-03     185.560E-03     95.4991E-03     85.4187E-03    -290.128E-03     93.8329E-03    -288.579E-03     85.5358E-03     20.7598E-03     617.945E-03    -307.489E-03    -311.247E-03    -310.948E-03     617.646E-03    -307.489E-03     32.8110E-03    -124.484E+06    -142.622E+06    -206.232E+06    -142.775E+06    -206.079E+06    -124.484E+06    -3.01215E+06         72.6920
            1858     2.93620E-03     185.563E-03     90.2992E-03     85.9191E-03    -286.858E-03     88.7521E-03    -286.470E-03     87.0775E-03    -13.8931E-03     622.802E-03    -308.933E-03    -314.639E-03    -314.070E-03     622.234E-03    -308.933E-03     45.5581E-03    -107.728E+06    -134.986E+06    -186.720E+06    -135.339E+06    -186.367E+06    -107.728E+06    -3.81039E+06         73.6422
            1859     3.66364E-03     185.625E-03     87.4095E-03     83.0757E-03    -281.230E-03     83.4225E-03    -280.988E-03     86.8213E-03     6.53485E-03     629.089E-03    -311.118E-03    -317.847E-03    -316.843E-03     628.085E-03    -311.118E-03     60.9839E-03    -89.5032E+06    -125.868E+06    -161.451E+06    -126.393E+06    -160.927E+06    -89.5032E+06    -3.46943E+06         74.6766
            1860     4.38640E-03     185.710E-03     87.1577E-03     81.0547E-03    -279.824E-03     81.7872E-03    -279.340E-03     85.9418E-03    -3.04874E-03     634.618E-03    -314.171E-03    -321.466E-03    -319.804E-03     632.956E-03    -314.171E-03     78.7457E-03    -69.1390E+06    -110.535E+06    -131.693E+06    -115.950E+06    -126.278E+06    -69.1390E+06    -624.597E+03         75.7846
            1861     5.09912E-03     185.876E-03     85.4761E-03     78.9104E-03    -273.935E-03     78.9247E-03    -273.321E-03     84.8484E-03     864.412E-06     640.295E-03    -316.541E-03    -324.262E-03    -321.631E-03     637.664E-03    -316.541E-03     99.4283E-03    -48.9485E+06    -86.2814E+06    -109.118E+06    -105.759E+06    -89.6407E+06    -48.9485E+06     2.73281E+06         76.9725
            1862     5.81142E-03     186.081E-03     83.4495E-03     75.8146E-03    -266.110E-03     74.9037E-03    -265.200E-03     83.4495E-03    -5.51333E-03     645.288E-03    -318.972E-03    -326.069E-03    -322.231E-03     641.451E-03    -318.972E-03     121.110E-03    -28.5811E+06    -54.5219E+06    -96.3451E+06    -94.1529E+06    -56.7141E+06    -28.5811E+06     5.70454E+06         78.1826
            1863     6.53536E-03     186.196E-03     81.9800E-03     73.1972E-03    -262.618E-03     72.4399E-03    -261.860E-03     81.9800E-03    -10.1056E-03     646.089E-03    -320.449E-03    -326.537E-03    -321.229E-03     640.781E-03    -320.449E-03     142.795E-03    -5.97166E+06    -19.6311E+06    -85.9573E+06    -82.9255E+06    -21.2682E+06    -7.36622E+06     11.1369E+06         79.2927
            1864     7.26565E-03     186.295E-03     80.5796E-03     70.6909E-03    -260.892E-03     70.3174E-03    -260.519E-03     80.5796E-03    -2.14278E-03     642.686E-03    -319.242E-03    -324.018E-03    -317.089E-03     635.757E-03    -319.242E-03     162.761E-03     16.6571E+06     5.58549E+06    -74.6615E+06    -71.8200E+06     4.13854E+06     15.2625E+06     13.8015E+06         80.1139
            1865     8.00027E-03     186.409E-03     79.1240E-03     72.6057E-03    -260.968E-03     72.1326E-03    -260.495E-03     79.1240E-03    -307.676E-06     639.632E-03    -318.436E-03    -321.574E-03    -312.351E-03     630.903E-03    -318.930E-03     181.858E-03     36.2160E+06     20.6086E+06    -63.4458E+06    -60.6830E+06     17.8457E+06     36.2160E+06     13.8216E+06         80.5211
            1866     8.70625E-03     186.821E-03     77.6369E-03     73.9537E-03    -260.859E-03     73.4567E-03    -260.362E-03     77.6369E-03    -115.594E-06     639.699E-03    -318.456E-03    -321.331E-03    -308.525E-03     628.642E-03    -320.206E-03     203.937E-03     55.6410E+06     36.2721E+06    -54.2441E+06    -50.9774E+06     33.0054E+06     55.6410E+06     13.3206E+06         80.7508
            1867     9.43316E-03     187.041E-03     77.5879E-03     72.5679E-03    -258.701E-03     73.2882E-03    -258.331E-03     76.4973E-03    -5.14561E-03     635.206E-03    -315.889E-03    -319.867E-03    -302.592E-03     621.575E-03    -319.534E-03     224.996E-03     77.0106E+06     45.8287E+06    -42.8911E+06    -39.8965E+06     42.8341E+06     77.0106E+06     11.0616E+06         81.0967
            1868     10.1989E-03     187.100E-03     76.5407E-03     68.2609E-03    -254.449E-03     68.5839E-03    -253.681E-03     75.4501E-03    -13.2299E-03     629.075E-03    -311.843E-03    -317.259E-03    -293.343E-03     610.576E-03    -317.259E-03     259.112E-03     92.5457E+06     47.7555E+06    -31.2823E+06    -28.6779E+06     45.1511E+06     92.5457E+06     7.68435E+06         81.5071
            1869     10.9290E-03     187.518E-03     73.8999E-03     65.7779E-03    -249.381E-03     64.9516E-03    -248.555E-03     73.8999E-03    -17.3367E-03     621.439E-03    -305.122E-03    -315.976E-03    -284.440E-03     600.757E-03    -315.976E-03     272.800E-03     96.5699E+06     61.0612E+06    -22.6271E+06    -18.7721E+06     57.2062E+06     96.5699E+06     6.25999E+06         82.1247
            1870     11.6721E-03     187.950E-03     72.2837E-03     68.2274E-03    -246.422E-03     67.2963E-03    -245.491E-03     72.2837E-03    -19.0541E-03     617.725E-03    -303.803E-03    -314.279E-03    -274.625E-03     588.547E-03    -314.279E-03     316.913E-03     93.5772E+06     64.8347E+06    -15.1557E+06    -8.82928E+06     58.5083E+06     93.5772E+06     6.25387E+06         83.5398
            1871     12.4656E-03     188.189E-03     71.0083E-03     68.3444E-03    -242.228E-03     67.4863E-03    -241.370E-03     71.0083E-03    -29.0930E-03     603.604E-03    -292.885E-03    -310.674E-03    -263.913E-03     574.633E-03    -310.674E-03     312.276E-03     97.6205E+06      64.046E+06    -9.85689E+06    -1.09535E+06     55.2845E+06     97.6205E+06     5.64581E+06         85.7954
            1872     738.520E-06     187.404E-03     99.9246E-03     71.0131E-03    -288.577E-03     75.6112E-03    -264.264E-03     71.0131E-03     87.3923E-03     606.301E-03    -301.766E-03    -304.879E-03    -303.391E-03     606.258E-03    -303.211E-03     11.0710E-03    -131.889E+06    -154.809E+06    -228.843E+06    -145.507E+06    -228.761E+06    -141.273E+06    -1.92883E+06         71.1028
            1873     1.47779E-03     187.376E-03     89.3366E-03     75.7641E-03    -268.278E-03     85.7926E-03    -264.734E-03     75.7641E-03    -17.1496E-03     608.887E-03    -303.504E-03    -305.692E-03    -305.539E-03     608.734E-03    -303.504E-03     22.7563E-03    -130.917E+06    -142.824E+06    -214.465E+06    -139.832E+06    -214.308E+06    -134.065E+06    -3.34151E+06         71.6117
            1874     2.21406E-03     187.399E-03     88.5260E-03     74.4653E-03    -265.253E-03     83.2035E-03    -264.409E-03     78.9436E-03     20.1193E-03     613.298E-03    -304.672E-03    -309.178E-03    -308.797E-03     612.917E-03    -304.672E-03     36.6878E-03    -121.412E+06    -135.656E+06    -202.215E+06    -135.869E+06    -202.002E+06    -121.412E+06    -3.71960E+06         72.3894
            1875     2.94466E-03     187.412E-03     84.3001E-03     74.5048E-03    -263.768E-03     79.2135E-03    -263.645E-03     79.4682E-03    -6.40304E-03     618.319E-03    -306.203E-03    -312.893E-03    -312.115E-03     617.542E-03    -306.203E-03     52.8636E-03    -107.502E+06    -131.525E+06    -182.629E+06    -131.896E+06    -182.258E+06    -107.502E+06    -4.12340E+06         73.3222
            1876     3.67277E-03     187.468E-03     82.0447E-03     78.8549E-03    -263.164E-03     81.4339E-03    -263.038E-03     79.3399E-03    -3.12656E-03     623.536E-03    -307.886E-03    -315.948E-03    -314.531E-03     622.119E-03    -307.886E-03     71.8383E-03    -89.8099E+06    -124.090E+06    -159.305E+06    -125.041E+06    -158.353E+06    -89.8099E+06    -5.40181E+06         74.2796
            1877     4.39813E-03     187.566E-03     80.3641E-03     76.7519E-03    -258.794E-03     77.9251E-03    -258.538E-03     78.9349E-03    -9.94227E-03     628.940E-03    -310.585E-03    -318.672E-03    -316.354E-03     626.622E-03    -310.585E-03     92.7315E-03    -71.2364E+06    -112.804E+06    -136.038E+06    -117.102E+06    -131.739E+06    -71.2364E+06    -5.41693E+06         75.2418
            1878     5.12210E-03     187.731E-03     77.9364E-03     71.8946E-03    -253.565E-03     71.8567E-03    -253.192E-03     77.6017E-03    -2.53864E-03     633.425E-03    -313.422E-03    -320.664E-03    -317.251E-03     630.012E-03    -313.422E-03     113.409E-03    -51.7732E+06    -91.5723E+06    -111.864E+06    -107.158E+06    -96.2785E+06    -51.7732E+06    -4.09452E+06         76.2108
            1879     5.83642E-03     187.955E-03     76.8265E-03     70.2844E-03    -250.866E-03     70.5048E-03    -250.120E-03     75.8597E-03    -10.8011E-03     638.666E-03    -315.595E-03    -323.666E-03    -318.819E-03     633.819E-03    -315.595E-03     135.485E-03    -31.6014E+06    -65.0620E+06    -99.0193E+06    -96.5115E+06    -67.5698E+06    -31.6014E+06    -835.232E+03         77.1872
            1880     6.55202E-03     188.107E-03     75.4198E-03     69.0519E-03    -246.779E-03     69.3839E-03    -246.144E-03     74.4529E-03    -13.2530E-03     640.842E-03    -316.617E-03    -324.749E-03    -318.182E-03     634.275E-03    -316.617E-03     157.749E-03    -13.3011E+06    -36.4139E+06    -91.0327E+06    -87.8066E+06    -38.2453E+06    -14.6957E+06     2.27567E+06         78.1516
            1881     7.28594E-03     188.177E-03     73.3431E-03     66.8048E-03    -243.321E-03     66.5549E-03    -243.071E-03     73.3431E-03    -4.84998E-03     635.697E-03    -315.695E-03    -319.774E-03    -311.086E-03     627.009E-03    -315.695E-03     180.071E-03     8.86599E+06    -5.55594E+06    -79.8239E+06    -76.8318E+06    -3.39262E+06     3.71063E+06     5.47962E+06         78.9155
            1882     8.03051E-03     188.272E-03     72.2178E-03     67.5904E-03    -240.804E-03     67.3691E-03    -240.582E-03     72.2178E-03    -6.55090E-03     628.990E-03    -313.007E-03    -315.380E-03    -301.999E-03     617.458E-03    -314.855E-03     205.588E-03     25.8571E+06     16.1683E+06    -69.1604E+06    -67.7324E+06     18.5011E+06     22.0963E+06     6.55185E+06         79.2330
            1883     8.75062E-03     188.550E-03     70.9153E-03     67.1759E-03    -237.739E-03     66.9339E-03    -237.497E-03     70.9153E-03    -6.36831E-03     624.321E-03    -309.476E-03    -314.732E-03    -294.208E-03     609.052E-03    -314.732E-03     234.888E-03     41.1331E+06     35.1056E+06    -58.6457E+06    -57.2997E+06     33.7596E+06     41.1331E+06     4.52652E+06         79.2927
            1884     9.49547E-03     188.907E-03     70.8554E-03     66.4457E-03    -236.569E-03     67.3215E-03    -236.354E-03     69.7648E-03    -9.55783E-03     617.727E-03    -305.333E-03    -313.187E-03    -286.797E-03     599.191E-03    -313.187E-03     257.830E-03     62.4108E+06     47.0041E+06    -48.0961E+06    -45.4164E+06     44.3245E+06     62.4108E+06     3.18019E+06         79.5125
            1885     10.2638E-03     189.011E-03     70.2977E-03     67.0112E-03    -235.179E-03     68.1169E-03    -234.843E-03     68.8560E-03    -13.3563E-03     611.661E-03    -301.921E-03    -310.435E-03    -277.920E-03     587.661E-03    -310.435E-03     290.171E-03     82.4564E+06     52.3029E+06    -37.5147E+06    -34.2322E+06     49.0204E+06     82.4564E+06     2.64821E+06         79.9841
            1886     11.0147E-03     189.340E-03     67.9468E-03     64.7127E-03    -229.565E-03     64.6655E-03    -229.167E-03     67.5957E-03    -19.7801E-03     604.384E-03    -295.818E-03    -308.558E-03    -269.040E-03     577.606E-03    -308.558E-03     305.022E-03     96.6075E+06     62.0879E+06    -29.6461E+06    -23.5152E+06     55.9570E+06     96.6075E+06     754.308E+03         80.9131
            1887     11.7791E-03     189.662E-03     66.1151E-03     62.6038E-03    -221.867E-03     62.0238E-03    -221.287E-03     66.1151E-03    -22.6802E-03     603.255E-03    -295.669E-03    -307.791E-03    -262.275E-03     568.412E-03    -306.341E-03     343.593E-03     91.4083E+06     56.6231E+06    -24.2107E+06    -15.7170E+06     48.1294E+06     91.4083E+06      249.21E+03         82.8432
            1888     12.5776E-03     189.930E-03     65.6524E-03     62.8204E-03    -214.515E-03     62.9409E-03    -213.868E-03     64.8849E-03    -24.5559E-03     594.911E-03    -290.687E-03    -304.064E-03    -260.059E-03     562.833E-03    -302.615E-03     325.133E-03     90.5704E+06     62.4826E+06    -17.8659E+06    -8.85034E+06     53.4671E+06     90.5704E+06     2.48255E+06         85.5976
            1889     741.792E-06     189.233E-03     92.6056E-03     64.3609E-03    -261.056E-03     76.9995E-03    -246.746E-03     65.6577E-03     62.1059E-03     599.742E-03    -298.760E-03    -301.041E-03    -299.446E-03     599.653E-03    -300.266E-03     15.9041E-03    -119.174E+06    -148.193E+06    -222.791E+06    -133.759E+06    -222.657E+06    -133.742E+06    -449.167E+03         70.3710
            1890     1.47923E-03     189.247E-03     73.0689E-03     67.0061E-03    -242.103E-03     67.7435E-03    -240.061E-03     70.2892E-03    -13.2049E-03     602.444E-03    -300.247E-03    -302.512E-03    -302.223E-03     602.155E-03    -300.247E-03     30.6502E-03    -123.080E+06    -136.341E+06    -208.397E+06    -132.386E+06    -208.207E+06    -127.225E+06    -1.64768E+06         70.8778
            1891     2.21791E-03     189.265E-03     71.8589E-03     62.1862E-03    -233.463E-03     64.6124E-03    -232.682E-03     68.6509E-03     4.02732E-03     605.388E-03    -301.235E-03    -304.793E-03    -304.148E-03     604.743E-03    -301.235E-03     46.9400E-03    -116.543E+06    -130.652E+06    -195.285E+06    -129.927E+06    -195.014E+06    -117.538E+06    -3.82846E+06         71.6267
            1892     2.95588E-03     189.303E-03     73.5895E-03     63.3166E-03    -234.002E-03     68.7381E-03    -233.629E-03     67.7949E-03    -17.5084E-03     608.638E-03    -302.186E-03    -307.650E-03    -306.446E-03     607.433E-03    -302.186E-03     65.2046E-03    -103.368E+06    -124.147E+06    -178.534E+06    -124.667E+06    -178.014E+06    -103.368E+06    -5.09504E+06         72.5332
            1893     3.68841E-03     189.347E-03     71.2565E-03     67.7725E-03    -233.817E-03     71.1012E-03    -233.725E-03     67.8353E-03    -7.51613E-03     613.542E-03    -303.045E-03    -311.217E-03    -309.163E-03     611.488E-03    -303.045E-03     86.0183E-03    -87.8025E+06    -119.074E+06    -154.391E+06    -119.905E+06    -153.560E+06    -87.8025E+06    -4.51688E+06         73.4586
            1894     4.42157E-03     189.419E-03     71.1119E-03     67.7277E-03    -232.197E-03     70.7960E-03    -231.944E-03     67.7905E-03    -5.71826E-03     619.503E-03    -305.349E-03    -313.825E-03    -310.614E-03     616.292E-03    -305.349E-03     108.312E-03    -69.8141E+06    -108.713E+06    -132.395E+06    -113.663E+06    -127.445E+06    -69.8141E+06    -5.98161E+06         74.3284
            1895     5.14403E-03     189.558E-03     70.4672E-03     66.2615E-03    -230.398E-03     69.1886E-03    -230.165E-03     67.3072E-03    -2.96687E-03     623.490E-03    -308.023E-03    -315.400E-03    -310.664E-03     618.755E-03    -308.023E-03     131.471E-03    -50.9800E+06    -91.0206E+06    -114.461E+06    -104.789E+06    -100.693E+06    -50.9800E+06    -5.76697E+06         75.0989
            1896     5.86461E-03     189.769E-03     68.1397E-03     65.4348E-03    -227.984E-03     66.8971E-03    -227.787E-03     66.4805E-03    -9.49132E-03     624.632E-03    -309.566E-03    -315.713E-03    -308.753E-03     617.672E-03    -309.566E-03     159.140E-03    -32.2122E+06    -70.1095E+06    -102.110E+06    -97.5101E+06    -74.7096E+06    -32.2122E+06    -2.64879E+06         75.8074
            1897     6.59631E-03     190.019E-03     67.6882E-03     65.3358E-03    -225.297E-03     67.0856E-03    -225.091E-03     65.7324E-03    -7.98480E-03     623.040E-03    -309.570E-03    -313.999E-03    -304.150E-03     613.292E-03    -309.672E-03     188.192E-03    -11.6780E+06    -39.5491E+06    -91.4421E+06    -86.1874E+06    -44.8037E+06    -11.6780E+06    -420.154E+03         76.5509
            1898     7.33648E-03     190.118E-03     67.3122E-03     63.8305E-03    -223.230E-03     65.7215E-03    -223.077E-03     65.2680E-03    -6.97578E-03     618.570E-03    -308.093E-03    -310.213E-03    -296.978E-03     605.437E-03    -308.194E-03     216.964E-03     8.65194E+06    -7.76474E+06    -80.5521E+06    -76.6851E+06    -7.87090E+06     4.89115E+06     497.751E+03         77.2155
            1899     8.08786E-03     190.209E-03     66.1664E-03     63.6049E-03    -222.061E-03     64.9006E-03    -221.914E-03     64.7232E-03    -7.75747E-03     611.740E-03    -304.313E-03    -306.697E-03    -287.546E-03     594.812E-03    -306.536E-03     244.913E-03     28.3429E+06     17.3301E+06    -70.2478E+06    -68.3909E+06     23.7314E+06     20.0848E+06     791.652E+03         77.5422
            1900     8.83979E-03     190.421E-03     63.8327E-03     62.8130E-03    -219.064E-03     62.6246E-03    -218.835E-03     63.7923E-03    -9.44855E-03     605.331E-03    -299.751E-03    -305.249E-03    -278.518E-03     584.098E-03    -305.249E-03     272.527E-03     43.0693E+06     36.5139E+06    -59.7134E+06    -57.5746E+06     40.0316E+06     37.4127E+06    -1.10787E+06         77.6456
            1901     9.58668E-03     190.697E-03     63.0601E-03     60.8537E-03    -214.396E-03     60.9071E-03    -214.163E-03     62.7743E-03    -11.3761E-03     599.213E-03    -295.955E-03    -303.302E-03    -270.852E-03     574.110E-03    -303.302E-03     294.344E-03     55.6196E+06     46.5000E+06    -50.7054E+06    -47.8741E+06     48.0096E+06     51.2787E+06    -4.57648E+06         77.9904
            1902     10.3698E-03     190.766E-03     62.4714E-03     59.5803E-03    -211.421E-03     59.7861E-03    -210.990E-03     61.8346E-03    -15.4774E-03     594.867E-03    -294.193E-03    -301.548E-03    -264.256E-03     563.899E-03    -300.517E-03     324.393E-03     69.4414E+06     54.6074E+06    -43.8968E+06    -38.3471E+06     52.2394E+06     66.2597E+06    -7.08487E+06         78.8151
            1903     11.1385E-03     191.131E-03     62.3066E-03     59.2989E-03    -208.312E-03     60.5568E-03    -207.861E-03     60.5972E-03    -14.1504E-03     593.818E-03    -292.198E-03    -302.229E-03    -264.092E-03     561.722E-03    -298.238E-03     331.144E-03     87.0560E+06     64.1869E+06    -38.3366E+06    -29.5394E+06     55.3897E+06     87.0560E+06    -6.42812E+06         80.4031
            1904     11.8977E-03     191.541E-03     61.6752E-03     58.8643E-03    -201.176E-03     60.7420E-03    -200.662E-03     59.2836E-03    -15.2635E-03     603.562E-03    -292.510E-03    -310.980E-03    -270.642E-03     567.010E-03    -296.296E-03     355.658E-03     87.9254E+06     55.3705E+06    -33.3074E+06    -19.7244E+06     41.7875E+06     87.9254E+06    -6.39849E+06         83.2171
            1905     12.6861E-03     191.740E-03     59.9805E-03     55.8637E-03    -192.706E-03     57.0288E-03    -192.070E-03     58.1796E-03    -18.5100E-03     605.002E-03    -291.340E-03    -313.959E-03    -280.323E-03     574.466E-03    -294.439E-03     319.259E-03     89.9609E+06     57.2169E+06    -25.7810E+06    -12.6176E+06     44.0535E+06     89.9609E+06    -5.32963E+06         86.6248
            1906     744.500E-06     191.073E-03     66.3038E-03     47.3504E-03    -196.811E-03     58.9710E-03    -190.775E-03     48.6472E-03     33.9551E-03     586.202E-03    -292.681E-03    -293.678E-03    -293.024E-03     586.042E-03    -293.175E-03     21.4512E-03    -103.526E+06    -134.737E+06    -221.536E+06    -118.980E+06    -221.402E+06    -119.416E+06     339.073E+03         68.9215
            1907     1.49194E-03     191.106E-03     57.6877E-03     50.2375E-03    -200.220E-03     52.7972E-03    -198.613E-03     53.5207E-03    -3.85661E-03     587.890E-03    -293.224E-03    -295.077E-03    -294.576E-03     587.388E-03    -293.224E-03     40.7563E-03    -108.281E+06    -123.099E+06    -203.289E+06    -117.754E+06    -203.166E+06    -113.748E+06    -557.475E+03         69.3392
            1908     2.23412E-03     191.143E-03     61.0704E-03     51.8990E-03    -204.549E-03     58.4336E-03    -203.899E-03     53.8854E-03     6.32373E-03     590.383E-03    -293.889E-03    -297.106E-03    -295.976E-03     589.253E-03    -293.889E-03     61.7391E-03    -102.281E+06    -115.242E+06    -185.239E+06    -114.409E+06    -185.025E+06    -103.327E+06    -2.86684E+06         69.9571
            1909     2.97360E-03     191.197E-03     62.1054E-03     55.1690E-03    -202.752E-03     61.7101E-03    -202.357E-03     55.1690E-03    -11.9229E-03     593.476E-03    -294.730E-03    -299.597E-03    -297.532E-03     591.411E-03    -294.730E-03     84.1431E-03    -89.4794E+06    -110.253E+06    -172.275E+06    -110.714E+06    -171.763E+06    -89.5308E+06    -5.25986E+06         70.7133
            1910     3.71594E-03     191.263E-03     62.2941E-03     56.1094E-03    -202.883E-03     62.0332E-03    -202.685E-03     56.1722E-03    -9.89784E-03     597.631E-03    -295.425E-03    -302.861E-03    -299.484E-03     594.255E-03    -295.425E-03     108.043E-03    -74.6405E+06    -103.897E+06    -152.937E+06    -105.079E+06    -151.755E+06    -74.6405E+06    -6.52363E+06         71.5259
            1911     4.45009E-03     191.362E-03     63.5343E-03     56.6857E-03    -205.463E-03     63.2894E-03    -205.280E-03     56.7485E-03    -3.48465E-03     601.687E-03    -296.647E-03    -304.755E-03    -299.466E-03     596.398E-03    -296.647E-03     135.562E-03    -56.8344E+06    -93.2388E+06    -127.225E+06    -96.2210E+06    -124.243E+06    -56.8344E+06    -4.43896E+06         72.3074
            1912     5.18797E-03     191.485E-03     63.3799E-03     57.0107E-03    -204.497E-03     63.2269E-03    -204.344E-03     57.0107E-03    -3.06908E-03     603.372E-03    -298.129E-03    -304.659E-03    -296.596E-03     595.310E-03    -298.129E-03     167.430E-03    -37.7376E+06    -81.0769E+06    -109.196E+06    -90.5074E+06    -99.7653E+06    -37.7376E+06    -3.27829E+06         72.9563
            1913     5.92773E-03     191.620E-03     63.7192E-03     57.0242E-03    -202.904E-03     63.3529E-03    -202.538E-03     57.0242E-03    -15.0887E-03     600.564E-03    -298.643E-03    -302.565E-03    -291.169E-03     589.168E-03    -298.643E-03     199.003E-03    -17.9280E+06    -63.6065E+06    -91.6791E+06    -80.9845E+06    -74.3011E+06    -17.9280E+06    -4.48097E+06         73.5143
            1914     6.67230E-03     191.790E-03     64.6438E-03     57.0550E-03    -203.078E-03     64.3301E-03    -202.765E-03     57.0550E-03    -11.1263E-03     595.524E-03    -297.527E-03    -299.008E-03    -283.783E-03     580.401E-03    -297.628E-03     228.290E-03     2.29967E+06    -33.9762E+06    -78.5717E+06    -68.8652E+06    -43.6827E+06     2.29967E+06    -3.73068E+06         74.1294
            1915     7.43632E-03     191.911E-03     63.0792E-03     57.1499E-03    -202.679E-03     62.9586E-03    -202.558E-03     57.1499E-03    -7.45961E-03     591.728E-03    -295.202E-03    -296.589E-03    -277.229E-03     572.470E-03    -295.304E-03     257.001E-03     21.2812E+06     769.672E+03    -66.4801E+06    -57.3095E+06    -8.40090E+06     21.2812E+06    -868.564E+03         74.7502
            1916     8.20316E-03     192.014E-03     60.4526E-03     56.9704E-03    -200.837E-03     60.3294E-03    -200.714E-03     56.9704E-03    -8.40914E-03     589.700E-03    -292.315E-03    -296.609E-03    -272.003E-03     565.963E-03    -293.185E-03     284.564E-03     43.8859E+06     23.1592E+06    -47.3109E+06    -44.1967E+06     24.5423E+06     39.3885E+06     1.38624E+06         75.2353
            1917     8.95360E-03     192.300E-03     57.9583E-03     56.2830E-03    -197.798E-03     57.7885E-03    -197.730E-03     56.3851E-03    -6.61478E-03     587.273E-03    -289.768E-03    -297.149E-03    -266.856E-03     558.971E-03    -291.760E-03     309.704E-03     61.3474E+06     46.2924E+06    -41.1965E+06    -36.3672E+06     47.4725E+06     55.3381E+06     3.76030E+06         75.7462
            1918     9.72916E-03     192.484E-03     57.6855E-03     55.6077E-03    -194.419E-03     57.5061E-03    -194.341E-03     55.7098E-03    -6.01323E-03     584.665E-03    -287.604E-03    -297.407E-03    -263.770E-03     553.500E-03    -290.077E-03     324.815E-03     74.3355E+06     60.3819E+06    -37.7628E+06    -32.1871E+06     59.5000E+06     69.6417E+06     8.87562E+03         76.6511
            1919     10.5099E-03     192.655E-03     56.5234E-03     53.7357E-03    -188.491E-03     54.9794E-03    -188.182E-03     54.9712E-03    -9.02077E-03     588.997E-03    -286.536E-03    -302.815E-03    -266.706E-03     554.237E-03    -287.886E-03     344.610E-03     82.8268E+06     59.7553E+06    -36.1554E+06    -28.7014E+06     55.4831E+06     79.6450E+06    -4.85105E+06         78.2157
            1920     11.2780E-03     192.890E-03     55.8577E-03     49.7272E-03    -180.640E-03     51.4200E-03    -180.298E-03     53.8230E-03    -8.87132E-03     597.794E-03    -286.744E-03    -311.667E-03    -278.773E-03     564.899E-03    -286.744E-03     338.370E-03     95.3595E+06     68.9595E+06    -33.8143E+06    -22.5276E+06     57.6728E+06     95.3595E+06    -4.92866E+06         80.7826
            1921     12.0135E-03     193.446E-03     54.7677E-03     47.3393E-03    -175.368E-03     49.3945E-03    -175.032E-03     52.3760E-03    -10.7939E-03     620.161E-03    -286.984E-03    -333.698E-03    -300.632E-03     587.094E-03    -286.984E-03     347.645E-03     101.480E+06     62.9174E+06    -31.1487E+06    -15.8790E+06     47.6477E+06     101.480E+06    -6.31995E+06         84.5503
            1922     12.7772E-03     193.660E-03     52.5484E-03     46.8597E-03    -170.626E-03     48.0869E-03    -170.300E-03     50.9957E-03    -7.64468E-03     637.851E-03    -288.118E-03    -349.909E-03    -325.052E-03     612.995E-03    -288.118E-03     295.412E-03     113.518E+06     50.0680E+06    -27.5482E+06    -8.67796E+06     31.1977E+06     113.518E+06    -7.00646E+06         88.4671
            1923     754.497E-06     192.848E-03     53.4769E-03     36.0387E-03    -171.046E-03     50.3618E-03    -167.931E-03     36.0387E-03     18.5448E-03     563.590E-03    -281.264E-03    -282.463E-03    -281.699E-03     563.319E-03    -281.757E-03     27.7231E-03    -83.0196E+06    -113.342E+06    -217.147E+06    -99.1745E+06    -216.945E+06    -97.3885E+06    -2.90314E+06         66.5581
            1924     1.50448E-03     192.880E-03     51.2931E-03     40.4008E-03    -175.162E-03     46.9388E-03    -174.348E-03     43.9411E-03    -10.4867E-03     563.391E-03    -281.388E-03    -282.338E-03    -281.403E-03     562.517E-03    -281.448E-03     51.8818E-03    -86.2107E+06    -103.294E+06    -199.220E+06    -96.3271E+06    -199.087E+06    -93.3109E+06    -2.85954E+06         66.8151
            1925     2.25951E-03     192.920E-03     50.9011E-03     41.4008E-03    -178.763E-03     47.2238E-03    -178.626E-03     44.9410E-03     4.97819E-03     564.392E-03    -281.326E-03    -283.522E-03    -281.613E-03     562.483E-03    -281.326E-03     78.3353E-03    -79.5579E+06    -93.7453E+06    -178.690E+06    -91.2286E+06    -178.528E+06    -82.2372E+06    -3.01065E+06         67.2088
            1926     3.01502E-03     192.969E-03     53.1712E-03     45.9693E-03    -179.512E-03     52.9763E-03    -179.317E-03     45.9693E-03    -3.38784E-03     566.988E-03    -281.535E-03    -285.608E-03    -282.070E-03     563.450E-03    -281.535E-03     107.359E-03    -67.4150E+06    -87.5772E+06    -164.044E+06    -87.8255E+06    -163.744E+06    -67.4664E+06    -4.33182E+06         67.7080
            1927     3.76328E-03     193.048E-03     54.7169E-03     45.5836E-03    -178.581E-03     52.9633E-03    -178.348E-03     47.1045E-03    -11.7826E-03     568.596E-03    -281.830E-03    -286.984E-03    -281.048E-03     562.660E-03    -281.830E-03     139.377E-03    -50.1419E+06    -79.8645E+06    -148.781E+06    -81.1778E+06    -147.468E+06    -50.1419E+06    -4.95694E+06         68.2880
            1928     4.51948E-03     193.148E-03     52.6113E-03     45.9677E-03    -179.021E-03     50.9604E-03    -178.891E-03     47.4887E-03    -7.74245E-03     569.408E-03    -281.705E-03    -287.625E-03    -278.478E-03     560.261E-03    -281.705E-03     173.313E-03    -33.5722E+06    -71.1312E+06    -128.380E+06    -74.7262E+06    -124.785E+06    -33.5722E+06    -5.30544E+06         68.9061
            1929     5.27348E-03     193.308E-03     54.8588E-03     47.6484E-03    -182.517E-03     54.7523E-03    -182.411E-03     47.6484E-03    -6.14811E-03     569.409E-03    -281.552E-03    -287.551E-03    -274.315E-03     556.173E-03    -281.552E-03     208.706E-03    -13.6043E+06    -58.3578E+06    -98.7929E+06    -62.5751E+06    -94.5755E+06    -13.6043E+06    -5.05097E+06         69.5005
            1930     6.03666E-03     193.445E-03     58.0380E-03     48.1018E-03    -183.296E-03     57.6839E-03    -182.942E-03     48.1018E-03    -10.6969E-03     567.866E-03    -281.057E-03    -287.384E-03    -269.538E-03     550.020E-03    -281.057E-03     242.203E-03     6.89624E+06    -41.8802E+06    -75.3066E+06    -50.4102E+06    -66.7766E+06     6.89624E+06    -5.24067E+06         70.1625
            1931     6.80206E-03     193.566E-03     59.4550E-03     48.6750E-03    -180.737E-03     59.0993E-03    -180.381E-03     48.6750E-03    -12.2542E-03     566.407E-03    -279.375E-03    -288.039E-03    -265.472E-03     543.840E-03    -279.375E-03     272.054E-03     22.8440E+06    -22.0580E+06    -66.3934E+06    -46.2937E+06    -42.1577E+06     22.8440E+06    -3.54839E+06         71.0133
            1932     7.57225E-03     193.692E-03     57.8544E-03     49.0471E-03    -179.384E-03     57.5269E-03    -179.056E-03     49.0471E-03    -13.2650E-03     565.969E-03    -277.264E-03    -289.123E-03    -262.595E-03     539.441E-03    -277.264E-03     295.253E-03     42.7292E+06     2.33011E+06    -52.0367E+06    -38.8281E+06    -10.8785E+06     42.7292E+06     32.5305E+03         71.9536
            1933     8.34821E-03     193.890E-03     57.4094E-03     49.0298E-03    -179.013E-03     57.0342E-03    -178.638E-03     49.0298E-03    -15.3903E-03     568.056E-03    -275.683E-03    -292.010E-03    -262.459E-03     538.505E-03    -275.683E-03     312.786E-03     62.9415E+06     29.2249E+06    -39.5500E+06    -32.5373E+06     22.2122E+06     62.9415E+06     6.07028E+06         72.9071
            1934     9.12616E-03     194.018E-03     57.6634E-03     48.8586E-03    -178.953E-03     57.4861E-03    -178.775E-03     48.8586E-03    -11.4147E-03     573.094E-03    -274.899E-03    -298.240E-03    -266.044E-03     540.899E-03    -274.899E-03     328.655E-03     81.9553E+06     59.2343E+06    -32.8451E+06    -25.7089E+06     52.4509E+06     81.6025E+06     9.05370E+06         74.1218
            1935     9.89615E-03     194.156E-03     52.9854E-03     48.5219E-03    -177.452E-03     52.9053E-03    -177.372E-03     48.5219E-03    -5.80568E-03     582.192E-03    -274.582E-03    -307.695E-03    -275.124E-03     549.620E-03    -274.582E-03     334.062E-03     98.4402E+06     75.1852E+06    -29.0354E+06    -16.9798E+06     63.4824E+06     98.0874E+06     10.8746E+06         75.9485
            1936     10.6532E-03     194.522E-03     51.4830E-03     47.6766E-03    -172.098E-03     51.4399E-03    -172.055E-03     47.6766E-03    -2.96773E-03     600.352E-03    -275.193E-03    -325.043E-03    -293.138E-03     568.447E-03    -275.193E-03     336.944E-03     104.432E+06     75.0942E+06    -27.8285E+06    -16.7062E+06     63.9719E+06     104.432E+06     9.80304E+06         78.5758
            1937     11.3977E-03     194.825E-03     54.6250E-03     43.6484E-03    -163.938E-03     51.6161E-03    -163.790E-03     46.5087E-03    -9.56804E-03     619.953E-03    -276.886E-03    -343.290E-03    -315.631E-03     592.294E-03    -276.886E-03     319.004E-03     113.274E+06     77.5466E+06    -27.9038E+06    -16.6050E+06     66.2477E+06     113.274E+06     2.91399E+06         82.2071
            1938     12.1380E-03     194.994E-03     50.7443E-03     40.1001E-03    -157.192E-03     45.3746E-03    -156.859E-03     45.1368E-03    -15.4452E-03     649.557E-03    -279.613E-03    -370.114E-03    -343.073E-03     622.517E-03    -279.613E-03     326.158E-03     126.914E+06     76.5094E+06    -24.0187E+06    -12.3925E+06     64.8832E+06     126.914E+06     3.60969E+06         86.7088
            1939     12.8267E-03     195.589E-03     46.7741E-03     41.3553E-03    -153.385E-03     44.3244E-03    -153.112E-03     43.5318E-03    -4.99044E-03     675.385E-03    -283.920E-03    -391.402E-03    -371.926E-03     655.908E-03    -283.920E-03     270.567E-03     131.161E+06     54.4560E+06    -30.3216E+06    -3.14127E+06     27.2756E+06     131.161E+06    -953.487E+03         90.8808
            1940     764.518E-06     194.573E-03     46.2576E-03     27.7691E-03    -154.175E-03     44.8375E-03    -152.755E-03     27.7691E-03    -7.90901E-03     528.243E-03    -263.448E-03    -264.821E-03    -264.285E-03     527.766E-03    -263.508E-03     35.8576E-03    -62.3383E+06    -87.9909E+06    -207.760E+06    -73.8906E+06    -207.367E+06    -76.8316E+06    -2.06030E+06         62.9806
            1941     1.53514E-03     194.621E-03     45.1033E-03     33.3188E-03    -153.943E-03     40.1282E-03    -152.508E-03     36.8590E-03    -23.8457E-03     527.020E-03    -263.350E-03    -263.776E-03    -262.263E-03     525.566E-03    -263.410E-03     65.2726E-03    -63.5254E+06    -82.1392E+06    -191.906E+06    -75.1284E+06    -191.692E+06    -70.7499E+06    -4.65089E+06         63.0831
            1942     2.30344E-03     194.669E-03     48.1409E-03     34.8234E-03    -157.910E-03     43.8953E-03    -157.204E-03     38.3637E-03    -12.0839E-03     525.661E-03    -262.459E-03    -263.379E-03    -260.159E-03     522.441E-03    -262.459E-03     97.9958E-03    -61.1935E+06    -76.9517E+06    -176.348E+06    -74.5117E+06    -175.944E+06    -64.0375E+06    -5.74607E+06         63.2791
            1943     3.07112E-03     194.726E-03     48.6538E-03     39.7558E-03    -162.388E-03     48.1351E-03    -162.246E-03     40.1326E-03     3.11665E-03     524.458E-03    -261.378E-03    -263.172E-03    -257.243E-03     518.529E-03    -261.378E-03     133.225E-03    -49.0171E+06    -67.0443E+06    -158.827E+06    -67.3111E+06    -158.344E+06    -49.2333E+06    -5.07529E+06         63.6002
            1944     3.84971E-03     194.789E-03     44.6870E-03     39.2248E-03    -158.850E-03     42.6247E-03    -158.686E-03     41.1225E-03    -854.296E-06     523.779E-03    -260.274E-03    -263.427E-03    -253.816E-03     514.167E-03    -260.274E-03     170.250E-03    -30.1269E+06    -58.2787E+06    -144.418E+06    -59.4516E+06    -143.245E+06    -30.1269E+06    -4.57029E+06         64.0828
            1945     4.62470E-03     194.872E-03     42.6231E-03     39.4151E-03    -157.102E-03     40.9054E-03    -157.006E-03     41.0365E-03    -5.75788E-03     524.835E-03    -259.204E-03    -265.602E-03    -251.386E-03     510.620E-03    -259.204E-03     207.675E-03    -12.5889E+06    -48.3797E+06    -121.980E+06    -51.8978E+06    -118.462E+06    -12.5889E+06    -4.22785E+06         64.7306
            1946     5.40443E-03     195.006E-03     44.6016E-03     40.7753E-03    -158.656E-03     44.1509E-03    -158.365E-03     40.9350E-03    -8.62196E-03     527.473E-03    -258.157E-03    -269.383E-03    -250.044E-03     508.133E-03    -258.157E-03     243.342E-03     3.58783E+06    -41.8923E+06    -93.6710E+06    -46.2660E+06    -89.2974E+06     3.58783E+06    -4.32474E+06         65.5108
            1947     6.18435E-03     195.137E-03     47.5238E-03     40.9671E-03    -160.363E-03     47.1771E-03    -160.076E-03     41.0263E-03    -7.74118E-03     531.532E-03    -257.241E-03    -274.286E-03    -249.898E-03     507.144E-03    -257.241E-03     274.903E-03     20.7367E+06    -30.9383E+06    -82.7496E+06    -47.1482E+06    -66.5398E+06     20.7367E+06     1.90225E+06         66.5236
            1948     6.96880E-03     195.279E-03     49.4788E-03     41.1785E-03    -158.787E-03     49.3487E-03    -158.657E-03     41.1785E-03    -4.38880E-03     538.488E-03    -256.364E-03    -282.602E-03    -253.532E-03     509.418E-03    -256.364E-03     302.883E-03     39.6101E+06    -19.6507E+06    -70.4890E+06    -46.8124E+06    -43.3274E+06     39.6101E+06     8.52472E+06         67.8890
            1949     7.75160E-03     195.353E-03     48.6223E-03     41.2931E-03    -155.673E-03     48.2219E-03    -155.273E-03     41.2931E-03    -12.5571E-03     547.968E-03    -255.913E-03    -292.661E-03    -260.316E-03     515.622E-03    -255.913E-03     323.203E-03     56.2829E+06    -294.800E+03    -61.6364E+06    -46.8167E+06    -15.1145E+06     56.2829E+06     12.3604E+06         69.6022
            1950     8.52729E-03     195.522E-03     50.1939E-03     41.2619E-03    -156.095E-03     49.6809E-03    -155.582E-03     41.2619E-03    -20.0342E-03     558.465E-03    -256.113E-03    -302.366E-03    -269.355E-03     525.454E-03    -256.113E-03     330.553E-03     75.7148E+06     38.3462E+06    -56.8632E+06    -44.9137E+06     26.3967E+06     75.7148E+06     13.8175E+06         71.5500
            1951     9.28852E-03     195.834E-03     50.5432E-03     41.0378E-03    -154.055E-03     50.2940E-03    -153.806E-03     41.0378E-03    -13.5219E-03     575.345E-03    -257.368E-03    -318.252E-03    -287.135E-03     544.228E-03    -257.368E-03     327.002E-03     91.0873E+06     65.2837E+06    -48.1350E+06    -39.7597E+06     56.9084E+06     91.0873E+06     12.0531E+06         73.7421
            1952     10.0431E-03     196.067E-03     44.0327E-03     40.4527E-03    -150.140E-03     43.7137E-03    -149.821E-03     40.4527E-03    -12.3194E-03     598.291E-03    -259.983E-03    -338.389E-03    -310.419E-03     570.321E-03    -259.983E-03     317.282E-03     96.6474E+06     74.3676E+06    -47.0170E+06    -33.8593E+06     61.2100E+06     96.6474E+06     14.1602E+06         76.4956
            1953     10.7920E-03     196.120E-03     42.3922E-03     39.2720E-03    -150.217E-03     42.0947E-03    -149.919E-03     39.2720E-03    -10.7227E-03     625.647E-03    -264.337E-03    -361.531E-03    -335.787E-03     599.904E-03    -264.337E-03     313.242E-03     104.240E+06     81.7622E+06    -37.8762E+06    -25.0457E+06     68.9317E+06     104.240E+06     13.8576E+06         80.0180
            1954     11.4684E-03     196.754E-03     49.2866E-03     37.8988E-03    -149.795E-03     49.1381E-03    -149.647E-03     37.8988E-03    -9.54473E-03     654.163E-03    -269.709E-03    -384.955E-03    -363.760E-03     632.969E-03    -269.709E-03     291.145E-03     119.264E+06     95.0756E+06    -25.5899E+06    -15.9188E+06     85.4045E+06     119.264E+06     13.4922E+06         84.3422
            1955     12.1727E-03     197.046E-03     48.9472E-03     36.7645E-03    -146.337E-03     48.6516E-03    -146.042E-03     36.7645E-03    -12.9475E-03     685.740E-03    -275.239E-03    -410.307E-03    -389.419E-03     664.852E-03    -275.239E-03     297.634E-03     134.386E+06     93.4470E+06    -13.3370E+06    -6.65164E+06     86.7616E+06     134.386E+06     8.37891E+06         89.1376
            1956     12.8544E-03     197.530E-03     47.6610E-03     35.5839E-03    -143.880E-03     47.2526E-03    -143.472E-03     35.5839E-03    -8.67718E-03     703.879E-03    -281.782E-03    -421.610E-03    -406.451E-03     688.720E-03    -281.782E-03     243.821E-03     129.033E+06     58.4376E+06    -22.6450E+06    -1.91522E+06     37.7078E+06     129.033E+06     2.62487E+06         93.2615
            1957     788.435E-06     196.217E-03     46.0875E-03     32.0905E-03    -149.518E-03     40.0498E-03    -143.812E-03     32.4215E-03    -17.4393E-03     477.471E-03    -238.000E-03    -239.452E-03    -238.200E-03     476.763E-03    -238.545E-03     41.2886E-03    -53.3722E+06    -78.8904E+06    -198.460E+06    -64.7248E+06    -198.069E+06    -67.9296E+06    -1.73552E+06         58.0933
            1958     1.57284E-03     196.245E-03     42.3942E-03     36.7764E-03    -149.428E-03     39.9518E-03    -147.317E-03     37.1074E-03     6.92705E-03     475.370E-03    -237.520E-03    -237.840E-03    -235.368E-03     473.044E-03    -237.666E-03     77.7904E-03    -57.6130E+06    -74.3432E+06    -181.860E+06    -69.1213E+06    -181.542E+06    -63.1524E+06    -5.01450E+06         58.1257
            1959     2.36369E-03     196.280E-03     46.9742E-03     35.1799E-03    -147.695E-03     42.1785E-03    -146.344E-03     38.6242E-03    -2.64555E-03     472.144E-03    -235.961E-03    -236.252E-03    -231.071E-03     467.019E-03    -236.017E-03     117.052E-03    -52.3385E+06    -65.7202E+06    -170.670E+06    -65.0670E+06    -170.164E+06    -53.4974E+06    -6.18259E+06         58.2705
            1960     3.16327E-03     196.320E-03     42.9133E-03     31.5174E-03    -144.885E-03     34.6514E-03    -143.948E-03     38.8421E-03     19.1713E-03     469.639E-03    -234.073E-03    -235.667E-03    -226.620E-03     460.591E-03    -234.073E-03     156.256E-03    -42.4961E+06    -60.8024E+06    -157.986E+06    -61.0134E+06    -157.559E+06    -42.7123E+06    -4.44210E+06         58.6399
            1961     3.96002E-03     196.364E-03     38.5609E-03     32.2299E-03    -141.729E-03     32.6901E-03    -141.420E-03     37.7916E-03     8.01923E-03     470.326E-03    -232.147E-03    -238.098E-03    -224.129E-03     456.357E-03    -232.147E-03     194.846E-03    -30.2529E+06    -56.9840E+06    -146.348E+06    -59.3257E+06    -144.007E+06    -30.2529E+06    -1.58974E+06         59.3178
            1962     4.76600E-03     196.414E-03     37.7090E-03     34.2019E-03    -138.642E-03     34.8540E-03    -138.525E-03     36.9397E-03    -4.16833E-03     475.312E-03    -230.664E-03    -244.511E-03    -224.868E-03     455.669E-03    -230.664E-03     232.856E-03    -13.4589E+06    -53.7820E+06    -122.549E+06    -57.2215E+06    -119.110E+06    -13.4589E+06     4.95681E+06         60.3527
            1963     5.56710E-03     196.483E-03     36.3366E-03     34.4366E-03    -135.285E-03     34.1559E-03    -135.005E-03     36.3366E-03    -9.54245E-03     484.565E-03    -229.898E-03    -254.764E-03    -229.409E-03     459.210E-03    -229.898E-03     267.990E-03     4.09959E+06    -47.5251E+06    -111.037E+06    -63.2276E+06    -95.3347E+06     4.09959E+06     13.1948E+06         61.7379
            1964     6.36832E-03     196.583E-03     38.3069E-03     33.3616E-03    -135.271E-03     35.6382E-03    -134.984E-03     35.7430E-03    -8.14546E-03     498.506E-03    -229.836E-03    -268.736E-03    -238.651E-03     468.420E-03    -229.836E-03     297.248E-03     24.2208E+06    -38.9480E+06    -99.4418E+06    -65.8440E+06    -72.5459E+06     24.2208E+06     19.0089E+06         63.4808
            1965     7.15258E-03     196.935E-03     40.4290E-03     33.7916E-03    -137.959E-03     38.8013E-03    -137.869E-03     35.3293E-03     1.74935E-03     517.529E-03    -230.944E-03    -286.567E-03    -253.519E-03     484.482E-03    -230.944E-03     319.072E-03     46.0551E+06    -18.5666E+06    -86.2648E+06    -64.1840E+06    -40.6474E+06     46.0551E+06     25.8967E+06         65.6208
            1966     7.92952E-03     197.193E-03     38.5344E-03     34.9762E-03    -136.482E-03     38.3703E-03    -136.318E-03     34.9762E-03    -2.97357E-03     541.894E-03    -233.544E-03    -308.239E-03    -275.092E-03     508.747E-03    -233.544E-03     328.736E-03     62.6470E+06     8.30411E+06    -79.8042E+06    -61.0581E+06    -10.4419E+06     62.6470E+06     26.2859E+06         68.2955
            1967     8.69900E-03     197.352E-03     37.1673E-03     32.2432E-03    -129.849E-03     34.7446E-03    -129.588E-03     34.4041E-03    -13.0891E-03     569.181E-03    -237.303E-03    -331.499E-03    -300.574E-03     538.256E-03    -237.303E-03     326.826E-03     79.9869E+06     41.0434E+06    -62.6739E+06    -52.5771E+06     30.9467E+06     79.9869E+06     18.3986E+06         71.4869
            1968     9.45346E-03     197.410E-03     35.6850E-03     30.0918E-03    -125.044E-03     32.1718E-03    -124.891E-03     33.4517E-03    -6.71717E-03     598.270E-03    -242.335E-03    -356.179E-03    -329.094E-03     571.185E-03    -242.335E-03     315.376E-03     91.1532E+06      72.258E+06    -52.3693E+06    -44.8593E+06     64.7480E+06     91.1532E+06     21.4761E+06         74.8569
            1969     10.1477E-03     197.887E-03     35.8107E-03     31.1495E-03    -124.480E-03     34.2499E-03    -124.118E-03     32.3484E-03    -10.4191E-03     629.274E-03    -248.716E-03    -380.662E-03    -358.266E-03     606.878E-03    -248.716E-03     296.244E-03     90.3576E+06     75.3715E+06    -46.7794E+06    -37.2318E+06     65.8239E+06     90.3576E+06     19.1268E+06         78.3789
            1970     10.8639E-03     198.061E-03     37.6636E-03     31.3368E-03    -125.571E-03     37.2577E-03    -125.165E-03     31.3368E-03    -13.5839E-03     660.631E-03    -256.781E-03    -404.100E-03    -384.380E-03     640.911E-03    -256.781E-03     285.909E-03     100.445E+06     89.1208E+06    -35.3308E+06    -25.6237E+06     79.4137E+06     100.445E+06     13.4557E+06         82.2990
            1971     11.5232E-03     198.699E-03     37.8388E-03     30.3127E-03    -125.575E-03     37.6975E-03    -125.434E-03     30.3127E-03    -2.88017E-03     690.617E-03    -265.589E-03    -425.638E-03    -409.658E-03     674.637E-03    -265.589E-03     261.966E-03     109.758E+06     89.2385E+06    -22.1275E+06    -15.5768E+06     82.6879E+06     109.758E+06     9.97888E+06         86.6924
            1972     12.1905E-03     198.980E-03     36.6965E-03     29.3923E-03    -124.493E-03     36.5967E-03    -124.393E-03     29.3923E-03     1.96209E-03     717.557E-03    -273.712E-03    -443.433E-03    -427.160E-03     701.285E-03    -273.712E-03     270.799E-03     117.922E+06     81.5271E+06    -15.5127E+06    -11.8607E+06     77.8751E+06     117.922E+06     6.58283E+06         91.2849
            1973     12.8460E-03     199.507E-03     38.8370E-03     28.6060E-03    -123.160E-03     38.6178E-03    -122.941E-03     28.6060E-03    -2.57221E-03     720.707E-03    -281.540E-03    -438.668E-03    -426.197E-03     708.236E-03    -281.540E-03     227.641E-03     123.462E+06     66.4756E+06    -15.8192E+06    -6.46302E+06     57.1194E+06     123.462E+06     7.46965E+06         95.1575
            1974     810.040E-06     197.641E-03     53.3337E-03     39.1950E-03    -150.927E-03     45.1697E-03    -143.901E-03     40.3332E-03    -34.6421E-03     411.887E-03    -205.130E-03    -206.774E-03    -204.087E-03     410.844E-03    -206.774E-03     45.9349E-03    -65.3131E+06    -96.3707E+06    -191.043E+06    -81.9776E+06    -190.848E+06    -79.9020E+06    -2.70867E+06         52.5926
            1975     1.62917E-03     197.640E-03     44.5864E-03     38.1886E-03    -140.114E-03     38.3544E-03    -137.489E-03     41.7948E-03    -2.05654E-03     409.254E-03    -204.342E-03    -204.894E-03    -201.279E-03     405.966E-03    -204.668E-03     86.5051E-03    -69.5084E+06    -80.4224E+06    -173.323E+06    -75.1006E+06    -173.074E+06    -75.0793E+06    -2.83243E+06         52.7580
            1976     2.44979E-03     197.678E-03     39.0969E-03     30.1488E-03    -127.104E-03     28.1413E-03    -124.869E-03     38.8695E-03    -10.7416E-03     407.614E-03    -202.739E-03    -204.960E-03    -197.797E-03     400.508E-03    -202.796E-03     128.687E-03    -68.8268E+06    -77.5003E+06    -166.527E+06    -76.8005E+06    -166.284E+06    -69.7695E+06    -2.66411E+06         53.1178
            1977     3.26970E-03     197.765E-03     35.2441E-03     25.8741E-03    -121.214E-03     24.1240E-03    -119.464E-03     35.2441E-03     470.411E-06     409.898E-03    -201.175E-03    -208.814E-03    -196.599E-03     397.683E-03    -201.175E-03     170.178E-03    -62.8173E+06    -80.0316E+06    -168.416E+06    -82.7377E+06    -165.710E+06    -62.8173E+06     3.21290E+06         53.8245
            1978     4.09689E-03     197.890E-03     33.6938E-03     27.0626E-03    -120.959E-03     26.7422E-03    -119.613E-03     32.6685E-03    -10.6816E-03     417.522E-03    -200.238E-03    -217.201E-03    -199.106E-03     399.428E-03    -200.238E-03     209.893E-03    -49.4990E+06     -80.368E+06    -161.810E+06    -85.4381E+06    -156.740E+06    -49.4990E+06     12.5567E+06         54.9471
            1979     4.91451E-03     198.108E-03     34.4077E-03     28.7065E-03    -122.021E-03     30.5436E-03    -120.794E-03     31.3438E-03    -16.8726E-03     430.576E-03    -200.061E-03    -230.510E-03    -206.371E-03     406.437E-03    -200.061E-03     247.223E-03    -28.6303E+06    -73.6542E+06    -151.276E+06    -92.8557E+06    -132.074E+06    -28.6303E+06     24.3152E+06         56.5490
            1980     5.73386E-03     198.267E-03     34.6800E-03     28.9083E-03    -122.163E-03     31.5008E-03    -120.724E-03     30.6486E-03    -20.4979E-03     450.013E-03    -200.911E-03    -249.089E-03    -219.940E-03     420.864E-03    -200.911E-03     279.273E-03    -4.18952E+06    -61.8260E+06    -139.455E+06    -91.8062E+06    -109.475E+06    -4.18952E+06     29.5278E+06         58.6947
            1981     6.54080E-03     198.416E-03     36.7122E-03     27.6851E-03    -121.551E-03     32.2826E-03    -119.443E-03     30.0073E-03    -24.2888E-03     476.773E-03    -203.393E-03    -273.500E-03    -241.315E-03     444.589E-03    -203.393E-03     303.980E-03     19.6531E+06    -42.8416E+06    -121.134E+06    -85.6629E+06    -78.3127E+06     19.6531E+06     32.8052E+06         61.3628
            1982     7.33669E-03     198.501E-03     34.9560E-03     27.3911E-03    -121.387E-03     31.6947E-03    -119.999E-03     29.2644E-03    -16.7464E-03     509.727E-03    -207.443E-03    -302.404E-03    -269.645E-03     476.967E-03    -207.443E-03     319.212E-03     42.4311E+06    -11.7866E+06    -101.486E+06    -78.4432E+06    -34.8292E+06     42.4311E+06     36.6439E+06         64.4884
            1983     8.10950E-03     198.659E-03     31.0160E-03     27.8464E-03    -119.060E-03     30.0321E-03    -118.411E-03     28.1820E-03    -13.9864E-03     549.582E-03    -213.426E-03    -335.261E-03    -304.803E-03     519.125E-03    -213.426E-03     321.845E-03     63.4298E+06     16.9565E+06    -80.1846E+06    -66.4330E+06     3.20491E+06     63.4298E+06     27.5195E+06         68.1588
            1984     8.82295E-03     199.199E-03     35.2358E-03     24.7853E-03    -116.072E-03     32.5346E-03    -115.532E-03     26.9462E-03    -16.4855E-03     593.053E-03    -221.585E-03    -370.385E-03    -343.893E-03     566.562E-03    -221.585E-03     314.271E-03     78.5304E+06     53.3786E+06    -62.7810E+06    -55.6249E+06     46.2226E+06     78.5304E+06     21.8112E+06         72.3758
            1985     9.54515E-03     199.348E-03     36.6862E-03     22.6669E-03    -115.521E-03     33.1463E-03    -115.341E-03     26.0268E-03    -6.96327E-03     630.923E-03    -230.889E-03    -400.130E-03    -377.573E-03     608.366E-03    -230.889E-03     300.713E-03     81.8353E+06     69.8185E+06    -46.7200E+06    -42.7887E+06     65.8872E+06     81.8353E+06     18.5849E+06         76.6984
            1986     10.2460E-03     199.719E-03     35.3543E-03     24.1241E-03    -114.741E-03     33.9558E-03    -114.541E-03     25.3230E-03    -7.48060E-03     665.856E-03    -240.847E-03    -424.957E-03    -406.653E-03     647.552E-03    -240.847E-03     278.297E-03     88.6483E+06     76.5360E+06    -37.2737E+06    -32.1130E+06     74.7679E+06     85.2557E+06     15.4086E+06         80.8116
            1987     10.9052E-03     200.074E-03     37.9019E-03     24.5839E-03    -113.594E-03     37.0890E-03    -112.781E-03     24.5839E-03    -19.6929E-03     700.409E-03    -252.356E-03    -448.056E-03    -432.694E-03     685.047E-03    -252.356E-03     262.862E-03     94.8803E+06     83.2894E+06    -31.0329E+06    -26.2480E+06     81.8971E+06     91.4877E+06     8.36328E+06         84.8190
            1988     11.5318E-03     200.648E-03     39.2659E-03     23.7816E-03    -114.717E-03     38.1479E-03    -113.599E-03     23.7816E-03    -18.0719E-03     723.133E-03    -263.800E-03    -459.848E-03    -447.205E-03     710.490E-03    -263.800E-03     242.063E-03     97.2482E+06     74.0221E+06    -25.0192E+06    -22.4839E+06     73.9056E+06     94.8293E+06     6.47286E+06         88.9356
            1989     12.1873E-03     201.013E-03     38.6331E-03     23.0493E-03    -115.783E-03     38.0345E-03    -115.184E-03     23.0493E-03    -7.85590E-03     733.956E-03    -273.404E-03    -460.727E-03    -446.200E-03     719.429E-03    -273.404E-03     259.244E-03     106.464E+06     76.7265E+06    -19.9292E+06    -16.4797E+06     75.6958E+06     104.045E+06     11.4741E+06         93.1823
            1990     12.8423E-03     201.517E-03     38.8602E-03     22.4861E-03    -114.874E-03     38.5174E-03    -114.532E-03     22.4861E-03    -6.32950E-03     724.648E-03    -281.708E-03    -442.972E-03    -430.972E-03     712.648E-03    -281.708E-03     226.329E-03     113.867E+06     78.6766E+06    -17.4213E+06    -8.75850E+06     70.0138E+06     113.867E+06     6.58736E+06         96.8714
            1991     845.412E-06     199.169E-03     36.6660E-03     28.4973E-03    -116.149E-03     27.5380E-03    -108.209E-03     29.6854E-03    -39.0960E-03     335.928E-03    -166.544E-03    -169.438E-03    -166.236E-03     334.414E-03    -168.232E-03     50.8369E-03    -76.4916E+06    -110.076E+06    -180.529E+06    -89.3484E+06    -179.978E+06    -97.7698E+06    -4.53650E+06         47.9475
            1992     1.68944E-03     199.210E-03     31.0563E-03     24.1392E-03    -103.244E-03     25.3868E-03    -101.231E-03     27.7953E-03    -9.35685E-03     338.378E-03    -167.144E-03    -171.195E-03    -166.563E-03     333.927E-03    -167.324E-03     91.6554E-03    -99.9230E+06    -111.400E+06    -178.124E+06    -101.851E+06    -177.377E+06    -110.219E+06     9.32697E+03         48.4039
            1993     2.53763E-03     199.271E-03     28.1251E-03     20.4872E-03    -101.713E-03     21.2284E-03    -100.093E-03     25.7636E-03    -24.0335E-03     343.151E-03    -166.901E-03    -176.273E-03    -167.171E-03     334.049E-03    -166.901E-03     133.974E-03    -103.560E+06    -112.700E+06    -185.335E+06    -112.622E+06    -177.841E+06    -111.133E+06     13.1631E+06         49.1745
            1994     3.38930E-03     199.347E-03     29.7137E-03     22.0531E-03    -106.280E-03     26.2862E-03    -105.275E-03     24.4751E-03    -17.0359E-03     354.014E-03    -167.095E-03    -186.994E-03    -172.072E-03     339.092E-03    -167.095E-03     175.941E-03    -94.4662E+06    -113.218E+06    -197.215E+06    -122.798E+06    -185.730E+06    -96.3711E+06     22.4185E+06         50.3788
            1995     4.22944E-03     199.437E-03     29.7161E-03     23.9118E-03    -108.097E-03     28.0542E-03    -106.856E-03     24.3328E-03    -18.8288E-03     371.691E-03    -168.312E-03    -203.162E-03    -182.272E-03     350.801E-03    -168.312E-03     214.571E-03    -73.6107E+06    -108.124E+06    -195.096E+06    -131.271E+06    -171.948E+06    -73.6107E+06     29.0669E+06         52.0683
            1996     5.07083E-03     199.520E-03     27.9492E-03     23.0439E-03    -105.410E-03     25.5737E-03    -104.092E-03     24.1012E-03    -18.7933E-03     395.826E-03    -170.842E-03    -224.962E-03    -199.113E-03     369.977E-03    -170.842E-03     247.909E-03    -43.6183E+06    -87.9190E+06    -181.711E+06    -123.691E+06    -145.939E+06    -43.6183E+06     33.3920E+06         54.2890
            1997     5.89356E-03     199.612E-03     27.7028E-03     22.4341E-03    -103.179E-03     24.5806E-03    -101.114E-03     23.4915E-03    -25.6957E-03     427.700E-03    -174.753E-03    -253.006E-03    -224.011E-03     398.705E-03    -174.753E-03     274.874E-03    -15.1440E+06    -69.3940E+06    -159.633E+06    -110.162E+06    -118.865E+06    -15.1440E+06     32.8863E+06         57.0737
            1998     6.70203E-03     199.793E-03     29.5700E-03     21.2592E-03    -101.543E-03     25.3333E-03    -98.7323E-03     22.6852E-03    -29.9114E-03     467.231E-03    -180.620E-03    -286.605E-03    -256.520E-03     437.145E-03    -180.620E-03     294.891E-03     12.0880E+06    -43.0815E+06    -128.054E+06    -96.9364E+06    -74.1991E+06     12.0880E+06     34.9879E+06         60.4043
            1999     7.47248E-03     200.192E-03     28.5504E-03     20.0238E-03    -96.1576E-03     24.8997E-03    -94.2686E-03     21.7854E-03    -21.9522E-03     513.778E-03    -188.550E-03    -325.296E-03    -296.346E-03     484.827E-03    -188.550E-03     305.609E-03     36.2873E+06    -13.9299E+06    -96.1801E+06    -79.6442E+06    -30.4659E+06     36.2873E+06     31.0981E+06         64.2822
            2000     8.22150E-03     200.482E-03     24.5062E-03     20.3093E-03    -95.3954E-03     23.0858E-03    -94.4362E-03     20.7705E-03    -17.9786E-03     564.741E-03    -198.219E-03    -365.238E-03    -338.908E-03     538.410E-03    -198.219E-03     307.502E-03     58.1593E+06     26.8920E+06    -75.1435E+06    -66.3708E+06     18.1193E+06     58.1593E+06     25.9151E+06         68.7575
            2001     8.95039E-03     200.786E-03     27.9626E-03     19.6529E-03    -99.2926E-03     27.2049E-03    -98.7267E-03     19.8447E-03    -13.9397E-03     615.895E-03    -210.050E-03    -404.290E-03    -381.664E-03     593.269E-03    -210.050E-03     298.795E-03     70.7224E+06     58.5819E+06    -60.0376E+06    -55.4317E+06     55.6369E+06     69.0615E+06     19.3816E+06         73.6168
            2002     9.62022E-03     201.319E-03     32.4787E-03     19.2444E-03    -99.1608E-03     32.1408E-03    -98.8890E-03     19.3106E-03    -7.63155E-03     662.442E-03    -223.115E-03    -439.400E-03    -420.914E-03     643.955E-03    -223.115E-03     281.320E-03     79.5933E+06     64.7998E+06    -50.4831E+06    -49.0043E+06     72.5119E+06     70.4024E+06     11.4978E+06         78.3995
            2003     10.2837E-03     201.693E-03     31.4489E-03     18.8848E-03    -98.5370E-03     30.5470E-03    -97.6351E-03     18.8848E-03    -12.7950E-03     700.668E-03    -236.286E-03    -464.954E-03    -450.085E-03     685.800E-03    -236.286E-03     260.464E-03     89.0135E+06     73.0111E+06    -42.8673E+06    -41.8470E+06     82.9134E+06     78.0909E+06     5.69967E+06         82.8498
            2004     10.9212E-03     202.100E-03     29.0760E-03     18.1138E-03    -97.9448E-03     27.5315E-03    -96.4002E-03     18.1138E-03    -25.4803E-03     730.446E-03    -250.078E-03    -480.802E-03    -467.466E-03     717.110E-03    -250.078E-03     252.756E-03     94.7038E+06     76.8341E+06    -35.4855E+06    -34.6886E+06     84.4868E+06     86.2543E+06     6.05743E+06         86.9251
            2005     11.5447E-03     202.676E-03     31.4018E-03     17.2581E-03    -96.1167E-03     29.9039E-03    -94.6187E-03     17.2581E-03    -26.9032E-03     741.813E-03    -262.973E-03    -479.176E-03    -466.939E-03     729.575E-03    -262.973E-03     242.918E-03     103.953E+06     82.7673E+06    -26.7867E+06    -25.9872E+06     89.4435E+06     96.4772E+06     7.73501E+06         90.8518
            2006     12.1870E-03     203.004E-03     33.0178E-03     15.7140E-03    -96.3217E-03     31.0739E-03    -95.2998E-03     16.6360E-03    -21.4118E-03     739.887E-03    -273.568E-03    -466.826E-03    -451.882E-03     724.943E-03    -273.568E-03     264.293E-03     105.944E+06     80.0953E+06    -19.5340E+06    -15.8953E+06     78.8754E+06     103.525E+06    -231.865E+03         94.7830
            2007     12.8351E-03     203.565E-03     35.2231E-03     15.3355E-03    -98.9997E-03     33.8698E-03    -98.5684E-03     16.2574E-03    -14.6546E-03     723.444E-03    -282.073E-03    -441.812E-03    -429.352E-03     710.984E-03    -282.073E-03     231.463E-03     108.553E+06     71.8819E+06    -13.7469E+06    -6.35639E+06     64.4914E+06     108.553E+06    -3.02987E+06         98.0936
            2008     882.287E-06     200.466E-03     25.8198E-03     15.0846E-03    -94.6448E-03     17.2655E-03    -86.4714E-03     15.4655E-03    -4.26551E-03     258.095E-03    -127.289E-03    -130.848E-03    -128.150E-03     256.149E-03    -128.041E-03     50.8338E-03    -115.915E+06    -145.858E+06    -204.878E+06    -142.661E+06    -183.571E+06    -140.418E+06     8.25388E+06         45.2644
            2009     1.76056E-03     200.513E-03     19.6999E-03     15.4904E-03    -84.1474E-03     16.1306E-03    -81.3963E-03     16.3087E-03     23.1420E-03     269.790E-03    -129.603E-03    -140.193E-03    -134.543E-03     264.141E-03    -129.603E-03     93.1538E-03    -144.663E+06    -161.165E+06    -215.723E+06    -167.707E+06    -193.647E+06    -160.196E+06     17.9563E+06         45.9434
            2010     2.63501E-03     200.544E-03     18.7482E-03     14.8927E-03    -86.4174E-03     17.1348E-03    -86.2979E-03     16.3867E-03    -2.98867E-03     286.177E-03    -132.170E-03    -154.117E-03    -143.276E-03     275.336E-03    -132.170E-03     135.237E-03    -143.848E+06    -158.254E+06    -230.079E+06    -172.326E+06    -206.421E+06    -153.433E+06     25.5558E+06         47.0572
            2011     3.49868E-03     200.584E-03     22.2441E-03     15.8595E-03    -94.4299E-03     21.0024E-03    -94.2448E-03     16.9160E-03    -4.30080E-03     308.170E-03    -135.766E-03    -172.444E-03    -156.069E-03     291.795E-03    -135.766E-03     173.894E-03    -120.163E+06    -139.351E+06    -227.414E+06    -162.326E+06    -202.535E+06    -122.068E+06     32.5196E+06         48.6730
            2012     4.35997E-03     200.637E-03     26.1915E-03     17.8473E-03    -96.0514E-03     25.8187E-03    -95.6786E-03     17.8473E-03    -8.97761E-03     337.182E-03    -140.449E-03    -196.660E-03    -175.347E-03     315.869E-03    -140.449E-03     208.945E-03    -85.2173E+06    -113.761E+06     -214.62E+06    -149.013E+06    -179.369E+06    -85.2173E+06     33.9276E+06         50.8226
            2013     5.19733E-03     200.731E-03     23.7330E-03     17.2911E-03    -92.3519E-03     22.3296E-03    -92.0059E-03     18.3484E-03    -4.33895E-03     373.735E-03    -146.547E-03    -227.077E-03    -202.174E-03     348.832E-03    -146.547E-03     239.489E-03    -54.5956E+06    -93.7021E+06    -192.531E+06    -133.106E+06    -153.127E+06    -54.5956E+06     29.9711E+06         53.5139
            2014     6.01952E-03     200.976E-03     18.8686E-03     16.7806E-03    -89.6759E-03     16.7265E-03    -88.5912E-03     17.8379E-03    -11.1602E-03     418.022E-03    -154.467E-03    -263.663E-03    -236.848E-03     391.208E-03    -154.467E-03     264.863E-03    -27.5879E+06    -73.8847E+06    -160.116E+06    -118.399E+06    -115.602E+06    -27.5879E+06     28.2836E+06         56.7241
            2015     6.80384E-03     201.407E-03     18.4938E-03     15.3518E-03    -84.7183E-03     15.6049E-03    -83.2555E-03     16.7779E-03    -5.36761E-03     469.517E-03    -164.205E-03    -305.537E-03    -278.919E-03     442.899E-03    -164.205E-03     281.582E-03    -2.08660E+06    -53.9709E+06    -121.535E+06    -101.054E+06    -74.4515E+06    -2.08660E+06     21.9142E+06         60.4375
            2016     7.57632E-03     201.668E-03     22.9266E-03     14.4011E-03    -80.9282E-03     19.7125E-03    -79.1401E-03     15.8271E-03    -7.29568E-03     524.829E-03    -175.909E-03    -349.032E-03    -324.695E-03     500.493E-03    -175.909E-03     286.334E-03     22.6140E+06    -15.6447E+06    -94.2293E+06    -86.9493E+06    -22.9247E+06     22.6140E+06     19.4768E+06         64.7210
            2017     8.30020E-03     202.185E-03     27.2384E-03     15.0466E-03    -81.7385E-03     25.0478E-03    -79.6736E-03     15.1722E-03    -24.8921E-03     581.296E-03    -189.224E-03    -390.924E-03    -370.182E-03     560.555E-03    -189.224E-03     278.953E-03     43.1455E+06     26.2546E+06    -78.9010E+06    -73.8066E+06     21.6618E+06     42.6439E+06     16.5600E+06         69.5598
            2018     8.99671E-03     202.651E-03     25.9659E-03     14.2879E-03    -81.2975E-03     24.1188E-03    -79.6423E-03     14.4797E-03    -21.1164E-03     634.626E-03    -204.111E-03    -429.121E-03    -412.225E-03     617.730E-03    -204.111E-03     263.953E-03     68.7500E+06     49.4643E+06    -65.4612E+06    -63.9889E+06     60.5346E+06     56.2073E+06     13.2678E+06         74.5984
            2019     9.64769E-03     203.228E-03     26.5029E-03     13.6331E-03    -79.7653E-03     25.1989E-03    -78.5275E-03     13.6993E-03    -16.6262E-03     681.698E-03    -219.891E-03    -461.972E-03    -448.187E-03     667.912E-03    -219.891E-03     248.246E-03     83.8792E+06     63.7860E+06    -57.6521E+06    -56.4490E+06     82.6761E+06     63.7860E+06     9.64485E+06         79.4074
            2020     10.3039E-03     203.667E-03     28.9676E-03     13.1565E-03    -80.8976E-03     27.5791E-03    -79.5091E-03     13.1565E-03    -18.9793E-03     716.839E-03    -235.200E-03    -482.483E-03    -470.376E-03     704.732E-03    -235.200E-03     239.181E-03     90.8871E+06     70.3654E+06    -46.9676E+06    -46.8105E+06     88.0212E+06     73.0742E+06     1.55284E+06         83.7953
            2021     10.9325E-03     204.150E-03     26.0088E-03     12.7664E-03    -79.7594E-03     24.7799E-03    -78.5305E-03     12.7664E-03    -20.2840E-03     736.316E-03    -249.902E-03    -486.982E-03    -474.658E-03     723.992E-03    -249.902E-03     244.105E-03     104.820E+06     83.7104E+06    -38.2574E+06    -35.6303E+06     95.9010E+06     90.0027E+06    -3.16954E+06         87.6907
            2022     11.5407E-03     204.760E-03     22.6148E-03     12.3608E-03    -77.3708E-03     21.5334E-03    -76.2894E-03     12.3608E-03    -18.7338E-03     740.691E-03    -263.132E-03    -477.832E-03    -465.711E-03     728.569E-03    -263.132E-03     241.744E-03     106.773E+06     80.7405E+06    -29.2004E+06    -26.0549E+06     82.6520E+06     101.716E+06    -8.86429E+06         91.2953
            2023     12.1813E-03     205.200E-03     21.6579E-03     11.0782E-03    -76.5495E-03     19.4671E-03    -75.2807E-03     12.0002E-03    -21.3379E-03     736.427E-03    -274.244E-03    -462.771E-03    -447.658E-03     721.314E-03    -274.244E-03     265.205E-03     111.399E+06     76.4016E+06     -18.408E+06    -13.4531E+06     71.4467E+06     111.399E+06    -4.75920E+06         94.6368
            2024     12.8191E-03     205.769E-03     24.6306E-03     11.0102E-03    -75.2945E-03     23.3419E-03    -74.9278E-03     11.9322E-03    -10.3020E-03     717.082E-03    -282.828E-03    -434.915E-03    -422.052E-03     704.219E-03    -282.828E-03     235.702E-03     117.571E+06     73.7559E+06    -14.3278E+06    -6.34537E+06     65.7734E+06     117.571E+06     -151.76E+03         97.2013
            2025     911.649E-06     201.588E-03     15.9105E-03     4.98069E-03    -68.3785E-03     10.4461E-03    -65.3315E-03     7.39814E-03     7.39262E-03     194.863E-03    -95.0725E-03    -99.8105E-03    -97.6148E-03     192.831E-03    -95.2364E-03     45.8970E-03    -176.856E+06    -208.046E+06    -274.112E+06    -227.268E+06    -228.171E+06    -203.575E+06     36.5128E+06         44.3586
            2026     1.82109E-03     201.602E-03     24.2400E-03     10.6779E-03    -71.1823E-03     19.1579E-03    -66.5376E-03     11.1153E-03    -5.61781E-03     213.820E-03    -99.0404E-03    -114.807E-03    -108.982E-03     207.995E-03    -99.0404E-03     85.1650E-03    -168.675E+06    -184.061E+06    -262.848E+06    -213.956E+06    -217.566E+06    -184.061E+06     40.0391E+06         45.1420
            2027     2.71242E-03     201.637E-03     22.0820E-03     11.8229E-03    -70.1509E-03     17.1118E-03    -66.6747E-03     13.3168E-03    -22.4391E-03     241.119E-03    -104.277E-03    -136.850E-03    -125.807E-03     230.076E-03    -104.277E-03     126.750E-03    -162.006E+06    -174.537E+06    -258.251E+06    -209.822E+06    -217.562E+06    -167.409E+06     30.8660E+06         46.4483
            2028     3.59296E-03     201.687E-03     15.4578E-03     12.0844E-03    -69.4713E-03     11.3533E-03    -66.4233E-03     13.1410E-03    -22.3482E-03     275.359E-03    -111.183E-03    -164.188E-03    -147.972E-03     259.144E-03    -111.183E-03     165.584E-03    -143.785E+06    -162.727E+06    -241.141E+06    -197.166E+06    -206.702E+06    -143.785E+06     21.0334E+06         48.3073
            2029     4.44882E-03     201.835E-03     23.4614E-03     12.9854E-03    -75.7498E-03     21.7902E-03    -74.0786E-03     12.9854E-03    -21.0087E-03     316.231E-03    -119.591E-03    -196.811E-03    -176.350E-03     295.769E-03    -119.591E-03     200.781E-03    -112.320E+06    -136.522E+06    -223.727E+06    -173.687E+06    -186.562E+06    -112.320E+06     15.5158E+06         50.7157
            2030     5.29044E-03     202.125E-03     23.3469E-03     13.4073E-03    -77.7465E-03     22.6661E-03    -77.2330E-03     13.5746E-03    -5.38471E-03     364.738E-03    -129.432E-03    -235.474E-03    -212.326E-03     341.589E-03    -129.432E-03     231.002E-03    -78.7622E+06    -107.406E+06    -195.771E+06    -151.570E+06    -151.607E+06    -78.7622E+06     12.6491E+06         53.6446
            2031     6.09597E-03     202.485E-03     18.1532E-03     12.9868E-03    -75.2627E-03     14.5631E-03    -71.8399E-03     13.1541E-03    -17.9660E-03     420.286E-03    -141.115E-03    -279.263E-03    -255.773E-03     396.797E-03    -141.115E-03     251.231E-03    -48.6927E+06    -89.0049E+06    -156.365E+06    -130.423E+06    -114.947E+06    -48.6927E+06     7.56056E+06         57.0698
            2032     6.88153E-03     202.822E-03     20.6562E-03     12.0674E-03    -75.5952E-03     17.0031E-03    -71.9422E-03     12.0674E-03    -13.7998E-03     480.539E-03    -154.784E-03    -326.289E-03    -304.880E-03     459.131E-03    -154.784E-03     257.640E-03    -22.1475E+06    -66.7365E+06    -124.302E+06    -112.269E+06    -78.7696E+06    -22.1475E+06     4.08756E+06         60.9875
            2033     7.61335E-03     203.352E-03     21.6136E-03     11.2238E-03    -75.8437E-03     19.2751E-03    -73.5053E-03     11.2238E-03    -11.2884E-03     539.493E-03    -170.310E-03    -370.195E-03    -352.264E-03     521.562E-03    -170.310E-03     250.320E-03     3.40986E+06    -27.2323E+06    -95.4287E+06    -91.8529E+06    -30.8081E+06     3.40986E+06     2.45694E+06         65.4383
            2034     8.32716E-03     203.809E-03     23.8623E-03     10.5340E-03    -72.5445E-03     21.0048E-03    -69.6870E-03     10.5340E-03    -31.6744E-03     595.281E-03    -187.071E-03    -408.604E-03    -394.322E-03     580.999E-03    -187.071E-03     235.089E-03     27.2060E+06     16.0984E+06    -77.8094E+06    -76.9426E+06     15.7333E+06     26.7044E+06     4.71441E+06         70.2470
            2035     8.98382E-03     204.486E-03     22.8916E-03     9.99078E-03    -66.8670E-03     20.7745E-03    -64.7499E-03     9.99078E-03    -16.5084E-03     646.568E-03    -204.511E-03    -441.778E-03    -430.361E-03     635.152E-03    -204.511E-03     219.779E-03     58.6091E+06     41.8612E+06    -63.2865E+06    -61.7172E+06     51.1736E+06     47.7274E+06     9.22216E+06         74.9651
            2036     9.64354E-03     205.012E-03     20.5520E-03     9.65400E-03    -64.5428E-03     17.7768E-03    -61.7675E-03     9.65400E-03    -18.1422E-03     685.234E-03    -221.881E-03    -463.260E-03    -453.567E-03     675.542E-03    -221.881E-03     208.805E-03     98.7594E+06     59.5827E+06    -49.7699E+06    -48.4734E+06     92.0931E+06     64.9525E+06     7.51466E+06         79.1912
            2037     10.2590E-03     205.763E-03     20.2237E-03     9.49414E-03    -65.6245E-03     17.8185E-03    -63.2193E-03     9.49414E-03    -25.7856E-03     708.263E-03    -238.056E-03    -470.383E-03    -460.980E-03     698.861E-03    -238.056E-03     209.331E-03     115.018E+06     80.3111E+06    -39.5926E+06    -39.1519E+06     113.058E+06     81.8310E+06     3.72183E+06         82.7685
            2038     10.8906E-03     206.361E-03     20.8847E-03     9.43603E-03    -65.2450E-03     19.7719E-03    -64.1322E-03     9.43603E-03    -17.4686E-03     719.819E-03    -252.551E-03    -467.227E-03    -456.586E-03     709.179E-03    -252.551E-03     223.466E-03     117.965E+06     98.1159E+06    -30.1913E+06    -26.3523E+06     109.023E+06     103.219E+06     20.9650E+03         85.8246
            2039     11.5167E-03     207.016E-03     21.6882E-03     9.45086E-03    -65.3789E-03     20.2373E-03    -63.9281E-03     9.45086E-03    -20.0374E-03     722.850E-03    -265.107E-03    -457.875E-03    -446.700E-03     711.675E-03    -265.107E-03     228.569E-03     123.509E+06     93.5227E+06    -19.9065E+06    -15.2762E+06     93.8772E+06     118.524E+06    -1.52616E+06         88.7249
            2040     12.1468E-03     207.545E-03     25.2999E-03     9.74304E-03    -68.3871E-03     23.7344E-03    -66.8216E-03     9.74304E-03    -22.6558E-03     719.825E-03    -275.800E-03    -444.656E-03    -431.127E-03     706.296E-03    -275.800E-03     247.954E-03     124.211E+06     77.1815E+06    -21.9908E+06    -13.4835E+06     68.6742E+06     124.211E+06    -7.13633E+06         91.4818
            2041     12.8056E-03     208.029E-03     32.1813E-03     10.5321E-03    -74.0925E-03     31.8085E-03    -73.7197E-03     10.5321E-03    -9.91250E-03     700.815E-03    -283.737E-03    -417.729E-03    -406.702E-03     689.788E-03    -283.737E-03     214.531E-03     133.355E+06     73.3792E+06    -23.3467E+06    -4.37286E+06     54.4054E+06     133.355E+06    -6.52581E+06         93.5968
            2042     933.339E-06     202.648E-03     15.9994E-03    -4.54463E-03    -61.2952E-03     6.44385E-03    -54.1571E-03    -2.12718E-03     20.6069E-03     161.702E-03    -78.1745E-03    -83.6157E-03    -81.3912E-03     160.290E-03    -78.9874E-03     33.2964E-03    -245.934E+06    -337.849E+06    -384.630E+06    -341.100E+06    -280.353E+06    -346.959E+06     16.7351E+06         44.6499
            2043     1.84999E-03     202.672E-03     21.2861E-03     3.24517E-03    -58.1104E-03     11.4042E-03    -48.9895E-03     4.00616E-03     5.57696E-03     180.895E-03    -82.6035E-03    -98.3375E-03    -93.9278E-03     176.485E-03    -82.6035E-03     67.9262E-03    -201.215E+06    -254.974E+06    -329.993E+06    -293.227E+06    -232.247E+06    -260.708E+06     21.4784E+06         45.4663
            2044     2.76251E-03     202.733E-03     16.7010E-03     5.52609E-03    -47.8365E-03     11.1526E-03    -43.0491E-03     6.28709E-03    -25.9813E-03     211.337E-03    -88.8657E-03    -122.364E-03    -113.442E-03     202.414E-03    -88.8657E-03     106.805E-03    -168.872E+06    -204.353E+06    -285.223E+06    -245.963E+06    -211.875E+06    -200.610E+06     13.8405E+06         46.8791
            2045     3.64609E-03     202.904E-03     17.9748E-03     6.88329E-03    -51.7130E-03     12.3660E-03    -46.1041E-03     6.88329E-03    -37.7992E-03     253.415E-03    -97.3819E-03    -156.029E-03    -142.163E-03     239.550E-03    -97.3819E-03     147.817E-03    -159.197E+06    -171.837E+06    -241.251E+06    -210.158E+06    -202.337E+06    -159.789E+06     1.50264E+06         48.8666
            2046     4.51072E-03     203.195E-03     25.5432E-03     7.31987E-03    -58.7410E-03     17.9815E-03    -51.1794E-03     7.31987E-03    -40.3455E-03     305.878E-03    -108.298E-03    -197.466E-03    -179.811E-03     288.223E-03    -108.298E-03     184.740E-03    -124.204E+06    -138.813E+06    -226.837E+06    -179.585E+06    -183.673E+06    -126.597E+06    -9.43324E+06         51.3775
            2047     5.33550E-03     203.536E-03     23.0633E-03     7.36585E-03    -58.6741E-03     18.2397E-03    -54.0178E-03     7.53316E-03    -18.1769E-03     365.532E-03    -121.385E-03    -244.168E-03    -225.249E-03     346.613E-03    -121.385E-03     210.167E-03    -90.7785E+06    -116.471E+06    -191.730E+06    -148.830E+06    -157.572E+06    -92.5783E+06    -9.50678E+06         54.3569
            2048     6.13690E-03     203.874E-03     26.5489E-03     7.39522E-03    -60.0366E-03     22.5996E-03    -56.2547E-03     7.56253E-03    -23.0201E-03     430.084E-03    -136.484E-03    -293.587E-03    -276.107E-03     412.604E-03    -136.484E-03     219.898E-03    -57.7376E+06    -92.0492E+06    -148.325E+06    -123.605E+06    -116.769E+06    -57.7376E+06    -7.71223E+06         57.7808
            2049     6.88295E-03     204.393E-03     23.8576E-03     6.92169E-03    -60.6793E-03     19.0756E-03    -56.7829E-03     7.80721E-03    -18.2708E-03     495.173E-03    -153.939E-03    -341.525E-03    -327.125E-03     480.773E-03    -153.939E-03     214.254E-03    -25.4877E+06    -61.3551E+06    -118.497E+06    -101.088E+06    -78.7645E+06    -25.4877E+06    -11.3554E+06         61.6138
            2050     7.60068E-03     204.913E-03     14.2717E-03     6.91111E-03    -57.4786E-03     12.0442E-03    -56.1366E-03     7.79663E-03    -4.84573E-03     554.633E-03    -173.152E-03    -382.516E-03    -371.537E-03     543.654E-03    -173.152E-03     198.137E-03     569.139E+03    -40.4289E+06    -90.9670E+06    -86.5430E+06    -44.8528E+06     569.139E+03    -9.77142E+06         65.8424
            2051     8.26778E-03     205.591E-03     13.4587E-03     7.72118E-03    -54.7715E-03     12.1710E-03    -53.4838E-03     7.72118E-03    -15.8734E-03     606.322E-03    -192.564E-03    -414.974E-03    -406.727E-03     598.075E-03    -192.564E-03     179.170E-03     21.9452E+06    -9.58456E+06    -77.9243E+06    -72.7036E+06    -14.8053E+06     21.9452E+06    -4.99639E+06         70.1768
            2052     8.93610E-03     206.182E-03     12.9666E-03     7.85613E-03    -50.5461E-03     12.1781E-03    -49.7576E-03     7.85613E-03    -3.10813E-03     646.778E-03    -211.757E-03    -435.511E-03    -429.096E-03     640.363E-03    -211.757E-03     162.640E-03     54.2085E+06     28.6564E+06    -67.2787E+06    -61.9877E+06     31.4781E+06     46.0958E+06    -7.95547E+06         73.9892
            2053     9.55375E-03     206.992E-03     17.0360E-03     8.05787E-03    -52.5859E-03     14.0011E-03    -49.5511E-03     8.05787E-03    -16.4198E-03     669.787E-03    -229.867E-03    -439.805E-03    -434.044E-03     664.027E-03    -229.867E-03     157.465E-03     100.489E+06     55.4777E+06    -54.1180E+06    -50.3331E+06     82.7100E+06     69.4717E+06    -7.03200E+06         76.9407
            2054     10.1907E-03     207.720E-03     16.9568E-03     8.27985E-03    -53.3733E-03     12.7707E-03    -49.1872E-03     8.27985E-03    -32.8502E-03     679.886E-03    -245.369E-03    -434.549E-03    -428.317E-03     673.654E-03    -245.369E-03     164.328E-03     117.206E+06     78.9847E+06    -41.9440E+06    -38.4124E+06     103.530E+06     89.1288E+06    -1.59285E+06         79.2253
            2055     10.8372E-03     208.369E-03     16.4342E-03     8.75571E-03    -50.9511E-03     14.5149E-03    -49.0318E-03     8.75571E-03    -17.4268E-03     684.104E-03    -258.547E-03    -425.637E-03    -418.385E-03     676.851E-03    -258.547E-03     176.433E-03     124.496E+06     105.065E+06    -35.5111E+06    -30.7051E+06     110.416E+06     114.338E+06    -550.000E+03         81.2881
            2056     11.4807E-03     209.023E-03     17.4201E-03     9.15446E-03    -52.8315E-03     15.9905E-03    -51.9649E-03     9.71742E-03    -9.92203E-03     685.950E-03    -269.608E-03    -416.588E-03    -408.683E-03     678.045E-03    -269.608E-03     184.035E-03     133.527E+06     106.781E+06    -30.9993E+06    -25.5549E+06     106.321E+06     128.542E+06    -4.69192E+06         83.6316
            2057     12.1384E-03     209.535E-03     19.8491E-03     10.4317E-03    -57.8325E-03     17.9874E-03    -56.5338E-03     10.9947E-03    -16.3262E-03     684.147E-03    -278.581E-03    -406.057E-03    -396.579E-03     674.669E-03    -278.581E-03     199.859E-03     139.759E+06     90.6117E+06    -27.3607E+06    -18.9194E+06     82.1703E+06     139.759E+06    -7.48884E+06         86.2176
            2058     12.8030E-03     210.020E-03     29.0352E-03     12.3736E-03    -61.8059E-03     28.3438E-03    -61.1146E-03     12.3736E-03    -8.67691E-03     667.628E-03    -284.900E-03    -383.227E-03    -375.686E-03     660.088E-03    -284.900E-03     171.829E-03     155.696E+06     61.9412E+06    -32.8884E+06    -12.4501E+06     41.5029E+06     155.696E+06    -9.46087E+06         88.4289
            2059     921.963E-06     203.756E-03     24.0048E-03    -3.67095E-03    -61.8566E-03     11.2473E-03    -49.0991E-03    -3.67095E-03     21.7913E-03     172.194E-03    -84.5238E-03    -87.7640E-03    -86.4953E-03     171.738E-03    -85.3368E-03     13.8115E-03    -252.309E+06    -392.748E+06    -426.764E+06    -403.821E+06    -266.141E+06    -401.859E+06    -35.9266E+06         46.0231
            2060     1.85036E-03     203.775E-03     14.8400E-03     3.13846E-03    -47.4893E-03     4.88899E-03    -38.2993E-03     3.89945E-03     37.4674E-03     181.656E-03    -86.9502E-03    -94.8163E-03    -93.1013E-03     179.941E-03    -86.9502E-03     34.6723E-03    -203.312E+06    -337.018E+06    -379.087E+06    -354.718E+06    -221.947E+06    -342.752E+06    -39.1834E+06         46.8072
            2061     2.75447E-03     203.922E-03     6.75016E-03     429.825E-06    -35.7142E-03     1.75666E-03    -34.3747E-03     4.08388E-03    -2.62000E-03     205.434E-03    -92.3644E-03    -113.113E-03    -109.049E-03     201.369E-03    -92.3644E-03     63.2177E-03    -173.196E+06    -274.169E+06    -333.134E+06    -301.056E+06    -206.710E+06    -272.733E+06    -43.1774E+06         48.2514
            2062     3.65028E-03     204.185E-03     13.0662E-03    -1.71816E-03    -37.1812E-03     4.48845E-03    -34.5236E-03     4.20202E-03    -18.2244E-03     244.720E-03    -101.052E-03    -143.680E-03    -136.648E-03     237.688E-03    -101.052E-03     95.7377E-03    -151.873E+06    -226.466E+06    -297.418E+06    -256.304E+06    -194.423E+06    -225.031E+06    -51.1992E+06         50.2376
            2063     4.50038E-03     204.535E-03     15.9261E-03    -3.02038E-03    -36.5120E-03     2.19156E-03    -29.9904E-03     4.19251E-03    -29.6743E-03     299.008E-03    -112.903E-03    -186.021E-03    -176.908E-03     289.895E-03    -112.903E-03     123.433E-03    -116.204E+06    -190.284E+06    -282.794E+06    -218.532E+06    -180.466E+06    -190.284E+06    -60.7514E+06         52.6583
            2064     5.32368E-03     204.869E-03     15.6033E-03     41.8083E-06    -40.6392E-03     4.74275E-03    -33.9644E-03     4.22758E-03    -10.8781E-03     364.813E-03    -127.648E-03    -237.022E-03    -227.596E-03     355.386E-03    -127.648E-03     140.059E-03    -88.9652E+06    -171.838E+06    -267.473E+06    -190.597E+06    -175.554E+06    -162.126E+06    -66.0364E+06         55.4557
            2065     6.09286E-03     205.344E-03     21.3036E-03     2.13346E-03    -44.8936E-03     14.4390E-03    -41.3439E-03     5.44834E-03    -6.46177E-03     433.524E-03    -145.597E-03    -287.832E-03    -279.800E-03     425.492E-03    -145.597E-03     138.823E-03    -61.6299E+06    -149.425E+06    -234.844E+06    -163.730E+06    -149.786E+06    -132.383E+06    -69.5486E+06         58.5802
            2066     6.82344E-03     205.866E-03     15.6554E-03     691.356E-06    -43.6153E-03     7.58154E-03    -41.5079E-03     6.65773E-03    -12.6775E-03     495.781E-03    -166.265E-03    -329.665E-03    -323.868E-03     489.984E-03    -166.265E-03     121.095E-03    -37.1554E+06    -115.578E+06    -214.991E+06    -145.042E+06    -122.467E+06    -100.215E+06    -73.3657E+06         61.8866
            2067     7.49566E-03     206.611E-03     11.8846E-03     4.39259E-03    -40.7061E-03     8.21325E-03    -39.6862E-03     7.04409E-03    -6.00454E-03     549.787E-03    -187.726E-03    -362.423E-03    -358.442E-03     545.806E-03    -187.726E-03     96.4558E-03    -14.1492E+06    -95.9827E+06    -193.799E+06    -130.611E+06    -102.020E+06    -71.2990E+06    -70.4620E+06         65.1912
            2068     8.17663E-03     207.171E-03     13.5234E-03     6.73352E-03    -39.1641E-03     10.9993E-03    -37.2989E-03     7.39231E-03    -14.6826E-03     591.026E-03    -208.821E-03    -382.667E-03    -379.933E-03     588.292E-03    -208.821E-03     74.8017E-03     3.08272E+06    -71.3199E+06    -178.184E+06    -115.849E+06    -87.4761E+06    -43.0961E+06    -70.9268E+06         68.1818
            2069     8.78289E-03     208.056E-03     13.4004E-03     7.01652E-03    -41.1532E-03     9.85327E-03    -38.2649E-03     7.67530E-03    -19.9179E-03     613.905E-03    -228.716E-03    -385.385E-03    -383.406E-03     611.925E-03    -228.716E-03     66.9614E-03     30.3771E+06    -15.6693E+06    -162.824E+06    -99.5939E+06    -44.4260E+06    -4.09600E+06    -68.2037E+06         70.4638
            2070     9.41885E-03     208.819E-03     19.6405E-03     8.33638E-03    -45.2371E-03     16.8019E-03    -42.3986E-03     8.33638E-03    -18.3744E-03     624.100E-03    -246.010E-03    -378.387E-03    -376.437E-03     622.150E-03    -246.010E-03     71.7187E-03     61.3922E+06     30.0978E+06    -128.886E+06    -82.2313E+06    -1.88927E+06     46.7245E+06    -56.6658E+06         72.0579
            2071     10.0658E-03     209.538E-03     19.7825E-03     9.90809E-03    -44.4731E-03     16.2223E-03    -40.9130E-03     9.90809E-03    -8.04899E-03     628.701E-03    -259.346E-03    -369.713E-03    -367.458E-03     626.446E-03    -259.346E-03     82.6547E-03     95.0349E+06     52.3930E+06    -97.1727E+06    -63.4799E+06     23.8729E+06     89.8622E+06    -44.6874E+06         73.4301
            2072     10.7183E-03     210.244E-03     18.5701E-03     9.86162E-03    -39.9110E-03     14.1720E-03    -37.7348E-03     12.0835E-03    -394.458E-06     629.544E-03    -269.484E-03    -360.070E-03    -357.360E-03     626.834E-03    -269.484E-03     95.7210E-03     125.462E+06     76.9428E+06    -70.5249E+06    -44.9288E+06     56.5194E+06     120.289E+06    -26.3926E+06         75.0482
            2073     11.3873E-03     210.908E-03     17.7207E-03     8.81784E-03    -40.3382E-03     10.9725E-03    -39.0111E-03     14.2390E-03    -6.08037E-03     627.577E-03    -277.660E-03    -349.842E-03    -346.305E-03     624.040E-03    -277.660E-03     113.127E-03     148.251E+06     102.684E+06    -34.3504E+06    -30.5259E+06     98.8598E+06     148.251E+06    -12.3865E+06         77.3085
            2074     12.0700E-03     211.472E-03     17.2502E-03     9.16017E-03    -43.4520E-03     7.68274E-03    -40.5463E-03     15.8220E-03    -18.5779E-03     622.338E-03    -283.451E-03    -338.916E-03    -333.208E-03     616.631E-03    -283.451E-03     145.402E-03     156.872E+06     91.7746E+06    -21.7660E+06    -14.8142E+06     84.8228E+06     156.872E+06    -6.11750E+06         80.1210
            2075     12.7726E-03     211.952E-03     20.9168E-03     9.15080E-03    -45.0811E-03     10.2999E-03    -41.9879E-03     16.6746E-03    -18.6332E-03     612.902E-03    -286.824E-03    -325.999E-03    -320.510E-03     607.412E-03    -286.824E-03     141.067E-03     172.926E+06     76.1937E+06    -34.1185E+06     5.08888E+06     36.9864E+06     172.926E+06     4.57346E+06         82.6117
            2076     897.405E-06     204.935E-03     26.5894E-03    -9.37825E-03    -43.2010E-03     8.40214E-03    -19.8925E-03    -14.4994E-03    -5.29336E-03     246.114E-03    -120.139E-03    -125.975E-03    -119.994E-03     245.196E-03    -125.202E-03    -26.7225E-03    -171.716E+06    -289.305E+06    -316.739E+06    -303.464E+06    -184.837E+06    -289.460E+06    -36.8377E+06         48.9013
            2077     1.78618E-03     205.005E-03     20.4077E-03     1.31238E-03    -38.9835E-03     15.1254E-03    -33.7012E-03     1.31238E-03     22.6614E-03     238.619E-03    -116.408E-03    -122.217E-03    -116.003E-03     237.260E-03    -121.263E-03    -26.2925E-03    -149.224E+06    -291.645E+06    -332.412E+06    -306.659E+06    -174.822E+06    -291.799E+06    -62.4540E+06         49.4858
            2078     2.68146E-03     205.209E-03     14.3145E-03     2.73476E-03    -38.6725E-03     11.0420E-03    -38.2930E-03     5.62782E-03    -4.66625E-03     252.798E-03    -122.347E-03    -130.435E-03    -125.508E-03     250.577E-03    -125.053E-03    -22.8179E-03    -123.146E+06    -267.233E+06    -331.642E+06    -289.209E+06    -165.579E+06    -267.233E+06    -80.0240E+06         50.7938
            2079     3.53318E-03     205.505E-03     11.8026E-03     1.03516E-03    -33.9869E-03     5.49645E-03    -33.6010E-03     6.95534E-03    -4.60199E-03     282.920E-03    -133.782E-03    -149.206E-03    -145.065E-03     278.778E-03    -133.782E-03    -25.8421E-03    -104.415E+06    -243.209E+06    -323.415E+06    -263.912E+06    -163.919E+06    -243.209E+06    -95.9016E+06         52.5959
            2080     4.37426E-03     205.804E-03     8.76600E-03    -2.71030E-03    -33.6860E-03    -1.70685E-03    -33.3058E-03     7.38233E-03    -1.20457E-03     322.546E-03    -146.249E-03    -176.541E-03    -170.254E-03     316.260E-03    -146.249E-03    -32.2959E-03    -90.3149E+06    -225.494E+06    -315.484E+06    -243.858E+06    -161.941E+06    -225.494E+06    -102.340E+06         54.7314
            2081     5.17568E-03     206.213E-03     8.59390E-03    -994.811E-06    -33.0589E-03    -3.45535E-03    -29.5810E-03     7.57660E-03     1.52485E-03     369.892E-03    -160.174E-03    -209.638E-03    -198.770E-03     361.429E-03    -162.580E-03    -42.9479E-03    -66.9901E+06    -201.308E+06    -308.827E+06    -215.934E+06    -159.884E+06    -201.308E+06    -115.279E+06         57.0895
            2082     5.91768E-03     206.761E-03     12.0523E-03     2.80173E-03    -31.7024E-03     1.09150E-03    -25.5624E-03     7.62251E-03    -11.9819E-03     416.236E-03    -172.364E-03    -243.805E-03    -223.024E-03     405.855E-03    -182.763E-03    -62.7525E-03    -48.3592E+06    -177.286E+06    -302.223E+06    -191.034E+06    -159.548E+06    -177.286E+06    -124.733E+06         59.4841
            2083     6.59819E-03     207.466E-03     13.7114E-03     2.42166E-03    -29.4560E-03     3.76109E-03    -24.5866E-03     7.50252E-03    -24.7748E-03     458.579E-03    -186.142E-03    -272.826E-03    -242.674E-03     447.074E-03    -204.790E-03    -87.4972E-03    -45.4743E+06    -150.776E+06    -278.555E+06    -172.984E+06    -151.045E+06    -150.776E+06    -115.427E+06         61.7243
            2084     7.27524E-03     208.067E-03     14.1178E-03     5.10120E-03    -26.0240E-03     7.96640E-03    -22.3842E-03     7.61275E-03    -20.4243E-03     492.983E-03    -196.133E-03    -297.251E-03    -255.095E-03     481.362E-03    -226.669E-03    -107.405E-03    -17.8113E+06    -114.305E+06    -257.011E+06    -149.980E+06    -124.842E+06    -114.305E+06    -118.613E+06         63.5587
            2085     7.87667E-03     208.953E-03     12.6383E-03     6.74364E-03    -28.1407E-03     7.71105E-03    -24.6178E-03     8.14800E-03    -20.4399E-03     508.602E-03    -196.244E-03    -312.635E-03    -250.167E-03     497.397E-03    -247.507E-03    -114.862E-03    -7.13904E+06    -81.7068E+06    -237.405E+06    -129.243E+06    -119.745E+06    -77.2631E+06    -109.507E+06         64.7996
            2086     8.51172E-03     209.720E-03     12.2037E-03     7.21300E-03    -31.6309E-03     6.93219E-03    -28.5391E-03     9.39277E-03    -17.7541E-03     512.625E-03    -196.189E-03    -316.395E-03    -237.929E-03     502.754E-03    -264.784E-03    -104.028E-03     8.68735E+06    -37.6079E+06    -210.604E+06    -108.648E+06    -97.7123E+06    -33.1642E+06    -101.485E+06         65.6450
            2087     9.16833E-03     210.471E-03     15.9581E-03     10.4963E-03    -31.6131E-03     12.8755E-03    -30.0516E-03     12.0173E-03    -3.13116E-03     515.003E-03    -197.930E-03    -317.222E-03    -230.634E-03     508.016E-03    -277.530E-03    -80.3498E-03     39.2532E+06     1.12215E+06    -194.874E+06    -90.2808E+06    -81.4254E+06     17.2071E+06    -93.2934E+06         66.4327
            2088     9.82939E-03     211.234E-03     17.8819E-03     12.8347E-03    -31.7434E-03     13.8478E-03    -30.4404E-03     15.5657E-03     13.0965E-03     517.042E-03    -200.845E-03    -316.569E-03    -226.882E-03     512.968E-03    -286.458E-03    -49.6607E-03     69.1490E+06     31.5244E+06    -150.581E+06    -68.1166E+06    -50.2432E+06     68.4519E+06    -74.7270E+06         67.4181
            2089     10.5191E-03     211.938E-03     19.1540E-03     11.6809E-03    -30.4385E-03     10.7655E-03    -29.1183E-03     18.7492E-03     12.1946E-03     520.992E-03    -207.380E-03    -313.642E-03    -227.857E-03     519.277E-03    -291.450E-03    -8.61301E-03     95.1311E+06     44.2215E+06    -120.003E+06    -53.9085E+06    -21.1761E+06     94.4340E+06    -57.5622E+06         68.8804
            2090     11.2236E-03     212.576E-03     20.9041E-03     8.21230E-03    -31.7753E-03     5.51420E-03    -29.0772E-03     20.9041E-03    -9.98342E-03     523.376E-03    -216.164E-03    -307.092E-03    -228.725E-03     522.235E-03    -293.389E-03     41.7806E-03     135.658E+06     61.2224E+06    -69.3357E+06    -31.9112E+06     23.7978E+06     135.658E+06    -27.7059E+06         71.2141
            2091     11.9741E-03     213.128E-03     22.1063E-03     4.43967E-03    -32.4971E-03     677.482E-06    -28.7349E-03     22.1063E-03    -16.6558E-03     523.903E-03    -224.981E-03    -298.934E-03    -227.130E-03     520.125E-03    -293.007E-03     100.856E-03     177.232E+06     73.9563E+06    -22.3654E+06    -14.0670E+06     65.6579E+06     177.232E+06    -13.0955E+06         74.3260
            2092     12.7425E-03     213.689E-03     22.4543E-03    -1.14614E-03    -33.6501E-03    -5.75954E-03    -29.0367E-03     22.4543E-03    -13.1758E-03     530.909E-03    -237.576E-03    -293.253E-03    -234.262E-03     525.302E-03    -290.962E-03     129.562E-03     167.573E+06     70.0668E+06    -58.5882E+06    -16.4882E+06     27.9667E+06     167.573E+06    -7.24774E+06         77.1813
            2093     819.439E-06     206.483E-03     29.6590E-03     1.87569E-03    -31.9173E-03     10.6890E-03    -10.0866E-03    -985.088E-06     12.9424E-03     392.794E-03    -184.314E-03    -208.228E-03    -201.058E-03     390.688E-03    -189.377E-03    -55.8183E-03    -88.5853E+06    -173.707E+06    -185.828E+06    -179.149E+06    -95.1107E+06    -173.862E+06    -21.3931E+06         53.1090
            2094     1.67022E-03     206.466E-03     18.8702E-03    -223.221E-06    -26.6400E-03     6.96008E-03    -18.8191E-03     3.86596E-03     19.6377E-03     404.576E-03    -193.009E-03    -211.382E-03    -197.192E-03     395.241E-03    -197.864E-03    -137.181E-03    -70.5232E+06    -178.524E+06    -211.864E+06    -190.111E+06    -92.1214E+06    -178.678E+06    -46.5786E+06         53.5039
            2095     2.49237E-03     206.602E-03     20.8366E-03     4.98597E-03    -28.5697E-03     18.0304E-03    -27.5923E-03     6.81477E-03    -1.62583E-03     425.244E-03    -205.292E-03    -219.562E-03    -191.413E-03     399.799E-03    -207.998E-03    -228.455E-03    -50.7006E+06    -168.261E+06    -225.600E+06    -184.464E+06    -91.8365E+06    -168.261E+06    -68.9250E+06         54.5702
            2096     3.29363E-03     206.812E-03     21.0373E-03     8.43316E-03    -37.2123E-03     16.4977E-03    -34.0770E-03     9.83743E-03    -11.1052E-03     443.281E-03    -217.276E-03    -225.693E-03    -175.983E-03     397.377E-03    -221.083E-03    -307.340E-03    -51.1700E+06    -152.647E+06    -226.859E+06    -173.618E+06    -104.411E+06    -152.647E+06    -78.2781E+06         56.0637
            2097     4.06416E-03     207.095E-03     17.2616E-03     5.82866E-03    -40.7468E-03     5.95865E-03    -33.7279E-03     10.1127E-03    -22.6307E-03     457.419E-03    -218.339E-03    -239.240E-03    -155.453E-03     391.835E-03    -236.543E-03    -362.267E-03    -41.3821E+06    -133.741E+06    -226.444E+06    -159.574E+06    -108.253E+06    -133.741E+06    -86.1631E+06         57.7941
            2098     4.76166E-03     207.614E-03     18.1595E-03     4.27495E-03    -35.8993E-03     7.28659E-03    -29.4121E-03     8.66060E-03    -26.4720E-03     467.069E-03    -210.637E-03    -256.443E-03    -128.981E-03     383.935E-03    -254.965E-03    -398.268E-03    -25.8928E+06    -108.558E+06    -216.466E+06    -141.252E+06    -101.106E+06    -108.558E+06    -91.9386E+06         59.6042
            2099     5.43395E-03     208.164E-03     17.6417E-03     6.35381E-03    -31.7735E-03     11.3115E-03    -26.9493E-03     7.85972E-03    -19.5686E-03     469.241E-03    -194.779E-03    -274.691E-03    -100.513E-03     374.976E-03    -274.691E-03    -412.654E-03    -15.2860E+06    -86.1898E+06    -206.720E+06    -126.383E+06    -95.6230E+06    -86.1898E+06    -92.8045E+06         61.1493
            2100     6.06935E-03     208.809E-03     17.1512E-03     6.86875E-03    -29.8894E-03     11.5645E-03    -25.7405E-03     8.30659E-03    -13.7567E-03     465.199E-03    -171.926E-03    -294.021E-03    -74.3783E-03     367.652E-03    -294.021E-03    -401.914E-03    -7.44901E+06    -62.2918E+06    -190.788E+06    -104.931E+06    -93.3057E+06    -62.2918E+06    -90.1023E+06         62.1498
            2101     6.69609E-03     209.538E-03     12.4943E-03     7.11707E-03    -23.6425E-03     5.47745E-03    -18.8091E-03     9.30049E-03    -6.92084E-03     453.301E-03    -141.742E-03    -311.748E-03    -50.3899E-03     361.948E-03    -311.748E-03    -368.357E-03     11.3044E+06    -57.4519E+06    -170.535E+06    -96.4512E+06    -87.8579E+06    -32.3738E+06    -76.9053E+06         62.6028
            2102     7.30337E-03     210.283E-03     14.1284E-03     10.5510E-03    -19.7161E-03     9.31762E-03    -15.6509E-03     11.2966E-03     162.920E-06     433.767E-03    -107.638E-03    -325.740E-03    -30.9564E-03     357.086E-03    -325.740E-03    -324.382E-03     32.7371E+06    -24.4014E+06    -151.917E+06    -73.0951E+06    -75.6066E+06     5.12033E+06    -74.0254E+06         62.6601
            2103     7.95147E-03     211.050E-03     17.6587E-03     10.8723E-03    -23.5296E-03     12.1868E-03    -22.4098E-03     15.2243E-03     4.68319E-03     414.128E-03    -79.3224E-03    -334.497E-03    -18.8639E-03     353.670E-03    -334.497E-03    -278.015E-03     51.8267E+06    -1.41902E+06    -148.780E+06    -65.5430E+06    -65.4933E+06     32.6640E+06    -62.5408E+06         62.6732
            2104     8.62185E-03     211.844E-03     21.0811E-03     12.4928E-03    -24.5883E-03     11.4458E-03    -22.5297E-03     20.0695E-03     13.0461E-03     395.651E-03    -57.6019E-03    -337.996E-03    -14.1715E-03     352.220E-03    -337.996E-03    -224.176E-03     75.8819E+06     20.3920E+06    -145.944E+06    -52.2260E+06    -55.5584E+06     58.1139E+06     -64.269E+06         62.9922
            2105     9.34991E-03     212.569E-03     25.1419E-03     9.02289E-03    -22.0365E-03     5.68087E-03    -17.6829E-03     24.1304E-03     11.5205E-03     378.074E-03    -41.1594E-03    -337.020E-03    -15.3579E-03     352.273E-03    -337.020E-03    -163.536E-03     81.6791E+06     33.6037E+06    -129.153E+06    -45.1427E+06    -47.4322E+06     78.7051E+06    -55.3049E+06         63.7513
            2106     10.1036E-03     213.334E-03     26.6839E-03     3.36501E-03    -21.3079E-03     438.665E-06    -18.3816E-03     26.6839E-03     6.71920E-03     363.454E-03    -31.4146E-03    -332.397E-03    -19.4215E-03     351.461E-03    -332.397E-03    -96.2613E-03     100.650E+06     28.7336E+06    -113.461E+06    -44.0063E+06    -40.0236E+06     99.9526E+06    -49.3174E+06         65.0412
            2107     10.9284E-03     214.056E-03     28.0919E-03     568.526E-06    -24.2629E-03    -1.09304E-03    -22.6013E-03     28.0919E-03    -4.21617E-03     356.496E-03    -32.5903E-03    -324.176E-03    -27.6388E-03     351.544E-03    -324.176E-03    -35.8043E-03     129.175E+06     24.1910E+06    -101.771E+06    -35.0053E+06    -42.5748E+06     129.175E+06    -42.4388E+06         67.1990
            2108     11.7761E-03     214.708E-03     29.1118E-03     3.90104E-03    -26.3679E-03     2.14238E-03    -24.6093E-03     29.1118E-03    -7.31738E-03     367.151E-03    -52.9417E-03    -314.298E-03    -46.6198E-03     360.829E-03    -314.298E-03    -7.21855E-03     165.947E+06     58.2706E+06    -57.5507E+06    -22.9983E+06     23.7181E+06     165.947E+06    -21.1738E+06         70.3342
            2109     12.6497E-03     215.242E-03     29.6979E-03     2.29620E-03    -25.1743E-03     110.474E-06    -22.9886E-03     29.6979E-03    -857.998E-06     355.375E-03    -52.7692E-03    -302.780E-03    -46.2078E-03     348.813E-03    -302.780E-03     30.3424E-03     139.663E+06     78.4994E+06    -71.8722E+06    -27.8139E+06     34.4411E+06     139.663E+06    -16.8374E+06         73.6658


