********************************************************************************
Field Output Report, written Mon May  5 23:02:50 2025

Source 1
---------

   ODB: D:/AISI_1020/Vel_20/1020_2a_16_rd_2500_cal_75_v_20_f_050.odb
   Step: Step-1
   Frame: Increment  10455078: Step Time =    1.184

Loc 1 : Nodal values from source 1

Output sorted by column "Node Label".

Field Output reported at nodes for region: DIE_2A_16_D0_36-1.Region_1
   Computation algorithm: EXTRAPOLATE_COMPUTE_AVERAGE
   Averaged at nodes
   Averaging regions: ODB_REGIONS

      Node Label     COORD.COOR1     COORD.COOR2
                          @Loc 1          @Loc 1
-------------------------------------------------
               1     15.3788E-03     239.029E-03


Field Output reported at nodes for region: DIE_2A_16_D0_36-1.Region_2
   Computation algorithm: EXTRAPOLATE_COMPUTE_AVERAGE
   Averaged at nodes
   Averaging regions: ODB_REGIONS

      Node Label     COORD.COOR1     COORD.COOR2
                          @Loc 1          @Loc 1
-------------------------------------------------
               1     15.3788E-03     239.029E-03


Field Output reported at nodes for part: WIRE_1-1
   Computation algorithm: EXTRAPOLATE_COMPUTE_AVERAGE
   Averaged at nodes
   Averaging regions: ODB_REGIONS

      Node Label     COORD.COOR1     COORD.COOR2    ER.Max. Prin    ER.Mid. Prin    ER.Min. Prin         ER.ER11         ER.ER22         ER.ER33         ER.ER12    PE.Max. Prin    PE.Mid. Prin    PE.Min. Prin         PE.PE11         PE.PE22         PE.PE33         PE.PE12     S.Max. Prin     S.Mid. Prin     S.Min. Prin           S.S11           S.S22           S.S33           S.S12            TEMP
                          @Loc 1          @Loc 1          @Loc 1          @Loc 1          @Loc 1          @Loc 1          @Loc 1          @Loc 1          @Loc 1          @Loc 1          @Loc 1          @Loc 1          @Loc 1          @Loc 1          @Loc 1          @Loc 1          @Loc 1          @Loc 1          @Loc 1          @Loc 1          @Loc 1          @Loc 1          @Loc 1          @Loc 1
-----------------------------------------------------------------------------------------------------------------------------------------------------------------------------------------------------------------------------------------------------------------------------------------------------------------------------------------------------------------------------------------------------------------
               1     13.3466E-03     101.304E-03         1.00847    -289.131E-03    -304.236E-03    -289.095E-03         1.00844    -304.236E-03     7.59094E-03     602.464E-03    -298.880E-03    -303.034E-03    -299.972E-03     599.402E-03    -298.880E-03     105.137E-03     32.8511E+06     10.7384E+06    -879.265E+03    -858.067E+03     10.7172E+06     32.8511E+06     451.998E+03         92.0276
               2    -498.432E-09     100.341E-03         1.10290    -256.434E-03    -429.000E-03    -251.788E-03         1.09825    -429.000E-03    -158.492E-03     601.317E-03    -299.933E-03    -301.128E-03    -299.933E-03     601.317E-03    -301.128E-03    -1.08245E-03    -35.9588E+06    -37.2780E+06    -38.6230E+06    -37.3551E+06    -37.2267E+06    -37.2780E+06     7.76288E+03         67.7468
               3     4.37256E-06     752.509E-09         2.07017    -475.221E-03    -665.368E-03    -665.067E-03         2.06987    -475.221E-03    -57.3356E-03     643.874E-03    -321.516E-03    -322.440E-03    -322.440E-03     643.873E-03    -321.516E-03     1.81770E-03     7.75035E+06     3.76694E+06    -2.12076E+06     2.01276E+06     3.61684E+06     3.76694E+06    -4.86995E+06         70.7354
               4     13.1289E-03     752.509E-09         2.34276    -622.845E-03    -693.640E-03    -691.522E-03         2.34064    -622.845E-03     160.349E-03     877.562E-03    -301.042E-03    -570.713E-03    -566.710E-03     873.559E-03    -301.042E-03     152.065E-03     49.3978E+06    -15.4277E+06    -24.4911E+06     49.3915E+06    -24.4848E+06    -15.4277E+06    -684.475E+03         96.4175
               5     13.5103E-03     200.593E-03     17.2065E-03     6.26574E-03    -10.8601E-03    -6.91765E-03     2.32326E-03     17.2065E-03    -14.4188E-03     410.806E-03    -117.859E-03    -293.570E-03    -117.740E-03     410.687E-03    -293.570E-03    -15.8580E-03     125.031E+06     68.4164E+06    -46.9796E+06    -41.7211E+06     63.1579E+06     125.031E+06    -24.0656E+06         103.729
               6     27.0558E-06     197.942E-03     174.377E-03     90.3992E-03    -159.355E-03     163.125E-03     101.650E-03    -159.355E-03     57.2102E-03     582.672E-03    -275.853E-03    -306.891E-03    -306.647E-03     582.428E-03    -275.853E-03     29.4212E-03     18.2814E+06     16.3001E+06    -9.97262E+06     16.1091E+06     -7.8003E+06     16.3001E+06    -7.52715E+06         72.7287
               7     12.6120E-03     101.081E-03         1.01307    -292.233E-03    -304.951E-03    -292.207E-03         1.01304    -304.951E-03    -677.183E-06     603.357E-03    -299.018E-03    -303.099E-03    -299.447E-03     599.706E-03    -299.018E-03     114.446E-03     30.7361E+06     9.02101E+06    -1.71323E+06    -1.69886E+06     9.00664E+06     30.7361E+06     272.363E+03         90.5832
               8     11.8682E-03     100.891E-03         1.02114    -296.812E-03    -306.262E-03    -296.783E-03         1.02111    -306.262E-03     794.520E-06     601.319E-03    -299.131E-03    -301.904E-03    -298.812E-03     598.227E-03    -299.131E-03     103.635E-03     26.7177E+06     6.64844E+06    -3.70276E+06    -3.49831E+06     6.44399E+06     26.7177E+06     1.06102E+06         86.7923
               9     11.1175E-03     100.733E-03         1.02469    -298.218E-03    -307.412E-03    -298.098E-03         1.02457    -307.412E-03    -8.78622E-03     598.917E-03    -299.126E-03    -300.118E-03    -298.070E-03     597.092E-03    -299.348E-03     80.8866E-03     23.6650E+06     6.55549E+06    -5.32537E+06    -5.11916E+06     6.34929E+06     23.6650E+06     1.17677E+06         81.8254
              10     10.3750E-03     100.612E-03         1.02342    -295.756E-03    -308.640E-03    -295.533E-03         1.02319    -308.640E-03     2.03040E-03     599.272E-03    -298.774E-03    -299.296E-03    -297.509E-03     597.887E-03    -299.177E-03     69.9849E-03     21.8251E+06     6.10210E+06    -7.11562E+06    -7.05172E+06     6.03821E+06     21.8251E+06     542.018E+03         77.0830
              11     9.63603E-03     100.487E-03         1.02218    -292.457E-03    -310.138E-03    -292.173E-03         1.02190    -310.138E-03    -4.44350E-03     599.352E-03    -298.437E-03    -299.028E-03    -297.972E-03     598.477E-03    -298.617E-03     55.7277E-03     20.0380E+06     4.99475E+06    -9.67218E+06    -9.59381E+06     4.91638E+06     20.0380E+06     730.365E+03         73.4349
              12     8.89186E-03     100.442E-03         1.02698    -295.415E-03    -311.738E-03    -295.179E-03         1.02674    -311.738E-03    -6.88822E-03     598.148E-03    -297.496E-03    -298.398E-03    -297.228E-03     597.588E-03    -298.106E-03     44.4675E-03     17.8499E+06     3.68731E+06    -11.9147E+06    -11.8415E+06     3.61410E+06     17.8499E+06     987.161E+03         71.0108
              13     8.15233E-03     100.356E-03         1.03826    -305.015E-03    -312.988E-03    -304.605E-03         1.03785    -312.988E-03    -16.3676E-03     596.781E-03    -296.520E-03    -298.940E-03    -296.190E-03     596.451E-03    -298.940E-03     33.9088E-03     14.7599E+06     1.15636E+06    -14.5860E+06    -14.4514E+06     1.02174E+06     14.7599E+06     1.39934E+06         69.7026
              14     7.41287E-03     100.271E-03         1.04864    -311.656E-03    -315.751E-03    -313.393E-03         1.04814    -313.513E-03    -10.3656E-03     596.177E-03    -296.840E-03    -298.967E-03    -296.673E-03     596.010E-03    -298.967E-03     23.9126E-03     10.3209E+06    -1.85025E+06    -17.5615E+06    -17.3992E+06    -2.01255E+06     10.3209E+06     1.54174E+06         69.1178
              15     6.66840E-03     100.283E-03         1.05677    -312.578E-03    -322.494E-03    -321.651E-03         1.05643    -313.077E-03     2.00535E-03     594.293E-03    -297.777E-03    -298.833E-03    -297.706E-03     594.222E-03    -298.833E-03     15.4685E-03     4.97461E+06    -5.76034E+06    -20.3398E+06    -20.1497E+06    -5.95048E+06     4.97461E+06     1.60138E+06         68.8741
              16     5.92636E-03     100.294E-03         1.06213    -311.482E-03    -329.852E-03    -329.446E-03         1.06172    -311.482E-03     7.24007E-03     596.098E-03    -298.406E-03    -299.935E-03    -298.385E-03     596.076E-03    -299.935E-03     7.87051E-03    -1.21858E+06    -10.7668E+06    -23.0558E+06    -22.8587E+06    -10.9638E+06    -1.21858E+06     1.46591E+06         68.7575
              17     5.18703E-03     100.250E-03         1.05604    -309.196E-03    -326.407E-03    -326.104E-03         1.05574    -309.196E-03     11.2732E-03     598.177E-03    -298.924E-03    -300.003E-03    -299.211E-03     598.175E-03    -299.714E-03     1.28440E-03    -8.05674E+06    -15.3770E+06    -25.6898E+06    -25.4875E+06    -15.5793E+06    -8.05674E+06     1.20333E+06         68.6398
              18     4.44720E-03     100.231E-03         1.03832    -303.379E-03    -313.926E-03    -309.213E-03         1.03813    -307.906E-03     1.78314E-03     598.097E-03    -299.104E-03    -299.536E-03    -299.447E-03     598.091E-03    -299.186E-03    -3.79819E-03    -13.8224E+06    -18.8728E+06    -28.0818E+06    -27.8855E+06    -19.0692E+06    -13.8224E+06     1.13070E+06         68.4463
              19     3.70635E-03     100.258E-03         1.02442    -293.554E-03    -309.346E-03    -293.000E-03         1.02387    -309.346E-03     3.07709E-03     598.415E-03    -299.105E-03    -299.579E-03    -299.479E-03     598.398E-03    -299.187E-03    -7.63488E-03    -18.7704E+06    -22.4722E+06    -30.3727E+06    -30.1802E+06    -22.6648E+06    -18.7704E+06     1.18965E+06         68.1708
              20     2.96447E-03     100.294E-03         1.02515    -287.711E-03    -315.255E-03    -288.105E-03         1.02428    -313.990E-03     7.82028E-03     597.705E-03    -299.071E-03    -300.063E-03    -299.378E-03     597.680E-03    -299.731E-03    -9.41139E-03    -24.2174E+06    -26.1601E+06    -32.4066E+06    -32.2203E+06    -26.3464E+06    -24.2174E+06     1.04309E+06         67.9046
              21     2.22259E-03     100.323E-03         1.03963    -294.344E-03    -322.596E-03    -294.783E-03         1.03881    -321.331E-03     2.20194E-03     598.430E-03    -298.981E-03    -300.296E-03    -298.956E-03     598.406E-03    -300.296E-03    -9.38373E-03    -28.9379E+06    -29.6462E+06    -33.9400E+06    -33.8074E+06    -29.5658E+06    -29.1509E+06     747.380E+03         67.7502
              22     1.48157E-03     100.336E-03         1.06370    -312.373E-03    -330.034E-03    -311.679E-03         1.06301    -330.034E-03     9.57900E-03     600.060E-03    -299.706E-03    -300.593E-03    -299.690E-03     600.044E-03    -300.593E-03    -7.49337E-03    -32.2820E+06    -33.2440E+06    -35.4996E+06    -35.3577E+06    -32.4239E+06    -33.2440E+06     524.829E+03         67.7184
              23     740.428E-06     100.339E-03         1.09009    -289.772E-03    -381.743E-03    -287.151E-03         1.08747    -381.743E-03    -51.7400E-03     601.042E-03    -300.047E-03    -300.876E-03    -300.042E-03     601.037E-03    -300.876E-03    -3.50797E-03    -34.7891E+06    -36.1977E+06    -37.4505E+06    -36.7316E+06    -35.5080E+06    -36.1977E+06     205.778E+03         67.7369
              24    -1.00625E-06     98.5168E-03         1.14286    -265.133E-03    -446.573E-03    -262.764E-03         1.14049    -446.573E-03    -99.0395E-03     600.649E-03    -299.519E-03    -300.859E-03    -299.518E-03     600.649E-03    -300.859E-03    -1.79428E-03    -34.0197E+06    -35.2898E+06    -36.6736E+06    -35.4889E+06    -35.2044E+06    -35.2898E+06     1.19131E+06         67.7446
              25     571.322E-09     96.6934E-03         1.06588    -197.202E-03    -420.505E-03    -197.044E-03         1.06572    -420.505E-03    -10.4443E-03     600.876E-03    -300.057E-03    -300.586E-03    -300.274E-03     600.875E-03    -300.369E-03    -1.09456E-03    -32.1096E+06    -33.4997E+06    -34.9997E+06    -33.6733E+06    -33.4360E+06    -33.4997E+06    -125.856E+03         67.7640
              26    -523.301E-09     94.8716E-03         1.03046    -151.538E-03    -422.421E-03    -145.144E-03         1.02407    -422.421E-03     131.827E-03     602.027E-03    -300.404E-03    -301.112E-03    -300.619E-03     602.025E-03    -300.895E-03    -1.74070E-03    -30.2243E+06    -32.1849E+06    -33.9629E+06    -32.0366E+06    -32.1506E+06    -32.1849E+06     261.431E+03         67.7934
              27     72.9009E-09     93.0431E-03         1.16636    -198.200E-03    -496.505E-03    -184.542E-03         1.15270    -496.505E-03     271.598E-03     601.762E-03    -300.215E-03    -300.955E-03    -300.212E-03     601.760E-03    -300.955E-03    -2.89717E-03    -28.7200E+06    -30.7684E+06    -31.7873E+06    -30.1130E+06    -30.6451E+06    -30.5176E+06     673.481E+03         67.7885
              28    -725.903E-09     91.2187E-03         1.26033    -208.860E-03    -560.279E-03    -179.380E-03         1.23085    -560.279E-03     395.197E-03     600.452E-03    -299.698E-03    -300.435E-03    -299.696E-03     600.450E-03    -300.435E-03    -2.79452E-03    -28.0554E+06    -28.9936E+06    -29.7203E+06    -28.7708E+06    -29.2131E+06    -28.7855E+06    -315.084E+03         67.7493
              29     132.646E-09     89.3951E-03         1.18218    -175.546E-03    -511.296E-03    -117.254E-03         1.12389    -511.296E-03     544.252E-03     600.565E-03    -299.791E-03    -300.397E-03    -299.908E-03     600.564E-03    -300.279E-03    -1.94238E-03    -27.3674E+06    -28.1508E+06    -28.8767E+06    -27.9951E+06    -28.3023E+06    -28.0974E+06     288.177E+03         67.7244
              30     347.293E-09     87.5673E-03         1.18250    -177.372E-03    -492.980E-03    -108.411E-03         1.11354    -492.980E-03     595.987E-03     601.120E-03    -300.154E-03    -300.619E-03    -300.272E-03     601.119E-03    -300.501E-03    -1.14804E-03    -26.6728E+06    -27.2361E+06    -27.9644E+06    -27.3012E+06    -27.4319E+06    -27.1401E+06     303.491E+03         67.7286
              31    -1.28057E-06     85.7480E-03         1.25516    -214.188E-03    -518.534E-03    -159.226E-03         1.20020    -518.534E-03     553.755E-03     600.825E-03    -299.796E-03    -300.764E-03    -299.794E-03     600.823E-03    -300.764E-03    -2.31942E-03    -22.7141E+06    -23.5209E+06    -24.1029E+06    -23.5839E+06    -23.5725E+06    -23.1814E+06    -42.8171E+03         67.7428
              32     680.977E-09     83.9223E-03         1.27246    -221.811E-03    -520.487E-03    -195.319E-03         1.24597    -520.487E-03     368.287E-03     601.174E-03    -299.682E-03    -300.979E-03    -299.681E-03     601.172E-03    -300.979E-03    -1.56898E-03    -23.6591E+06    -24.5097E+06    -25.3542E+06    -24.6340E+06    -24.4113E+06    -24.4778E+06    -269.506E+03         67.7574
              33    -1.85776E-06     82.0950E-03         1.23839    -217.481E-03    -479.627E-03    -211.795E-03         1.23271    -479.627E-03     52.2674E-03     602.191E-03    -300.021E-03    -301.483E-03    -300.020E-03     602.190E-03    -301.483E-03    -1.49660E-03    -22.0787E+06    -23.4522E+06    -24.3417E+06    -22.8185E+06    -23.2944E+06    -23.7597E+06     509.674E+03         67.7628
              34     694.573E-09     80.2707E-03         1.25500    -272.414E-03    -425.687E-03    -247.037E-03         1.22962    -425.687E-03    -336.032E-03     602.046E-03    -300.306E-03    -301.399E-03    -300.611E-03     602.044E-03    -301.092E-03    -2.75369E-03    -18.9736E+06    -19.9170E+06    -21.6890E+06    -20.1808E+06    -20.4817E+06    -19.9170E+06     84.2864E+03         67.7577
              35    -283.028E-09     78.4468E-03         1.38362    -374.580E-03    -436.810E-03    -293.566E-03         1.28977    -423.974E-03    -773.971E-03     601.405E-03    -300.154E-03    -300.892E-03    -300.461E-03     601.404E-03    -300.585E-03    -1.95537E-03    -21.0949E+06    -22.0881E+06    -23.5178E+06    -22.0271E+06    -22.5856E+06    -22.0881E+06    -98.9322E+03         67.7621
              36    -304.350E-09     76.6177E-03         1.50399    -409.256E-03    -514.327E-03    -342.299E-03         1.33196    -409.256E-03        -1.12369     601.691E-03    -299.978E-03    -300.786E-03    -299.978E-03     601.691E-03    -300.786E-03    -1.72205E-03    -19.9614E+06    -21.4355E+06    -21.8206E+06    -20.8952E+06    -21.4488E+06    -20.8736E+06     574.747E+03         67.7772
              37     271.144E-09     74.7963E-03         1.65111    -408.764E-03    -649.444E-03    -401.782E-03         1.40345    -408.764E-03        -1.42413     602.160E-03    -300.580E-03    -300.968E-03    -300.589E-03     602.158E-03    -300.957E-03    -2.46851E-03    -18.7001E+06    -19.9856E+06    -20.2615E+06    -19.3535E+06    -20.0394E+06    -19.5542E+06     266.357E+03         67.7834
              38    -230.511E-09     72.9670E-03         1.76326    -425.642E-03    -729.529E-03    -398.635E-03         1.43237    -425.642E-03        -1.68755     602.275E-03    -300.959E-03    -301.330E-03    -300.967E-03     602.273E-03    -301.320E-03    -2.85488E-03    -17.5254E+06    -18.6800E+06    -19.2814E+06    -18.4767E+06    -18.6306E+06    -18.3796E+06     111.669E+03         67.7828
              39    -262.031E-09     71.1420E-03         1.77980    -426.253E-03    -729.433E-03    -370.720E-03         1.42109    -426.253E-03        -1.75615     602.274E-03    -300.731E-03    -301.723E-03    -300.729E-03     602.272E-03    -301.723E-03    -2.72940E-03    -18.4479E+06    -18.9758E+06    -19.6534E+06    -19.4189E+06    -19.2102E+06    -18.4479E+06    -131.137E+03         67.7753
              40    -837.848E-09     69.3135E-03         1.83837    -489.042E-03    -712.415E-03    -409.717E-03         1.53567    -489.042E-03        -1.64334     601.694E-03    -300.290E-03    -301.089E-03    -300.456E-03     601.692E-03    -300.921E-03    -2.67659E-03    -16.4633E+06    -17.2214E+06    -17.6093E+06    -16.5988E+06    -17.3894E+06    -17.3057E+06     134.747E+03         67.7686
              41     833.801E-09     67.4873E-03         1.82798    -511.506E-03    -664.932E-03    -450.644E-03         1.61369    -511.506E-03        -1.39115     601.820E-03    -300.533E-03    -300.726E-03    -300.700E-03     601.819E-03    -300.557E-03    -1.77885E-03    -15.2762E+06    -16.5171E+06    -17.0817E+06    -16.0721E+06    -16.6843E+06    -16.1186E+06    -38.8861E+03         67.7766
              42    -667.800E-09     65.6652E-03         1.73804    -482.138E-03    -595.470E-03    -471.421E-03         1.61399    -482.138E-03        -1.02975     602.637E-03    -300.829E-03    -301.612E-03    -300.826E-03     602.634E-03    -301.612E-03    -2.73604E-03    -15.8326E+06    -16.5936E+06    -17.3858E+06    -16.6985E+06    -17.0996E+06    -16.0140E+06     36.2404E+03         67.7804
              43    -600.764E-09     63.8355E-03         1.70070    -482.212E-03    -545.279E-03    -500.544E-03         1.65596    -482.212E-03    -570.137E-03     601.871E-03    -300.470E-03    -301.250E-03    -300.488E-03     601.868E-03    -301.228E-03    -3.21467E-03    -13.8408E+06    -14.3702E+06    -14.8496E+06    -13.9655E+06    -14.6543E+06    -14.4409E+06     303.483E+03         67.7714
              44     417.779E-09     62.0078E-03         1.68074    -449.131E-03    -545.273E-03    -538.900E-03         1.67437    -449.131E-03    -94.1451E-03     602.278E-03    -300.405E-03    -301.341E-03    -300.427E-03     602.277E-03    -301.319E-03    -935.458E-06    -14.2379E+06    -15.0801E+06    -15.8682E+06    -14.9768E+06    -15.0587E+06    -15.1508E+06    -518.670E+03         67.7829
              45    -1.68777E-06     60.1807E-03         1.73615    -443.227E-03    -593.475E-03    -569.912E-03         1.71259    -443.227E-03     391.682E-03     603.979E-03    -300.982E-03    -302.457E-03    -300.979E-03     603.977E-03    -302.457E-03    -1.99426E-03    -13.8240E+06    -14.9163E+06    -16.2553E+06    -15.0966E+06    -14.9828E+06    -14.9163E+06      12.411E+03         67.8108
              46     1.24919E-06     58.3458E-03         1.84783    -456.025E-03    -683.631E-03    -610.059E-03         1.77425    -456.025E-03     836.238E-03     603.424E-03    -300.945E-03    -302.107E-03    -301.543E-03     603.421E-03    -301.506E-03    -3.29882E-03    -12.1688E+06    -13.4561E+06    -14.1271E+06    -12.7364E+06    -13.5595E+06    -13.4561E+06     498.025E+03         67.8094
              47    -615.130E-09     56.5214E-03         1.89978    -448.360E-03    -730.020E-03    -617.643E-03         1.78740    -448.360E-03         1.06252     601.807E-03    -299.978E-03    -301.358E-03    -300.578E-03     601.805E-03    -300.757E-03    -2.29190E-03    -13.4294E+06    -14.6515E+06    -15.0085E+06    -14.0912E+06    -14.8796E+06    -14.1186E+06     39.1453E+03         67.7863
              48    -623.080E-09     54.6972E-03         1.93137    -450.620E-03    -749.144E-03    -619.787E-03         1.80201    -450.620E-03         1.14876     601.956E-03    -300.017E-03    -301.534E-03    -300.016E-03     601.955E-03    -301.534E-03    -1.69882E-03    -12.2454E+06    -13.3070E+06    -13.6404E+06    -12.8998E+06    -13.5190E+06    -12.7741E+06     218.167E+03         67.7805
              49    -314.914E-09     52.8662E-03         1.91545    -433.604E-03    -741.532E-03    -610.550E-03         1.78447    -433.604E-03         1.15039     603.169E-03    -301.048E-03    -301.960E-03    -301.221E-03     603.168E-03    -301.786E-03    -1.52501E-03    -12.6956E+06    -13.5725E+06    -14.2026E+06    -12.9119E+06    -13.9863E+06    -13.5725E+06    -323.075E+03         67.7925
              50     456.931E-09     51.0399E-03         1.88982    -448.556E-03    -682.045E-03    -568.216E-03         1.77599    -448.556E-03         1.05637     603.203E-03    -301.156E-03    -302.001E-03    -301.999E-03     603.201E-03    -301.156E-03    -2.31045E-03    -12.6558E+06    -13.0641E+06    -14.2456E+06    -13.3254E+06    -13.6361E+06    -13.0041E+06    -127.831E+03         67.7985
              51     169.432E-09     49.2174E-03         1.90721    -517.030E-03    -618.152E-03    -544.666E-03         1.83372    -517.030E-03     832.963E-03     602.731E-03    -300.666E-03    -301.999E-03    -301.335E-03     602.730E-03    -301.328E-03    -1.66245E-03    -12.0232E+06    -12.2919E+06    -13.2818E+06    -12.7148E+06    -12.8590E+06    -12.0232E+06     355.292E+03         67.7978
              52    -1.07210E-06     47.3823E-03         1.94407    -563.342E-03    -599.252E-03    -545.257E-03         1.91326    -586.527E-03     535.593E-03     602.960E-03    -300.716E-03    -302.148E-03    -300.715E-03     602.959E-03    -302.148E-03    -1.33765E-03    -13.0799E+06    -13.3499E+06    -14.0582E+06    -13.3744E+06    -14.0338E+06    -13.0799E+06     123.210E+03         67.8065
              53    -85.3649E-09     45.5592E-03         1.88268    -508.219E-03    -584.308E-03    -500.094E-03         1.87456    -584.308E-03     222.174E-03     603.380E-03    -301.031E-03    -301.828E-03    -301.056E-03     603.378E-03    -301.801E-03    -2.52423E-03    -8.99454E+06    -9.58132E+06    -10.5141E+06    -9.05962E+06    -10.5103E+06    -9.52001E+06     32.6312E+03         67.8240
              54     326.101E-09     43.7284E-03         1.77454    -426.179E-03    -550.395E-03    -425.451E-03         1.77381    -550.395E-03    -31.7426E-03     603.141E-03    -301.131E-03    -301.506E-03    -301.504E-03     603.139E-03    -301.131E-03    -2.57342E-03    -9.05803E+06    -9.63727E+06    -10.6288E+06    -9.08783E+06    -10.5990E+06    -9.63727E+06    -106.715E+03         67.8459
              55     289.034E-09     41.8989E-03         1.85925    -435.216E-03    -620.400E-03    -431.828E-03         1.85586    -620.400E-03    -167.782E-03     603.454E-03    -301.019E-03    -302.032E-03    -301.366E-03     603.453E-03    -301.684E-03    -1.55848E-03    -10.1201E+06    -10.4905E+06    -11.8988E+06    -10.4996E+06    -11.5193E+06    -10.4905E+06     491.315E+03         67.8816
              56    -1.18087E-06     40.0733E-03         1.99885    -470.280E-03    -714.033E-03    -467.446E-03         1.99602    -714.033E-03    -135.380E-03     604.532E-03    -301.354E-03    -302.261E-03    -301.593E-03     604.530E-03    -302.019E-03    -2.29566E-03    -8.11532E+06    -8.43640E+06    -10.2160E+06    -8.93734E+06    -9.39394E+06    -8.43640E+06     248.561E+03         67.9395
              57     1.48756E-06     38.2374E-03         1.99348    -442.350E-03    -731.105E-03    -440.530E-03         1.99166    -731.105E-03     70.5657E-03     605.596E-03    -301.893E-03    -302.745E-03    -302.743E-03     605.594E-03    -301.893E-03    -1.44330E-03    -5.95972E+06    -6.63118E+06    -7.86028E+06    -6.45565E+06    -7.36434E+06    -6.63118E+06    -184.352E+03         68.0202
              58    -232.558E-09     36.4030E-03         1.90421    -400.534E-03    -679.589E-03    -384.076E-03         1.88775    -679.589E-03     346.317E-03     606.790E-03    -302.635E-03    -303.605E-03    -303.604E-03     606.789E-03    -302.635E-03    -904.009E-06    -6.23005E+06    -6.99893E+06    -7.94022E+06    -6.60547E+06    -7.66665E+06    -6.89706E+06    -52.1319E+03         68.1187
              59     780.041E-09     34.5675E-03         1.94097    -441.796E-03    -660.769E-03    -390.896E-03         1.89007    -660.769E-03     676.068E-03     608.212E-03    -303.419E-03    -304.302E-03    -304.301E-03     608.211E-03    -303.419E-03    -1.63117E-03    -8.93943E+06    -9.29655E+06    -10.6751E+06    -9.36689E+06    -10.3495E+06    -9.19468E+06    -507.828E+03         68.2348
              60    -287.329E-09     32.7269E-03         2.10029    -557.106E-03    -693.085E-03    -470.945E-03         2.01413    -693.085E-03     939.936E-03     610.078E-03    -304.350E-03    -305.085E-03    -304.873E-03     610.078E-03    -304.561E-03    -1.32238E-03    -6.76844E+06    -7.06777E+06    -8.20551E+06    -7.07655E+06    -7.94148E+06    -7.02369E+06    -250.734E+03         68.3855
              61     263.900E-09     30.8853E-03         2.21252    -652.342E-03    -705.578E-03    -562.132E-03         2.12231    -705.578E-03     998.341E-03     612.575E-03    -305.351E-03    -306.655E-03    -305.351E-03     612.574E-03    -306.655E-03    -675.438E-06    -5.47256E+06    -6.59912E+06    -7.51149E+06    -5.87806E+06    -7.15007E+06    -6.55505E+06     570.630E+03         68.5892
              62    -1.79754E-06     29.0330E-03         2.15029    -625.522E-03    -666.064E-03    -580.750E-03         2.08102    -641.571E-03     868.313E-03     615.869E-03    -306.412E-03    -308.671E-03    -306.411E-03     615.868E-03    -308.671E-03    -474.138E-06    -4.07150E+06    -5.62988E+06    -7.31404E+06    -5.68556E+06    -6.17587E+06    -5.15398E+06     590.086E+03         68.8474
              63    -1.20797E-09     27.1786E-03         1.98637    -500.879E-03    -621.018E-03    -587.956E-03         1.95330    -500.879E-03     532.520E-03     619.234E-03    -308.594E-03    -310.135E-03    -308.594E-03     619.234E-03    -310.135E-03    -744.647E-06    -5.40640E+06    -7.13609E+06    -8.58209E+06    -6.97258E+06    -7.49180E+06    -6.66019E+06    -388.470E+03         69.1414
              64    -275.369E-09     25.3097E-03         2.03221    -463.143E-03    -704.380E-03    -690.279E-03         2.01811    -463.143E-03    -99.2842E-03     622.848E-03    -310.073E-03    -312.340E-03    -310.073E-03     622.848E-03    -312.340E-03     251.307E-06    -7.24294E+06    -9.07133E+06    -10.2285E+06    -8.56123E+06    -8.91018E+06    -9.07133E+06    -177.561E+03         69.4213
              65    -2.10444E-06     23.4370E-03         2.23752    -494.463E-03    -874.852E-03    -820.775E-03         2.18344    -494.463E-03    -773.325E-03     625.185E-03    -309.881E-03    -314.205E-03    -309.881E-03     625.185E-03    -314.205E-03    -399.765E-06    -5.93582E+06    -7.62285E+06    -8.88875E+06    -7.33640E+06    -7.48818E+06    -7.62285E+06    -285.379E+03         69.6237
              66    -2.31937E-06     21.5610E-03         2.35910    -479.332E-03        -1.00473    -842.281E-03         2.19665    -479.332E-03        -1.40143     624.449E-03    -310.136E-03    -313.535E-03    -310.135E-03     624.448E-03    -313.535E-03    -1.72164E-03    -7.70738E+06    -9.20170E+06    -11.4095E+06    -9.82112E+06    -9.29575E+06    -9.20170E+06    -125.126E+03         69.6894
              67     200.779E-09     19.6881E-03         2.40935    -494.191E-03        -1.03278    -749.978E-03         2.12655    -494.191E-03        -1.88325     620.905E-03    -309.145E-03    -311.464E-03    -309.144E-03     620.903E-03    -311.464E-03    -2.21165E-03    -4.86332E+06    -7.73173E+06    -9.62875E+06    -6.78644E+06    -7.70563E+06    -7.73173E+06     645.923E+03         69.4967
              68    -2.37775E-06     17.8305E-03         2.44623    -546.824E-03        -1.01367    -670.616E-03         2.10317    -546.824E-03        -2.06760     612.439E-03    -305.022E-03    -307.196E-03    -305.016E-03     612.433E-03    -307.196E-03    -4.15964E-03    -5.13029E+06    -7.85717E+06    -10.9159E+06    -7.65271E+06    -8.39348E+06    -7.85717E+06    -924.701E+03         68.9134
              69     1.06333E-06     15.9963E-03         2.47935    -630.796E-03    -959.150E-03    -654.961E-03         2.17516    -630.796E-03        -1.94471     598.025E-03    -297.881E-03    -299.978E-03    -297.873E-03     598.017E-03    -299.978E-03    -5.28525E-03    -6.89493E+06    -9.21292E+06    -13.1786E+06    -9.56342E+06    -10.5102E+06    -9.21292E+06    -429.355E+03         67.9637
              70    -2.49856E-06     14.1859E-03         2.47428    -690.053E-03    -884.064E-03    -666.921E-03         2.25713    -690.053E-03        -1.64703     579.018E-03    -288.062E-03    -290.875E-03    -288.047E-03     579.003E-03    -290.875E-03    -6.80831E-03    -5.34754E+06    -7.62095E+06    -9.86462E+06    -6.73027E+06    -8.48189E+06    -7.62095E+06     496.516E+03         66.7516
              71     406.050E-09     12.4172E-03         2.38140    -692.950E-03    -781.375E-03    -649.181E-03         2.24920    -692.950E-03        -1.24481     558.754E-03    -278.482E-03    -280.128E-03    -278.463E-03     558.735E-03    -280.128E-03    -7.93170E-03    -3.10649E+06    -5.77635E+06    -8.19754E+06    -4.36586E+06    -6.93818E+06    -5.77635E+06     173.565E+03         65.4979
              72    -894.740E-09     10.6850E-03         2.23896    -660.625E-03    -670.426E-03    -595.867E-03         2.17029    -666.518E-03    -880.030E-03     542.503E-03    -270.058E-03    -272.286E-03    -272.165E-03     542.486E-03    -270.163E-03    -7.40674E-03     426.440E+03    -2.81185E+06    -8.88488E+06    -4.91930E+06    -4.30333E+06    -2.04765E+06     1.26947E+06         64.5833
              73     3.97637E-06     8.98220E-03         2.13965    -611.830E-03    -620.245E-03    -572.368E-03         2.09767    -617.724E-03    -665.217E-03     533.713E-03    -265.621E-03    -268.112E-03    -267.734E-03     533.702E-03    -265.988E-03    -3.27648E-03     6.83328E+06    -13.6061E+03    -4.77204E+06     1.42584E+06    -83.7096E+03     705.506E+03     104.010E+03         64.1967
              74    -4.49305E-06     7.28337E-03         2.19285    -626.980E-03    -650.995E-03    -625.179E-03         2.16703    -626.980E-03    -538.483E-03     540.527E-03    -267.524E-03    -273.002E-03    -267.522E-03     540.524E-03    -273.002E-03     2.55491E-03     10.4806E+06     4.04292E+06     857.343E+03     6.89421E+06     4.13383E+06     4.35285E+06    -598.374E+03         64.4188
              75    -3.51062E-06     5.56205E-03         2.26452    -630.034E-03    -716.495E-03    -699.535E-03         2.24756    -630.034E-03    -438.160E-03     566.265E-03    -280.020E-03    -286.189E-03    -281.076E-03     566.262E-03    -285.130E-03     3.14892E-03     2.47035E+06     1.29798E+06    -2.85001E+06    -1.06142E+06      326.74E+03     1.65299E+06    -108.046E+03         65.4264
              76     4.90951E-06     3.76660E-03         2.24751    -599.391E-03    -729.246E-03    -720.188E-03         2.23845    -599.391E-03    -327.512E-03     600.184E-03    -299.277E-03    -300.819E-03    -300.808E-03     600.173E-03    -299.277E-03     5.67449E-03     1.60164E+06    -1.08116E+06    -4.74840E+06    -1.21840E+06    -1.92836E+06    -1.08116E+06     1.91634E+06         67.2280
              77    -3.79853E-06     1.91130E-03         2.15426    -534.397E-03    -694.360E-03    -690.154E-03         2.15005    -534.397E-03    -183.451E-03     630.630E-03    -314.857E-03    -315.802E-03    -315.792E-03     630.619E-03    -314.857E-03     5.20071E-03     6.92699E+06     3.06984E+06    -2.53375E+06     1.28474E+06     3.10850E+06     3.06984E+06     -230.81E+03         69.5215
              78     720.692E-06     752.509E-09         2.07693    -524.759E-03    -624.555E-03    -624.404E-03         2.07677    -524.759E-03    -30.7439E-03     640.455E-03    -319.226E-03    -321.243E-03    -319.679E-03     640.446E-03    -320.781E-03     4.99584E-03     8.51131E+06     3.81183E+06    -316.208E+03     2.74074E+06     5.45437E+06     3.81183E+06    -739.897E+03         70.5701
              79     1.44855E-03     752.509E-09         2.10024    -578.343E-03    -595.628E-03    -595.553E-03         2.10017    -578.343E-03    -22.1641E-03     631.870E-03    -313.046E-03    -318.660E-03    -313.026E-03     631.850E-03    -318.660E-03     8.70522E-03     8.11719E+06     2.94832E+06     380.907E+03     2.64982E+06     5.84828E+06     2.94832E+06    -116.190E+03         70.1344
              80     2.18143E-03     752.509E-09         2.13505    -587.863E-03    -621.558E-03    -621.484E-03         2.13497    -587.863E-03    -20.7973E-03     619.872E-03    -304.127E-03    -315.439E-03    -304.098E-03     619.843E-03    -315.439E-03     10.2049E-03     7.96713E+06     2.76983E+06     351.252E+03     2.63933E+06     5.67905E+06     2.76983E+06    -141.527E+03         69.5326
              81     2.92194E-03     752.509E-09         2.17010    -599.159E-03    -645.916E-03    -645.883E-03         2.17007    -599.159E-03    -14.3800E-03     605.571E-03    -293.886E-03    -311.413E-03    -293.845E-03     605.530E-03    -311.413E-03     12.0876E-03     8.39723E+06     3.32803E+06     1.40460E+06     3.25349E+06     6.54834E+06     3.32803E+06     255.745E+03         68.8503
              82     3.67082E-03     752.509E-09         2.19526    -609.690E-03    -656.524E-03    -656.479E-03         2.19522    -609.690E-03    -22.0547E-03     590.396E-03    -283.159E-03    -306.873E-03    -283.110E-03     590.347E-03    -306.873E-03     13.0662E-03     8.20093E+06     3.18174E+06     603.810E+03     2.75574E+06     6.04899E+06     3.18174E+06     591.174E+03         68.1315
              83     4.42787E-03     752.509E-09         2.20233    -617.491E-03    -654.165E-03    -654.073E-03         2.20224    -617.491E-03    -29.7303E-03     575.449E-03    -273.010E-03    -302.136E-03    -272.956E-03     575.395E-03    -302.136E-03     13.5961E-03     7.68288E+06     3.22098E+06     413.558E+03     2.09327E+06     6.00317E+06     3.22098E+06     1.04194E+06         67.3751
              84     5.19299E-03     752.509E-09         2.19257    -621.841E-03    -639.248E-03    -639.145E-03         2.19247    -621.841E-03    -32.6965E-03     558.985E-03    -263.150E-03    -295.837E-03    -263.092E-03     558.927E-03    -295.837E-03     13.7639E-03     8.14463E+06     5.07939E+06     700.966E+03     1.80761E+06     7.03799E+06     5.07939E+06     715.346E+03         66.6208
              85     5.96366E-03     752.509E-09         2.17584    -618.472E-03    -624.865E-03    -620.329E-03         2.17575    -622.922E-03    -30.0169E-03     544.429E-03    -254.909E-03    -289.860E-03    -254.852E-03     544.372E-03    -289.860E-03     13.5349E-03     9.88183E+06     6.79045E+06      543.57E+03     2.02873E+06     8.39667E+06     6.79045E+06    -57.7045E+03         66.1678
              86     6.73846E-03     752.509E-09         2.15972    -605.784E-03    -621.806E-03    -605.636E-03         2.15957    -621.806E-03    -40.3939E-03     535.502E-03    -250.735E-03    -285.425E-03    -250.682E-03     535.449E-03    -285.425E-03     12.8954E-03     11.0413E+06     7.33011E+06    -244.735E+03     2.04122E+06      8.7553E+06     7.33011E+06     1.02703E+06         66.5035
              87     7.51583E-03     752.509E-09         2.14879    -591.866E-03    -619.428E-03    -591.731E-03         2.14866    -619.428E-03    -38.0241E-03     529.412E-03    -249.366E-03    -281.265E-03    -249.330E-03     529.377E-03    -281.265E-03     10.4112E-03     11.6504E+06     8.70912E+06    -1.27347E+06     2.36419E+06     8.01272E+06     8.70912E+06    -249.746E+03         67.8725
              88     8.29465E-03     752.509E-09         2.14666    -590.547E-03    -616.755E-03    -590.492E-03         2.14661    -616.755E-03    -22.2538E-03     526.599E-03    -249.814E-03    -278.121E-03    -249.802E-03     526.587E-03    -278.121E-03     4.69393E-03     14.9424E+06     10.9535E+06    -4.47472E+06     1.49355E+06     8.97416E+06     10.9535E+06     2.92863E+06         70.2776
              89     9.07447E-03     752.509E-09         2.15576    -597.423E-03    -614.794E-03    -597.416E-03         2.15576    -614.794E-03    -4.38761E-03     532.394E-03    -256.454E-03    -276.968E-03    -256.453E-03     532.393E-03    -276.968E-03     1.41481E-03     14.2568E+06     10.7489E+06    -8.19540E+06    -554.774E+03     6.06525E+06     11.2998E+06     1.53976E+06         73.6731
              90     9.84479E-03     752.509E-09         2.17641    -606.881E-03    -619.611E-03    -612.427E-03         2.17638    -614.035E-03    -11.3742E-03     549.049E-03    -269.825E-03    -280.592E-03    -273.214E-03     549.036E-03    -277.190E-03    -3.47843E-03     10.9745E+06     7.96482E+06    -8.21750E+06    -1.58607E+06     3.79220E+06     8.51571E+06     31.8005E+03         77.9598
              91     10.6023E-03     752.509E-09         2.20182    -614.588E-03    -629.591E-03    -629.537E-03         2.20176    -614.588E-03    -24.8751E-03     576.691E-03    -278.021E-03    -298.645E-03    -298.569E-03     576.615E-03    -278.021E-03    -15.2413E-03     11.8141E+06     7.81373E+06    -9.16425E+06    -2.52345E+06     3.63174E+06     9.35529E+06    -298.784E+03         82.9834
              92     11.3367E-03     752.509E-09         2.22914    -616.147E-03    -642.895E-03    -642.847E-03         2.22909    -616.147E-03    -23.4574E-03     618.720E-03    -280.695E-03    -338.982E-03    -338.663E-03     618.401E-03    -280.695E-03    -33.4128E-03     22.7672E+06     15.4133E+06    -28.9253E+06    -10.6269E+06     2.92722E+06     16.9548E+06     14.6692E+06         88.2532
              93     12.0641E-03     752.509E-09         2.26133    -618.431E-03    -657.210E-03    -657.184E-03         2.26130    -618.431E-03    -7.45860E-03     693.905E-03    -286.130E-03    -410.863E-03    -410.523E-03     693.566E-03    -286.130E-03    -36.9128E-03     15.7837E+06     8.84164E+06    -41.8140E+06    -19.5966E+06    -6.43372E+06     8.84164E+06     10.8706E+06         92.6936
              94     12.6751E-03     752.509E-09         2.31095    -621.293E-03    -678.150E-03    -677.088E-03         2.30989    -621.293E-03     84.2417E-03     810.862E-03    -295.369E-03    -513.873E-03    -511.788E-03     808.777E-03    -295.369E-03     61.8079E-03     23.6088E+06    -9.93371E+06    -30.4881E+06     14.1515E+06    -21.0308E+06    -9.93371E+06    -8.87335E+06         95.4778
              95     13.2957E-03     2.53519E-03         2.22159    -619.094E-03    -661.691E-03    -652.618E-03         2.21971    -626.293E-03     146.697E-03     778.277E-03    -300.217E-03    -476.666E-03    -471.701E-03     773.312E-03    -300.217E-03     155.131E-03     27.0972E+06    -7.45681E+06    -60.8411E+06    -22.8627E+06    -10.8813E+06    -7.45681E+06    -7.54042E+06         95.8525
              96     13.3290E-03     4.46010E-03         2.12002    -622.660E-03    -631.553E-03    -621.844E-03         2.11921    -631.553E-03     65.9055E-03     659.048E-03    -299.012E-03    -362.370E-03    -357.711E-03     654.389E-03    -299.012E-03     136.684E-03     41.7409E+06    -11.0470E+06    -63.4304E+06    -8.22166E+06    -9.93702E+06    -14.5778E+06    -7.74751E+06         94.9529
              97     13.3302E-03     6.31761E-03         2.14706    -631.742E-03    -634.762E-03    -631.736E-03         2.14705    -634.762E-03    -6.28528E-03     628.002E-03    -298.383E-03    -331.486E-03    -328.613E-03     625.129E-03    -298.383E-03     104.515E-03     41.2225E+06    -9.92215E+06    -44.6214E+06     9.77299E+06    -10.1390E+06    -12.9550E+06    -3.17506E+06         94.2903
              98     13.3313E-03     8.15652E-03         2.16601    -635.508E-03    -644.146E-03    -642.800E-03         2.16599    -636.834E-03    -14.6475E-03     610.747E-03    -298.327E-03    -313.027E-03    -310.913E-03     608.632E-03    -298.327E-03     88.1843E-03     25.7308E+06     395.435E+03    -34.9104E+06    -5.86720E+06    -3.81030E+06     893.345E+03    -515.625E+03         93.6413
              99     13.3269E-03     9.98776E-03         2.16882    -632.554E-03    -644.247E-03    -639.841E-03         2.16880    -636.934E-03    -16.9281E-03     601.310E-03    -298.414E-03    -301.887E-03    -299.773E-03     599.195E-03    -298.414E-03     87.1426E-03     23.4562E+06    -3.15028E+06    -24.2804E+06     4.54819E+06    -7.14142E+06    -1.38127E+06     1.73676E+06         93.0167
             100     13.3315E-03     11.8070E-03         2.15544    -627.454E-03    -635.615E-03    -627.442E-03         2.15543    -635.615E-03    -9.63154E-03     597.419E-03    -297.997E-03    -298.843E-03    -295.763E-03     595.053E-03    -298.712E-03     91.9370E-03     14.8492E+06    -279.475E+03    -21.0482E+06    -3.97780E+06    -3.99021E+06     1.48954E+06     745.957E+03         92.4351
             101     13.3300E-03     13.6219E-03         2.14615    -614.821E-03    -634.149E-03    -614.819E-03         2.14614    -634.149E-03    -4.20253E-03     595.987E-03    -296.499E-03    -298.935E-03    -293.991E-03     593.479E-03    -298.935E-03     94.4541E-03     15.8265E+06     746.944E+03    -14.9684E+06     2.20829E+06    -3.07009E+06     2.46682E+06    -44.3115E+03         91.9218
             102     13.3331E-03     15.4331E-03         2.14567    -607.217E-03    -634.015E-03    -607.215E-03         2.14566    -634.015E-03    -2.08772E-03     595.159E-03    -295.955E-03    -298.814E-03    -293.292E-03     592.495E-03    -298.814E-03     97.2971E-03     12.8028E+06     4.78446E+06    -12.6067E+06    -1.35145E+06    -172.321E+03     6.50434E+06     1.44225E+06         91.5108
             103     13.3326E-03     17.2535E-03         2.14397    -609.106E-03    -633.815E-03    -609.097E-03         2.14396    -633.815E-03     7.63033E-03     595.276E-03    -296.372E-03    -298.816E-03    -293.646E-03     592.550E-03    -298.816E-03     98.4524E-03     12.1588E+06     3.81449E+06    -9.14365E+06     2.00519E+06    -1.03588E+06     5.86037E+06     2.85223E+06         91.2067
             104     13.3330E-03     19.0722E-03         2.12353    -598.244E-03    -630.078E-03    -598.223E-03         2.12351    -630.078E-03    -709.737E-06     594.491E-03    -294.893E-03    -298.809E-03    -292.015E-03     591.613E-03    -298.809E-03     100.988E-03     7.74192E+06     2.23678E+06    -11.3085E+06    -2.34903E+06    -3.26343E+06     4.28266E+06     2.45878E+06         90.9877
             105     13.3326E-03     20.8806E-03         2.10678    -597.778E-03    -623.694E-03    -597.760E-03         2.10676    -623.694E-03    -2.04671E-03     594.156E-03    -294.010E-03    -298.959E-03    -290.978E-03     591.125E-03    -298.959E-03     103.606E-03     9.46107E+06     3.35230E+06    -8.65112E+06     529.838E+03    -2.36941E+06     6.00181E+06     1.06495E+06         90.8421
             106     13.3345E-03     22.6879E-03         2.09572    -602.705E-03    -617.282E-03    -602.697E-03         2.09572    -617.282E-03     7.84785E-03     596.285E-03    -295.989E-03    -298.902E-03    -292.948E-03     593.244E-03    -298.902E-03     103.999E-03     6.29680E+06     2.46279E+06    -8.07264E+06    -2.19295E+06    -2.23241E+06     5.11231E+06    -376.024E+03         90.7577
             107     13.3339E-03     24.5080E-03         2.08396    -605.280E-03    -613.599E-03    -606.533E-03         2.08393    -612.319E-03    -10.0035E-03     598.376E-03    -298.289E-03    -299.181E-03    -295.639E-03     595.410E-03    -298.864E-03     102.990E-03     5.40260E+06     1.86612E+06    -6.70350E+06    -877.885E+03    -2.77501E+06     4.21812E+06    -47.7304E+03         90.7225
             108     13.3350E-03     26.3317E-03         2.07730    -606.543E-03    -611.513E-03    -611.486E-03         2.07728    -606.543E-03    -11.3311E-03     598.928E-03    -298.902E-03    -299.456E-03    -296.531E-03     596.003E-03    -298.902E-03     102.363E-03     4.71974E+06     1.49951E+06    -7.19639E+06    -2.38915E+06    -3.30772E+06     4.71974E+06    -268.358E+03         90.7333
             109     13.3352E-03     28.1476E-03         2.05491    -596.001E-03    -600.981E-03    -599.633E-03         2.05485    -597.291E-03    -16.7801E-03     598.080E-03    -298.131E-03    -299.156E-03    -295.412E-03     595.124E-03    -298.919E-03     102.780E-03     6.67947E+06     1.72920E+06    -5.01536E+06    -219.748E+03    -3.06641E+06     6.67947E+06    -4.78469E+03         90.7781
             110     13.3367E-03     29.9688E-03         2.02034    -581.653E-03    -587.557E-03    -581.585E-03         2.02027    -587.557E-03    -24.7769E-03     596.321E-03    -296.382E-03    -299.039E-03    -293.334E-03     593.273E-03    -299.039E-03     104.141E-03     7.27953E+06     3.00084E+06    -3.73915E+06     909.415E+03    -1.64773E+06     7.27953E+06     410.183E+03         90.8392
             111     13.3369E-03     31.7720E-03         2.00280    -575.300E-03    -580.821E-03    -576.188E-03         2.00278    -579.915E-03    -13.7048E-03     596.596E-03    -296.489E-03    -299.003E-03    -293.374E-03     593.481E-03    -299.003E-03     105.304E-03     6.95242E+06     3.72453E+06    -2.93764E+06     1.75704E+06    -970.155E+03     6.95242E+06     357.897E+03         90.9043
             112     13.3377E-03     33.5846E-03         2.00536    -573.482E-03    -584.840E-03    -584.808E-03         2.00533    -573.482E-03    -17.4199E-03     598.730E-03    -298.282E-03    -299.516E-03    -295.827E-03     595.684E-03    -298.926E-03     104.391E-03     6.52871E+06     1.50085E+06    -3.63655E+06    -327.744E+03    -1.80795E+06     6.52871E+06    -145.191E+03         90.9668
             113     13.3384E-03     35.4049E-03         1.99277    -567.393E-03    -585.770E-03    -585.710E-03         1.99271    -567.393E-03    -24.6181E-03     599.925E-03    -298.868E-03    -300.095E-03    -297.128E-03     596.958E-03    -298.868E-03     103.186E-03     5.35762E+06     1.40612E+06    -2.97235E+06     506.717E+03    -2.07295E+06     5.35762E+06    -99.2268E+03         91.0272
             114     13.3403E-03     37.2247E-03         1.95500    -560.251E-03    -571.635E-03    -571.564E-03         1.95493    -560.251E-03    -26.7890E-03     600.654E-03    -298.863E-03    -300.626E-03    -297.646E-03     597.675E-03    -298.863E-03     103.474E-03     4.33457E+06     410.018E+03    -3.21321E+06    -552.533E+03    -2.25066E+06     4.33457E+06    -12.7718E+03         91.0923
             115     13.3391E-03     39.0519E-03         1.92705    -552.768E-03    -557.801E-03    -557.708E-03         1.92696    -552.768E-03    -30.0639E-03     602.296E-03    -298.881E-03    -302.410E-03    -299.425E-03     599.311E-03    -298.881E-03     103.766E-03     6.89467E+06     760.553E+03    -3.16621E+06    -359.376E+03    -2.04628E+06     6.89467E+06    -171.937E+03         91.1693
             116     13.3394E-03     40.8827E-03         1.91821    -548.446E-03    -557.520E-03    -557.452E-03         1.91814    -548.446E-03    -24.0654E-03     602.758E-03    -298.875E-03    -302.966E-03    -299.960E-03     599.752E-03    -298.875E-03     104.181E-03     7.25162E+06    -235.013E+03    -3.51604E+06    -1.22497E+06    -2.52608E+06     7.25162E+06    -657.856E+03         91.2591
             117     13.3410E-03     42.7114E-03         1.90832    -546.517E-03    -559.946E-03    -559.818E-03         1.90819    -546.517E-03    -31.1777E-03     602.004E-03    -298.867E-03    -302.414E-03    -299.307E-03     598.897E-03    -298.867E-03     105.824E-03     8.55698E+06     405.659E+03    -1.82585E+06     10.7524E+03    -1.43094E+06     8.55698E+06    -104.869E+03         91.3575
             118     13.3404E-03     44.5412E-03         1.89111    -542.784E-03    -553.521E-03    -553.364E-03         1.89096    -542.784E-03    -37.8019E-03     602.128E-03    -298.834E-03    -302.714E-03    -299.632E-03     599.046E-03    -298.834E-03     105.428E-03     9.11546E+06     756.549E+03    -1.54168E+06     75.4933E+03    -860.627E+03     9.11546E+06     499.493E+03         91.4579
             119     13.3399E-03     46.3694E-03         1.86317    -533.013E-03    -542.323E-03    -537.753E-03         1.86310    -537.515E-03    -25.3820E-03     602.244E-03    -298.853E-03    -302.537E-03    -299.495E-03     599.202E-03    -298.853E-03     104.738E-03     9.51492E+06     540.042E+03    -1.77598E+06    -117.858E+03    -1.11808E+06     9.51492E+06     463.338E+03         91.5525
             120     13.3409E-03     48.1963E-03         1.83437    -528.038E-03    -534.502E-03    -527.974E-03         1.83431    -534.502E-03    -24.5241E-03     602.095E-03    -298.883E-03    -302.157E-03    -299.065E-03     599.002E-03    -298.883E-03     105.587E-03     11.5246E+06     786.721E+03    -560.201E+03     278.027E+03    -51.5063E+03     11.5246E+06     113.518E+03         91.6337
             121     13.3427E-03     50.0243E-03         1.81796    -526.390E-03    -533.312E-03    -526.354E-03         1.81793    -533.312E-03    -13.7466E-03     602.478E-03    -298.859E-03    -302.669E-03    -299.578E-03     599.387E-03    -298.859E-03     105.617E-03     10.1719E+06     815.580E+03    -887.125E+03    -24.0119E+03    -47.5333E+03     10.1719E+06     7.11194E+03         91.6943
             122     13.3427E-03     51.8545E-03         1.80347    -523.200E-03    -530.777E-03    -523.139E-03         1.80341    -530.777E-03    -17.6493E-03     603.472E-03    -298.855E-03    -303.887E-03    -300.808E-03     600.393E-03    -298.855E-03     105.542E-03     9.43887E+06     390.823E+03    -1.18079E+06    -348.324E+03    -441.647E+03     9.43887E+06    -146.549E+03         91.7347
             123     13.3418E-03     53.6911E-03         1.77969    -516.835E-03    -525.720E-03    -516.752E-03         1.77961    -525.720E-03    -26.8025E-03     603.710E-03    -298.879E-03    -304.261E-03    -301.182E-03     600.631E-03    -298.879E-03     105.568E-03     11.8616E+06     153.844E+03    -1.10647E+06    -368.367E+03    -584.255E+03     11.8616E+06     19.2246E+03         91.7586
             124     13.3418E-03     55.5219E-03         1.74392    -497.662E-03    -518.563E-03    -497.626E-03         1.74389    -518.563E-03    -17.8731E-03     602.949E-03    -298.880E-03    -303.322E-03    -300.238E-03     599.866E-03    -298.880E-03     105.544E-03     11.7888E+06     574.193E+03    -626.821E+03    -44.1354E+03    -8.49247E+03     11.7888E+06     124.823E+03         91.7696
             125     13.3424E-03     57.3556E-03         1.71579    -489.195E-03    -512.455E-03    -489.072E-03         1.71567    -512.455E-03    -29.8243E-03     602.556E-03    -298.860E-03    -302.729E-03    -299.654E-03     599.480E-03    -298.860E-03     105.357E-03     10.7132E+06     716.221E+03    -527.553E+03     13.1877E+03     175.480E+03     10.7132E+06     240.790E+03         91.7752
             126     13.3437E-03     59.1887E-03         1.69694    -488.544E-03    -507.188E-03    -488.430E-03         1.69682    -507.188E-03    -17.0993E-03     602.916E-03    -298.824E-03    -303.166E-03    -300.121E-03     599.871E-03    -298.824E-03     104.863E-03     12.2346E+06     155.969E+03    -729.524E+03    -726.448E+03     152.893E+03     12.2346E+06    -51.3685E+03         91.7819
             127     13.3440E-03     61.0280E-03         1.66910    -481.042E-03    -498.459E-03    -480.954E-03         1.66901    -498.459E-03    -14.0887E-03     603.305E-03    -298.817E-03    -303.744E-03    -300.712E-03     600.273E-03    -298.817E-03     104.710E-03     13.7824E+06     769.647E+03    -155.360E+03    -152.685E+03     766.972E+03     13.7824E+06    -47.9671E+03         91.7895
             128     13.3432E-03     62.8617E-03         1.63210    -466.514E-03    -486.815E-03    -466.430E-03         1.63201    -486.815E-03    -17.2707E-03     603.091E-03    -298.835E-03    -303.511E-03    -300.439E-03     600.019E-03    -298.835E-03     105.365E-03     13.2071E+06     454.311E+03    -567.431E+03    -557.253E+03     444.133E+03     13.2071E+06     35.1165E+03         91.7978
             129     13.3436E-03     64.6962E-03         1.59625    -453.619E-03    -475.166E-03    -453.618E-03         1.59624    -475.166E-03     2.74098E-03     602.863E-03    -298.866E-03    -303.141E-03    -300.049E-03     599.771E-03    -298.866E-03     105.674E-03     13.6259E+06     1.08424E+06    -408.637E+03    -399.520E+03     1.07512E+06     13.6259E+06     57.5137E+03         91.8076
             130     13.3431E-03     66.5288E-03         1.57051    -455.015E-03    -463.668E-03    -455.015E-03         1.57051    -463.668E-03     1.19195E-03     603.137E-03    -298.870E-03    -303.544E-03    -300.473E-03     600.065E-03    -298.870E-03     105.366E-03     13.7369E+06     1.25944E+06    -414.621E+03    -414.337E+03     1.25915E+06     13.7369E+06    -15.8856E+03         91.8178
             131     13.3428E-03     68.3659E-03         1.53836    -445.442E-03    -450.490E-03    -445.435E-03         1.53836    -450.490E-03     5.25551E-03     602.810E-03    -298.864E-03    -303.128E-03    -300.089E-03     599.771E-03    -298.864E-03     104.760E-03     14.2064E+06     1.06721E+06    -283.527E+03    -183.497E+03     967.179E+03     14.2064E+06     243.267E+03         91.8273
             132     13.3439E-03     70.1992E-03         1.50083    -431.045E-03    -440.076E-03    -435.016E-03         1.50081    -436.086E-03    -1.88417E-03     602.197E-03    -298.857E-03    -302.266E-03    -299.205E-03     599.136E-03    -298.857E-03     105.055E-03     15.5770E+06     1.16487E+06    -652.978E+03    -487.710E+03     999.607E+03     15.5770E+06         676.406         91.8366
             133     13.3427E-03     72.0348E-03         1.46175    -420.995E-03    -426.259E-03    -424.968E-03         1.46173    -422.269E-03    -11.4822E-03     602.744E-03    -298.830E-03    -302.999E-03    -299.882E-03     599.628E-03    -298.830E-03     106.078E-03     16.3471E+06     1.66449E+06    -740.470E+03    -674.313E+03     1.59833E+06     16.3471E+06    -225.955E+03         91.8461
             134     13.3447E-03     73.8719E-03         1.42676    -407.295E-03    -415.376E-03    -414.093E-03         1.42675    -408.568E-03    -8.55446E-03     603.235E-03    -298.845E-03    -303.685E-03    -300.626E-03     600.176E-03    -298.845E-03     105.156E-03     18.1710E+06     2.67489E+06    -69.0851E+03    -47.8296E+03     2.65364E+06     18.1710E+06     198.023E+03         91.8544
             135     13.3443E-03     75.7080E-03         1.39961    -395.447E-03    -410.669E-03    -410.654E-03         1.39959    -395.447E-03    -10.4269E-03     602.780E-03    -298.862E-03    -303.188E-03    -300.168E-03     599.761E-03    -298.862E-03     104.435E-03     19.2835E+06     2.50801E+06    -657.650E+03    -610.706E+03     2.46107E+06     19.2835E+06     382.629E+03         91.8613
             136     13.3461E-03     77.5448E-03         1.36005    -383.873E-03    -397.947E-03    -397.905E-03         1.36001    -383.873E-03    -16.7099E-03     602.469E-03    -298.840E-03    -302.873E-03    -299.833E-03     599.430E-03    -298.840E-03     104.736E-03     17.7052E+06     3.08846E+06    -957.632E+03    -929.905E+03     3.06073E+06     17.7052E+06     157.634E+03         91.8699
             137     13.3452E-03     79.3841E-03         1.32116    -372.863E-03    -386.633E-03    -386.592E-03         1.32112    -372.863E-03    -16.1243E-03     602.656E-03    -298.851E-03    -302.907E-03    -299.865E-03     599.614E-03    -298.851E-03     104.786E-03      18.427E+06     3.63552E+06    -472.296E+03    -469.868E+03     3.63309E+06      18.427E+06    -99.8179E+03         91.8837
             138     13.3453E-03     81.2165E-03         1.29591    -362.177E-03    -379.004E-03    -378.991E-03         1.29590    -362.177E-03    -9.00215E-03     602.790E-03    -298.901E-03    -302.901E-03    -299.825E-03     599.714E-03    -298.901E-03     105.392E-03     20.9934E+06     3.64935E+06    -340.499E+03    -329.492E+03     3.63834E+06     20.9934E+06     103.082E+03         91.9021
             139     13.3447E-03     83.0440E-03         1.27445    -353.780E-03    -375.344E-03    -375.324E-03         1.27443    -353.780E-03    -10.8249E-03     602.765E-03    -298.889E-03    -302.958E-03    -299.907E-03     599.715E-03    -298.889E-03     104.951E-03     21.0468E+06     3.70080E+06    -723.397E+03    -712.989E+03     3.69039E+06     21.0468E+06     177.866E+03         91.9201
             140     13.3449E-03     84.8719E-03         1.24709    -347.350E-03    -370.242E-03    -370.225E-03         1.24707    -347.350E-03    -7.69606E-03     602.864E-03    -298.870E-03    -303.102E-03    -300.084E-03     599.846E-03    -298.870E-03     104.419E-03     22.8955E+06     4.35963E+06    -751.500E+03    -750.788E+03     4.35891E+06     22.8955E+06     59.4441E+03         91.9349
             141     13.3461E-03     86.7018E-03         1.21026    -340.810E-03    -354.810E-03    -354.776E-03         1.21023    -340.810E-03    -10.4831E-03     602.729E-03    -298.886E-03    -302.947E-03    -299.883E-03     599.666E-03    -298.886E-03     105.173E-03     23.1250E+06     5.19283E+06    -464.112E+03    -463.816E+03     5.19254E+06     23.1250E+06     35.3573E+03         91.9487
             142     13.3462E-03     88.5308E-03         1.17755    -335.121E-03    -341.375E-03    -341.331E-03         1.17750    -335.121E-03    -4.73579E-03     602.741E-03    -298.903E-03    -302.987E-03    -299.899E-03     599.653E-03    -298.903E-03     105.575E-03     23.4583E+06     5.43999E+06    -752.433E+03    -745.921E+03     5.43348E+06     23.4583E+06     155.379E+03         91.9631
             143     13.3447E-03     90.3575E-03         1.15816    -331.273E-03    -336.933E-03    -336.919E-03         1.15815    -331.273E-03     2.01250E-03     602.992E-03    -298.915E-03    -303.048E-03    -299.968E-03     599.912E-03    -298.915E-03     105.468E-03     26.3370E+06     6.15937E+06    -811.291E+03    -786.374E+03     6.13446E+06     26.3370E+06     404.482E+03         91.9755
             144     13.3459E-03     92.1808E-03         1.14289    -328.012E-03    -335.033E-03    -335.022E-03         1.14287    -328.012E-03     1.17156E-03     602.858E-03    -298.891E-03    -302.899E-03    -299.801E-03     599.760E-03    -298.891E-03     105.750E-03     26.3774E+06     7.36290E+06    -799.900E+03    -769.188E+03     7.33219E+06     26.3774E+06     19.5226E+03         91.9865
             145     13.3465E-03     94.0036E-03         1.11219    -317.386E-03    -327.919E-03    -321.022E-03         1.11216    -324.257E-03     11.6893E-03     603.229E-03    -298.878E-03    -303.460E-03    -300.373E-03     600.142E-03    -298.878E-03     105.625E-03     27.7661E+06     7.71433E+06    -919.561E+03    -890.970E+03     7.68574E+06     27.7661E+06     19.8161E+03         91.9984
             146     13.3471E-03     95.8300E-03         1.07788    -308.718E-03    -320.030E-03    -308.697E-03         1.07786    -320.030E-03     9.97620E-03     603.252E-03    -298.889E-03    -303.505E-03    -300.463E-03     600.210E-03    -298.889E-03     104.862E-03     29.6501E+06     7.64426E+06     -692.92E+03    -669.790E+03     7.62113E+06     29.6501E+06     85.8520E+03         92.0102
             147     13.3463E-03     97.6541E-03         1.05986    -305.531E-03    -314.958E-03    -305.504E-03         1.05983    -314.958E-03     11.0548E-03     602.301E-03    -298.919E-03    -302.608E-03    -299.561E-03     599.253E-03    -298.919E-03     104.844E-03     31.3840E+06     8.02486E+06    -830.861E+03    -818.098E+03     8.01210E+06     31.3840E+06    -6.12097E+03         92.0186
             148     13.3475E-03     99.4731E-03         1.03294    -293.879E-03    -309.625E-03    -293.854E-03         1.03291    -309.625E-03     6.18320E-03     602.236E-03    -298.911E-03    -302.682E-03    -299.590E-03     599.144E-03    -298.911E-03     105.609E-03     33.3235E+06     9.71441E+06    -808.108E+03    -799.337E+03     9.70564E+06     33.3235E+06     294.518E+03         92.0225
             149     13.3467E-03     103.119E-03     982.779E-03    -283.185E-03    -296.900E-03    -283.131E-03     982.724E-03    -296.900E-03     2.52716E-03     602.338E-03    -298.889E-03    -302.845E-03    -299.766E-03     599.259E-03    -298.889E-03     105.402E-03     33.7223E+06     10.6863E+06    -1.52442E+06    -1.47224E+06     10.6341E+06     33.7223E+06    -146.915E+03         92.0350
             150     13.3477E-03     104.923E-03     948.831E-03    -268.839E-03    -287.531E-03    -268.818E-03     948.810E-03    -287.531E-03    -5.19835E-03     602.758E-03    -298.915E-03    -303.272E-03    -300.160E-03     599.646E-03    -298.915E-03     106.009E-03     36.7225E+06     11.2695E+06    -1.08495E+06    -1.05006E+06     11.2346E+06     36.7225E+06    -390.381E+03         92.0365
             151     13.3472E-03     106.739E-03     925.069E-03    -264.078E-03    -278.200E-03    -264.060E-03     925.051E-03    -278.200E-03    -4.62062E-03     602.891E-03    -298.973E-03    -303.485E-03    -300.440E-03     599.846E-03    -298.973E-03     104.887E-03     38.6016E+06     12.2096E+06    -767.432E+03    -733.726E+03     12.1759E+06     38.6016E+06     561.121E+03         92.0316
             152     13.3471E-03     108.554E-03     894.355E-03    -259.687E-03    -269.339E-03    -259.644E-03     894.311E-03    -269.339E-03    -14.0265E-03     602.295E-03    -299.015E-03    -302.770E-03    -299.716E-03     599.241E-03    -299.015E-03     104.973E-03     40.2994E+06     13.3003E+06    -1.14043E+06    -1.10778E+06     13.2677E+06     40.2994E+06     474.490E+03         92.0403
             153     13.3483E-03     110.368E-03     856.388E-03    -246.616E-03    -258.227E-03    -246.569E-03     856.341E-03    -258.227E-03    -14.3532E-03     601.925E-03    -299.015E-03    -302.467E-03    -299.365E-03     598.823E-03    -299.015E-03     105.752E-03     41.6962E+06     13.5335E+06    -1.66857E+06    -1.66855E+06     13.5335E+06     41.6962E+06     2.02105E+03         92.0791
             154     13.3498E-03     112.175E-03     818.972E-03    -232.183E-03    -245.144E-03    -232.133E-03     818.922E-03    -245.144E-03    -14.4292E-03     602.314E-03    -299.022E-03    -303.197E-03    -300.111E-03     599.229E-03    -299.022E-03     105.536E-03     43.8366E+06     14.8038E+06    -1.23194E+06    -1.23159E+06     14.8034E+06     43.8366E+06     62.5658E+03         92.1339
             155     13.3487E-03     113.984E-03     788.844E-03    -224.426E-03    -232.852E-03    -224.395E-03     788.813E-03    -232.852E-03    -5.85885E-03     602.882E-03    -299.044E-03    -303.791E-03    -300.731E-03     599.822E-03    -299.044E-03     105.164E-03     47.2387E+06     16.3413E+06    -742.146E+03    -727.556E+03     16.3267E+06     47.2387E+06     409.865E+03         92.1788
             156     13.3483E-03     115.813E-03     768.721E-03    -218.500E-03    -227.817E-03    -225.584E-03     768.713E-03    -220.725E-03    -1.68428E-03     602.565E-03    -299.057E-03    -303.397E-03    -300.316E-03     599.483E-03    -299.057E-03     105.491E-03     47.7125E+06     17.3538E+06    -1.55720E+06    -1.54284E+06     17.3395E+06     47.7125E+06     323.509E+03         92.2143
             157     13.3496E-03     117.640E-03     725.320E-03    -205.303E-03    -215.229E-03    -212.321E-03     725.246E-03    -208.137E-03    -14.4966E-03     602.272E-03    -299.074E-03    -302.898E-03    -299.793E-03     599.167E-03    -299.074E-03     105.843E-03     49.9382E+06     18.1771E+06    -1.31259E+06    -1.31224E+06     18.1767E+06     49.9382E+06     12.7688E+03         92.2544
             158     13.3502E-03     119.472E-03     679.304E-03    -192.534E-03    -198.470E-03    -195.534E-03     679.202E-03    -195.368E-03    -18.6314E-03     602.446E-03    -299.076E-03    -302.851E-03    -299.769E-03     599.364E-03    -299.076E-03     105.458E-03     54.6474E+06     18.0845E+06    -1.40578E+06    -1.40524E+06     18.0840E+06     54.6474E+06    -9.32684E+03         92.3025
             159     13.3503E-03     121.305E-03     660.159E-03    -183.029E-03    -194.417E-03    -194.180E-03     659.922E-03    -183.029E-03    -26.2061E-03     602.308E-03    -299.057E-03    -302.791E-03    -299.711E-03     599.229E-03    -299.057E-03     105.411E-03     57.3846E+06     18.8178E+06    -1.58431E+06    -1.57151E+06     18.8050E+06     57.3846E+06     305.475E+03         92.3550
             160     13.3507E-03     123.138E-03     639.639E-03    -172.281E-03    -191.103E-03    -190.688E-03     639.223E-03    -172.281E-03    -37.1491E-03     602.266E-03    -299.053E-03    -303.009E-03    -299.859E-03     599.116E-03    -299.053E-03     106.609E-03     59.3728E+06     20.9093E+06    -1.87600E+06    -1.84244E+06     20.8757E+06     59.3728E+06     870.438E+03         92.4035
             161     13.3519E-03     124.972E-03     608.267E-03    -162.180E-03    -184.985E-03    -184.478E-03     607.759E-03    -162.180E-03    -39.9358E-03     602.669E-03    -299.044E-03    -303.470E-03    -300.311E-03     599.509E-03    -299.044E-03     106.819E-03     63.1315E+06     23.4731E+06    -1.83764E+06    -1.80932E+06     23.4448E+06     63.1315E+06     202.387E+03         92.4427
             162     13.3534E-03     126.789E-03     565.153E-03    -151.534E-03    -168.262E-03    -167.684E-03     564.575E-03    -151.534E-03    -41.1553E-03     602.794E-03    -298.983E-03    -303.431E-03    -300.310E-03     599.672E-03    -298.983E-03     106.192E-03     69.2235E+06     25.1158E+06    -1.39864E+06    -1.35956E+06     25.0767E+06     69.2235E+06     348.692E+03         92.4751
             163     13.3530E-03     128.594E-03     537.603E-03    -142.506E-03    -155.584E-03    -154.924E-03     536.943E-03    -142.506E-03    -42.6504E-03     602.013E-03    -298.925E-03    -303.080E-03    -299.972E-03     598.906E-03    -298.925E-03     105.883E-03     74.5498E+06     26.8253E+06    -1.92462E+06    -1.89186E+06     26.7925E+06     74.5498E+06     536.827E+03         92.5075
             164     13.3545E-03     130.409E-03     530.088E-03    -137.632E-03    -159.987E-03    -159.554E-03     529.654E-03    -137.632E-03    -31.6184E-03     601.398E-03    -298.924E-03    -302.969E-03    -299.849E-03     598.278E-03    -298.924E-03     106.048E-03     77.9130E+06     28.1194E+06    -2.02122E+06    -2.01676E+06     28.1149E+06     77.9130E+06     111.158E+03         92.5331
             165     13.3561E-03     132.232E-03     511.734E-03    -133.999E-03    -159.622E-03    -159.244E-03     511.356E-03    -133.999E-03    -29.3077E-03     601.603E-03    -298.937E-03    -303.112E-03    -299.915E-03     598.406E-03    -298.937E-03     107.372E-03     81.4101E+06     30.4015E+06    -2.15466E+06    -2.14277E+06     30.3896E+06     81.4101E+06     613.547E+03         92.5231
             166     13.3589E-03     134.075E-03     481.675E-03    -128.106E-03    -146.427E-03    -145.758E-03     481.005E-03    -128.106E-03    -40.9547E-03     601.561E-03    -298.936E-03    -303.282E-03    -300.046E-03     598.325E-03    -298.936E-03     108.028E-03     85.2385E+06     33.6399E+06    -2.62052E+06    -2.61195E+06     33.6313E+06     85.2385E+06     447.137E+03         92.4758
             167     13.3589E-03     135.904E-03     448.507E-03    -120.713E-03    -128.651E-03    -126.635E-03     447.994E-03    -122.215E-03    -33.9421E-03     601.143E-03    -298.911E-03    -303.513E-03    -300.360E-03     597.990E-03    -298.911E-03     106.627E-03     89.9428E+06     36.2116E+06    -2.53551E+06    -2.52035E+06     36.1964E+06     89.9428E+06     611.398E+03         92.4319
             168     13.3600E-03     137.732E-03     432.970E-03    -118.653E-03    -124.417E-03    -122.581E-03     432.636E-03    -120.156E-03    -27.2300E-03     600.639E-03    -298.885E-03    -303.466E-03    -300.324E-03     597.497E-03    -298.885E-03     106.402E-03     93.3416E+06     38.5808E+06    -2.72951E+06    -2.71457E+06     38.5659E+06     93.3416E+06     552.313E+03         92.4131
             169     13.3624E-03     139.550E-03     435.289E-03    -120.942E-03    -133.468E-03    -133.142E-03     434.963E-03    -120.942E-03    -27.2164E-03     599.980E-03    -298.853E-03    -303.224E-03    -299.964E-03     596.720E-03    -298.853E-03     108.319E-03     96.9266E+06     41.0375E+06    -2.51773E+06    -2.51076E+06     41.0306E+06     96.9266E+06     399.241E+03         92.3805
             170     13.3645E-03     141.386E-03     419.489E-03    -119.509E-03    -128.270E-03    -128.013E-03     419.232E-03    -119.509E-03    -23.6628E-03     599.862E-03    -298.796E-03    -302.677E-03    -299.388E-03     596.572E-03    -298.796E-03     108.781E-03     100.506E+06     45.0210E+06    -2.30916E+06    -2.28303E+06     44.9949E+06     100.506E+06     1.08620E+06         92.2613
             171     13.3685E-03     143.214E-03     386.598E-03    -107.624E-03    -116.105E-03    -107.780E-03     386.258E-03    -115.609E-03    -25.1921E-03     600.544E-03    -298.670E-03    -302.777E-03    -299.514E-03     597.281E-03    -298.670E-03     108.384E-03     102.380E+06     50.5555E+06    -3.01085E+06    -2.98089E+06     50.5256E+06     102.380E+06     1.24709E+06         92.0192
             172     13.3700E-03     145.055E-03     366.828E-03    -100.086E-03    -113.167E-03    -99.7850E-03     366.527E-03    -113.167E-03    -7.47287E-03     599.801E-03    -298.551E-03    -302.936E-03    -299.694E-03     596.559E-03    -298.551E-03     107.999E-03     105.943E+06     56.4983E+06    -3.08335E+06    -3.06514E+06     56.4801E+06     105.943E+06     1.03471E+06         91.6943
             173     13.3736E-03     146.879E-03     367.248E-03    -105.611E-03    -112.225E-03    -105.522E-03     367.159E-03    -112.225E-03     12.7064E-03     597.886E-03    -298.445E-03    -301.912E-03    -298.643E-03     594.616E-03    -298.445E-03     108.279E-03     107.504E+06     60.2693E+06    -3.44162E+06    -3.42196E+06     60.2497E+06     107.504E+06     1.11205E+06         91.3644
             174     13.3776E-03     148.693E-03     358.879E-03    -105.750E-03    -111.015E-03    -105.711E-03     358.840E-03    -111.015E-03     2.10448E-03     596.221E-03    -298.323E-03    -301.068E-03    -297.700E-03     592.853E-03    -298.323E-03     109.730E-03     109.356E+06     62.5599E+06    -3.66732E+06    -3.65475E+06     62.5473E+06     109.356E+06     530.265E+03         91.0854
             175     13.3828E-03     150.488E-03     328.620E-03    -92.5552E-03    -107.330E-03    -92.5156E-03     328.581E-03    -107.330E-03     1.70101E-03     594.588E-03    -298.175E-03    -299.800E-03    -296.313E-03     591.101E-03    -298.175E-03     111.475E-03     113.203E+06     65.7946E+06    -2.77717E+06    -2.74084E+06     65.7582E+06     113.203E+06     1.02050E+06         90.8674
             176     13.3918E-03     152.268E-03     304.119E-03    -80.7485E-03    -100.562E-03    -80.7146E-03     304.085E-03    -100.562E-03     2.86693E-03     593.415E-03    -297.554E-03    -298.260E-03    -294.336E-03     589.829E-03    -297.893E-03     112.834E-03     116.373E+06     71.2521E+06    -3.81296E+06    -3.76480E+06     71.2040E+06     116.373E+06     1.82035E+06         90.6938
             177     13.3999E-03     154.042E-03     299.222E-03    -78.5355E-03    -94.2037E-03    -78.3729E-03     299.059E-03    -94.2037E-03     9.01549E-03     592.598E-03    -296.405E-03    -297.278E-03    -293.263E-03     588.923E-03    -296.744E-03     114.115E-03     120.192E+06     78.6260E+06    -3.38690E+06    -3.33247E+06     78.5716E+06     120.192E+06     2.02927E+06         90.5536
             178     13.4100E-03     155.807E-03     292.164E-03    -83.0487E-03    -90.5132E-03    -83.4376E-03     291.972E-03    -89.9316E-03     5.81715E-03     590.796E-03    -295.228E-03    -296.124E-03    -292.351E-03     587.022E-03    -295.228E-03     115.451E-03     122.659E+06     85.1837E+06    -4.09131E+06    -4.04639E+06     85.1388E+06     122.659E+06     1.68543E+06         90.4545
             179     13.4219E-03     157.560E-03     272.899E-03    -81.4646E-03    -85.3533E-03    -82.0064E-03     272.859E-03    -84.7717E-03    -3.31397E-03     589.228E-03    -294.504E-03    -295.363E-03    -291.638E-03     585.504E-03    -294.504E-03     114.552E-03     126.209E+06     90.7076E+06    -3.65851E+06    -3.64196E+06     90.6911E+06     126.209E+06     1.16270E+06         90.4037
             180     13.4317E-03     159.313E-03     242.668E-03    -68.7541E-03    -76.0374E-03    -68.6194E-03     242.534E-03    -76.0374E-03    -6.81156E-03     588.740E-03    -293.791E-03    -294.998E-03    -291.330E-03     585.073E-03    -293.791E-03     113.622E-03     130.432E+06     95.9382E+06    -4.05912E+06    -4.04094E+06     95.9201E+06     130.432E+06     1.28423E+06         90.3934
             181     13.4424E-03     161.070E-03     222.356E-03    -61.8707E-03    -66.3432E-03    -61.7409E-03     222.226E-03    -66.3432E-03    -8.73929E-03     587.621E-03    -293.024E-03    -294.715E-03    -291.003E-03     583.909E-03    -293.024E-03     114.215E-03     135.269E+06     100.987E+06    -3.99591E+06    -3.98977E+06     100.981E+06     135.269E+06     787.248E+03         90.4220
             182     13.4516E-03     162.838E-03     214.904E-03    -58.6629E-03    -61.3082E-03    -60.8063E-03     214.898E-03    -59.1591E-03     1.62500E-03     586.128E-03    -292.754E-03    -294.244E-03    -290.618E-03     582.503E-03    -292.754E-03     112.747E-03     136.355E+06     104.207E+06    -3.15281E+06    -3.12998E+06     104.184E+06     136.355E+06     1.38847E+06         90.4981
             183     13.4600E-03     164.588E-03     205.810E-03    -53.7153E-03    -67.3806E-03    -67.1361E-03     205.566E-03    -53.7153E-03    -9.75183E-03     584.388E-03    -292.422E-03    -293.549E-03    -290.002E-03     580.842E-03    -292.422E-03     111.374E-03     138.402E+06     112.441E+06    -4.03376E+06    -3.92540E+06     112.333E+06     138.402E+06     3.38737E+06         90.6336
             184     13.4688E-03     166.344E-03     189.801E-03    -47.4228E-03    -60.4998E-03    -60.2587E-03     189.560E-03    -47.4228E-03    -12.5379E-03     583.150E-03    -291.789E-03    -293.009E-03    -289.505E-03     579.645E-03    -291.789E-03     110.602E-03     143.631E+06     122.127E+06    -3.64902E+06    -3.56073E+06     122.038E+06     143.631E+06     2.07227E+06         90.8611
             185     13.4737E-03     168.111E-03     167.637E-03    -39.4520E-03    -52.0785E-03    -51.8774E-03     167.436E-03    -39.4520E-03    -10.3005E-03     581.930E-03    -290.611E-03    -292.533E-03    -289.212E-03     578.609E-03    -290.611E-03     107.545E-03     148.144E+06     127.829E+06    -3.07423E+06    -3.01293E+06     127.767E+06     148.144E+06     1.76196E+06         91.1710
             186     13.4839E-03     169.800E-03     153.016E-03    -32.1092E-03    -48.0724E-03    -47.8736E-03     152.818E-03    -32.1092E-03    -9.44789E-03     583.293E-03    -289.515E-03    -294.714E-03    -291.152E-03     579.730E-03    -289.515E-03     111.494E-03     152.436E+06     132.607E+06    -4.47593E+06    -4.40486E+06     132.536E+06     152.436E+06     1.13340E+06         91.5060
             187     13.4895E-03     171.633E-03     137.347E-03    -28.7081E-03    -42.1392E-03    -41.6193E-03     136.827E-03    -28.7081E-03     13.2121E-03     586.265E-03    -289.159E-03    -297.360E-03    -293.729E-03     582.634E-03    -289.159E-03     112.958E-03     156.347E+06     136.452E+06    -5.54891E+06    -5.50597E+06     136.409E+06     156.347E+06     648.862E+03         91.9199
             188     13.4937E-03     173.433E-03     135.370E-03    -28.2459E-03    -50.0222E-03    -49.3867E-03     134.735E-03    -28.2459E-03     20.1391E-03     588.219E-03    -289.096E-03    -299.710E-03    -296.507E-03     585.016E-03    -289.096E-03     106.436E-03     162.202E+06     140.736E+06    -6.06731E+06    -6.00113E+06     140.670E+06     162.202E+06    -82.9172E+03         92.5376
             189     13.4964E-03     175.141E-03     119.975E-03    -26.7784E-03    -42.4216E-03    -42.2545E-03     119.808E-03    -26.7784E-03     3.12848E-03     591.819E-03    -288.837E-03    -304.700E-03    -301.547E-03     588.666E-03    -288.837E-03     106.129E-03     171.078E+06     141.910E+06    -4.04366E+06    -3.95417E+06     141.821E+06     171.078E+06     378.355E+03         93.3739
             190     13.5020E-03     176.920E-03     98.2835E-03    -22.6698E-03    -31.1428E-03    -30.8038E-03     97.9445E-03    -22.6698E-03     5.05307E-03     596.972E-03    -288.474E-03    -309.998E-03    -306.538E-03     593.511E-03    -288.474E-03     111.782E-03     181.562E+06     140.893E+06    -5.53050E+06    -5.46864E+06     140.831E+06     181.562E+06     1.28851E+06         94.4214
             191     13.5032E-03     178.769E-03     82.2704E-03    -12.9474E-03    -26.2029E-03    -15.9707E-03     79.2211E-03    -20.1303E-03    -10.3709E-03     602.694E-03    -288.454E-03    -315.179E-03    -311.514E-03     599.029E-03    -288.454E-03     115.760E-03     184.381E+06     138.255E+06    -5.90199E+06    -5.89469E+06     138.248E+06     184.381E+06    -956.378E+03         95.7124
             192     13.5047E-03     180.636E-03     77.9750E-03    -15.3188E-03    -29.9458E-03    -17.6217E-03     72.8338E-03    -22.5017E-03     5.39619E-03     609.666E-03    -288.296E-03    -322.203E-03    -318.671E-03     606.134E-03    -288.296E-03     114.498E-03     182.247E+06     129.705E+06    -5.64657E+06    -5.47539E+06     129.533E+06     182.247E+06    -3.64396E+06         97.1018
             193     13.5052E-03     182.434E-03     79.6354E-03    -24.9053E-03    -34.1359E-03    -30.5061E-03     76.0056E-03    -24.9053E-03     9.04805E-03     618.729E-03    -287.967E-03    -331.325E-03    -327.940E-03     615.343E-03    -287.967E-03     113.217E-03     179.898E+06     125.624E+06    -2.47646E+06    -2.00861E+06     125.156E+06     179.898E+06     870.500E+03         98.3230
             194     13.5061E-03     184.255E-03     59.1876E-03    -21.1981E-03    -24.5031E-03    -20.1215E-03     56.3245E-03    -22.7166E-03    -1.04125E-03     630.320E-03    -287.691E-03    -342.651E-03    -339.282E-03     626.951E-03    -287.691E-03     114.319E-03     174.218E+06     124.522E+06    -7.65625E+06    -7.02834E+06     123.894E+06     174.218E+06    -592.695E+03         99.2663
             195     13.5059E-03     186.096E-03     40.6980E-03    -6.88753E-03    -18.9434E-03    -2.57988E-03     36.3904E-03    -18.9434E-03     3.29167E-03     641.736E-03    -287.522E-03    -353.662E-03    -350.397E-03     638.470E-03    -287.522E-03     113.807E-03     175.782E+06     120.409E+06    -5.43905E+06    -4.80280E+06     119.773E+06     175.782E+06    -765.046E+03         100.022
             196     13.5072E-03     187.930E-03     33.4097E-03    -7.46321E-03    -18.0492E-03    -550.424E-06     26.4969E-03    -18.0492E-03     8.47162E-03     648.325E-03    -287.486E-03    -360.345E-03    -357.256E-03     645.236E-03    -287.486E-03     111.472E-03     172.487E+06     107.414E+06    -8.28241E+06    -6.67572E+06     105.808E+06     172.487E+06    -4.74596E+06         100.695
             197     13.5057E-03     189.749E-03     37.7824E-03    -11.1519E-03    -17.1556E-03    -5.86171E-03     32.4921E-03    -17.1556E-03     10.0338E-03     651.133E-03    -287.442E-03    -363.429E-03    -360.399E-03     648.103E-03    -287.442E-03     110.726E-03     173.219E+06     91.2668E+06    -4.22002E+06    -1.66919E+06     88.7160E+06     173.219E+06    -2.38740E+06         101.335
             198     13.5080E-03     191.606E-03     38.4438E-03    -8.14521E-03    -18.6171E-03    -11.5741E-03     37.3557E-03    -14.1001E-03    -10.8520E-03     648.600E-03    -287.468E-03    -360.972E-03    -358.224E-03     645.851E-03    -287.468E-03     105.089E-03     174.489E+06     78.3633E+06    -5.96615E+06    -3.59162E+06     75.9888E+06     174.489E+06    -976.986E+03         101.835
             199     13.5059E-03     193.413E-03     23.1808E-03    -3.27088E-03    -13.6489E-03    -6.50519E-03     21.8980E-03    -9.13191E-03    -3.23788E-03     637.968E-03    -287.712E-03    -350.671E-03    -348.173E-03     635.471E-03    -287.712E-03     99.2472E-03     182.711E+06     71.5814E+06     1.73068E+06     4.03732E+06     69.2747E+06     182.711E+06    -2.70888E+06         102.204
             200     13.5113E-03     195.259E-03     6.61704E-03     3.51140E-03    -5.20041E-03     4.23128E-03     3.04637E-03    -2.34963E-03    -5.82488E-03     616.440E-03    -288.225E-03    -329.017E-03    -326.795E-03     614.219E-03    -288.225E-03     91.4291E-03     187.618E+06     65.3105E+06     1.13215E+06     3.46170E+06     62.9810E+06     187.618E+06    -2.33403E+06         102.382
             201     13.5083E-03     197.169E-03     8.20785E-03     5.43337E-03    -13.8959E-03     4.79149E-03    -10.4795E-03     5.43337E-03     6.70998E-03     583.377E-03    -282.208E-03    -301.564E-03    -293.124E-03     581.483E-03    -288.755E-03     81.4804E-03     177.956E+06     56.9531E+06    -3.77336E+06     1.46781E+06     51.7119E+06     177.956E+06     70.3385E+03         102.638
             202     13.5167E-03     198.974E-03     15.0862E-03     7.97973E-03    -17.0617E-03     1.29317E-03    -8.73898E-03     13.4501E-03     3.44149E-03     487.785E-03    -196.868E-03    -291.270E-03    -195.876E-03     486.793E-03    -291.270E-03     31.6287E-03     152.576E+06     62.8006E+06    -11.3262E+06    -4.60308E+06     56.0775E+06     152.576E+06    -4.92657E+06         103.317
             203     12.5141E-03     200.452E-03     17.6328E-03     4.44591E-03    -14.9152E-03    -2.27329E-03    -8.19598E-03     17.6328E-03    -9.54221E-03     414.474E-03    -116.354E-03    -298.839E-03    -112.903E-03     411.024E-03    -298.839E-03    -67.6713E-03     109.003E+06     14.3831E+06    -70.0401E+06    -44.4794E+06    -11.1776E+06     109.003E+06    -21.3599E+06         101.613
             204     11.5838E-03     200.185E-03     17.9976E-03     4.44780E-03    -15.4833E-03     2.36854E-03    -13.4040E-03     17.9976E-03     5.15475E-03     420.438E-03    -112.727E-03    -308.425E-03    -99.6124E-03     407.324E-03    -308.425E-03    -159.707E-03     111.670E+06     295.972E+03    -61.3310E+06    -38.3927E+06    -22.6424E+06     111.670E+06    -9.81817E+06         96.4720
             205     10.7150E-03     199.808E-03     17.5912E-03     8.34750E-03    -20.0150E-03    -3.08423E-03    -8.58324E-03     17.5912E-03     26.7152E-03     437.448E-03    -120.278E-03    -317.553E-03    -94.8062E-03     411.976E-03    -317.553E-03    -231.659E-03     113.054E+06     19.5771E+06    -24.2638E+06    -18.4588E+06     13.7721E+06     113.054E+06    -4.75851E+06         90.3347
             206     9.88092E-03     199.476E-03     16.7297E-03     11.7911E-03    -24.6691E-03    -8.14657E-03    -4.73138E-03     16.7297E-03     36.0597E-03     471.810E-03    -145.963E-03    -325.714E-03    -109.968E-03     435.816E-03    -325.714E-03    -289.232E-03     100.404E+06     7.46935E+06    -18.8206E+06    -5.79181E+06    -5.55939E+06     100.404E+06    -12.8218E+06         84.4790
             207     9.08707E-03     199.148E-03     15.8453E-03     12.5106E-03    -18.9296E-03    -10.6098E-03     4.19081E-03     15.8453E-03     25.6837E-03     512.423E-03    -180.742E-03    -331.180E-03    -136.974E-03     468.655E-03    -331.180E-03    -337.165E-03     102.211E+06       7.687E+06    -16.9765E+06    -5.05028E+06    -4.23921E+06     102.211E+06    -12.0598E+06         79.5170
             208     8.32961E-03     198.844E-03     15.3254E-03     7.84147E-03    -10.6149E-03    -6.27068E-03     3.49728E-03     15.3254E-03     12.8789E-03     554.385E-03    -217.650E-03    -335.019E-03    -169.652E-03     506.387E-03    -335.019E-03    -372.788E-03     100.351E+06     3.47955E+06    -17.1681E+06    -4.73727E+06    -8.95130E+06     100.351E+06    -10.0870E+06         75.6973
             209     7.59221E-03     198.608E-03     15.0029E-03     6.99543E-03    -7.08863E-03     5.50479E-03    -5.59799E-03     15.0029E-03     2.75705E-03     590.262E-03    -250.705E-03    -337.633E-03    -203.038E-03     542.595E-03    -337.633E-03    -388.706E-03     100.092E+06     5.08404E+06    -20.8419E+06    -7.57057E+06    -8.18728E+06     100.092E+06    -12.8309E+06         73.2213
             210     6.88308E-03     198.369E-03     21.9925E-03     12.3580E-03    -18.0441E-03     17.0274E-03    -15.4091E-03     14.6881E-03    -17.4640E-03     618.866E-03    -279.656E-03    -338.926E-03    -236.066E-03     575.276E-03    -338.926E-03    -385.609E-03     96.6237E+06     7.99006E+06    -22.4164E+06    -5.58569E+06    -8.84065E+06     96.6237E+06    -14.8315E+06         72.2780
             211     6.19504E-03     198.162E-03     31.3018E-03     14.2340E-03    -37.2862E-03     26.2978E-03    -32.2822E-03     14.2340E-03    -35.4116E-03     646.215E-03    -306.641E-03    -338.802E-03    -270.045E-03     609.619E-03    -338.802E-03    -365.222E-03     92.3200E+06     22.9033E+06    -21.8588E+06     5.67113E+06    -4.62658E+06     92.3200E+06    -21.7691E+06         72.6041
             212     5.52637E-03     197.990E-03     39.4820E-03     12.6432E-03    -49.6998E-03     36.8133E-03    -47.0311E-03     12.6432E-03    -26.2786E-03     668.138E-03    -326.965E-03    -338.447E-03    -301.674E-03     640.706E-03    -336.307E-03    -324.494E-03     81.1357E+06     23.1258E+06    -32.8517E+06     5.72740E+06    -15.4533E+06     81.1357E+06    -25.4107E+06         73.3761
             213     4.85600E-03     197.891E-03     45.8634E-03     8.52429E-03    -46.5389E-03     45.5947E-03    -46.2702E-03     8.52429E-03    -8.39765E-03     677.531E-03    -332.622E-03    -344.363E-03    -325.774E-03     658.943E-03    -332.622E-03    -271.464E-03     74.2141E+06     23.7670E+06    -30.6370E+06     10.4631E+06    -17.3331E+06     74.2141E+06    -23.3639E+06         73.9878
             214     4.19583E-03     197.747E-03     42.4136E-03     2.14566E-03    -38.6067E-03     40.3508E-03    -36.5438E-03     2.14566E-03     15.6222E-03     681.206E-03    -328.424E-03    -352.768E-03    -341.471E-03     669.909E-03    -328.424E-03    -212.309E-03     67.6411E+06     27.5574E+06    -22.2762E+06     16.5746E+06    -11.2933E+06     67.6411E+06    -20.5069E+06         74.3420
             215     3.53498E-03     197.715E-03     42.7133E-03    -5.01544E-03    -22.7773E-03     33.8411E-03    -13.2199E-03    -5.70056E-03     40.8389E-03     678.559E-03    -322.743E-03    -355.008E-03    -349.707E-03     673.258E-03    -322.743E-03    -142.962E-03     54.8910E+06     29.5019E+06    -20.8473E+06     20.5998E+06    -11.9451E+06     54.8910E+06    -19.2082E+06         74.4595
             216     2.87398E-03     197.636E-03     51.9169E-03    -11.6133E-03    -14.9165E-03     26.6152E-03     13.6883E-03    -14.9165E-03     59.6668E-03     663.488E-03    -316.070E-03    -348.078E-03    -346.535E-03     661.945E-03    -316.070E-03    -71.9504E-03     41.2520E+06     32.7351E+06    -19.4110E+06     23.0008E+06    -9.67678E+06     41.2520E+06    -20.3044E+06         74.3112
             217     2.19350E-03     197.709E-03     60.1143E-03    -18.7997E-03    -24.6819E-03     12.4116E-03     28.9029E-03    -24.6819E-03     76.0762E-03     640.704E-03    -308.238E-03    -332.136E-03    -331.932E-03     640.501E-03    -308.238E-03    -13.1495E-03     31.3949E+06     24.9616E+06    -20.3708E+06     20.8605E+06    -11.6855E+06     26.8107E+06    -18.8498E+06         73.8824
             218     1.49166E-03     197.707E-03     76.6643E-03    -16.7038E-03    -30.4947E-03     3.32267E-03     56.6378E-03    -30.4947E-03     73.2043E-03     614.676E-03    -300.485E-03    -313.328E-03    -313.112E-03     614.460E-03    -300.485E-03     24.8865E-03     31.9883E+06     19.0652E+06    -14.9069E+06     23.7645E+06    -6.68303E+06     19.0652E+06    -17.7479E+06         73.3092
             219     766.529E-06     197.896E-03     132.248E-03     40.0000E-03    -95.4041E-03     82.5019E-03     89.7466E-03    -95.4041E-03     61.5201E-03     592.128E-03    -286.472E-03    -305.423E-03    -305.105E-03     591.810E-03    -286.472E-03     33.5765E-03     25.5412E+06     16.2116E+06    -11.8219E+06     19.7183E+06    -5.99907E+06     16.2116E+06    -13.1244E+06         72.8735
             220    -1.54546E-06     196.194E-03     186.731E-03     74.2161E-03    -208.264E-03     113.654E-03     147.294E-03    -208.264E-03    -196.166E-06     594.751E-03    -287.514E-03    -307.115E-03    -302.858E-03     594.576E-03    -291.597E-03     4.83352E-03    -8.39022E+06    -12.6018E+06    -48.2111E+06    -12.9517E+06    -46.8705E+06    -9.38091E+06    -6.14101E+06         70.9770
             221    -6.12698E-06     194.300E-03     201.040E-03     43.5726E-03    -239.072E-03     131.147E-03    -11.5751E-03    -114.031E-03     16.4343E-03     584.749E-03    -289.012E-03    -295.616E-03    -288.955E-03     584.693E-03    -295.616E-03    -12.0525E-03    -67.6154E+06    -98.7404E+06    -123.380E+06    -100.905E+06    -93.3111E+06    -95.5195E+06    -5.14165E+06         67.0514
             222     1.30028E-06     192.538E-03     142.801E-03     13.4729E-03    -138.956E-03     133.095E-03    -101.862E-03    -13.9151E-03     13.2890E-03     547.135E-03    -271.958E-03    -275.199E-03    -271.953E-03     547.131E-03    -275.199E-03    -3.77331E-03    -146.008E+06    -225.935E+06    -232.391E+06    -231.247E+06    -147.152E+06    -225.935E+06    -9.78082E+06         63.4297
             223    -3.16468E-06     190.831E-03     107.791E-03    -14.5133E-03    -74.8137E-03     21.2398E-03     72.0375E-03    -74.8137E-03    -46.0890E-03     520.256E-03    -258.929E-03    -261.279E-03    -258.927E-03     520.254E-03    -261.279E-03    -2.01920E-03    -210.963E+06    -296.886E+06    -303.731E+06    -300.227E+06    -211.910E+06    -299.443E+06    -5.60448E+06         61.0840
             224    -424.929E-09     189.150E-03     172.290E-03    -45.5141E-03    -103.260E-03    -42.7842E-03     169.560E-03    -103.260E-03    -47.9097E-03     501.051E-03    -249.125E-03    -251.904E-03    -249.125E-03     501.050E-03    -251.904E-03     431.272E-06    -181.982E+06    -219.892E+06    -263.053E+06    -215.891E+06    -226.587E+06    -222.449E+06     3.16625E+06         59.5778
             225    -2.26290E-06     187.514E-03     156.405E-03    -40.9048E-03    -83.7155E-03    -35.4068E-03     150.907E-03    -83.7155E-03    -6.16949E-03     486.971E-03    -242.797E-03    -244.162E-03    -243.010E-03     486.966E-03    -243.945E-03     3.25886E-03    -117.464E+06    -124.063E+06    -208.433E+06    -120.121E+06    -208.362E+06    -121.475E+06     1.54775E+06         58.5637
             226     2.08852E-06     185.895E-03     69.7599E-03    -6.74142E-03    -42.0446E-03    -3.17569E-03     66.1941E-03    -42.0446E-03     30.9588E-03     477.754E-03    -237.459E-03    -240.317E-03    -240.308E-03     477.745E-03    -237.459E-03     5.07871E-03    -115.210E+06    -120.246E+06    -202.635E+06    -117.841E+06    -202.591E+06    -117.659E+06    -1.52483E+06         57.8679
             227     1.84639E-06     184.287E-03     36.4715E-03     15.0996E-03    -46.7854E-03     18.9249E-03    -11.9124E-03    -2.22678E-03     14.4241E-03     472.412E-03    -234.102E-03    -238.447E-03    -238.431E-03     472.396E-03    -234.102E-03     6.64285E-03    -132.114E+06    -137.198E+06    -217.600E+06    -134.802E+06    -217.547E+06    -134.563E+06    -1.98804E+06         57.4322
             228     757.896E-09     182.683E-03     45.2132E-03     11.6699E-03    -49.6002E-03     15.0757E-03    -19.4627E-03     11.6699E-03     55.1353E-03     470.591E-03    -233.990E-03    -236.738E-03    -236.716E-03     470.569E-03    -233.990E-03     7.90611E-03    -142.261E+06    -146.880E+06    -236.180E+06    -145.007E+06    -236.069E+06    -144.245E+06    -2.89052E+06         57.3818
             229     896.750E-09     181.089E-03     131.090E-03    -36.4763E-03    -65.2510E-03    -48.7842E-03     114.624E-03    -36.4763E-03     41.9198E-03     474.415E-03    -236.434E-03    -238.075E-03    -238.049E-03     474.389E-03    -236.434E-03     8.52263E-03    -148.276E+06    -151.729E+06    -254.044E+06    -149.866E+06    -253.924E+06    -150.260E+06    -3.27596E+06         57.9168
             230     411.270E-09     179.489E-03     207.132E-03    -67.9158E-03    -94.5387E-03    -76.0551E-03     203.208E-03    -82.4755E-03     43.4605E-03     486.331E-03    -242.829E-03    -243.538E-03    -243.502E-03     486.295E-03    -242.829E-03     10.2038E-03    -158.649E+06    -160.833E+06    -267.861E+06    -160.147E+06    -267.833E+06    -159.363E+06    -429.105E+03         59.0757
             231     481.184E-09     177.852E-03     169.221E-03    -45.6733E-03    -87.0432E-03    -65.0891E-03     161.827E-03    -60.2330E-03     83.1904E-03     502.795E-03    -251.007E-03    -251.566E-03    -251.085E-03     502.760E-03    -251.452E-03     10.2149E-03    -159.197E+06    -160.167E+06    -273.643E+06    -159.649E+06    -273.448E+06    -159.911E+06    -2.76221E+06         60.5617
             232    -1.15291E-06     176.178E-03     114.548E-03     13.1784E-03    -75.2340E-03     10.6935E-03     28.6207E-03     13.1784E-03     65.4721E-03     518.138E-03    -258.207E-03    -260.136E-03    -258.179E-03     518.111E-03    -260.136E-03     9.31222E-03    -165.798E+06    -166.420E+06    -288.651E+06    -166.242E+06    -288.463E+06    -166.164E+06    -3.29432E+06         61.9138
             233    -1.36757E-06     174.477E-03     96.4581E-03     58.2403E-03    -87.1477E-03     70.0497E-03    -75.7505E-03     73.2516E-03     79.8776E-03     535.211E-03    -266.343E-03    -269.229E-03    -266.323E-03     535.191E-03    -269.229E-03     7.77815E-03    -164.460E+06    -165.369E+06    -296.662E+06    -164.463E+06    -296.659E+06    -165.369E+06     539.739E+03         62.8950
             234    -537.435E-09     172.772E-03     160.085E-03     4.59912E-03    -96.9263E-03    -21.4690E-03     69.6166E-03     19.6104E-03     73.1210E-03     550.964E-03    -274.021E-03    -276.932E-03    -274.014E-03     550.956E-03    -276.932E-03     4.92038E-03    -154.413E+06    -157.036E+06    -296.034E+06    -156.577E+06    -295.950E+06    -154.956E+06    -1.91175E+06         63.6942
             235    -1.00090E-06     171.031E-03     308.646E-03    -103.245E-03    -135.199E-03    -118.091E-03     305.752E-03    -117.460E-03     69.6426E-03     562.065E-03    -279.420E-03    -282.762E-03    -279.415E-03     562.059E-03    -282.762E-03     4.31685E-03    -160.225E+06    -164.919E+06    -307.023E+06    -162.415E+06    -306.912E+06    -162.839E+06    -860.323E+03         64.4720
             236    -1.33642E-06     169.266E-03     279.131E-03    -88.4656E-03    -116.495E-03    -76.1057E-03     252.957E-03    -102.680E-03     139.351E-03     569.975E-03    -283.401E-03    -286.736E-03    -283.397E-03     569.972E-03    -286.736E-03     3.28745E-03    -157.368E+06    -163.152E+06    -306.854E+06    -160.591E+06    -306.800E+06    -159.983E+06     186.925E+03         65.0923
             237    -606.759E-09     167.500E-03     146.928E-03     26.9921E-03    -83.0613E-03     47.2033E-03     16.6633E-03     26.9921E-03     167.214E-03     574.360E-03    -286.269E-03    -288.233E-03    -286.731E-03     574.359E-03    -287.771E-03     877.568E-06    -154.193E+06    -159.720E+06    -306.135E+06    -157.407E+06    -306.090E+06    -156.551E+06     -31.217E+03         65.5246
             238     718.995E-09     165.721E-03     151.997E-03     23.2689E-03    -88.8142E-03     45.4526E-03     33.5747E-03     7.42436E-03     143.528E-03     577.868E-03    -288.365E-03    -290.100E-03    -288.826E-03     577.867E-03    -289.638E-03     968.098E-06    -144.851E+06    -148.248E+06    -304.431E+06    -145.911E+06    -304.410E+06    -147.208E+06     1.31488E+06         65.9121
             239    -2.72632E-06     163.929E-03     267.276E-03    -58.4596E-03    -120.408E-03    -44.9028E-03     253.720E-03    -120.408E-03     31.9990E-03     583.616E-03    -290.053E-03    -294.254E-03    -290.053E-03     583.616E-03    -294.254E-03     1.09331E-03    -134.845E+06    -136.903E+06    -293.292E+06    -136.945E+06    -293.250E+06    -134.845E+06     1.81939E+06         66.2755
             240    -1.97910E-06     162.131E-03     352.569E-03    -81.7913E-03    -163.777E-03    -80.3785E-03     351.156E-03    -163.777E-03    -36.9703E-03     587.621E-03    -291.039E-03    -296.608E-03    -291.038E-03     587.621E-03    -296.608E-03     211.018E-06    -133.131E+06    -134.198E+06    -284.377E+06    -134.266E+06    -284.309E+06    -133.131E+06     393.295E+03         66.5238
             241    -1.68124E-06     160.331E-03     250.737E-03    -42.5968E-03    -108.687E-03    -16.8595E-03     224.999E-03    -108.687E-03    -76.3665E-03     587.788E-03    -291.482E-03    -296.399E-03    -291.482E-03     587.787E-03    -296.399E-03     1.00518E-03    -135.872E+06    -136.021E+06    -284.800E+06    -135.969E+06    -284.751E+06    -135.972E+06    -92.7151E+03         66.6448
             242    -1.38495E-06     158.540E-03     158.881E-03    -8.91194E-03    -61.1448E-03     25.5190E-03     124.450E-03    -61.1448E-03    -127.101E-03     589.454E-03    -293.012E-03    -296.608E-03    -293.012E-03     589.454E-03    -296.608E-03     251.414E-06    -131.732E+06    -132.529E+06    -281.345E+06    -132.458E+06    -281.315E+06    -131.832E+06     554.756E+03         66.6819
             243    -441.155E-09     156.736E-03     290.855E-03    -57.1164E-03    -118.087E-03    -42.4090E-03     276.148E-03    -118.087E-03    -130.671E-03     590.427E-03    -294.155E-03    -296.199E-03    -294.154E-03     590.426E-03    -296.199E-03    -1.90083E-03    -125.541E+06    -127.608E+06    -274.225E+06    -126.271E+06    -274.191E+06    -126.912E+06     650.832E+03         66.6848
             244    -1.03600E-06     154.929E-03     438.435E-03    -127.673E-03    -191.886E-03    -121.649E-03     432.412E-03    -191.886E-03    -82.1676E-03     589.567E-03    -293.797E-03    -295.778E-03    -293.796E-03     589.566E-03    -295.778E-03    -338.709E-06    -113.454E+06    -116.109E+06    -263.174E+06    -114.777E+06    -263.136E+06    -114.825E+06     2.35111E+06         66.7151
             245    -842.058E-09     153.121E-03     413.443E-03    -115.408E-03    -173.060E-03    -114.161E-03     412.195E-03    -173.060E-03     29.0195E-03     591.182E-03    -294.609E-03    -296.367E-03    -294.608E-03     591.181E-03    -296.367E-03    -68.0841E-06    -114.634E+06    -116.149E+06    -252.189E+06    -115.931E+06    -252.176E+06    -114.865E+06     732.720E+03         66.8298
             246     227.944E-09     151.318E-03     300.464E-03    -55.6158E-03    -107.693E-03    -46.3925E-03     291.241E-03    -107.693E-03     96.3722E-03     592.085E-03    -295.322E-03    -296.381E-03    -295.879E-03     592.084E-03    -295.823E-03    -1.65118E-03    -121.444E+06    -121.807E+06    -246.555E+06    -121.476E+06    -246.523E+06    -121.807E+06     1.17688E+06         67.0087
             247     598.326E-09     149.506E-03     304.185E-03    -48.1449E-03    -127.315E-03    -26.8599E-03     282.900E-03    -127.315E-03     167.883E-03     593.287E-03    -295.520E-03    -297.125E-03    -296.077E-03     593.287E-03    -296.567E-03    -243.498E-06    -114.842E+06    -115.212E+06    -233.439E+06    -115.124E+06    -233.396E+06    -114.974E+06     2.20561E+06         67.1423
             248    -2.42295E-06     147.689E-03     469.406E-03    -91.8467E-03    -229.290E-03    -63.6055E-03     441.165E-03    -229.290E-03     244.473E-03     597.049E-03    -296.524E-03    -299.569E-03    -296.524E-03     597.049E-03    -299.569E-03     132.407E-06    -112.674E+06    -113.282E+06    -221.454E+06    -113.295E+06    -221.442E+06    -112.674E+06     561.066E+03         67.2033
             249    -584.197E-09     145.878E-03     518.838E-03    -93.9839E-03    -264.165E-03    -48.8244E-03     473.678E-03    -264.165E-03     310.305E-03     598.149E-03    -296.998E-03    -300.400E-03    -296.998E-03     598.148E-03    -300.400E-03    -1.06230E-03    -102.761E+06    -103.362E+06    -206.930E+06    -103.142E+06    -206.918E+06    -102.992E+06    -965.184E+03         67.2372
             250    -1.97412E-06     144.052E-03     454.388E-03    -66.0600E-03    -221.205E-03     33.7942E-03     354.534E-03    -221.205E-03     394.530E-03     595.779E-03    -295.743E-03    -299.414E-03    -295.741E-03     595.777E-03    -299.414E-03    -2.56421E-03    -101.743E+06    -102.187E+06    -200.259E+06    -101.907E+06    -200.095E+06    -102.187E+06     1.98261E+06         67.2456
             251    -1.10641E-06     142.244E-03     461.015E-03    -76.9843E-03    -212.537E-03     57.4140E-03     326.616E-03    -212.537E-03     464.615E-03     594.936E-03    -295.602E-03    -298.839E-03    -295.600E-03     594.934E-03    -298.839E-03    -2.67335E-03    -99.7657E+06    -100.863E+06    -189.412E+06    -100.804E+06    -189.258E+06    -99.9794E+06     2.54459E+06         67.2450
             252    -541.318E-09     140.428E-03     542.445E-03    -105.869E-03    -259.582E-03     6.38620E-03     430.190E-03    -259.582E-03     484.262E-03     597.127E-03    -297.582E-03    -299.285E-03    -297.581E-03     597.126E-03    -299.285E-03    -1.84315E-03    -100.076E+06    -101.515E+06    -174.378E+06    -101.060E+06    -174.278E+06    -100.631E+06     1.63377E+06         67.2836
             253    -631.872E-09     138.606E-03     576.479E-03    -138.755E-03    -255.694E-03    -46.7871E-03     484.511E-03    -255.694E-03     478.782E-03     597.737E-03    -298.285E-03    -299.148E-03    -298.283E-03     597.735E-03    -299.148E-03    -2.54004E-03    -99.7065E+06    -100.345E+06    -157.564E+06    -99.9917E+06    -157.362E+06    -100.262E+06     3.40441E+06         67.3849
             254     672.966E-09     136.788E-03     486.874E-03    -96.6692E-03    -196.641E-03    -27.7098E-03     417.914E-03    -196.641E-03     376.405E-03     597.098E-03    -297.866E-03    -298.514E-03    -298.382E-03     597.096E-03    -297.996E-03    -1.85463E-03    -95.5550E+06    -95.7416E+06    -141.915E+06    -95.7420E+06    -141.811E+06    -95.6586E+06     1.43502E+06         67.5531
             255     560.186E-09     134.974E-03     431.884E-03    -42.8390E-03    -182.963E-03    -6.22445E-03     395.269E-03    -182.963E-03     247.933E-03     598.852E-03    -298.725E-03    -299.511E-03    -299.510E-03     598.851E-03    -298.725E-03    -1.43263E-03    -91.1594E+06    -92.3468E+06    -129.564E+06    -91.5355E+06    -129.188E+06    -92.3468E+06     2.36021E+06         67.7661
             256     27.2691E-09     133.147E-03     462.531E-03    -33.7066E-03    -216.390E-03    -21.1927E-03     450.017E-03    -216.390E-03     126.220E-03     599.661E-03    -299.292E-03    -299.668E-03    -299.559E-03     599.659E-03    -299.400E-03    -2.36624E-03    -87.1097E+06    -89.2508E+06    -110.732E+06    -88.5651E+06    -110.334E+06    -88.1935E+06     2.87804E+06         67.9217
             257    -962.461E-09     131.327E-03     516.641E-03    -24.7710E-03    -264.864E-03    -23.2593E-03     515.130E-03    -264.864E-03    -16.4345E-03     598.880E-03    -298.390E-03    -299.722E-03    -298.389E-03     598.879E-03    -299.722E-03    -2.30977E-03    -85.6082E+06    -87.7575E+06    -94.8361E+06    -86.9398E+06    -94.5620E+06    -86.7001E+06     1.19436E+06         67.9117
             258    -788.146E-09     129.509E-03     528.809E-03    -31.4626E-03    -267.545E-03     690.294E-06     496.656E-03    -267.545E-03    -207.967E-03     599.372E-03    -298.601E-03    -300.531E-03    -298.599E-03     599.371E-03    -300.531E-03    -2.06669E-03    -75.3549E+06    -80.6861E+06    -84.2198E+06    -80.5293E+06    -79.0453E+06    -80.6861E+06     2.83128E+06         67.8115
             259     6.96340E-09     127.691E-03     546.987E-03    -55.5988E-03    -253.910E-03     27.6270E-03     463.761E-03    -253.910E-03    -414.247E-03     599.831E-03    -299.241E-03    -300.448E-03    -299.239E-03     599.829E-03    -300.448E-03    -2.21868E-03    -67.7057E+06    -74.3217E+06    -76.0288E+06    -75.0058E+06    -68.5017E+06    -74.5488E+06     1.95312E+06         67.7744
             260     127.809E-09     125.865E-03     652.063E-03    -102.490E-03    -300.293E-03     9.26900E-03     540.305E-03    -300.293E-03    -535.821E-03     599.766E-03    -299.498E-03    -300.265E-03    -299.497E-03     599.766E-03    -300.265E-03    -1.46890E-03    -63.1985E+06    -67.7868E+06    -68.8326E+06    -68.2869E+06    -63.5171E+06    -68.0138E+06    -955.333E+03         67.7970
             261    -342.156E-09     124.042E-03     729.556E-03    -142.858E-03    -323.587E-03    -34.2547E-03     620.953E-03    -323.587E-03    -574.392E-03     600.405E-03    -300.159E-03    -300.492E-03    -300.158E-03     600.404E-03    -300.492E-03    -1.69319E-03    -61.4836E+06    -66.3937E+06    -67.3986E+06    -66.0744E+06    -62.8079E+06    -66.3937E+06     445.561E+03         67.8011
             262     154.177E-09     122.220E-03     743.114E-03    -167.357E-03    -302.694E-03    -60.8824E-03     636.640E-03    -302.694E-03    -584.699E-03     599.835E-03    -299.910E-03    -300.137E-03    -299.909E-03     599.833E-03    -300.137E-03    -2.56297E-03    -58.5511E+06    -62.0480E+06    -63.8396E+06    -62.6781E+06    -59.7127E+06    -62.0480E+06     783.179E+03         67.7747
             263    -92.7133E-09     120.398E-03     705.773E-03    -157.931E-03    -260.380E-03    -60.7591E-03     608.601E-03    -260.380E-03    -544.590E-03     598.899E-03    -299.090E-03    -299.563E-03    -299.089E-03     598.898E-03    -299.563E-03    -1.49965E-03    -55.3487E+06    -56.6548E+06    -59.6701E+06    -57.8221E+06    -55.7868E+06    -58.0646E+06    -339.320E+03         67.7537
             264    -207.885E-09     118.578E-03     724.388E-03    -162.770E-03    -260.328E-03    -92.5182E-03     654.136E-03    -260.328E-03    -475.724E-03     599.641E-03    -299.048E-03    -300.239E-03    -299.048E-03     599.641E-03    -300.239E-03    -938.191E-06    -53.8974E+06    -55.3051E+06    -57.9319E+06    -55.8633E+06    -54.5562E+06    -56.7149E+06     1.06153E+06         67.7650
             265    -773.219E-09     116.757E-03     819.655E-03    -195.008E-03    -312.555E-03    -156.372E-03     781.018E-03    -312.555E-03    -365.359E-03     600.508E-03    -299.508E-03    -300.879E-03    -299.508E-03     600.507E-03    -300.879E-03    -1.42127E-03    -52.4181E+06    -53.7353E+06    -55.1975E+06    -54.5489E+06    -52.8216E+06    -53.9805E+06     706.265E+03         67.7879
             266     365.505E-09     114.929E-03     871.210E-03    -200.041E-03    -342.020E-03    -185.886E-03     857.056E-03    -342.020E-03    -243.890E-03     600.980E-03    -300.154E-03    -300.821E-03    -300.153E-03     600.979E-03    -300.821E-03    -1.48911E-03    -49.6319E+06    -50.3352E+06    -50.9036E+06    -50.5455E+06    -49.7449E+06    -50.5804E+06    -314.903E+03         67.7961
             267    -555.360E-09     113.109E-03     800.777E-03    -138.776E-03    -324.086E-03    -132.527E-03     794.529E-03    -324.086E-03    -132.067E-03     601.611E-03    -300.163E-03    -301.078E-03    -300.163E-03     601.611E-03    -301.078E-03    -1.05937E-03    -47.5912E+06    -49.0771E+06    -49.6739E+06    -48.8027E+06    -48.4625E+06    -49.0771E+06     523.198E+03         67.7929
             268    -78.4209E-09     111.281E-03     752.673E-03    -108.692E-03    -299.648E-03    -107.223E-03     751.203E-03    -299.648E-03    -66.6415E-03     601.800E-03    -299.655E-03    -301.283E-03    -299.654E-03     601.800E-03    -301.283E-03    -1.18506E-03    -45.6123E+06    -47.1918E+06    -47.6592E+06    -46.8130E+06    -46.4585E+06    -47.1918E+06     558.763E+03         67.7771
             269    -1.16683E-06     109.458E-03     905.390E-03    -174.945E-03    -372.131E-03    -171.982E-03     902.426E-03    -372.131E-03    -113.001E-03     600.751E-03    -299.408E-03    -300.640E-03    -299.407E-03     600.750E-03    -300.640E-03    -2.10864E-03    -43.2684E+06    -43.8406E+06    -44.6050E+06    -44.0370E+06    -43.8365E+06    -43.8406E+06     183.932E+03         67.7533
             270     395.802E-09     107.638E-03         1.02384    -221.461E-03    -428.918E-03    -218.873E-03         1.02125    -428.918E-03    -111.827E-03     599.565E-03    -299.158E-03    -299.968E-03    -299.156E-03     599.563E-03    -299.968E-03    -2.58621E-03    -41.6830E+06    -42.0151E+06    -42.9794E+06    -42.4096E+06    -42.2528E+06    -42.0151E+06     188.882E+03         67.7305
             271    -528.069E-09     105.816E-03     990.129E-03    -219.321E-03    -389.744E-03    -216.507E-03     987.315E-03    -389.744E-03    -113.953E-03     599.554E-03    -299.051E-03    -300.215E-03    -299.050E-03     599.553E-03    -300.215E-03    -1.54068E-03    -41.0487E+06    -41.9626E+06    -42.6152E+06    -41.8188E+06    -41.8451E+06    -41.9626E+06     297.327E+03         67.7214
             272    -679.452E-09     103.995E-03     945.815E-03    -192.715E-03    -357.803E-03    -185.582E-03     938.682E-03    -357.803E-03    -174.031E-03     600.934E-03    -299.642E-03    -300.671E-03    -299.641E-03     600.934E-03    -300.671E-03    -1.45746E-03    -36.4706E+06    -37.3706E+06    -38.6075E+06    -37.6808E+06    -37.5228E+06    -37.2451E+06     79.6943E+03         67.7305
             273     209.073E-09     102.166E-03     985.228E-03    -207.749E-03    -369.155E-03    -200.149E-03     977.628E-03    -369.155E-03    -185.082E-03     601.693E-03    -300.332E-03    -300.827E-03    -300.331E-03     601.693E-03    -300.827E-03    -1.32495E-03    -35.9630E+06    -37.3648E+06    -38.3608E+06    -37.2300E+06    -37.2193E+06    -37.2392E+06    -966.958E+03         67.7439
             274     12.6110E-03     99.2624E-03         1.03457    -294.230E-03    -310.368E-03    -294.210E-03         1.03455    -310.368E-03     78.1386E-06     603.507E-03    -299.028E-03    -303.078E-03    -299.364E-03     599.793E-03    -299.028E-03     115.407E-03     31.0013E+06     8.83626E+06    -1.87572E+06    -1.85034E+06     8.81089E+06     31.0013E+06     353.027E+03         90.5793
             275     11.8687E-03     99.0669E-03         1.03872    -296.186E-03    -311.841E-03    -296.158E-03         1.03869    -311.841E-03     2.47063E-03     601.843E-03    -299.121E-03    -302.244E-03    -299.098E-03     598.697E-03    -299.121E-03     104.518E-03     25.8259E+06     7.13083E+06    -3.80829E+06    -3.61924E+06     6.94178E+06     25.8259E+06     114.196E+03         86.7915
             276     11.1170E-03     98.9124E-03         1.04400    -299.522E-03    -313.243E-03    -299.389E-03         1.04386    -313.243E-03    -10.7379E-03     599.098E-03    -299.083E-03    -300.292E-03    -298.230E-03     597.287E-03    -299.333E-03     80.5673E-03     21.1141E+06     6.45868E+06    -5.54602E+06    -5.20510E+06     6.11775E+06     21.1141E+06     694.117E+03         81.8287
             277     10.3750E-03     98.7891E-03         1.04927    -302.953E-03    -314.533E-03    -302.732E-03         1.04905    -314.533E-03    -645.378E-06     598.984E-03    -298.665E-03    -299.187E-03    -297.302E-03     597.621E-03    -299.187E-03     69.4614E-03     19.0316E+06     4.94537E+06    -7.44229E+06    -7.21078E+06     4.71386E+06     19.0316E+06     1.16230E+06         77.0900
             278     9.63570E-03     98.6624E-03         1.05465    -306.605E-03    -316.229E-03    -306.991E-03         1.05443    -315.624E-03    -1.04133E-03     599.031E-03    -298.373E-03    -298.891E-03    -297.756E-03     598.167E-03    -298.645E-03     55.3074E-03     18.2859E+06     3.86370E+06    -9.49192E+06    -9.39844E+06     3.77022E+06     18.2859E+06     800.456E+03         73.4444
             279     8.89170E-03     98.6160E-03         1.05952    -310.469E-03    -317.256E-03    -311.021E-03         1.05922    -316.400E-03     6.06571E-03     598.195E-03    -297.633E-03    -298.360E-03    -297.327E-03     597.643E-03    -298.113E-03     44.2182E-03     16.7515E+06     3.33827E+06    -11.7842E+06    -11.6963E+06     3.25040E+06     16.7515E+06     1.05714E+06         71.0232
             280     8.15168E-03     98.5316E-03         1.06213    -312.931E-03    -317.229E-03    -312.743E-03         1.06169    -316.978E-03    -3.13636E-03     597.013E-03    -296.771E-03    -298.944E-03    -296.435E-03     596.677E-03    -298.944E-03     34.2751E-03     13.9367E+06     1.22676E+06    -14.1220E+06    -13.9786E+06     1.08335E+06     13.9367E+06     1.44489E+06         69.7144
             281     7.41212E-03     98.4550E-03         1.06622    -314.045E-03    -319.618E-03    -315.603E-03         1.06554    -317.380E-03     8.44717E-03     596.143E-03    -296.874E-03    -298.971E-03    -296.703E-03     595.971E-03    -298.971E-03     24.2619E-03     9.89347E+06    -1.46118E+06    -16.6079E+06    -16.4347E+06    -1.63444E+06     9.89347E+06     1.58591E+06         69.1230
             282     6.66834E-03     98.4596E-03         1.06926    -313.293E-03    -323.597E-03    -318.960E-03         1.06874    -317.410E-03     21.5928E-03     594.097E-03    -297.456E-03    -298.843E-03    -297.386E-03     594.027E-03    -298.843E-03     15.3172E-03     5.75372E+06    -5.52250E+06    -19.3404E+06    -19.1588E+06    -5.70413E+06     5.75372E+06     1.50551E+06         68.8727
             283     5.92554E-03     98.4684E-03         1.06416    -305.638E-03    -326.619E-03    -314.226E-03         1.06370    -317.578E-03     19.0407E-03     595.915E-03    -297.907E-03    -299.944E-03    -297.888E-03     595.896E-03    -299.944E-03     7.52722E-03     514.160E+03    -10.0170E+06    -21.8671E+06    -21.6802E+06    -10.2039E+06     514.160E+03     1.38096E+06         68.7533
             284     5.18632E-03     98.4291E-03         1.05838    -301.639E-03    -324.869E-03    -307.340E-03         1.05800    -318.779E-03     25.4614E-03     598.121E-03    -298.712E-03    -300.094E-03    -299.036E-03     598.118E-03    -299.768E-03     1.10150E-03    -6.58767E+06    -13.9207E+06    -24.3368E+06    -24.1046E+06    -14.1529E+06    -6.58767E+06     1.27193E+06         68.6354
             285     4.44686E-03     98.4062E-03         1.05677    -302.996E-03    -322.139E-03    -303.857E-03         1.05664    -321.142E-03     10.2472E-03     598.156E-03    -299.088E-03    -299.652E-03    -299.469E-03     598.152E-03    -299.267E-03    -3.51920E-03    -13.4946E+06    -18.0026E+06    -27.2547E+06    -26.9530E+06    -18.3044E+06    -13.4946E+06     1.42235E+06         68.4427
             286     3.70535E-03     98.4282E-03         1.05724    -300.697E-03    -324.822E-03    -300.504E-03         1.05705    -324.822E-03     24.6831E-03     598.682E-03    -299.092E-03    -299.882E-03    -299.689E-03     598.669E-03    -299.271E-03    -6.76621E-03    -18.8183E+06    -21.7470E+06    -29.4332E+06    -29.2059E+06    -21.9743E+06    -18.8183E+06     1.17552E+06         68.1698
             287     2.96416E-03     98.4666E-03         1.06339    -300.345E-03    -330.782E-03    -299.847E-03         1.06289    -330.782E-03     32.9245E-03     598.097E-03    -299.448E-03    -300.349E-03    -299.979E-03     598.077E-03    -299.799E-03    -8.42950E-03    -23.5970E+06    -24.9865E+06    -31.1478E+06    -30.9660E+06    -25.1683E+06    -23.5970E+06     892.897E+03         67.9090
             288     2.22331E-03     98.4961E-03         1.08337    -310.768E-03    -339.897E-03    -311.024E-03         1.08286    -339.126E-03     39.8966E-03     598.584E-03    -299.337E-03    -300.256E-03    -299.317E-03     598.564E-03    -300.256E-03    -8.56896E-03    -28.2605E+06    -28.8548E+06    -33.3586E+06    -33.1886E+06    -28.7222E+06    -28.5631E+06     854.712E+03         67.7584
             289     1.48210E-03     98.5128E-03         1.11284    -331.795E-03    -348.675E-03    -332.858E-03         1.11265    -347.424E-03     31.4296E-03     599.947E-03    -299.675E-03    -300.449E-03    -299.661E-03     599.932E-03    -300.449E-03    -6.99046E-03    -31.1185E+06    -32.1991E+06    -34.6836E+06    -34.5397E+06    -31.2624E+06    -32.1991E+06     523.229E+03         67.7237
             290     741.347E-06     98.5146E-03         1.13519    -304.249E-03    -399.309E-03    -303.448E-03         1.13391    -398.829E-03    -33.2444E-03     600.589E-03    -299.772E-03    -300.647E-03    -299.767E-03     600.584E-03    -300.647E-03    -3.68545E-03    -32.9669E+06    -34.3800E+06    -35.8323E+06    -35.1538E+06    -33.6454E+06    -34.3800E+06     781.723E+03         67.7367
             291     12.6097E-03     97.4512E-03         1.06029    -305.151E-03    -315.581E-03    -305.135E-03         1.06028    -315.581E-03     4.01108E-03     603.838E-03    -299.034E-03    -303.249E-03    -299.596E-03     600.185E-03    -299.034E-03     114.505E-03     28.5558E+06     8.21397E+06    -1.69845E+06    -1.65193E+06     8.16746E+06     28.5558E+06     463.875E+03         90.5759
             292     11.8684E-03     97.2454E-03         1.06029    -302.477E-03    -316.923E-03    -302.453E-03         1.06026    -316.923E-03     4.51532E-03     601.996E-03    -299.087E-03    -302.335E-03    -299.230E-03     598.890E-03    -299.087E-03     103.935E-03     23.7876E+06     6.58225E+06    -3.73052E+06    -3.55324E+06     6.40497E+06     23.7876E+06     227.473E+03         86.7886
             293     11.1180E-03     97.0880E-03         1.06190    -301.228E-03    -318.407E-03    -301.154E-03         1.06183    -318.407E-03    -5.81637E-03     598.792E-03    -299.078E-03    -300.166E-03    -298.147E-03     596.985E-03    -299.289E-03     80.4619E-03     20.4638E+06     5.32386E+06    -5.75556E+06    -5.44101E+06     5.00931E+06     20.4638E+06     404.209E+03         81.8258
             294     10.3752E-03     96.9729E-03         1.07107    -307.845E-03    -319.766E-03    -307.576E-03         1.07081    -319.766E-03     12.6493E-03     598.865E-03    -298.805E-03    -299.172E-03    -297.437E-03     597.498E-03    -299.172E-03     69.5969E-03     18.2929E+06     5.17517E+06    -7.19122E+06    -6.96049E+06     4.94444E+06     18.2929E+06     1.01633E+06         77.0862
             295     9.63612E-03     96.8430E-03         1.08246    -317.126E-03    -321.272E-03    -317.479E-03         1.08214    -320.598E-03     7.89735E-03     598.982E-03    -298.482E-03    -298.861E-03    -297.832E-03     598.109E-03    -298.639E-03     55.6055E-03     17.0716E+06     4.47256E+06    -8.81318E+06    -8.69516E+06     4.35454E+06     17.0716E+06     1.05064E+06         73.4402
             296     8.89274E-03     96.7784E-03         1.08845    -320.814E-03    -323.547E-03    -323.185E-03         1.08809    -320.814E-03     10.3686E-03     598.053E-03    -297.555E-03    -298.323E-03    -297.223E-03     597.498E-03    -298.100E-03     44.3337E-03     15.8214E+06     3.32242E+06    -10.9864E+06    -10.8912E+06     3.22726E+06     15.8214E+06     1.12721E+06         71.0213
             297     8.15097E-03     96.7165E-03         1.08985    -319.909E-03    -325.607E-03    -324.092E-03         1.08913    -320.709E-03    -7.46809E-03     596.912E-03    -296.585E-03    -298.957E-03    -296.253E-03     596.580E-03    -298.957E-03     34.0186E-03     13.3451E+06     1.10217E+06    -13.5410E+06    -13.4600E+06     1.02121E+06     13.3451E+06     1.06271E+06         69.7120
             298     7.41130E-03     96.6383E-03         1.08415    -316.082E-03    -323.637E-03    -318.076E-03         1.08331    -320.799E-03    -2.83445E-03     596.099E-03    -296.817E-03    -299.000E-03    -296.648E-03     595.931E-03    -299.000E-03     24.1630E-03     10.2841E+06    -1.33477E+06    -15.5944E+06    -15.4588E+06    -1.47033E+06     10.2841E+06     1.36544E+06         69.1204
             299     6.66842E-03     96.6368E-03         1.07490    -307.890E-03    -321.781E-03    -307.165E-03         1.07418    -321.781E-03     2.27333E-03     594.047E-03    -297.624E-03    -298.819E-03    -297.551E-03     593.975E-03    -298.819E-03     15.5048E-03     6.18210E+06    -4.91667E+06    -17.8761E+06    -17.6889E+06    -5.10389E+06     6.18210E+06     1.47915E+06         68.8788
             300     5.92619E-03     96.6409E-03         1.07204    -302.173E-03    -324.011E-03    -301.612E-03         1.07148    -324.011E-03    -9.66414E-03     595.403E-03    -297.714E-03    -299.730E-03    -297.694E-03     595.382E-03    -299.730E-03     7.66874E-03     889.634E+03    -8.92255E+06    -21.0956E+06    -20.8901E+06    -9.12804E+06     889.634E+03     1.46275E+06         68.7649
             301     5.18674E-03     96.5992E-03         1.08085    -307.091E-03    -327.845E-03    -307.690E-03         1.08043    -326.824E-03     1.07863E-03     597.483E-03    -298.338E-03    -299.767E-03    -298.459E-03     597.480E-03    -299.643E-03     1.15970E-03    -6.40116E+06    -13.5014E+06    -24.3027E+06    -24.0240E+06    -13.7800E+06    -6.40116E+06     1.59343E+06         68.6403
             302     4.44618E-03     96.5839E-03         1.09662    -315.157E-03    -336.108E-03    -321.945E-03         1.09612    -328.825E-03    -33.7820E-03     597.945E-03    -298.858E-03    -299.580E-03    -298.977E-03     597.940E-03    -299.456E-03    -3.66802E-03    -13.1673E+06    -17.5566E+06    -26.5305E+06    -26.2315E+06    -17.8555E+06    -13.1673E+06     1.52698E+06         68.4390
             303     3.70405E-03     96.6113E-03         1.11101    -318.937E-03    -347.211E-03    -337.117E-03         1.11067    -328.691E-03    -24.8859E-03     598.692E-03    -298.975E-03    -299.768E-03    -299.207E-03     598.679E-03    -299.523E-03    -6.80462E-03    -17.5795E+06    -20.3803E+06    -27.9378E+06    -27.6820E+06    -20.6361E+06    -17.5795E+06     1.17275E+06         68.1630
             304     2.96271E-03     96.6451E-03         1.11631    -320.046E-03    -352.037E-03    -346.233E-03         1.11603    -325.577E-03    -26.6042E-03     598.456E-03    -299.699E-03    -300.260E-03    -299.925E-03     598.436E-03    -300.015E-03    -8.31234E-03    -22.6688E+06    -23.8525E+06    -29.9752E+06    -29.7465E+06    -24.0812E+06    -22.6688E+06     927.697E+03         67.9063
             305     2.22218E-03     96.6745E-03         1.10415    -318.400E-03    -342.647E-03    -340.761E-03         1.10383    -319.974E-03    -3.20122E-03     599.159E-03    -299.659E-03    -300.426E-03    -299.642E-03     599.142E-03    -300.426E-03    -7.75936E-03    -26.8172E+06    -27.5111E+06    -31.5917E+06    -31.4132E+06    -27.1777E+06    -27.3291E+06     801.093E+03         67.7644
             306     1.48192E-03     96.6889E-03         1.08207    -314.102E-03    -325.648E-03    -325.264E-03         1.08168    -314.102E-03     946.899E-06     600.450E-03    -300.000E-03    -300.612E-03    -299.990E-03     600.441E-03    -300.612E-03    -5.75023E-03    -29.4441E+06    -31.0115E+06    -32.8491E+06    -32.6096E+06    -29.6835E+06    -31.0115E+06     625.503E+03         67.7366
             307     741.063E-06     96.6925E-03         1.06845    -254.329E-03    -369.057E-03    -257.026E-03         1.06808    -365.981E-03    -17.9882E-03     600.949E-03    -300.248E-03    -300.597E-03    -300.353E-03     600.946E-03    -300.488E-03    -2.84909E-03    -31.3880E+06    -33.1386E+06    -34.3515E+06    -33.5310E+06    -32.2086E+06    -33.1386E+06     185.539E+03         67.7541
             308     12.6109E-03     95.6381E-03         1.08197    -310.800E-03    -320.556E-03    -310.779E-03         1.08195    -320.556E-03    -102.142E-06     604.087E-03    -299.008E-03    -303.578E-03    -299.920E-03     600.429E-03    -299.008E-03     114.595E-03     26.9066E+06     7.78082E+06    -1.50947E+06    -1.46100E+06     7.73235E+06     26.9066E+06     50.4784E+03         90.5695
             309     11.8700E-03     95.4239E-03         1.08879    -314.048E-03    -321.905E-03    -314.437E-03         1.08878    -321.504E-03    -5.41251E-03     601.362E-03    -299.090E-03    -301.809E-03    -298.694E-03     598.247E-03    -299.090E-03     104.027E-03     22.1332E+06     6.34683E+06    -3.15471E+06    -3.00126E+06     6.19339E+06     22.1332E+06     708.399E+03         86.7844
             310     11.1166E-03     95.2750E-03         1.09413    -313.742E-03    -325.614E-03    -317.087E-03         1.09407    -322.207E-03    -13.5456E-03     598.284E-03    -299.137E-03    -299.756E-03    -297.774E-03     596.464E-03    -299.299E-03     80.7043E-03     19.4583E+06     4.77313E+06    -4.75729E+06    -4.62522E+06     4.64105E+06     19.4583E+06     746.719E+03         81.8230
             311     10.3756E-03     95.1421E-03         1.09777    -315.996E-03    -325.749E-03    -318.854E-03         1.09754    -322.666E-03     7.63685E-03     598.855E-03    -298.871E-03    -299.141E-03    -297.539E-03     597.482E-03    -299.098E-03     69.7270E-03     18.8974E+06     4.64337E+06    -6.39581E+06    -6.32607E+06     4.57364E+06     18.8974E+06     400.691E+03         77.0858
             312     9.63357E-03     95.0408E-03         1.09975    -320.338E-03    -323.106E-03    -320.097E-03         1.09936    -322.960E-03    -4.07029E-03     599.149E-03    -298.520E-03    -298.891E-03    -297.952E-03     598.275E-03    -298.585E-03     55.6396E-03     17.9973E+06     4.20667E+06    -8.08486E+06    -7.98252E+06     4.10432E+06     17.9973E+06     905.002E+03         73.4395
             313     8.89305E-03     94.9551E-03         1.10215    -320.435E-03    -325.011E-03    -321.901E-03         1.10174    -323.133E-03    -2.10800E-03     598.029E-03    -297.527E-03    -298.363E-03    -297.230E-03     597.468E-03    -298.099E-03     44.5502E-03     15.9255E+06     3.00867E+06    -10.1664E+06    -9.98074E+06     2.82297E+06     15.9255E+06     1.36036E+06         71.0153
             314     8.15180E-03     94.8862E-03         1.10268    -317.764E-03    -327.943E-03    -321.484E-03         1.10176    -323.296E-03    -23.0309E-03     596.874E-03    -296.655E-03    -298.960E-03    -296.323E-03     596.542E-03    -298.960E-03     33.9759E-03     13.2263E+06     1.43927E+06    -12.6208E+06    -12.4266E+06     1.24516E+06     13.2263E+06     1.44790E+06         69.6991
             315     7.41030E-03     94.8352E-03         1.09858    -314.523E-03    -326.642E-03    -316.400E-03         1.09762    -323.804E-03    -20.9630E-03     596.167E-03    -296.915E-03    -299.014E-03    -296.751E-03     596.004E-03    -299.014E-03     23.7235E-03     9.12709E+06    -1.68536E+06    -15.4617E+06    -15.2992E+06    -1.84791E+06     9.12709E+06     1.44982E+06         69.1084
             316     6.66816E-03     94.8122E-03         1.09962    -312.036E-03    -328.823E-03    -315.641E-03         1.09913    -324.730E-03     2.72632E-03     593.954E-03    -297.414E-03    -298.793E-03    -297.345E-03     593.885E-03    -298.793E-03     15.1752E-03     4.63107E+06    -4.98339E+06    -17.9138E+06    -17.7056E+06    -5.19159E+06     4.63107E+06     1.54732E+06         68.8812
             317     5.92662E-03     94.8017E-03         1.11166    -315.301E-03    -336.227E-03    -325.846E-03         1.11117    -325.200E-03    -1.78593E-03     595.340E-03    -297.448E-03    -299.713E-03    -297.427E-03     595.319E-03    -299.713E-03     7.75230E-03     407.656E+03    -7.95229E+06    -20.1821E+06    -19.9334E+06     -8.2009E+06     407.656E+03     1.64112E+06         68.7804
             318     5.18624E-03     94.7822E-03         1.12347    -321.542E-03    -340.827E-03    -337.786E-03         1.12302    -324.135E-03     10.6133E-03     597.588E-03    -298.335E-03    -299.818E-03    -298.436E-03     597.585E-03    -299.714E-03     1.25331E-03    -6.05900E+06    -12.7675E+06    -22.7889E+06    -22.5786E+06    -12.9778E+06    -6.05900E+06     1.42189E+06         68.6537
             319     4.44529E-03     94.7740E-03         1.12635    -321.322E-03    -343.684E-03    -343.174E-03         1.12584    -321.322E-03    -29.0536E-03     598.172E-03    -299.071E-03    -299.736E-03    -299.168E-03     598.166E-03    -299.632E-03    -4.01884E-03    -12.2539E+06    -16.6288E+06    -24.6662E+06    -24.5537E+06    -16.7413E+06    -12.2539E+06     942.848E+03         68.4457
             320     3.70426E-03     94.7941E-03         1.12120    -316.917E-03    -344.354E-03    -343.843E-03         1.12068    -316.917E-03    -10.9933E-03     598.759E-03    -298.996E-03    -299.684E-03    -298.980E-03     598.743E-03    -299.684E-03    -7.38298E-03    -17.0283E+06    -19.9804E+06    -27.1279E+06    -26.9403E+06    -20.1680E+06    -17.0283E+06     1.00643E+06         68.1704
             321     2.96220E-03     94.8253E-03         1.10835    -310.223E-03    -339.917E-03    -338.754E-03         1.10784    -310.881E-03    -17.8392E-03     598.351E-03    -299.490E-03    -300.156E-03    -299.468E-03     598.329E-03    -300.156E-03    -8.92992E-03    -21.5312E+06    -23.1173E+06    -28.9765E+06    -28.7897E+06    -23.3040E+06    -21.5312E+06     878.163E+03         67.9168
             322     2.22093E-03     94.8496E-03         1.09116    -302.400E-03    -330.845E-03    -329.267E-03         1.09024    -303.058E-03     7.22021E-03     599.351E-03    -299.671E-03    -300.600E-03    -299.649E-03     599.330E-03    -300.600E-03    -8.60177E-03    -25.0703E+06    -25.7596E+06    -29.8628E+06    -29.7538E+06    -25.6091E+06    -25.3298E+06     580.818E+03         67.7769
             323     1.48009E-03     94.8639E-03         1.06512    -294.006E-03    -314.461E-03    -312.477E-03         1.06314    -294.006E-03    -23.9463E-03     600.839E-03    -300.136E-03    -300.869E-03    -300.124E-03     600.827E-03    -300.869E-03    -6.41788E-03    -27.6441E+06    -28.9070E+06    -31.0544E+06    -30.7670E+06    -27.9315E+06    -28.9070E+06     813.636E+03         67.7539
             324     740.222E-06     94.8658E-03         1.03897    -220.442E-03    -362.754E-03    -222.781E-03         1.03443    -355.883E-03     8.61247E-03     601.709E-03    -300.458E-03    -301.028E-03    -300.562E-03     601.705E-03    -300.919E-03    -3.38480E-03    -29.2875E+06    -31.2712E+06    -32.7199E+06    -31.5307E+06    -30.4767E+06    -31.2712E+06     662.119E+03         67.7795
             325     12.6105E-03     93.8178E-03         1.11435    -318.997E-03    -328.866E-03    -323.358E-03         1.11433    -324.483E-03     1.34054E-03     603.974E-03    -299.004E-03    -303.609E-03    -299.900E-03     600.266E-03    -299.004E-03     115.382E-03     26.1262E+06     7.84517E+06    -1.66807E+06    -1.61951E+06     7.79660E+06     26.1262E+06     5.54923E+03         90.5603
             326     11.8689E-03     93.6045E-03         1.12065    -322.665E-03    -330.728E-03    -328.667E-03         1.12064    -324.715E-03    -5.47896E-03     601.374E-03    -299.129E-03    -302.073E-03    -298.920E-03     598.220E-03    -299.129E-03     104.668E-03     22.4786E+06     6.67603E+06    -3.25514E+06    -3.11241E+06     6.53330E+06     22.4786E+06     146.687E+03         86.7824
             327     11.1173E-03     93.4564E-03         1.12541    -324.536E-03    -332.416E-03    -332.323E-03         1.12532    -324.536E-03    -17.0837E-03     598.419E-03    -299.205E-03    -299.984E-03    -298.003E-03     596.585E-03    -299.352E-03     81.0260E-03     18.6582E+06     4.69244E+06     -4.8332E+06    -4.64356E+06     4.50280E+06     18.6582E+06     715.490E+03         81.8280
             328     10.3756E-03     93.3211E-03         1.12353    -324.212E-03    -330.094E-03    -329.857E-03         1.12330    -324.212E-03     3.93342E-03     598.822E-03    -298.880E-03    -299.111E-03    -297.549E-03     597.448E-03    -299.069E-03     69.7099E-03     16.5840E+06     3.57344E+06    -6.49177E+06    -6.38280E+06     3.46446E+06     16.5840E+06     768.546E+03         77.0933
             329     9.63418E-03     93.2196E-03         1.11792    -322.167E-03    -325.624E-03    -323.298E-03         1.11759    -324.162E-03    -1.99426E-03     599.157E-03    -298.521E-03    -298.825E-03    -297.917E-03     598.290E-03    -298.563E-03     55.4196E-03     16.1747E+06     2.75676E+06    -8.52229E+06    -8.46424E+06     2.69871E+06     16.1747E+06     628.082E+03         73.4460
             330     8.89263E-03     93.1330E-03         1.11174    -316.663E-03    -324.656E-03    -316.230E-03         1.11131    -324.656E-03     3.62660E-03     598.009E-03    -297.450E-03    -298.331E-03    -297.115E-03     597.455E-03    -298.111E-03     44.2898E-03     15.0063E+06     2.15515E+06    -10.7969E+06    -10.6246E+06     1.98282E+06     15.0063E+06     1.28298E+06         71.0172
             331     8.15106E-03     93.0686E-03         1.11013    -313.887E-03    -325.687E-03    -312.989E-03         1.10923    -325.687E-03    -17.2271E-03     596.765E-03    -296.641E-03    -298.978E-03    -296.309E-03     596.433E-03    -298.978E-03     34.0264E-03     12.2584E+06     1.30351E+06    -12.7708E+06    -12.4918E+06     1.02459E+06     12.2584E+06     1.79948E+06         69.6961
             332     7.41026E-03     93.0169E-03         1.11946    -317.907E-03    -330.648E-03    -320.923E-03         1.11845    -326.629E-03    -11.1984E-03     596.295E-03    -297.103E-03    -299.026E-03    -296.933E-03     596.125E-03    -299.026E-03     24.2091E-03     8.51914E+06    -995.984E+03    -14.8312E+06    -14.5979E+06    -1.22924E+06     8.51914E+06     1.71293E+06         69.1059
             333     6.66937E-03     92.9867E-03         1.13335    -323.559E-03    -338.226E-03    -334.897E-03         1.13294    -326.479E-03     19.6926E-03     594.118E-03    -297.327E-03    -298.756E-03    -297.254E-03     594.045E-03    -298.756E-03     15.5330E-03     4.69139E+06    -4.62496E+06    -17.1613E+06    -16.9604E+06    -4.82590E+06     4.69139E+06     1.46060E+06         68.8840
             334     5.92733E-03     92.9639E-03         1.13727    -324.811E-03    -339.802E-03    -339.132E-03         1.13693    -325.140E-03     16.0137E-03     595.257E-03    -297.231E-03    -299.673E-03    -297.211E-03     595.237E-03    -299.673E-03     7.50404E-03     532.605E+03    -7.76383E+06    -19.4956E+06    -19.3191E+06    -7.94028E+06     532.605E+03     1.24929E+06         68.7903
             335     5.18546E-03     92.9598E-03         1.13128    -317.674E-03    -339.263E-03    -333.010E-03         1.13094    -323.592E-03     40.1535E-03     597.590E-03    -298.490E-03    -299.854E-03    -298.591E-03     597.587E-03    -299.750E-03     781.246E-06    -5.65219E+06    -11.3609E+06    -21.3636E+06    -21.2543E+06    -11.4702E+06    -5.65219E+06     916.120E+03         68.6685
             336     4.44544E-03     92.9663E-03         1.12296    -310.323E-03    -337.746E-03    -325.340E-03         1.12290    -322.668E-03     9.55436E-03     598.445E-03    -299.367E-03    -299.821E-03    -299.464E-03     598.439E-03    -299.717E-03    -4.21329E-03    -12.2250E+06    -15.9737E+06    -23.5885E+06    -23.4468E+06    -16.1154E+06    -12.2250E+06     924.475E+03         68.4637
             337     3.70376E-03     92.9764E-03         1.11445    -308.229E-03    -331.850E-03    -316.726E-03         1.11403    -322.933E-03     31.5474E-03     599.122E-03    -299.168E-03    -299.978E-03    -299.435E-03     599.105E-03    -299.694E-03    -7.73287E-03    -16.5111E+06    -19.0435E+06    -25.4617E+06    -25.2712E+06    -19.2340E+06    -16.5111E+06     997.170E+03         68.1891
             338     2.96254E-03     92.9978E-03         1.10898    -307.380E-03    -327.825E-03    -309.366E-03         1.10840    -325.249E-03     12.3978E-03     598.502E-03    -299.511E-03    -300.375E-03    -299.770E-03     598.476E-03    -300.090E-03    -9.56523E-03    -20.7238E+06    -22.1380E+06    -27.2398E+06    -27.1049E+06    -22.2729E+06    -20.7238E+06     608.779E+03         67.9304
             339     2.22189E-03     93.0190E-03         1.11671    -308.055E-03    -335.706E-03    -311.881E-03         1.11465    -329.820E-03     51.0604E-03     599.185E-03    -299.646E-03    -300.517E-03    -299.620E-03     599.159E-03    -300.517E-03    -9.67224E-03    -24.5408E+06    -25.0750E+06    -29.0131E+06    -28.9378E+06    -25.1083E+06    -24.5828E+06     375.805E+03         67.7822
             340     1.48145E-03     93.0349E-03         1.13627    -318.182E-03    -345.292E-03    -324.262E-03         1.13220    -335.132E-03    -7.80688E-03     600.609E-03    -300.071E-03    -300.768E-03    -300.054E-03     600.592E-03    -300.768E-03    -7.58660E-03    -26.8254E+06    -27.4823E+06    -30.1790E+06    -29.9610E+06    -27.0480E+06    -27.4777E+06     699.644E+03         67.7535
             341     740.340E-06     93.0387E-03         1.15653    -262.829E-03    -421.363E-03    -258.077E-03         1.14751    -417.089E-03     55.1955E-03     601.479E-03    -300.286E-03    -300.886E-03    -300.280E-03     601.473E-03    -300.886E-03    -4.38346E-03    -28.3353E+06    -29.9698E+06    -31.4373E+06    -30.4087E+06    -29.4893E+06    -29.8444E+06     841.690E+03         67.7758
             342     12.6090E-03     91.9945E-03         1.14465    -327.943E-03    -336.577E-03    -336.568E-03         1.14465    -327.943E-03     1.62363E-03     604.064E-03    -299.020E-03    -303.461E-03    -299.795E-03     600.398E-03    -299.020E-03     114.788E-03     24.1412E+06     7.05881E+06    -1.73828E+06    -1.68188E+06     7.00242E+06     24.1412E+06     444.635E+03         90.5515
             343     11.8690E-03     91.7815E-03         1.14575    -327.732E-03    -337.781E-03    -337.776E-03         1.14574    -327.732E-03     3.02850E-03     601.883E-03    -299.123E-03    -302.518E-03    -299.416E-03     598.782E-03    -299.123E-03     103.939E-03     20.5721E+06     5.10346E+06    -3.65191E+06    -3.54350E+06     4.99506E+06     20.5721E+06     406.920E+03         86.7816
             344     11.1163E-03     91.6343E-03         1.14174    -326.853E-03    -333.901E-03    -333.097E-03         1.14165    -327.560E-03    -14.2573E-03     598.645E-03    -299.155E-03    -300.289E-03    -298.277E-03     596.810E-03    -299.331E-03     81.0935E-03     18.4220E+06     3.95092E+06    -5.26458E+06    -4.99974E+06     3.68608E+06     18.4220E+06    -205.250E+03         81.8346
             345     10.3759E-03     91.4994E-03         1.13837    -325.370E-03    -330.486E-03    -327.798E-03         1.13799    -327.687E-03     11.9812E-03     598.766E-03    -298.719E-03    -299.111E-03    -297.333E-03     597.381E-03    -299.111E-03     70.0121E-03     16.6473E+06     4.82528E+06    -6.64054E+06    -6.25787E+06     4.44261E+06     16.6473E+06     821.162E+03         77.1012
             346     9.63385E-03     91.3968E-03         1.13790    -324.748E-03    -329.468E-03    -325.661E-03         1.13743    -328.084E-03     5.50807E-03     599.163E-03    -298.419E-03    -298.796E-03    -297.703E-03     598.286E-03    -298.635E-03     55.7474E-03     14.9530E+06     3.64651E+06    -8.30721E+06    -8.04388E+06     3.38318E+06     14.9530E+06     1.60292E+06         73.4521
             347     8.89286E-03     91.3096E-03         1.13991    -322.436E-03    -333.068E-03    -326.396E-03         1.13932    -328.523E-03     11.1900E-03     598.111E-03    -297.423E-03    -298.297E-03    -297.022E-03     597.549E-03    -298.136E-03     44.5851E-03     13.5038E+06     1.77730E+06    -10.1817E+06    -10.0768E+06     1.67237E+06     13.5038E+06     1.01044E+06         71.0238
             348     8.15156E-03     91.2471E-03         1.14762    -322.250E-03    -341.156E-03    -333.922E-03         1.14665    -328.519E-03    -7.49013E-03     596.782E-03    -296.506E-03    -299.004E-03    -296.170E-03     596.447E-03    -299.004E-03     34.1961E-03     11.6206E+06     1.00567E+06    -12.1668E+06    -12.0333E+06     872.118E+03     11.6206E+06     1.07496E+06         69.7037
             349     7.40921E-03     91.1946E-03         1.15236    -325.806E-03    -342.714E-03    -339.776E-03         1.15133    -327.716E-03    -4.55480E-03     596.286E-03    -297.071E-03    -299.057E-03    -296.903E-03     596.117E-03    -299.057E-03     24.0430E-03     8.99035E+06    -451.230E+03    -13.8562E+06    -13.6902E+06    -617.285E+03     8.99035E+06     1.28497E+06         69.1111
             350     6.66791E-03     91.1636E-03         1.14746    -326.443E-03    -337.103E-03    -336.433E-03         1.14691    -326.560E-03     19.8719E-03     594.211E-03    -297.714E-03    -298.725E-03    -297.643E-03     594.140E-03    -298.725E-03     15.3714E-03     5.17683E+06    -3.75531E+06    -15.9044E+06    -15.7457E+06    -3.91403E+06     5.17683E+06     1.25150E+06         68.8868
             351     5.92796E-03     91.1415E-03         1.13869    -324.592E-03    -329.508E-03    -328.037E-03         1.13850    -325.873E-03    -1.36307E-03     595.350E-03    -297.699E-03    -299.575E-03    -297.678E-03     595.329E-03    -299.575E-03     7.77609E-03     948.203E+03    -6.92144E+06    -18.1979E+06    -18.0282E+06    -7.09114E+06     948.203E+03     1.17265E+06         68.7955
             352     5.18644E-03     91.1373E-03         1.12943    -317.594E-03    -326.382E-03    -317.385E-03         1.12922    -326.382E-03     8.57424E-03     597.672E-03    -298.632E-03    -299.823E-03    -298.755E-03     597.669E-03    -299.698E-03     978.070E-06    -5.56479E+06    -10.9801E+06    -20.8060E+06    -20.5692E+06    -11.2168E+06    -5.56479E+06     1.19523E+06         68.6808
             353     4.44455E-03     91.1445E-03         1.12324    -308.055E-03    -328.799E-03    -307.523E-03         1.12270    -328.799E-03    -34.6699E-03     598.734E-03    -299.393E-03    -299.828E-03    -299.512E-03     598.728E-03    -299.702E-03    -4.37712E-03    -11.9375E+06    -15.3742E+06    -23.0715E+06    -22.8049E+06    -15.6408E+06    -11.9375E+06     1.20904E+06         68.4815
             354     3.70416E-03     91.1536E-03         1.12747    -307.380E-03    -333.222E-03    -306.746E-03         1.12683    -333.222E-03    -9.63201E-03     599.562E-03    -299.294E-03    -300.166E-03    -299.838E-03     599.544E-03    -299.603E-03    -8.00125E-03    -15.8744E+06    -18.1829E+06    -24.3684E+06    -24.1896E+06    -18.3617E+06    -15.8744E+06     874.870E+03         68.2012
             355     2.96378E-03     91.1720E-03         1.13864    -312.612E-03    -339.381E-03    -311.343E-03         1.13737    -339.381E-03    -32.6574E-03     598.643E-03    -299.673E-03    -300.484E-03    -300.210E-03     598.617E-03    -299.922E-03    -9.61907E-03    -19.9724E+06    -21.1957E+06    -26.0113E+06    -25.6069E+06    -21.3039E+06    -20.2686E+06     901.906E+03         67.9284
             356     2.22301E-03     91.1891E-03         1.15851    -321.688E-03    -349.381E-03    -319.645E-03         1.15467    -347.579E-03     40.8227E-03     598.886E-03    -299.628E-03    -300.343E-03    -299.604E-03     598.862E-03    -300.343E-03    -9.33312E-03    -24.1402E+06    -24.8546E+06    -27.9723E+06    -27.6140E+06    -24.5717E+06    -24.7813E+06     782.004E+03         67.7691
             357     1.48180E-03     91.2048E-03         1.18810    -340.386E-03    -361.569E-03    -337.366E-03         1.18084    -357.336E-03    -22.1226E-03     600.232E-03    -299.976E-03    -300.523E-03    -299.961E-03     600.217E-03    -300.523E-03    -7.12510E-03    -26.4348E+06    -27.5148E+06    -28.9506E+06    -28.7849E+06    -26.6052E+06    -27.5102E+06     396.592E+03         67.7313
             358     741.384E-06     91.2135E-03         1.23187    -280.526E-03    -463.773E-03    -263.760E-03         1.21267    -461.343E-03     83.9949E-03     600.675E-03    -300.005E-03    -300.453E-03    -299.999E-03     600.669E-03    -300.453E-03    -4.12880E-03    -27.2562E+06    -28.4557E+06    -29.2937E+06    -28.6859E+06    -27.9681E+06    -28.3517E+06     35.0409E+03         67.7426
             359     12.6095E-03     90.1693E-03         1.15785    -331.027E-03    -336.709E-03    -336.416E-03         1.15784    -331.308E-03     1.41167E-03     603.999E-03    -299.040E-03    -303.355E-03    -299.713E-03     600.357E-03    -299.040E-03     114.406E-03     23.8740E+06     6.53171E+06    -1.43633E+06    -1.39752E+06     6.49290E+06     23.8740E+06     353.076E+03         90.5427
             360     11.8694E-03     89.9577E-03         1.15619    -329.381E-03    -335.900E-03    -333.800E-03         1.15617    -331.462E-03    -1.88888E-03     601.743E-03    -299.122E-03    -302.148E-03    -299.054E-03     598.649E-03    -299.122E-03     103.839E-03     19.3792E+06     5.36298E+06    -2.59302E+06    -2.45683E+06     5.22679E+06     19.3792E+06     748.144E+03         86.7769
             361     11.1166E-03     89.8097E-03         1.15490    -328.535E-03    -333.670E-03    -330.212E-03         1.15471    -331.803E-03    -23.6942E-03     598.686E-03    -299.104E-03    -300.094E-03    -298.043E-03     596.849E-03    -299.317E-03     81.1197E-03     16.6646E+06     3.61008E+06    -4.58894E+06    -4.14869E+06     3.16983E+06     16.6646E+06     609.961E+03         81.8349
             362     10.3748E-03     89.6762E-03         1.15771    -329.144E-03    -334.089E-03    -330.502E-03         1.15720    -332.221E-03     10.1126E-03     598.897E-03    -298.634E-03    -299.112E-03    -297.251E-03     597.514E-03    -299.112E-03     69.9490E-03     16.3094E+06     3.50335E+06    -6.64816E+06    -6.13347E+06     2.98866E+06     16.3094E+06     524.577E+03         77.1058
             363     9.63332E-03     89.5737E-03         1.16602    -329.892E-03    -340.550E-03    -337.474E-03         1.16534    -332.293E-03    -646.504E-06     599.051E-03    -298.378E-03    -298.712E-03    -297.570E-03     598.174E-03    -298.642E-03     55.7294E-03     16.0377E+06     3.71958E+06     -7.6996E+06    -7.44385E+06     3.46383E+06     16.0377E+06     1.06491E+06         73.4564
             364     8.89113E-03     89.4866E-03         1.17530    -330.768E-03    -348.265E-03    -346.740E-03         1.17457    -331.560E-03     2.40671E-03     597.996E-03    -297.480E-03    -298.204E-03    -296.990E-03     597.436E-03    -298.134E-03     44.4895E-03     14.5401E+06     2.99422E+06    -8.92229E+06    -8.80625E+06     2.87819E+06     14.5401E+06     1.06051E+06         71.0267
             365     8.15058E-03     89.4228E-03         1.17626    -330.097E-03    -350.277E-03    -349.090E-03         1.17507    -330.097E-03    -14.2653E-03     597.185E-03    -296.722E-03    -298.998E-03    -296.389E-03     596.852E-03    -298.998E-03     34.0793E-03     11.8768E+06     1.47976E+06    -10.9148E+06    -10.8366E+06     1.40150E+06     11.8768E+06     887.513E+03         69.7067
             366     7.40998E-03     89.3706E-03         1.16618    -328.675E-03    -341.619E-03    -340.427E-03         1.16499    -328.675E-03    -14.5910E-03     596.501E-03    -297.263E-03    -299.047E-03    -297.098E-03     596.336E-03    -299.047E-03     23.7572E-03     8.09669E+06    -657.763E+03    -13.3431E+06    -13.2598E+06    -741.068E+03     8.09669E+06     921.281E+03         69.1124
             367     6.66875E-03     89.3394E-03         1.15642    -327.797E-03    -332.434E-03    -331.834E-03         1.15593    -327.914E-03     18.1465E-03     594.080E-03    -297.821E-03    -298.699E-03    -297.754E-03     594.013E-03    -298.699E-03     14.9580E-03     3.95761E+06    -3.65966E+06    -15.6636E+06    -15.5485E+06    -3.77480E+06     3.95761E+06     1.08959E+06         68.8858
             368     5.92691E-03     89.3149E-03         1.15440    -326.635E-03    -331.010E-03    -329.919E-03         1.15426    -327.587E-03    -3.82032E-03     595.317E-03    -297.780E-03    -299.505E-03    -297.761E-03     595.297E-03    -299.505E-03     7.51284E-03     43.3885E+03    -6.60023E+06    -17.8769E+06    -17.7120E+06    -6.76517E+06     43.3885E+03     1.27224E+06         68.7959
             369     5.18559E-03     89.3127E-03         1.15474    -324.425E-03    -332.558E-03    -329.531E-03         1.15458    -327.295E-03    -2.76855E-03     597.910E-03    -298.609E-03    -299.983E-03    -298.972E-03     597.907E-03    -299.617E-03     1.12121E-03    -5.37357E+06    -10.6328E+06    -19.8443E+06    -19.5658E+06    -10.9113E+06    -5.37357E+06     1.44876E+06         68.6841
             370     4.44569E-03     89.3192E-03         1.15465    -318.550E-03    -338.252E-03    -329.309E-03         1.15410    -326.949E-03    -46.2228E-03     599.145E-03    -299.538E-03    -300.080E-03    -299.971E-03     599.139E-03    -299.640E-03    -4.08369E-03    -10.8801E+06    -14.3961E+06    -21.4642E+06    -21.1208E+06    -14.7395E+06    -10.8801E+06     1.36405E+06         68.4845
             371     3.70483E-03     89.3306E-03         1.15356    -315.447E-03    -340.500E-03    -328.811E-03         1.15301    -326.584E-03    -17.8656E-03     599.589E-03    -299.411E-03    -300.049E-03    -299.929E-03     599.571E-03    -299.513E-03    -7.71584E-03    -15.2533E+06    -17.2848E+06    -23.5633E+06    -23.2319E+06    -17.6162E+06    -15.2533E+06     1.14256E+06         68.2005
             372     2.96381E-03     89.3469E-03         1.15577    -316.288E-03    -342.237E-03    -331.256E-03         1.15435    -325.844E-03    -47.8959E-03     598.400E-03    -299.534E-03    -300.298E-03    -299.971E-03     598.376E-03    -299.838E-03    -9.26040E-03    -19.1353E+06    -20.5293E+06    -25.7464E+06    -25.2554E+06    -20.7242E+06    -19.4315E+06     1.18959E+06         67.9218
             373     2.22297E-03     89.3658E-03         1.16154    -318.459E-03    -345.936E-03    -336.491E-03         1.15688    -323.242E-03     39.0269E-03     598.717E-03    -299.454E-03    -300.271E-03    -299.433E-03     598.696E-03    -300.271E-03    -8.81340E-03    -22.0081E+06    -23.2011E+06    -26.6357E+06    -26.1222E+06    -22.9705E+06    -22.7522E+06     1.17791E+06         67.7560
             374     1.48226E-03     89.3794E-03         1.15705    -318.634E-03    -340.091E-03    -329.628E-03         1.14659    -318.634E-03    -44.1759E-03     600.065E-03    -299.804E-03    -300.473E-03    -299.791E-03     600.052E-03    -300.473E-03    -6.75253E-03    -24.9431E+06    -26.0760E+06    -27.3043E+06    -27.0577E+06    -25.1897E+06    -26.0760E+06     516.797E+03         67.7131
             375     740.928E-06     89.3904E-03         1.16615    -245.805E-03    -422.943E-03    -218.809E-03         1.12989    -413.680E-03     127.712E-03     600.624E-03    -299.969E-03    -300.428E-03    -300.024E-03     600.620E-03    -300.369E-03    -3.67065E-03    -26.8807E+06    -27.9573E+06    -28.3958E+06    -27.8979E+06    -27.4052E+06    -27.9306E+06     169.235E+03         67.7199
             376     12.6109E-03     88.3443E-03         1.17577    -334.999E-03    -338.840E-03    -338.525E-03         1.17573    -335.281E-03    -25.9157E-06     603.681E-03    -299.044E-03    -303.086E-03    -299.403E-03     599.999E-03    -299.044E-03     114.961E-03     22.0073E+06     5.98725E+06    -1.36900E+06    -1.33966E+06     5.95791E+06     22.0073E+06     215.337E+03         90.5312
             377     11.8686E-03     88.1254E-03         1.17617    -333.534E-03    -339.225E-03    -337.121E-03         1.17615    -335.615E-03    -1.70564E-03     601.541E-03    -299.175E-03    -301.889E-03    -298.751E-03     598.403E-03    -299.175E-03     104.508E-03     19.0991E+06     5.16259E+06    -2.78875E+06    -2.58461E+06     4.95844E+06     19.0991E+06     55.7020E+03         86.7690
             378     11.1154E-03     87.9763E-03         1.18083    -333.232E-03    -342.711E-03    -339.940E-03         1.18062    -335.792E-03    -27.8598E-03     598.823E-03    -299.239E-03    -300.082E-03    -298.112E-03     596.981E-03    -299.368E-03     81.2107E-03     16.2696E+06     4.09428E+06    -4.39938E+06    -3.71026E+06     3.40517E+06     16.2696E+06     1.39893E+06         81.8323
             379     10.3747E-03     87.8405E-03         1.18835    -334.760E-03    -347.055E-03    -345.595E-03         1.18765    -335.520E-03     14.8631E-03     599.188E-03    -298.877E-03    -299.166E-03    -297.572E-03     597.813E-03    -299.096E-03     69.7885E-03     14.8015E+06     3.36155E+06    -5.82605E+06    -5.23410E+06      2.7696E+06     14.8015E+06     1.62924E+06         77.1059
             380     9.63343E-03     87.7376E-03         1.19389    -334.661E-03    -351.998E-03    -351.165E-03         1.19305    -334.661E-03     6.66307E-03     599.174E-03    -298.518E-03    -298.790E-03    -297.833E-03     598.307E-03    -298.608E-03     55.3713E-03     14.7056E+06     3.38295E+06    -7.32685E+06    -7.23895E+06     3.29506E+06     14.7056E+06     322.322E+03         73.4565
             381     8.89172E-03     87.6542E-03         1.18976    -333.522E-03    -349.014E-03    -348.173E-03         1.18892    -333.522E-03     6.99063E-03     598.014E-03    -297.528E-03    -298.216E-03    -297.088E-03     597.464E-03    -298.106E-03     44.1554E-03     13.9677E+06     3.17636E+06    -8.99762E+06    -8.96092E+06     3.13965E+06     13.9677E+06     420.311E+03         71.0262
             382     8.15056E-03     87.5893E-03         1.18051    -332.756E-03    -340.549E-03    -338.960E-03         1.17892    -332.756E-03    -18.0761E-03     597.321E-03    -296.683E-03    -298.975E-03    -296.354E-03     596.992E-03    -298.975E-03     33.8286E-03     11.6859E+06     813.966E+03    -10.6934E+06    -10.6106E+06     731.182E+03     11.6859E+06     791.351E+03         69.7063
             383     7.40913E-03     87.5381E-03         1.17368    -331.652E-03    -334.668E-03    -332.152E-03         1.17214    -332.633E-03    -20.4754E-03     596.572E-03    -297.137E-03    -299.030E-03    -296.975E-03     596.410E-03    -299.030E-03     23.6452E-03     8.16118E+06    -974.391E+03    -12.7054E+06    -12.6085E+06    -1.07134E+06     8.16118E+06     1.05122E+06         69.1107
             384     6.66782E-03     87.5071E-03         1.17194    -328.529E-03    -334.585E-03    -329.665E-03         1.17144    -332.954E-03     27.5327E-03     593.992E-03    -297.667E-03    -298.667E-03    -297.599E-03     593.923E-03    -298.667E-03     15.1002E-03     4.43586E+06    -2.93361E+06    -14.7937E+06    -14.6598E+06    -3.06750E+06     4.43586E+06     1.21443E+06         68.8822
             385     5.92779E-03     87.4839E-03         1.17406    -326.857E-03    -336.860E-03    -329.888E-03         1.17367    -333.437E-03     19.8194E-03     595.905E-03    -298.116E-03    -299.706E-03    -298.097E-03     595.886E-03    -299.706E-03     7.45986E-03    -430.167E+03    -6.86248E+06    -16.9123E+06    -16.7269E+06    -7.04789E+06    -430.167E+03     1.31550E+06         68.7924
             386     5.18602E-03     87.4809E-03         1.18074    -330.368E-03    -339.588E-03    -335.992E-03         1.18028    -333.504E-03     38.4455E-03     597.934E-03    -298.802E-03    -299.824E-03    -299.039E-03     597.931E-03    -299.584E-03     1.00026E-03    -5.52423E+06    -10.6029E+06    -19.0192E+06    -18.7447E+06    -10.8774E+06    -5.52423E+06     1.39128E+06         68.6787
             387     4.44456E-03     87.4860E-03         1.18900    -332.051E-03    -346.980E-03    -346.839E-03         1.18886    -332.051E-03     2.32767E-03     598.377E-03    -299.221E-03    -299.719E-03    -299.530E-03     598.372E-03    -299.405E-03    -3.79767E-03    -10.2792E+06    -13.3560E+06    -20.8079E+06    -20.4705E+06    -13.6933E+06    -10.2792E+06     1.38884E+06         68.4765
             388     3.70476E-03     87.5004E-03         1.19014    -328.233E-03    -353.486E-03    -353.001E-03         1.18965    -328.233E-03     28.9436E-03     599.530E-03    -299.380E-03    -300.063E-03    -299.878E-03     599.515E-03    -299.550E-03    -7.16396E-03    -14.5595E+06    -16.3727E+06    -22.3289E+06    -21.9944E+06    -16.7072E+06    -14.5595E+06     1.20142E+06         68.1947
             389     2.96390E-03     87.5211E-03         1.18023    -322.040E-03    -351.348E-03    -350.446E-03         1.17933    -322.040E-03     2.70325E-03     598.604E-03    -299.564E-03    -300.277E-03    -299.980E-03     598.582E-03    -299.839E-03    -8.87686E-03    -18.0201E+06    -19.3422E+06    -24.0054E+06    -23.6968E+06    -19.6072E+06    -18.0637E+06     992.527E+03         67.9189
             390     2.22303E-03     87.5409E-03         1.16344    -314.424E-03    -342.267E-03    -337.622E-03         1.15880    -314.424E-03     77.8002E-03     598.746E-03    -299.364E-03    -300.244E-03    -299.343E-03     598.724E-03    -300.244E-03    -8.70164E-03    -20.6339E+06    -21.4188E+06    -25.2145E+06    -24.8346E+06    -21.6520E+06    -20.7805E+06     1.03087E+06         67.7528
             391     1.48178E-03     87.5559E-03         1.14623    -307.316E-03    -330.817E-03    -319.404E-03         1.13482    -307.316E-03    -33.2280E-03     600.004E-03    -299.711E-03    -300.527E-03    -299.697E-03     599.991E-03    -300.527E-03    -6.82891E-03    -22.6453E+06    -23.2378E+06    -25.9739E+06    -25.6151E+06    -23.2312E+06    -23.0107E+06     978.227E+03         67.7101
             392     740.808E-06     87.5675E-03         1.16026    -240.776E-03    -409.122E-03    -209.620E-03         1.11856    -398.581E-03     153.497E-03     600.936E-03    -300.162E-03    -300.606E-03    -300.217E-03     600.932E-03    -300.546E-03    -3.33945E-03    -25.3390E+06    -25.9208E+06    -27.2309E+06    -26.7881E+06    -25.8676E+06    -25.8351E+06     495.051E+03         67.7210
             393     12.6097E-03     86.5065E-03         1.21185    -340.740E-03    -355.322E-03    -355.289E-03         1.21182    -340.740E-03     1.55640E-03     603.909E-03    -299.038E-03    -303.185E-03    -299.510E-03     600.234E-03    -299.038E-03     114.846E-03     20.9200E+06     4.82949E+06    -1.23579E+06    -1.19269E+06     4.78638E+06     20.9200E+06     387.450E+03         90.5190
             394     11.8683E-03     86.2873E-03         1.21517    -340.422E-03    -356.915E-03    -356.895E-03         1.21515    -340.422E-03     4.04266E-03     601.701E-03    -299.175E-03    -302.135E-03    -299.018E-03     598.585E-03    -299.175E-03     104.046E-03     17.4864E+06     4.11974E+06    -3.20104E+06    -2.86460E+06     3.78330E+06     17.4864E+06     543.337E+03         86.7624
             395     11.1153E-03     86.1392E-03         1.21746    -339.719E-03    -358.374E-03    -358.217E-03         1.21731    -339.719E-03    -24.3583E-03     598.588E-03    -299.187E-03    -300.195E-03    -298.214E-03     596.772E-03    -299.352E-03     80.6543E-03     15.6213E+06     4.51115E+06    -5.13814E+06    -4.47174E+06     3.84475E+06     15.6213E+06     645.815E+03         81.8300
             396     10.3737E-03     86.0022E-03         1.21520    -338.808E-03    -356.001E-03    -355.225E-03         1.21443    -338.808E-03     22.5301E-03     599.001E-03    -298.854E-03    -299.137E-03    -297.553E-03     597.629E-03    -299.067E-03     69.6686E-03     14.5000E+06     4.66371E+06    -5.71360E+06    -5.24963E+06     4.19974E+06     14.5000E+06     1.12461E+06         77.1043
             397     9.63333E-03     85.9017E-03         1.20652    -336.778E-03    -348.765E-03    -346.319E-03         1.20546    -338.162E-03     7.96646E-03     599.360E-03    -298.538E-03    -298.931E-03    -298.015E-03     598.492E-03    -298.586E-03     55.4916E-03     13.1191E+06     4.05719E+06    -6.40159E+06    -6.26959E+06     3.92520E+06     13.1191E+06     1.00701E+06         73.4551
             398     8.89189E-03     85.8181E-03         1.19832    -336.201E-03    -341.406E-03    -338.560E-03         1.19734    -338.074E-03     4.10204E-03     598.359E-03    -297.674E-03    -298.364E-03    -297.390E-03     597.800E-03    -298.089E-03     44.5155E-03     11.7127E+06     2.44627E+06    -8.26187E+06    -8.19934E+06     2.38374E+06     11.7127E+06     521.368E+03         71.0274
             399     8.15066E-03     85.7553E-03         1.19734    -337.850E-03    -339.275E-03    -336.988E-03         1.19554    -338.339E-03    -21.9938E-03     597.289E-03    -296.661E-03    -298.938E-03    -296.328E-03     596.956E-03    -298.938E-03     34.0641E-03     10.5078E+06     298.160E+03    -10.2254E+06    -10.1830E+06     255.775E+03     10.5078E+06     424.540E+03         69.7087
             400     7.40982E-03     85.7055E-03         1.19805    -337.675E-03    -339.740E-03    -336.997E-03         1.19628    -338.656E-03    -23.2291E-03     596.489E-03    -296.931E-03    -298.988E-03    -296.769E-03     596.326E-03    -298.988E-03     23.5791E-03     8.48839E+06    -1.31995E+06    -12.0163E+06    -11.9614E+06    -1.37477E+06     8.48839E+06     652.834E+03         69.1103
             401     6.66833E-03     85.6758E-03         1.19765    -334.571E-03    -341.388E-03    -336.355E-03         1.19705    -338.996E-03     24.7789E-03     594.045E-03    -297.691E-03    -298.609E-03    -297.624E-03     593.979E-03    -298.609E-03     14.9578E-03     5.24509E+06    -2.97485E+06    -13.7626E+06    -13.6705E+06    -3.06692E+06     5.24509E+06     959.649E+03         68.8802
             402     5.92708E-03     85.6521E-03         1.19936    -332.797E-03    -343.522E-03    -336.515E-03         1.19893    -339.377E-03     7.46501E-03     596.523E-03    -298.606E-03    -299.879E-03    -298.586E-03     596.503E-03    -299.879E-03     7.52308E-03    -448.115E+03    -6.65737E+06    -15.7199E+06    -15.5500E+06    -6.82725E+06    -448.115E+03     1.17872E+06         68.7915
             403     5.18592E-03     85.6509E-03         1.20172    -335.463E-03    -342.604E-03    -337.891E-03         1.20125    -339.704E-03     25.4904E-03     598.451E-03    -299.260E-03    -299.919E-03    -299.354E-03     598.448E-03    -299.823E-03     934.809E-06    -4.84568E+06    -10.4318E+06    -17.7823E+06    -17.4684E+06    -10.7456E+06    -4.84568E+06     1.45809E+06         68.6768
             404     4.44515E-03     85.6578E-03         1.20266    -336.330E-03    -343.491E-03    -339.472E-03         1.20218    -339.866E-03    -18.8882E-03     597.905E-03    -298.940E-03    -299.559E-03    -299.031E-03     597.899E-03    -299.462E-03    -4.01890E-03    -8.69274E+06    -12.7619E+06    -20.0103E+06    -19.6281E+06    -13.1441E+06    -8.69274E+06     1.49673E+06         68.4716
             405     3.70361E-03     85.6729E-03         1.20168    -330.317E-03    -351.073E-03    -340.978E-03         1.20101    -339.737E-03     3.35535E-03     599.290E-03    -299.158E-03    -299.932E-03    -299.410E-03     599.276E-03    -299.666E-03    -7.17061E-03    -13.3872E+06    -15.5525E+06    -21.4678E+06    -21.1468E+06    -15.8734E+06    -13.3872E+06     1.17577E+06         68.1889
             406     2.96309E-03     85.6939E-03         1.19870    -327.796E-03    -352.417E-03    -339.345E-03         1.19733    -339.501E-03    -21.5773E-03     598.882E-03    -299.786E-03    -300.245E-03    -300.032E-03     598.862E-03    -299.979E-03    -8.49770E-03    -16.3659E+06    -17.7747E+06    -22.0704E+06    -21.7996E+06    -18.0019E+06    -16.4095E+06     878.803E+03         67.9163
             407     2.22278E-03     85.7148E-03         1.19923    -334.532E-03    -346.736E-03    -336.767E-03         1.19452    -339.783E-03     57.5794E-03     599.151E-03    -299.685E-03    -300.334E-03    -299.666E-03     599.132E-03    -300.334E-03    -8.24727E-03    -19.8505E+06    -20.8587E+06    -23.4162E+06    -23.2186E+06    -20.6815E+06    -20.2254E+06     537.323E+03         67.7562
             408     1.48185E-03     85.7320E-03         1.20987    -339.599E-03    -350.940E-03    -339.632E-03         1.19910    -340.135E-03    -43.4343E-03     600.315E-03    -299.973E-03    -300.558E-03    -299.961E-03     600.303E-03    -300.558E-03    -6.60326E-03    -21.8461E+06    -23.1582E+06    -25.0751E+06    -24.2785E+06    -22.6446E+06    -23.1564E+06     49.3691E+03         67.7185
             409     741.105E-06     85.7409E-03         1.23657    -277.158E-03    -437.567E-03    -250.837E-03         1.20202    -429.331E-03     128.272E-03     600.868E-03    -300.064E-03    -300.676E-03    -300.059E-03     600.863E-03    -300.676E-03    -3.89092E-03    -22.2897E+06    -23.4847E+06    -24.9222E+06    -23.9337E+06    -23.2604E+06    -23.5025E+06    -153.615E+03         67.7332
             410     12.6105E-03     84.6718E-03         1.25011    -346.952E-03    -372.419E-03    -372.404E-03         1.25010    -346.952E-03     562.298E-06     604.105E-03    -299.040E-03    -303.495E-03    -299.841E-03     600.451E-03    -299.040E-03     114.506E-03     21.1320E+06     4.20452E+06    -1.39170E+06    -1.37151E+06     4.18432E+06     21.1320E+06     157.340E+03         90.5084
             411     11.8687E-03     84.4525E-03         1.25096    -346.029E-03    -372.231E-03    -372.214E-03         1.25095    -346.029E-03    -1.48124E-03     601.832E-03    -299.162E-03    -302.237E-03    -299.123E-03     598.717E-03    -299.162E-03     104.010E-03     17.6347E+06     4.68630E+06    -2.78476E+06    -2.46438E+06     4.36592E+06     17.6347E+06     1.22721E+06         86.7570
             412     11.1149E-03     84.3070E-03         1.24364    -345.093E-03    -364.824E-03    -364.657E-03         1.24347    -345.093E-03    -27.9708E-03     598.518E-03    -299.110E-03    -300.058E-03    -298.027E-03     596.700E-03    -299.322E-03     80.7058E-03     14.7406E+06     4.37748E+06    -4.13850E+06    -3.72616E+06     3.96514E+06     14.7406E+06     934.611E+03         81.8286
             413     10.3744E-03     84.1705E-03         1.23506    -344.554E-03    -355.530E-03    -354.796E-03         1.23433    -344.554E-03     20.6927E-03     598.866E-03    -298.816E-03    -299.079E-03    -297.442E-03     597.489E-03    -299.076E-03     69.7616E-03     13.3572E+06     3.18582E+06     -5.3556E+06    -5.17256E+06     3.00278E+06     13.3572E+06    -152.287E+03         77.1068
             414     9.63250E-03     84.0711E-03         1.22972    -343.082E-03    -350.937E-03    -348.404E-03         1.22857    -344.466E-03     380.645E-06     599.325E-03    -298.557E-03    -298.942E-03    -298.024E-03     598.455E-03    -298.604E-03     55.5501E-03     12.6212E+06     3.57869E+06    -6.44632E+06    -6.31212E+06     3.44449E+06     12.6212E+06     594.740E+03         73.4591
             415     8.89167E-03     83.9869E-03         1.22870    -342.640E-03    -350.728E-03    -347.692E-03         1.22754    -344.513E-03     437.880E-06     598.456E-03    -297.740E-03    -298.423E-03    -297.516E-03     597.897E-03    -298.088E-03     44.4667E-03     11.3236E+06     2.79705E+06    -7.79759E+06    -7.62803E+06     2.62749E+06     11.3236E+06     1.27590E+06         71.0303
             416     8.15101E-03     83.9254E-03         1.23138    -343.852E-03    -352.669E-03    -350.121E-03         1.22932    -344.341E-03    -25.3144E-03     597.256E-03    -296.696E-03    -298.921E-03    -296.362E-03     596.923E-03    -298.921E-03     34.1121E-03     9.29674E+06     1.14247E+06    -9.63371E+06    -9.49297E+06     1.00173E+06     9.29674E+06     1.03064E+06         69.7103
             417     7.40897E-03     83.8752E-03         1.23382    -343.688E-03    -356.029E-03    -354.109E-03         1.23190    -343.688E-03    -30.1642E-03     596.425E-03    -296.997E-03    -298.988E-03    -296.862E-03     596.256E-03    -298.953E-03     24.1245E-03     6.73278E+06    -1.14572E+06    -11.6583E+06    -11.6181E+06    -1.18592E+06     6.73278E+06     504.747E+03         69.1112
             418     6.66837E-03     83.8453E-03         1.23655    -342.288E-03    -359.717E-03    -359.116E-03         1.23595    -342.288E-03     16.8759E-03     594.198E-03    -297.875E-03    -298.608E-03    -297.839E-03     594.127E-03    -298.573E-03     15.4029E-03     4.09962E+06    -3.48615E+06    -13.6568E+06    -13.6226E+06    -3.52029E+06     4.09962E+06     484.727E+03         68.8812
             419     5.92833E-03     83.8220E-03         1.23445    -340.200E-03    -358.999E-03    -358.821E-03         1.23427    -340.200E-03    -14.3717E-03     596.510E-03    -298.517E-03    -299.836E-03    -298.496E-03     596.489E-03    -299.836E-03     7.83481E-03    -463.414E+03    -6.56942E+06    -15.2805E+06    -15.1828E+06    -6.66710E+06    -463.414E+03     784.866E+03         68.7933
             420     5.18591E-03     83.8208E-03         1.22271    -337.220E-03    -349.500E-03    -348.312E-03         1.22262    -338.325E-03    -4.19665E-03     598.942E-03    -299.367E-03    -300.320E-03    -299.617E-03     598.939E-03    -300.067E-03     1.22372E-03    -5.11141E+06    -10.8544E+06    -16.6594E+06    -16.5355E+06    -10.9783E+06    -5.11141E+06     823.494E+03         68.6798
             421     4.44471E-03     83.8281E-03         1.20866    -332.235E-03    -340.567E-03    -334.174E-03         1.20798    -337.948E-03    -54.7389E-03     598.185E-03    -299.056E-03    -299.764E-03    -299.303E-03     598.179E-03    -299.511E-03    -4.10913E-03    -6.99937E+06    -12.3578E+06    -17.9503E+06    -17.7261E+06    -12.5819E+06    -6.99937E+06     913.231E+03         68.4713
             422     3.70404E-03     83.8463E-03         1.19722    -322.468E-03    -340.147E-03    -321.828E-03         1.19658    -340.147E-03    -37.7379E-03     598.717E-03    -298.890E-03    -299.492E-03    -298.883E-03     598.700E-03    -299.481E-03    -7.67078E-03    -10.4825E+06    -13.9905E+06    -19.6115E+06    -19.3077E+06    -14.2943E+06    -10.4825E+06     1.03581E+06         68.1835
             423     2.96255E-03     83.8673E-03         1.20082    -323.473E-03    -344.883E-03    -322.295E-03         1.19964    -344.883E-03    -49.9516E-03     598.612E-03    -299.582E-03    -300.106E-03    -299.568E-03     598.587E-03    -300.096E-03    -9.30532E-03    -15.4475E+06    -17.0379E+06    -21.4522E+06    -21.2606E+06    -17.2295E+06    -15.4475E+06     732.796E+03         67.9125
             424     2.22140E-03     83.8894E-03         1.21799    -336.357E-03    -350.798E-03    -332.775E-03         1.21440    -350.798E-03     30.8505E-03     599.373E-03    -299.765E-03    -300.483E-03    -299.743E-03     599.351E-03    -300.483E-03    -8.79044E-03    -18.4398E+06    -19.4231E+06    -22.2833E+06    -22.1124E+06    -19.2627E+06    -18.7710E+06     528.662E+03         67.7590
             425     1.48154E-03     83.9047E-03         1.24200    -349.831E-03    -360.593E-03    -347.656E-03         1.23517    -355.933E-03    -25.3023E-03     600.668E-03    -300.183E-03    -300.688E-03    -300.169E-03     600.655E-03    -300.688E-03    -6.71634E-03    -20.6056E+06    -21.9554E+06    -23.9138E+06    -23.0134E+06    -21.4096E+06    -22.0519E+06     211.972E+03         67.7275
             426     741.113E-06     83.9186E-03         1.26495    -289.917E-03    -443.915E-03    -276.912E-03         1.24729    -439.255E-03     71.9664E-03     601.138E-03    -300.030E-03    -300.843E-03    -300.025E-03     601.133E-03    -300.843E-03    -3.54854E-03    -22.7060E+06    -24.0211E+06    -25.4247E+06    -24.2774E+06    -23.6441E+06    -24.2304E+06    -196.617E+03         67.7463
             427     12.6096E-03     82.8364E-03         1.27261    -353.621E-03    -373.488E-03    -373.432E-03         1.27255    -353.621E-03     4.69945E-03     603.976E-03    -299.053E-03    -303.393E-03    -299.730E-03     600.313E-03    -299.053E-03     114.664E-03     19.8386E+06     3.95749E+06    -1.43351E+06    -1.39797E+06     3.92194E+06     19.8386E+06     263.923E+03         90.4965
             428     11.8691E-03     82.6183E-03         1.26822    -353.403E-03    -369.059E-03    -368.982E-03         1.26814    -353.403E-03     657.163E-06     601.733E-03    -299.156E-03    -302.195E-03    -299.069E-03     598.606E-03    -299.156E-03     104.309E-03     16.9453E+06     4.58783E+06    -2.57755E+06    -2.36975E+06     4.38003E+06     16.9453E+06     334.416E+03         86.7499
             429     11.1146E-03     82.4709E-03         1.26302    -353.401E-03    -363.365E-03    -363.212E-03         1.26287    -353.401E-03    -29.2797E-03     598.672E-03    -299.127E-03    -300.049E-03    -298.022E-03     596.832E-03    -299.314E-03     81.1876E-03     14.1005E+06     3.73848E+06    -3.25533E+06    -2.96754E+06     3.45069E+06     14.1005E+06     724.346E+03         81.8258
             430     10.3742E-03     82.3360E-03         1.26293    -353.521E-03    -362.050E-03    -361.182E-03         1.26206    -353.521E-03     29.2602E-03     599.142E-03    -298.875E-03    -299.155E-03    -297.583E-03     597.757E-03    -299.062E-03     70.0200E-03     12.5405E+06     2.49925E+06    -4.57008E+06    -4.33517E+06     2.26434E+06     12.5405E+06     698.007E+03         77.1085
             431     9.63254E-03     82.2383E-03         1.26701    -353.436E-03    -365.280E-03    -364.053E-03         1.26578    -353.436E-03     9.59531E-03     599.419E-03    -298.589E-03    -298.969E-03    -298.092E-03     598.543E-03    -298.589E-03     55.7428E-03     12.2831E+06     3.44046E+06    -6.21816E+06    -6.04931E+06     3.27160E+06     12.2831E+06     628.927E+03         73.4614
             432     8.89173E-03     82.1511E-03         1.26998    -352.890E-03    -368.772E-03    -367.309E-03         1.26851    -352.890E-03     16.9815E-03     598.213E-03    -297.515E-03    -298.382E-03    -297.239E-03     597.652E-03    -298.096E-03     44.5603E-03     11.8947E+06      2.9371E+06    -7.51770E+06    -7.38743E+06     2.80683E+06     11.8947E+06     986.047E+03         71.0289
             433     8.15011E-03     82.0885E-03         1.27238    -351.784E-03    -372.769E-03    -370.525E-03         1.27014    -351.784E-03    -7.34292E-03     597.154E-03    -296.657E-03    -298.964E-03    -296.323E-03     596.820E-03    -298.964E-03     34.1187E-03     10.0102E+06     1.69807E+06    -8.76399E+06    -8.63903E+06     1.57311E+06     10.0102E+06     913.017E+03         69.7072
             434     7.40931E-03     82.0432E-03         1.27001    -350.159E-03    -372.386E-03    -370.327E-03         1.26795    -350.159E-03    -13.7772E-03     596.628E-03    -297.252E-03    -299.026E-03    -297.117E-03     596.459E-03    -298.991E-03     24.2089E-03     7.22166E+06    -105.809E+03    -10.2286E+06    -10.1283E+06    -206.171E+03     7.22166E+06     826.635E+03         69.1109
             435     6.66798E-03     82.0132E-03         1.25995    -345.775E-03    -367.074E-03    -363.530E-03         1.25912    -348.482E-03     41.2410E-03     594.260E-03    -297.931E-03    -298.628E-03    -297.894E-03     594.188E-03    -298.593E-03     15.4218E-03     4.33329E+06    -3.35854E+06    -12.1871E+06    -12.1086E+06    -3.43703E+06     4.33329E+06     611.292E+03         68.8840
             436     5.92665E-03     81.9933E-03         1.25113    -341.504E-03    -361.885E-03    -355.716E-03         1.25069    -347.231E-03     22.5278E-03     596.556E-03    -298.485E-03    -299.855E-03    -298.465E-03     596.536E-03    -299.855E-03     7.64881E-03    -696.041E+03    -7.07827E+06    -14.1874E+06    -14.1207E+06    -7.14493E+06    -696.041E+03     574.078E+03         68.7966
             437     5.18514E-03     81.9914E-03         1.24730    -343.064E-03    -355.438E-03    -351.687E-03         1.24683    -346.342E-03     39.7953E-03     598.928E-03    -299.361E-03    -300.323E-03    -299.597E-03     598.925E-03    -300.084E-03     1.19582E-03    -5.59260E+06    -10.5192E+06    -15.6691E+06    -15.5977E+06    -10.5906E+06    -5.59260E+06     589.947E+03         68.6823
             438     4.44471E-03     81.9990E-03         1.24226    -343.340E-03    -349.695E-03    -346.890E-03         1.24189    -345.774E-03    -14.2509E-03     598.426E-03    -299.223E-03    -299.784E-03    -299.456E-03     598.420E-03    -299.545E-03    -4.01138E-03    -7.63247E+06    -12.1888E+06    -16.9175E+06    -16.8928E+06    -12.2135E+06    -7.63247E+06     234.829E+03         68.4709
             439     3.70407E-03     82.0189E-03         1.23704    -337.628E-03    -350.778E-03    -341.987E-03         1.23651    -345.887E-03    -251.826E-06     598.651E-03    -298.790E-03    -299.493E-03    -299.018E-03     598.635E-03    -299.250E-03    -7.51213E-03    -10.1307E+06    -13.9125E+06    -18.4974E+06    -18.4556E+06    -13.9543E+06    -10.1307E+06     267.308E+03         68.1772
             440     2.96342E-03     82.0419E-03         1.23750    -336.836E-03    -353.109E-03    -342.966E-03         1.23706    -346.541E-03     8.61441E-03     598.258E-03    -299.426E-03    -300.064E-03    -299.645E-03     598.233E-03    -299.821E-03    -9.30132E-03    -14.1477E+06    -16.1758E+06    -19.9796E+06    -19.8827E+06    -16.2727E+06    -14.1477E+06     486.842E+03         67.9037
             441     2.22256E-03     82.0614E-03         1.23946    -338.170E-03    -355.548E-03    -344.596E-03         1.23770    -347.360E-03     54.3289E-03     599.085E-03    -299.553E-03    -300.488E-03    -299.529E-03     599.061E-03    -300.488E-03    -9.26933E-03    -17.9365E+06    -18.6961E+06    -21.7298E+06    -21.5479E+06    -18.8780E+06    -17.9365E+06     603.271E+03         67.7538
             442     1.48123E-03     82.0795E-03         1.24294    -342.193E-03    -356.061E-03    -348.111E-03         1.24056    -347.759E-03     23.4037E-03     600.446E-03    -299.841E-03    -300.832E-03    -299.825E-03     600.430E-03    -300.832E-03    -7.34580E-03    -19.7127E+06    -20.1800E+06    -22.7377E+06    -22.4032E+06    -20.2814E+06    -19.9459E+06     861.548E+03         67.7265
             443     740.015E-06     82.0922E-03         1.24260    -282.597E-03    -416.761E-03    -282.020E-03         1.23893    -413.670E-03    -18.6476E-03     601.736E-03    -300.164E-03    -301.209E-03    -300.158E-03     601.730E-03    -301.209E-03    -3.73330E-03    -21.0085E+06    -21.9284E+06    -23.4943E+06    -22.5222E+06    -21.8269E+06    -22.0822E+06     744.143E+03         67.7493
             444     12.6100E-03     81.0028E-03         1.29194    -362.428E-03    -374.752E-03    -374.698E-03         1.29189    -362.428E-03     6.11623E-03     603.808E-03    -299.059E-03    -303.218E-03    -299.548E-03     600.138E-03    -299.059E-03     114.787E-03     18.9216E+06     3.47184E+06    -813.477E+03    -769.906E+03     3.42827E+06     18.9216E+06     170.904E+03         90.4813
             445     11.8688E-03     80.7852E-03         1.28843    -363.012E-03    -369.347E-03    -369.271E-03         1.28835    -363.012E-03     1.74963E-03     601.521E-03    -299.168E-03    -302.193E-03    -299.071E-03     598.399E-03    -299.168E-03     104.249E-03     14.8452E+06     3.47995E+06    -2.26740E+06    -2.10521E+06     3.31776E+06     14.8452E+06     100.082E+03         86.7402
             446     11.1146E-03     80.6342E-03         1.29223    -363.472E-03    -371.426E-03    -371.202E-03         1.29200    -363.472E-03    -34.0510E-03     598.740E-03    -299.192E-03    -300.188E-03    -298.222E-03     596.904E-03    -299.323E-03     81.0960E-03     12.5401E+06      3.1284E+06    -3.88853E+06    -3.69792E+06     2.93779E+06     12.5401E+06     368.825E+03         81.8197
             447     10.3730E-03     80.5026E-03         1.29792    -363.483E-03    -376.245E-03    -375.237E-03         1.29692    -363.483E-03     26.9601E-03     599.236E-03    -298.870E-03    -299.131E-03    -297.583E-03     597.859E-03    -299.041E-03     69.8128E-03     12.4393E+06     2.84895E+06    -4.81575E+06    -4.61600E+06     2.64920E+06     12.4393E+06     1.10094E+06         77.1029
             448     9.63204E-03     80.4015E-03         1.30194    -363.009E-03    -379.517E-03    -378.055E-03         1.30048    -363.009E-03     6.22100E-03     599.274E-03    -298.551E-03    -298.807E-03    -297.891E-03     598.399E-03    -298.593E-03     55.7177E-03     12.1948E+06     3.72731E+06    -5.65027E+06    -5.49312E+06     3.57017E+06     12.1948E+06     1.02717E+06         73.4546
             449     8.89147E-03     80.3204E-03         1.30304    -362.083E-03    -381.301E-03    -379.810E-03         1.30155    -362.083E-03     6.00735E-03     598.005E-03    -297.475E-03    -298.235E-03    -297.036E-03     597.441E-03    -298.111E-03     44.6489E-03     11.2769E+06     3.19839E+06    -6.97088E+06    -6.94406E+06     3.17157E+06     11.2769E+06     416.424E+03         71.0217
             450     8.14945E-03     80.2558E-03         1.29840    -359.971E-03    -378.311E-03    -374.664E-03         1.29581    -361.026E-03    -22.0836E-03     597.236E-03    -296.790E-03    -298.991E-03    -296.456E-03     596.903E-03    -298.991E-03     34.0838E-03     9.83393E+06     2.00692E+06    -8.55897E+06    -8.54807E+06     1.99602E+06     9.83393E+06      311.84E+03         69.7026
             451     7.40879E-03     80.2103E-03         1.28725    -355.337E-03    -371.386E-03    -363.767E-03         1.28479    -360.488E-03    -27.4395E-03     596.821E-03    -297.452E-03    -299.058E-03    -297.313E-03     596.656E-03    -299.030E-03     23.8927E-03     7.65987E+06     122.195E+03    -10.2265E+06    -10.1446E+06     40.2602E+03     7.65987E+06     738.320E+03         69.1094
             452     6.66757E-03     80.1833E-03         1.27778    -352.933E-03    -364.374E-03    -355.641E-03         1.27693    -360.818E-03     31.2618E-03     594.202E-03    -297.914E-03    -298.615E-03    -297.872E-03     594.131E-03    -298.588E-03     15.3420E-03     4.27835E+06    -3.29868E+06    -12.1273E+06    -12.0044E+06    -3.42158E+06     4.27835E+06     975.505E+03         68.8841
             453     5.92750E-03     80.1592E-03         1.27626    -353.787E-03    -361.776E-03    -353.275E-03         1.27575    -361.776E-03     13.2083E-03     596.619E-03    -298.575E-03    -299.906E-03    -298.555E-03     596.598E-03    -299.906E-03     7.66017E-03    -1.42098E+06    -6.89642E+06    -13.8059E+06    -13.7017E+06    -7.00066E+06    -1.42098E+06     833.320E+03         68.7979
             454     5.18570E-03     80.1610E-03         1.27990    -355.980E-03    -362.875E-03    -355.416E-03         1.27933    -362.875E-03     25.3871E-03     598.616E-03    -299.274E-03    -300.055E-03    -299.381E-03     598.613E-03    -299.946E-03     1.20367E-03    -5.70653E+06    -9.46481E+06    -15.1293E+06    -15.0492E+06    -9.54495E+06    -5.70653E+06     652.672E+03         68.6840
             455     4.44427E-03     80.1671E-03         1.28944    -360.559E-03    -367.491E-03    -364.386E-03         1.28903    -363.254E-03    -24.1443E-03     598.319E-03    -299.208E-03    -299.712E-03    -299.312E-03     598.313E-03    -299.603E-03    -3.72165E-03    -9.08603E+06    -11.9410E+06    -16.7481E+06    -16.7184E+06    -11.9707E+06    -9.08603E+06     287.839E+03         68.4743
             456     3.70356E-03     80.1871E-03         1.29705    -361.950E-03    -373.251E-03    -372.742E-03         1.29654    -361.950E-03    -11.4266E-03     598.865E-03    -298.926E-03    -299.710E-03    -299.301E-03     598.851E-03    -299.321E-03    -7.15454E-03    -11.3300E+06    -14.1367E+06    -18.1465E+06    -18.1050E+06    -14.1782E+06    -11.3300E+06     217.996E+03         68.1789
             457     2.96302E-03     80.2110E-03         1.29443    -358.752E-03    -374.670E-03    -374.380E-03         1.29414    -358.752E-03     12.0735E-03     598.245E-03    -299.491E-03    -300.035E-03    -299.860E-03     598.224E-03    -299.645E-03    -8.60971E-03    -13.5188E+06    -15.9526E+06    -19.2028E+06    -19.1260E+06    -16.0295E+06    -13.5188E+06     338.076E+03         67.9008
             458     2.22265E-03     80.2341E-03         1.28187    -353.584E-03    -368.596E-03    -367.155E-03         1.28137    -354.533E-03     38.0131E-03     599.261E-03    -299.694E-03    -300.508E-03    -299.674E-03     599.240E-03    -300.508E-03    -8.58676E-03    -17.6423E+06    -18.6972E+06    -20.5500E+06    -20.3331E+06    -18.6747E+06    -17.8819E+06     31.0675E+03         67.7519
             459     1.48152E-03     80.2516E-03         1.27233    -348.075E-03    -364.394E-03    -362.004E-03         1.27088    -349.024E-03     64.5617E-03     600.516E-03    -299.921E-03    -300.807E-03    -299.907E-03     600.503E-03    -300.807E-03    -6.86432E-03    -19.5896E+06    -20.1527E+06    -21.5154E+06    -20.8954E+06    -20.0269E+06    -20.3353E+06     8.73779E+03         67.7257
             460     740.813E-06     80.2642E-03         1.26347    -309.056E-03    -395.853E-03    -305.571E-03         1.24982    -385.692E-03    -138.978E-03     601.698E-03    -300.362E-03    -301.136E-03    -300.511E-03     601.693E-03    -300.982E-03    -4.10189E-03    -19.4741E+06    -20.1640E+06    -21.7031E+06    -20.5057E+06    -20.3835E+06    -20.4521E+06     161.441E+03         67.7457
             461     12.6101E-03     79.1680E-03         1.32410    -373.105E-03    -387.130E-03    -387.097E-03         1.32407    -373.105E-03    -1.91631E-03     603.703E-03    -299.032E-03    -303.184E-03    -299.526E-03     600.045E-03    -299.032E-03     114.552E-03     16.8968E+06     2.99347E+06    -1.24880E+06    -1.23428E+06     2.97895E+06     16.8968E+06    -52.2368E+03         90.4660
             462     11.8691E-03     78.9467E-03         1.32923    -373.389E-03    -388.901E-03    -388.863E-03         1.32920    -373.389E-03    -2.51877E-03     601.614E-03    -299.192E-03    -302.187E-03    -299.070E-03     598.497E-03    -299.192E-03     104.102E-03     14.5297E+06     2.43969E+06    -2.53183E+06    -2.41566E+06     2.32353E+06     14.5297E+06     521.006E+03         86.7317
             463     11.1140E-03     78.7963E-03         1.33177    -373.245E-03    -389.928E-03    -389.674E-03         1.33152    -373.245E-03    -36.6480E-03     598.895E-03    -299.234E-03    -300.207E-03    -298.289E-03     597.080E-03    -299.337E-03     80.6311E-03     13.0440E+06     3.41648E+06    -3.41791E+06    -3.30878E+06     3.30735E+06     13.0440E+06     682.409E+03         81.8152
             464     10.3740E-03     78.6638E-03         1.33285    -372.768E-03    -390.124E-03    -389.095E-03         1.33182    -372.768E-03     24.4865E-03     599.114E-03    -298.822E-03    -299.029E-03    -297.460E-03     597.753E-03    -299.029E-03     69.4253E-03     12.1971E+06     3.24468E+06    -4.53817E+06    -4.48296E+06     3.18947E+06     12.1971E+06     549.043E+03         77.0969
             465     9.63219E-03     78.5632E-03         1.33178    -372.127E-03    -388.768E-03    -387.308E-03         1.33032    -372.127E-03     5.67060E-03     598.991E-03    -298.501E-03    -298.639E-03    -297.669E-03     598.126E-03    -298.606E-03     55.3640E-03     11.4966E+06     3.07237E+06    -5.77231E+06    -5.71463E+06     3.01469E+06     11.4966E+06     591.672E+03         73.4470
             466     8.88980E-03     78.4792E-03         1.32730    -371.536E-03    -383.905E-03    -382.419E-03         1.32581    -371.536E-03     5.10495E-03     598.060E-03    -297.619E-03    -298.156E-03    -297.095E-03     597.503E-03    -298.123E-03     44.4023E-03     10.3070E+06     3.49224E+06    -6.99295E+06    -6.96622E+06     3.46551E+06     10.3070E+06     488.427E+03         71.0151
             467     8.14975E-03     78.4165E-03         1.32197    -370.253E-03    -378.924E-03    -374.753E-03         1.31886    -371.308E-03    -35.8375E-03     597.386E-03    -296.885E-03    -298.986E-03    -296.551E-03     597.052E-03    -298.986E-03     34.1055E-03     8.56420E+06     2.13388E+06    -8.66526E+06    -8.62699E+06     2.09561E+06     8.56420E+06     588.730E+03         69.6979
             468     7.40900E-03     78.3711E-03         1.31848    -366.324E-03    -378.639E-03    -370.637E-03         1.31563    -371.474E-03    -45.0279E-03     596.613E-03    -297.222E-03    -299.063E-03    -297.085E-03     596.448E-03    -299.036E-03     23.7757E-03     6.49319E+06    -405.640E+03    -10.3121E+06    -10.2767E+06    -441.071E+03     6.49319E+06     505.308E+03         69.1050
             469     6.66692E-03     78.3425E-03         1.32055    -366.328E-03    -380.634E-03    -374.619E-03         1.31972    -371.506E-03     12.1146E-03     594.070E-03    -297.503E-03    -298.629E-03    -297.460E-03     593.999E-03    -298.601E-03     15.4858E-03     4.03685E+06    -3.17230E+06    -11.8889E+06    -11.8381E+06    -3.22315E+06     4.03685E+06     560.357E+03         68.8796
             470     5.92615E-03     78.3225E-03         1.32318    -368.663E-03    -381.231E-03    -378.610E-03         1.32282    -370.925E-03    -15.1855E-03     596.703E-03    -298.388E-03    -299.990E-03    -298.364E-03     596.680E-03    -299.990E-03     8.35763E-03    -763.766E+03    -6.35450E+06    -13.2030E+06    -13.1383E+06    -6.41920E+06    -763.766E+03     608.129E+03         68.7946
             471     5.18438E-03     78.3204E-03         1.32149    -366.224E-03    -382.424E-03    -378.579E-03         1.32126    -369.841E-03    -5.74535E-03     598.886E-03    -299.390E-03    -300.248E-03    -299.523E-03     598.882E-03    -300.111E-03     1.72890E-03    -5.42633E+06    -9.12836E+06    -14.6692E+06    -14.5848E+06    -9.21271E+06    -5.42633E+06     632.782E+03         68.6843
             472     4.44427E-03     78.3285E-03         1.31882    -366.098E-03    -379.746E-03    -376.887E-03         1.31840    -368.536E-03    -49.9399E-03     598.563E-03    -299.376E-03    -299.854E-03    -299.507E-03     598.558E-03    -299.718E-03    -3.49995E-03    -8.38885E+06    -11.1856E+06    -15.9794E+06    -15.8286E+06    -11.3364E+06    -8.38885E+06     722.697E+03         68.4811
             473     3.70326E-03     78.3478E-03         1.31438    -366.209E-03    -374.864E-03    -373.354E-03         1.31392    -367.262E-03    -52.9392E-03     599.394E-03    -299.296E-03    -299.818E-03    -299.462E-03     599.380E-03    -299.638E-03    -7.05087E-03    -11.0359E+06    -13.6113E+06    -17.2493E+06    -17.1195E+06    -13.7411E+06    -11.0359E+06     500.167E+03         68.1915
             474     2.96274E-03     78.3721E-03         1.31127    -362.866E-03    -375.262E-03    -371.964E-03         1.31101    -365.913E-03    -14.4879E-03     598.743E-03    -299.677E-03    -300.185E-03    -299.836E-03     598.722E-03    -300.005E-03    -8.68449E-03    -14.2016E+06    -15.8925E+06    -18.7601E+06    -18.6834E+06    -15.9693E+06    -14.2016E+06     349.331E+03         67.9148
             475     2.22156E-03     78.3976E-03         1.30607    -361.634E-03    -371.513E-03    -367.841E-03         1.30534    -364.576E-03    -13.3955E-03     599.654E-03    -299.925E-03    -300.605E-03    -299.905E-03     599.633E-03    -300.605E-03    -8.64376E-03    -16.8575E+06    -17.6868E+06    -19.4479E+06    -19.2383E+06    -17.6569E+06    -17.0971E+06     32.1017E+03         67.7634
             476     1.48142E-03     78.4206E-03         1.30614    -361.851E-03    -371.469E-03    -366.218E-03         1.30225    -363.207E-03     78.4895E-03     600.945E-03    -300.369E-03    -300.774E-03    -300.356E-03     600.932E-03    -300.774E-03    -6.72545E-03    -18.5818E+06    -19.3870E+06    -20.7878E+06    -20.1925E+06    -19.3337E+06    -19.2303E+06    -55.9459E+03         67.7345
             477     740.809E-06     78.4366E-03         1.34755    -368.089E-03    -406.811E-03    -331.547E-03         1.29739    -393.194E-03    -285.430E-03     601.409E-03    -300.400E-03    -300.822E-03    -300.550E-03     601.405E-03    -300.668E-03    -3.60480E-03    -20.4616E+06    -21.2923E+06    -22.7408E+06    -21.5674E+06    -21.5601E+06    -21.3672E+06     52.6372E+03         67.7517
             478     12.6107E-03     77.3290E-03         1.36349    -384.043E-03    -400.470E-03    -400.420E-03         1.36344    -384.043E-03     1.57020E-03     603.999E-03    -299.024E-03    -303.458E-03    -299.809E-03     600.350E-03    -299.024E-03     114.461E-03     17.0399E+06      3.1138E+06    -1.32896E+06    -1.28189E+06     3.06673E+06     17.0399E+06     334.614E+03         90.4550
             479     11.8690E-03     77.1072E-03         1.36779    -384.188E-03    -403.056E-03    -403.001E-03         1.36774    -384.188E-03     1.29521E-03     601.980E-03    -299.180E-03    -302.393E-03    -299.294E-03     598.881E-03    -299.180E-03     103.806E-03     15.3281E+06     2.44531E+06    -2.27160E+06    -2.18496E+06     2.35867E+06     15.3281E+06     565.824E+03         86.7277
             480     11.1142E-03     76.9566E-03         1.36665    -384.066E-03    -400.857E-03    -400.666E-03         1.36646    -384.066E-03    -32.6694E-03     598.602E-03    -299.005E-03    -300.116E-03    -298.001E-03     596.801E-03    -299.320E-03     80.2969E-03     13.0691E+06     2.87585E+06    -3.29200E+06    -3.23477E+06     2.81863E+06     13.0691E+06     417.729E+03         81.8159
             481     10.3729E-03     76.8262E-03         1.36222    -383.310E-03    -396.371E-03    -394.477E-03         1.36103    -384.014E-03     35.6890E-03     598.850E-03    -298.624E-03    -299.003E-03    -297.263E-03     597.489E-03    -299.003E-03     69.4132E-03     11.6667E+06     3.20166E+06    -4.13235E+06    -4.12416E+06     3.19346E+06     11.6667E+06     193.011E+03         77.0970
             482     9.63155E-03     76.7262E-03         1.35674    -381.779E-03    -391.345E-03    -387.358E-03         1.35529    -384.315E-03     21.2246E-03     599.104E-03    -298.515E-03    -298.704E-03    -297.774E-03     598.237E-03    -298.579E-03     55.3974E-03     11.0281E+06     3.20662E+06    -5.17699E+06    -5.16558E+06     3.19521E+06     11.0281E+06     228.720E+03         73.4460
             483     8.89078E-03     76.6417E-03         1.35529    -383.084E-03    -387.961E-03    -384.545E-03         1.35371    -384.916E-03     24.9847E-03     598.090E-03    -297.526E-03    -298.242E-03    -297.092E-03     597.531E-03    -298.117E-03     44.5158E-03     10.1026E+06     2.94752E+06    -6.50020E+06    -6.46102E+06     2.90834E+06     10.1026E+06     521.673E+03         71.0128
             484     8.14918E-03     76.5752E-03         1.36261    -385.326E-03    -392.219E-03    -389.358E-03         1.35975    -385.326E-03    -13.6036E-03     597.067E-03    -296.560E-03    -298.991E-03    -296.219E-03     596.727E-03    -298.991E-03     34.4383E-03     8.45640E+06     1.85757E+06    -7.78225E+06    -7.70524E+06     1.78056E+06     8.45640E+06     850.637E+03         69.6924
             485     7.40795E-03     76.5307E-03         1.37033    -384.972E-03    -399.539E-03    -396.697E-03         1.36748    -384.972E-03    -14.2618E-03     596.339E-03    -296.856E-03    -299.053E-03    -296.684E-03     596.166E-03    -299.053E-03     24.3730E-03     6.01671E+06    -33.7328E+03    -9.32264E+06    -9.24700E+06    -109.374E+03     6.01671E+06     747.308E+03         69.0991
             486     6.66684E-03     76.5021E-03         1.36927    -383.833E-03    -400.057E-03    -398.773E-03         1.36799    -383.833E-03     45.9740E-03     594.157E-03    -297.423E-03    -298.634E-03    -297.349E-03     594.082E-03    -298.634E-03     15.7713E-03     3.28883E+06    -3.12283E+06    -11.1919E+06    -11.1421E+06    -3.17261E+06     3.28883E+06     532.663E+03         68.8767
             487     5.92565E-03     76.4845E-03         1.36597    -382.178E-03    -398.691E-03    -397.952E-03         1.36523    -382.178E-03     24.8786E-03     596.267E-03    -298.062E-03    -299.786E-03    -298.040E-03     596.246E-03    -299.786E-03     7.92055E-03    -892.589E+03    -5.99840E+06    -13.2878E+06    -13.2558E+06    -6.03037E+06    -892.589E+03     466.000E+03         68.7946
             488     5.18393E-03     76.4830E-03         1.36209    -380.076E-03    -396.808E-03    -396.183E-03         1.36147    -380.076E-03     35.4417E-03     598.864E-03    -299.318E-03    -300.329E-03    -299.456E-03     598.861E-03    -300.188E-03     1.16437E-03    -5.29281E+06    -9.08461E+06    -14.7123E+06    -14.6574E+06    -9.13950E+06    -5.29281E+06     479.132E+03         68.6878
             489     4.44319E-03     76.4891E-03         1.35186    -377.946E-03    -388.677E-03    -388.574E-03         1.35176    -377.946E-03    -9.40916E-03     598.830E-03    -299.432E-03    -299.970E-03    -299.568E-03     598.824E-03    -299.829E-03    -3.86425E-03    -7.84044E+06    -10.7792E+06    -15.7810E+06    -15.6161E+06    -10.9442E+06    -7.84044E+06     789.964E+03         68.4881
             490     3.70277E-03     76.5092E-03         1.33856    -373.458E-03    -379.925E-03    -376.254E-03         1.33833    -376.904E-03    -24.7999E-03     599.634E-03    -299.305E-03    -299.876E-03    -299.463E-03     599.619E-03    -299.702E-03    -7.27462E-03    -10.9413E+06    -12.6154E+06    -17.0485E+06    -16.8845E+06    -12.7794E+06    -10.9413E+06     760.671E+03         68.2026
             491     2.96204E-03     76.5350E-03         1.33500    -372.043E-03    -377.603E-03    -370.987E-03         1.33382    -377.482E-03     29.8883E-03     599.323E-03    -299.984E-03    -300.450E-03    -300.135E-03     599.301E-03    -300.277E-03    -8.85797E-03    -14.1107E+06    -15.0134E+06    -17.9195E+06    -17.7783E+06    -15.1545E+06    -14.1107E+06     537.831E+03         67.9290
             492     2.22159E-03     76.5614E-03         1.34004    -375.006E-03    -379.919E-03    -374.166E-03         1.33802    -378.736E-03    -6.68089E-03     599.728E-03    -299.966E-03    -300.658E-03    -299.945E-03     599.707E-03    -300.658E-03    -8.75246E-03    -16.2145E+06    -16.9359E+06    -19.3795E+06    -19.0474E+06    -17.1698E+06    -16.3127E+06     682.931E+03         67.7731
             493     1.48142E-03     76.5857E-03         1.35280    -376.802E-03    -391.774E-03    -379.917E-03         1.34308    -378.946E-03     111.910E-03     600.993E-03    -300.347E-03    -300.879E-03    -300.333E-03     600.979E-03    -300.879E-03    -6.92935E-03    -18.3018E+06    -18.9062E+06    -20.7263E+06    -20.4133E+06    -19.0594E+06    -18.4615E+06     497.546E+03         67.7404
             494     740.852E-06     76.6063E-03         1.43383    -393.499E-03    -458.207E-03    -363.075E-03         1.33911    -393.906E-03    -391.681E-03     601.599E-03    -300.304E-03    -300.841E-03    -300.299E-03     601.594E-03    -300.841E-03    -3.61891E-03    -19.5932E+06    -20.6050E+06    -21.4182E+06    -20.8744E+06    -20.6311E+06    -20.1109E+06     398.251E+03         67.7628
             495     12.6097E-03     75.4892E-03         1.39841    -395.823E-03    -408.916E-03    -408.853E-03         1.39835    -395.823E-03     8.76421E-03     604.181E-03    -299.019E-03    -303.652E-03    -300.023E-03     600.553E-03    -299.019E-03     114.162E-03     17.9613E+06     2.71424E+06    -992.620E+03    -940.211E+03     2.66183E+06     17.9613E+06     335.846E+03         90.4489
             496     11.8694E-03     75.2665E-03         1.39666    -396.580E-03    -406.041E-03    -405.980E-03         1.39660    -396.580E-03     9.40417E-03     601.826E-03    -299.163E-03    -302.299E-03    -299.204E-03     598.731E-03    -299.163E-03     103.777E-03     14.8897E+06     2.37988E+06    -1.85006E+06    -1.80915E+06     2.33897E+06     14.8897E+06     182.737E+03         86.7260
             497     11.1144E-03     75.1210E-03         1.39588    -397.185E-03    -403.957E-03    -403.645E-03         1.39567    -397.292E-03    -31.0062E-03     598.389E-03    -298.990E-03    -299.974E-03    -297.834E-03     596.565E-03    -299.306E-03     80.7969E-03     12.5675E+06     3.22799E+06    -2.59572E+06    -2.57699E+06     3.20926E+06     12.5675E+06     172.325E+03         81.8158
             498     10.3726E-03     74.9879E-03         1.39541    -397.181E-03    -402.535E-03    -400.672E-03         1.39436    -397.992E-03     27.6804E-03     598.894E-03    -298.576E-03    -299.008E-03    -297.193E-03     597.512E-03    -299.008E-03     69.9291E-03     11.6724E+06     3.46193E+06    -3.47177E+06    -3.45884E+06     3.44900E+06     11.6724E+06     45.9668E+03         77.0962
             499     9.63171E-03     74.8877E-03         1.39565    -396.158E-03    -403.199E-03    -399.157E-03         1.39415    -398.694E-03     6.34460E-03     599.252E-03    -298.498E-03    -298.776E-03    -297.782E-03     598.374E-03    -298.614E-03     55.7988E-03     10.6086E+06     2.40321E+06    -4.86073E+06    -4.82102E+06     2.36350E+06     10.6086E+06     161.509E+03         73.4465
             500     8.89031E-03     74.8040E-03         1.39819    -397.400E-03    -403.875E-03    -400.464E-03         1.39661    -399.232E-03     9.51376E-03     597.946E-03    -297.379E-03    -298.292E-03    -296.971E-03     597.375E-03    -298.130E-03     44.9854E-03     9.22336E+06     2.04813E+06    -6.31926E+06    -6.22621E+06     1.95508E+06     9.22336E+06     745.945E+03         71.0141
             501     8.14942E-03     74.7399E-03         1.40088    -399.227E-03    -404.520E-03    -401.342E-03         1.39800    -399.532E-03    -25.6432E-03     596.878E-03    -296.196E-03    -299.013E-03    -295.851E-03     596.533E-03    -299.013E-03     34.5872E-03     7.54776E+06     1.54950E+06    -7.82907E+06    -7.70849E+06     1.42891E+06     7.54776E+06     1.04842E+06         69.6916
             502     7.40695E-03     74.6970E-03         1.39984    -395.491E-03    -407.147E-03    -399.964E-03         1.39691    -399.745E-03    -25.5571E-03     596.420E-03    -296.889E-03    -299.121E-03    -296.745E-03     596.251E-03    -299.095E-03     24.0950E-03     5.35530E+06     596.957E+03    -9.36023E+06    -9.22744E+06     464.167E+03     5.35530E+06     1.13770E+06         69.0981
             503     6.66528E-03     74.6660E-03         1.39880    -394.627E-03    -407.025E-03    -400.531E-03         1.39761    -399.930E-03     36.9792E-03     594.230E-03    -297.975E-03    -298.672E-03    -297.930E-03     594.159E-03    -298.646E-03     15.3888E-03     2.85831E+06    -1.97833E+06    -10.9939E+06    -10.8598E+06    -2.11246E+06     2.85831E+06     1.06837E+06         68.8783
             504     5.92535E-03     74.6467E-03         1.39872    -395.293E-03    -406.207E-03    -400.723E-03         1.39794    -399.999E-03     19.4797E-03     596.432E-03    -298.455E-03    -299.776E-03    -298.434E-03     596.411E-03    -299.776E-03     7.73270E-03    -701.134E+03    -5.56184E+06    -12.7604E+06    -12.6287E+06    -5.69356E+06    -701.134E+03     850.309E+03         68.7987
             505     5.18391E-03     74.6450E-03         1.39492    -393.213E-03    -404.395E-03    -396.617E-03         1.39417    -400.247E-03     23.1930E-03     599.104E-03    -299.398E-03    -300.421E-03    -299.628E-03     599.101E-03    -300.188E-03     1.00374E-03    -5.11824E+06    -8.94398E+06    -14.1918E+06    -14.0908E+06    -9.04503E+06    -5.11824E+06     603.944E+03         68.6932
             506     4.44331E-03     74.6524E-03         1.39342    -392.699E-03    -403.352E-03    -394.946E-03         1.39321    -400.896E-03    -15.3042E-03     599.051E-03    -299.542E-03    -300.124E-03    -299.768E-03     599.044E-03    -299.892E-03    -4.38194E-03    -7.89914E+06    -10.6332E+06    -15.3719E+06    -15.3073E+06    -10.6978E+06    -7.89914E+06     506.985E+03         68.4941
             507     3.70250E-03     74.6739E-03         1.39514    -393.780E-03    -403.619E-03    -395.175E-03         1.39470    -401.790E-03    -31.9966E-03     599.897E-03    -299.389E-03    -300.129E-03    -299.761E-03     599.878E-03    -299.739E-03    -8.05263E-03    -10.2948E+06    -12.1494E+06    -16.4609E+06    -16.3723E+06    -12.2379E+06    -10.2948E+06     552.809E+03         68.2088
             508     2.96205E-03     74.6994E-03         1.39704    -396.554E-03    -403.306E-03    -394.275E-03         1.39464    -403.185E-03     51.2823E-03     599.375E-03    -300.023E-03    -300.625E-03    -300.388E-03     599.351E-03    -300.235E-03    -9.39364E-03    -13.6147E+06    -14.6737E+06    -17.6829E+06    -17.4453E+06    -14.8206E+06    -13.7055E+06     744.438E+03         67.9325
             509     2.22174E-03     74.7261E-03         1.39959    -397.619E-03    -405.911E-03    -394.194E-03         1.39605    -405.790E-03     12.3805E-03     598.968E-03    -299.595E-03    -300.418E-03    -299.573E-03     598.946E-03    -300.418E-03    -8.83284E-03    -15.7478E+06    -16.4119E+06    -18.8042E+06    -18.3847E+06    -16.6424E+06    -15.9367E+06     874.214E+03         67.7707
             510     1.48073E-03     74.7546E-03         1.42554    -403.110E-03    -427.164E-03    -404.498E-03         1.40791    -408.145E-03     171.702E-03     600.484E-03    -299.995E-03    -300.756E-03    -299.982E-03     600.470E-03    -300.756E-03    -6.86856E-03    -17.3684E+06    -17.7776E+06    -19.2533E+06    -18.8183E+06    -17.8033E+06    -17.7778E+06     384.027E+03         67.7367
             511     740.345E-06     74.7759E-03         1.55091    -408.782E-03    -548.140E-03    -408.226E-03         1.41099    -408.782E-03    -468.094E-03     602.000E-03    -300.682E-03    -301.026E-03    -300.682E-03     601.994E-03    -301.020E-03    -3.99398E-03    -18.5335E+06    -19.3096E+06    -19.8005E+06    -19.1489E+06    -19.2229E+06    -19.2718E+06     105.155E+03         67.7651
             512     12.6114E-03     73.6540E-03         1.42922    -408.598E-03    -416.001E-03    -415.280E-03         1.42914    -409.235E-03     12.8539E-03     603.958E-03    -298.994E-03    -303.480E-03    -299.821E-03     600.299E-03    -298.994E-03     114.624E-03     16.2683E+06     2.18960E+06    -873.783E+03    -853.709E+03     2.16952E+06     16.2683E+06    -5.94745E+03         90.4436
             513     11.8695E-03     73.4343E-03         1.43250    -410.451E-03    -415.952E-03    -415.833E-03         1.43238    -410.451E-03     6.51197E-03     601.178E-03    -299.183E-03    -301.808E-03    -298.689E-03     598.059E-03    -299.183E-03     104.141E-03     13.4100E+06     2.26307E+06    -1.87773E+06    -1.84760E+06     2.23294E+06     13.4100E+06    -3.31650E+03         86.7221
             514     11.1132E-03     73.2867E-03         1.43470    -411.301E-03    -415.486E-03    -415.124E-03         1.43445    -411.407E-03    -38.5781E-03     598.459E-03    -299.252E-03    -299.906E-03    -297.964E-03     596.612E-03    -299.347E-03     81.3375E-03     11.1711E+06     3.04066E+06    -2.86690E+06    -2.83262E+06     3.00638E+06     11.1711E+06     111.516E+03         81.8122
             515     10.3727E-03     73.1554E-03         1.44008    -411.919E-03    -419.126E-03    -418.160E-03         1.43923    -412.026E-03     20.8954E-03     599.199E-03    -298.817E-03    -299.043E-03    -297.437E-03     597.804E-03    -299.028E-03     70.2737E-03     9.67380E+06     2.72253E+06    -4.14513E+06    -4.11321E+06     2.69060E+06     9.67380E+06     78.3289E+03         77.0936
             516     9.63057E-03     73.0545E-03         1.44513    -412.195E-03    -423.319E-03    -422.037E-03         1.44385    -412.195E-03     1.05147E-03     599.204E-03    -298.525E-03    -298.744E-03    -297.753E-03     598.328E-03    -298.640E-03     55.6904E-03     9.29082E+06     2.04612E+06    -5.35154E+06    -5.28661E+06     1.98119E+06     9.29082E+06     479.931E+03         73.4467
             517     8.88936E-03     72.9683E-03         1.44563    -411.999E-03    -423.653E-03    -422.102E-03         1.44408    -411.999E-03     10.2728E-03     597.965E-03    -297.375E-03    -298.231E-03    -296.908E-03     597.409E-03    -298.143E-03     44.3161E-03     8.78364E+06     1.85849E+06    -6.52947E+06    -6.42944E+06     1.75847E+06     8.78364E+06     875.219E+03         71.0186
             518     8.14780E-03     72.9037E-03         1.44294    -411.443E-03    -421.658E-03    -418.070E-03         1.43966    -411.748E-03    -35.6310E-03     597.258E-03    -296.366E-03    -299.013E-03    -296.038E-03     596.930E-03    -299.013E-03     33.7698E-03     7.23412E+06     1.60028E+06    -7.72275E+06    -7.61538E+06     1.49292E+06     7.23412E+06     973.892E+03         69.6971
             519     7.40773E-03     72.8592E-03         1.43614    -407.537E-03    -418.640E-03    -411.319E-03         1.43308    -411.791E-03    -43.5627E-03     596.737E-03    -297.199E-03    -299.114E-03    -297.064E-03     596.576E-03    -299.088E-03     23.5141E-03     5.00487E+06     596.102E+03    -9.14412E+06    -9.02735E+06     479.336E+03     5.00487E+06     1.04851E+06         69.1007
             520     6.66624E-03     72.8281E-03         1.42916    -404.476E-03    -414.976E-03    -406.053E-03         1.42811    -412.347E-03     14.2749E-03     594.199E-03    -298.118E-03    -298.654E-03    -298.077E-03     594.132E-03    -298.628E-03     14.8753E-03     3.15847E+06    -1.45392E+06    -10.3391E+06    -10.2108E+06    -1.58225E+06     3.15847E+06     1.03588E+06         68.8778
             521     5.92504E-03     72.8110E-03         1.42663    -404.026E-03    -413.409E-03    -403.497E-03         1.42610    -413.409E-03    -11.2329E-03     596.296E-03    -298.441E-03    -299.687E-03    -298.422E-03     596.277E-03    -299.687E-03     7.30453E-03     214.514E+03    -4.45261E+06    -11.7097E+06    -11.5084E+06    -4.65382E+06     214.514E+03     1.13088E+06         68.7964
             522     5.18356E-03     72.8077E-03         1.42844    -404.390E-03    -414.837E-03    -403.847E-03         1.42789    -414.837E-03    -12.1490E-03     599.037E-03    -299.344E-03    -300.369E-03    -299.622E-03     599.035E-03    -300.089E-03     816.110E-06    -3.98124E+06    -7.93446E+06    -13.1807E+06    -13.0094E+06    -8.10580E+06    -3.98124E+06     892.490E+03         68.6911
             523     4.44368E-03     72.8161E-03         1.43364    -406.775E-03    -417.944E-03    -408.061E-03         1.43326    -416.277E-03    -42.1277E-03     599.502E-03    -299.806E-03    -300.377E-03    -300.081E-03     599.496E-03    -300.096E-03    -4.10470E-03    -7.10783E+06    -10.4048E+06    -14.3003E+06    -14.1939E+06    -10.5112E+06    -7.10783E+06     557.296E+03         68.4958
             524     3.70334E-03     72.8385E-03         1.44203    -411.443E-03    -422.354E-03    -415.603E-03         1.44090    -417.060E-03    -69.1855E-03     600.316E-03    -299.667E-03    -300.409E-03    -300.103E-03     600.299E-03    -299.957E-03    -7.56912E-03    -9.86996E+06    -12.2613E+06    -15.6828E+06    -15.5200E+06    -12.4242E+06    -9.86996E+06     667.778E+03         68.2136
             525     2.96265E-03     72.8646E-03         1.44971    -412.234E-03    -429.179E-03    -422.329E-03         1.44710    -416.472E-03     9.14644E-03     599.336E-03    -299.973E-03    -300.667E-03    -300.401E-03     599.312E-03    -300.215E-03    -9.32300E-03    -13.1986E+06    -14.5046E+06    -17.1923E+06    -17.0106E+06    -14.5955E+06    -13.2893E+06     626.841E+03         67.9343
             526     2.22160E-03     72.8922E-03         1.45014    -408.230E-03    -434.188E-03    -421.873E-03         1.44426    -414.665E-03    -51.4322E-03     598.899E-03    -299.466E-03    -300.397E-03    -299.444E-03     598.877E-03    -300.397E-03    -8.93550E-03    -15.1058E+06    -15.7238E+06    -17.6850E+06    -17.5872E+06    -15.7309E+06    -15.1965E+06     299.298E+03         67.7680
             527     1.48092E-03     72.9216E-03         1.46090    -409.623E-03    -443.539E-03    -416.379E-03         1.43704    -412.922E-03     146.666E-03     600.410E-03    -299.876E-03    -300.746E-03    -299.862E-03     600.396E-03    -300.746E-03    -6.99656E-03    -16.2413E+06    -16.5566E+06    -17.9290E+06    -17.7346E+06    -16.5013E+06    -16.4910E+06     59.0111E+03         67.7339
             528     740.559E-06     72.9475E-03         1.61848    -418.958E-03    -591.076E-03    -406.158E-03         1.43356    -418.958E-03    -572.686E-03     602.046E-03    -300.842E-03    -301.208E-03    -300.841E-03     602.041E-03    -301.203E-03    -4.33227E-03    -17.3039E+06    -17.9841E+06    -18.8004E+06    -18.2118E+06    -17.8959E+06    -17.9807E+06     72.7745E+03         67.7638
             529     12.6089E-03     71.8168E-03         1.46380    -420.728E-03    -426.846E-03    -424.483E-03         1.46373    -423.023E-03     8.54420E-03     603.788E-03    -299.018E-03    -303.098E-03    -299.392E-03     600.083E-03    -299.018E-03     115.335E-03     14.9449E+06     1.82845E+06    -1.10886E+06    -1.03539E+06     1.75498E+06     14.9449E+06    -7.52728E+03         90.4357
             530     11.8682E-03     71.6006E-03         1.46800    -420.776E-03    -427.876E-03    -424.068E-03         1.46790    -424.481E-03     2.19206E-03     601.513E-03    -299.231E-03    -302.050E-03    -298.906E-03     598.369E-03    -299.231E-03     104.597E-03     11.9785E+06     2.19648E+06    -2.17230E+06    -2.11089E+06     2.13507E+06     11.9785E+06     335.964E+03         86.7163
             531     11.1129E-03     71.4501E-03         1.47360    -423.258E-03    -429.225E-03    -426.624E-03         1.47346    -425.718E-03    -29.7768E-03     598.801E-03    -299.354E-03    -300.205E-03    -298.326E-03     596.948E-03    -299.382E-03     81.4807E-03     9.76134E+06     2.34326E+06    -3.09871E+06    -3.07009E+06     2.31463E+06     9.76134E+06     101.844E+03         81.8126
             532     10.3722E-03     71.3185E-03         1.47920    -425.461E-03    -431.884E-03    -429.744E-03         1.47824    -426.641E-03     39.7113E-03     599.293E-03    -299.015E-03    -299.144E-03    -297.733E-03     597.910E-03    -299.042E-03     69.9588E-03     9.35952E+06     2.36114E+06    -3.74567E+06    -3.69527E+06     2.31074E+06     9.35952E+06     220.577E+03         77.1001
             533     9.63106E-03     71.2156E-03         1.48214    -426.025E-03    -433.922E-03    -431.449E-03         1.48095    -427.302E-03     21.9130E-03     599.275E-03    -298.630E-03    -298.849E-03    -297.987E-03     598.413E-03    -298.630E-03     55.2359E-03     9.60405E+06     2.62852E+06    -4.66144E+06    -4.57130E+06     2.53837E+06     9.60405E+06     763.590E+03         73.4529
             534     8.88988E-03     71.1321E-03         1.48376    -426.462E-03    -434.993E-03    -432.256E-03         1.48232    -427.755E-03     29.8117E-03     598.221E-03    -297.574E-03    -298.246E-03    -297.143E-03     597.674E-03    -298.130E-03     44.0034E-03     9.01642E+06     2.40067E+06    -5.84127E+06    -5.76773E+06     2.32712E+06     9.01642E+06     746.500E+03         71.0233
             535     8.14886E-03     71.0681E-03         1.48639    -427.233E-03    -436.287E-03    -432.775E-03         1.48366    -428.016E-03    -11.9507E-03     597.635E-03    -296.692E-03    -298.985E-03    -296.369E-03     597.312E-03    -298.985E-03     33.5282E-03     7.62107E+06     1.45233E+06    -7.09379E+06    -7.03287E+06     1.39141E+06     7.62107E+06     716.444E+03         69.7010
             536     7.40707E-03     71.0226E-03         1.48706    -428.048E-03    -436.065E-03    -433.403E-03         1.48440    -428.048E-03    -14.0002E-03     596.837E-03    -297.284E-03    -299.067E-03    -297.164E-03     596.681E-03    -299.030E-03     23.1878E-03     5.39568E+06     461.336E+03    -8.67658E+06    -8.53350E+06     318.266E+03     5.39568E+06     1.05932E+06         69.1002
             537     6.66633E-03     70.9930E-03         1.48230    -425.435E-03    -434.328E-03    -430.567E-03         1.48111    -428.004E-03     45.2812E-03     594.045E-03    -298.054E-03    -298.603E-03    -298.028E-03     593.981E-03    -298.565E-03     14.6472E-03     2.88732E+06    -1.63562E+06    -10.4251E+06    -10.2523E+06    -1.80848E+06     2.88732E+06     1.15999E+06         68.8707
             538     5.92541E-03     70.9755E-03         1.47843    -423.419E-03    -432.961E-03    -427.672E-03         1.47781    -428.096E-03     23.0672E-03     595.427E-03    -297.905E-03    -299.383E-03    -297.886E-03     595.409E-03    -299.383E-03     7.22481E-03     642.446E+03    -3.44265E+06    -11.7387E+06    -11.5905E+06    -3.59089E+06     642.446E+03     1.02096E+06         68.7842
             539     5.18409E-03     70.9712E-03         1.47904    -424.683E-03    -433.266E-03    -429.196E-03         1.47839    -428.096E-03     22.1321E-03     598.083E-03    -298.807E-03    -299.913E-03    -298.934E-03     598.080E-03    -299.783E-03     649.642E-06    -3.42488E+06    -6.42000E+06    -12.8745E+06    -12.7538E+06    -6.54065E+06    -3.42488E+06     802.970E+03         68.6792
             540     4.44311E-03     70.9812E-03         1.48304    -425.963E-03    -436.997E-03    -435.367E-03         1.48271    -427.268E-03    -3.43944E-03     599.066E-03    -299.632E-03    -300.172E-03    -299.756E-03     599.061E-03    -300.043E-03    -4.05900E-03    -7.85103E+06    -10.4511E+06    -14.3532E+06    -14.2463E+06    -10.5580E+06    -7.85103E+06     553.532E+03         68.4888
             541     3.70223E-03     71.0035E-03         1.48690    -424.815E-03    -442.183E-03    -441.137E-03         1.48586    -424.815E-03    -40.1934E-03     600.019E-03    -299.574E-03    -300.362E-03    -299.936E-03     600.004E-03    -299.985E-03    -7.20653E-03    -10.1326E+06    -12.1115E+06    -15.3352E+06    -15.2077E+06    -12.2389E+06    -10.1326E+06     552.272E+03         68.2111
             542     2.96176E-03     71.0298E-03         1.48479    -420.359E-03    -444.413E-03    -441.610E-03         1.48199    -420.359E-03     26.2934E-03     599.645E-03    -300.146E-03    -300.823E-03    -300.661E-03     599.622E-03    -300.286E-03    -9.06632E-03    -11.8365E+06    -13.1736E+06    -15.7153E+06    -15.6525E+06    -13.2363E+06    -11.8365E+06     328.375E+03         67.9342
             543     2.22211E-03     71.0600E-03         1.47658    -414.207E-03    -440.831E-03    -433.940E-03         1.46968    -414.207E-03    -54.3439E-03     599.797E-03    -299.961E-03    -300.760E-03    -300.098E-03     599.774E-03    -300.600E-03    -9.00369E-03    -14.2082E+06    -14.9905E+06    -17.0403E+06    -17.0183E+06    -15.0125E+06    -14.2082E+06     137.384E+03         67.7702
             544     1.48128E-03     71.0899E-03         1.47787    -407.331E-03    -447.879E-03    -420.494E-03         1.45049    -407.331E-03     154.829E-03     600.702E-03    -300.022E-03    -300.859E-03    -300.007E-03     600.687E-03    -300.859E-03    -7.08125E-03    -16.2176E+06    -16.6437E+06    -18.2017E+06    -18.1104E+06    -16.6040E+06    -16.3486E+06     228.303E+03         67.7343
             545     740.244E-06     71.1161E-03         1.63216    -415.060E-03    -594.026E-03    -392.287E-03         1.43043    -415.060E-03    -586.958E-03     601.772E-03    -300.498E-03    -301.332E-03    -300.492E-03     601.766E-03    -301.332E-03    -4.22764E-03    -17.6160E+06    -18.0419E+06    -19.0037E+06    -18.8120E+06    -18.1027E+06    -17.7470E+06      88.018E+03         67.7589
             546     12.6092E-03     69.9812E-03         1.50348    -432.817E-03    -439.805E-03    -435.535E-03         1.50339    -436.996E-03     15.7929E-03     603.718E-03    -299.061E-03    -302.957E-03    -299.308E-03     600.069E-03    -299.061E-03     114.430E-03     14.2738E+06     1.48241E+06    -1.00908E+06    -893.971E+03     1.36730E+06     14.2738E+06     162.486E+03         90.4276
             547     11.8678E-03     69.7595E-03         1.50738    -435.009E-03    -440.442E-03    -436.627E-03         1.50727    -438.714E-03     6.46584E-03     602.059E-03    -299.240E-03    -302.465E-03    -299.372E-03     598.965E-03    -299.240E-03     103.759E-03     11.8966E+06     2.47570E+06    -1.58358E+06    -1.53194E+06     2.42406E+06     11.8966E+06      86.372E+03         86.7133
             548     11.1123E-03     69.6121E-03         1.50996    -436.491E-03    -441.079E-03    -437.280E-03         1.50984    -440.165E-03    -28.2160E-03     599.106E-03    -299.275E-03    -300.384E-03    -298.490E-03     597.287E-03    -299.350E-03     80.7546E-03     10.6385E+06     2.69826E+06    -2.31184E+06    -2.13477E+06     2.52119E+06     10.6385E+06     307.678E+03         81.8174
             549     10.3716E-03     69.4777E-03         1.51196    -437.457E-03    -441.417E-03    -436.770E-03         1.51128    -441.417E-03     27.2098E-03     599.163E-03    -298.913E-03    -299.109E-03    -297.627E-03     597.791E-03    -299.023E-03     69.6733E-03     10.3960E+06     1.84264E+06    -3.40833E+06    -3.21768E+06     1.65200E+06     10.3960E+06     517.733E+03         77.1113
             550     9.63075E-03     69.3774E-03         1.51150    -435.289E-03    -442.702E-03    -434.196E-03         1.51040    -442.702E-03     2.26702E-03     599.311E-03    -298.605E-03    -298.915E-03    -298.015E-03     598.445E-03    -298.639E-03     55.3970E-03     9.62024E+06     2.01481E+06    -4.51484E+06    -4.43939E+06     1.93935E+06     9.62024E+06     509.767E+03         73.4651
             551     8.88979E-03     69.2927E-03         1.51169    -433.433E-03    -444.167E-03    -432.162E-03         1.51042    -444.167E-03     10.4792E-03     598.462E-03    -297.811E-03    -298.326E-03    -297.444E-03     597.906E-03    -298.136E-03     44.3945E-03     8.16034E+06     2.73890E+06    -5.82769E+06    -5.73825E+06     2.64946E+06     8.16034E+06     839.235E+03         71.0312
             552     8.14837E-03     69.2308E-03         1.51579    -435.294E-03    -445.894E-03    -432.984E-03         1.51335    -445.765E-03    -25.6537E-03     597.898E-03    -297.053E-03    -298.948E-03    -296.724E-03     597.569E-03    -298.948E-03     33.8117E-03     7.19278E+06     1.16751E+06    -7.23250E+06    -7.12465E+06     1.05966E+06     7.19278E+06     906.672E+03         69.7035
             553     7.40856E-03     69.1853E-03         1.52182    -438.703E-03    -448.407E-03    -437.413E-03         1.51936    -447.239E-03    -25.1662E-03     597.003E-03    -297.335E-03    -299.016E-03    -297.213E-03     596.844E-03    -298.979E-03     23.3767E-03     6.06591E+06     265.868E+03    -8.25042E+06    -8.10064E+06     116.089E+03     6.06591E+06     960.245E+03         69.0986
             554     6.66726E-03     69.1547E-03         1.52943    -442.796E-03    -451.864E-03    -445.598E-03         1.52854    -448.169E-03     37.9954E-03     594.030E-03    -297.757E-03    -298.558E-03    -297.728E-03     593.963E-03    -298.520E-03     15.0214E-03     3.86850E+06    -603.912E+03    -9.53882E+06    -9.31454E+06    -828.194E+03     3.86850E+06     1.24161E+06         68.8635
             555     5.92566E-03     69.1359E-03         1.53606    -446.537E-03    -455.170E-03    -452.979E-03         1.53552    -448.193E-03     23.6818E-03     595.136E-03    -297.443E-03    -299.374E-03    -297.423E-03     595.116E-03    -299.374E-03     7.64520E-03     1.18998E+06    -2.80657E+06    -11.0536E+06    -10.9025E+06    -2.95767E+06     1.18998E+06     978.290E+03         68.7716
             556     5.18351E-03     69.1346E-03         1.53845    -447.237E-03    -457.473E-03    -457.021E-03         1.53800    -447.237E-03     33.3575E-03     597.923E-03    -298.585E-03    -300.029E-03    -298.785E-03     597.921E-03    -299.827E-03     1.17868E-03    -3.65360E+06    -6.28953E+06    -12.5886E+06    -12.5016E+06    -6.37655E+06    -3.65360E+06     631.706E+03         68.6659
             557     4.44324E-03     69.1435E-03         1.53368    -443.512E-03    -456.723E-03    -454.369E-03         1.53353    -445.709E-03     7.09792E-03     599.463E-03    -299.789E-03    -300.292E-03    -299.985E-03     599.457E-03    -300.090E-03    -4.05367E-03    -8.02567E+06    -9.87450E+06    -13.6985E+06    -13.5969E+06    -9.97611E+06    -8.02567E+06     568.250E+03         68.4767
             558     3.70228E-03     69.1662E-03         1.52530    -435.629E-03    -456.499E-03    -447.297E-03         1.52490    -444.425E-03    -19.1091E-03     600.360E-03    -299.706E-03    -300.191E-03    -299.863E-03     600.343E-03    -300.016E-03    -7.78835E-03    -10.3870E+06    -11.6687E+06    -14.6786E+06    -14.6328E+06    -11.7145E+06    -10.3870E+06     322.286E+03         68.1997
             559     2.96169E-03     69.1940E-03         1.52189    -432.335E-03    -455.344E-03    -441.385E-03         1.51959    -443.997E-03     54.4280E-03     599.218E-03    -300.009E-03    -300.428E-03    -300.319E-03     599.193E-03    -300.093E-03    -9.43099E-03    -12.0591E+06    -12.9051E+06    -15.4965E+06    -15.3669E+06    -13.0348E+06    -12.0591E+06     418.975E+03         67.9263
             560     2.22176E-03     69.2245E-03         1.52528    -438.204E-03    -451.462E-03    -440.013E-03         1.51999    -444.361E-03    -26.3899E-03     599.558E-03    -300.078E-03    -300.547E-03    -300.214E-03     599.534E-03    -300.387E-03    -9.26508E-03    -13.1742E+06    -14.1839E+06    -16.0149E+06    -15.6704E+06    -14.0888E+06    -13.6138E+06     606.205E+03         67.7675
             561     1.48181E-03     69.2598E-03         1.54518    -444.526E-03    -463.532E-03    -439.988E-03         1.52273    -445.618E-03     159.614E-03     600.887E-03    -300.342E-03    -300.783E-03    -300.327E-03     600.873E-03    -300.783E-03    -7.01178E-03    -15.6765E+06    -16.5122E+06    -17.4715E+06    -17.0285E+06    -16.2164E+06    -16.4154E+06     465.607E+03         67.7333
             562     740.944E-06     69.2881E-03         1.70007    -467.797E-03    -594.669E-03    -424.134E-03         1.52953    -467.797E-03    -548.847E-03     601.433E-03    -300.335E-03    -300.941E-03    -300.414E-03     601.428E-03    -300.857E-03    -3.99862E-03    -16.8747E+06    -17.4204E+06    -18.0322E+06    -17.3145E+06    -17.4176E+06    -17.5951E+06     214.010E+03         67.7546
             563     12.6097E-03     68.1467E-03         1.54403    -448.860E-03    -452.612E-03    -449.984E-03         1.54393    -451.384E-03     22.3555E-03     604.039E-03    -299.041E-03    -303.568E-03    -299.956E-03     600.427E-03    -299.041E-03     113.921E-03     13.1508E+06     1.74611E+06    -644.885E+03    -590.326E+03     1.69156E+06     13.1508E+06     34.9682E+03         90.4217
             564     11.8698E-03     67.9259E-03         1.55293    -452.851E-03    -456.867E-03    -456.661E-03         1.55272    -452.851E-03     1.12690E-06     601.798E-03    -299.177E-03    -302.431E-03    -299.378E-03     598.745E-03    -299.177E-03     103.067E-03     11.7271E+06     2.34078E+06    -1.92703E+06    -1.61484E+06     2.02859E+06     11.7271E+06     253.205E+03         86.7136
             565     11.1129E-03     67.7762E-03         1.55483    -452.612E-03    -458.307E-03    -456.852E-03         1.55458    -453.827E-03    -42.8134E-03     598.724E-03    -299.099E-03    -300.128E-03    -298.162E-03     596.928E-03    -299.269E-03     80.2216E-03     10.2830E+06     2.80229E+06    -3.51384E+06    -2.92345E+06     2.21190E+06     10.2830E+06     198.782E+03         81.8208
             566     10.3721E-03     67.6450E-03         1.55168    -450.539E-03    -456.441E-03    -451.795E-03         1.55125    -454.749E-03     11.3665E-03     599.014E-03    -298.743E-03    -298.981E-03    -297.381E-03     597.651E-03    -298.981E-03     69.4467E-03     9.03452E+06     2.47636E+06    -4.59447E+06    -3.96426E+06     1.84616E+06     9.03452E+06     512.657E+03         77.1193
             567     9.63040E-03     67.5413E-03         1.54884    -447.324E-03    -455.960E-03    -446.434E-03         1.54795    -455.960E-03    -13.5159E-03     599.278E-03    -298.598E-03    -298.844E-03    -297.914E-03     598.416E-03    -298.665E-03     55.2727E-03     8.92981E+06     1.60276E+06    -5.20132E+06    -4.83816E+06     1.23960E+06     8.92981E+06     681.037E+03         73.4825
             568     8.88913E-03     67.4583E-03         1.54907    -445.510E-03    -457.451E-03    -444.285E-03         1.54784    -457.451E-03     1.89296E-03     598.391E-03    -297.758E-03    -298.344E-03    -297.382E-03     597.837E-03    -298.166E-03     44.3021E-03     8.60846E+06     1.80283E+06    -5.86526E+06    -5.80786E+06     1.74543E+06     8.60846E+06     436.467E+03         71.0481
             569     8.14932E-03     67.3935E-03         1.55436    -447.877E-03    -459.864E-03    -446.202E-03         1.55181    -458.996E-03    -36.9095E-03     597.634E-03    -296.855E-03    -298.954E-03    -296.522E-03     597.301E-03    -298.954E-03     34.0382E-03     7.42510E+06     1.38250E+06     -6.8969E+06    -6.80218E+06     1.28779E+06     7.42510E+06     808.468E+03         69.7088
             570     7.40776E-03     67.3523E-03         1.55945    -451.799E-03    -461.366E-03    -450.406E-03         1.55702    -460.335E-03    -41.3328E-03     596.931E-03    -297.232E-03    -299.068E-03    -297.136E-03     596.764E-03    -298.997E-03     24.0197E-03     5.65631E+06     132.270E+03    -7.93652E+06    -7.87889E+06     74.6443E+03     5.65631E+06     532.543E+03         69.0984
             571     6.66681E-03     67.3207E-03         1.56373    -455.932E-03    -461.517E-03    -455.451E-03         1.56304    -461.305E-03     18.9554E-03     594.226E-03    -297.805E-03    -298.593E-03    -297.803E-03     594.154E-03    -298.522E-03     15.5738E-03     3.35860E+06    -757.189E+03    -9.07653E+06    -8.96105E+06    -872.680E+03     3.35860E+06     781.472E+03         68.8650
             572     5.92563E-03     67.3051E-03         1.56792    -457.469E-03    -464.020E-03    -459.359E-03         1.56764    -461.859E-03    -9.81354E-03     595.312E-03    -297.650E-03    -299.344E-03    -297.630E-03     595.291E-03    -299.344E-03     7.50938E-03     698.997E+03    -2.15310E+06    -10.5790E+06    -10.4188E+06    -2.31324E+06     698.997E+03     1.05746E+06         68.7736
             573     5.18334E-03     67.3003E-03         1.56729    -453.370E-03    -467.382E-03    -458.272E-03         1.56712    -462.317E-03     696.251E-06     598.009E-03    -298.763E-03    -299.990E-03    -298.937E-03     598.007E-03    -299.813E-03     614.039E-06     -3.2472E+06    -5.73772E+06    -11.9612E+06    -11.8274E+06    -5.87153E+06     -3.2472E+06     826.746E+03         68.6662
             574     4.44259E-03     67.3065E-03         1.56391    -450.313E-03    -466.344E-03    -453.147E-03         1.56379    -463.392E-03    -28.6667E-03     599.662E-03    -299.844E-03    -300.281E-03    -300.014E-03     599.654E-03    -300.104E-03    -4.56918E-03    -7.18419E+06    -8.94449E+06    -12.8806E+06    -12.7338E+06    -9.09137E+06    -7.18419E+06     743.478E+03         68.4748
             575     3.70294E-03     67.3321E-03         1.56441    -451.082E-03    -465.556E-03    -450.805E-03         1.56414    -465.556E-03    -42.8594E-03     600.547E-03    -299.728E-03    -300.190E-03    -299.902E-03     600.529E-03    -299.998E-03    -7.88922E-03    -9.96932E+06    -10.6814E+06    -14.0108E+06    -13.7135E+06    -10.9786E+06    -9.96932E+06     785.457E+03         68.1951
             576     2.96243E-03     67.3587E-03         1.57125    -455.145E-03    -468.635E-03    -454.150E-03         1.57026    -468.635E-03     23.6033E-03     598.838E-03    -299.657E-03    -300.281E-03    -299.825E-03     598.815E-03    -300.089E-03    -9.22690E-03    -12.3069E+06    -12.6370E+06    -15.3945E+06    -15.0373E+06    -12.9942E+06    -12.3069E+06     684.328E+03         67.9191
             577     2.22135E-03     67.3910E-03         1.58600    -464.884E-03    -472.237E-03    -462.315E-03         1.58306    -471.861E-03    -39.1377E-03     599.204E-03    -299.604E-03    -300.546E-03    -299.581E-03     599.181E-03    -300.546E-03    -9.04745E-03    -13.6888E+06    -14.3585E+06    -15.9085E+06    -15.5700E+06    -14.2574E+06    -14.1284E+06     429.184E+03         67.7612
             578     1.48096E-03     67.4263E-03         1.60422    -473.987E-03    -481.779E-03    -468.140E-03         1.59168    -475.080E-03     112.812E-03     601.296E-03    -300.479E-03    -301.055E-03    -300.466E-03     601.283E-03    -301.055E-03    -6.59146E-03    -14.2380E+06    -15.0099E+06    -15.7500E+06    -15.1916E+06    -14.6810E+06    -15.1252E+06     455.067E+03         67.7325
             579     740.939E-06     67.4609E-03         1.72012    -494.145E-03    -577.181E-03    -459.667E-03         1.60261    -494.145E-03    -489.856E-03     601.897E-03    -300.748E-03    -300.900E-03    -300.828E-03     601.893E-03    -300.816E-03    -3.25723E-03    -14.7805E+06    -15.7162E+06    -16.3960E+06    -15.5492E+06    -15.6942E+06    -15.6494E+06     231.281E+03         67.7601
             580     12.6099E-03     66.3101E-03         1.57490    -456.456E-03    -465.044E-03    -456.730E-03         1.57476    -464.631E-03     23.5562E-03     604.294E-03    -299.024E-03    -303.786E-03    -300.109E-03     600.618E-03    -299.024E-03     114.938E-03     13.1797E+06     1.38377E+06    -903.437E+03    -838.536E+03     1.31887E+06     13.1797E+06     32.9445E+03         90.4144
             581     11.8696E-03     66.0921E-03         1.58172    -457.393E-03    -468.780E-03    -459.452E-03         1.58149    -466.492E-03     6.51861E-03     601.948E-03    -299.157E-03    -302.586E-03    -299.467E-03     598.829E-03    -299.157E-03     104.154E-03     11.3828E+06     1.05799E+06    -2.00780E+06    -1.55158E+06     601.775E+03     11.3828E+06     321.359E+03         86.7111
             582     11.1127E-03     65.9432E-03         1.58653    -458.159E-03    -471.773E-03    -461.571E-03         1.58638    -468.206E-03    -31.7047E-03     598.866E-03    -299.139E-03    -300.275E-03    -298.328E-03     597.051E-03    -299.271E-03     80.6392E-03     9.60455E+06     2.51792E+06    -2.99997E+06    -2.06914E+06     1.58710E+06     9.60455E+06     355.950E+03         81.8235
             583     10.3719E-03     65.8120E-03         1.59081    -461.744E-03    -471.508E-03    -462.904E-03         1.59028    -469.816E-03     28.4398E-03     599.141E-03    -298.785E-03    -298.955E-03    -297.430E-03     597.782E-03    -298.950E-03     69.3368E-03     9.32925E+06     4.07499E+06    -3.92860E+06    -3.03809E+06     3.18448E+06     9.32925E+06     670.217E+03         77.1264
             584     9.63133E-03     65.7110E-03         1.59625    -466.484E-03    -471.280E-03    -465.760E-03         1.59553    -471.280E-03     13.9475E-03     599.187E-03    -298.592E-03    -298.730E-03    -297.840E-03     598.330E-03    -298.625E-03     55.1049E-03     9.58960E+06     2.71729E+06    -4.34505E+06    -3.88899E+06     2.26123E+06     9.58960E+06     860.277E+03         73.4935
             585     8.89012E-03     65.6251E-03         1.60342    -469.445E-03    -474.623E-03    -470.451E-03         1.60220    -472.396E-03     33.4861E-03     597.955E-03    -297.486E-03    -298.261E-03    -297.033E-03     597.402E-03    -298.160E-03     44.2507E-03     9.09662E+06     1.19634E+06    -5.07140E+06    -4.94656E+06     1.07150E+06     9.09662E+06     268.664E+03         71.0567
             586     8.14776E-03     65.5590E-03         1.61023    -471.529E-03    -479.417E-03    -476.020E-03         1.60827    -472.959E-03     577.306E-06     597.082E-03    -296.438E-03    -298.985E-03    -296.104E-03     596.748E-03    -298.985E-03     34.1171E-03     7.57248E+06     1.03688E+06    -6.22743E+06    -6.18082E+06     990.272E+03     7.57248E+06     302.205E+03         69.7086
             587     7.40720E-03     65.5139E-03         1.61350    -472.862E-03    -482.077E-03    -480.422E-03         1.61185    -472.862E-03    -10.3773E-03     596.706E-03    -297.168E-03    -299.118E-03    -297.071E-03     596.538E-03    -299.047E-03     24.0561E-03     5.09856E+06     233.786E+03    -7.56244E+06    -7.48405E+06     155.398E+03     5.09856E+06     697.861E+03         69.0966
             588     6.66625E-03     65.4847E-03         1.60928    -472.442E-03    -478.616E-03    -477.889E-03         1.60855    -472.442E-03     42.2820E-03     594.291E-03    -298.295E-03    -298.611E-03    -298.296E-03     594.220E-03    -298.541E-03     15.3617E-03     2.68665E+06    -1.19520E+06    -9.15512E+06    -9.08181E+06    -1.26851E+06     2.68665E+06     570.733E+03         68.8703
             589     5.92547E-03     65.4682E-03         1.59943    -467.479E-03    -473.710E-03    -468.572E-03         1.59933    -472.519E-03    -847.158E-06     595.603E-03    -298.379E-03    -299.338E-03    -298.358E-03     595.583E-03    -299.338E-03     7.75313E-03     945.674E+03    -1.88729E+06    -9.98523E+06    -9.91477E+06    -1.95775E+06     945.674E+03     575.313E+03         68.7843
             590     5.18505E-03     65.4666E-03         1.59261    -460.063E-03    -473.782E-03    -459.981E-03         1.59252    -473.782E-03     4.52834E-03     598.339E-03    -299.031E-03    -300.037E-03    -299.313E-03     598.336E-03    -299.751E-03     1.08729E-03    -2.87433E+06    -4.88328E+06    -10.9905E+06    -10.8085E+06    -5.06521E+06    -2.87433E+06     898.374E+03         68.6749
             591     4.44431E-03     65.4740E-03         1.59632    -461.077E-03    -475.972E-03    -460.913E-03         1.59615    -475.972E-03    -25.3908E-03     599.358E-03    -299.646E-03    -300.306E-03    -299.925E-03     599.351E-03    -300.020E-03    -4.25971E-03    -7.21624E+06    -8.79917E+06    -12.6252E+06    -12.4186E+06    -9.00578E+06    -7.21624E+06     840.270E+03         68.4790
             592     3.70259E-03     65.4953E-03         1.60917    -470.499E-03    -479.160E-03    -471.676E-03         1.60891    -477.723E-03    -27.8095E-03     600.161E-03    -299.584E-03    -300.201E-03    -299.809E-03     600.143E-03    -299.958E-03    -7.87227E-03    -9.01779E+06    -10.2176E+06    -13.7454E+06    -13.4026E+06    -10.5604E+06    -9.01779E+06     943.230E+03         68.1967
             593     2.96204E-03     65.5274E-03         1.61670    -476.394E-03    -480.283E-03    -478.064E-03         1.61631    -478.222E-03     22.6941E-03     599.300E-03    -299.813E-03    -300.556E-03    -300.031E-03     599.275E-03    -300.313E-03    -9.48066E-03    -10.6740E+06    -11.2563E+06    -14.3995E+06    -13.9518E+06    -11.7041E+06    -10.6740E+06     896.865E+03         67.9196
             594     2.22122E-03     65.5611E-03         1.61871    -476.890E-03    -482.037E-03    -480.294E-03         1.61779    -477.710E-03    -12.2949E-03     599.585E-03    -299.620E-03    -300.815E-03    -299.595E-03     599.561E-03    -300.815E-03    -9.41841E-03    -12.8304E+06    -13.2677E+06    -15.3575E+06    -15.1608E+06    -13.4644E+06    -12.8304E+06      359.49E+03         67.7610
             595     1.48012E-03     65.5956E-03         1.62029    -474.905E-03    -485.967E-03    -478.876E-03         1.61497    -476.670E-03     89.0875E-03     601.339E-03    -300.348E-03    -301.180E-03    -300.331E-03     601.322E-03    -301.180E-03    -7.58036E-03    -13.4592E+06    -13.9881E+06    -15.5018E+06    -15.2038E+06    -13.9946E+06    -13.7507E+06      499.46E+03         67.7322
             596     739.772E-06     65.6297E-03         1.67877    -477.355E-03    -541.379E-03    -472.952E-03         1.61211    -479.120E-03    -383.749E-03     602.432E-03    -300.910E-03    -301.438E-03    -300.903E-03     602.425E-03    -301.438E-03    -4.41225E-03    -14.4549E+06    -15.1270E+06    -16.2578E+06    -15.6343E+06    -15.3682E+06    -14.8371E+06     456.984E+03         67.7620
             597     12.6090E-03     64.4759E-03         1.59638    -452.863E-03    -476.561E-03    -452.730E-03         1.59624    -476.561E-03     23.5901E-03     604.141E-03    -299.026E-03    -303.577E-03    -299.885E-03     600.449E-03    -299.026E-03     115.161E-03     12.5951E+06     1.05330E+06    -942.138E+03    -875.470E+03     986.635E+03     12.5951E+06     172.109E+03         90.4056
             598     11.8675E-03     64.2519E-03         1.59892    -452.262E-03    -479.435E-03    -452.034E-03         1.59869    -479.435E-03     5.29837E-03     602.128E-03    -299.175E-03    -302.700E-03    -299.586E-03     599.014E-03    -299.175E-03     104.029E-03     10.6630E+06     1.23003E+06    -1.79491E+06    -1.59332E+06     1.02845E+06     10.6630E+06    -284.148E+03         86.7063
             599     11.1122E-03     64.1078E-03         1.60710    -456.384E-03    -482.266E-03    -456.208E-03         1.60692    -482.266E-03    -33.7550E-03     599.248E-03    -299.274E-03    -300.462E-03    -298.629E-03     597.438E-03    -299.298E-03     80.5754E-03     9.12569E+06     1.49544E+06    -3.12489E+06    -2.47954E+06     850.091E+03     9.12569E+06     556.034E+03         81.8242
             600     10.3725E-03     63.9749E-03         1.62147    -467.293E-03    -484.653E-03    -466.849E-03         1.62103    -484.653E-03     20.8773E-03     599.354E-03    -298.899E-03    -299.014E-03    -297.582E-03     597.982E-03    -298.959E-03     69.6941E-03     8.54382E+06     2.61228E+06    -3.86957E+06    -3.35378E+06     2.09648E+06     8.54382E+06     794.063E+03         77.1249
             601     9.63126E-03     63.8730E-03         1.63601    -479.149E-03    -486.299E-03    -478.422E-03         1.63529    -486.299E-03     2.66901E-03     599.152E-03    -298.558E-03    -298.667E-03    -297.757E-03     598.279E-03    -298.594E-03     55.6373E-03     7.80052E+06     2.96946E+06    -4.29320E+06    -4.17547E+06     2.85173E+06     7.80052E+06     32.2400E+03         73.4819
             602     8.88968E-03     63.7894E-03         1.64472    -483.939E-03    -489.470E-03    -485.149E-03         1.64371    -487.243E-03     14.2463E-03     597.890E-03    -297.432E-03    -298.188E-03    -296.939E-03     597.329E-03    -298.119E-03     44.5563E-03     7.15740E+06     1.84863E+06    -5.01243E+06    -4.79039E+06     1.62660E+06     7.15740E+06     488.716E+03         71.0435
             603     8.14862E-03     63.7254E-03         1.64888    -484.036E-03    -493.337E-03    -488.070E-03         1.64732    -487.747E-03    -11.4567E-03     597.041E-03    -296.460E-03    -298.965E-03    -296.128E-03     596.709E-03    -298.965E-03     33.9939E-03     6.51231E+06     1.01629E+06    -6.17203E+06    -6.03231E+06     876.564E+03     6.51231E+06     553.989E+03         69.7023
             604     7.40615E-03     63.6825E-03         1.64903    -482.340E-03    -496.190E-03    -489.187E-03         1.64769    -488.007E-03    -19.3290E-03     596.636E-03    -297.217E-03    -299.062E-03    -297.074E-03     596.472E-03    -299.042E-03     23.6734E-03     5.20337E+06     157.617E+03    -7.50535E+06    -7.43036E+06     82.6280E+03     5.20337E+06     641.707E+03         69.0942
             605     6.66564E-03     63.6493E-03         1.64529    -481.151E-03    -494.258E-03    -486.647E-03         1.64482    -488.296E-03     35.5965E-03     594.247E-03    -298.268E-03    -298.559E-03    -298.222E-03     594.181E-03    -298.539E-03     14.8359E-03     3.24740E+06    -431.236E+03    -8.46471E+06    -8.40836E+06    -487.583E+03     3.24740E+06     436.012E+03         68.8683
             606     5.92518E-03     63.6343E-03         1.64228    -482.456E-03    -490.022E-03    -483.547E-03         1.64223    -488.879E-03    -493.387E-06     595.446E-03    -298.203E-03    -299.327E-03    -298.184E-03     595.427E-03    -299.327E-03     7.48040E-03     950.734E+03    -2.13432E+06    -9.81891E+06    -9.80437E+06    -2.14886E+06     950.734E+03     216.025E+03         68.7831
             607     5.18281E-03     63.6307E-03         1.64539    -483.930E-03    -491.597E-03    -485.877E-03         1.64525    -489.511E-03     25.8150E-03     598.224E-03    -298.933E-03    -300.055E-03    -299.192E-03     598.221E-03    -299.793E-03     1.32346E-03    -2.75517E+06    -5.66339E+06    -11.0580E+06    -10.9389E+06    -5.78252E+06    -2.75517E+06     557.409E+03         68.6753
             608     4.44306E-03     63.6398E-03         1.64869    -485.801E-03    -492.614E-03    -488.365E-03         1.64845    -489.814E-03    -1.75717E-03     599.543E-03    -299.777E-03    -300.322E-03    -300.035E-03     599.539E-03    -300.059E-03    -3.46694E-03    -6.42204E+06    -8.12475E+06    -12.1460E+06    -11.8427E+06    -8.42809E+06    -6.42204E+06     986.383E+03         68.4792
             609     3.70321E-03     63.6628E-03         1.65023    -487.691E-03    -491.949E-03    -489.425E-03         1.64981    -489.798E-03     10.4197E-03     600.371E-03    -299.691E-03    -300.172E-03    -299.875E-03     600.356E-03    -299.973E-03    -7.03056E-03    -8.30489E+06    -9.76663E+06    -13.1744E+06    -12.9468E+06    -9.99418E+06    -8.30489E+06     726.067E+03         68.1958
             610     2.96241E-03     63.6900E-03         1.65195    -488.669E-03    -493.096E-03    -492.151E-03         1.65156    -489.230E-03     33.9428E-03     599.637E-03    -300.136E-03    -300.541E-03    -300.312E-03     599.614E-03    -300.342E-03    -9.03324E-03    -9.96151E+06    -11.0723E+06    -13.9330E+06    -13.7194E+06    -11.2860E+06    -9.96151E+06     454.112E+03         67.9207
             611     2.22193E-03     63.7265E-03         1.65350    -487.316E-03    -495.171E-03    -494.885E-03         1.65322    -487.316E-03     17.4705E-03     599.993E-03    -300.168E-03    -300.734E-03    -300.145E-03     599.970E-03    -300.734E-03    -9.10506E-03    -11.2496E+06    -12.0604E+06    -14.3863E+06    -14.0507E+06    -12.1460E+06    -11.4995E+06     652.227E+03         67.7648
             612     1.48193E-03     63.7654E-03         1.64425    -480.980E-03    -491.301E-03    -485.315E-03         1.64315    -485.875E-03     46.8379E-03     601.153E-03    -300.421E-03    -300.935E-03    -300.404E-03     601.136E-03    -300.935E-03    -7.77435E-03    -12.9333E+06    -13.7824E+06    -15.2842E+06    -14.8848E+06    -13.5529E+06    -13.5621E+06     295.191E+03         67.7323
             613     741.131E-06     63.7988E-03         1.66700    -479.136E-03    -515.565E-03    -487.414E-03         1.64374    -484.031E-03    -254.424E-03     601.737E-03    -300.549E-03    -301.094E-03    -300.552E-03     601.729E-03    -301.083E-03    -5.00338E-03    -13.8774E+06    -14.5210E+06    -15.3779E+06    -14.6939E+06    -14.5260E+06    -14.5563E+06     86.4611E+03         67.7556
             614     12.6101E-03     62.6429E-03         1.63360    -467.219E-03    -488.124E-03    -467.022E-03         1.63340    -488.124E-03     15.4746E-03     604.024E-03    -299.013E-03    -303.687E-03    -300.038E-03     600.375E-03    -299.013E-03     114.518E-03     12.3713E+06     1.13942E+06    -761.223E+03    -716.913E+03     1.09511E+06     12.3713E+06     168.812E+03         90.3984
             615     11.8697E-03     62.4214E-03         1.64078    -470.805E-03    -491.404E-03    -471.368E-03         1.64049    -490.557E-03     1.28140E-03     601.628E-03    -299.175E-03    -302.264E-03    -299.175E-03     598.539E-03    -299.175E-03     103.671E-03     10.6951E+06     1.75979E+06    -2.13852E+06    -1.83479E+06     1.45605E+06     10.6951E+06     407.638E+03         86.7028
             616     11.1118E-03     62.2758E-03         1.65071    -476.610E-03    -494.823E-03    -478.744E-03         1.65046    -492.445E-03    -44.9198E-03     598.907E-03    -299.204E-03    -300.085E-03    -298.186E-03     597.085E-03    -299.280E-03     80.8170E-03     9.36415E+06     1.42493E+06    -3.41730E+06    -2.84656E+06     854.200E+03     9.36415E+06     245.045E+03         81.8201
             617     10.3716E-03     62.1432E-03         1.65660    -481.060E-03    -495.344E-03    -482.327E-03         1.65634    -493.813E-03     2.98342E-03     599.263E-03    -298.889E-03    -299.053E-03    -297.558E-03     597.881E-03    -299.001E-03     69.9682E-03     7.72350E+06     1.51173E+06    -3.68432E+06    -3.24816E+06     1.07557E+06     7.72350E+06     333.461E+03         77.1151
             618     9.62987E-03     62.0429E-03         1.65949    -482.944E-03    -495.040E-03    -482.323E-03         1.65887    -495.040E-03    -19.0246E-03     599.291E-03    -298.608E-03    -298.812E-03    -297.896E-03     598.412E-03    -298.645E-03     55.8361E-03     6.52428E+06     2.33359E+06    -4.29819E+06    -4.15565E+06     2.19104E+06     6.52428E+06     260.726E+03         73.4647
             619     8.88968E-03     61.9584E-03         1.66158    -482.652E-03    -496.397E-03    -481.834E-03         1.66077    -496.397E-03    -6.34033E-03     598.362E-03    -297.665E-03    -298.271E-03    -297.271E-03     597.800E-03    -298.104E-03     44.5858E-03     6.59246E+06     2.09784E+06    -5.16137E+06    -5.03965E+06     1.97613E+06     6.59246E+06     215.522E+03         71.0294
             620     8.14829E-03     61.8932E-03         1.66353    -482.977E-03    -497.992E-03    -481.570E-03         1.66213    -497.992E-03    -29.3896E-03     597.455E-03    -296.723E-03    -298.929E-03    -296.394E-03     597.127E-03    -298.929E-03     33.8080E-03     6.09902E+06     1.44059E+06    -5.78299E+06    -5.66655E+06     1.32415E+06     6.09902E+06     365.046E+03         69.6991
             621     7.40752E-03     61.8489E-03         1.66509    -483.139E-03    -499.846E-03    -481.903E-03         1.66385    -499.846E-03    -39.9330E-03     596.580E-03    -297.055E-03    -299.015E-03    -296.914E-03     596.419E-03    -298.995E-03     23.5292E-03     4.59864E+06     398.604E+03    -6.71318E+06    -6.67716E+06     362.580E+03     4.59864E+06     320.893E+03         69.0919
             622     6.66646E-03     61.8181E-03         1.67054    -487.110E-03    -501.727E-03    -486.902E-03         1.67033    -501.727E-03     16.1533E-03     594.129E-03    -297.737E-03    -298.527E-03    -297.688E-03     594.060E-03    -298.508E-03     15.2038E-03     2.84705E+06    -332.864E+03    -7.82343E+06    -7.78860E+06    -367.687E+03     2.84705E+06     371.239E+03         68.8598
             623     5.92514E-03     61.8004E-03         1.68096    -496.601E-03    -503.050E-03    -496.544E-03         1.68091    -503.050E-03    -18.8999E-03     595.455E-03    -297.823E-03    -299.327E-03    -297.803E-03     595.435E-03    -299.327E-03     7.50946E-03     1.48726E+06    -2.21994E+06    -9.17038E+06    -9.02841E+06    -2.36191E+06     1.48726E+06     560.896E+03         68.7729
             624     5.18404E-03     61.7991E-03         1.68903    -501.586E-03    -505.561E-03    -503.508E-03         1.68886    -503.474E-03     16.1931E-03     598.032E-03    -298.974E-03    -299.928E-03    -299.020E-03     598.030E-03    -299.880E-03     844.455E-06    -1.79369E+06    -6.14642E+06    -10.9242E+06    -10.7652E+06    -6.30541E+06    -1.79369E+06     638.926E+03         68.6706
             625     4.44257E-03     61.8059E-03         1.69265    -502.312E-03    -508.185E-03    -506.825E-03         1.69209    -503.111E-03    -15.5664E-03     599.582E-03    -299.900E-03    -300.288E-03    -299.942E-03     599.576E-03    -300.240E-03    -3.99858E-03    -5.35032E+06    -8.04103E+06    -11.8416E+06    -11.6667E+06    -8.21586E+06    -5.35032E+06     586.647E+03         68.4812
             626     3.70167E-03     61.8317E-03         1.69350    -501.457E-03    -510.180E-03    -508.734E-03         1.69262    -502.018E-03     5.61096E-03     600.041E-03    -299.493E-03    -300.115E-03    -299.760E-03     600.025E-03    -299.833E-03    -7.29607E-03    -6.66878E+06    -8.64363E+06    -12.1582E+06    -11.9878E+06    -8.81405E+06    -6.66878E+06     528.313E+03         68.1977
             627     2.96139E-03     61.8607E-03         1.68916    -499.950E-03    -507.518E-03    -506.153E-03         1.68836    -500.510E-03     10.6401E-03     599.259E-03    -300.026E-03    -300.424E-03    -300.288E-03     599.239E-03    -300.141E-03    -8.47517E-03    -9.20314E+06    -10.4584E+06    -13.1812E+06    -13.1520E+06    -10.3603E+06    -9.33048E+06     30.2290E+03         67.9222
             628     2.22148E-03     61.8943E-03         1.68858    -498.366E-03    -507.434E-03    -506.245E-03         1.68739    -498.366E-03     24.2329E-03     600.137E-03    -300.212E-03    -300.874E-03    -300.195E-03     600.120E-03    -300.874E-03    -7.72047E-03    -11.4026E+06    -12.3270E+06    -14.1738E+06    -13.8817E+06    -11.9111E+06    -12.1107E+06    -104.624E+03         67.7706
             629     1.48128E-03     61.9305E-03         1.68469    -492.228E-03    -508.510E-03    -501.707E-03         1.68102    -495.359E-03    -30.3414E-03     601.388E-03    -300.446E-03    -301.154E-03    -300.436E-03     601.377E-03    -301.154E-03    -6.11062E-03    -12.5007E+06    -13.7847E+06    -14.7510E+06    -14.3029E+06    -12.9488E+06    -13.7847E+06    -231.311E+03         67.7414
             630     740.777E-06     61.9675E-03         1.67895    -468.299E-03    -525.417E-03    -516.279E-03         1.67294    -471.430E-03    -136.215E-03     602.186E-03    -300.635E-03    -301.264E-03    -300.642E-03     602.182E-03    -301.253E-03    -3.11702E-03    -13.8133E+06    -14.9378E+06    -15.5201E+06    -14.9080E+06    -14.3901E+06    -14.9731E+06    -491.285E+03         67.7660
             631     12.6110E-03     60.8099E-03         1.67966    -488.998E-03    -500.866E-03    -490.162E-03         1.67934    -499.385E-03     27.4598E-03     603.940E-03    -298.999E-03    -303.448E-03    -299.807E-03     600.300E-03    -298.999E-03     114.319E-03     12.9473E+06     403.834E+03    -798.914E+03    -738.206E+03     343.126E+03     12.9473E+06     9.52834E+03         90.3919
             632     11.8695E-03     60.5889E-03         1.69472    -499.076E-03    -505.522E-03    -503.490E-03         1.69437    -500.755E-03     15.5997E-03     601.298E-03    -299.218E-03    -301.882E-03    -298.757E-03     598.173E-03    -299.218E-03     104.321E-03     10.8200E+06     712.051E+03    -1.44248E+06    -1.15493E+06     424.496E+03     10.8200E+06     485.975E+03         86.6990
             633     11.1116E-03     60.4397E-03         1.69922    -501.405E-03    -506.784E-03    -506.655E-03         1.69910    -501.405E-03    -30.3715E-03     598.593E-03    -299.149E-03    -299.996E-03    -297.988E-03     596.754E-03    -299.317E-03     81.1452E-03     8.80638E+06     1.68725E+06    -2.05729E+06    -1.61432E+06     1.24428E+06     8.80638E+06     108.815E+03         81.8156
             634     10.3706E-03     60.3094E-03         1.69353    -497.173E-03    -504.144E-03    -499.083E-03         1.69335    -502.052E-03     12.7538E-03     599.142E-03    -298.826E-03    -299.019E-03    -297.482E-03     597.774E-03    -298.995E-03     69.6057E-03     8.58338E+06     2.13816E+06    -2.75626E+06    -2.41022E+06     1.79212E+06     8.58338E+06         272.430         77.1088
             635     9.63015E-03     60.2085E-03         1.68330    -486.262E-03    -503.457E-03    -485.969E-03         1.68301    -503.457E-03     1.14205E-03     599.419E-03    -298.670E-03    -298.936E-03    -298.073E-03     598.556E-03    -298.670E-03     55.3052E-03     8.78502E+06     2.57001E+06    -3.32954E+06    -3.05786E+06     2.29833E+06     8.78502E+06     871.282E+03         73.4596
             636     8.88869E-03     60.1248E-03         1.68123    -480.536E-03    -505.753E-03    -479.762E-03         1.68045    -505.753E-03     28.2418E-03     598.449E-03    -297.714E-03    -298.364E-03    -297.404E-03     597.896E-03    -298.121E-03     44.2759E-03     7.71464E+06     2.49022E+06    -4.41503E+06    -4.26332E+06     2.33851E+06     7.71464E+06     538.678E+03         71.0267
             637     8.14921E-03     60.0604E-03         1.68854    -484.944E-03    -508.394E-03    -483.777E-03         1.68737    -508.394E-03     4.42053E-03     597.640E-03    -296.789E-03    -298.919E-03    -296.457E-03     597.307E-03    -298.919E-03     34.0295E-03     6.05362E+06     1.44037E+06    -5.56540E+06    -5.53174E+06     1.40671E+06     6.05362E+06     171.012E+03         69.6982
             638     7.40725E-03     60.0175E-03         1.70049    -494.687E-03    -511.069E-03    -494.151E-03         1.69954    -510.658E-03    -7.33988E-03     596.708E-03    -297.011E-03    -298.988E-03    -296.847E-03     596.543E-03    -298.988E-03     23.7865E-03     3.89094E+06     373.839E+03    -6.91099E+06    -6.84381E+06     306.665E+03     3.89094E+06     231.171E+03         69.0889
             639     6.66546E-03     59.9876E-03         1.71378    -504.498E-03    -514.797E-03    -506.869E-03         1.71332    -511.970E-03     47.6617E-03     593.904E-03    -297.327E-03    -298.513E-03    -297.256E-03     593.833E-03    -298.513E-03     15.4402E-03     2.35355E+06    -839.286E+03    -8.09177E+06    -7.98272E+06    -948.340E+03     2.35355E+06     384.942E+03         68.8529
             640     5.92447E-03     59.9660E-03         1.72089    -509.908E-03    -516.563E-03    -514.127E-03         1.72078    -512.241E-03    -6.13597E-03     595.272E-03    -297.436E-03    -299.367E-03    -297.413E-03     595.250E-03    -299.367E-03     8.05089E-03     1.49563E+06    -2.44805E+06    -9.19306E+06    -8.98665E+06    -2.65447E+06     1.49563E+06     641.196E+03         68.7659
             641     5.18254E-03     59.9669E-03         1.72203    -510.848E-03    -516.399E-03    -515.018E-03         1.72173    -511.927E-03     16.8221E-03     598.290E-03    -298.949E-03    -300.238E-03    -299.236E-03     598.287E-03    -299.949E-03     1.41599E-03    -1.67372E+06    -5.26244E+06    -10.2117E+06    -9.99247E+06    -5.48166E+06    -1.67372E+06     602.594E+03         68.6669
             642     4.44272E-03     59.9737E-03         1.72234    -510.528E-03    -517.300E-03    -515.548E-03         1.72138    -511.328E-03    -24.7943E-03     599.718E-03    -299.818E-03    -300.648E-03    -300.102E-03     599.712E-03    -300.358E-03    -3.80249E-03    -5.52435E+06    -7.92078E+06    -11.2190E+06    -11.1014E+06    -8.03838E+06    -5.52435E+06     101.539E+03         68.4825
             643     3.70247E-03     59.9972E-03         1.72468    -510.036E-03    -520.364E-03    -518.724E-03         1.72304    -510.036E-03     6.25820E-03     599.212E-03    -299.106E-03    -299.787E-03    -299.231E-03     599.197E-03    -299.646E-03    -7.28471E-03    -6.64929E+06    -8.36612E+06    -12.3323E+06    -12.2647E+06    -8.43368E+06    -6.64929E+06    -136.971E+03         68.2035
             644     2.96128E-03     60.0266E-03         1.72269    -507.755E-03    -520.496E-03    -518.192E-03         1.72039    -507.755E-03    -12.6987E-03     598.569E-03    -299.655E-03    -300.064E-03    -299.774E-03     598.548E-03    -299.924E-03    -8.67969E-03    -8.68348E+06    -9.79804E+06    -13.0362E+06    -12.9761E+06    -9.59169E+06    -8.94993E+06     122.298E+03         67.9301
             645     2.22016E-03     60.0593E-03         1.71834    -504.790E-03    -518.293E-03    -514.009E-03         1.71405    -504.790E-03     34.6305E-03     600.117E-03    -299.906E-03    -301.028E-03    -299.887E-03     600.097E-03    -301.028E-03    -8.34903E-03    -11.5210E+06    -12.5069E+06    -14.2560E+06    -13.9080E+06    -11.8690E+06    -12.5069E+06     148.246E+03         67.7805
             646     1.47905E-03     60.0980E-03         1.71504    -501.845E-03    -516.595E-03    -503.409E-03         1.70300    -502.997E-03    -86.9413E-03     601.658E-03    -300.349E-03    -301.481E-03    -300.335E-03     601.645E-03    -301.481E-03    -6.75856E-03    -12.6418E+06    -13.9811E+06    -14.9555E+06    -14.5723E+06    -13.0250E+06    -13.9811E+06     227.993E+03         67.7561
             647     739.194E-06     60.1287E-03         1.72400    -471.864E-03    -554.055E-03    -532.011E-03         1.70310    -473.015E-03    -541.858E-06     603.341E-03    -301.031E-03    -302.048E-03    -301.025E-03     603.335E-03    -302.048E-03    -3.86451E-03    -13.4678E+06    -14.6337E+06    -15.4910E+06    -14.8433E+06    -14.1155E+06    -14.6337E+06     171.896E+03         67.7891
             648     12.6098E-03     58.9762E-03         1.70211    -490.883E-03    -509.507E-03    -492.033E-03         1.70178    -508.027E-03     26.1441E-03     603.993E-03    -299.004E-03    -303.253E-03    -299.590E-03     600.330E-03    -299.004E-03     114.652E-03     11.0791E+06     362.852E+03    -944.195E+03    -921.262E+03     339.920E+03     11.0791E+06    -113.015E+03         90.3850
             649     11.8684E-03     58.7561E-03         1.70999    -493.148E-03    -513.557E-03    -496.653E-03         1.70958    -509.637E-03     10.2336E-03     601.610E-03    -299.239E-03    -302.249E-03    -299.106E-03     598.467E-03    -299.239E-03     104.632E-03     8.97072E+06     147.980E+03    -1.57884E+06    -1.54833E+06     117.472E+03     8.97072E+06    -169.362E+03         86.6953
             650     11.1108E-03     58.6051E-03         1.71379    -494.750E-03    -514.230E-03    -497.582E-03         1.71363    -511.229E-03    -33.3380E-03     598.679E-03    -299.224E-03    -300.273E-03    -298.315E-03     596.838E-03    -299.341E-03     81.1885E-03     8.16569E+06     798.213E+03    -2.15190E+06    -2.11285E+06     759.168E+03     8.16569E+06     73.8082E+03         81.8151
             651     10.3712E-03     58.4774E-03         1.71719    -497.671E-03    -513.492E-03    -498.130E-03         1.71709    -512.931E-03     3.63748E-03     599.321E-03    -298.857E-03    -299.005E-03    -297.521E-03     597.954E-03    -298.974E-03     69.5687E-03     8.29175E+06     2.17710E+06    -2.87597E+06    -2.83866E+06     2.13978E+06     8.29175E+06     141.925E+03         77.1084
             652     9.63006E-03     58.3718E-03         1.72158    -499.544E-03    -514.690E-03    -499.292E-03         1.72133    -514.690E-03    -12.1215E-03     599.542E-03    -298.646E-03    -298.904E-03    -298.040E-03     598.679E-03    -298.646E-03     55.3136E-03     8.04431E+06     2.43725E+06    -3.90494E+06    -3.68608E+06     2.21839E+06     8.04431E+06     107.375E+03         73.4588
             653     8.88929E-03     58.2871E-03         1.72586    -501.092E-03    -516.418E-03    -500.458E-03         1.72523    -516.418E-03     17.5905E-03     598.293E-03    -297.575E-03    -298.341E-03    -297.245E-03     597.737E-03    -298.115E-03     44.3874E-03     7.37019E+06     2.51966E+06    -4.46862E+06    -4.22746E+06     2.27851E+06     7.37019E+06     436.768E+03         71.0252
             654     8.14728E-03     58.2259E-03         1.73337    -505.357E-03    -519.280E-03    -505.781E-03         1.73243    -517.916E-03    -3.00089E-03     597.501E-03    -296.612E-03    -298.932E-03    -296.277E-03     597.166E-03    -298.932E-03     34.1659E-03     6.65639E+06     1.64861E+06    -5.15212E+06    -5.10136E+06     1.59785E+06     6.65639E+06     498.952E+03         69.6956
             655     7.40690E-03     58.1804E-03         1.74277    -513.649E-03    -520.590E-03    -514.615E-03         1.74196    -518.814E-03    -15.4608E-03     596.799E-03    -297.132E-03    -299.029E-03    -296.966E-03     596.633E-03    -299.029E-03     23.9195E-03     6.01348E+06     335.789E+03    -6.16215E+06    -6.07962E+06     253.264E+03     6.01348E+06     272.419E+03         69.0868
             656     6.66661E-03     58.1506E-03         1.74722    -517.220E-03    -521.882E-03    -519.659E-03         1.74683    -519.055E-03     37.2137E-03     593.988E-03    -297.675E-03    -298.553E-03    -297.605E-03     593.918E-03    -298.553E-03     15.3101E-03     4.28786E+06    -1.20676E+06    -7.39040E+06    -7.26358E+06    -1.33358E+06     4.28786E+06     443.698E+03         68.8522
             657     5.92429E-03     58.1336E-03         1.74684    -515.378E-03    -523.357E-03    -519.423E-03         1.74656    -519.034E-03    -20.7934E-03     595.131E-03    -297.431E-03    -299.415E-03    -297.411E-03     595.111E-03    -299.415E-03     7.61374E-03     1.29175E+06    -2.36411E+06    -8.79903E+06    -8.71587E+06    -2.44727E+06     1.29175E+06     387.976E+03         68.7653
             658     5.18218E-03     58.1274E-03         1.74608    -514.620E-03    -523.534E-03    -518.453E-03         1.74544    -519.062E-03     15.4343E-03     597.400E-03    -298.196E-03    -299.922E-03    -298.439E-03     597.398E-03    -299.677E-03     1.11021E-03    -2.64656E+06    -4.35683E+06    -10.1472E+06    -10.0373E+06    -4.46671E+06    -2.64656E+06     114.042E+03         68.6658
             659     4.44201E-03     58.1341E-03         1.74480    -514.456E-03    -522.970E-03    -516.739E-03         1.74339    -519.271E-03    -22.4705E-03     599.216E-03    -299.422E-03    -300.331E-03    -299.662E-03     599.211E-03    -300.086E-03    -3.65362E-03    -6.21103E+06    -7.73100E+06    -11.2781E+06    -10.9936E+06    -7.31478E+06    -6.91169E+06     270.853E+03         68.4846
             660     3.70066E-03     58.1592E-03         1.74472    -514.243E-03    -522.802E-03    -514.187E-03         1.74178    -519.922E-03     26.8733E-03     600.349E-03    -299.579E-03    -300.293E-03    -299.873E-03     600.334E-03    -299.985E-03    -7.10916E-03    -7.98131E+06    -9.15745E+06    -12.1148E+06    -11.9125E+06    -8.65908E+06    -8.68198E+06     114.461E+03         68.2136
             661     2.96074E-03     58.1857E-03         1.74848    -512.134E-03    -528.430E-03    -515.768E-03         1.74457    -520.892E-03    -1.26926E-03     599.558E-03    -300.012E-03    -300.591E-03    -300.358E-03     599.534E-03    -300.222E-03    -9.23293E-03    -9.38180E+06    -10.0349E+06    -12.8627E+06    -12.7577E+06    -10.0007E+06    -9.52089E+06     264.376E+03         67.9441
             662     2.22079E-03     58.2187E-03         1.75709    -515.784E-03    -533.421E-03    -520.327E-03         1.74950    -521.291E-03     65.4555E-03     600.314E-03    -300.141E-03    -300.987E-03    -300.176E-03     600.289E-03    -300.926E-03    -9.55558E-03    -11.0014E+06    -11.6480E+06    -13.8853E+06    -13.4976E+06    -11.5042E+06    -11.5328E+06     434.888E+03         67.7896
             663     1.48049E-03     58.2565E-03         1.77010    -521.744E-03    -538.473E-03    -515.030E-03         1.74781    -522.896E-03    -114.774E-03     601.476E-03    -300.424E-03    -301.258E-03    -300.407E-03     601.458E-03    -301.258E-03    -7.81665E-03    -11.9448E+06    -12.9625E+06    -14.5678E+06    -13.9317E+06    -12.5809E+06    -12.9625E+06    -109.554E+03         67.7586
             664     740.036E-06     58.2861E-03         1.81246    -489.156E-03    -613.350E-03    -558.746E-03         1.75901    -490.307E-03     143.603E-03     602.807E-03    -300.899E-03    -301.738E-03    -301.192E-03     602.800E-03    -301.437E-03    -4.87507E-03    -12.1710E+06    -13.4400E+06    -14.3306E+06    -13.2919E+06    -13.2097E+06    -13.4400E+06     44.5192E+03         67.7885
             665     12.6080E-03     57.1373E-03         1.71423    -485.162E-03    -513.583E-03    -484.810E-03         1.71388    -513.583E-03     20.7447E-03     604.073E-03    -299.033E-03    -303.340E-03    -299.678E-03     600.411E-03    -299.033E-03     114.694E-03     10.4011E+06     1.03111E+06    -749.693E+03    -459.923E+03     741.336E+03     10.4011E+06     225.709E+03         90.3796
             666     11.8682E-03     56.9200E-03         1.71462    -481.545E-03    -516.093E-03    -481.094E-03         1.71417    -516.093E-03     9.36101E-03     602.038E-03    -299.229E-03    -302.543E-03    -299.435E-03     598.930E-03    -299.229E-03     104.038E-03     9.56513E+06     1.12974E+06    -1.44935E+06    -1.19222E+06     872.606E+03     9.56513E+06    -285.516E+03         86.6933
             667     11.1113E-03     56.7703E-03         1.72410    -486.958E-03    -518.765E-03    -486.766E-03         1.72391    -518.765E-03    -37.7398E-03     598.948E-03    -299.274E-03    -300.270E-03    -298.393E-03     597.125E-03    -299.328E-03     80.8355E-03     8.59035E+06     954.826E+03    -2.30104E+06    -1.90013E+06      553.92E+03     8.59035E+06     122.288E+03         81.8171
             668     10.3703E-03     56.6386E-03         1.74010    -499.588E-03    -520.980E-03    -499.550E-03         1.74006    -520.980E-03    -8.29129E-03     599.351E-03    -298.870E-03    -299.002E-03    -297.513E-03     597.987E-03    -298.995E-03     69.4859E-03     8.05229E+06     1.48918E+06    -2.78191E+06    -2.54501E+06     1.25228E+06     8.05229E+06     396.336E+03         77.1110
             669     9.62956E-03     56.5371E-03         1.75809    -514.355E-03    -523.345E-03    -515.217E-03         1.75790    -522.286E-03    -24.3002E-03     599.371E-03    -298.589E-03    -298.780E-03    -297.851E-03     598.512E-03    -298.660E-03     55.1613E-03     7.69107E+06     2.08456E+06    -3.51877E+06    -3.35750E+06     1.92329E+06     7.69107E+06    -315.816E+03         73.4585
             670     8.88822E-03     56.4528E-03         1.77347    -521.436E-03    -530.908E-03    -529.508E-03         1.77308    -522.437E-03     3.33971E-03     598.244E-03    -297.550E-03    -298.226E-03    -297.111E-03     597.692E-03    -298.113E-03     44.2419E-03     7.35858E+06     1.86911E+06    -4.54192E+06    -4.37655E+06     1.70374E+06     7.35858E+06    -249.650E+03         71.0230
             671     8.14847E-03     56.3915E-03         1.77884    -521.209E-03    -536.101E-03    -534.966E-03         1.77812    -521.622E-03    -17.0556E-03     597.348E-03    -296.461E-03    -298.946E-03    -296.128E-03     597.015E-03    -298.946E-03     34.0443E-03     6.63405E+06     1.37232E+06    -5.22975E+06    -5.13282E+06     1.27540E+06     6.63405E+06     130.198E+03         69.6931
             672     7.40638E-03     56.3471E-03         1.77185    -520.369E-03    -529.985E-03    -529.214E-03         1.77132    -520.603E-03    -38.6888E-03     596.646E-03    -297.028E-03    -299.052E-03    -296.862E-03     596.480E-03    -299.052E-03     23.9151E-03     5.00366E+06     220.694E+03    -6.24549E+06    -6.18112E+06     156.321E+03     5.00366E+06     452.390E+03         69.0861
             673     6.66467E-03     56.3175E-03         1.75946    -515.821E-03    -522.600E-03    -518.105E-03         1.75943    -520.286E-03     8.08988E-03     594.289E-03    -298.216E-03    -298.559E-03    -298.145E-03     594.218E-03    -298.559E-03     15.4694E-03     3.06444E+06    -1.25507E+06    -7.44016E+06    -7.37630E+06    -1.31893E+06     3.06444E+06     487.108E+03         68.8562
             674     5.92489E-03     56.2998E-03         1.75152    -509.599E-03    -521.150E-03    -509.138E-03         1.75106    -521.150E-03    -46.0923E-03     595.498E-03    -298.018E-03    -299.412E-03    -297.997E-03     595.477E-03    -299.412E-03     7.70257E-03     804.080E+03    -1.93215E+06    -8.50510E+06    -8.46691E+06    -1.97033E+06     804.080E+03     475.714E+03         68.7732
             675     5.18229E-03     56.2984E-03         1.74885    -505.102E-03    -523.256E-03    -504.236E-03         1.74799    -523.256E-03    -1.87955E-03     597.324E-03    -298.264E-03    -299.699E-03    -298.261E-03     597.322E-03    -299.699E-03     751.587E-06    -2.43519E+06    -4.15476E+06    -9.97473E+06    -9.84843E+06    -4.28107E+06    -2.43519E+06     376.457E+03         68.6737
             676     4.44067E-03     56.3025E-03         1.75259    -505.373E-03    -526.488E-03    -503.753E-03         1.75097    -526.488E-03    -30.6469E-03     599.256E-03    -299.566E-03    -300.088E-03    -299.559E-03     599.249E-03    -300.088E-03    -4.45583E-03    -5.02540E+06    -7.07168E+06    -10.8367E+06    -10.5282E+06    -6.67952E+06    -5.72607E+06     272.224E+03         68.4920
             677     3.70169E-03     56.3259E-03         1.76439    -513.082E-03    -530.413E-03    -509.351E-03         1.76066    -530.413E-03     33.6317E-03     601.554E-03    -300.025E-03    -301.013E-03    -300.756E-03     601.536E-03    -300.264E-03    -7.94615E-03     -7.4043E+06    -8.61655E+06    -11.2522E+06    -10.9862E+06    -8.16173E+06    -8.12514E+06     399.554E+03         68.2229
             678     2.96177E-03     56.3536E-03         1.77773    -521.994E-03    -534.724E-03    -517.330E-03         1.77289    -534.551E-03     4.75771E-03     600.603E-03    -300.480E-03    -301.302E-03    -301.277E-03     600.577E-03    -300.480E-03    -9.57556E-03    -9.75926E+06    -10.0410E+06    -12.2630E+06    -12.0632E+06    -10.1272E+06    -9.87278E+06     315.056E+03         67.9525
             679     2.22132E-03     56.3854E-03         1.79969    -532.222E-03    -545.665E-03    -530.802E-03         1.79034    -537.729E-03     79.5098E-03     600.443E-03    -300.468E-03    -300.874E-03    -300.517E-03     600.419E-03    -300.800E-03    -9.35972E-03    -10.5657E+06    -11.0076E+06    -12.8090E+06    -12.4425E+06    -11.0474E+06    -10.8924E+06     6.70062E+03         67.7904
             680     1.48148E-03     56.4220E-03         1.83192    -537.706E-03    -572.022E-03    -542.013E-03         1.80191    -537.706E-03    -148.919E-03     601.327E-03    -300.569E-03    -300.989E-03    -300.573E-03     601.312E-03    -300.970E-03    -7.24235E-03    -11.3192E+06    -12.1281E+06    -13.5565E+06    -12.8684E+06    -12.0073E+06    -12.1281E+06    -193.937E+03         67.7492
             681     741.040E-06     56.4503E-03         1.87393    -492.475E-03    -659.858E-03    -580.706E-03         1.79478    -492.475E-03     200.166E-03     601.794E-03    -300.399E-03    -301.177E-03    -300.713E-03     601.789E-03    -300.857E-03    -4.00734E-03    -12.6540E+06    -13.8407E+06    -14.6726E+06    -13.7568E+06    -13.8363E+06    -13.5742E+06    -109.614E+03         67.7696
             682     12.6085E-03     55.3055E-03         1.74571    -497.685E-03    -519.649E-03    -497.366E-03         1.74539    -519.649E-03     27.8417E-03     604.066E-03    -299.045E-03    -303.568E-03    -299.930E-03     600.429E-03    -299.045E-03     114.354E-03     10.9556E+06     477.749E+03    -906.534E+03    -595.551E+03     166.766E+03     10.9556E+06     178.270E+03         90.3756
             683     11.8675E-03     55.0860E-03         1.75111    -499.843E-03    -521.739E-03    -499.449E-03         1.75072    -521.739E-03     16.7608E-03     601.885E-03    -299.206E-03    -302.399E-03    -299.333E-03     598.819E-03    -299.206E-03     103.325E-03     9.30017E+06     1.03916E+06    -1.76674E+06    -1.51328E+06     785.697E+03     9.30017E+06    -242.138E+03         86.6917
             684     11.1117E-03     54.9389E-03         1.75911    -504.826E-03    -523.535E-03    -504.727E-03         1.75901    -523.535E-03    -23.2364E-03     599.076E-03    -299.258E-03    -300.227E-03    -298.385E-03     597.263E-03    -299.287E-03     80.6205E-03     7.91162E+06     1.91988E+06    -2.48023E+06    -1.99878E+06     1.43843E+06     7.91162E+06    -318.843E+03         81.8178
             685     10.3718E-03     54.8067E-03         1.76723    -511.029E-03    -524.920E-03    -511.000E-03         1.76720    -524.920E-03     6.42407E-03     599.230E-03    -298.795E-03    -299.037E-03    -297.481E-03     597.867E-03    -298.988E-03     69.4264E-03     7.25619E+06     1.85025E+06    -2.95965E+06    -2.62349E+06     1.51408E+06     7.25619E+06     39.7395E+03         77.1144
             686     9.62987E-03     54.7057E-03         1.77541    -516.370E-03    -526.977E-03    -517.377E-03         1.77536    -525.919E-03     1.41752E-03     598.975E-03    -298.495E-03    -298.695E-03    -297.654E-03     598.119E-03    -298.680E-03     55.0666E-03     7.18874E+06     1.78694E+06    -3.49649E+06    -3.39343E+06     1.68388E+06     7.18874E+06     170.328E+03         73.4633
             687     8.88900E-03     54.6202E-03         1.78386    -515.794E-03    -535.003E-03    -523.817E-03         1.78342    -526.532E-03     34.7696E-03     597.905E-03    -297.392E-03    -298.119E-03    -296.853E-03     597.351E-03    -298.104E-03     44.2695E-03     6.36643E+06     1.78538E+06    -4.77929E+06    -4.58280E+06     1.58889E+06     6.36643E+06     448.203E+03         71.0268
             688     8.14637E-03     54.5588E-03         1.78924    -515.721E-03    -539.914E-03    -528.245E-03         1.78865    -526.799E-03     17.9906E-03     597.287E-03    -296.410E-03    -298.934E-03    -296.077E-03     596.955E-03    -298.934E-03     34.0056E-03     4.61715E+06     1.25838E+06    -6.48934E+06    -6.27833E+06     1.04737E+06     4.61715E+06     351.240E+03         69.6951
             689     7.40570E-03     54.5147E-03         1.79092    -522.348E-03    -534.841E-03    -530.046E-03         1.79060    -526.823E-03    -1.27105E-03     596.718E-03    -297.162E-03    -299.061E-03    -296.997E-03     596.552E-03    -299.061E-03     23.8475E-03     2.58892E+06    -102.929E+03    -7.41046E+06    -7.38087E+06    -132.516E+03     2.58892E+06     58.9095E+03         69.0887
             690     6.66529E-03     54.4833E-03         1.78924    -523.936E-03    -532.630E-03    -529.597E-03         1.78899    -526.719E-03     41.9284E-03     594.228E-03    -298.109E-03    -298.565E-03    -298.040E-03     594.158E-03    -298.564E-03     15.2782E-03     755.744E+03    -1.31138E+06    -7.96521E+06    -7.94486E+06    -1.33173E+06     755.744E+03     103.562E+03         68.8625
             691     5.92294E-03     54.4689E-03         1.78345    -518.987E-03    -532.131E-03    -523.762E-03         1.78297    -526.881E-03    -22.0777E-03     595.715E-03    -298.191E-03    -299.407E-03    -298.171E-03     595.695E-03    -299.407E-03     7.65619E-03    -239.185E+03    -1.92962E+06    -8.83448E+06    -8.80620E+06    -1.95790E+06    -239.185E+03     257.857E+03         68.7841
             692     5.18249E-03     54.4640E-03         1.77810    -514.167E-03    -531.861E-03    -517.173E-03         1.77712    -527.880E-03     11.9101E-03     598.046E-03    -298.825E-03    -299.915E-03    -299.062E-03     598.043E-03    -299.675E-03     837.049E-06    -1.16653E+06    -3.71805E+06    -9.47893E+06    -9.30408E+06    -3.89291E+06    -1.16653E+06     101.061E+03         68.6842
             693     4.44309E-03     54.4729E-03         1.78118    -513.321E-03    -535.851E-03    -517.926E-03         1.77956    -529.621E-03    -16.3035E-03     599.426E-03    -299.676E-03    -300.236E-03    -299.909E-03     599.418E-03    -299.996E-03    -4.62808E-03    -3.82864E+06    -6.31467E+06    -10.5211E+06    -10.2040E+06    -6.63180E+06    -3.82864E+06     26.2217E+03         68.4973
             694     3.70132E-03     54.4928E-03         1.79428    -519.456E-03    -541.552E-03    -526.384E-03         1.79077    -531.108E-03     39.4335E-03     600.883E-03    -299.889E-03    -300.637E-03    -300.322E-03     600.865E-03    -300.185E-03    -8.07364E-03    -6.75716E+06    -8.03807E+06    -11.5438E+06    -11.3256E+06    -8.23612E+06    -6.77733E+06     343.612E+03         68.2212
             695     2.96118E-03     54.5214E-03         1.80509    -527.536E-03    -543.910E-03    -534.555E-03         1.79953    -531.336E-03    -11.7361E-03     599.988E-03    -300.362E-03    -300.965E-03    -300.802E-03     599.964E-03    -300.501E-03    -9.23039E-03    -8.83675E+06    -9.55171E+06    -11.9188E+06    -11.6347E+06    -9.50676E+06    -9.16582E+06     442.192E+03         67.9436
             696     2.22151E-03     54.5562E-03         1.80877    -530.777E-03    -544.230E-03    -533.562E-03         1.79811    -530.777E-03     69.0151E-03     600.247E-03    -300.347E-03    -300.884E-03    -300.339E-03     600.227E-03    -300.871E-03    -8.55796E-03    -10.7827E+06    -11.5913E+06    -12.6406E+06    -12.2569E+06    -11.1664E+06    -11.5913E+06     220.445E+03         67.7796
             697     1.48106E-03     54.5915E-03         1.82876    -531.433E-03    -564.001E-03    -528.403E-03         1.79316    -531.433E-03    -175.274E-03     601.387E-03    -300.562E-03    -301.076E-03    -300.568E-03     601.374E-03    -301.057E-03    -6.68200E-03    -11.9481E+06    -13.0362E+06    -13.5415E+06    -13.0148E+06    -12.4332E+06    -13.0777E+06     461.266E+03         67.7419
             698     740.821E-06     54.6220E-03         1.88939    -491.491E-03    -665.901E-03    -573.234E-03         1.79672    -491.491E-03     210.437E-03     601.898E-03    -300.419E-03    -301.307E-03    -300.433E-03     601.893E-03    -301.288E-03    -3.62349E-03    -12.2917E+06    -13.4109E+06    -13.8645E+06    -13.1346E+06    -13.2465E+06    -13.1860E+06     514.072E+03         67.7641
             699     12.6097E-03     53.4733E-03         1.78521    -519.298E-03    -526.511E-03    -519.183E-03         1.78487    -526.283E-03     23.8671E-03     604.261E-03    -299.026E-03    -303.922E-03    -300.290E-03     600.630E-03    -299.026E-03     114.297E-03     10.7328E+06     539.291E+03    -1.02658E+06    -615.614E+03     128.326E+03     10.7328E+06    -160.746E+03         90.3661
             700     11.8688E-03     53.2544E-03         1.79422    -523.330E-03    -529.540E-03    -525.341E-03         1.79386    -527.166E-03     20.3345E-03     601.470E-03    -299.179E-03    -302.253E-03    -299.194E-03     598.412E-03    -299.179E-03     103.157E-03     8.85810E+06     1.42266E+06    -1.89757E+06    -1.17504E+06     700.132E+03     8.85810E+06     329.313E+03         86.6846
             701     11.1111E-03     53.1044E-03         1.79689    -524.271E-03    -530.964E-03    -527.514E-03         1.79682    -527.652E-03    -20.5523E-03     598.721E-03    -299.151E-03    -300.206E-03    -298.256E-03     596.909E-03    -299.288E-03     80.5995E-03     7.48396E+06     1.60393E+06    -3.02761E+06    -2.22100E+06     797.316E+03     7.48396E+06     41.8479E+03         81.8132
             702     10.3702E-03     52.9744E-03         1.79269    -521.243E-03    -529.303E-03    -522.379E-03         1.79266    -528.137E-03     6.10357E-03     599.049E-03    -298.645E-03    -299.025E-03    -297.318E-03     597.674E-03    -298.977E-03     69.7662E-03     6.41862E+06     1.92879E+06    -3.38075E+06    -3.21591E+06     1.76395E+06     6.41862E+06    -121.918E+03         77.1159
             703     9.62982E-03     52.8713E-03         1.78587    -513.838E-03    -529.131E-03    -513.803E-03         1.78583    -529.131E-03     4.17851E-03     598.838E-03    -298.416E-03    -298.689E-03    -297.539E-03     597.962E-03    -298.689E-03     55.7439E-03     5.25522E+06     1.81835E+06    -4.36173E+06    -4.21363E+06     1.67026E+06     5.25522E+06     785.138E+03         73.4724
             704     8.88729E-03     52.7871E-03         1.78012    -505.365E-03    -530.962E-03    -505.007E-03         1.77976    -530.962E-03     31.2340E-03     597.793E-03    -297.331E-03    -298.122E-03    -296.765E-03     597.227E-03    -298.122E-03     44.7407E-03     4.83150E+06     2.03029E+06    -5.16053E+06    -4.83565E+06     1.70541E+06     4.83150E+06     616.095E+03         71.0370
             705     8.14667E-03     52.7291E-03         1.78288    -504.932E-03    -533.499E-03    -504.460E-03         1.78241    -533.499E-03     14.8863E-03     597.527E-03    -296.480E-03    -298.928E-03    -296.147E-03     597.193E-03    -298.928E-03     34.0373E-03     4.55125E+06     2.47380E+06    -5.27284E+06    -5.04007E+06     2.24103E+06     4.55125E+06     146.436E+03         69.7017
             706     7.40599E-03     52.6841E-03         1.79701    -516.346E-03    -535.928E-03    -516.085E-03         1.79675    -535.928E-03    -7.90271E-03     596.965E-03    -297.326E-03    -299.063E-03    -297.163E-03     596.801E-03    -299.061E-03     23.8070E-03     3.82936E+06     485.915E+03    -5.88327E+06    -5.86533E+06     467.974E+03     3.82936E+06    -66.2201E+03         69.0950
             707     6.66433E-03     52.6559E-03         1.81317    -528.300E-03    -540.932E-03    -531.663E-03         1.81293    -537.335E-03     30.1811E-03     594.198E-03    -298.076E-03    -298.583E-03    -298.008E-03     594.129E-03    -298.581E-03     15.1479E-03     3.00605E+06    -1.61533E+06    -7.01042E+06    -7.00716E+06    -1.61859E+06     3.00605E+06    -117.515E+03         68.8707
             708     5.92370E-03     52.6378E-03         1.82777    -534.183E-03    -550.520E-03    -547.110E-03         1.82727    -537.092E-03    -26.4381E-03     595.762E-03    -298.166E-03    -299.401E-03    -298.147E-03     595.743E-03    -299.401E-03     7.40532E-03     1.05687E+06    -2.02341E+06    -8.15844E+06    -8.15033E+06    -2.03152E+06     1.05687E+06    -145.048E+03         68.7910
             709     5.18207E-03     52.6344E-03         1.83722    -534.760E-03    -559.909E-03    -558.972E-03         1.83628    -534.760E-03     6.70956E-03     597.467E-03    -298.553E-03    -299.550E-03    -298.818E-03     597.465E-03    -299.283E-03     956.078E-06    -1.41485E+06    -3.69121E+06    -9.60859E+06    -9.45394E+06    -3.84585E+06    -1.41485E+06    -104.021E+03         68.6860
             710     4.44246E-03     52.6421E-03         1.83476    -530.587E-03    -561.499E-03    -559.953E-03         1.83322    -530.587E-03    -19.9910E-03     598.769E-03    -299.356E-03    -299.937E-03    -299.618E-03     598.764E-03    -299.669E-03    -3.94472E-03    -5.09094E+06    -7.00948E+06    -11.0412E+06    -10.7651E+06    -7.28505E+06    -5.09155E+06     132.159E+03         68.4955
             711     3.70292E-03     52.6678E-03         1.82222    -525.775E-03    -553.152E-03    -549.728E-03         1.81880    -525.775E-03     37.3565E-03     600.549E-03    -299.884E-03    -300.301E-03    -299.972E-03     600.533E-03    -300.197E-03    -7.44326E-03    -8.01518E+06    -8.95582E+06    -11.5304E+06    -11.3967E+06    -8.97116E+06    -8.13350E+06     248.087E+03         68.2168
             712     2.96160E-03     52.6910E-03         1.80726    -521.715E-03    -540.902E-03    -535.544E-03         1.80190    -521.715E-03    -10.1925E-03     598.889E-03    -299.766E-03    -300.254E-03    -299.846E-03     598.865E-03    -300.150E-03    -9.26091E-03    -8.43540E+06    -9.59760E+06    -12.1287E+06    -11.9517E+06    -9.44130E+06    -8.76864E+06     240.357E+03         67.9335
             713     2.22032E-03     52.7260E-03         1.79719    -519.135E-03    -534.567E-03    -524.654E-03         1.78727    -519.135E-03     62.3561E-03     599.391E-03    -299.592E-03    -300.611E-03    -299.569E-03     599.368E-03    -300.611E-03    -8.99343E-03    -9.35104E+06    -10.4757E+06    -13.1214E+06    -12.5748E+06    -10.3407E+06    -10.0327E+06     588.982E+03         67.7680
             714     1.48032E-03     52.7624E-03         1.81263    -518.633E-03    -550.783E-03    -517.364E-03         1.77921    -518.633E-03    -171.788E-03     601.503E-03    -300.415E-03    -301.305E-03    -300.401E-03     601.488E-03    -301.305E-03    -7.01601E-03    -10.9677E+06    -11.8878E+06    -13.7628E+06    -13.0746E+06    -11.6144E+06    -11.9293E+06     308.923E+03         67.7393
             715     739.894E-06     52.7924E-03         1.87339    -476.312E-03    -654.397E-03    -562.458E-03         1.78145    -476.312E-03     224.172E-03     602.688E-03    -300.972E-03    -301.683E-03    -301.054E-03     602.683E-03    -301.596E-03    -3.66877E-03    -12.1648E+06    -13.0572E+06    -14.1082E+06    -13.1508E+06    -13.0807E+06    -13.0988E+06    -286.474E+03         67.7722
             716     12.6100E-03     51.6452E-03         1.80982    -527.280E-03    -532.415E-03    -528.304E-03         1.80950    -531.069E-03     28.1987E-03     604.313E-03    -299.013E-03    -303.772E-03    -300.110E-03     600.651E-03    -299.013E-03     114.724E-03     9.14881E+06     855.245E+03    -1.09346E+06    -582.750E+03     344.530E+03     9.14881E+06    -120.115E+03         90.3428
             717     11.8696E-03     51.4249E-03         1.81835    -531.398E-03    -536.009E-03    -535.640E-03         1.81798    -531.398E-03     18.0240E-03     601.732E-03    -299.215E-03    -302.327E-03    -299.202E-03     598.606E-03    -299.215E-03     104.392E-03     8.04541E+06     1.29818E+06    -1.90179E+06    -1.12107E+06     517.457E+03     8.04541E+06     399.142E+03         86.6626
             718     11.1110E-03     51.2765E-03         1.82096    -531.330E-03    -538.188E-03    -538.069E-03         1.82085    -531.330E-03    -32.2984E-03     598.670E-03    -299.146E-03    -300.202E-03    -298.162E-03     596.815E-03    -299.331E-03     81.4956E-03     6.65217E+06     1.66420E+06    -3.01646E+06    -1.76976E+06     417.509E+03     6.65217E+06     1.07118E+06         81.7935
             719     10.3703E-03     51.1449E-03         1.81782    -529.222E-03    -536.327E-03    -534.256E-03         1.81773    -531.202E-03    -19.7841E-03     598.857E-03    -298.623E-03    -298.985E-03    -297.245E-03     597.479E-03    -298.985E-03     69.7985E-03     6.78522E+06     1.83185E+06    -3.21245E+06    -2.59506E+06     1.21446E+06     6.78522E+06     576.164E+03         77.1016
             720     9.62828E-03     51.0440E-03         1.81031    -522.959E-03    -534.219E-03    -525.568E-03         1.81015    -531.442E-03    -27.9160E-03     599.003E-03    -298.474E-03    -298.736E-03    -297.635E-03     598.135E-03    -298.708E-03     55.4522E-03     7.42660E+06     1.94300E+06    -3.24113E+06    -2.87291E+06     1.57477E+06     7.42660E+06    -33.5858E+03         73.4658
             721     8.88732E-03     50.9599E-03         1.80436    -517.250E-03    -533.515E-03    -518.313E-03         1.80417    -532.270E-03    -5.66423E-03     598.141E-03    -297.495E-03    -298.158E-03    -296.965E-03     597.582E-03    -298.130E-03     44.4498E-03     6.57906E+06     2.96609E+06    -3.61657E+06    -3.20719E+06     2.55671E+06     6.57906E+06    -213.951E+03         71.0378
             722     8.14586E-03     50.8961E-03         1.80252    -514.926E-03    -533.642E-03    -514.713E-03         1.80230    -533.642E-03    -9.53853E-03     597.491E-03    -296.480E-03    -298.933E-03    -296.148E-03     597.159E-03    -298.933E-03     34.0139E-03     5.79956E+06     2.45107E+06    -4.05922E+06    -3.95358E+06     2.34543E+06     5.79956E+06      -88.76E+03         69.7075
             723     7.40560E-03     50.8527E-03         1.80711    -517.768E-03    -535.268E-03    -517.603E-03         1.80694    -535.268E-03    -23.7685E-03     596.850E-03    -297.200E-03    -299.150E-03    -297.111E-03     596.685E-03    -299.074E-03     23.7788E-03     4.85257E+06     742.394E+03    -4.98366E+06    -4.94028E+06     699.017E+03     4.85257E+06     386.401E+03         69.1029
             724     6.66544E-03     50.8249E-03         1.81690    -526.386E-03    -536.645E-03    -526.421E-03         1.81688    -536.595E-03     2.23092E-03     594.442E-03    -298.306E-03    -298.656E-03    -298.313E-03     594.373E-03    -298.580E-03     15.2909E-03     2.94357E+06    -947.577E+03    -6.45404E+06    -6.41735E+06    -984.269E+03     2.94357E+06     202.799E+03         68.8779
             725     5.92413E-03     50.8058E-03         1.82931    -530.374E-03    -545.234E-03    -538.096E-03         1.82880    -537.006E-03    -48.2510E-03     595.855E-03    -298.270E-03    -299.366E-03    -298.249E-03     595.834E-03    -299.366E-03     7.60968E-03     918.242E+03    -2.63265E+06    -7.84183E+06    -7.81516E+06    -2.65933E+06     918.242E+03     8.55905E+03         68.7936
             726     5.18261E-03     50.8019E-03         1.83854    -527.905E-03    -557.198E-03    -548.280E-03         1.83775    -536.029E-03    -11.7273E-03     597.129E-03    -298.424E-03    -299.284E-03    -298.449E-03     597.127E-03    -299.257E-03     913.509E-06    -1.30831E+06    -4.36365E+06    -9.22116E+06    -9.11158E+06    -4.47323E+06    -1.30831E+06     436.695E+03         68.6838
             727     4.44163E-03     50.8103E-03         1.83914    -527.258E-03    -558.373E-03    -550.792E-03         1.83799    -533.691E-03    -26.3226E-03     598.758E-03    -299.386E-03    -299.784E-03    -299.408E-03     598.752E-03    -299.757E-03    -3.93522E-03    -4.91608E+06    -6.78958E+06    -10.3737E+06    -10.2491E+06    -6.91359E+06    -4.91669E+06     368.576E+03         68.4944
             728     3.70120E-03     50.8323E-03         1.83333    -528.495E-03    -551.580E-03    -546.607E-03         1.83039    -530.528E-03     35.3211E-03     601.230E-03    -299.940E-03    -300.665E-03    -300.290E-03     601.215E-03    -300.300E-03    -7.19821E-03    -8.16951E+06    -8.80890E+06    -11.1907E+06    -11.1450E+06    -8.73626E+06    -8.28782E+06     54.4756E+03         68.2208
             729     2.96191E-03     50.8637E-03         1.82516    -526.985E-03    -545.041E-03    -540.699E-03         1.82082    -526.985E-03    -4.05020E-03     599.468E-03    -299.880E-03    -300.524E-03    -300.223E-03     599.446E-03    -300.160E-03    -8.83377E-03    -8.70535E+06    -9.51861E+06    -11.7816E+06    -11.7500E+06    -9.38957E+06    -8.86594E+06    -51.3084E+03         67.9384
             730     2.22147E-03     50.8930E-03         1.81922    -522.990E-03    -542.550E-03    -535.285E-03         1.81196    -522.990E-03     49.4497E-03     599.418E-03    -299.603E-03    -300.587E-03    -299.580E-03     599.395E-03    -300.587E-03    -8.99984E-03    -9.17950E+06    -10.3321E+06    -13.1837E+06    -12.5478E+06    -10.2584E+06    -9.88902E+06     8.98669E+03         67.7695
             731     1.48031E-03     50.9313E-03         1.82810    -517.851E-03    -556.484E-03    -529.470E-03         1.80109    -517.851E-03    -170.304E-03     601.490E-03    -300.383E-03    -301.331E-03    -300.368E-03     601.474E-03    -301.331E-03    -7.31653E-03    -10.0506E+06    -11.2935E+06    -13.6683E+06    -12.5417E+06    -11.0229E+06    -11.4479E+06     72.2978E+03         67.7403
             732     739.975E-06     50.9554E-03         1.86438    -481.712E-03    -626.225E-03    -547.302E-03         1.78546    -481.712E-03     205.521E-03     602.791E-03    -301.071E-03    -301.736E-03    -301.487E-03     602.786E-03    -301.313E-03    -4.13280E-03    -11.4134E+06    -12.1938E+06    -13.6332E+06    -12.6557E+06    -12.2666E+06    -12.3181E+06    -122.984E+03         67.7764
             733     12.6078E-03     49.8137E-03         1.82071    -526.452E-03    -534.700E-03    -527.238E-03         1.82037    -533.581E-03     31.5028E-03     603.760E-03    -299.061E-03    -303.033E-03    -299.357E-03     600.085E-03    -299.061E-03     114.866E-03     9.11896E+06     625.873E+03    -1.07911E+06    -565.086E+03     111.847E+03     9.11896E+06     249.129E+03         90.3016
             734     11.8674E-03     49.5936E-03         1.82530    -527.368E-03    -536.340E-03    -529.204E-03         1.82489    -534.102E-03     18.2594E-03     602.016E-03    -299.299E-03    -302.444E-03    -299.291E-03     598.863E-03    -299.299E-03     104.936E-03     7.55820E+06     229.902E+03    -1.91979E+06    -1.51380E+06    -176.085E+03     7.55820E+06     252.642E+03         86.6211
             735     11.1095E-03     49.4444E-03         1.82958    -529.228E-03    -538.086E-03    -532.650E-03         1.82945    -534.540E-03    -26.1539E-03     599.176E-03    -299.316E-03    -300.549E-03    -298.626E-03     597.302E-03    -299.364E-03     81.9507E-03     7.19474E+06     1.51337E+06    -2.74429E+06    -1.81383E+06     582.905E+03     7.19474E+06     464.765E+03         81.7537
             736     10.3695E-03     49.3150E-03         1.83416    -532.097E-03    -538.788E-03    -535.974E-03         1.83408    -534.829E-03    -15.1689E-03     599.098E-03    -298.863E-03    -299.197E-03    -297.695E-03     597.719E-03    -298.986E-03     69.8460E-03     7.23409E+06     2.60637E+06    -2.21021E+06    -1.56327E+06     1.95943E+06     7.23409E+06     306.526E+03         77.0643
             737     9.62864E-03     49.2132E-03         1.83847    -534.429E-03    -539.782E-03    -539.088E-03         1.83826    -534.915E-03    -12.9917E-03     599.265E-03    -298.615E-03    -298.912E-03    -297.973E-03     598.401E-03    -298.690E-03     55.3360E-03     6.81758E+06     2.38625E+06    -2.41562E+06    -2.16898E+06     2.13961E+06     6.81758E+06    -470.322E+03         73.4348
             738     8.88744E-03     49.1292E-03         1.84330    -534.471E-03    -544.450E-03    -543.863E-03         1.84287    -534.632E-03     25.5453E-03     598.400E-03    -297.559E-03    -298.224E-03    -297.125E-03     597.848E-03    -298.106E-03     44.2091E-03     6.40776E+06     2.34513E+06    -3.69317E+06    -3.47650E+06     2.12847E+06     6.40776E+06    -156.320E+03         71.0230
             739     8.14709E-03     49.0689E-03         1.84577    -532.581E-03    -549.102E-03    -547.569E-03         1.84547    -533.808E-03     25.1410E-03     597.367E-03    -296.518E-03    -298.924E-03    -296.189E-03     597.039E-03    -298.924E-03     33.8333E-03     5.60862E+06     1.16033E+06    -4.89573E+06    -4.80911E+06     1.07372E+06     5.60862E+06     593.321E+03         69.7114
             740     7.40565E-03     49.0246E-03         1.84193    -530.244E-03    -547.795E-03    -545.310E-03         1.84184    -532.637E-03     10.0673E-03     596.689E-03    -297.121E-03    -299.132E-03    -297.032E-03     596.525E-03    -299.057E-03     23.7973E-03     3.72036E+06     585.174E+03    -5.91852E+06    -5.80446E+06     471.110E+03     3.72036E+06     639.950E+03         69.1115
             741     6.66437E-03     48.9932E-03         1.83213    -529.705E-03    -538.186E-03    -535.958E-03         1.83199    -531.790E-03     29.4018E-03     594.458E-03    -297.991E-03    -298.641E-03    -297.994E-03     594.386E-03    -298.566E-03     15.6568E-03     1.47841E+06    -419.037E+03    -6.64695E+06    -6.53173E+06    -534.263E+03     1.47841E+06     490.664E+03         68.8811
             742     5.92412E-03     48.9747E-03         1.81944    -522.664E-03    -532.221E-03    -522.282E-03         1.81900    -532.171E-03    -24.0374E-03     595.815E-03    -297.987E-03    -299.354E-03    -297.965E-03     595.793E-03    -299.354E-03     7.97022E-03     197.580E+03    -2.31843E+06    -7.64115E+06    -7.53112E+06    -2.42845E+06     197.580E+03     562.895E+03         68.7938
             743     5.18181E-03     48.9726E-03         1.81010    -510.649E-03    -534.537E-03    -509.997E-03         1.80945    -534.537E-03    -914.784E-06     598.003E-03    -298.717E-03    -299.782E-03    -298.899E-03     598.000E-03    -299.598E-03     976.108E-06    -1.72976E+06    -4.46838E+06    -8.95069E+06    -8.86801E+06    -4.55105E+06    -1.72976E+06     566.349E+03         68.6861
             744     4.44163E-03     48.9788E-03         1.81635    -513.114E-03    -538.457E-03    -512.203E-03         1.81544    -538.457E-03    -14.5550E-03     599.628E-03    -299.675E-03    -300.318E-03    -299.853E-03     599.622E-03    -300.134E-03    -4.22652E-03    -4.73318E+06    -6.59037E+06    -9.93361E+06    -9.86552E+06    -6.65846E+06    -4.73318E+06     348.795E+03         68.4984
             745     3.70154E-03     49.0067E-03         1.83530    -525.892E-03    -546.096E-03    -527.832E-03         1.83312    -541.977E-03     34.1157E-03     600.671E-03    -299.584E-03    -300.334E-03    -299.869E-03     600.655E-03    -300.032E-03    -7.58382E-03    -6.17002E+06    -7.45025E+06    -10.4833E+06    -10.4622E+06    -7.47139E+06    -6.17002E+06     97.1601E+03         68.2246
             746     2.96082E-03     49.0320E-03         1.85157    -533.109E-03    -554.710E-03    -541.396E-03         1.84858    -543.439E-03     6.43250E-03     599.834E-03    -300.167E-03    -300.530E-03    -300.446E-03     599.812E-03    -300.229E-03    -8.91103E-03    -8.28445E+06    -9.20148E+06    -11.5269E+06    -11.5212E+06    -9.05532E+06    -8.43630E+06     75.2995E+03         67.9454
             747     2.22055E-03     49.0675E-03         1.85848    -537.538E-03    -556.201E-03    -545.906E-03         1.85341    -542.763E-03     52.3287E-03     600.476E-03    -300.456E-03    -300.952E-03    -300.436E-03     600.456E-03    -300.952E-03    -8.49817E-03    -10.2331E+06    -10.9773E+06    -12.3889E+06    -11.9157E+06    -10.5240E+06    -11.1597E+06    -370.054E+03         67.7800
             748     1.48078E-03     49.1023E-03         1.87350    -539.033E-03    -568.910E-03    -547.233E-03         1.85260    -539.809E-03    -153.847E-03     601.612E-03    -300.666E-03    -301.263E-03    -300.653E-03     601.599E-03    -301.263E-03    -6.73660E-03    -10.7836E+06    -12.1395E+06    -13.0563E+06    -12.1427E+06    -11.3604E+06    -12.4763E+06    -321.149E+03         67.7469
             749     740.564E-06     49.1277E-03         1.89758    -527.336E-03    -600.711E-03    -546.739E-03         1.84360    -527.336E-03     129.875E-03     602.520E-03    -300.843E-03    -301.672E-03    -301.173E-03     602.515E-03    -301.336E-03    -3.67497E-03    -11.6942E+06    -12.5922E+06    -13.3794E+06    -12.6534E+06    -12.4003E+06    -12.6122E+06     268.829E+03         67.7773
             750     12.6079E-03     47.9883E-03         1.83153    -523.852E-03    -534.906E-03    -523.516E-03         1.83119    -534.906E-03     25.3110E-03     603.498E-03    -299.114E-03    -302.825E-03    -299.167E-03     599.839E-03    -299.114E-03     114.592E-03     10.7443E+06     321.359E+03    -865.294E+03    -415.556E+03    -128.378E+03     10.7443E+06     167.023E+03         90.2401
             751     11.8666E-03     47.7678E-03         1.82756    -516.984E-03    -536.011E-03    -516.603E-03         1.82718    -536.011E-03     18.6269E-03     601.714E-03    -299.346E-03    -302.540E-03    -299.443E-03     598.616E-03    -299.346E-03     103.876E-03     10.0014E+06     325.849E+03    -1.37607E+06    -1.02695E+06    -23.2740E+03     10.0014E+06     164.070E+03         86.5584
             752     11.1087E-03     47.6222E-03         1.82903    -516.581E-03    -537.521E-03    -516.501E-03         1.82895    -537.521E-03    -16.6326E-03     598.932E-03    -299.315E-03    -300.624E-03    -298.717E-03     597.106E-03    -299.397E-03     80.9028E-03     8.65531E+06     1.40889E+06    -2.01189E+06    -1.17805E+06     575.051E+03     8.65531E+06    -633.232E+03         81.6936
             753     10.3687E-03     47.4897E-03         1.83793    -523.271E-03    -539.012E-03    -523.263E-03         1.83793    -539.012E-03     444.784E-06     599.269E-03    -298.757E-03    -299.316E-03    -297.590E-03     597.892E-03    -299.106E-03     69.8536E-03     6.16159E+06     2.00551E+06    -2.50932E+06    -1.90024E+06     1.39642E+06     6.16159E+06    -255.729E+03         77.0129
             754     9.62815E-03     47.3884E-03         1.85364    -533.911E-03    -543.019E-03    -536.944E-03         1.85357    -539.917E-03     6.22364E-03     599.506E-03    -298.528E-03    -299.087E-03    -297.932E-03     598.617E-03    -298.795E-03     56.1440E-03     4.81300E+06     2.39684E+06    -3.28624E+06    -2.99343E+06     2.10403E+06     4.81300E+06     1.02051E+06         73.3964
             755     8.88738E-03     47.3040E-03         1.86961    -539.668E-03    -553.371E-03    -553.046E-03         1.86929    -539.668E-03     36.9770E-03     598.658E-03    -297.761E-03    -298.324E-03    -297.373E-03     598.082E-03    -298.135E-03     45.1494E-03     4.60833E+06     1.94557E+06    -4.38644E+06    -4.15431E+06     1.71344E+06     4.60833E+06     861.185E+03         71.0054
             756     8.14585E-03     47.2407E-03         1.87725    -538.168E-03    -562.427E-03    -562.133E-03         1.87695    -538.168E-03     25.6735E-03     597.918E-03    -296.915E-03    -298.911E-03    -296.575E-03     597.578E-03    -298.911E-03     34.4162E-03     3.77305E+06     1.37621E+06    -5.22909E+06    -5.04885E+06     1.19597E+06     3.77305E+06     361.612E+03         69.7160
             757     7.40572E-03     47.1963E-03         1.87161    -536.025E-03    -559.520E-03    -559.412E-03         1.87150    -536.025E-03    -2.85101E-03     596.933E-03    -297.304E-03    -299.060E-03    -297.194E-03     596.766E-03    -299.003E-03     23.9403E-03     2.73824E+06     1.33321E+06    -5.76204E+06    -5.56887E+06     1.14004E+06     2.73824E+06     319.636E+03         69.1213
             758     6.66455E-03     47.1630E-03         1.85497    -533.634E-03    -545.370E-03    -544.442E-03         1.85480    -534.393E-03     12.9578E-03     594.118E-03    -297.543E-03    -298.601E-03    -297.529E-03     594.048E-03    -298.545E-03     15.3906E-03     2.30690E+06    -699.936E+03    -6.52529E+06    -6.40057E+06    -824.657E+03     2.30690E+06     500.421E+03         68.8830
             759     5.92293E-03     47.1435E-03         1.84128    -528.332E-03    -536.874E-03    -530.557E-03         1.84075    -534.116E-03    -31.6407E-03     595.546E-03    -297.511E-03    -299.386E-03    -297.489E-03     595.525E-03    -299.386E-03     7.84925E-03     1.32095E+06    -2.42731E+06    -7.53656E+06    -7.38619E+06    -2.57769E+06     1.32095E+06     659.594E+03         68.7926
             760     5.18157E-03     47.1424E-03         1.83310    -519.604E-03    -537.627E-03    -521.212E-03         1.83245    -535.368E-03    -14.4289E-03     598.890E-03    -299.064E-03    -300.285E-03    -299.331E-03     598.887E-03    -300.015E-03     1.22788E-03    -1.84010E+06    -4.13680E+06    -8.02530E+06    -7.91364E+06    -4.24845E+06    -1.84010E+06     549.654E+03         68.6878
             761     4.44184E-03     47.1480E-03         1.82825    -513.133E-03    -539.151E-03    -513.199E-03         1.82767    -538.510E-03    -9.74934E-03     600.524E-03    -300.124E-03    -300.807E-03    -300.388E-03     600.519E-03    -300.537E-03    -3.70503E-03    -5.19776E+06    -6.28898E+06    -8.89767E+06    -8.72734E+06    -6.34088E+06    -5.31619E+06     422.748E+03         68.5000
             762     3.70108E-03     47.1736E-03         1.83393    -514.755E-03    -543.749E-03    -513.073E-03         1.83225    -543.749E-03     39.2063E-03     600.578E-03    -299.667E-03    -300.395E-03    -299.967E-03     600.564E-03    -300.080E-03    -7.06817E-03    -6.25744E+06    -7.32069E+06    -9.92481E+06    -9.77581E+06    -7.16560E+06    -6.56154E+06     341.054E+03         68.2239
             763     2.96069E-03     47.1990E-03         1.85073    -524.962E-03    -550.326E-03    -522.841E-03         1.84861    -550.326E-03     17.0112E-03     599.917E-03    -300.283E-03    -300.712E-03    -300.663E-03     599.895E-03    -300.311E-03    -8.85279E-03    -7.75346E+06    -8.90311E+06    -10.8154E+06    -10.5621E+06    -8.56235E+06    -8.34755E+06     400.067E+03         67.9493
             764     2.22076E-03     47.2328E-03         1.87204    -538.420E-03    -557.459E-03    -535.478E-03         1.86910    -557.459E-03     35.0652E-03     600.768E-03    -300.626E-03    -301.113E-03    -300.691E-03     600.747E-03    -301.027E-03    -8.71655E-03    -9.85726E+06    -10.4060E+06    -12.0656E+06    -11.5182E+06    -10.2408E+06    -10.5699E+06     614.627E+03         67.7912
             765     1.48041E-03     47.2683E-03         1.90658    -553.505E-03    -575.088E-03    -552.958E-03         1.89470    -563.756E-03    -121.124E-03     601.742E-03    -300.728E-03    -301.312E-03    -300.715E-03     601.729E-03    -301.312E-03    -6.73405E-03    -10.6377E+06    -11.0909E+06    -12.7417E+06    -12.1706E+06    -11.0449E+06    -11.2549E+06     433.265E+03         67.7585
             766     740.154E-06     47.2963E-03         1.93728    -562.644E-03    -594.151E-03    -555.198E-03         1.91214    -576.457E-03     49.8535E-03     602.623E-03    -300.842E-03    -301.768E-03    -300.837E-03     602.619E-03    -301.768E-03    -3.38717E-03    -11.8738E+06    -12.3217E+06    -13.4009E+06    -12.8006E+06    -12.6090E+06    -12.1867E+06     201.530E+03         67.7864
             767     12.6063E-03     46.1623E-03         1.86075    -531.435E-03    -542.815E-03    -536.054E-03         1.86039    -537.840E-03     26.3020E-03     603.594E-03    -299.070E-03    -303.111E-03    -299.494E-03     599.977E-03    -299.070E-03     113.944E-03     9.37061E+06     1.13441E+06    -1.22754E+06    -388.848E+03     295.719E+03     9.37061E+06     125.890E+03         90.1583
             768     11.8671E-03     45.9384E-03         1.85835    -526.209E-03    -546.140E-03    -533.443E-03         1.85795    -538.502E-03     19.1812E-03     601.131E-03    -299.264E-03    -302.247E-03    -299.153E-03     598.036E-03    -299.264E-03     103.871E-03     7.80509E+06     1.05350E+06    -1.71411E+06    -1.19236E+06     531.749E+03     7.80509E+06    -456.480E+03         86.4731
             769     11.1087E-03     45.7935E-03         1.86017    -523.359E-03    -550.780E-03    -535.059E-03         1.86008    -538.987E-03    -25.5079E-03     598.304E-03    -299.175E-03    -300.140E-03    -298.103E-03     596.447E-03    -299.355E-03     81.5283E-03     5.99005E+06     646.750E+03    -3.18579E+06    -2.17215E+06    -366.886E+03     5.99005E+06    -504.964E+03         81.6099
             770     10.3675E-03     45.6611E-03         1.86473    -526.029E-03    -551.856E-03    -538.745E-03         1.86463    -539.037E-03    -23.3558E-03     599.320E-03    -298.676E-03    -299.244E-03    -297.280E-03     597.924E-03    -299.244E-03     70.2706E-03     5.87215E+06     680.066E+03    -3.76484E+06    -3.16194E+06     77.1662E+03     5.87215E+06     143.637E+03         76.9465
             771     9.62644E-03     45.5610E-03         1.86655    -532.808E-03    -545.837E-03    -539.764E-03         1.86640    -538.732E-03    -32.5045E-03     599.661E-03    -298.559E-03    -299.152E-03    -297.876E-03     598.775E-03    -298.948E-03     56.0999E-03      5.6877E+06     1.81309E+06    -3.93710E+06    -3.64006E+06     1.51605E+06      5.6877E+06     836.960E+03         73.3535
             772     8.88521E-03     45.4751E-03         1.86261    -530.885E-03    -543.623E-03    -535.946E-03         1.86254    -538.492E-03    -6.97222E-03     598.886E-03    -297.951E-03    -298.389E-03    -297.578E-03     598.309E-03    -298.185E-03     45.2525E-03     4.56431E+06     2.94122E+06    -3.79233E+06    -3.56081E+06     2.70970E+06     4.56431E+06     730.028E+03         70.9846
             773     8.14601E-03     45.4118E-03         1.85881    -522.797E-03    -547.688E-03    -531.706E-03         1.85876    -538.723E-03    -6.49832E-03     598.382E-03    -297.180E-03    -298.959E-03    -296.831E-03     598.033E-03    -298.959E-03     34.8973E-03     3.64062E+06     2.46585E+06    -4.27065E+06    -4.02295E+06     2.21814E+06     3.64062E+06     405.676E+03         69.7157
             774     7.40596E-03     45.3669E-03         1.86218    -526.597E-03    -547.546E-03    -534.854E-03         1.86210    -539.209E-03    -26.0750E-03     597.283E-03    -297.499E-03    -299.203E-03    -297.481E-03     597.106E-03    -299.043E-03     24.7619E-03     2.57822E+06     1.31750E+06    -5.60993E+06    -5.35371E+06     1.06128E+06     2.57822E+06     523.539E+03         69.1298
             775     6.66466E-03     45.3371E-03         1.86975    -535.386E-03    -546.502E-03    -542.570E-03         1.86971    -539.276E-03    -11.4169E-03     594.148E-03    -297.799E-03    -298.742E-03    -297.881E-03     594.070E-03    -298.583E-03     16.0995E-03     1.45051E+06    -517.892E+03    -6.45397E+06    -6.35978E+06    -612.083E+03     1.45051E+06     533.304E+03         68.8899
             776     5.92422E-03     45.3172E-03         1.87426    -538.530E-03    -548.599E-03    -548.167E-03         1.87382    -538.530E-03    -43.6511E-03     595.407E-03    -297.499E-03    -299.469E-03    -297.476E-03     595.384E-03    -299.469E-03     8.23290E-03     319.419E+03    -2.30018E+06    -7.21332E+06    -7.05794E+06    -2.45556E+06     319.419E+03     248.376E+03         68.7977
             777     5.18072E-03     45.3109E-03         1.87395    -537.092E-03    -549.497E-03    -548.998E-03         1.87345    -537.092E-03    -25.3096E-03     597.924E-03    -298.561E-03    -299.856E-03    -298.667E-03     597.920E-03    -299.747E-03     1.30393E-03    -2.33702E+06    -4.05959E+06    -8.20474E+06    -7.99113E+06    -4.27321E+06    -2.33702E+06     390.892E+03         68.6904
             778     4.44031E-03     45.3182E-03         1.86924    -528.919E-03    -552.674E-03    -545.881E-03         1.86891    -535.387E-03    -15.9750E-03     599.975E-03    -299.908E-03    -300.382E-03    -300.012E-03     599.969E-03    -300.272E-03    -3.87149E-03    -5.32547E+06    -6.12724E+06    -8.80823E+06    -8.52710E+06    -5.99194E+06    -5.74190E+06     803.425E+03         68.5008
             779     3.70042E-03     45.3428E-03         1.86035    -519.299E-03    -553.999E-03    -538.035E-03         1.85933    -534.241E-03     23.8538E-03     601.718E-03    -300.192E-03    -301.196E-03    -300.815E-03     601.701E-03    -300.556E-03    -7.48559E-03    -6.94200E+06    -7.90763E+06    -9.70892E+06    -9.13444E+06    -7.51648E+06    -7.90763E+06     1.01983E+06         68.2275
             780     2.96021E-03     45.3703E-03         1.85529    -519.424E-03    -548.408E-03    -532.130E-03         1.85404    -534.458E-03     12.9217E-03     600.767E-03    -300.571E-03    -301.493E-03    -301.274E-03     600.745E-03    -300.768E-03    -9.06325E-03    -7.56290E+06    -8.54349E+06    -10.3723E+06    -9.66279E+06    -8.40438E+06    -8.41155E+06     1.07872E+06         67.9563
             781     2.22038E-03     45.4025E-03         1.85555    -522.340E-03    -546.203E-03    -531.374E-03         1.85453    -536.154E-03     2.84139E-03     600.754E-03    -300.429E-03    -301.221E-03    -300.494E-03     600.733E-03    -301.135E-03    -8.71114E-03    -8.27350E+06    -8.99442E+06    -10.7092E+06    -10.0358E+06    -9.09730E+06    -8.84399E+06     942.360E+03         67.8004
             782     1.48044E-03     45.4417E-03         1.86752    -529.178E-03    -550.775E-03    -535.518E-03         1.86174    -538.652E-03    -109.369E-03     601.916E-03    -300.736E-03    -301.474E-03    -300.723E-03     601.903E-03    -301.474E-03    -6.62708E-03    -9.44009E+06    -10.1474E+06    -11.7035E+06    -10.7386E+06    -10.2785E+06    -10.2740E+06     548.120E+03         67.7722
             783     740.006E-06     45.4645E-03         1.88122    -521.871E-03    -569.615E-03    -520.046E-03         1.87191    -562.135E-03    -46.6593E-03     603.014E-03    -301.080E-03    -301.708E-03    -301.089E-03     603.010E-03    -301.695E-03    -3.74175E-03    -9.51606E+06    -10.2273E+06    -11.4258E+06    -10.0988E+06    -10.7286E+06    -10.3416E+06     117.403E+03         67.8035
             784     12.6086E-03     44.3357E-03         1.89630    -542.595E-03    -559.168E-03    -558.734E-03         1.89586    -542.595E-03     22.8585E-03     603.297E-03    -299.047E-03    -302.842E-03    -299.173E-03     599.628E-03    -299.047E-03     114.709E-03     7.01332E+06     1.40768E+06    -1.81093E+06    -299.796E+03    -103.458E+03     7.01332E+06     524.766E+03         90.0626
             785     11.8665E-03     44.1156E-03         1.90599    -541.731E-03    -569.101E-03    -568.651E-03         1.90553    -541.731E-03     20.1051E-03     600.799E-03    -299.239E-03    -301.572E-03    -298.422E-03     597.649E-03    -299.239E-03     104.770E-03     4.78240E+06     1.13766E+06    -2.40700E+06    -1.19046E+06    -78.8815E+03     4.78240E+06    -93.4167E+03         86.3741
             786     11.1069E-03     43.9665E-03         1.90878    -540.015E-03    -573.129E-03    -573.022E-03         1.90868    -540.015E-03    -24.6715E-03     598.329E-03    -299.215E-03    -299.815E-03    -297.825E-03     596.461E-03    -299.337E-03     81.7290E-03     5.59708E+06     819.247E+03    -3.36401E+06    -1.95475E+06    -590.009E+03     5.59708E+06     469.284E+03         81.5141
             787     10.3668E-03     43.8322E-03         1.89858    -538.105E-03    -564.231E-03    -564.120E-03         1.89847    -538.105E-03    -12.7405E-03     599.217E-03    -298.806E-03    -299.226E-03    -297.424E-03     597.835E-03    -299.226E-03     69.9538E-03     6.60264E+06     1.40405E+06    -3.44460E+06    -2.47952E+06     438.972E+03     6.60264E+06     458.171E+03         76.8696
             788     9.62655E-03     43.7265E-03         1.87824    -535.090E-03    -546.226E-03    -544.096E-03         1.87806    -537.048E-03    -13.4509E-03     599.427E-03    -298.669E-03    -299.092E-03    -297.909E-03     598.541E-03    -298.967E-03     56.0706E-03     6.11148E+06     1.63322E+06    -3.07795E+06    -2.90738E+06     1.46264E+06     6.11148E+06    -534.364E+03         73.3028
             789     8.88566E-03     43.6456E-03         1.85854    -524.323E-03    -537.512E-03    -524.056E-03         1.85827    -537.512E-03     21.2303E-03     598.687E-03    -297.803E-03    -298.395E-03    -297.343E-03     598.101E-03    -298.270E-03     45.6031E-03     5.14709E+06     2.40384E+06    -3.70976E+06    -3.53411E+06     2.22819E+06     5.14709E+06     189.350E+03         70.9574
             790     8.14477E-03     43.5791E-03         1.85149    -514.862E-03    -539.359E-03    -514.596E-03         1.85122    -539.359E-03     29.9300E-03     597.883E-03    -296.943E-03    -299.082E-03    -296.580E-03     597.520E-03    -299.082E-03     35.6211E-03     4.19623E+06     2.64863E+06    -4.36907E+06    -4.13731E+06     2.41686E+06     4.19623E+06     724.052E+03         69.7083
             791     7.40412E-03     43.5382E-03         1.85754    -518.083E-03    -541.786E-03    -517.983E-03         1.85744    -541.786E-03     10.3041E-03     597.191E-03    -297.519E-03    -299.497E-03    -297.636E-03     597.002E-03    -299.192E-03     25.5794E-03     2.67793E+06     1.56887E+06    -5.04508E+06    -4.71567E+06     1.39210E+06     2.52528E+06     938.378E+03         69.1380
             792     6.66326E-03     43.5050E-03         1.87252    -528.150E-03    -546.382E-03    -530.584E-03         1.87236    -543.787E-03     25.6861E-03     594.709E-03    -298.390E-03    -299.028E-03    -298.610E-03     594.624E-03    -298.723E-03     16.9778E-03     537.553E+03    -4.59101E+03    -5.87119E+06    -5.63687E+06    -67.4805E+03     366.114E+03     953.831E+03         68.9077
             793     5.92266E-03     43.4880E-03         1.89063    -539.121E-03    -553.956E-03    -548.431E-03         1.89031    -544.320E-03    -10.3469E-03     595.985E-03    -298.165E-03    -299.596E-03    -298.138E-03     595.958E-03    -299.596E-03     8.99338E-03    -1.36377E+06    -1.55372E+06    -7.25750E+06    -6.76247E+06    -2.02995E+06    -1.38257E+06     900.794E+03         68.8192
             794     5.18071E-03     43.4813E-03         1.90240    -542.757E-03    -561.721E-03    -561.310E-03         1.90199    -542.757E-03    -296.005E-06     598.279E-03    -298.766E-03    -299.959E-03    -298.857E-03     598.275E-03    -299.864E-03     1.66019E-03    -3.20994E+06    -3.72241E+06    -8.47860E+06    -7.93769E+06    -4.26332E+06    -3.20994E+06     904.761E+03         68.7109
             795     4.44064E-03     43.4902E-03         1.90729    -538.771E-03    -570.573E-03    -570.186E-03         1.90691    -538.771E-03     8.39321E-03     600.176E-03    -299.987E-03    -300.446E-03    -300.077E-03     600.170E-03    -300.350E-03    -3.84200E-03    -4.86570E+06    -5.95848E+06    -8.82570E+06    -8.52607E+06    -5.96013E+06    -5.16369E+06      876.49E+03         68.5196
             796     3.70052E-03     43.5153E-03         1.90288    -531.986E-03    -573.571E-03    -572.658E-03         1.90197    -531.986E-03     36.8836E-03     601.935E-03    -300.291E-03    -301.172E-03    -300.793E-03     601.919E-03    -300.654E-03    -7.28871E-03    -5.94937E+06    -7.17941E+06    -9.57448E+06    -8.99111E+06    -7.10125E+06    -6.61089E+06     894.710E+03         68.2461
             797     2.96087E-03     43.5415E-03         1.88333    -523.035E-03    -562.208E-03    -561.339E-03         1.88246    -523.035E-03     36.3861E-03     600.144E-03    -300.255E-03    -301.052E-03    -300.751E-03     600.122E-03    -300.535E-03    -8.78991E-03    -6.49801E+06    -7.48199E+06    -9.67272E+06    -9.20602E+06    -7.58516E+06    -6.86155E+06     627.260E+03         67.9724
             798     2.22017E-03     43.5708E-03         1.85303    -513.544E-03    -541.988E-03    -541.678E-03         1.85272    -513.544E-03     7.14083E-03     600.181E-03    -300.194E-03    -300.885E-03    -300.173E-03     600.159E-03    -300.885E-03    -8.69342E-03    -7.06930E+06    -7.80412E+06    -9.20762E+06     -8.8512E+06    -7.87352E+06    -7.35631E+06     238.810E+03         67.8159
             799     1.47949E-03     43.6048E-03         1.82742    -503.594E-03    -527.382E-03    -524.896E-03         1.82494    -503.594E-03    -68.9205E-03     602.245E-03    -301.026E-03    -301.542E-03    -301.012E-03     602.230E-03    -301.542E-03    -7.02584E-03    -8.61914E+06    -9.31020E+06    -10.3788E+06    -9.54550E+06    -9.32025E+06    -9.44240E+06     38.1973E+03         67.7924
             800     740.225E-06     43.6340E-03         1.79651    -462.245E-03    -537.163E-03    -472.392E-03         1.79385    -524.353E-03    -114.442E-03     603.038E-03    -301.269E-03    -301.561E-03    -301.451E-03     603.033E-03    -301.373E-03    -4.11648E-03    -9.33491E+06    -10.0286E+06    -11.0726E+06    -9.74990E+06    -10.5254E+06    -10.1608E+06    -44.2371E+03         67.8260
             801     12.6064E-03     42.5097E-03         1.91463    -546.080E-03    -565.604E-03    -565.200E-03         1.91423    -546.080E-03     25.5244E-03     603.038E-03    -299.078E-03    -302.590E-03    -298.909E-03     599.358E-03    -299.078E-03     114.881E-03     8.20137E+06     863.335E+03    -1.97728E+06    -329.053E+03    -784.889E+03     8.20137E+06     153.985E+03         89.9629
             802     11.8650E-03     42.2888E-03         1.91829    -544.682E-03    -568.982E-03    -568.181E-03         1.91788    -545.074E-03     23.0343E-03     600.734E-03    -299.262E-03    -301.443E-03    -298.323E-03     597.614E-03    -299.262E-03     104.120E-03     8.05442E+06     1.69687E+06    -2.35280E+06    -560.953E+03    -94.9753E+03     8.05442E+06     890.897E+03         86.2765
             803     11.1077E-03     42.1396E-03         1.91017    -539.602E-03    -565.507E-03    -560.851E-03         1.91010    -544.187E-03    -14.4552E-03     598.266E-03    -299.029E-03    -299.789E-03    -297.636E-03     596.431E-03    -299.347E-03     81.0190E-03     6.90053E+06     2.41923E+06    -3.05740E+06    -1.02502E+06     386.847E+03     6.90053E+06     809.751E+03         81.4235
             804     10.3669E-03     42.0049E-03         1.89890    -536.331E-03    -557.295E-03    -549.569E-03         1.89883    -543.988E-03    -2.98972E-03     598.670E-03    -298.278E-03    -299.175E-03    -296.895E-03     597.287E-03    -299.175E-03     69.9520E-03     5.13077E+06     2.34016E+06    -3.15259E+06    -1.62553E+06     813.102E+03     5.13077E+06     133.542E+03         76.7952
             805     9.62500E-03     41.9011E-03         1.89258    -539.434E-03    -548.347E-03    -543.238E-03         1.89249    -544.452E-03    -2.11349E-03     598.825E-03    -298.153E-03    -298.992E-03    -297.272E-03     597.923E-03    -298.972E-03     56.5428E-03     5.19355E+06     1.44007E+06    -2.96550E+06    -2.30513E+06     779.699E+03     5.19355E+06    -108.573E+03         73.2515
             806     8.88338E-03     41.8154E-03         1.89568    -539.389E-03    -551.734E-03    -545.905E-03         1.89544    -544.972E-03     34.7190E-03     598.304E-03    -297.415E-03    -298.421E-03    -296.831E-03     597.700E-03    -298.401E-03     46.2830E-03     4.99656E+06     1.99021E+06    -3.48038E+06    -3.26315E+06     1.77298E+06     4.99656E+06     84.4396E+03         70.9315
             807     8.14322E-03     41.7544E-03         1.89928    -536.517E-03    -557.653E-03    -548.806E-03         1.89900    -545.088E-03     40.3235E-03     597.670E-03    -296.677E-03    -299.248E-03    -296.300E-03     597.294E-03    -299.248E-03     36.2941E-03     3.50365E+06     1.89426E+06    -4.26505E+06    -3.99575E+06     1.62496E+06     3.50365E+06     473.320E+03         69.7059
             808     7.40211E-03     41.7072E-03         1.89754    -533.894E-03    -557.675E-03    -546.482E-03         1.89743    -544.985E-03     10.7353E-03     597.322E-03    -297.565E-03    -299.664E-03    -297.643E-03     597.124E-03    -299.389E-03     26.1583E-03     2.35992E+06     1.07984E+06    -4.69488E+06    -4.36626E+06     903.861E+03     2.20727E+06     835.768E+03         69.1559
             809     6.66148E-03     41.6771E-03         1.89362    -533.346E-03    -554.059E-03    -542.132E-03         1.89344    -545.093E-03     15.9939E-03     595.265E-03    -298.587E-03    -299.219E-03    -298.773E-03     595.175E-03    -298.944E-03     17.4567E-03     1.40320E+06     211.383E+03    -5.35082E+06    -4.92489E+06    -43.1061E+03     1.23176E+06     1.20644E+06         68.9405
             810     5.92144E-03     41.6566E-03         1.89363    -537.269E-03    -550.665E-03    -541.935E-03         1.89308    -545.450E-03    -27.3527E-03     596.693E-03    -298.637E-03    -299.804E-03    -298.606E-03     596.663E-03    -299.804E-03     9.66741E-03     1.11445E+06    -1.20897E+06    -6.25538E+06    -5.59469E+06    -1.85087E+06     1.09566E+06     1.49644E+06         68.8581
             811     5.17987E-03     41.6532E-03         1.89865    -538.279E-03    -554.409E-03    -546.494E-03         1.89804    -545.590E-03    -20.8281E-03     599.817E-03    -299.663E-03    -300.695E-03    -299.879E-03     599.812E-03    -300.474E-03     2.80691E-03    -695.311E+03    -2.88354E+06    -6.92511E+06    -6.29230E+06    -3.51636E+06    -695.311E+03     1.34786E+06         68.7523
             812     4.43977E-03     41.6602E-03         1.90182    -535.808E-03    -560.200E-03    -550.532E-03         1.90139    -545.045E-03    -4.00870E-03     601.390E-03    -300.535E-03    -301.161E-03    -300.752E-03     601.386E-03    -300.940E-03    -2.68423E-03    -3.36572E+06    -4.76380E+06    -7.83756E+06    -7.46309E+06    -5.13827E+06    -3.36572E+06     882.489E+03         68.5619
             813     3.69951E-03     41.6826E-03         1.90437    -532.964E-03    -565.261E-03    -553.795E-03         1.90337    -543.435E-03     33.3015E-03     602.079E-03    -300.398E-03    -301.066E-03    -300.648E-03     602.067E-03    -300.803E-03    -6.63188E-03    -4.62436E+06    -5.49404E+06    -8.16121E+06    -7.93761E+06    -5.69007E+06    -4.65192E+06     483.311E+03         68.2850
             814     2.95926E-03     41.7107E-03         1.90377    -531.042E-03    -565.410E-03    -555.375E-03         1.90288    -540.187E-03     35.3828E-03     600.542E-03    -300.636E-03    -301.013E-03    -300.910E-03     600.523E-03    -300.719E-03    -8.42151E-03    -5.73325E+06    -6.32780E+06    -8.34056E+06    -8.26125E+06    -6.30106E+06    -5.83929E+06     163.471E+03         68.0085
             815     2.21998E-03     41.7377E-03         1.89115    -530.543E-03    -553.852E-03    -548.698E-03         1.89091    -535.458E-03    -2.48691E-03     600.693E-03    -300.653E-03    -301.098E-03    -300.665E-03     600.674E-03    -301.068E-03    -8.14938E-03    -7.13395E+06    -7.64794E+06    -9.21083E+06    -9.07222E+06    -7.58843E+06    -7.33208E+06     82.5311E+03         67.8525
             816     1.48084E-03     41.7768E-03         1.87533    -525.822E-03    -542.666E-03    -536.158E-03         1.87400    -531.001E-03    -55.0160E-03     602.541E-03    -301.195E-03    -301.678E-03    -301.183E-03     602.529E-03    -301.678E-03    -6.43645E-03    -8.37581E+06    -8.81075E+06    -9.99154E+06    -9.64240E+06    -8.73776E+06    -8.79794E+06     62.3690E+03         67.8287
             817     740.384E-06     41.8056E-03         1.86429    -478.339E-03    -580.108E-03    -480.746E-03         1.86137    -574.778E-03    -160.235E-03     603.272E-03    -301.227E-03    -301.886E-03    -301.397E-03     603.267E-03    -301.712E-03    -3.44774E-03    -9.34892E+06    -9.84942E+06    -11.0548E+06    -10.1398E+06    -10.2768E+06    -9.83661E+06     294.013E+03         67.8616
             818     12.6077E-03     40.6842E-03         1.91180    -541.604E-03    -557.286E-03    -549.928E-03         1.91141    -548.573E-03     29.6493E-03     603.228E-03    -299.064E-03    -303.081E-03    -299.444E-03     599.591E-03    -299.064E-03     114.155E-03     8.00875E+06     486.540E+03    -2.39483E+06    -824.623E+03    -1.08367E+06     8.00875E+06    -400.756E+03         89.8669
             819     11.8667E-03     40.4624E-03         1.90125    -534.645E-03    -553.461E-03    -538.379E-03         1.90081    -549.285E-03     22.0763E-03     600.369E-03    -299.276E-03    -301.558E-03    -298.404E-03     597.216E-03    -299.276E-03     104.760E-03     7.70416E+06     1.31569E+06    -2.29174E+06    -736.495E+03    -239.553E+03     7.70416E+06     430.453E+03         86.1841
             820     11.1076E-03     40.3151E-03         1.89929    -535.645E-03    -550.626E-03    -535.555E-03         1.89920    -550.626E-03    -20.2104E-03     597.828E-03    -298.722E-03    -299.693E-03    -297.130E-03     595.924E-03    -299.382E-03     82.4833E-03     6.09614E+06     2.13565E+06    -2.88661E+06    -892.569E+03     141.618E+03     6.09614E+06     148.861E+03         81.3376
             821     10.3660E-03     40.1820E-03         1.90960    -541.066E-03    -555.333E-03    -544.464E-03         1.90950    -551.839E-03    -21.9811E-03     598.340E-03    -297.573E-03    -299.271E-03    -296.123E-03     596.890E-03    -299.271E-03     71.5698E-03     5.36412E+06     2.59130E+06    -2.69976E+06    -1.24911E+06     1.14064E+06     5.36412E+06     359.486E+03         76.7239
             822     9.62419E-03     40.0743E-03         1.92608    -548.599E-03    -564.445E-03    -560.881E-03         1.92598    -552.062E-03    -26.9686E-03     598.549E-03    -297.581E-03    -299.073E-03    -296.647E-03     597.615E-03    -299.073E-03     57.5176E-03     4.61302E+06     2.11099E+06    -2.49898E+06    -1.90310E+06     1.51511E+06     4.61302E+06     833.219E+03         73.2028
             823     8.88220E-03     39.9890E-03         1.93751    -550.931E-03    -573.290E-03    -573.251E-03         1.93748    -550.931E-03     4.00873E-03     598.062E-03    -297.083E-03    -298.499E-03    -296.470E-03     597.448E-03    -298.499E-03     46.6050E-03     3.83532E+06     1.84915E+06    -2.55079E+06    -2.44229E+06     1.74065E+06     3.83532E+06     193.545E+03         70.9113
             824     8.14085E-03     39.9243E-03         1.94080    -548.687E-03    -578.493E-03    -578.460E-03         1.94077    -548.687E-03     8.07155E-03     597.773E-03    -296.309E-03    -299.439E-03    -295.924E-03     597.388E-03    -299.439E-03     36.7311E-03     3.89562E+06     1.10397E+06    -3.24902E+06    -3.00253E+06     857.476E+03     3.89562E+06     431.997E+03         69.7130
             825     7.40036E-03     39.8780E-03         1.93794    -545.712E-03    -578.072E-03    -578.023E-03         1.93789    -545.712E-03    -17.1295E-03     597.680E-03    -297.289E-03    -299.753E-03    -297.152E-03     597.470E-03    -299.679E-03     27.0817E-03     3.77736E+06     78.8620E+03    -4.18246E+06    -3.88425E+06    -219.351E+03     3.77736E+06     744.200E+03         69.1832
             826     6.65934E-03     39.8482E-03         1.92448    -542.677E-03    -567.835E-03    -567.782E-03         1.92443    -542.677E-03    -15.5806E-03     595.758E-03    -298.300E-03    -299.391E-03    -298.273E-03     595.657E-03    -299.317E-03     18.6170E-03     3.61099E+06    -448.976E+03    -5.15717E+06    -4.76196E+06    -844.184E+03     3.61099E+06     965.850E+03         68.9816
             827     5.91884E-03     39.8293E-03         1.90231    -537.828E-03    -551.435E-03    -547.953E-03         1.90181    -540.811E-03    -48.2712E-03     597.293E-03    -298.577E-03    -300.163E-03    -298.541E-03     597.256E-03    -300.163E-03     10.6859E-03     3.35376E+06    -771.428E+03    -5.70821E+06    -5.36669E+06    -1.11295E+06     3.35376E+06     1.06926E+06         68.9052
             828     5.17717E-03     39.8281E-03         1.88276    -527.060E-03    -542.800E-03    -527.986E-03         1.88219    -541.309E-03    -35.1791E-03     600.756E-03    -300.016E-03    -301.213E-03    -300.416E-03     600.750E-03    -300.807E-03     3.58122E-03     409.143E+03    -1.96872E+06    -6.31057E+06    -5.98432E+06    -2.29496E+06     409.143E+03     1.01389E+06         68.8026
             829     4.43842E-03     39.8344E-03         1.87454    -517.349E-03    -544.574E-03    -516.985E-03         1.87417    -544.574E-03    -22.2442E-03     602.395E-03    -300.861E-03    -301.732E-03    -301.265E-03     602.392E-03    -301.326E-03    -1.87100E-03    -2.98046E+06    -3.91655E+06    -6.66940E+06    -6.34407E+06    -4.07911E+06    -3.14323E+06     777.429E+03         68.6160
             830     3.69890E-03     39.8575E-03         1.87859    -514.389E-03    -550.605E-03    -513.408E-03         1.87761    -550.605E-03     20.5963E-03     602.811E-03    -300.693E-03    -301.488E-03    -301.013E-03     602.801E-03    -301.158E-03    -5.77699E-03    -4.59919E+06    -5.28486E+06    -7.25554E+06    -7.03007E+06    -5.09827E+06    -5.01125E+06     628.568E+03         68.3423
             831     2.95924E-03     39.8794E-03         1.89454    -520.379E-03    -559.232E-03    -519.506E-03         1.89367    -559.232E-03     26.0493E-03     602.027E-03    -301.212E-03    -301.744E-03    -301.555E-03     602.009E-03    -301.383E-03    -7.81545E-03    -6.02535E+06    -6.39108E+06    -8.04653E+06    -7.91057E+06    -6.16131E+06    -6.39108E+06     446.364E+03         68.0698
             832     2.21920E-03     39.9132E-03         1.92240    -538.508E-03    -569.083E-03    -538.271E-03         1.92216    -569.083E-03    -14.2351E-03     602.109E-03    -301.170E-03    -301.795E-03    -301.183E-03     602.091E-03    -301.765E-03    -7.86291E-03    -7.08289E+06    -7.65820E+06    -8.61736E+06    -8.38923E+06    -7.24967E+06    -7.71954E+06     362.370E+03         67.9143
             833     1.47844E-03     39.9494E-03         1.95337    -559.606E-03    -578.808E-03    -558.459E-03         1.95222    -578.808E-03    -57.2504E-03     603.181E-03    -301.405E-03    -302.058E-03    -301.393E-03     603.169E-03    -302.058E-03    -6.32032E-03    -7.19413E+06    -8.37750E+06    -8.89449E+06    -8.28586E+06    -7.74142E+06    -8.43884E+06     409.781E+03         67.8865
             834     739.229E-06     39.9780E-03         1.98339    -519.713E-03    -648.810E-03    -517.199E-03         1.98088    -648.810E-03    -140.608E-03     604.178E-03    -301.536E-03    -302.217E-03    -301.651E-03     604.173E-03    -302.097E-03    -3.80650E-03    -7.54865E+06    -8.43367E+06    -9.53930E+06    -8.51210E+06    -8.57585E+06    -8.43367E+06     241.870E+03         67.9184
             835     12.6072E-03     38.8556E-03         1.92125    -546.278E-03    -556.724E-03    -549.444E-03         1.92094    -553.247E-03     20.6860E-03     602.851E-03    -299.093E-03    -302.749E-03    -299.051E-03     599.152E-03    -299.093E-03     114.973E-03     5.86655E+06     895.568E+03    -2.50114E+06    -707.942E+03    -897.631E+03     5.86655E+06     44.8880E+03         89.7773
             836     11.8651E-03     38.6368E-03         1.91754    -540.102E-03    -557.837E-03    -543.238E-03         1.91719    -554.350E-03     16.0226E-03     600.097E-03    -299.362E-03    -301.371E-03    -298.079E-03     596.805E-03    -299.362E-03     107.159E-03     4.25191E+06     935.420E+03    -2.51816E+06    -1.08119E+06    -501.550E+03     4.25191E+06    -583.311E+03         86.0941
             837     11.1054E-03     38.4898E-03         1.92539    -544.885E-03    -560.221E-03    -549.731E-03         1.92530    -555.281E-03    -25.6193E-03     597.724E-03    -298.679E-03    -299.599E-03    -296.808E-03     595.736E-03    -299.481E-03     84.2492E-03     3.82940E+06     1.11119E+06    -3.52540E+06    -1.58294E+06    -831.272E+03     3.82940E+06    -97.4153E+03         81.2528
             838     10.3636E-03     38.3544E-03         1.93682    -552.372E-03    -562.902E-03    -559.739E-03         1.93677    -555.488E-03    -17.1271E-03     598.448E-03    -297.357E-03    -299.382E-03    -295.862E-03     596.954E-03    -299.382E-03     72.7232E-03     4.03137E+06     1.91887E+06    -3.72596E+06    -2.14581E+06     409.506E+03     3.96058E+06     442.647E+03         76.6569
             839     9.62145E-03     38.2464E-03         1.94690    -554.839E-03    -570.344E-03    -570.290E-03         1.94685    -554.839E-03    -8.63570E-03     598.547E-03    -297.343E-03    -299.170E-03    -296.361E-03     597.565E-03    -299.170E-03     58.9573E-03     4.14031E+06     2.90689E+06    -2.73269E+06    -1.99276E+06     2.23775E+06     4.06951E+06     199.453E+03         73.1621
             840     8.88023E-03     38.1596E-03         1.95059    -553.472E-03    -574.792E-03    -574.705E-03         1.95050    -553.472E-03     16.6100E-03     597.998E-03    -296.955E-03    -298.627E-03    -296.300E-03     597.344E-03    -298.627E-03     48.1562E-03     4.63559E+06     2.14636E+06    -2.23895E+06    -2.12142E+06     2.02883E+06     4.63559E+06     692.513E+03         70.9016
             841     8.13886E-03     38.0941E-03         1.94766    -551.750E-03    -573.700E-03    -573.556E-03         1.94751    -551.750E-03     27.2026E-03     597.760E-03    -296.173E-03    -299.668E-03    -295.757E-03     597.343E-03    -299.668E-03     38.1920E-03     5.11979E+06     362.593E+03    -3.40718E+06    -3.20347E+06     158.881E+03     5.11979E+06     681.103E+03         69.7310
             842     7.39781E-03     38.0470E-03         1.94121    -547.508E-03    -571.103E-03    -568.490E-03         1.94111    -550.020E-03     5.47667E-03     597.843E-03    -297.089E-03    -299.993E-03    -296.864E-03     597.617E-03    -299.993E-03     27.9950E-03     4.87083E+06     193.863E+03    -4.36899E+06    -4.06527E+06    -109.861E+03     4.87083E+06     584.032E+03         69.2176
             843     6.65638E-03     38.0149E-03         1.93273    -545.755E-03    -564.744E-03    -561.860E-03         1.93264    -548.551E-03     6.61167E-03     596.234E-03    -298.207E-03    -299.709E-03    -298.101E-03     596.128E-03    -299.709E-03     19.0520E-03     3.78840E+06    -208.151E+03    -5.17556E+06    -4.91286E+06    -470.854E+03     3.78840E+06     637.553E+03         69.0238
             844     5.91612E-03     37.9949E-03         1.92373    -547.229E-03    -555.356E-03    -554.719E-03         1.92338    -547.513E-03    -23.6754E-03     597.798E-03    -298.604E-03    -300.568E-03    -298.565E-03     597.760E-03    -300.568E-03     10.9374E-03     1.93518E+06    -601.161E+03    -6.24138E+06    -5.98971E+06    -807.464E+03     1.88981E+06     467.329E+03         68.9518
             845     5.17524E-03     37.9898E-03         1.91205    -540.457E-03    -550.907E-03    -543.457E-03         1.91154    -547.395E-03    -5.75656E-03     601.483E-03    -300.250E-03    -301.477E-03    -300.499E-03     601.477E-03    -301.221E-03     3.97930E-03    -1.19563E+06    -1.87418E+06    -6.17106E+06    -6.01078E+06    -1.93933E+06    -1.29077E+06     149.907E+03         68.8518
             846     4.43573E-03     38.0005E-03         1.90148    -530.287E-03    -550.968E-03    -531.885E-03         1.90117    -549.053E-03     10.5137E-03     603.567E-03    -301.433E-03    -302.053E-03    -301.687E-03     603.566E-03    -301.797E-03    -1.17908E-03    -3.85189E+06    -4.23370E+06    -6.26252E+06    -6.14489E+06    -4.13881E+06    -4.06442E+06     400.255E+03         68.6705
             847     3.69633E-03     38.0236E-03         1.90268    -526.504E-03    -554.563E-03    -526.784E-03         1.90142    -553.029E-03     53.1699E-03     604.006E-03    -301.325E-03    -302.198E-03    -301.861E-03     603.999E-03    -301.655E-03    -4.81960E-03    -4.50468E+06    -4.96955E+06    -6.73241E+06    -6.48479E+06    -4.81506E+06    -4.90681E+06     634.719E+03         68.4064
             848     2.95702E-03     38.0472E-03         1.91240    -528.944E-03    -561.009E-03    -529.160E-03         1.91108    -559.475E-03     46.8891E-03     603.065E-03    -301.691E-03    -302.415E-03    -302.221E-03     603.052E-03    -301.872E-03    -6.89013E-03    -5.44361E+06    -5.85784E+06    -7.03673E+06    -6.84415E+06    -5.63620E+06    -5.85784E+06     491.906E+03         68.1442
             849     2.21829E-03     38.0809E-03         1.93334    -541.153E-03    -570.243E-03    -543.007E-03         1.93259    -567.637E-03     17.5212E-03     603.157E-03    -301.686E-03    -302.260E-03    -301.671E-03     603.142E-03    -302.260E-03    -7.31429E-03    -6.30941E+06    -7.00794E+06    -8.01322E+06    -7.66418E+06    -6.76554E+06    -6.90085E+06     554.235E+03         67.9949
             850     1.47964E-03     38.1134E-03         1.96158    -561.726E-03    -579.225E-03    -561.855E-03         1.95823    -575.749E-03    -61.6431E-03     604.151E-03    -301.898E-03    -302.544E-03    -301.886E-03     604.140E-03    -302.544E-03    -6.13623E-03    -6.13428E+06    -7.10121E+06    -8.29105E+06    -7.65018E+06    -6.88223E+06    -6.99413E+06     559.885E+03         67.9670
             851     739.707E-06     38.1434E-03         1.98361    -507.576E-03    -656.198E-03    -504.780E-03         1.97994    -655.328E-03    -71.8625E-03     605.151E-03    -302.019E-03    -302.699E-03    -302.440E-03     605.146E-03    -302.273E-03    -3.34170E-03    -5.97212E+06    -6.75114E+06    -7.93834E+06    -6.89041E+06    -7.02004E+06    -6.75114E+06     72.6693E+03         67.9984
             852     12.6049E-03     37.0325E-03         1.96120    -560.247E-03    -575.070E-03    -574.854E-03         1.96098    -560.247E-03     16.8673E-03     601.471E-03    -299.149E-03    -301.379E-03    -297.655E-03     597.747E-03    -299.149E-03     115.157E-03     4.50772E+06     1.40891E+06    -2.62352E+06    -164.546E+03    -1.05007E+06     4.50772E+06     314.047E+03         89.6994
             853     11.8636E-03     36.8135E-03         1.96841    -559.913E-03    -580.412E-03    -580.197E-03         1.96819    -559.913E-03     17.0476E-03     599.498E-03    -299.361E-03    -300.897E-03    -297.441E-03     596.173E-03    -299.492E-03     107.562E-03     4.51831E+06     1.68123E+06    -2.80560E+06    -538.317E+03    -586.058E+03     4.51831E+06     214.877E+03         86.0151
             854     11.1029E-03     36.6634E-03         1.96717    -559.096E-03    -578.962E-03    -578.920E-03         1.96713    -559.096E-03    -14.2230E-03     597.683E-03    -298.657E-03    -299.693E-03    -296.690E-03     595.661E-03    -299.637E-03     84.9949E-03     4.07811E+06     1.63108E+06    -3.48577E+06    -1.27169E+06       -583.E+03     4.07811E+06     148.687E+03         81.1799
             855     10.3617E-03     36.5301E-03         1.95864    -558.309E-03    -570.537E-03    -570.517E-03         1.95862    -558.309E-03    -7.63931E-03     598.583E-03    -297.415E-03    -299.607E-03    -295.870E-03     597.038E-03    -299.607E-03     73.9415E-03     4.01413E+06     2.62179E+06    -3.12510E+06    -1.34769E+06     915.175E+03     3.94334E+06     99.6082E+03         76.6036
             856     9.61907E-03     36.4229E-03         1.94614    -552.431E-03    -564.275E-03    -558.558E-03         1.94611    -558.119E-03     2.55930E-03     598.705E-03    -297.355E-03    -299.433E-03    -296.337E-03     597.686E-03    -299.433E-03     60.0756E-03     4.86657E+06     2.55858E+06    -2.81692E+06    -1.90314E+06     1.71559E+06     4.79578E+06     53.7461E+03         73.1367
             857     8.87686E-03     36.3372E-03         1.93956    -545.520E-03    -564.407E-03    -551.122E-03         1.93944    -558.685E-03     31.5011E-03     598.226E-03    -297.038E-03    -298.908E-03    -296.354E-03     597.541E-03    -298.908E-03     49.2598E-03     5.63231E+06     1.47340E+06    -3.19942E+06    -2.82365E+06     1.09763E+06     5.63231E+06     762.050E+03         70.9069
             858     8.13509E-03     36.2704E-03         1.93840    -544.127E-03    -564.516E-03    -548.651E-03         1.93822    -559.808E-03     39.9993E-03     598.214E-03    -296.216E-03    -299.975E-03    -295.776E-03     597.774E-03    -299.975E-03     39.3161E-03     5.11758E+06     796.979E+03    -4.00052E+06    -3.66302E+06     459.477E+03     5.11758E+06     769.660E+03         69.7634
             859     7.39453E-03     36.2217E-03         1.94014    -546.742E-03    -562.690E-03    -548.072E-03         1.94006    -561.278E-03     16.0763E-03     598.355E-03    -297.151E-03    -300.352E-03    -296.907E-03     598.111E-03    -300.352E-03     29.1328E-03     3.53079E+06     611.948E+03    -4.64253E+06    -4.34687E+06     316.287E+03     3.53079E+06     408.061E+03         69.2661
             860     6.65444E-03     36.1874E-03         1.94747    -554.669E-03    -562.635E-03    -554.608E-03         1.94741    -562.635E-03     8.53108E-03     596.877E-03    -298.336E-03    -300.119E-03    -298.218E-03     596.758E-03    -300.119E-03     20.2000E-03     2.17891E+06     188.478E+03    -5.05654E+06    -4.69251E+06     107.844E+03     1.89552E+06     95.8918E+03         69.0792
             861     5.91444E-03     36.1685E-03         1.95739    -561.553E-03    -566.079E-03    -563.964E-03         1.95691    -563.187E-03    -35.2434E-03     598.318E-03    -298.566E-03    -301.001E-03    -298.520E-03     598.272E-03    -301.001E-03     12.0462E-03     976.360E+03    -54.1458E+03    -5.42687E+06    -5.03954E+06    -112.716E+03     647.599E+03    -108.635E+03         69.0087
             862     5.17211E-03     36.1632E-03         1.96797    -562.201E-03    -576.575E-03    -575.995E-03         1.96739    -562.201E-03    -21.6210E-03     602.056E-03    -300.393E-03    -301.743E-03    -300.384E-03     602.047E-03    -301.743E-03     4.74684E-03    -1.68539E+06    -2.24239E+06    -6.17718E+06    -5.99002E+06    -2.33442E+06    -1.78052E+06    -106.485E+03         68.9091
             863     4.43278E-03     36.1687E-03         1.97305    -558.273E-03    -585.932E-03    -584.690E-03         1.97259    -559.052E-03    -12.9507E-03     604.585E-03    -301.978E-03    -302.397E-03    -301.977E-03     604.584E-03    -302.397E-03    -606.029E-06    -3.69111E+06    -4.48408E+06    -6.43140E+06    -6.37323E+06    -4.49249E+06    -3.74087E+06    -22.5364E+03         68.7305
             864     3.69422E-03     36.1898E-03         1.96998    -552.999E-03    -587.375E-03    -585.067E-03         1.96845    -553.778E-03     42.1563E-03     604.432E-03    -301.619E-03    -302.460E-03    -302.155E-03     604.425E-03    -301.917E-03    -4.39824E-03    -3.77349E+06    -4.33045E+06    -6.36818E+06    -6.27456E+06    -4.40643E+06    -3.79112E+06     165.254E+03         68.4724
             865     2.95534E-03     36.2176E-03         1.95605    -546.205E-03    -579.987E-03    -577.099E-03         1.95399    -547.028E-03     20.0154E-03     603.572E-03    -302.091E-03    -302.723E-03    -302.622E-03     603.561E-03    -302.180E-03    -6.42557E-03    -4.71333E+06    -5.26791E+06    -7.13896E+06    -7.01135E+06    -5.24096E+06    -4.86788E+06     243.188E+03         68.2231
             866     2.21624E-03     36.2489E-03         1.93495    -539.027E-03    -565.814E-03    -562.678E-03         1.93264    -539.850E-03     25.9634E-03     604.471E-03    -302.466E-03    -302.961E-03    -302.454E-03     604.459E-03    -302.961E-03    -6.61438E-03    -5.22311E+06    -6.30191E+06    -7.65984E+06    -7.19945E+06    -6.08366E+06    -5.90174E+06     60.7532E+03         68.0893
             867     1.47713E-03     36.2833E-03         1.91463    -533.890E-03    -553.089E-03    -545.075E-03         1.90661    -533.890E-03    -92.0171E-03     605.597E-03    -302.684E-03    -303.247E-03    -302.675E-03     605.588E-03    -303.247E-03    -5.48638E-03    -5.61796E+06    -6.65103E+06    -7.91586E+06    -7.11975E+06    -6.50653E+06    -6.55857E+06    -250.240E+03         68.0676
             868     738.389E-06     36.3102E-03         1.90419    -466.002E-03    -613.526E-03    -459.227E-03         1.88942    -605.530E-03    -3.67867E-03     606.546E-03    -302.842E-03    -303.484E-03    -303.323E-03     606.543E-03    -302.999E-03    -2.76836E-03    -6.36515E+06    -7.07253E+06    -8.07399E+06    -7.02045E+06    -7.39365E+06    -7.09756E+06    -187.631E+03         68.0976
             869     12.6057E-03     35.2156E-03         1.99517    -567.102E-03    -589.156E-03    -588.941E-03         1.99496    -567.102E-03     18.6507E-03     600.273E-03    -299.227E-03    -300.447E-03    -296.697E-03     596.523E-03    -299.227E-03     115.358E-03     4.77717E+06     1.46524E+06    -3.05391E+06    -126.989E+03    -1.46168E+06     4.77717E+06    -16.0506E+03         89.6352
             870     11.8602E-03     34.9922E-03         1.99788    -566.296E-03    -593.479E-03    -593.263E-03         1.99766    -566.296E-03     18.3301E-03     598.035E-03    -298.836E-03    -300.261E-03    -296.077E-03     594.669E-03    -299.655E-03     108.020E-03     4.40549E+06     1.43767E+06    -3.13784E+06    -400.939E+03    -1.10888E+06     4.21514E+06     442.935E+03         85.9516
             871     11.1000E-03     34.8473E-03         1.99304    -565.252E-03    -589.663E-03    -589.595E-03         1.99297    -565.252E-03    -19.2977E-03     596.855E-03    -297.808E-03    -299.812E-03    -295.742E-03     594.789E-03    -299.812E-03     85.8432E-03     4.97630E+06     2.07672E+06    -2.79984E+06    -325.814E+03    -206.952E+03     4.78595E+06     190.899E+03         81.1211
             872     10.3576E-03     34.7120E-03         1.98039    -564.472E-03    -579.250E-03    -579.161E-03         1.98030    -564.472E-03    -22.1666E-03     598.639E-03    -297.148E-03    -299.933E-03    -295.548E-03     597.039E-03    -299.933E-03     75.2446E-03     5.69719E+06     2.52666E+06    -2.40711E+06    -887.462E+03     1.00702E+06     5.69719E+06     182.775E+03         76.5610
             873     9.61597E-03     34.6031E-03         1.96603    -558.711E-03    -571.122E-03    -565.371E-03         1.96597    -564.399E-03    -15.2346E-03     599.159E-03    -297.529E-03    -299.802E-03    -296.469E-03     598.099E-03    -299.802E-03     61.3260E-03     5.79095E+06     1.87912E+06    -2.86355E+06    -1.80020E+06     815.762E+03     5.79095E+06     1.03866E+06         73.1179
             874     8.87404E-03     34.5120E-03         1.95348    -549.787E-03    -567.318E-03    -551.780E-03         1.95343    -565.279E-03     12.0354E-03     598.529E-03    -297.245E-03    -299.250E-03    -296.525E-03     597.808E-03    -299.250E-03     50.5416E-03     4.98267E+06     1.79347E+06    -3.56932E+06    -2.63896E+06     863.112E+03     4.98267E+06     652.652E+03         70.9143
             875     8.13308E-03     34.4424E-03         1.94954    -545.972E-03    -567.013E-03    -545.930E-03         1.94950    -567.013E-03     15.3392E-03     598.553E-03    -296.041E-03    -300.419E-03    -295.570E-03     598.082E-03    -300.419E-03     40.7161E-03     4.05478E+06     2.11424E+06    -3.51009E+06    -2.80546E+06     1.40961E+06     4.05478E+06     334.684E+03         69.7978
             876     7.39137E-03     34.3947E-03         1.95713    -550.511E-03    -569.002E-03    -550.477E-03         1.95709    -569.002E-03    -6.59623E-03     598.832E-03    -296.892E-03    -300.838E-03    -296.616E-03     598.557E-03    -300.838E-03     31.0227E-03     3.22742E+06     1.39818E+06    -3.61148E+06    -3.03121E+06     1.13650E+06     2.90885E+06     97.8376E+03         69.3235
             877     6.65057E-03     34.3591E-03         1.96954    -561.774E-03    -570.455E-03    -561.745E-03         1.96951    -570.455E-03    -10.2962E-03     597.627E-03    -298.132E-03    -300.700E-03    -297.989E-03     597.484E-03    -300.700E-03     22.2535E-03     2.36409E+06     282.915E+03    -4.34104E+06    -3.73863E+06     282.478E+03     1.76212E+06    -327.681E+03         69.1524
             878     5.90985E-03     34.3378E-03         1.98499    -569.177E-03    -578.052E-03    -576.191E-03         1.98455    -570.604E-03    -46.4965E-03     599.408E-03    -298.545E-03    -301.666E-03    -298.486E-03     599.349E-03    -301.666E-03     13.8267E-03     1.73861E+06    -113.285E+03    -4.98184E+06    -4.58399E+06    -227.744E+03     1.45522E+06    -62.1690E+03         69.0878
             879     5.16909E-03     34.3314E-03         1.99799    -568.632E-03    -591.840E-03    -591.345E-03         1.99750    -568.632E-03    -29.9308E-03     603.418E-03    -300.846E-03    -302.498E-03    -300.943E-03     603.405E-03    -302.387E-03     6.10047E-03    -275.959E+03    -1.85064E+06    -5.43046E+06    -5.14927E+06    -2.13184E+06    -275.959E+03     75.3157E+03         68.9880
             880     4.43008E-03     34.3406E-03         2.00172    -563.952E-03    -600.897E-03    -600.438E-03         2.00126    -563.952E-03    -28.3642E-03     605.641E-03    -302.384E-03    -303.181E-03    -302.492E-03     605.639E-03    -303.071E-03     360.596E-06    -2.70730E+06    -3.98877E+06    -6.08800E+06    -5.93698E+06    -4.13979E+06    -2.70730E+06    -22.3262E+03         68.8123
             881     3.69108E-03     34.3584E-03         1.99637    -556.343E-03    -603.240E-03    -601.429E-03         1.99456    -556.343E-03     40.3261E-03     605.420E-03    -302.098E-03    -303.000E-03    -302.395E-03     605.415E-03    -302.699E-03    -3.58459E-03    -3.57163E+06    -4.53818E+06    -7.18855E+06    -7.17285E+06    -4.55387E+06    -3.57163E+06    -168.197E+03         68.5625
             882     2.95241E-03     34.3846E-03         1.97545    -546.234E-03    -592.841E-03    -589.979E-03         1.97258    -546.234E-03    -548.344E-06     605.035E-03    -302.937E-03    -303.346E-03    -303.228E-03     605.025E-03    -303.045E-03    -5.96723E-03    -3.97967E+06    -4.97430E+06    -6.93675E+06    -6.91359E+06    -4.65496E+06    -4.32218E+06    -162.285E+03         68.3249
             883     2.21458E-03     34.4092E-03         1.94206    -535.572E-03    -568.870E-03    -565.134E-03         1.93832    -535.572E-03     20.2777E-03     606.077E-03    -303.280E-03    -303.805E-03    -303.267E-03     606.064E-03    -303.805E-03    -6.84178E-03    -5.36137E+06    -6.66469E+06    -7.32799E+06    -6.91193E+06    -6.00919E+06    -6.43294E+06    -246.207E+03         68.2028
             884     1.47663E-03     34.4479E-03         1.91499    -528.047E-03    -550.312E-03    -536.629E-03         1.90130    -528.047E-03    -127.203E-03     607.265E-03    -303.465E-03    -304.051E-03    -303.455E-03     607.255E-03    -304.051E-03    -5.86779E-03    -6.24580E+06    -7.55924E+06    -8.03884E+06    -7.26412E+06    -6.94456E+06    -7.63520E+06    -216.230E+03         68.1857
             885     738.728E-06     34.4738E-03         1.92314    -483.713E-03    -603.060E-03    -456.731E-03         1.88629    -593.200E-03     104.881E-03     608.071E-03    -303.633E-03    -304.243E-03    -304.071E-03     608.068E-03    -303.802E-03    -3.21226E-03    -7.42663E+06    -8.18956E+06    -9.07945E+06    -8.05621E+06    -8.42484E+06    -8.21459E+06    -271.763E+03         68.2146
             886     12.6027E-03     33.3972E-03         2.00440    -573.510E-03    -585.522E-03    -585.323E-03         2.00421    -573.510E-03     22.0548E-03     599.450E-03    -298.964E-03    -299.753E-03    -295.507E-03     595.577E-03    -299.338E-03     117.049E-03     6.51257E+06     1.88729E+06    -2.87715E+06    -125.750E+03    -864.116E+03     6.51257E+06    -152.011E+03         89.5744
             887     11.8589E-03     33.1774E-03         2.00045    -570.911E-03    -585.465E-03    -582.509E-03         2.00024    -573.657E-03     18.8491E-03     597.288E-03    -298.483E-03    -299.953E-03    -295.075E-03     593.761E-03    -299.834E-03     110.606E-03     5.49883E+06     1.39145E+06    -3.27696E+06    -768.499E+03    -926.670E+03     5.30848E+06     126.529E+03         85.8907
             888     11.0972E-03     33.0257E-03         1.99722    -569.429E-03    -583.481E-03    -578.850E-03         1.99715    -573.997E-03    -19.8960E-03     596.395E-03    -297.039E-03    -299.998E-03    -294.870E-03     594.225E-03    -299.998E-03     87.8494E-03     3.96673E+06     915.802E+03    -4.10660E+06    -1.78186E+06    -1.21859E+06     3.77638E+06     234.518E+03         81.0638
             889     10.3545E-03     32.8888E-03         1.99907    -572.533E-03    -583.275E-03    -581.375E-03         1.99899    -574.356E-03    -19.4439E-03     598.972E-03    -296.748E-03    -300.164E-03    -295.110E-03     597.334E-03    -300.164E-03     76.1002E-03     3.75963E+06     1.29326E+06    -3.82683E+06    -2.29235E+06    -241.218E+03     3.75963E+06     511.830E+03         76.5150
             890     9.61149E-03     32.7790E-03         2.00221    -574.452E-03    -584.263E-03    -584.208E-03         2.00216    -574.452E-03    -10.4713E-03     599.559E-03    -297.559E-03    -300.054E-03    -296.458E-03     598.458E-03    -300.054E-03     62.5650E-03     4.43992E+06     1.87661E+06    -3.98068E+06    -2.33929E+06     781.315E+03     3.89383E+06     426.448E+03         73.0907
             891     8.86914E-03     32.6920E-03         2.00319    -571.869E-03    -587.866E-03    -585.439E-03         2.00309    -574.197E-03     18.7775E-03     598.640E-03    -297.259E-03    -299.563E-03    -296.488E-03     597.869E-03    -299.563E-03     52.3287E-03     4.09780E+06     2.76996E+06    -3.73876E+06    -2.16600E+06     1.85336E+06     3.44164E+06     146.729E+03         70.9116
             892     8.12697E-03     32.6243E-03         2.00027    -568.377E-03    -588.299E-03    -582.770E-03         2.00010    -573.737E-03     31.8513E-03     598.738E-03    -295.908E-03    -300.921E-03    -295.397E-03     598.227E-03    -300.921E-03     42.4695E-03     3.29691E+06     2.53210E+06    -3.72704E+06    -2.42479E+06     1.54939E+06     2.97737E+06    -53.5859E+03         69.8250
             893     7.38630E-03     32.5714E-03         1.99559    -566.869E-03    -584.716E-03    -578.102E-03         1.99544    -573.335E-03     16.3919E-03     599.170E-03    -296.575E-03    -301.458E-03    -296.269E-03     598.864E-03    -301.458E-03     32.7559E-03     3.20381E+06     2.09333E+06    -4.01448E+06    -2.87800E+06     1.48491E+06     2.67576E+06    -287.858E+03         69.3809
             894     6.64595E-03     32.5357E-03         1.99341    -569.506E-03    -580.141E-03    -576.535E-03         1.99332    -573.018E-03     12.5418E-03     598.200E-03    -297.777E-03    -301.420E-03    -297.612E-03     598.035E-03    -301.420E-03     23.9427E-03     2.92661E+06     1.13674E+06    -4.26935E+06    -3.54031E+06     726.281E+03     2.60804E+06    -168.693E+03         69.2337
             895     5.90600E-03     32.5126E-03         1.99076    -566.547E-03    -579.095E-03    -572.491E-03         1.99051    -572.896E-03    -23.5657E-03     600.393E-03    -298.574E-03    -302.506E-03    -298.501E-03     600.319E-03    -302.506E-03     15.7040E-03     1.82388E+06    -737.769E+03    -4.73198E+06    -4.27227E+06    -1.19747E+06     1.82388E+06    -245.556E+03         69.1803
             896     5.16455E-03     32.5046E-03         1.98660    -558.062E-03    -584.141E-03    -568.457E-03         1.98614    -573.284E-03    -457.483E-06     603.788E-03    -300.872E-03    -302.797E-03    -300.959E-03     603.766E-03    -302.687E-03     8.27819E-03    -437.141E+03    -2.10919E+06    -5.64244E+06    -5.41062E+06    -2.32554E+06    -452.603E+03     3.24912E+03         69.0808
             897     4.42625E-03     32.5085E-03         1.98415    -553.772E-03    -586.297E-03    -565.324E-03         1.98372    -574.317E-03     2.62010E-03     606.604E-03    -302.729E-03    -303.406E-03    -302.836E-03     606.600E-03    -303.296E-03     2.07128E-03    -2.63276E+06    -3.60368E+06    -6.32562E+06    -6.13430E+06    -3.42361E+06    -3.00415E+06     220.081E+03         68.9096
             898     3.68845E-03     32.5309E-03         1.98506    -550.140E-03    -591.010E-03    -562.749E-03         1.98284    -576.176E-03     70.7726E-03     608.020E-03    -303.409E-03    -304.286E-03    -303.807E-03     608.017E-03    -303.885E-03    -2.85177E-03    -3.68861E+06    -4.80007E+06    -6.46218E+06    -6.15196E+06    -4.26950E+06    -4.52940E+06    -4.84018E+03         68.6748
             899     2.95025E-03     32.5494E-03         1.98869    -551.500E-03    -594.186E-03    -563.344E-03         1.98536    -579.004E-03     19.8817E-03     607.095E-03    -303.873E-03    -304.767E-03    -304.265E-03     607.086E-03    -304.365E-03    -5.77546E-03    -4.70916E+06    -5.60918E+06    -6.95873E+06    -6.60396E+06    -5.13659E+06    -5.53652E+06     30.3315E+03         68.4512
             900     2.21304E-03     32.5740E-03         2.00325    -566.504E-03    -591.834E-03    -571.155E-03         1.99796    -581.894E-03     60.8464E-03     607.714E-03    -303.821E-03    -304.803E-03    -303.809E-03     607.703E-03    -304.803E-03    -6.42509E-03    -5.83668E+06    -6.53985E+06    -7.70478E+06    -7.40733E+06    -6.17252E+06    -6.50146E+06     393.501E+03         68.3374
             901     1.47538E-03     32.6098E-03         2.02749    -580.810E-03    -601.432E-03    -580.255E-03         2.00864    -583.138E-03    -136.687E-03     609.230E-03    -304.316E-03    -305.026E-03    -304.308E-03     609.222E-03    -305.026E-03    -5.18599E-03    -6.60767E+06    -7.29460E+06    -8.41111E+06    -7.98540E+06    -7.03338E+06    -7.29460E+06     513.760E+03         68.3276
             902     737.170E-06     32.6347E-03         2.06978    -570.127E-03    -652.603E-03    -526.669E-03         2.01184    -638.117E-03     190.840E-03     609.931E-03    -304.525E-03    -305.112E-03    -304.784E-03     609.928E-03    -304.850E-03    -2.73711E-03    -6.86581E+06    -7.38013E+06    -8.43529E+06    -7.62102E+06    -7.70211E+06    -7.35809E+06     139.298E+03         68.3627
             903     12.5992E-03     31.5788E-03         2.00102    -572.319E-03    -582.615E-03    -574.246E-03         2.00086    -580.525E-03     21.2407E-03     598.192E-03    -297.727E-03    -299.449E-03    -293.782E-03     594.246E-03    -299.449E-03     117.995E-03     6.43990E+06     2.08719E+06    -3.32822E+06     76.3483E+03    -1.31737E+06     6.43990E+06     494.214E+03         89.5091
             904     11.8539E-03     31.3578E-03         1.99796    -566.948E-03    -583.652E-03    -568.397E-03         1.99777    -582.015E-03     15.0071E-03     597.097E-03    -298.130E-03    -300.007E-03    -294.540E-03     593.507E-03    -300.007E-03     111.569E-03     6.19993E+06     1.01807E+06    -4.48451E+06    -1.31003E+06    -2.15640E+06     6.19993E+06     168.059E+03         85.8213
             905     11.0965E-03     31.2056E-03         2.00039    -567.644E-03    -583.839E-03    -567.609E-03         2.00036    -583.839E-03    -11.5479E-03     596.559E-03    -296.878E-03    -300.255E-03    -294.673E-03     594.354E-03    -300.255E-03     88.5579E-03      5.8435E+06     2.34092E+06    -4.47002E+06    -1.36494E+06    -764.153E+03      5.8435E+06     271.064E+03         80.9965
             906     10.3505E-03     31.0662E-03         2.01038    -573.513E-03    -587.939E-03    -575.945E-03         2.01036    -585.489E-03    -5.99510E-03     599.073E-03    -296.371E-03    -300.498E-03    -294.706E-03     597.408E-03    -300.498E-03     76.7387E-03     4.51724E+06     3.21928E+06    -3.55448E+06    -1.59633E+06     1.26114E+06     4.51724E+06     299.857E+03         76.4595
             907     9.60731E-03     30.9599E-03         2.02332    -581.549E-03    -591.989E-03    -587.000E-03         2.02328    -586.499E-03     3.36464E-03     599.457E-03    -297.155E-03    -300.400E-03    -296.020E-03     598.322E-03    -300.400E-03     63.5334E-03     3.87836E+06     2.76686E+06    -3.78366E+06    -1.90389E+06     1.43317E+06     3.33226E+06    -328.759E+03         73.0542
             908     8.86475E-03     30.8678E-03         2.03742    -586.463E-03    -601.599E-03    -601.426E-03         2.03725    -586.463E-03     39.0039E-03     598.375E-03    -296.861E-03    -299.979E-03    -296.059E-03     597.572E-03    -299.979E-03     53.3747E-03     3.89019E+06     2.55629E+06    -4.22550E+06    -2.40456E+06     1.74232E+06     2.88323E+06    -400.292E+03         70.8994
             909     8.12373E-03     30.7955E-03         2.04745    -585.122E-03    -612.479E-03    -612.245E-03         2.04721    -585.122E-03     45.5811E-03     598.423E-03    -295.565E-03    -301.455E-03    -295.022E-03     597.880E-03    -301.455E-03     43.7656E-03     3.37911E+06     2.65913E+06    -4.29930E+06    -2.66587E+06     1.69605E+06     2.70875E+06    -427.689E+03         69.8421
             910     7.38244E-03     30.7383E-03         2.04587    -582.754E-03    -613.329E-03    -613.199E-03         2.04574    -582.754E-03     24.0652E-03     599.375E-03    -296.445E-03    -302.188E-03    -296.109E-03     599.039E-03    -302.188E-03     34.3400E-03     2.64203E+06     1.95398E+06    -4.35448E+06    -3.12947E+06     1.16429E+06     2.20672E+06    -308.017E+03         69.4307
             911     6.64054E-03     30.7018E-03         2.02963    -580.452E-03    -599.160E-03    -599.065E-03         2.02953    -580.452E-03     7.45530E-03     598.944E-03    -297.791E-03    -302.282E-03    -297.603E-03     598.756E-03    -302.282E-03     25.6461E-03     1.90736E+06     510.212E+03    -4.68822E+06    -3.67033E+06     147.295E+03     1.25239E+06     25.5852E+03         69.3122
             912     5.90049E-03     30.6752E-03         2.00660    -572.266E-03    -583.249E-03    -575.307E-03         2.00624    -579.851E-03    -37.8267E-03     600.884E-03    -298.661E-03    -303.429E-03    -298.571E-03     600.793E-03    -303.429E-03     17.5984E-03     434.253E+03    -1.39826E+06    -5.21443E+06    -4.64230E+06    -1.54125E+06     5.11736E+03     288.029E+03         69.2720
             913     5.15961E-03     30.6662E-03         1.98947    -557.359E-03    -581.998E-03    -556.873E-03         1.98899    -581.998E-03    -18.4421E-03     604.724E-03    -301.342E-03    -303.637E-03    -301.349E-03     604.692E-03    -303.598E-03     10.1315E-03    -1.47910E+06    -2.39999E+06    -5.91787E+06    -5.61795E+06    -2.68445E+06    -1.49456E+06     354.935E+03         69.1744
             914     4.42160E-03     30.6675E-03         1.98361    -545.437E-03    -587.320E-03    -544.845E-03         1.98301    -587.320E-03    -21.7634E-03     608.691E-03    -303.735E-03    -304.169E-03    -303.767E-03     608.685E-03    -304.130E-03     3.96697E-03    -2.87065E+06    -3.60686E+06    -6.05065E+06    -5.65813E+06    -3.30281E+06    -3.56722E+06     69.8529E+03         69.0099
             915     3.68509E-03     30.6844E-03         1.99359    -547.145E-03    -595.868E-03    -545.071E-03         1.99152    -595.868E-03     47.9684E-03     610.053E-03    -304.606E-03    -305.285E-03    -304.979E-03     610.051E-03    -304.911E-03    -573.995E-06    -3.91297E+06    -4.94571E+06    -6.18874E+06    -5.69141E+06    -4.27707E+06    -5.07894E+06     98.0122E+03         68.7942
             916     2.94834E-03     30.7056E-03         2.02007    -563.996E-03    -606.614E-03    -560.751E-03         2.01683    -606.614E-03    -321.511E-06     608.873E-03    -304.716E-03    -305.976E-03    -305.086E-03     608.869E-03    -305.602E-03    -3.42759E-03    -5.26624E+06    -5.99950E+06    -7.34300E+06    -6.86710E+06    -5.64879E+06    -6.09286E+06     310.247E+03         68.5970
             917     2.21051E-03     30.7286E-03         2.05790    -588.433E-03    -618.212E-03    -582.716E-03         2.05218    -618.212E-03     57.1890E-03     609.926E-03    -304.611E-03    -306.118E-03    -304.605E-03     609.919E-03    -306.118E-03    -4.74088E-03    -5.53415E+06    -6.25687E+06    -7.54842E+06    -7.14889E+06    -5.97208E+06    -6.21848E+06     391.782E+03         68.5065
             918     1.47338E-03     30.7619E-03         2.10985    -617.247E-03    -641.439E-03    -611.127E-03         2.09059    -628.303E-03    -141.897E-03     611.906E-03    -305.605E-03    -306.345E-03    -305.600E-03     611.901E-03    -306.345E-03    -4.47748E-03    -5.25736E+06    -6.24840E+06    -7.36343E+06    -6.66129E+06    -5.95949E+06    -6.24840E+06     204.025E+03         68.5144
             919     737.189E-06     30.7930E-03         2.17664    -642.423E-03    -682.177E-03    -595.334E-03         2.11641    -669.041E-03     209.781E-03     612.583E-03    -305.770E-03    -306.540E-03    -305.767E-03     612.580E-03    -306.540E-03    -2.31681E-03    -5.49267E+06    -6.70443E+06    -7.59058E+06    -6.34279E+06    -6.76250E+06    -6.68239E+06     216.880E+03         68.5619
             920     12.5981E-03     29.7740E-03         2.01715    -576.882E-03    -588.381E-03    -576.742E-03         2.01701    -588.381E-03     10.6362E-03     597.621E-03    -297.239E-03    -299.469E-03    -293.409E-03     593.791E-03    -299.469E-03     116.216E-03     6.37937E+06     2.56090E+06    -3.78828E+06     459.890E+03    -1.67136E+06     6.36345E+06     719.985E+03         89.4442
             921     11.8541E-03     29.5433E-03         2.01612    -572.268E-03    -590.186E-03    -572.101E-03         2.01595    -590.186E-03     5.38122E-03     595.914E-03    -296.874E-03    -300.027E-03    -293.457E-03     592.498E-03    -300.027E-03     108.502E-03     5.32782E+06     2.56757E+06    -4.78874E+06    -611.591E+03    -1.59366E+06     5.31190E+06     768.851E+03         85.7530
             922     11.0954E-03     29.3918E-03         2.02168    -575.552E-03    -591.992E-03    -575.491E-03         2.02162    -591.992E-03    -18.2910E-03     595.440E-03    -295.446E-03    -300.393E-03    -293.370E-03     593.365E-03    -300.393E-03     85.8321E-03     5.97681E+06     3.49128E+06    -5.38928E+06    -921.210E+03    -267.732E+03     5.26775E+06    -446.685E+03         80.9260
             923     10.3477E-03     29.2478E-03         2.02948    -581.092E-03    -593.449E-03    -581.056E-03         2.02945    -593.449E-03    -14.1846E-03     598.109E-03    -295.042E-03    -300.818E-03    -293.412E-03     596.479E-03    -300.818E-03     75.9060E-03     6.05780E+06     3.57741E+06    -4.32688E+06    -1.02511E+06     984.701E+03     5.34874E+06    -647.014E+03         76.3986
             924     9.60371E-03     29.1378E-03         2.03898    -589.088E-03    -594.999E-03    -589.655E-03         2.03893    -594.376E-03    -10.8332E-03     598.462E-03    -295.823E-03    -300.849E-03    -294.668E-03     597.307E-03    -300.849E-03     64.0407E-03     5.17622E+06     3.44877E+06    -3.61728E+06    -1.55700E+06     1.38850E+06     5.17622E+06    -138.604E+03         73.0095
             925     8.86114E-03     29.0397E-03         2.04756    -594.576E-03    -598.746E-03    -598.658E-03         2.04748    -594.576E-03     17.5863E-03     597.496E-03    -295.837E-03    -300.552E-03    -294.994E-03     596.653E-03    -300.552E-03     54.6636E-03     4.73983E+06     3.69291E+06    -4.03346E+06    -2.02828E+06     2.03854E+06     4.38902E+06    -183.827E+03         70.8720
             926     8.11792E-03     28.9671E-03         2.05269    -590.262E-03    -607.161E-03    -603.209E-03         2.05262    -594.143E-03     15.5101E-03     597.764E-03    -294.871E-03    -302.086E-03    -294.285E-03     597.178E-03    -302.086E-03     45.5076E-03     3.68481E+06     2.60638E+06    -4.46535E+06    -2.92844E+06     2.05362E+06     2.70066E+06    -131.952E+03         69.8384
             927     7.37701E-03     28.9119E-03         2.05261    -585.370E-03    -612.546E-03    -604.544E-03         2.05259    -593.352E-03    -8.43586E-03     599.509E-03    -296.169E-03    -302.946E-03    -295.795E-03     599.136E-03    -302.946E-03     36.2618E-03     1.83711E+06     737.157E+03    -4.90224E+06    -3.76957E+06     654.812E+03     786.786E+03    -94.8147E+03         69.4613
             928     6.63583E-03     28.8692E-03         2.04831    -588.491E-03    -604.457E-03    -600.299E-03         2.04826    -592.592E-03    -23.7510E-03     599.938E-03    -297.818E-03    -303.209E-03    -297.602E-03     599.722E-03    -303.209E-03     27.4904E-03     584.914E+03    -625.551E+03    -5.35333E+06    -4.37090E+06    -761.872E+03    -261.203E+03     361.647E+03         69.3758
             929     5.89536E-03     28.8407E-03         2.04506    -590.782E-03    -598.128E-03    -596.450E-03         2.04470    -592.095E-03    -55.3129E-03     601.284E-03    -298.674E-03    -304.384E-03    -298.566E-03     601.175E-03    -304.384E-03     19.2737E-03    -84.7601E+03    -1.28136E+06    -4.97209E+06    -4.58597E+06    -1.23834E+06    -513.895E+03     471.827E+03         69.3527
             930     5.15405E-03     28.8292E-03         2.04033    -582.423E-03    -602.859E-03    -593.103E-03         2.03999    -591.839E-03    -35.0617E-03     605.349E-03    -301.313E-03    -304.530E-03    -301.310E-03     605.307E-03    -304.491E-03     11.8052E-03    -1.30736E+06    -1.86306E+06    -5.02787E+06    -4.72092E+06    -2.05855E+06    -1.41883E+06     179.450E+03         69.2627
             931     4.41684E-03     28.8275E-03         2.03580    -570.904E-03    -608.520E-03    -586.758E-03         2.03538    -592.242E-03    -36.4398E-03     609.734E-03    -303.811E-03    -305.171E-03    -303.838E-03     609.722E-03    -305.132E-03     5.95209E-03    -3.03510E+06    -3.70414E+06    -6.40177E+06    -5.76955E+06    -3.89971E+06    -3.47175E+06     95.4963E+03         69.1120
             932     3.67906E-03     28.8398E-03         2.03663    -570.918E-03    -609.477E-03    -585.252E-03         2.03510    -593.606E-03     34.8599E-03     610.973E-03    -305.363E-03    -306.403E-03    -305.410E-03     610.971E-03    -306.354E-03     1.67684E-03    -4.02799E+06    -4.85734E+06    -6.88508E+06    -6.39479E+06    -4.79563E+06    -4.57999E+06     225.255E+03         68.9253
             933     2.94224E-03     28.8598E-03         2.04191    -580.306E-03    -606.785E-03    -589.338E-03         2.03958    -595.420E-03     1.57799E-03     611.393E-03    -306.334E-03    -307.339E-03    -306.382E-03     611.392E-03    -307.290E-03    -1.39936E-03    -4.31044E+06    -5.05684E+06    -6.47244E+06    -6.07731E+06    -4.79165E+06    -4.97076E+06     311.337E+03         68.7730
             934     2.20720E-03     28.8867E-03         2.04783    -583.781E-03    -607.682E-03    -589.041E-03         2.04358    -598.170E-03     51.4890E-03     613.315E-03    -306.465E-03    -307.804E-03    -306.462E-03     613.312E-03    -307.804E-03    -3.23295E-03    -4.39426E+06    -5.78659E+06    -6.74453E+06    -5.92392E+06    -5.21487E+06    -5.78659E+06    -149.411E+03         68.7257
             935     1.47149E-03     28.9150E-03         2.06630    -594.145E-03    -617.190E-03    -593.361E-03         2.05120    -602.873E-03    -125.994E-03     615.130E-03    -307.259E-03    -308.005E-03    -307.256E-03     615.127E-03    -308.005E-03    -3.64613E-03    -4.82262E+06    -6.43045E+06    -7.12777E+06    -6.16873E+06    -5.78166E+06    -6.43045E+06    -490.575E+03         68.7575
             936     735.326E-06     28.9427E-03         2.11655    -615.634E-03    -645.353E-03    -590.643E-03         2.06986    -623.658E-03     181.388E-03     615.802E-03    -307.058E-03    -308.356E-03    -307.056E-03     615.800E-03    -308.356E-03    -1.98879E-03    -4.75885E+06    -6.18703E+06    -7.28099E+06    -6.06691E+06    -6.21088E+06    -5.94908E+06     111.730E+03         68.8159
             937     12.6014E-03     27.9597E-03         2.06001    -594.476E-03    -605.390E-03    -601.936E-03         2.05985    -597.769E-03     17.2882E-03     598.733E-03    -298.347E-03    -299.518E-03    -294.707E-03     594.975E-03    -299.400E-03     115.218E-03     6.33520E+06     2.52072E+06    -4.81657E+06    -498.933E+03    -1.78100E+06     6.31929E+06     192.338E+03         89.3868
             938     11.8551E-03     27.7281E-03         2.06575    -592.910E-03    -611.704E-03    -605.925E-03         2.06556    -598.506E-03     9.58873E-03     595.350E-03    -296.295E-03    -299.955E-03    -292.928E-03     591.983E-03    -299.955E-03     107.636E-03     5.60682E+06     3.36315E+06    -4.53935E+06    -352.524E+03    -347.168E+03     5.13030E+06     424.969E+03         85.6981
             939     11.0961E-03     27.5699E-03         2.06605    -593.961E-03    -612.081E-03    -607.215E-03         2.06600    -598.773E-03    -15.2742E-03     593.652E-03    -293.660E-03    -300.341E-03    -291.621E-03     591.613E-03    -300.341E-03     84.9224E-03     5.19304E+06     3.45345E+06    -5.53206E+06    -818.621E+03     35.8818E+03     3.89717E+06     38.3153E+03         80.8686
             940     10.3462E-03     27.4296E-03         2.06491    -596.534E-03    -607.542E-03    -605.309E-03         2.06488    -598.738E-03    -10.9323E-03     596.474E-03    -292.998E-03    -300.909E-03    -291.377E-03     594.854E-03    -300.909E-03     75.5537E-03     5.47639E+06     2.82885E+06    -5.62531E+06    -1.73429E+06     663.909E+03     3.75031E+06    -609.842E+03         76.3426
             941     9.60090E-03     27.3170E-03         2.05974    -597.530E-03    -602.116E-03    -600.836E-03         2.05969    -598.754E-03    -7.36464E-03     597.169E-03    -293.935E-03    -301.054E-03    -292.769E-03     596.003E-03    -301.054E-03     64.2514E-03     4.81650E+06     2.49286E+06    -4.63451E+06    -2.13108E+06     1.06708E+06     3.73885E+06    -459.924E+03         72.9608
             942     8.85555E-03     27.2212E-03         2.05010    -589.936E-03    -600.006E-03    -590.412E-03         2.04991    -599.341E-03     26.4123E-03     596.394E-03    -294.446E-03    -300.964E-03    -293.581E-03     595.529E-03    -300.964E-03     55.3053E-03     4.32643E+06     2.82760E+06    -4.84069E+06    -2.64718E+06     1.76375E+06     3.19677E+06    -239.868E+03         70.8340
             943     8.11279E-03     27.1434E-03         2.04065    -577.668E-03    -601.345E-03    -577.674E-03         2.04043    -601.123E-03     31.8093E-03     596.964E-03    -293.943E-03    -302.743E-03    -293.331E-03     596.353E-03    -302.743E-03     46.4356E-03     4.47176E+06     2.11526E+06    -4.85239E+06    -2.83805E+06     1.67709E+06     2.89561E+06    -25.5666E+03         69.8194
             944     7.37037E-03     27.0818E-03         2.04151    -577.136E-03    -603.913E-03    -577.013E-03         2.04139    -603.913E-03     16.5043E-03     599.189E-03    -295.689E-03    -303.789E-03    -295.290E-03     598.790E-03    -303.789E-03     37.5098E-03     3.66468E+06     837.717E+03    -4.85410E+06    -3.45608E+06     264.192E+03     2.84019E+06     338.526E+03         69.4753
             945     6.62963E-03     27.0386E-03         2.05664    -589.106E-03    -606.849E-03    -589.299E-03         2.05655    -606.569E-03     1.07406E-03     600.788E-03    -297.492E-03    -304.151E-03    -297.251E-03     600.547E-03    -304.151E-03     29.1249E-03     2.40224E+06    -158.760E+03    -4.75035E+06    -4.12050E+06    -597.464E+03     2.21110E+06     100.384E+03         69.4251
             946     5.88934E-03     27.0049E-03         2.07635    -602.181E-03    -613.414E-03    -607.661E-03         2.07622    -607.802E-03    -27.0889E-03     602.047E-03    -298.501E-03    -305.347E-03    -298.370E-03     601.916E-03    -305.347E-03     21.4087E-03     879.785E+03    -909.464E+03    -4.61329E+06    -4.46776E+06    -1.05499E+06     879.785E+03    -19.8324E+03         69.4269
             947     5.14901E-03     26.9939E-03         2.09377    -606.475E-03    -627.249E-03    -627.089E-03         2.09361    -606.475E-03    -5.48428E-03     606.221E-03    -301.092E-03    -305.469E-03    -301.033E-03     606.163E-03    -305.469E-03     14.0226E-03    -900.018E+03    -1.76378E+06    -5.52544E+06    -5.17141E+06    -2.00633E+06    -1.01148E+06     245.849E+03         69.3532
             948     4.41032E-03     26.9891E-03         2.10325    -601.850E-03    -640.082E-03    -639.979E-03         2.10315    -601.850E-03     1.88948E-03     611.466E-03    -303.996E-03    -306.378E-03    -303.979E-03     611.449E-03    -306.378E-03     7.40216E-03    -2.69498E+06    -3.63646E+06    -6.60746E+06    -5.95918E+06    -3.60067E+06    -3.37905E+06     305.070E+03         69.2154
             949     3.67323E-03     26.9969E-03         2.09451    -594.160E-03    -639.822E-03    -638.737E-03         2.09342    -594.160E-03     60.1306E-03     612.579E-03    -306.174E-03    -307.994E-03    -306.171E-03     612.576E-03    -307.994E-03     2.12581E-03    -4.02153E+06    -5.18549E+06    -6.65982E+06    -6.32206E+06    -4.72382E+06    -4.82095E+06     48.5798E+03         69.0566
             950     2.93783E-03     27.0160E-03         2.07166    -584.513E-03    -626.725E-03    -625.382E-03         2.07031    -584.513E-03     34.4886E-03     613.800E-03    -307.096E-03    -309.090E-03    -307.096E-03     613.799E-03    -309.090E-03    -1.23116E-03    -4.23249E+06    -5.31248E+06    -6.73355E+06    -6.30268E+06    -4.83663E+06    -5.13921E+06    -223.326E+03         68.9566
             951     2.20278E-03     27.0309E-03         2.04228    -574.624E-03    -605.346E-03    -603.289E-03         2.04022    -574.624E-03     47.8050E-03     616.732E-03    -307.709E-03    -309.676E-03    -307.707E-03     616.730E-03    -309.676E-03    -2.64255E-03    -4.19954E+06    -5.69306E+06    -7.36951E+06    -6.45107E+06    -5.11798E+06    -5.69306E+06     -393.84E+03         68.9602
             952     1.46882E-03     27.0644E-03         2.02115    -563.812E-03    -596.225E-03    -588.490E-03         2.01341    -563.812E-03    -82.8165E-03     618.897E-03    -309.079E-03    -309.897E-03    -309.123E-03     618.895E-03    -309.851E-03    -2.77965E-03    -4.91804E+06    -6.37742E+06    -7.55724E+06    -6.78966E+06    -5.68562E+06    -6.37742E+06    -330.073E+03         69.0242
             953     734.544E-06     27.0931E-03         2.00165    -529.313E-03    -610.414E-03    -587.892E-03         1.97913    -529.313E-03     95.9317E-03     619.435E-03    -309.111E-03    -310.028E-03    -309.156E-03     619.434E-03    -309.982E-03    -1.63513E-03    -5.35254E+06    -6.86315E+06    -8.02908E+06    -6.95379E+06    -6.66578E+06    -6.62520E+06    -297.140E+03         69.1021
             954     12.6010E-03     26.1417E-03         2.08353    -603.643E-03    -615.096E-03    -611.771E-03         2.08340    -606.836E-03     18.3208E-03     599.221E-03    -298.986E-03    -299.598E-03    -295.516E-03     595.474E-03    -299.322E-03     115.082E-03     5.72783E+06     2.59012E+06    -5.60373E+06    -1.15563E+06    -1.65382E+06     5.52367E+06    -123.320E+03         89.3453
             955     11.8562E-03     25.9165E-03         2.09428    -603.959E-03    -623.194E-03    -619.840E-03         2.09412    -607.152E-03     9.19702E-03     595.001E-03    -296.373E-03    -299.905E-03    -292.944E-03     591.572E-03    -299.905E-03     108.836E-03     6.18165E+06     2.95006E+06    -4.98956E+06    -825.386E+03    -549.355E+03     5.51689E+06    -156.716E+03         85.6613
             956     11.0953E-03     25.7659E-03         2.09729    -606.940E-03    -625.097E-03    -625.054E-03         2.09725    -606.940E-03    -12.9925E-03     592.807E-03    -292.928E-03    -300.375E-03    -290.782E-03     590.661E-03    -300.375E-03     87.0378E-03     5.41582E+06     3.16689E+06    -5.42988E+06    -1.26637E+06     8.91705E+03     4.41028E+06     239.256E+03         80.8328
             957     10.3459E-03     25.6178E-03         2.08815    -604.231E-03    -617.602E-03    -615.029E-03         2.08814    -606.792E-03    -5.30892E-03     595.711E-03    -291.858E-03    -300.848E-03    -290.165E-03     594.018E-03    -300.848E-03     77.1042E-03     5.23675E+06     3.76270E+06    -4.86681E+06    -1.25898E+06     1.59061E+06     3.80100E+06     260.600E+03         76.3069
             958     9.59893E-03     25.5031E-03         2.07458    -600.250E-03    -610.337E-03    -603.125E-03         2.07453    -607.418E-03     6.01874E-03     596.238E-03    -292.850E-03    -300.961E-03    -291.653E-03     595.041E-03    -300.961E-03     64.9995E-03     4.59745E+06     2.96458E+06    -4.85286E+06    -2.02501E+06      1.7313E+06     3.00289E+06    -430.169E+03         72.9296
             959     8.85408E-03     25.4008E-03         2.06494    -590.835E-03    -609.067E-03    -590.639E-03         2.06475    -609.067E-03     36.3916E-03     595.469E-03    -293.288E-03    -301.181E-03    -292.418E-03     594.599E-03    -301.181E-03     55.4006E-03     4.50412E+06     2.06773E+06    -5.11062E+06    -2.49105E+06     1.09474E+06     2.85755E+06    -438.513E+03         70.8104
             960     8.10894E-03     25.3158E-03         2.06406    -585.389E-03    -611.630E-03    -585.170E-03         2.06384    -611.630E-03     37.7295E-03     596.079E-03    -292.913E-03    -303.237E-03    -292.302E-03     595.467E-03    -303.237E-03     46.4052E-03     4.51015E+06     2.00245E+06    -5.50670E+06    -3.05883E+06     497.393E+03     3.56734E+06    -222.711E+03         69.8118
             961     7.36596E-03     25.2506E-03         2.07363    -593.478E-03    -614.265E-03    -593.365E-03         2.07352    -614.265E-03     26.6302E-03     598.303E-03    -295.043E-03    -304.472E-03    -294.639E-03     597.900E-03    -304.472E-03     37.6842E-03     3.71242E+06     1.66083E+06    -4.82869E+06    -3.36963E+06     201.774E+03     3.71242E+06    -141.458E+03         69.4976
             962     6.62342E-03     25.2008E-03         2.08515    -602.334E-03    -616.288E-03    -602.203E-03         2.08502    -616.288E-03    -657.312E-06     600.863E-03    -296.875E-03    -304.951E-03    -296.630E-03     600.617E-03    -304.951E-03     29.4174E-03     3.05033E+06     29.1246E+03    -4.45027E+06    -3.98463E+06    -436.515E+03     3.05033E+06    -122.976E+03         69.4734
             963     5.88306E-03     25.1664E-03         2.09857    -611.490E-03    -621.065E-03    -615.137E-03         2.09843    -617.273E-03    -30.6000E-03     602.574E-03    -298.205E-03    -306.179E-03    -298.068E-03     602.438E-03    -306.179E-03     21.8346E-03     2.40873E+06    -1.20964E+06    -5.34438E+06    -5.19828E+06    -1.35574E+06     2.40873E+06     63.5061E+03         69.4923
             964     5.14199E-03     25.1533E-03         2.10968    -615.898E-03    -628.715E-03    -627.781E-03         2.10946    -616.611E-03    -26.3107E-03     608.251E-03    -301.949E-03    -306.845E-03    -301.887E-03     608.188E-03    -306.845E-03     14.5685E-03     231.532E+03    -1.84054E+06    -6.02700E+06    -5.58739E+06    -2.14789E+06      99.275E+03     156.412E+03         69.4344
             965     4.40573E-03     25.1472E-03         2.11380    -611.039E-03    -636.198E-03    -632.834E-03         2.11364    -614.244E-03    -14.8055E-03     614.518E-03    -305.437E-03    -308.086E-03    -305.417E-03     614.498E-03    -308.086E-03     8.05727E-03    -2.21665E+06    -3.15382E+06    -6.30086E+06    -5.69944E+06    -3.05038E+06    -2.92150E+06     138.625E+03         69.3068
             966     3.66950E-03     25.1476E-03         2.11276    -605.882E-03    -639.896E-03    -635.268E-03         2.11235    -610.105E-03     29.7263E-03     614.552E-03    -307.004E-03    -309.590E-03    -307.000E-03     614.548E-03    -309.590E-03     2.95491E-03    -3.46331E+06    -4.90322E+06    -6.58213E+06    -6.32466E+06    -4.06023E+06    -4.56377E+06    -106.090E+03         69.1663
             967     2.93415E-03     25.1646E-03         2.10305    -600.876E-03    -634.826E-03    -631.199E-03         2.10253    -603.980E-03     31.3379E-03     616.068E-03    -307.464E-03    -310.728E-03    -307.463E-03     616.068E-03    -310.728E-03    -430.136E-06    -4.30053E+06    -5.92471E+06    -7.30667E+06    -6.81067E+06    -4.96980E+06    -5.75144E+06    -323.575E+03         69.1080
             968     2.19949E-03     25.1834E-03         2.07914    -592.106E-03    -618.818E-03    -612.951E-03         2.07878    -597.608E-03     15.5934E-03     619.856E-03    -308.562E-03    -311.312E-03    -308.560E-03     619.854E-03    -311.312E-03    -2.28915E-03    -4.74410E+06    -6.47571E+06    -7.91281E+06    -7.19740E+06    -5.45950E+06    -6.47571E+06    -133.055E+03         69.1593
             969     1.46527E-03     25.2078E-03         2.06381    -585.307E-03    -610.968E-03    -602.941E-03         2.06196    -591.488E-03    -21.6978E-03     622.218E-03    -310.641E-03    -311.492E-03    -310.685E-03     622.216E-03    -311.446E-03    -2.60168E-03    -5.47095E+06    -7.08158E+06    -8.00254E+06    -7.43805E+06    -6.02426E+06    -7.09276E+06    -171.803E+03         69.2609
             970     732.672E-06     25.2352E-03         2.04880    -523.615E-03    -659.253E-03    -648.543E-03         2.04014    -525.668E-03    -91.5912E-03     622.884E-03    -310.727E-03    -311.921E-03    -310.772E-03     622.883E-03    -311.874E-03    -983.662E-06    -6.53177E+06    -8.24804E+06    -9.09718E+06    -7.96676E+06    -7.65101E+06    -8.25922E+06    -249.641E+03         69.3686
             971     12.6007E-03     24.3215E-03         2.08558    -601.560E-03    -613.523E-03    -602.116E-03         2.08550    -612.883E-03     14.1184E-03     598.410E-03    -298.067E-03    -299.470E-03    -294.452E-03     594.636E-03    -299.311E-03     115.410E-03     5.52800E+06     2.84249E+06    -6.09286E+06    -1.12656E+06    -1.32741E+06     4.73159E+06    -98.5160E+03         89.3355
             972     11.8554E-03     24.1041E-03         2.08687    -597.857E-03    -617.010E-03    -600.591E-03         2.08677    -614.166E-03     5.03040E-03     594.643E-03    -295.864E-03    -300.056E-03    -292.376E-03     591.155E-03    -300.056E-03     109.887E-03     6.20295E+06     3.42434E+06    -5.63443E+06    -966.276E+03    -421.705E+03     5.38084E+06    -193.097E+03         85.6525
             973     11.0956E-03     23.9495E-03         2.08749    -595.579E-03    -620.598E-03    -600.382E-03         2.08744    -615.749E-03    -18.2282E-03     593.353E-03    -293.221E-03    -300.590E-03    -290.984E-03     591.115E-03    -300.590E-03     88.9015E-03     6.11060E+06     3.07525E+06    -5.69083E+06    -1.20330E+06    -375.601E+03     5.07393E+06    -35.0811E+03         80.8269
             974     10.3447E-03     23.8025E-03         2.09186    -600.336E-03    -619.561E-03    -602.300E-03         2.09182    -617.556E-03    -16.0088E-03     596.031E-03    -292.274E-03    -300.855E-03    -290.523E-03     594.280E-03    -300.855E-03     78.4447E-03     5.50159E+06     3.63892E+06    -5.04274E+06    -1.54922E+06     1.21449E+06     4.43250E+06    -31.1939E+03         76.3080
             975     9.59953E-03     23.6825E-03         2.09980    -609.823E-03    -621.478E-03    -612.154E-03         2.09975    -619.100E-03    -9.51295E-03     596.261E-03    -292.968E-03    -300.891E-03    -291.737E-03     595.030E-03    -300.891E-03     65.9043E-03     5.75856E+06     3.94967E+06    -4.97464E+06    -1.63483E+06     1.77714E+06     4.59129E+06     146.776E+03         72.9376
             976     8.85221E-03     23.5800E-03         2.11123    -611.021E-03    -630.586E-03    -621.710E-03         2.11118    -619.848E-03     15.0258E-03     595.523E-03    -293.042E-03    -301.265E-03    -292.165E-03     594.645E-03    -301.265E-03     55.5948E-03     5.53683E+06     3.39860E+06    -5.40083E+06    -2.60370E+06     1.34657E+06     4.79174E+06     255.134E+03         70.8224
             977     8.10759E-03     23.4941E-03         2.12125    -612.924E-03    -637.295E-03    -630.589E-03         2.12121    -619.591E-03     14.3736E-03     595.589E-03    -292.331E-03    -303.292E-03    -291.734E-03     594.992E-03    -303.292E-03     45.7765E-03     4.07218E+06     2.63638E+06    -5.40026E+06    -3.36048E+06     824.793E+03     3.84400E+06    -198.284E+03         69.8291
             978     7.36373E-03     23.4236E-03         2.12286    -616.453E-03    -635.332E-03    -633.335E-03         2.12286    -618.446E-03     3.47679E-03     597.370E-03    -294.157E-03    -304.759E-03    -293.777E-03     596.990E-03    -304.759E-03     36.5104E-03     2.30074E+06     1.24688E+06    -5.48902E+06    -4.23626E+06    -5.87363E+03     2.30074E+06    -275.284E+03         69.5286
             979     6.62086E-03     23.3719E-03         2.11731    -616.496E-03    -628.298E-03    -627.533E-03         2.11714    -617.088E-03    -28.8105E-03     600.370E-03    -296.023E-03    -305.392E-03    -295.800E-03     600.147E-03    -305.392E-03     27.9342E-03     2.00636E+06    -283.546E+03    -5.37733E+06    -5.02582E+06    -635.063E+03     2.00636E+06    -225.863E+03         69.5143
             980     5.87953E-03     23.3366E-03         2.10673    -612.928E-03    -622.311E-03    -618.713E-03         2.10650    -616.293E-03    -44.1265E-03     602.398E-03    -297.709E-03    -306.420E-03    -297.591E-03     602.280E-03    -306.420E-03     20.2001E-03     2.10434E+06    -866.909E+03    -5.65368E+06    -5.31689E+06    -1.20371E+06     2.10434E+06    -553.714E+03         69.5291
             981     5.13900E-03     23.3145E-03         2.09511    -605.111E-03    -619.151E-03    -607.216E-03         2.09487    -616.800E-03    -44.5732E-03     608.606E-03    -301.643E-03    -307.301E-03    -301.591E-03     608.555E-03    -307.301E-03     13.3090E-03    -424.928E+03    -2.19176E+06    -6.57407E+06    -6.18239E+06    -2.45119E+06    -557.185E+03    -710.059E+03         69.4680
             982     4.40105E-03     23.3030E-03         2.08830    -596.515E-03    -619.428E-03    -596.270E-03         2.08805    -619.428E-03    -23.1456E-03     615.431E-03    -305.417E-03    -309.009E-03    -305.399E-03     615.413E-03    -309.009E-03     7.57676E-03    -2.54788E+06    -3.54673E+06    -7.07155E+06    -6.61712E+06    -3.48566E+06    -3.06338E+06    -465.198E+03         69.3480
             983     3.66507E-03     23.3062E-03         2.08694    -589.459E-03    -624.912E-03    -589.389E-03         2.08687    -624.912E-03     7.18159E-03     615.687E-03    -307.424E-03    -310.821E-03    -307.420E-03     615.683E-03    -310.821E-03     2.98436E-03    -3.18750E+06    -4.26802E+06    -7.10710E+06    -6.54541E+06    -3.91862E+06    -4.09860E+06    -104.317E+03         69.2279
             984     2.93041E-03     23.3143E-03         2.10290    -595.730E-03    -633.105E-03    -595.294E-03         2.10246    -633.105E-03     42.2943E-03     618.249E-03    -308.285E-03    -311.946E-03    -308.284E-03     618.248E-03    -311.946E-03    -561.559E-06    -4.22640E+06    -5.74783E+06    -7.66011E+06    -7.12380E+06    -4.76595E+06    -5.74459E+06     126.365E+03         69.2047
             985     2.19655E-03     23.3272E-03         2.12845    -612.568E-03    -642.903E-03    -610.780E-03         2.12666    -642.903E-03    -22.9248E-03     622.522E-03    -309.829E-03    -312.313E-03    -309.826E-03     622.520E-03    -312.313E-03    -2.79177E-03    -4.79689E+06    -7.07619E+06    -8.25558E+06    -7.44960E+06    -5.60286E+06    -7.07619E+06     157.619E+03         69.2968
             986     1.46390E-03     23.3496E-03         2.16094    -636.177E-03    -654.629E-03    -634.260E-03         2.15662    -652.216E-03     44.8943E-03     624.164E-03    -311.682E-03    -312.357E-03    -311.679E-03     624.161E-03    -312.357E-03    -3.35702E-03    -5.77130E+06    -7.98424E+06    -8.66007E+06    -7.92019E+06    -6.50001E+06    -7.99542E+06     55.5105E+03         69.4306
             987     731.408E-06     23.3668E-03         2.21050    -573.369E-03    -768.029E-03    -735.969E-03         2.18050    -575.422E-03    -275.848E-03     624.792E-03    -311.011E-03    -313.290E-03    -311.010E-03     624.790E-03    -313.290E-03    -1.83799E-03    -6.23212E+06    -7.99962E+06    -8.93589E+06    -7.91221E+06    -7.24463E+06    -8.01079E+06    -180.308E+03         69.5611
             988     12.5971E-03     22.5000E-03         2.09212    -596.797E-03    -618.273E-03    -596.733E-03         2.09206    -618.273E-03     20.9513E-03     597.079E-03    -296.275E-03    -299.433E-03    -292.413E-03     593.217E-03    -299.433E-03     116.556E-03     6.49849E+06     3.37532E+06    -7.57830E+06    -1.26459E+06    -1.85310E+06     5.41319E+06    -183.280E+03         89.3696
             989     11.8522E-03     22.2839E-03         2.08631    -590.306E-03    -620.589E-03    -590.227E-03         2.08623    -620.589E-03     6.97169E-03     595.547E-03    -295.902E-03    -300.251E-03    -292.341E-03     591.985E-03    -300.251E-03     111.044E-03     6.55304E+06     4.25239E+06    -7.23233E+06    -1.10076E+06    -768.179E+03     5.44204E+06     459.988E+03         85.6866
             990     11.0946E-03     22.1278E-03         2.08842    -588.560E-03    -623.385E-03    -588.534E-03         2.08840    -623.385E-03    -13.9385E-03     595.180E-03    -294.738E-03    -300.790E-03    -292.473E-03     592.915E-03    -300.790E-03     89.6187E-03     6.77411E+06     3.89631E+06    -6.88012E+06    -1.60238E+06     264.554E+03     5.12813E+06    -263.994E+03         80.8687
             991     10.3431E-03     21.9805E-03         2.10321    -600.349E-03    -626.016E-03    -600.306E-03         2.10316    -626.016E-03    -10.0305E-03     596.994E-03    -293.675E-03    -300.978E-03    -291.933E-03     595.252E-03    -300.978E-03     78.2816E-03     6.78023E+06     3.84802E+06    -6.65926E+06    -2.06424E+06     931.394E+03     5.10183E+06    -160.285E+03         76.3631
             992     9.59734E-03     21.8647E-03         2.12540    -620.572E-03    -630.647E-03    -623.639E-03         2.12533    -627.509E-03     509.480E-06     597.052E-03    -293.812E-03    -300.864E-03    -292.610E-03     595.850E-03    -300.864E-03     65.1795E-03     6.54666E+06     3.82848E+06    -6.88951E+06    -3.01353E+06     1.56884E+06     4.93032E+06     380.971E+03         73.0012
             993     8.85304E-03     21.7599E-03         2.14457    -627.469E-03    -640.922E-03    -640.691E-03         2.14434    -627.469E-03     37.7216E-03     595.990E-03    -293.741E-03    -301.151E-03    -292.890E-03     595.139E-03    -301.151E-03     54.7644E-03     5.13317E+06     3.21804E+06    -6.17650E+06    -3.32625E+06     1.56196E+06     3.93901E+06    -196.401E+03         70.8858
             994     8.10837E-03     21.6684E-03         2.15238    -626.217E-03    -649.905E-03    -649.677E-03         2.15216    -626.217E-03     39.4979E-03     595.466E-03    -292.854E-03    -302.903E-03    -292.291E-03     594.904E-03    -302.903E-03     44.3883E-03     3.89773E+06     2.85769E+06    -5.44894E+06    -3.78287E+06     1.41980E+06     3.66955E+06     58.8077E+03         69.8894
             995     7.36462E-03     21.5949E-03         2.14861    -624.400E-03    -647.529E-03    -647.316E-03         2.14839    -624.400E-03     32.6756E-03     596.777E-03    -294.118E-03    -304.530E-03    -293.777E-03     596.437E-03    -304.530E-03     34.4293E-03     3.86913E+06     1.54045E+06    -5.00429E+06    -4.20250E+06     738.661E+03     3.86913E+06    -251.678E+03         69.5832
             996     6.62174E-03     21.5336E-03         2.13477    -620.203E-03    -636.528E-03    -633.323E-03         2.13447    -623.103E-03    -344.426E-06     599.775E-03    -295.629E-03    -305.378E-03    -295.442E-03     599.588E-03    -305.378E-03     25.5048E-03     2.56806E+06     3.46467E+03    -5.09031E+06    -4.69304E+06    -393.807E+03     2.56806E+06    -772.084E+03         69.5519
             997     5.88014E-03     21.4905E-03         2.11763    -614.103E-03    -626.953E-03    -617.559E-03         2.11742    -623.284E-03    -9.28793E-03     601.675E-03    -297.119E-03    -306.025E-03    -297.029E-03     601.585E-03    -306.025E-03     17.3815E-03     832.519E+03    -622.999E+03    -6.07940E+06    -5.58532E+06    -1.11707E+06     832.519E+03    -818.145E+03         69.5390
             998     5.13792E-03     21.4642E-03         2.10576    -603.711E-03    -625.522E-03    -603.496E-03         2.10555    -625.522E-03    -10.6168E-03     607.732E-03    -300.537E-03    -307.147E-03    -300.505E-03     607.699E-03    -307.147E-03     9.97919E-03    -1.46129E+06    -3.09010E+06    -7.14528E+06    -6.56368E+06    -2.88544E+06    -2.24755E+06    -889.782E+03         69.4496
             999     4.40011E-03     21.4490E-03         2.10310    -595.426E-03    -630.221E-03    -594.934E-03         2.10261    -630.221E-03     15.4961E-03     614.870E-03    -304.579E-03    -309.337E-03    -304.570E-03     614.862E-03    -309.337E-03     4.03002E-03    -3.35323E+06    -4.92823E+06    -7.59611E+06    -7.04507E+06    -4.22144E+06    -4.61106E+06    -804.193E+03         69.3167
            1000     3.66376E-03     21.4480E-03         2.11093    -596.528E-03    -637.353E-03    -596.139E-03         2.11054    -637.353E-03     31.0795E-03     615.833E-03    -307.378E-03    -311.172E-03    -307.376E-03     615.830E-03    -311.172E-03    -284.366E-06    -3.89883E+06    -4.98097E+06    -7.83781E+06    -7.24877E+06    -4.49111E+06    -4.97773E+06    -467.888E+03         69.2083
            1001     2.92920E-03     21.4554E-03         2.13507    -609.771E-03    -646.512E-03    -607.793E-03         2.13288    -646.307E-03     92.8637E-03     619.105E-03    -308.537E-03    -312.136E-03    -308.533E-03     619.100E-03    -312.136E-03    -3.22094E-03    -4.39552E+06    -5.77681E+06    -8.16329E+06    -7.54678E+06    -5.01527E+06    -5.77357E+06    -152.485E+03         69.2106
            1002     2.19633E-03     21.4705E-03         2.16591    -631.141E-03    -657.811E-03    -627.218E-03         2.16015    -655.974E-03    -38.0686E-03     623.039E-03    -310.295E-03    -312.200E-03    -310.289E-03     623.033E-03    -312.200E-03    -4.52331E-03    -4.92972E+06    -6.86618E+06    -8.78941E+06    -7.99427E+06    -5.72486E+06    -6.86618E+06     12.3054E+03         69.3286
            1003     1.46363E-03     21.4837E-03         2.20858    -652.993E-03    -680.669E-03    -655.205E-03         2.19297    -662.850E-03     112.721E-03     624.041E-03    -311.775E-03    -312.141E-03    -311.770E-03     624.036E-03    -312.141E-03    -4.25664E-03    -4.96659E+06    -7.49368E+06    -8.89684E+06    -7.73260E+06    -6.13082E+06    -7.49368E+06     233.679E+03         69.4830
            1004     731.989E-06     21.4996E-03         2.29877    -572.107E-03    -850.995E-03    -757.760E-03         2.20554    -572.107E-03    -446.729E-03     624.209E-03    -310.990E-03    -312.882E-03    -310.987E-03     624.206E-03    -312.882E-03    -2.82732E-03    -6.24776E+06    -8.35627E+06    -9.88939E+06    -8.44743E+06    -7.68972E+06    -8.35627E+06     184.849E+03         69.6245
            1005     12.5959E-03     20.6930E-03         2.10556    -599.780E-03    -624.813E-03    -599.755E-03         2.10554    -624.813E-03     8.09779E-03     596.638E-03    -295.644E-03    -299.466E-03    -291.781E-03     592.775E-03    -299.466E-03     116.494E-03     8.42640E+06     3.86739E+06    -8.84451E+06    -903.921E+03    -1.85051E+06     6.20371E+06     730.912E+03         89.4558
            1006     11.8480E-03     20.4664E-03         2.10872    -604.509E-03    -626.956E-03    -604.472E-03         2.10869    -626.956E-03    -1.51871E-03     596.717E-03    -296.882E-03    -300.180E-03    -293.362E-03     593.197E-03    -300.180E-03     110.351E-03     8.09488E+06     4.79499E+06    -8.61599E+06    -1.35362E+06    -655.578E+03     6.28308E+06    -394.030E+03         85.7802
            1007     11.0944E-03     20.3111E-03         2.11770    -607.095E-03    -628.892E-03    -607.066E-03         2.11767    -628.892E-03    -15.0513E-03     596.128E-03    -296.032E-03    -300.766E-03    -293.860E-03     593.956E-03    -300.766E-03     87.8304E-03     8.36165E+06     5.27570E+06    -8.61092E+06    -1.28873E+06     300.295E+03     6.01487E+06     118.759E+03         80.9753
            1008     10.3422E-03     20.1674E-03         2.12531    -613.699E-03    -630.524E-03    -613.686E-03         2.12529    -630.524E-03     131.553E-06     598.143E-03    -295.155E-03    -301.054E-03    -293.471E-03     596.459E-03    -301.054E-03     77.1611E-03     8.70691E+06     5.28173E+06    -8.75354E+06    -2.05242E+06     1.24462E+06     6.04289E+06     115.909E+03         76.4847
            1009     9.59925E-03     20.0426E-03         2.13098    -618.036E-03    -632.590E-03    -618.756E-03         2.13094    -631.830E-03     17.1300E-03     598.137E-03    -295.429E-03    -300.664E-03    -294.260E-03     596.968E-03    -300.664E-03     64.3657E-03     8.15583E+06     4.49604E+06    -7.51701E+06    -2.05800E+06     1.63899E+06     5.55387E+06    -623.958E+03         73.1344
            1010     8.85478E-03     19.9337E-03         2.13422    -615.322E-03    -635.896E-03    -617.786E-03         2.13397    -633.181E-03     45.8709E-03     596.129E-03    -295.204E-03    -300.860E-03    -294.402E-03     595.327E-03    -300.860E-03     53.1609E-03     6.07213E+06     3.72117E+06    -6.02422E+06    -2.72334E+06     1.38627E+06     5.10615E+06    -142.999E+03         71.0213
            1011     8.11165E-03     19.8446E-03         2.13516    -613.078E-03    -640.843E-03    -618.814E-03         2.13491    -634.860E-03     41.3773E-03     595.806E-03    -294.358E-03    -302.357E-03    -293.849E-03     595.297E-03    -302.357E-03     42.2038E-03     4.52015E+06     3.13060E+06    -4.74224E+06    -3.33414E+06     1.72251E+06     4.52015E+06    -520.146E+03         70.0219
            1012     7.36904E-03     19.7674E-03         2.13877    -613.529E-03    -643.136E-03    -619.546E-03         2.13854    -636.892E-03     36.5844E-03     597.129E-03    -295.562E-03    -303.662E-03    -295.275E-03     596.842E-03    -303.662E-03     31.4619E-03     3.13248E+06     1.11634E+06    -4.25189E+06    -3.83219E+06     1.14077E+06     2.68836E+06    -685.935E+03         69.6997
            1013     6.62672E-03     19.7040E-03         2.14693    -622.351E-03    -641.309E-03    -624.130E-03         2.14649    -639.094E-03    -4.42411E-03     599.566E-03    -296.337E-03    -304.513E-03    -296.200E-03     599.429E-03    -304.513E-03     21.4695E-03     1.95656E+06    -187.737E+03    -5.15072E+06    -4.72773E+06    -166.610E+03     1.51244E+06    -525.617E+03         69.6235
            1014     5.88529E-03     19.6568E-03         2.15742    -631.982E-03    -643.561E-03    -634.453E-03         2.15709    -640.758E-03    -17.8924E-03     601.143E-03    -297.142E-03    -304.992E-03    -297.091E-03     601.092E-03    -304.992E-03     12.4405E-03     755.786E+03    -704.104E+03    -6.28850E+06    -5.74488E+06    -1.24773E+06     755.786E+03    -581.384E+03         69.5492
            1015     5.14392E-03     19.6243E-03         2.16442    -630.675E-03    -651.854E-03    -640.327E-03         2.16372    -641.509E-03    -37.3325E-03     606.427E-03    -300.275E-03    -306.115E-03    -300.264E-03     606.415E-03    -306.115E-03     4.25252E-03    -1.22515E+06    -2.87512E+06    -7.02543E+06    -6.32626E+06    -2.78803E+06    -2.01141E+06    -610.792E+03         69.3983
            1016     4.40523E-03     19.6079E-03         2.17102    -626.165E-03    -662.711E-03    -646.578E-03         2.16997    -641.252E-03    -3.49281E-03     613.005E-03    -304.033E-03    -308.299E-03    -304.026E-03     612.999E-03    -308.299E-03    -2.23725E-03    -3.57237E+06    -5.07763E+06    -7.58304E+06    -6.92009E+06    -4.33118E+06    -4.98177E+06    -498.564E+03         69.2176
            1017     3.66841E-03     19.6031E-03         2.17521    -629.818E-03    -663.987E-03    -653.261E-03         2.17408    -639.413E-03    -1.60056E-03     613.728E-03    -306.256E-03    -309.875E-03    -306.240E-03     613.712E-03    -309.875E-03    -6.47106E-03    -4.68543E+06    -6.14718E+06    -8.22407E+06    -7.58233E+06    -5.32717E+06    -6.14718E+06    -468.847E+03         69.0809
            1018     2.93327E-03     19.6013E-03         2.17376    -634.008E-03    -656.548E-03    -650.181E-03         2.16966    -636.273E-03     88.2960E-03     616.551E-03    -307.261E-03    -310.331E-03    -307.237E-03     616.527E-03    -310.331E-03    -8.59866E-03    -4.67614E+06    -6.57803E+06    -8.61763E+06    -7.74274E+06    -5.55103E+06    -6.57803E+06    -548.019E+03         69.0619
            1019     2.19826E-03     19.6069E-03         2.16865    -632.811E-03    -653.988E-03    -643.676E-03         2.15834    -632.811E-03    -54.6356E-03     619.474E-03    -308.924E-03    -310.206E-03    -308.991E-03     619.451E-03    -310.115E-03    -8.68521E-03    -4.81446E+06    -6.98215E+06    -8.97800E+06    -7.80269E+06    -5.98978E+06    -6.98215E+06    -504.556E+03         69.1620
            1020     1.46531E-03     19.6196E-03         2.17854    -628.911E-03    -668.118E-03    -638.144E-03         2.14856    -628.911E-03     165.596E-03     620.139E-03    -309.965E-03    -310.291E-03    -310.041E-03     620.124E-03    -310.200E-03    -6.91477E-03    -5.40971E+06    -7.58400E+06    -9.50526E+06    -8.13310E+06    -6.78188E+06    -7.58400E+06    -17.9362E+03         69.3048
            1021     732.144E-06     19.6364E-03         2.30121    -560.466E-03    -857.412E-03    -692.931E-03         2.13673    -560.466E-03    -582.636E-03     620.584E-03    -309.525E-03    -310.917E-03    -309.520E-03     620.578E-03    -310.917E-03    -3.93721E-03    -5.29271E+06    -7.79681E+06    -9.68711E+06    -7.60687E+06    -7.37295E+06    -7.79681E+06     506.728E+03         69.4366
            1022     12.5934E-03     18.8809E-03         2.13197    -612.416E-03    -633.908E-03    -615.467E-03         2.13194    -630.832E-03     8.38521E-03     596.840E-03    -296.472E-03    -299.366E-03    -292.710E-03     593.078E-03    -299.366E-03     114.899E-03     9.14446E+06     3.19119E+06    -9.44125E+06    -767.652E+03    -1.56364E+06     5.22569E+06     845.068E+03         89.6077
            1023     11.8507E-03     18.6510E-03         2.14397    -626.497E-03    -638.017E-03    -632.698E-03         2.14394    -631.777E-03    -2.86446E-03     596.524E-03    -297.213E-03    -300.000E-03    -293.739E-03     593.050E-03    -300.000E-03     109.613E-03     9.47478E+06     4.28263E+06    -9.07957E+06    -829.788E+03    -459.264E+03     5.96689E+06    -596.255E+03         85.9433
            1024     11.0945E-03     18.4953E-03         2.14800    -625.047E-03    -635.958E-03    -628.782E-03         2.14796    -632.188E-03    -18.9856E-03     596.190E-03    -296.427E-03    -300.555E-03    -294.293E-03     594.057E-03    -300.555E-03     87.1011E-03     10.1143E+06     4.93777E+06    -9.78933E+06    -1.37816E+06     767.767E+03     5.87310E+06    -570.570E+03         81.1490
            1025     10.3450E-03     18.3486E-03         2.14638    -626.810E-03    -633.897E-03    -628.062E-03         2.14636    -632.627E-03    -10.4010E-03     598.980E-03    -296.555E-03    -300.964E-03    -294.886E-03     597.312E-03    -300.964E-03     76.9133E-03     10.3399E+06     4.97752E+06    -9.52825E+06    -1.07155E+06     1.62057E+06     5.24015E+06    -232.418E+03         76.6747
            1026     9.60110E-03     18.2209E-03         2.13726    -618.286E-03    -634.089E-03    -618.925E-03         2.13724    -633.424E-03    -6.13825E-03     598.962E-03    -297.423E-03    -300.351E-03    -296.277E-03     597.816E-03    -300.351E-03     63.7464E-03     8.31305E+06     4.70394E+06    -8.71633E+06    -2.23821E+06     1.27563E+06     5.26324E+06    -287.257E+03         73.3431
            1027     8.86004E-03     18.1103E-03         2.12735    -603.546E-03    -635.333E-03    -603.445E-03         2.12725    -635.333E-03     17.8719E-03     597.019E-03    -297.719E-03    -300.221E-03    -296.970E-03     596.269E-03    -300.221E-03     51.4144E-03     6.10339E+06     3.46000E+06    -6.29014E+06    -2.79170E+06     1.33764E+06     4.72732E+06    -685.765E+03         71.2417
            1028     8.11877E-03     18.0145E-03         2.12513    -601.240E-03    -638.334E-03    -601.063E-03         2.12495    -638.334E-03     3.74767E-03     597.582E-03    -297.268E-03    -301.557E-03    -296.830E-03     597.144E-03    -301.557E-03     38.9921E-03     3.62450E+06     1.67121E+06    -4.61716E+06    -3.39888E+06     1.45011E+06     2.62732E+06    -226.852E+03         70.2355
            1029     7.37729E-03     17.9378E-03         2.13266    -604.469E-03    -641.824E-03    -604.345E-03         2.13254    -641.824E-03    -4.42897E-03     598.625E-03    -298.109E-03    -302.260E-03    -297.901E-03     598.416E-03    -302.260E-03     26.4684E-03     2.14516E+06     330.850E+03    -4.88455E+06    -4.60751E+06     991.524E+03     1.20745E+06    -103.628E+03         69.8791
            1030     6.63748E-03     17.8710E-03         2.15217    -619.137E-03    -645.041E-03    -618.597E-03         2.15163    -645.041E-03    -40.4146E-03     599.673E-03    -298.299E-03    -302.578E-03    -298.225E-03     599.599E-03    -302.578E-03     14.9422E-03     1.69036E+06    -785.450E+03    -5.71250E+06    -5.23916E+06     178.728E+03     252.842E+03    -500.165E+03         69.7389
            1031     5.89794E-03     17.8247E-03         2.17579    -639.156E-03    -649.722E-03    -641.669E-03         2.17528    -646.694E-03    -50.0862E-03     600.226E-03    -298.415E-03    -302.984E-03    -298.397E-03     600.208E-03    -302.984E-03     4.69223E-03     708.065E+03    -1.32020E+06    -6.27878E+06    -5.69883E+06    -906.755E+03    -285.329E+03    -663.104E+03         69.5708
            1032     5.15585E-03     17.7920E-03         2.19672    -645.746E-03    -662.835E-03    -662.078E-03         2.19596    -645.746E-03    -60.8987E-03     604.605E-03    -300.711E-03    -303.810E-03    -300.694E-03     604.589E-03    -303.810E-03    -4.14814E-03    -1.96774E+06    -3.10129E+06    -7.14402E+06    -6.53034E+06    -3.30236E+06    -2.38035E+06    -416.412E+03         69.3113
            1033     4.41855E-03     17.7691E-03         2.20767    -641.554E-03    -678.535E-03    -677.220E-03         2.20636    -641.554E-03    -9.21021E-03     609.791E-03    -303.246E-03    -305.403E-03    -303.206E-03     609.751E-03    -305.403E-03    -10.6922E-03    -3.80449E+06    -4.89011E+06    -7.57551E+06    -6.92116E+06    -4.59704E+06    -4.75191E+06    -246.207E+03         69.0231
            1034     3.68093E-03     17.7568E-03         2.19803    -634.403E-03    -677.477E-03    -676.023E-03         2.19657    -634.403E-03    -13.9225E-03     609.059E-03    -304.186E-03    -306.308E-03    -304.122E-03     608.994E-03    -306.308E-03    -14.6277E-03    -4.51399E+06    -5.76906E+06    -7.94917E+06    -7.23518E+06    -5.27032E+06    -5.72671E+06    -316.038E+03         68.7964
            1035     2.94356E-03     17.7503E-03         2.17823    -625.957E-03    -665.067E-03    -660.246E-03         2.17341    -625.957E-03     79.6505E-03     610.569E-03    -304.604E-03    -306.305E-03    -304.642E-03     610.494E-03    -306.192E-03    -16.0407E-03    -4.65080E+06    -6.78267E+06    -8.64801E+06    -7.43500E+06    -5.86382E+06    -6.78267E+06    -405.439E+03         68.6988
            1036     2.20733E-03     17.7575E-03         2.15621    -618.517E-03    -650.322E-03    -637.506E-03         2.14340    -618.517E-03    -73.2673E-03     611.819E-03    -305.422E-03    -306.224E-03    -305.778E-03     611.756E-03    -305.804E-03    -14.8934E-03    -4.96078E+06    -7.36207E+06    -9.15818E+06    -7.66901E+06    -6.44995E+06    -7.36207E+06    -305.637E+03         68.7146
            1037     1.47055E-03     17.7702E-03         2.15831    -613.636E-03    -658.429E-03    -620.477E-03         2.12036    -613.636E-03     181.075E-03     611.662E-03    -305.774E-03    -306.259E-03    -306.042E-03     611.623E-03    -305.952E-03    -11.5390E-03    -5.48310E+06    -7.51849E+06    -9.40939E+06    -7.84754E+06    -7.04495E+06    -7.51849E+06    -192.731E+03         68.7837
            1038     735.334E-06     17.7763E-03         2.30977    -579.369E-03    -844.737E-03    -644.142E-03         2.10917    -579.369E-03    -631.056E-03     612.129E-03    -305.386E-03    -306.650E-03    -305.370E-03     612.113E-03    -306.650E-03    -6.76814E-03    -5.30542E+06    -7.75692E+06    -10.2784E+06    -7.74735E+06    -7.83652E+06    -7.75692E+06    -580.642E+03         68.8693
            1039     12.5997E-03     17.0618E-03         2.14905    -620.033E-03    -637.301E-03    -623.094E-03         2.14903    -634.225E-03     9.84209E-03     597.064E-03    -296.947E-03    -299.342E-03    -293.106E-03     593.223E-03    -299.342E-03     115.657E-03     10.4633E+06     3.75724E+06    -9.93438E+06    -160.667E+03    -678.102E+03     5.12497E+06     1.29872E+06         89.8335
            1040     11.8517E-03     16.8275E-03         2.15735    -632.055E-03    -640.847E-03    -638.264E-03         2.15732    -634.607E-03    -4.70546E-03     596.428E-03    -297.088E-03    -299.836E-03    -293.411E-03     592.751E-03    -299.836E-03     112.579E-03     10.2416E+06     3.54118E+06    -10.7217E+06    -783.365E+03    -714.137E+03     4.55868E+06    -678.759E+03         86.1803
            1041     11.0951E-03     16.6704E-03         2.16014    -630.474E-03    -638.470E-03    -634.197E-03         2.16009    -634.700E-03    -21.4826E-03     597.428E-03    -297.376E-03    -300.424E-03    -295.156E-03     595.208E-03    -300.424E-03     88.9433E-03     10.8654E+06     2.95546E+06    -11.3803E+06    -946.178E+03    -241.429E+03     3.62816E+06    -443.853E+03         81.3999
            1042     10.3462E-03     16.5208E-03         2.15619    -629.491E-03    -636.388E-03    -630.727E-03         2.15615    -635.118E-03    -13.2107E-03     601.160E-03    -298.454E-03    -300.961E-03    -296.988E-03     599.470E-03    -300.736E-03     77.4892E-03     10.0876E+06     2.80431E+06    -11.1280E+06    -2.51887E+06     1.47847E+06     2.80431E+06    -124.602E+03         76.9491
            1043     9.60640E-03     16.3911E-03         2.15234    -627.351E-03    -636.526E-03    -627.992E-03         2.15231    -635.861E-03    -6.73056E-03     600.619E-03    -298.734E-03    -301.419E-03    -299.410E-03     599.528E-03    -299.652E-03     62.2172E-03      8.4425E+06     1.99068E+06    -9.56229E+06    -2.45686E+06     1.33707E+06     1.99068E+06    -187.926E+03         73.6440
            1044     8.86575E-03     16.2788E-03         2.15184    -622.005E-03    -637.322E-03    -622.099E-03         2.15166    -637.041E-03     24.6980E-03     599.306E-03    -299.017E-03    -302.072E-03    -301.159E-03     598.650E-03    -299.274E-03     48.0184E-03     4.65923E+06     1.21581E+06    -7.09945E+06    -3.11416E+06     645.994E+03     1.24376E+06     113.118E+03         71.5647
            1045     8.12906E-03     16.1832E-03         2.15341    -623.140E-03    -640.115E-03    -624.516E-03         2.15313    -638.452E-03     20.8640E-03     600.730E-03    -299.367E-03    -302.743E-03    -301.545E-03     600.399E-03    -300.232E-03     33.5806E-03     2.69524E+06     1.11669E+06    -4.77304E+06    -3.95713E+06     1.29796E+06     1.69805E+06    -183.706E+03         70.5536
            1046     7.39335E-03     16.1070E-03         2.15840    -625.719E-03    -642.263E-03    -627.863E-03         2.15799    -639.711E-03     26.5713E-03     601.144E-03    -299.425E-03    -303.088E-03    -302.085E-03     601.023E-03    -300.307E-03     19.3444E-03     2.83232E+06     696.476E+03    -4.06020E+06    -3.76057E+06     1.35078E+06     1.87839E+06    -484.085E+03         70.1312
            1047     6.65495E-03     16.0416E-03         2.16207    -627.991E-03    -642.102E-03    -628.564E-03         2.16148    -640.932E-03     234.105E-06     600.678E-03    -299.085E-03    -302.586E-03    -301.649E-03     600.649E-03    -299.993E-03     6.19338E-03     2.63732E+06    -219.513E+03    -4.87135E+06    -4.00937E+06     372.237E+03     1.18359E+06    -319.220E+03         69.8731
            1048     5.91754E-03     15.9965E-03         2.16709    -633.021E-03    -642.338E-03    -632.759E-03         2.16660    -642.113E-03    -8.40296E-03     600.067E-03    -299.007E-03    -302.483E-03    -301.272E-03     600.044E-03    -300.194E-03    -5.31660E-03     430.445E+03    -1.92400E+06    -5.74957E+06    -5.03094E+06    -1.39809E+06    -814.102E+03    -56.3734E+03         69.5724
            1049     5.17856E-03     15.9609E-03         2.17370    -630.836E-03    -649.808E-03    -637.032E-03         2.17315    -643.063E-03    -19.2969E-03     602.058E-03    -299.670E-03    -302.465E-03    -301.693E-03     601.985E-03    -300.369E-03    -14.7907E-03    -2.29132E+06    -3.69976E+06    -6.49325E+06    -5.78616E+06    -3.33371E+06    -3.36446E+06     139.702E+03         69.1684
            1050     4.43995E-03     15.9395E-03         2.17818    -626.911E-03    -659.204E-03    -641.372E-03         2.17712    -643.683E-03     16.8890E-03     603.805E-03    -300.347E-03    -302.401E-03    -301.838E-03     603.668E-03    -300.772E-03    -21.4058E-03    -3.52710E+06    -4.89850E+06    -7.33100E+06    -6.44218E+06    -4.45826E+06    -4.85615E+06     8.80914E+03         68.7158
            1051     3.70098E-03     15.9272E-03         2.18095    -627.446E-03    -662.332E-03    -644.679E-03         2.17969    -643.832E-03     5.75543E-03     601.402E-03    -300.393E-03    -302.112E-03    -301.502E-03     601.225E-03    -300.827E-03    -24.5902E-03    -4.03635E+06    -5.37085E+06    -7.74162E+06    -6.79716E+06    -5.02315E+06    -5.32851E+06    -65.5171E+03         68.3287
            1052     2.96171E-03     15.9255E-03         2.18426    -630.312E-03    -662.636E-03    -644.962E-03         2.17987    -643.594E-03     89.8087E-03     601.264E-03    -299.823E-03    -301.342E-03    -300.901E-03     601.085E-03    -300.085E-03    -24.8841E-03    -4.49588E+06    -6.10569E+06    -8.69425E+06    -7.38742E+06    -5.80271E+06    -6.10569E+06     40.1582E+03         68.0904
            1053     2.22091E-03     15.9232E-03         2.18882    -638.603E-03    -658.447E-03    -642.461E-03         2.17775    -643.516E-03    -55.4245E-03     600.520E-03    -299.326E-03    -300.730E-03    -300.587E-03     600.377E-03    -299.326E-03    -22.1566E-03    -5.20881E+06    -7.10008E+06    -9.41015E+06    -7.82227E+06    -6.79669E+06    -7.10008E+06    -99.8278E+03         67.9761
            1054     1.48136E-03     15.9332E-03         2.21032    -643.859E-03    -676.130E-03    -642.218E-03         2.17641    -643.859E-03     188.555E-03     598.727E-03    -299.013E-03    -299.884E-03    -299.767E-03     598.645E-03    -299.047E-03    -16.6042E-03    -5.09498E+06    -7.45562E+06    -9.14445E+06    -7.34473E+06    -6.89470E+06    -7.45562E+06    -177.219E+03         67.9325
            1055     740.639E-06     15.9467E-03         2.35481    -637.450E-03    -828.510E-03    -649.758E-03         2.17606    -637.450E-03    -582.096E-03     598.054E-03    -298.402E-03    -299.643E-03    -298.532E-03     598.026E-03    -299.485E-03    -9.24972E-03    -5.80202E+06    -8.25512E+06    -10.9234E+06    -8.22554E+06    -8.49987E+06    -8.25512E+06    -285.884E+03         67.9443
            1056     12.5962E-03     15.2556E-03         2.14443    -611.404E-03    -634.667E-03    -611.388E-03         2.14442    -634.667E-03     6.26791E-03     598.131E-03    -297.146E-03    -299.582E-03    -293.462E-03     594.115E-03    -299.250E-03     117.955E-03     12.7916E+06     4.10418E+06    -11.5949E+06     190.298E+03    -198.417E+03     5.30890E+06     854.533E+03         90.1468
            1057     11.8516E-03     15.0123E-03         2.14379    -617.399E-03    -635.947E-03    -617.374E-03         2.14377    -635.947E-03     2.98653E-03     598.337E-03    -298.289E-03    -300.045E-03    -294.730E-03     594.446E-03    -299.713E-03     115.689E-03     12.2424E+06     3.18877E+06    -12.7720E+06    -28.9065E+03    -845.434E+03     3.53356E+06     1.11973E+06         86.5154
            1058     11.0947E-03     14.8518E-03         2.14634    -614.740E-03    -637.473E-03    -614.707E-03         2.14630    -637.473E-03    -12.3509E-03     599.774E-03    -299.032E-03    -301.010E-03    -297.488E-03     597.522E-03    -300.301E-03     89.8467E-03     11.8711E+06     2.71859E+06    -13.7309E+06    -1.40814E+06    -451.596E+03     2.71859E+06     590.367E+03         81.7611
            1059     10.3508E-03     14.6935E-03         2.15374    -619.416E-03    -639.265E-03    -619.384E-03         2.15370    -639.265E-03    -1.92288E-03     604.848E-03    -299.684E-03    -303.029E-03    -300.819E-03     603.158E-03    -300.203E-03     77.6652E-03     11.4006E+06     1.43143E+06    -12.1546E+06    -1.19860E+06     444.572E+03     1.43143E+06     74.8015E+03         77.3356
            1060     9.61241E-03     14.5629E-03         2.16606    -633.298E-03    -640.614E-03    -633.284E-03         2.16605    -640.614E-03     11.7265E-03     604.619E-03    -298.625E-03    -305.393E-03    -304.385E-03     603.610E-03    -298.625E-03     59.9316E-03     9.08665E+06     1.03263E+06    -9.80364E+06    -1.86734E+06     1.15034E+06     1.03263E+06     833.088E+03         74.0507
            1061     8.87875E-03     14.4492E-03         2.17986    -639.647E-03    -643.938E-03    -642.200E-03         2.17964    -641.163E-03     40.1873E-03     602.802E-03    -298.014E-03    -307.466E-03    -306.929E-03     602.266E-03    -298.014E-03     43.3715E-03     5.47349E+06     2.10732E+06    -5.17423E+06    -1.67954E+06     1.95085E+06     2.13527E+06    -13.5261E+03         71.9889
            1062     8.14589E-03     14.3479E-03         2.18728    -640.908E-03    -650.805E-03    -650.525E-03         2.18700    -640.908E-03     31.6148E-03     604.114E-03    -298.043E-03    -307.760E-03    -307.541E-03     603.895E-03    -298.043E-03     26.6110E-03     2.93561E+06     1.21413E+06    -2.19821E+06    -1.37617E+06     1.53221E+06     1.79549E+06    -603.739E+03         70.9664
            1063     7.41294E-03     14.2722E-03         2.18627    -640.065E-03    -651.253E-03    -650.887E-03         2.18591    -640.065E-03     33.6902E-03     603.433E-03    -297.241E-03    -307.684E-03    -307.632E-03     603.381E-03    -297.241E-03     10.2656E-03     1.99786E+06     4.29734E+03    -3.25781E+06    -2.36759E+06     554.229E+03     557.708E+03     96.6839E+03         70.4464
            1064     6.68062E-03     14.2090E-03         2.18085    -638.410E-03    -645.982E-03    -644.555E-03         2.18030    -639.289E-03     5.07599E-03     601.096E-03    -296.185E-03    -306.151E-03    -306.124E-03     601.070E-03    -296.185E-03    -4.32383E-03     1.66193E+06    -380.073E+03    -4.61323E+06    -3.36101E+06    -364.893E+03     394.526E+03     678.051E+03         70.0163
            1065     5.94641E-03     14.1637E-03         2.17082    -633.308E-03    -641.858E-03    -635.513E-03         2.17040    -639.232E-03    -9.42355E-03     598.357E-03    -295.286E-03    -303.951E-03    -303.859E-03     598.265E-03    -295.286E-03    -16.4274E-03     387.529E+03    -1.29319E+06    -5.11860E+06    -4.16239E+06    -1.50714E+06    -354.728E+03     824.439E+03         69.5359
            1066     5.20812E-03     14.1335E-03         2.15834    -620.930E-03    -640.908E-03    -620.236E-03         2.15765    -640.908E-03    -30.3179E-03     597.064E-03    -294.702E-03    -302.522E-03    -302.328E-03     596.870E-03    -294.702E-03    -25.5383E-03    -1.68762E+06    -2.78065E+06    -5.77159E+06    -4.78696E+06    -2.83611E+06    -2.61678E+06     824.117E+03         68.9650
            1067     4.47057E-03     14.1160E-03         2.15268    -611.311E-03    -645.236E-03    -610.423E-03         2.15179    -645.236E-03    -8.34674E-03     596.050E-03    -294.413E-03    -300.911E-03    -300.623E-03     595.763E-03    -294.413E-03    -31.6981E-03    -2.53194E+06    -4.58475E+06    -6.75671E+06    -5.42348E+06    -3.86518E+06    -4.58475E+06     744.174E+03         68.3380
            1068     3.72946E-03     14.1102E-03         2.15901    -611.649E-03    -652.249E-03    -610.681E-03         2.15804    -652.249E-03    -13.3192E-03     590.966E-03    -293.775E-03    -298.730E-03    -298.392E-03     590.628E-03    -293.775E-03    -34.3813E-03    -3.28175E+06    -5.59502E+06    -7.58745E+06    -6.17933E+06    -4.68988E+06    -5.59502E+06     683.810E+03         67.7514
            1069     2.98623E-03     14.1108E-03         2.18194    -626.289E-03    -661.124E-03    -623.185E-03         2.17883    -661.124E-03     61.0564E-03     588.171E-03    -292.374E-03    -296.017E-03    -295.695E-03     587.848E-03    -292.374E-03    -33.4957E-03    -3.59381E+06    -5.96762E+06    -8.06945E+06    -6.41307E+06    -5.25018E+06    -5.96762E+06     524.273E+03         67.3067
            1070     2.24240E-03     14.1190E-03         2.21864    -651.660E-03    -672.157E-03    -646.737E-03         2.21125    -669.690E-03    -48.5497E-03     585.735E-03    -290.917E-03    -293.896E-03    -293.652E-03     585.491E-03    -290.917E-03    -28.9845E-03    -3.97486E+06    -6.45087E+06    -8.84101E+06    -6.83426E+06    -5.98161E+06    -6.45087E+06     337.109E+03         67.0235
            1071     1.49495E-03     14.1256E-03         2.25902    -670.748E-03    -694.153E-03    -667.344E-03         2.23702    -675.551E-03     146.071E-03     582.061E-03    -289.934E-03    -291.946E-03    -291.807E-03     581.923E-03    -289.934E-03    -21.4220E-03    -5.03409E+06     -7.1183E+06    -9.32755E+06    -7.48443E+06    -6.87721E+06     -7.1183E+06     252.189E+03         66.8516
            1072     747.793E-06     14.1469E-03         2.37713    -683.818E-03    -796.960E-03    -671.266E-03         2.25144    -683.818E-03    -510.410E-03     579.649E-03    -288.818E-03    -290.850E-03    -289.393E-03     579.599E-03    -290.225E-03    -11.9245E-03    -5.33298E+06    -7.51322E+06    -9.72567E+06    -7.17599E+06    -7.88266E+06    -7.51322E+06     394.813E+03         66.7688
            1073     12.5969E-03     13.4450E-03         2.14287    -608.962E-03    -634.984E-03    -608.940E-03         2.14284    -634.984E-03     8.46202E-03     599.468E-03    -297.924E-03    -300.194E-03    -294.926E-03     595.417E-03    -299.141E-03     118.125E-03     14.2069E+06     2.03235E+06    -14.5721E+06     318.838E+03    -1.54400E+06     2.89229E+06     960.869E+03         90.5698
            1074     11.8550E-03     13.1911E-03         2.13846    -604.829E-03    -636.888E-03    -604.783E-03         2.13841    -636.888E-03     3.09570E-03     601.060E-03    -299.350E-03    -301.631E-03    -297.473E-03     597.036E-03    -299.484E-03     117.845E-03     13.9162E+06     2.64670E+06    -14.6460E+06    -507.344E+03    -222.418E+03     2.64670E+06     917.931E+03         86.9697
            1075     11.0968E-03     13.0317E-03         2.14156    -606.872E-03    -639.046E-03    -606.836E-03         2.14152    -639.046E-03    -12.7585E-03     603.793E-03    -299.592E-03    -304.268E-03    -301.858E-03     601.517E-03    -299.726E-03     90.7078E-03     15.0857E+06     1.76565E+06    -14.9272E+06     225.924E+03    -67.4141E+03     1.76565E+06     1.08807E+06         82.2448
            1076     10.3573E-03     12.8645E-03         2.15541    -616.558E-03    -640.950E-03    -616.537E-03         2.15539    -640.950E-03     1.92760E-03     609.549E-03    -299.231E-03    -308.165E-03    -306.525E-03     607.909E-03    -299.231E-03     76.7161E-03     13.9417E+06     2.69652E+06    -13.1240E+06    -513.376E+03     1.33102E+06     2.69652E+06     1.21476E+06         77.8239
            1077     9.62616E-03     12.7234E-03         2.17251    -633.617E-03    -643.236E-03    -634.890E-03         2.17249    -641.943E-03     6.84118E-03     609.228E-03    -297.270E-03    -311.208E-03    -310.317E-03     608.337E-03    -297.270E-03     56.3857E-03     10.5615E+06     3.07502E+06    -8.14430E+06     18.1776E+03     2.39898E+06     3.07502E+06    -356.405E+03         74.5203
            1078     8.89553E-03     12.6032E-03         2.18581    -641.456E-03    -646.400E-03    -645.807E-03         2.18563    -641.864E-03     31.0366E-03     607.220E-03    -296.004E-03    -313.713E-03    -313.293E-03     606.800E-03    -296.004E-03     38.2441E-03     5.16751E+06     843.626E+03    -3.35995E+06     94.2278E+03     1.71334E+06     843.626E+03     162.937E+03         72.4207
            1079     8.16915E-03     12.5012E-03         2.19330    -641.046E-03    -652.186E-03    -651.940E-03         2.19305    -641.046E-03     11.3669E-03     607.787E-03    -294.894E-03    -314.314E-03    -314.179E-03     607.652E-03    -294.894E-03     19.6362E-03     2.09264E+06    -719.689E+03    -2.98133E+06    -1.47339E+06     584.702E+03    -719.689E+03     1.47035E+06         71.3306
            1080     7.44232E-03     12.4307E-03         2.19305    -639.743E-03    -654.184E-03    -653.995E-03         2.19286    -639.743E-03     4.78703E-03     604.775E-03    -292.911E-03    -313.465E-03    -313.444E-03     604.754E-03    -292.911E-03     1.69962E-03     1.91935E+06    -519.512E+03    -3.85775E+06    -2.23708E+06     298.686E+03    -519.512E+03     1.47052E+06         70.6924
            1081     6.71354E-03     12.3811E-03         2.18616    -638.271E-03    -647.678E-03    -646.998E-03         2.18572    -638.508E-03    -16.9775E-03     599.850E-03    -291.095E-03    -310.334E-03    -310.274E-03     599.790E-03    -291.095E-03    -12.8328E-03     1.60691E+06    -197.764E+03    -4.13688E+06    -2.43753E+06    -92.4453E+03    -197.764E+03     1.30953E+06         70.0943
            1082     5.98217E-03     12.3466E-03         2.17661    -635.645E-03    -640.624E-03    -637.936E-03         2.17628    -637.998E-03    -36.6076E-03     593.910E-03    -289.001E-03    -305.879E-03    -305.705E-03     593.736E-03    -289.001E-03    -24.3988E-03     615.472E+03    -683.487E+03    -4.56972E+06    -3.08092E+06    -1.03719E+06    -519.620E+03     1.44465E+06         69.4320
            1083     5.24447E-03     12.3232E-03         2.16784    -629.084E-03    -638.675E-03    -628.578E-03         2.16733    -638.675E-03    -45.8340E-03     589.591E-03    -287.710E-03    -302.406E-03    -302.103E-03     589.288E-03    -287.710E-03    -32.6545E-03    -874.985E+03    -2.92638E+06    -5.38612E+06    -3.87550E+06    -2.54948E+06    -2.76252E+06     1.39378E+06         68.6955
            1084     4.50497E-03     12.3174E-03         2.16378    -621.565E-03    -641.022E-03    -620.826E-03         2.16304    -641.022E-03    -14.3423E-03     586.883E-03    -286.843E-03    -299.108E-03    -298.706E-03     586.480E-03    -286.843E-03    -37.6708E-03    -1.62683E+06    -4.69737E+06    -6.35237E+06    -4.26197E+06    -3.46900E+06    -4.94559E+06     1.62122E+06         67.9234
            1085     3.76255E-03     12.3176E-03         2.16809    -619.852E-03    -646.864E-03    -621.118E-03         2.16757    -645.072E-03     240.259E-06     579.169E-03    -285.478E-03    -295.031E-03    -294.588E-03     578.726E-03    -285.478E-03    -39.3281E-03    -1.58948E+06    -5.42733E+06    -6.87369E+06    -4.37472E+06    -3.84023E+06    -5.67555E+06     1.68742E+06         67.1746
            1086     3.01608E-03     12.3269E-03         2.18029    -628.571E-03    -652.968E-03    -629.378E-03         2.17825    -650.123E-03     62.9160E-03     571.622E-03    -282.953E-03    -289.313E-03    -288.903E-03     571.213E-03    -282.953E-03    -37.5207E-03    -1.56412E+06    -5.22441E+06    -7.13726E+06    -4.58671E+06    -4.11467E+06    -5.22441E+06     1.54766E+06         66.5279
            1087     2.26440E-03     12.3377E-03         2.19645    -641.268E-03    -656.956E-03    -637.951E-03         2.19208    -655.903E-03    -19.9422E-03     567.188E-03    -280.930E-03    -285.505E-03    -285.197E-03     566.881E-03    -280.930E-03    -32.1455E-03    -1.70394E+06    -4.95488E+06    -7.55233E+06    -4.86785E+06    -4.38842E+06    -4.95488E+06     1.46461E+06         66.0511
            1088     1.51212E-03     12.3568E-03         2.22156    -654.312E-03    -669.905E-03    -649.125E-03         2.20905    -662.582E-03     119.693E-03     563.513E-03    -280.151E-03    -283.210E-03    -283.038E-03     563.341E-03    -280.151E-03    -23.6733E-03    -2.83448E+06    -5.89104E+06    -7.99604E+06    -5.44511E+06    -5.38541E+06    -5.89104E+06     1.01821E+06         65.7360
            1089     756.762E-06     12.3771E-03         2.30996    -677.592E-03    -731.079E-03    -653.136E-03         2.23397    -679.543E-03    -383.399E-03     559.828E-03    -279.043E-03    -280.756E-03    -279.871E-03     559.765E-03    -279.866E-03    -13.3913E-03    -3.49036E+06    -5.99065E+06    -8.05213E+06    -5.15103E+06    -6.39146E+06    -5.99065E+06     444.304E+03         65.5549
            1090     12.5974E-03     11.6351E-03         2.15628    -621.112E-03    -636.113E-03    -621.099E-03         2.15627    -636.113E-03    -3.02059E-03     601.945E-03    -298.716E-03    -302.119E-03    -297.614E-03     597.797E-03    -299.073E-03     119.249E-03     15.4350E+06     532.448E+03    -19.1221E+06    -1.26035E+06    -3.31119E+06     1.41695E+06     42.9361E+03         91.0952
            1091     11.8549E-03     11.3713E-03         2.16003    -618.488E-03    -638.759E-03    -620.077E-03         2.15999    -637.138E-03    -6.95128E-03     605.835E-03    -299.184E-03    -306.563E-03    -302.429E-03     601.701E-03    -299.184E-03     119.399E-03     16.1990E+06     1.12093E+06    -18.0253E+06     210.712E+03    -2.03702E+06     1.12093E+06     1.03722E+06         87.5344
            1092     11.1001E-03     11.1989E-03         2.16667    -624.142E-03    -643.715E-03    -630.011E-03         2.16663    -637.810E-03    -15.7155E-03     609.763E-03    -298.662E-03    -311.006E-03    -308.874E-03     607.630E-03    -298.662E-03     88.3068E-03     18.1318E+06     1.78866E+06    -17.0689E+06    -450.375E+03     1.51330E+06     1.78866E+06     903.849E+03         82.8357
            1093     10.3721E-03     11.0193E-03         2.17084    -626.335E-03    -642.309E-03    -630.581E-03         2.17080    -638.026E-03     3.98438E-03     615.327E-03    -297.798E-03    -315.139E-03    -313.704E-03     613.892E-03    -297.798E-03     71.7230E-03     16.8132E+06     947.784E+03    -12.6907E+06     1.25722E+06     2.86523E+06     947.784E+03    -731.827E+03         78.3648
            1094     9.64494E-03     10.8747E-03         2.17112    -630.743E-03    -639.438E-03    -631.995E-03         2.17107    -638.145E-03     12.1281E-03     613.589E-03    -295.158E-03    -317.129E-03    -316.424E-03     612.884E-03    -295.158E-03     50.2263E-03     8.85107E+06    -1.31791E+06    -7.49858E+06     856.484E+03     496.006E+03    -1.31791E+06     1.14110E+06         74.9475
            1095     8.92118E-03     10.7507E-03         2.16931    -629.511E-03    -640.398E-03    -631.296E-03         2.16905    -638.357E-03     37.6973E-03     610.240E-03    -293.267E-03    -319.006E-03    -318.699E-03     609.932E-03    -293.267E-03     32.4554E-03     3.46838E+06    -367.667E+03    -3.94256E+06    -893.216E+03     410.989E+03    -359.613E+03     2.48727E+06         72.7001
            1096     8.19845E-03     10.6507E-03         2.16741    -621.531E-03    -642.056E-03    -624.155E-03         2.16713    -639.150E-03     32.7821E-03     608.652E-03    -291.586E-03    -318.610E-03    -318.531E-03     608.574E-03    -291.586E-03     14.0230E-03     3.52090E+06     1.37909E+06    -2.55928E+06    -498.765E+03     1.45234E+06     1.38714E+06     1.74342E+06         71.4429
            1097     7.47536E-03     10.5847E-03         2.17155    -621.812E-03    -646.254E-03    -627.344E-03         2.17128    -640.448E-03     32.1715E-03     602.668E-03    -288.732E-03    -316.128E-03    -316.115E-03     602.656E-03    -288.732E-03    -1.88104E-03     3.77253E+06     667.694E+03    -2.66318E+06    -90.5981E+03     1.19995E+06     667.694E+03     1.54775E+06         70.6561
            1098     6.74877E-03     10.5476E-03         2.17785    -628.463E-03    -645.352E-03    -631.778E-03         2.17751    -641.705E-03     15.2869E-03     595.948E-03    -285.993E-03    -311.266E-03    -311.207E-03     595.889E-03    -285.993E-03    -13.4256E-03     2.70244E+06    -597.956E+03    -3.88023E+06    -875.279E+03    -44.2437E+03    -856.222E+03     2.33102E+06         69.9330
            1099     6.01750E-03     10.5281E-03         2.18540    -637.014E-03    -643.916E-03    -638.176E-03         2.18523    -642.585E-03    -2.27562E-03     589.015E-03    -282.964E-03    -305.907E-03    -305.752E-03     588.860E-03    -282.964E-03    -22.8629E-03     1.69002E+06    -1.37534E+06    -4.60613E+06    -1.66649E+06    -991.358E+03    -1.63361E+06     2.70388E+06         69.1554
            1100     5.27927E-03     10.5255E-03         2.19698    -640.476E-03    -652.305E-03    -650.227E-03         2.19674    -642.318E-03    -10.5983E-03     582.812E-03    -281.519E-03    -301.670E-03    -301.409E-03     582.551E-03    -281.519E-03    -29.9688E-03     1.19656E+06    -3.38361E+06    -5.60369E+06    -2.14635E+06    -1.86993E+06    -3.77445E+06     2.91740E+06         68.3232
            1101     4.53909E-03     10.5357E-03         2.20683    -637.839E-03    -662.485E-03    -659.797E-03         2.20645    -640.143E-03     6.23900E-03     576.694E-03    -280.314E-03    -296.615E-03    -296.270E-03     576.349E-03    -280.314E-03    -34.3385E-03     327.599E+03    -4.89440E+06    -6.20259E+06    -2.47343E+06    -2.76249E+06    -5.53347E+06     2.69370E+06         67.4762
            1102     3.79265E-03     10.5560E-03         2.20482    -635.103E-03    -662.227E-03    -660.917E-03         2.20452    -636.109E-03     13.1841E-03     567.397E-03    -278.171E-03    -290.539E-03    -290.161E-03     567.019E-03    -278.171E-03    -35.8008E-03     382.059E+03    -4.77495E+06    -5.91673E+06    -2.55230E+06    -2.73416E+06    -5.02317E+06     2.51562E+06         66.6463
            1103     3.04134E-03     10.5744E-03         2.19005    -631.258E-03    -652.840E-03    -651.583E-03         2.18879    -631.258E-03     58.3081E-03     558.585E-03    -275.237E-03    -283.598E-03    -283.245E-03     558.232E-03    -275.237E-03    -34.2691E-03     672.754E+03    -3.75977E+06    -5.93879E+06    -2.85772E+06    -2.40832E+06    -3.75977E+06     2.48478E+06         65.8879
            1104     2.28638E-03     10.6007E-03         2.17210    -625.702E-03    -641.643E-03    -637.815E-03         2.16979    -627.219E-03     1.61927E-03     552.138E-03    -273.091E-03    -278.685E-03    -278.416E-03     551.869E-03    -273.091E-03    -29.5608E-03     468.010E+03    -3.13212E+06    -5.81301E+06    -2.82964E+06    -2.51535E+06    -3.13212E+06     1.93859E+06         65.2820
            1105     1.52597E-03     10.6227E-03         2.16146    -622.646E-03    -636.096E-03    -625.048E-03         2.15388    -626.114E-03     108.181E-03     547.535E-03    -272.227E-03    -275.243E-03    -275.092E-03     547.383E-03    -272.227E-03    -21.7889E-03     578.553E+03    -3.04604E+06    -4.89747E+06    -2.03563E+06    -2.28329E+06    -3.04604E+06     1.34671E+06         64.8719
            1106     763.659E-06     10.6484E-03         2.19944    -641.669E-03    -653.231E-03    -607.559E-03         2.15867    -646.567E-03    -253.143E-03     543.615E-03    -270.855E-03    -272.740E-03    -272.633E-03     543.561E-03    -270.907E-03    -12.3470E-03     471.923E+03    -2.74613E+06    -6.47080E+06    -3.24113E+06    -3.13984E+06    -2.36403E+06     1.04327E+06         64.6502
            1107     12.5979E-03     9.81406E-03         2.17251    -632.231E-03    -640.821E-03    -635.982E-03         2.17245    -637.008E-03     960.534E-06     607.681E-03    -298.660E-03    -307.988E-03    -303.962E-03     603.655E-03    -298.660E-03     117.563E-03     21.4885E+06    -352.026E+03    -22.7725E+06     1.37301E+06    -3.54156E+06     532.481E+03     1.91422E+06         91.6968
            1108     11.8634E-03     9.52847E-03         2.18102    -634.498E-03    -640.346E-03    -637.708E-03         2.18097    -637.085E-03     10.7748E-03     613.486E-03    -298.106E-03    -315.434E-03    -311.468E-03     609.521E-03    -298.106E-03     116.935E-03     21.9284E+06     2.47199E+06    -21.3686E+06    -238.126E+03     797.894E+03     2.47199E+06    -847.327E+03         88.1976
            1109     11.1176E-03     9.34243E-03         2.18602    -636.722E-03    -648.534E-03    -648.514E-03         2.18600    -636.722E-03     7.06637E-03     616.621E-03    -296.991E-03    -319.525E-03    -317.734E-03     614.830E-03    -296.991E-03     81.5671E-03     21.6841E+06    -732.008E+03    -19.8046E+06     1.91738E+06    -37.8402E+03    -732.008E+03    -1.71373E+06         83.5185
            1110     10.3948E-03     9.15238E-03         2.18310    -633.889E-03    -644.879E-03    -642.523E-03         2.18302    -636.172E-03     23.0906E-03     619.570E-03    -295.562E-03    -321.603E-03    -320.501E-03     618.468E-03    -295.562E-03     62.4381E-03     13.3128E+06    -3.52100E+06    -13.9821E+06     644.677E+03    -1.31405E+06    -3.52100E+06     1.86675E+06         78.9116
            1111     9.67392E-03     9.01189E-03         2.17430    -632.220E-03    -636.685E-03    -632.673E-03         2.17422    -636.152E-03     29.4556E-03     615.185E-03    -292.708E-03    -320.719E-03    -320.231E-03     614.697E-03    -292.708E-03     42.2137E-03     6.02659E+06    -546.166E+03    -5.77871E+06    -272.968E+03     520.844E+03    -546.166E+03     2.44153E+06         75.2401
            1112     8.95230E-03     8.88749E-03         2.16538    -626.339E-03    -637.280E-03    -626.650E-03         2.16516    -636.747E-03     44.2397E-03     609.164E-03    -289.986E-03    -320.166E-03    -319.933E-03     608.931E-03    -289.986E-03     28.1039E-03     4.43464E+06     2.74658E+06    -2.27062E+06     1.42056E+06     2.24190E+06     1.24814E+06     1.39235E+06         72.7043
            1113     8.23183E-03     8.79927E-03         2.15973    -613.080E-03    -638.292E-03    -612.861E-03         2.15951    -638.292E-03     31.5576E-03     603.205E-03    -287.680E-03    -317.611E-03    -317.559E-03     603.152E-03    -287.680E-03     11.3333E-03     4.53786E+06     1.06939E+06    -3.31245E+06     1.67998E+06     1.04387E+06    -429.053E+03     1.78480E+06         71.1770
            1114     7.50587E-03     8.74837E-03         2.16070    -611.353E-03    -640.839E-03    -611.178E-03         2.16053    -640.839E-03     24.2733E-03     594.394E-03    -285.229E-03    -313.190E-03    -313.185E-03     594.389E-03    -285.229E-03    -339.309E-06     4.54073E+06    -1.54138E+06    -4.37620E+06     455.129E+03    -290.598E+03    -1.54138E+06     3.44144E+06         70.1926
            1115     6.77549E-03     8.72623E-03         2.17435    -622.940E-03    -643.402E-03    -622.705E-03         2.17411    -643.402E-03     5.72614E-03     587.102E-03    -281.922E-03    -307.312E-03    -307.291E-03     587.081E-03    -281.922E-03    -7.09376E-03     3.91780E+06    -1.35399E+06    -4.37838E+06    -300.012E+03     97.6966E+03    -1.61225E+06     3.92980E+06         69.3612
            1116     6.04232E-03     8.72289E-03         2.19644    -637.369E-03    -648.846E-03    -641.256E-03         2.19628    -644.798E-03    -13.1320E-03     582.477E-03    -279.231E-03    -302.127E-03    -302.068E-03     582.418E-03    -279.231E-03    -12.5891E-03     4.13164E+06    -1.75338E+06    -4.66229E+06    -406.765E+03     134.374E+03    -2.01165E+06     4.19443E+06         68.5619
            1117     5.30214E-03     8.73905E-03         2.21585    -643.783E-03    -663.177E-03    -662.996E-03         2.21567    -643.783E-03    -17.8481E-03     577.114E-03    -278.209E-03    -298.184E-03    -298.083E-03     577.012E-03    -278.209E-03    -16.4033E-03     3.69559E+06    -2.86220E+06    -5.34556E+06    -622.402E+03    -636.733E+03    -3.25305E+06     4.26483E+06         67.7640
            1118     4.55965E-03     8.76936E-03         2.22354    -639.795E-03    -673.670E-03    -673.483E-03         2.22335    -639.795E-03    -5.79379E-03     568.586E-03    -276.486E-03    -292.770E-03    -292.634E-03     568.450E-03    -276.486E-03    -18.8131E-03     3.17252E+06    -3.12893E+06    -5.13212E+06    -709.994E+03    -858.758E+03    -3.51978E+06     3.75767E+06         66.9519
            1119     3.81097E-03     8.80954E-03         2.21565    -633.412E-03    -670.704E-03    -670.535E-03         2.21548    -633.412E-03    -3.90970E-03     558.978E-03    -273.945E-03    -286.263E-03    -286.105E-03     558.821E-03    -273.945E-03    -20.0484E-03     3.02503E+06    -2.76444E+06    -4.20224E+06    -772.669E+03    -396.992E+03    -2.77200E+06     3.18472E+06         66.1478
            1120     3.05711E-03     8.84794E-03         2.19652    -625.571E-03    -659.481E-03    -658.803E-03         2.19584    -625.571E-03     35.1725E-03     551.650E-03    -271.511E-03    -280.054E-03    -279.902E-03     551.498E-03    -271.511E-03    -19.5775E-03     2.67740E+06    -2.17717E+06    -3.37551E+06    -600.446E+03    -90.1147E+03    -2.18472E+06     2.42440E+06         65.4083
            1121     2.29788E-03     8.88091E-03         2.17443    -616.992E-03    -644.488E-03    -643.255E-03         2.17320    -616.992E-03    -2.38951E-03     543.335E-03    -268.832E-03    -274.303E-03    -274.185E-03     543.217E-03    -268.832E-03    -17.3841E-03     2.46787E+06    -716.893E+03    -3.01050E+06    -680.769E+03     138.142E+03    -716.893E+03     1.88729E+06         64.8000
            1122     1.53471E-03     8.91855E-03         2.14998    -607.645E-03    -631.374E-03    -627.317E-03         2.14592    -607.645E-03     76.2897E-03     537.326E-03    -267.368E-03    -270.009E-03    -269.940E-03     537.256E-03    -267.368E-03    -13.2410E-03     2.53010E+06     240.230E+03    -2.99467E+06    -915.343E+03     450.773E+03     240.230E+03     1.25004E+06         64.4026
            1123     768.067E-06     8.94426E-03         2.13807    -607.270E-03    -622.856E-03    -595.500E-03         2.11366    -610.217E-03    -196.777E-03     534.943E-03    -266.548E-03    -268.447E-03    -268.236E-03     534.915E-03    -266.732E-03    -6.89694E-03     5.02960E+06     13.3214E+03    -4.08347E+06     315.159E+03     271.417E+03     372.878E+03     706.684E+03         64.2322
            1124     12.6079E-03     7.97839E-03         2.17026    -632.179E-03    -640.585E-03    -635.930E-03         2.17020    -636.773E-03     7.64325E-03     618.634E-03    -298.187E-03    -320.755E-03    -316.939E-03     614.817E-03    -298.187E-03     116.441E-03     27.0118E+06    -2.04021E+06    -32.0139E+06    -1.05675E+06    -4.19432E+06    -1.79125E+06    -3.20915E+06         92.3549
            1125     11.8830E-03     7.67337E-03         2.17470    -629.546E-03    -638.465E-03    -631.131E-03         2.17464    -636.825E-03     18.7182E-03     623.429E-03    -296.734E-03    -327.414E-03    -323.899E-03     619.914E-03    -296.734E-03     109.894E-03     28.1783E+06    -5.63363E+06    -29.5625E+06     3.74032E+06    -5.12456E+06    -5.63363E+06    -984.494E+03         88.9461
            1126     11.1416E-03     7.47991E-03         2.17716    -633.458E-03    -643.817E-03    -640.448E-03         2.17714    -636.807E-03     11.1811E-03     621.885E-03    -294.420E-03    -327.084E-03    -325.722E-03     620.523E-03    -294.420E-03     71.3758E-03     21.5554E+06    -3.21479E+06    -23.1902E+06     1.46583E+06    -3.10068E+06    -3.21479E+06     3.69927E+06         84.2759
            1127     10.4280E-03     7.28785E-03         2.18117    -634.459E-03    -642.089E-03    -639.934E-03         2.18112    -636.563E-03     14.4942E-03     620.137E-03    -291.864E-03    -326.301E-03    -325.536E-03     619.372E-03    -291.864E-03     50.6356E-03     11.4631E+06     1.43665E+06    -9.91567E+06     852.394E+03     695.070E+03     1.43665E+06     1.38967E+06         79.4464
            1128     9.70754E-03     7.16163E-03         2.18493    -634.238E-03    -640.980E-03    -638.816E-03         2.18487    -636.342E-03     8.87368E-03     613.152E-03    -289.172E-03    -322.676E-03    -322.408E-03     612.883E-03    -289.172E-03     30.6221E-03     5.93749E+06     1.59425E+06    -4.18779E+06     2.69302E+06     938.611E+03    -287.680E+03     688.861E+03         75.3895
            1129     8.98503E-03     7.04422E-03         2.18706    -634.286E-03    -645.966E-03    -644.322E-03         2.18697    -635.848E-03     16.0436E-03     603.562E-03    -286.438E-03    -317.076E-03    -316.943E-03     603.429E-03    -286.438E-03     17.6657E-03     4.56809E+06    -626.383E+03    -6.38761E+06     2.04273E+06    -473.817E+03    -4.01481E+06     3.02606E+06         72.4029
            1130     8.25905E-03     6.97229E-03         2.18797    -627.614E-03    -647.189E-03    -639.527E-03         2.18790    -635.206E-03     7.72800E-03     592.407E-03    -283.487E-03    -309.560E-03    -309.533E-03     592.379E-03    -283.487E-03     2.85790E-03     5.85230E+06    -2.62699E+06    -7.52495E+06     504.953E+03    -671.106E+03    -4.13349E+06     5.24228E+06         70.4665
            1131     7.52863E-03     6.93969E-03         2.18970    -623.754E-03    -651.405E-03    -640.525E-03         2.18967    -634.603E-03     3.24573E-03     582.033E-03    -281.600E-03    -302.659E-03    -302.654E-03     582.027E-03    -281.600E-03    -711.220E-06     5.68037E+06    -1.98862E+06    -5.39420E+06     466.453E+03    -180.285E+03    -1.98862E+06     5.18069E+06         69.2419
            1132     6.79275E-03     6.92762E-03         2.18939    -626.420E-03    -648.227E-03    -640.671E-03         2.18929    -633.877E-03    -8.72318E-03     574.765E-03    -279.581E-03    -296.678E-03    -296.670E-03     574.757E-03    -279.581E-03     994.397E-06     5.86477E+06     374.221E+03    -3.99537E+06     605.885E+03     1.26352E+06     374.221E+03     4.64751E+06         68.3253
            1133     6.04860E-03     6.94209E-03         2.18687    -628.656E-03    -640.241E-03    -635.319E-03         2.18677    -633.474E-03    -28.9005E-03     570.239E-03    -278.036E-03    -291.937E-03    -291.912E-03     570.214E-03    -278.036E-03     2.57997E-03     6.37829E+06     915.173E+03    -3.39372E+06     234.864E+03     2.42844E+06     1.23644E+06     4.51116E+06         67.5785
            1134     5.30420E-03     6.97199E-03         2.18445    -626.869E-03    -642.814E-03    -636.155E-03         2.18433    -633.407E-03    -33.4963E-03     567.261E-03    -277.835E-03    -289.238E-03    -289.191E-03     567.214E-03    -277.835E-03     4.45407E-03     5.56467E+06     158.574E+03    -2.80773E+06     390.853E+03     2.04482E+06     479.846E+03     3.78521E+06         66.9529
            1135     4.55598E-03     7.01952E-03         2.18367    -625.249E-03    -644.761E-03    -636.673E-03         2.18356    -633.228E-03    -25.1965E-03     563.228E-03    -276.876E-03    -286.353E-03    -286.292E-03     563.166E-03    -276.876E-03     5.30918E-03     5.10941E+06     108.756E+03    -2.37912E+06     635.358E+03     2.09494E+06     108.756E+03     3.52879E+06         66.3482
            1136     3.80461E-03     7.07494E-03         2.18638    -626.584E-03    -645.434E-03    -639.430E-03         2.18626    -632.467E-03    -26.9079E-03     556.928E-03    -275.118E-03    -282.521E-03    -282.457E-03     556.864E-03    -275.118E-03     5.12696E-03     4.96822E+06     326.990E+03    -1.33734E+06     1.23496E+06     2.40347E+06     319.435E+03     2.84953E+06         65.7508
            1137     3.04902E-03     7.12769E-03         2.18711    -625.889E-03    -645.694E-03    -640.729E-03         2.18678    -630.521E-03     7.21133E-03     551.874E-03    -273.400E-03    -278.551E-03    -278.498E-03     551.821E-03    -273.400E-03     4.14351E-03     4.56941E+06     380.390E+03    -904.217E+03     1.42710E+06     2.42861E+06     189.877E+03     2.13100E+06         65.2089
            1138     2.29044E-03     7.17308E-03         2.18201    -621.382E-03    -641.952E-03    -634.848E-03         2.18135    -627.826E-03    -17.4854E-03     544.580E-03    -270.731E-03    -273.795E-03    -273.756E-03     544.540E-03    -270.731E-03     2.66141E-03     4.52074E+06     1.99385E+06    -473.527E+03     1.30722E+06     2.92295E+06     1.81089E+06     1.54519E+06         64.7589
            1139     1.52895E-03     7.22370E-03         2.17162    -615.124E-03    -639.647E-03    -626.666E-03         2.16941    -625.900E-03     47.6260E-03     541.106E-03    -269.881E-03    -271.459E-03    -271.436E-03     541.084E-03    -269.881E-03     1.58903E-03     4.01445E+06     1.34926E+06    -1.88638E+06     228.499E+03     1.93311E+06     1.31572E+06     799.275E+03         64.4831
            1140     765.281E-06     7.25272E-03         2.17878    -619.462E-03    -644.839E-03    -623.463E-03         2.16411    -626.163E-03    -172.136E-03     541.635E-03    -269.223E-03    -272.459E-03    -269.712E-03     541.627E-03    -271.962E-03     1.94130E-03      6.7918E+06     1.59486E+06    -1.31912E+06     2.99525E+06     2.35601E+06     1.71629E+06    -223.530E+03         64.4115
            1141     12.6160E-03     6.09969E-03         2.14909    -625.039E-03    -634.876E-03    -624.869E-03         2.14892    -634.876E-03     21.3279E-03     635.121E-03    -297.576E-03    -338.580E-03    -334.519E-03     631.060E-03    -297.576E-03     124.080E-03     38.5451E+06    -6.96664E+06    -43.2123E+06     3.99704E+06    -7.14781E+06    -8.48308E+06     1.43410E+06         93.0428
            1142     11.9112E-03     5.80254E-03         2.15833    -623.064E-03    -635.208E-03    -622.864E-03         2.15813    -635.208E-03     35.7252E-03     636.942E-03    -295.099E-03    -342.831E-03    -339.499E-03     633.610E-03    -295.099E-03     108.762E-03     33.3930E+06    -356.021E+03    -37.6667E+06    -2.69322E+06    -1.58044E+06    -356.021E+03     2.88939E+06         89.7401
            1143     11.1799E-03     5.61771E-03         2.17309    -631.477E-03    -639.227E-03    -635.331E-03         2.17302    -635.294E-03     22.9964E-03     629.089E-03    -291.657E-03    -338.569E-03    -337.479E-03     627.999E-03    -291.657E-03     63.6749E-03     22.8136E+06     827.988E+03    -23.0045E+06     1.56578E+06    -797.001E+03    -131.628E+03    -2.61538E+06         85.0902
            1144     10.4636E-03     5.43069E-03         2.18625    -633.490E-03    -642.147E-03    -640.748E-03         2.18619    -634.831E-03     14.6115E-03     620.457E-03    -288.259E-03    -331.883E-03    -331.456E-03     620.031E-03    -288.259E-03     33.6270E-03     11.0292E+06    -5.56269E+06    -11.4971E+06     4.84120E+06    -4.33108E+06    -6.54077E+06     1.09913E+06         80.0157
            1145     9.74751E-03     5.31684E-03         2.19603    -632.649E-03    -645.864E-03    -644.481E-03         2.19599    -633.990E-03     5.58533E-03     606.767E-03    -285.321E-03    -321.207E-03    -321.127E-03     606.687E-03    -285.321E-03     14.7831E-03     5.90780E+06    -5.23034E+06    -10.1710E+06     2.08159E+06    -4.44441E+06    -7.13073E+06     6.01307E+06         75.5188
            1146     9.02578E-03     5.21082E-03         2.20496    -632.372E-03    -657.313E-03    -657.254E-03         2.20490    -632.372E-03     13.3255E-03     589.529E-03    -282.738E-03    -308.519E-03    -308.482E-03     589.492E-03    -282.738E-03     7.02516E-03     7.38000E+06    -649.749E+03    -8.63545E+06     778.340E+03    -151.859E+03    -2.53168E+06     6.41303E+06         71.9903
            1147     8.29193E-03     5.16593E-03         2.21168    -629.758E-03    -662.328E-03    -662.299E-03         2.21165    -629.758E-03     11.0738E-03     574.475E-03    -280.107E-03    -294.909E-03    -294.526E-03     574.463E-03    -280.479E-03    -355.960E-06     8.68588E+06     959.960E+03    -4.79809E+06     1.24843E+06     2.63935E+06     959.960E+03     6.04786E+06         69.4940
            1148     7.54751E-03     5.15296E-03         2.20851    -626.587E-03    -659.888E-03    -659.880E-03         2.20850    -626.587E-03     4.07199E-03     564.594E-03    -276.882E-03    -286.988E-03    -284.445E-03     564.556E-03    -279.386E-03     5.75406E-03     7.75287E+06     2.90611E+06    -3.31374E+06     1.48571E+06     2.95342E+06     2.90611E+06     4.88370E+06         67.9352
            1149     6.79505E-03     5.15778E-03         2.19181    -623.711E-03    -645.809E-03    -645.785E-03         2.19179    -623.711E-03    -5.57579E-03     558.751E-03    -274.081E-03    -284.246E-03    -279.111E-03     558.667E-03    -279.131E-03     13.8546E-03     8.47879E+06     3.66222E+06    -2.69881E+06     1.09602E+06     3.97385E+06     4.37233E+06     4.59337E+06         67.0053
            1150     6.03972E-03     5.18000E-03         2.16926    -616.427E-03    -627.533E-03    -621.321E-03         2.16924    -622.617E-03    -14.6036E-03     555.829E-03    -273.160E-03    -282.375E-03    -276.459E-03     555.680E-03    -278.927E-03     20.0979E-03     7.86452E+06     4.60674E+06    -967.099E+03     1.04547E+06     4.82057E+06     5.63812E+06     3.36147E+06         66.4471
            1151     5.28162E-03     5.22057E-03         2.15367    -608.342E-03    -623.896E-03    -608.308E-03         2.15364    -623.896E-03    -13.3207E-03     557.769E-03    -275.047E-03    -283.149E-03    -277.443E-03     557.558E-03    -280.543E-03     24.8850E-03     6.66890E+06     4.25730E+06    -551.216E+03     1.02332E+06     4.77309E+06     4.57857E+06     2.79549E+06         66.1351
            1152     4.52628E-03     5.27038E-03         2.14984    -603.391E-03    -627.089E-03    -603.334E-03         2.14979    -627.089E-03    -4.83145E-03     561.514E-03    -277.512E-03    -284.520E-03    -279.364E-03     561.269E-03    -282.422E-03     27.3697E-03     5.62623E+06     2.84539E+06     227.908E+03     1.49398E+06     4.36015E+06     2.84539E+06     2.08455E+06         65.9108
            1153     3.77096E-03     5.33513E-03         2.15574    -604.385E-03    -631.886E-03    -604.268E-03         2.15563    -631.886E-03    -4.85942E-03     562.429E-03    -278.795E-03    -284.300E-03    -280.126E-03     562.191E-03    -282.732E-03     27.0857E-03     5.35529E+06     2.52285E+06     719.633E+03     1.76153E+06     4.31340E+06     2.52285E+06     1.81178E+06         65.6994
            1154     3.01713E-03     5.39295E-03         2.16778    -610.859E-03    -637.975E-03    -610.569E-03         2.16749    -637.975E-03     22.6072E-03     563.959E-03    -280.168E-03    -284.031E-03    -281.086E-03     563.770E-03    -282.924E-03     24.1876E-03     5.67199E+06     2.27035E+06     1.25396E+06     2.58080E+06     4.52810E+06     2.08739E+06     1.55344E+06         65.5277
            1155     2.26243E-03     5.44902E-03         2.18633    -620.067E-03    -645.375E-03    -619.632E-03         2.18590    -645.375E-03    -4.04821E-03     562.244E-03    -280.052E-03    -282.223E-03    -280.447E-03     562.122E-03    -281.706E-03     19.3531E-03     5.69802E+06     3.11221E+06     1.51104E+06     2.43958E+06     4.73904E+06     3.14264E+06     978.498E+03         65.3965
            1156     1.50807E-03     5.49022E-03         2.20904    -635.739E-03    -654.882E-03    -635.439E-03         2.20766    -653.799E-03     46.5564E-03     563.015E-03    -281.006E-03    -282.126E-03    -281.231E-03     562.954E-03    -281.840E-03     13.5305E-03     5.66919E+06     2.61572E+06     494.203E+03     1.95527E+06     4.02826E+06     2.79558E+06     557.045E+03         65.3402
            1157     754.635E-06     5.52866E-03         2.24230    -637.388E-03    -688.403E-03    -672.072E-03         2.23267    -644.090E-03    -137.939E-03     566.327E-03    -281.389E-03    -284.927E-03    -282.091E-03     566.309E-03    -284.207E-03     6.82461E-03     4.07996E+06     1.21821E+06    -1.63446E+06     630.048E+03     1.67148E+06     1.36218E+06     141.429E+03         65.3837
            1158     12.6277E-03     4.19375E-03         2.14209    -622.605E-03    -633.858E-03    -624.192E-03         2.14127    -631.449E-03     80.7643E-03     664.364E-03    -297.095E-03    -368.796E-03    -364.738E-03     660.305E-03    -297.095E-03     125.886E-03     45.5647E+06    -6.65520E+06    -59.2081E+06    -4.36828E+06    -7.50979E+06    -8.42060E+06    -9.03240E+06         93.7611
            1159     11.9243E-03     3.91867E-03         2.17361    -626.193E-03    -635.185E-03    -629.874E-03         2.17316    -631.058E-03     58.3025E-03     659.910E-03    -292.507E-03    -368.069E-03    -365.914E-03     657.754E-03    -292.507E-03     73.7890E-03     42.4564E+06    -7.43005E+06    -45.8578E+06     6.30278E+06    -9.70416E+06    -7.43005E+06    -7.03882E+06         90.5990
            1160     11.2081E-03     3.71081E-03         2.18762    -629.851E-03    -636.551E-03    -636.003E-03         2.18754    -630.319E-03     24.1999E-03     637.595E-03    -287.483E-03    -351.548E-03    -350.891E-03     636.938E-03    -287.483E-03     17.4688E-03     24.2954E+06    -10.3400E+06    -31.5976E+06     6.69573E+06    -13.0383E+06    -11.2996E+06     4.77596E+06         86.0232
            1161     10.5152E-03     3.56709E-03         2.19489    -629.325E-03    -639.817E-03    -639.740E-03         2.19482    -629.325E-03     11.6103E-03     612.544E-03    -283.719E-03    -329.088E-03    -328.803E-03     612.260E-03    -283.719E-03    -5.18520E-03     12.6876E+06    -7.58839E+06    -17.1141E+06     740.273E+03    -7.71670E+06    -5.03846E+06     9.58169E+06         80.7884
            1162     9.79504E-03     3.48815E-03         2.20000    -628.117E-03    -642.453E-03    -642.388E-03         2.19994    -628.117E-03    -687.320E-06     587.954E-03    -281.326E-03    -306.441E-03    -306.378E-03     587.891E-03    -281.326E-03    -3.10170E-03     12.0926E+06    -1.76082E+06    -7.63348E+06     1.22296E+06    -273.390E+03     1.74873E+06     7.34043E+06         75.9402
            1163     9.05842E-03     3.41381E-03         2.20265    -626.434E-03    -649.241E-03    -649.178E-03         2.20259    -626.434E-03     9.83927E-03     565.822E-03    -276.713E-03    -291.423E-03    -288.452E-03     565.812E-03    -279.674E-03     3.61005E-03     11.0115E+06     4.60155E+06    -5.00809E+06     2.00447E+06     3.95764E+06     4.64285E+06     5.51504E+06         71.9603
            1164     8.30453E-03     3.40211E-03         2.19883    -622.424E-03    -648.474E-03    -646.461E-03         2.19880    -624.410E-03     8.33873E-03     551.617E-03    -270.711E-03    -282.564E-03    -274.159E-03     551.586E-03    -279.085E-03     7.03107E-03     9.48458E+06     5.81766E+06    -3.03406E+06     1.82415E+06     4.58506E+06     5.85896E+06     3.70409E+06         68.9387
            1165     7.54372E-03     3.40544E-03         2.18812    -619.496E-03    -639.239E-03    -635.994E-03         2.18812    -622.739E-03    -2.68444E-03     545.842E-03    -265.854E-03    -279.687E-03    -265.742E-03     545.730E-03    -279.687E-03     18.0374E-03     9.98069E+06     6.61475E+06    -2.59996E+06     1.21182E+06     5.79718E+06     6.98647E+06     4.03465E+06         66.9499
            1166     6.77748E-03     3.41564E-03         2.17640    -619.405E-03    -629.517E-03    -627.116E-03         2.17636    -621.769E-03    -16.4136E-03     544.531E-03    -263.085E-03    -281.224E-03    -262.881E-03     544.327E-03    -281.224E-03     25.3368E-03     10.2560E+06     7.09031E+06    -406.926E+03     1.82149E+06     6.94578E+06     8.17214E+06     2.78171E+06         65.9438
            1167     6.00914E-03     3.44044E-03         2.16778    -615.569E-03    -622.649E-03    -616.381E-03         2.16772    -621.785E-03    -22.4744E-03     547.111E-03    -263.990E-03    -283.415E-03    -263.714E-03     546.835E-03    -283.415E-03     29.8126E-03     9.36175E+06     7.36047E+06     789.090E+03     2.07635E+06     7.12041E+06     8.31456E+06     2.21492E+06         65.6553
            1168     5.24255E-03     3.47199E-03         2.16007    -610.445E-03    -623.000E-03    -610.407E-03         2.16003    -623.000E-03    -15.4523E-03     555.676E-03    -268.998E-03    -287.200E-03    -268.675E-03     555.353E-03    -287.200E-03     32.6130E-03     7.58648E+06     5.76793E+06     1.04982E+06     2.01519E+06     6.37713E+06     6.01190E+06     1.58104E+06         65.7457
            1169     4.48079E-03     3.52014E-03         2.15338    -602.196E-03    -625.883E-03    -602.153E-03         2.15333    -625.883E-03     28.2708E-06     566.020E-03    -275.468E-03    -291.133E-03    -275.124E-03     565.675E-03    -291.133E-03     33.9823E-03     5.99413E+06     3.59607E+06     1.39275E+06     1.92022E+06     5.46666E+06     3.59607E+06     1.22474E+06         65.9677
            1170     3.72462E-03     3.56672E-03         2.15544    -598.980E-03    -631.133E-03    -598.938E-03         2.15540    -631.133E-03     9.29904E-03     574.291E-03    -281.094E-03    -293.737E-03    -280.766E-03     573.963E-03    -293.737E-03     33.4166E-03     5.66191E+06     2.84449E+06     1.49114E+06     1.90413E+06     5.24892E+06     2.84449E+06     1.06911E+06         66.2109
            1171     2.97287E-03     3.61869E-03         2.16803    -607.248E-03    -638.384E-03    -607.007E-03         2.16779    -638.384E-03     35.7487E-03     581.379E-03    -286.318E-03    -295.522E-03    -286.044E-03     581.105E-03    -295.522E-03     30.7383E-03     5.77113E+06     3.06196E+06     1.74358E+06     2.04803E+06     5.46669E+06     3.06196E+06     897.250E+03         66.4611
            1172     2.22673E-03     3.66869E-03         2.19079    -622.960E-03    -646.470E-03    -622.687E-03         2.19052    -646.470E-03     18.7449E-03     587.787E-03    -291.105E-03    -296.782E-03    -290.914E-03     587.597E-03    -296.782E-03     25.6646E-03     6.57618E+06     3.87976E+06     2.32937E+06     2.65192E+06     6.04022E+06     4.09316E+06     863.164E+03         66.7080
            1173     1.48331E-03     3.71167E-03         2.21502    -642.233E-03    -654.669E-03    -642.222E-03         2.21392    -653.586E-03     62.5783E-03     594.775E-03    -296.101E-03    -298.587E-03    -296.002E-03     594.676E-03    -298.587E-03     18.3074E-03     6.07308E+06     3.32664E+06     1.89882E+06     2.56786E+06     5.28189E+06     3.44880E+06     871.513E+03         66.9380
            1174     740.184E-06     3.74091E-03         2.23602    -624.933E-03    -694.010E-03    -685.373E-03         2.23045    -627.999E-03    -86.6483E-03     599.204E-03    -298.917E-03    -300.227E-03    -299.655E-03     599.170E-03    -299.456E-03     9.95586E-03     3.48969E+06     834.828E+03    -1.83517E+06     384.469E+03     1.36128E+06     743.594E+03     1.30231E+06         67.1384
            1175     12.6375E-03     2.20762E-03         2.22907    -621.698E-03    -656.135E-03    -651.346E-03         2.22788    -625.298E-03     102.046E-03     747.479E-03    -296.227E-03    -451.741E-03    -448.793E-03     744.531E-03    -296.227E-03     91.8879E-03     32.2122E+06    -6.40012E+06    -51.3755E+06    -5.43461E+06    -13.7287E+06    -6.40012E+06    -21.5794E+06         94.8051
            1176     11.9959E-03     1.95032E-03         2.22819    -623.270E-03    -646.786E-03    -646.522E-03         2.22792    -623.270E-03     23.9806E-03     684.447E-03    -288.635E-03    -397.750E-03    -397.142E-03     683.838E-03    -288.635E-03    -931.866E-06     32.2258E+06    -10.7617E+06    -47.4565E+06     4.40673E+06    -19.6374E+06    -10.7617E+06    -1.89217E+06         91.8752
            1177     11.3028E-03     1.81520E-03         2.21308    -621.433E-03    -638.210E-03    -638.184E-03         2.21305    -621.433E-03    -8.44384E-03     629.695E-03    -282.640E-03    -347.577E-03    -347.300E-03     629.418E-03    -282.640E-03    -30.5481E-03     22.2396E+06    -4.30197E+06    -35.7977E+06    -3.00769E+06    -11.3212E+06    -3.53119E+06     19.7230E+06         87.3952
            1178     10.5834E-03     1.75192E-03         2.19915    -620.051E-03    -631.830E-03    -631.783E-03         2.19910    -620.051E-03    -17.4860E-03     590.163E-03    -279.241E-03    -310.702E-03    -310.509E-03     589.969E-03    -279.241E-03    -24.4514E-03     15.4893E+06     5.84251E+06    -11.1941E+06    -1.57151E+06     1.56796E+06     10.1413E+06     6.05245E+06         82.1200
            1179     9.83941E-03     1.71663E-03         2.18724    -615.557E-03    -628.487E-03    -624.862E-03         2.18719    -619.133E-03    -19.4236E-03     561.571E-03    -274.349E-03    -287.488E-03    -283.745E-03     561.511E-03    -278.032E-03    -8.18048E-03     14.0862E+06     6.39702E+06    -5.00615E+06     216.621E+03     5.05998E+06     10.2005E+06     2.58875E+06         77.1180
            1180     9.07401E-03     1.68192E-03         2.17524    -610.101E-03    -626.237E-03    -617.534E-03         2.17523    -618.786E-03    -9.03314E-03     542.268E-03    -264.551E-03    -278.877E-03    -265.658E-03     542.267E-03    -277.769E-03     1.69249E-03     12.5658E+06     8.11429E+06    -6.32140E+06     766.024E+03     5.16166E+06     8.43104E+06     2.61139E+06         72.8955
            1181     8.30171E-03     1.68298E-03         2.16307    -604.234E-03    -622.802E-03    -607.684E-03         2.16304    -619.324E-03    -12.5582E-03     533.419E-03    -256.335E-03    -278.491E-03    -256.305E-03     533.389E-03    -278.491E-03     7.18569E-03     11.9677E+06     8.55183E+06    -4.87752E+06     1.08488E+06     5.96400E+06     8.59314E+06     2.99602E+06         69.5791
            1182     7.52712E-03     1.69303E-03         2.15952    -603.728E-03    -620.752E-03    -603.660E-03         2.15946    -620.752E-03    -21.5255E-03     533.622E-03    -253.501E-03    -280.780E-03    -253.405E-03     533.526E-03    -280.780E-03     16.0874E-03     11.7215E+06     8.49899E+06    -1.64195E+06     1.84267E+06     7.86513E+06     8.87071E+06     1.49555E+06         67.2705
            1183     6.75201E-03     1.70072E-03         2.16509    -611.858E-03    -622.232E-03    -611.757E-03         2.16499    -622.232E-03    -30.0880E-03     537.513E-03    -253.803E-03    -284.237E-03    -253.652E-03     537.361E-03    -284.237E-03     20.5275E-03     10.5054E+06     7.77908E+06     121.475E+03     2.19631E+06     8.05881E+06     8.15080E+06     1.07014E+06         66.0389
            1184     5.97871E-03     1.71677E-03         2.17394    -618.625E-03    -624.025E-03    -619.513E-03         2.17386    -623.053E-03    -29.9706E-03     544.280E-03    -256.982E-03    -288.116E-03    -256.806E-03     544.104E-03    -288.116E-03     22.1189E-03     10.0330E+06     7.74432E+06     803.920E+03     2.17034E+06     8.42258E+06     7.98829E+06     878.939E+03         65.7874
            1185     5.20705E-03     1.73669E-03         2.18097    -619.370E-03    -631.611E-03    -627.986E-03         2.18088    -622.908E-03    -30.5320E-03     557.369E-03    -264.420E-03    -293.469E-03    -264.239E-03     557.189E-03    -293.469E-03     22.6821E-03     8.16831E+06     5.41916E+06     1.28540E+06     2.18536E+06     7.02437E+06     5.66313E+06     707.690E+03         66.1625
            1186     4.44353E-03     1.76103E-03         2.18290    -613.731E-03    -640.036E-03    -632.001E-03         2.18284    -621.699E-03    -23.3446E-03     572.711E-03    -273.695E-03    -299.013E-03    -273.517E-03     572.533E-03    -299.013E-03     22.7674E-03     7.01315E+06     3.17796E+06     1.08074E+06     2.21700E+06     5.87689E+06     3.17796E+06     1.08878E+06         66.7630
            1187     3.68613E-03     1.79213E-03         2.18067    -609.137E-03    -643.090E-03    -632.526E-03         2.18065    -619.673E-03    -15.7505E-03     585.872E-03    -282.651E-03    -303.214E-03    -282.483E-03     585.703E-03    -303.214E-03     22.2819E-03     7.00867E+06     2.87544E+06     1.16315E+06     2.39148E+06     5.78034E+06     2.87544E+06     669.632E+03         67.3773
            1188     2.93646E-03     1.81826E-03         2.17305    -608.205E-03    -640.235E-03    -631.518E-03         2.17298    -616.857E-03     55.9073E-06     597.774E-03    -291.353E-03    -306.565E-03    -291.205E-03     597.626E-03    -306.565E-03     20.9925E-03     7.05518E+06     3.38978E+06     1.21899E+06     2.29319E+06     5.98098E+06     3.38978E+06     538.201E+03         67.9641
            1189     2.19356E-03     1.84580E-03         2.16275    -608.863E-03    -630.356E-03    -625.627E-03         2.16267    -613.509E-03    -1.84242E-03     610.443E-03    -300.344E-03    -310.023E-03    -300.232E-03     610.331E-03    -310.023E-03     18.2473E-03     7.66289E+06     3.70580E+06     1.21885E+06     2.57561E+06     6.30613E+06     3.70580E+06     467.305E+03         68.5222
            1190     1.45799E-03     1.87265E-03         2.14916    -607.024E-03    -619.735E-03    -615.202E-03         2.14870    -611.093E-03     21.0327E-03     622.009E-03    -308.688E-03    -313.146E-03    -308.623E-03     621.944E-03    -313.146E-03     14.0555E-03     7.09962E+06     2.99513E+06     1.22611E+06     2.88848E+06     5.52848E+06     2.90389E+06     356.882E+03         69.0147
            1191     728.997E-06     1.89643E-03         2.14714    -569.330E-03    -654.739E-03    -649.144E-03         2.14461    -572.397E-03    -58.0753E-03     628.365E-03    -313.415E-03    -314.941E-03    -313.863E-03     628.340E-03    -314.468E-03     8.41284E-03     6.36446E+06     2.78153E+06    -703.589E+03     2.01601E+06     3.73610E+06     2.69030E+06     601.278E+03         69.3792
            1192     740.813E-06     102.165E-03     989.146E-03    -246.446E-03    -335.179E-03    -248.614E-03     985.111E-03    -328.977E-03    -72.2407E-03     601.371E-03    -300.352E-03    -300.791E-03    -300.347E-03     601.366E-03    -300.791E-03    -3.63948E-03    -35.1829E+06    -36.6784E+06    -37.5680E+06    -36.8771E+06    -35.9366E+06    -36.6156E+06    -759.904E+03         67.7339
            1193     1.48105E-03     102.157E-03         1.00776    -290.361E-03    -309.171E-03    -306.511E-03         1.00713    -292.392E-03    -6.35112E-03     600.305E-03    -300.006E-03    -300.692E-03    -299.992E-03     600.291E-03    -300.692E-03    -7.13356E-03    -33.3835E+06    -34.3867E+06    -36.2274E+06    -36.0786E+06    -33.5359E+06    -34.3829E+06    -124.358E+03         67.7141
            1194     2.22224E-03     102.140E-03         1.03056    -299.275E-03    -320.666E-03    -320.052E-03         1.03015    -299.478E-03    -26.4341E-03     598.627E-03    -299.244E-03    -300.360E-03    -299.222E-03     598.605E-03    -300.360E-03    -8.91141E-03    -29.9824E+06    -30.8731E+06    -34.8677E+06    -34.7875E+06    -30.7484E+06    -30.1873E+06     418.613E+03         67.7408
            1195     2.96367E-03     102.108E-03         1.03881    -303.726E-03    -323.884E-03    -322.090E-03         1.03839    -305.098E-03    -28.9691E-03     597.599E-03    -299.105E-03    -299.811E-03    -299.109E-03     597.576E-03    -299.785E-03    -8.99108E-03    -25.1516E+06    -27.2392E+06    -33.2582E+06    -33.0957E+06    -27.4017E+06    -25.1516E+06     857.387E+03         67.8889
            1196     3.70555E-03     102.076E-03         1.03740    -306.719E-03    -319.720E-03    -317.881E-03         1.03699    -308.141E-03    -24.1317E-03     597.961E-03    -298.905E-03    -299.241E-03    -298.916E-03     597.946E-03    -299.214E-03    -7.33891E-03    -20.0376E+06    -23.6662E+06    -31.3098E+06    -31.1089E+06    -23.8671E+06    -20.0376E+06     1.18944E+06         68.1539
            1197     4.44744E-03     102.051E-03         1.03263    -304.552E-03    -317.765E-03    -312.820E-03         1.03248    -309.339E-03    -14.5958E-03     597.728E-03    -298.942E-03    -299.418E-03    -299.161E-03     597.722E-03    -299.194E-03    -4.05193E-03    -14.7555E+06    -19.6445E+06    -29.0220E+06    -28.7800E+06    -19.8865E+06    -14.7555E+06     1.41983E+06         68.4346
            1198     5.18758E-03     102.071E-03         1.02696    -296.197E-03    -320.587E-03    -306.979E-03         1.02662    -309.466E-03     2.77987E-03     598.018E-03    -298.964E-03    -299.914E-03    -299.185E-03     598.016E-03    -299.690E-03     858.198E-06    -8.78940E+06    -15.7893E+06    -26.8656E+06    -26.6484E+06    -16.0065E+06    -8.78940E+06     1.44726E+06         68.6379
            1199     5.92682E-03     102.106E-03         1.02249    -293.735E-03    -318.264E-03    -302.667E-03         1.02209    -308.935E-03     895.429E-06     596.118E-03    -298.710E-03    -299.894E-03    -298.690E-03     596.099E-03    -299.894E-03     7.39417E-03    -1.25463E+06    -11.5852E+06    -24.0687E+06    -23.9203E+06    -11.7336E+06    -1.25463E+06     1.32042E+06         68.7663
            1200     6.66971E-03     102.091E-03         1.01783    -296.088E-03    -311.301E-03    -298.900E-03         1.01741    -308.071E-03    -384.177E-06     594.507E-03    -298.237E-03    -298.811E-03    -298.166E-03     594.436E-03    -298.811E-03     15.2862E-03     5.81563E+06    -6.34877E+06    -20.6264E+06    -20.4690E+06    -6.50619E+06     5.81563E+06     1.46625E+06         68.8863
            1201     7.41217E-03     102.085E-03         1.01288    -295.797E-03    -306.891E-03    -295.379E-03         1.01247    -306.891E-03     997.378E-06     596.141E-03    -296.854E-03    -298.965E-03    -296.685E-03     595.972E-03    -298.965E-03     24.0916E-03     11.3127E+06    -1.61532E+06    -17.4506E+06    -17.3296E+06    -1.73631E+06     11.3127E+06     1.34891E+06         69.1224
            1202     8.15129E-03     102.171E-03         1.00889    -293.981E-03    -305.400E-03    -293.595E-03         1.00850    -305.400E-03    -787.141E-06     596.485E-03    -296.224E-03    -298.961E-03    -295.890E-03     596.150E-03    -298.961E-03     34.1295E-03     15.8491E+06     1.12948E+06    -14.7325E+06    -14.6528E+06     1.04978E+06     15.8491E+06     1.11434E+06         69.6961
            1203     8.89226E-03     102.257E-03         1.00532    -292.355E-03    -304.403E-03    -292.565E-03         1.00506    -303.932E-03     9.20424E-03     597.916E-03    -297.380E-03    -298.272E-03    -296.974E-03     597.359E-03    -298.122E-03     44.3709E-03     19.2115E+06     3.65751E+06    -12.0839E+06    -11.9609E+06     3.53449E+06     19.2115E+06     1.32049E+06         70.9951
            1204     9.63705E-03     102.301E-03         1.00290    -292.074E-03    -303.182E-03    -292.244E-03         1.00254    -302.646E-03     16.9959E-03     599.219E-03    -298.502E-03    -298.855E-03    -297.903E-03     598.351E-03    -298.586E-03     55.4620E-03     20.8897E+06     6.06017E+06    -9.91746E+06    -9.80266E+06     5.94537E+06     20.8897E+06     1.09600E+06         73.4138
            1205     10.3757E-03     102.423E-03         1.00177    -293.302E-03    -301.504E-03    -293.069E-03         1.00147    -301.439E-03     22.2871E-03     599.229E-03    -298.819E-03    -299.270E-03    -297.551E-03     597.842E-03    -299.151E-03     70.0263E-03     21.5486E+06     6.40735E+06    -8.32402E+06    -8.27876E+06     6.36210E+06     21.5486E+06     629.710E+03         77.0635
            1206     11.1176E-03     102.553E-03     999.214E-03    -292.750E-03    -300.277E-03    -292.714E-03     999.179E-03    -300.277E-03     2.97196E-03     598.934E-03    -299.083E-03    -300.346E-03    -298.266E-03     597.102E-03    -299.331E-03     81.0462E-03     23.3097E+06     6.19483E+06    -6.37642E+06    -6.22239E+06     6.04081E+06     23.3097E+06     1.07195E+06         81.8147
            1207     11.8683E-03     102.710E-03     995.278E-03    -291.769E-03    -299.088E-03    -291.742E-03     995.251E-03    -299.088E-03     6.05862E-03     601.766E-03    -299.103E-03    -302.461E-03    -299.372E-03     598.677E-03    -299.103E-03     103.682E-03     26.5678E+06     7.27547E+06    -4.24674E+06    -4.08695E+06     7.11567E+06     26.5678E+06     1.08322E+06         86.7916
            1208     12.6098E-03     102.895E-03     988.041E-03    -287.534E-03    -297.684E-03    -287.505E-03     988.012E-03    -297.684E-03    -520.661E-06     603.695E-03    -299.020E-03    -303.340E-03    -299.687E-03     600.042E-03    -299.020E-03     114.535E-03     31.1034E+06     9.50157E+06    -2.36025E+06    -2.31321E+06     9.45453E+06     31.1034E+06     254.717E+03         90.5887
            1209     740.284E-06     103.989E-03     956.015E-03    -235.376E-03    -325.467E-03    -238.261E-03     951.353E-03    -317.919E-03    -47.0760E-03     600.713E-03    -299.826E-03    -300.556E-03    -299.822E-03     600.708E-03    -300.556E-03    -3.52855E-03    -35.7481E+06    -36.8970E+06    -38.5905E+06    -37.8269E+06    -36.5746E+06    -36.8342E+06     215.403E+03         67.7234
            1210     1.48199E-03     103.978E-03     977.453E-03    -280.850E-03    -300.124E-03    -297.867E-03     976.344E-03    -281.999E-03     36.6681E-03     599.973E-03    -299.940E-03    -300.447E-03    -299.927E-03     599.961E-03    -300.447E-03    -6.61424E-03    -33.9276E+06    -34.6682E+06    -37.9635E+06    -37.4973E+06    -34.4354E+06    -34.6264E+06     635.299E+03         67.7109
            1211     2.22279E-03     103.957E-03         1.00021    -288.626E-03    -313.636E-03    -312.154E-03     999.874E-03    -289.775E-03     20.1452E-03     598.744E-03    -299.606E-03    -300.237E-03    -299.587E-03     598.725E-03    -300.237E-03    -8.29491E-03    -30.5471E+06    -31.3349E+06    -36.3443E+06    -36.0883E+06    -31.5909E+06    -30.5471E+06     823.461E+03         67.7409
            1212     2.96435E-03     103.921E-03         1.02115    -297.237E-03    -325.538E-03    -325.174E-03         1.02079    -297.237E-03     19.5830E-03     597.985E-03    -299.351E-03    -300.056E-03    -299.638E-03     597.963E-03    -299.747E-03    -8.67360E-03    -26.2684E+06    -28.4493E+06    -34.5734E+06    -34.3995E+06    -28.6232E+06    -26.2684E+06     863.647E+03         67.8840
            1213     3.70621E-03     103.885E-03         1.02760    -303.290E-03    -326.026E-03    -325.752E-03         1.02732    -303.290E-03     14.7041E-03     598.208E-03    -298.910E-03    -299.532E-03    -299.202E-03     598.191E-03    -299.224E-03    -7.50353E-03    -21.2384E+06    -24.8281E+06    -32.5423E+06    -32.3483E+06    -25.0222E+06    -21.2384E+06     1.17459E+06         68.1419
            1214     4.44772E-03     103.856E-03         1.01309    -301.199E-03    -313.656E-03    -308.600E-03         1.01277    -305.938E-03     8.92464E-03     597.725E-03    -298.964E-03    -299.417E-03    -299.154E-03     597.718E-03    -299.220E-03    -4.56816E-03    -14.9831E+06    -20.4087E+06    -29.6702E+06    -29.5038E+06    -20.5751E+06    -14.9831E+06     1.19397E+06         68.4184
            1215     5.18718E-03     103.878E-03     989.545E-03    -286.327E-03    -304.726E-03    -285.928E-03     989.145E-03    -304.726E-03     18.1237E-03     598.369E-03    -299.062E-03    -300.038E-03    -299.257E-03     598.367E-03    -299.841E-03     500.845E-06    -8.59068E+06    -16.3589E+06    -26.7511E+06    -26.5986E+06    -16.5114E+06    -8.59068E+06     1.24230E+06         68.6213
            1216     5.92633E-03     103.919E-03     973.507E-03    -273.523E-03    -301.462E-03    -273.177E-03     973.162E-03    -301.462E-03     19.3862E-03     596.477E-03    -298.649E-03    -300.031E-03    -298.630E-03     596.458E-03    -300.031E-03     7.29691E-03    -611.308E+03    -11.7174E+06    -24.2963E+06    -24.1292E+06    -11.8845E+06    -611.308E+03     1.38239E+06         68.7533
            1217     6.66865E-03     103.904E-03     971.074E-03    -274.151E-03    -298.334E-03    -273.870E-03     970.793E-03    -298.334E-03     15.4975E-03     594.253E-03    -297.904E-03    -298.810E-03    -297.833E-03     594.181E-03    -298.810E-03     15.3816E-03     6.51635E+06    -6.83195E+06    -21.6890E+06    -21.5750E+06    -6.94591E+06     6.51635E+06     1.22750E+06         68.8802
            1218     7.41312E-03     103.890E-03     975.439E-03    -280.718E-03    -296.452E-03    -280.744E-03     975.143E-03    -296.130E-03     13.0193E-03     595.851E-03    -296.815E-03    -298.945E-03    -296.642E-03     595.678E-03    -298.945E-03     24.4302E-03     11.5524E+06    -2.10995E+06    -18.4199E+06    -18.3105E+06    -2.21939E+06     11.5524E+06     1.31069E+06         69.1227
            1219     8.15292E-03     103.967E-03     981.794E-03    -288.064E-03    -296.150E-03    -289.238E-03     981.576E-03    -294.758E-03     2.29641E-03     596.671E-03    -296.586E-03    -298.948E-03    -296.246E-03     596.331E-03    -298.948E-03     34.4402E-03     16.2500E+06     1.25096E+06    -15.4727E+06    -15.3257E+06     1.10396E+06     16.2500E+06     1.51372E+06         69.6957
            1220     8.89148E-03     104.054E-03     987.459E-03    -292.995E-03    -297.188E-03    -295.715E-03     987.171E-03    -294.181E-03     655.418E-06     598.203E-03    -297.617E-03    -298.254E-03    -297.167E-03     597.650E-03    -298.151E-03     44.2919E-03     19.4454E+06     3.04780E+06    -13.0106E+06    -12.8581E+06     2.89532E+06     19.4454E+06     1.42232E+06         70.9862
            1221     9.63643E-03     104.097E-03     987.534E-03    -293.992E-03    -296.471E-03    -296.175E-03     987.238E-03    -293.992E-03     3.44931E-03     599.150E-03    -298.481E-03    -298.670E-03    -297.726E-03     598.289E-03    -298.565E-03     55.1952E-03     21.1714E+06     5.77866E+06    -10.6183E+06    -10.2763E+06     5.43663E+06     21.1714E+06     1.98738E+06         73.3968
            1222     10.3759E-03     104.225E-03     979.562E-03    -289.200E-03    -294.029E-03    -289.512E-03     979.332E-03    -293.486E-03     6.12895E-03     598.983E-03    -298.654E-03    -299.111E-03    -297.295E-03     597.623E-03    -299.109E-03     69.3888E-03     21.6839E+06     6.94212E+06    -8.41865E+06    -8.13579E+06     6.65927E+06     21.6839E+06     1.60853E+06         77.0434
            1223     11.1185E-03     104.353E-03     968.762E-03    -280.566E-03    -292.371E-03    -280.504E-03     968.701E-03    -292.371E-03    -8.84476E-03     598.704E-03    -298.976E-03    -300.222E-03    -298.043E-03     596.897E-03    -299.348E-03     80.4351E-03     22.7795E+06     6.51757E+06    -6.50158E+06    -6.46612E+06     6.48211E+06     22.7795E+06     649.904E+03         81.7989
            1224     11.8693E-03     104.507E-03     958.982E-03    -273.783E-03    -290.710E-03    -273.773E-03     958.972E-03    -290.710E-03     1.87186E-03     601.601E-03    -299.087E-03    -302.301E-03    -299.166E-03     598.466E-03    -299.087E-03     104.323E-03     26.8097E+06     8.09900E+06    -4.65436E+06    -4.61247E+06      8.0571E+06     26.8097E+06     566.441E+03         86.7859
            1225     12.6121E-03     104.696E-03     951.440E-03    -269.891E-03    -288.644E-03    -269.879E-03     951.428E-03    -288.644E-03    -1.67256E-03     603.833E-03    -299.003E-03    -303.521E-03    -299.804E-03     600.116E-03    -299.003E-03     115.524E-03     33.2340E+06     10.3885E+06    -2.34318E+06    -2.30704E+06     10.3524E+06     33.2340E+06    -6.30735E+03         90.5892
            1226     742.140E-06     105.812E-03     987.306E-03    -256.919E-03    -346.354E-03    -255.765E-03     984.807E-03    -345.008E-03    -17.9375E-03     599.772E-03    -299.439E-03    -300.159E-03    -299.480E-03     599.767E-03    -300.112E-03    -3.72258E-03    -38.9442E+06    -39.9866E+06    -41.7874E+06    -41.0584E+06    -39.6732E+06    -39.9866E+06     904.404E+03         67.7185
            1227     1.48268E-03     105.799E-03     973.975E-03    -289.072E-03    -299.292E-03    -289.196E-03     972.753E-03    -297.947E-03     27.1803E-03     599.746E-03    -299.880E-03    -300.234E-03    -299.975E-03     599.732E-03    -300.126E-03    -6.96634E-03    -35.5245E+06    -36.2610E+06    -39.9157E+06    -39.4183E+06    -36.0599E+06    -36.2229E+06     1.15462E+06         67.7158
            1228     2.22396E-03     105.772E-03     962.326E-03    -279.817E-03    -297.688E-03    -283.292E-03     961.862E-03    -293.749E-03     13.3489E-03     599.065E-03    -299.828E-03    -300.162E-03    -299.869E-03     599.044E-03    -300.100E-03    -8.73025E-03    -31.6863E+06    -32.6358E+06    -37.9631E+06    -37.5765E+06    -32.9094E+06    -31.7993E+06     1.19678E+06         67.7549
            1229     2.96434E-03     105.734E-03     959.777E-03    -272.573E-03    -301.628E-03    -282.734E-03     959.156E-03    -290.846E-03     10.5644E-03     598.711E-03    -299.611E-03    -300.296E-03    -300.155E-03     598.687E-03    -299.728E-03    -9.09832E-03    -25.9141E+06    -28.6274E+06    -35.6607E+06    -35.3685E+06    -28.9196E+06    -25.9141E+06     1.31513E+06         67.9016
            1230     3.70502E-03     105.694E-03     959.720E-03    -273.284E-03    -300.528E-03    -283.905E-03     959.184E-03    -289.371E-03    -2.22812E-03     598.776E-03    -299.028E-03    -299.860E-03    -299.579E-03     598.759E-03    -299.293E-03    -7.54351E-03    -19.7848E+06    -24.6508E+06    -32.9164E+06    -32.8013E+06    -24.7659E+06    -19.7848E+06     916.750E+03         68.1579
            1231     4.44667E-03     105.662E-03     964.036E-03    -283.166E-03    -295.026E-03    -288.772E-03     963.534E-03    -288.918E-03    -4.09163E-03     597.843E-03    -299.027E-03    -299.400E-03    -299.129E-03     597.836E-03    -299.291E-03    -4.26743E-03    -14.3633E+06    -21.3810E+06    -30.6694E+06    -30.5480E+06    -21.5024E+06    -14.3633E+06     1.00658E+06         68.4268
            1232     5.18728E-03     105.682E-03     966.567E-03    -283.797E-03    -296.822E-03    -291.246E-03     966.121E-03    -288.927E-03     320.769E-06     598.227E-03    -298.981E-03    -299.937E-03    -299.087E-03     598.224E-03    -299.829E-03     770.275E-06    -9.04425E+06    -17.4550E+06    -28.2544E+06    -28.0829E+06    -17.6265E+06    -9.04425E+06     1.34007E+06         68.6177
            1233     5.92645E-03     105.723E-03     962.839E-03    -276.086E-03    -300.980E-03    -287.925E-03     962.522E-03    -288.825E-03     2.29358E-03     596.258E-03    -298.237E-03    -299.977E-03    -298.218E-03     596.239E-03    -299.977E-03     7.47944E-03    -1.70366E+06    -12.4861E+06    -25.5928E+06    -25.3923E+06    -12.6866E+06    -1.70366E+06     1.52487E+06         68.7395
            1234     6.66952E-03     105.709E-03     958.940E-03    -275.795E-03    -297.126E-03    -284.240E-03     958.753E-03    -288.495E-03    -2.76289E-03     594.033E-03    -297.615E-03    -298.785E-03    -297.546E-03     593.963E-03    -298.785E-03     15.2314E-03     6.13959E+06    -7.17610E+06    -22.6893E+06    -22.4776E+06    -7.38779E+06     6.13959E+06     1.64002E+06         68.8630
            1235     7.41348E-03     105.697E-03     959.350E-03    -282.812E-03    -291.019E-03    -285.455E-03     959.093E-03    -288.119E-03    -8.78572E-03     595.805E-03    -297.040E-03    -298.937E-03    -296.872E-03     595.637E-03    -298.937E-03     24.0298E-03     11.9246E+06    -2.43370E+06    -19.7190E+06    -19.5162E+06    -2.63651E+06     11.9246E+06     1.78186E+06         69.1088
            1236     8.15185E-03     105.783E-03     959.245E-03    -285.562E-03    -289.215E-03    -286.747E-03     959.038E-03    -287.823E-03    -18.2184E-03     596.783E-03    -296.791E-03    -298.940E-03    -296.458E-03     596.450E-03    -298.940E-03     34.0925E-03     16.3073E+06     1.08089E+06    -16.8763E+06    -16.6869E+06     891.523E+03     16.3073E+06     1.80242E+06         69.6876
            1237     8.89240E-03     105.859E-03     956.638E-03    -281.636E-03    -290.012E-03    -284.022E-03     956.487E-03    -287.476E-03    -14.5329E-03     598.366E-03    -297.649E-03    -298.338E-03    -297.254E-03     597.811E-03    -298.178E-03     44.3309E-03     19.1343E+06     3.15569E+06    -14.0663E+06    -13.8841E+06     2.97353E+06     19.1343E+06     1.61901E+06         70.9829
            1238     9.63697E-03     105.894E-03     951.593E-03    -277.436E-03    -288.749E-03    -279.232E-03     951.446E-03    -286.806E-03    -12.4150E-03     599.390E-03    -298.546E-03    -298.753E-03    -297.837E-03     598.519E-03    -298.592E-03     55.5588E-03     20.4676E+06     4.55719E+06    -11.7345E+06    -11.3985E+06     4.22117E+06     20.4676E+06     1.61403E+06         73.3950
            1239     10.3756E-03     106.018E-03     942.935E-03    -271.629E-03    -286.050E-03    -272.013E-03     942.842E-03    -285.573E-03    -9.44174E-03     599.179E-03    -298.650E-03    -299.117E-03    -297.288E-03     597.815E-03    -299.115E-03     69.5107E-03     21.8415E+06     6.18497E+06    -9.12162E+06    -8.77032E+06     5.83367E+06     21.8415E+06     1.57574E+06         77.0385
            1240     11.1180E-03     106.146E-03     932.177E-03    -263.636E-03    -283.737E-03    -263.552E-03     932.094E-03    -283.737E-03    -16.2172E-03     598.656E-03    -298.930E-03    -299.881E-03    -297.653E-03     596.847E-03    -299.349E-03     80.4557E-03     24.8633E+06     7.68325E+06    -6.45325E+06    -6.24679E+06     7.47679E+06     24.8633E+06     370.770E+03         81.7902
            1241     11.8689E-03     106.304E-03     924.414E-03    -259.124E-03    -281.503E-03    -259.119E-03     924.409E-03    -281.503E-03    -246.079E-06     601.121E-03    -299.089E-03    -301.720E-03    -298.633E-03     598.034E-03    -299.089E-03     103.593E-03     29.4239E+06     9.70542E+06    -3.97133E+06    -3.84869E+06     9.58278E+06     29.4239E+06    -115.669E+03         86.7781
            1242     12.6119E-03     106.497E-03     923.686E-03    -261.552E-03    -279.263E-03    -261.541E-03     923.674E-03    -279.263E-03    -236.927E-06     603.549E-03    -299.036E-03    -303.391E-03    -299.759E-03     599.917E-03    -299.036E-03     114.173E-03     35.2769E+06     11.5634E+06    -1.73334E+06    -1.69363E+06     11.5237E+06     35.2769E+06     506.114E+03         90.5837
            1243     741.066E-06     107.630E-03         1.00769    -261.929E-03    -372.791E-03    -260.585E-03         1.00634    -372.791E-03    -46.1203E-03     599.876E-03    -299.616E-03    -300.072E-03    -299.657E-03     599.871E-03    -300.024E-03    -4.23357E-03    -40.2463E+06    -41.5133E+06    -42.5941E+06    -42.0196E+06    -40.7557E+06    -41.5784E+06     213.289E+03         67.7295
            1244     1.48283E-03     107.619E-03     979.409E-03    -294.277E-03    -312.124E-03    -294.029E-03     979.161E-03    -312.124E-03    -12.2236E-03     600.040E-03    -300.069E-03    -300.295E-03    -300.162E-03     600.025E-03    -300.186E-03    -7.36967E-03    -37.3014E+06    -38.6596E+06    -41.2380E+06    -40.8476E+06    -37.6267E+06    -38.7247E+06     421.572E+03         67.7303
            1245     2.22305E-03     107.590E-03     947.759E-03    -272.331E-03    -302.505E-03    -272.081E-03     947.509E-03    -302.505E-03    -22.7102E-03     599.087E-03    -299.748E-03    -300.222E-03    -299.786E-03     599.063E-03    -300.160E-03    -9.27881E-03    -33.3924E+06    -34.2944E+06    -39.4566E+06    -39.2235E+06    -34.2702E+06    -33.6497E+06     793.738E+03         67.7735
            1246     2.96418E-03     107.552E-03     916.919E-03    -251.386E-03    -292.269E-03    -251.033E-03     916.566E-03    -292.269E-03    -23.6987E-03     598.304E-03    -299.235E-03    -300.030E-03    -299.470E-03     598.281E-03    -299.772E-03    -9.07059E-03    -27.4864E+06    -30.0777E+06    -37.2579E+06    -36.9828E+06    -30.3527E+06    -27.4864E+06     1.21938E+06         67.9266
            1247     3.70583E-03     107.506E-03     907.042E-03    -249.638E-03    -283.677E-03    -249.284E-03     906.687E-03    -283.677E-03    -21.8241E-03     598.599E-03    -298.727E-03    -299.521E-03    -298.971E-03     598.585E-03    -299.263E-03    -7.06496E-03    -20.8465E+06    -25.7565E+06    -34.8109E+06    -34.4818E+06    -26.0857E+06    -20.8465E+06     1.54528E+06         68.1919
            1248     4.44749E-03     107.473E-03     915.781E-03    -261.677E-03    -280.713E-03    -263.133E-03     915.445E-03    -278.920E-03    -22.4831E-03     597.861E-03    -298.964E-03    -299.460E-03    -299.159E-03     597.857E-03    -299.260E-03    -3.53757E-03    -14.6937E+06    -21.6000E+06    -32.2752E+06    -31.9509E+06    -21.9244E+06    -14.6937E+06     1.68440E+06         68.4659
            1249     5.18685E-03     107.490E-03     931.881E-03    -272.374E-03    -285.612E-03    -279.938E-03     931.551E-03    -277.717E-03    -14.9513E-03     598.205E-03    -298.983E-03    -299.982E-03    -299.180E-03     598.203E-03    -299.782E-03     1.12592E-03    -9.09545E+06    -18.0564E+06    -29.6688E+06    -29.3953E+06    -18.3299E+06    -9.09545E+06     1.74039E+06         68.6546
            1250     5.92657E-03     107.525E-03     945.536E-03    -278.000E-03    -293.917E-03    -293.007E-03     945.342E-03    -278.716E-03    -9.49395E-03     596.368E-03    -298.314E-03    -299.905E-03    -298.297E-03     596.350E-03    -299.905E-03     7.10980E-03    -1.46364E+06    -13.5204E+06    -26.8829E+06    -26.6261E+06    -13.7773E+06    -1.46364E+06     1.76411E+06         68.7712
            1251     6.66950E-03     107.512E-03     948.512E-03    -280.437E-03    -295.264E-03    -294.978E-03     948.226E-03    -280.437E-03    -2.03528E-03     594.230E-03    -297.824E-03    -298.783E-03    -297.758E-03     594.164E-03    -298.783E-03     14.8082E-03     6.45931E+06    -8.00048E+06    -23.4289E+06    -23.1675E+06    -8.26183E+06     6.45931E+06     1.93514E+06         68.8840
            1252     7.41308E-03     107.501E-03     939.854E-03    -280.266E-03    -287.121E-03    -285.692E-03     939.552E-03    -281.393E-03    -34.4091E-06     595.841E-03    -297.093E-03    -298.967E-03    -296.927E-03     595.675E-03    -298.967E-03     23.8741E-03     11.9239E+06    -2.97560E+06    -20.2418E+06    -19.9124E+06    -3.30500E+06     11.9239E+06     2.32318E+06         69.1181
            1253     8.15206E-03     107.586E-03     925.180E-03    -272.367E-03    -280.882E-03    -272.160E-03     924.973E-03    -280.882E-03    -6.26346E-03     596.554E-03    -296.600E-03    -298.967E-03    -296.266E-03     596.220E-03    -298.967E-03     34.0928E-03     16.7850E+06     1.08953E+06    -17.4381E+06    -17.1309E+06     782.334E+03     16.7850E+06     2.27120E+06         69.6950
            1254     8.89251E-03     107.666E-03     912.772E-03    -261.816E-03    -279.340E-03    -261.752E-03     912.709E-03    -279.340E-03     6.66975E-03     598.217E-03    -297.562E-03    -298.389E-03    -297.169E-03     597.658E-03    -298.222E-03     44.4831E-03     20.3681E+06     3.65165E+06    -14.4502E+06    -14.2449E+06     3.44630E+06     20.3681E+06     1.67845E+06         70.9982
            1255     9.63689E-03     107.704E-03     905.609E-03    -256.569E-03    -277.338E-03    -256.481E-03     905.522E-03    -277.338E-03     8.45762E-03     599.425E-03    -298.430E-03    -298.787E-03    -297.719E-03     598.549E-03    -298.621E-03     55.7377E-03     22.6318E+06     5.51218E+06    -11.4725E+06    -11.3211E+06     5.36084E+06     22.6318E+06     1.08042E+06         73.4178
            1256     10.3763E-03     107.828E-03     902.534E-03    -255.915E-03    -275.119E-03    -255.811E-03     902.430E-03    -275.119E-03     7.72612E-03     599.284E-03    -298.655E-03    -299.121E-03    -297.269E-03     597.897E-03    -299.121E-03     70.0594E-03     23.9137E+06     6.73447E+06    -9.11157E+06    -8.94337E+06     6.56627E+06     23.9137E+06     993.615E+03         77.0610
            1257     11.1187E-03     107.959E-03     904.342E-03    -258.571E-03    -275.399E-03    -260.825E-03     904.305E-03    -273.108E-03    -5.82548E-03     598.991E-03    -299.064E-03    -300.226E-03    -298.124E-03     597.162E-03    -299.338E-03     80.9557E-03     26.0357E+06     7.89200E+06    -6.95522E+06    -6.72845E+06     7.66523E+06     26.0357E+06     406.042E+03         81.8052
            1258     11.8689E-03     108.114E-03     906.461E-03    -261.616E-03    -275.316E-03    -265.376E-03     906.457E-03    -271.552E-03     436.129E-06     601.662E-03    -299.111E-03    -302.256E-03    -299.202E-03     598.607E-03    -299.111E-03     103.180E-03     30.5133E+06     9.68173E+06    -4.85175E+06    -4.70402E+06     9.53399E+06     30.5133E+06    -29.8974E+03         86.7851
            1259     12.6109E-03     108.308E-03     900.355E-03    -261.312E-03    -271.579E-03    -262.761E-03     900.331E-03    -270.106E-03    -4.75601E-03     603.540E-03    -299.097E-03    -303.233E-03    -299.629E-03     599.936E-03    -299.097E-03     113.780E-03     36.7507E+06     12.0046E+06    -2.54416E+06    -2.50241E+06     11.9629E+06     36.7507E+06     400.988E+03         90.5902
            1260     741.666E-06     109.453E-03     906.642E-03    -219.690E-03    -327.368E-03    -222.769E-03     904.890E-03    -322.538E-03    -33.2220E-03     600.779E-03    -299.850E-03    -300.598E-03    -299.846E-03     600.775E-03    -300.598E-03    -3.67574E-03    -41.3218E+06    -42.7001E+06    -43.8569E+06    -43.3436E+06    -41.7700E+06    -42.7653E+06     174.781E+03         67.7509
            1261     1.48155E-03     109.440E-03     904.882E-03    -262.873E-03    -281.691E-03    -271.225E-03     904.537E-03    -272.994E-03     16.6021E-03     600.233E-03    -299.911E-03    -300.522E-03    -299.897E-03     600.220E-03    -300.522E-03    -6.76805E-03    -38.3498E+06    -39.9375E+06    -42.9073E+06    -42.5069E+06    -38.6851E+06    -40.0026E+06     734.503E+03         67.7497
            1262     2.22241E-03     109.411E-03     903.337E-03    -255.722E-03    -287.806E-03    -270.061E-03     902.982E-03    -273.112E-03     4.64869E-03     598.662E-03    -299.409E-03    -300.280E-03    -299.387E-03     598.641E-03    -300.280E-03    -8.76351E-03    -35.0478E+06    -35.9672E+06    -41.7469E+06    -41.3492E+06    -35.8695E+06    -35.5432E+06     1.33564E+06         67.7939
            1263     2.96424E-03     109.369E-03     904.078E-03    -250.653E-03    -293.362E-03    -270.450E-03     903.775E-03    -273.262E-03     6.00342E-03     597.771E-03    -299.140E-03    -299.857E-03    -299.204E-03     597.748E-03    -299.770E-03    -8.98103E-03    -30.1900E+06    -32.1305E+06    -40.0937E+06    -39.6767E+06    -32.5475E+06    -30.1900E+06     1.57484E+06         67.9522
            1264     3.70631E-03     109.326E-03     900.583E-03    -255.004E-03    -284.964E-03    -266.770E-03     900.340E-03    -272.956E-03     15.6537E-03     598.182E-03    -298.699E-03    -299.269E-03    -298.769E-03     598.166E-03    -299.182E-03    -7.59420E-03    -23.6446E+06    -27.6484E+06    -37.2530E+06    -36.8688E+06    -28.0326E+06    -23.6446E+06     1.77034E+06         68.2276
            1265     4.44770E-03     109.288E-03     894.865E-03    -259.427E-03    -274.520E-03    -261.910E-03     894.612E-03    -271.784E-03     14.9664E-03     597.503E-03    -298.944E-03    -299.379E-03    -299.128E-03     597.497E-03    -299.188E-03    -4.16756E-03    -16.5832E+06    -22.7572E+06    -33.9365E+06    -33.5128E+06    -23.1809E+06    -16.5832E+06     2.01456E+06         68.5126
            1266     5.18806E-03     109.308E-03     891.762E-03    -260.582E-03    -270.198E-03    -260.045E-03     891.224E-03    -270.198E-03     24.0164E-03     598.073E-03    -298.988E-03    -299.940E-03    -299.176E-03     598.070E-03    -299.749E-03     956.158E-06    -9.78721E+06    -18.7738E+06    -31.1554E+06    -30.7654E+06    -19.1637E+06    -9.78721E+06     2.12912E+06         68.7101
            1267     5.92633E-03     109.340E-03     893.709E-03    -260.882E-03    -272.073E-03    -263.394E-03     893.175E-03    -269.027E-03     23.7782E-03     596.544E-03    -298.390E-03    -299.879E-03    -298.371E-03     596.524E-03    -299.879E-03     7.49191E-03    -1.05730E+06    -13.8382E+06    -28.0591E+06    -27.7655E+06    -14.1318E+06    -1.05730E+06     1.95612E+06         68.8321
            1268     6.66887E-03     109.327E-03     895.341E-03    -260.106E-03    -274.767E-03    -266.097E-03     895.137E-03    -268.572E-03     13.4544E-03     594.300E-03    -297.770E-03    -298.781E-03    -297.697E-03     594.227E-03    -298.781E-03     15.5488E-03     6.78240E+06    -8.73631E+06    -25.0493E+06    -24.7930E+06    -8.99267E+06     6.78240E+06     1.97613E+06         68.9419
            1269     7.41341E-03     109.315E-03     893.091E-03    -261.657E-03    -271.274E-03    -264.613E-03     892.898E-03    -268.125E-03     13.5410E-03     595.550E-03    -296.854E-03    -298.991E-03    -296.679E-03     595.375E-03    -298.991E-03     24.5284E-03     12.4003E+06    -3.75750E+06    -21.5986E+06    -21.3441E+06    -4.01198E+06     12.4003E+06     1.81646E+06         69.1668
            1270     8.15192E-03     109.396E-03     887.316E-03    -259.697E-03    -267.731E-03    -260.312E-03     887.264E-03    -267.064E-03     1.24366E-03     596.383E-03    -296.572E-03    -298.994E-03    -296.231E-03     596.042E-03    -298.994E-03     34.4760E-03     17.7086E+06     963.954E+03    -17.7046E+06    -17.4664E+06     725.762E+03     17.7086E+06     1.70576E+06         69.7386
            1271     8.89270E-03     109.477E-03     879.393E-03    -253.959E-03    -266.351E-03    -254.631E-03     879.358E-03    -265.643E-03     9.74754E-03     598.244E-03    -297.661E-03    -298.368E-03    -297.235E-03     597.680E-03    -298.231E-03     44.6837E-03     22.1581E+06     4.39014E+06    -14.3360E+06    -14.0733E+06     4.12737E+06     22.1581E+06     1.84591E+06         71.0439
            1272     9.63802E-03     109.514E-03     875.185E-03    -252.786E-03    -264.374E-03    -252.912E-03     875.123E-03    -264.187E-03     11.8824E-03     599.445E-03    -298.423E-03    -298.744E-03    -297.731E-03     598.578E-03    -298.569E-03     55.4587E-03     24.9498E+06     6.47105E+06    -11.4317E+06    -11.2114E+06     6.25081E+06     24.9498E+06     1.57806E+06         73.4673
            1273     10.3771E-03     109.635E-03     877.141E-03    -254.858E-03    -265.119E-03    -257.090E-03     877.076E-03    -262.822E-03     13.0593E-03     599.308E-03    -298.747E-03    -299.119E-03    -297.419E-03     597.941E-03    -299.082E-03     69.5342E-03     26.1201E+06     7.62762E+06    -8.72368E+06    -8.63444E+06     7.53838E+06     26.1201E+06     929.430E+03         77.1086
            1274     11.1189E-03     109.774E-03     880.172E-03    -257.969E-03    -266.212E-03    -262.403E-03     880.165E-03    -261.770E-03     1.66911E-03     598.937E-03    -299.175E-03    -300.339E-03    -298.345E-03     597.131E-03    -299.363E-03     80.4511E-03     27.9930E+06     8.50015E+06    -6.86280E+06    -6.76355E+06     8.40090E+06     27.9930E+06     1.03664E+06         81.8445
            1275     11.8679E-03     109.934E-03     875.820E-03    -256.491E-03    -264.541E-03    -260.237E-03     875.801E-03    -260.777E-03     3.65136E-03     601.657E-03    -299.144E-03    -302.256E-03    -299.173E-03     598.575E-03    -299.144E-03     103.485E-03     32.8442E+06     9.95581E+06    -4.75216E+06    -4.66417E+06     9.86782E+06     32.8442E+06     817.955E+03         86.8187
            1276     12.6104E-03     110.126E-03     863.532E-03    -250.023E-03    -260.690E-03    -251.456E-03     863.491E-03    -259.216E-03    -1.67429E-03     603.387E-03    -299.119E-03    -302.980E-03    -299.310E-03     599.717E-03    -299.119E-03     114.771E-03     38.9241E+06     12.2899E+06    -2.48332E+06    -2.46926E+06     12.2758E+06     38.9241E+06     76.2756E+03         90.6262
            1277     740.300E-06     111.275E-03     771.699E-03    -160.459E-03    -265.019E-03    -168.419E-03     770.577E-03    -255.937E-03    -5.23621E-03     601.383E-03    -299.836E-03    -301.061E-03    -299.833E-03     601.379E-03    -301.061E-03    -3.06394E-03    -44.3132E+06    -46.0623E+06    -47.3831E+06    -46.8300E+06    -44.8664E+06    -46.0623E+06     394.141E+03         67.7724
            1278     1.48177E-03     111.262E-03     810.549E-03    -218.555E-03    -243.917E-03    -243.275E-03     809.908E-03    -218.555E-03     14.3022E-03     600.129E-03    -299.551E-03    -300.708E-03    -299.538E-03     600.116E-03    -300.708E-03    -6.50660E-03    -41.2495E+06    -42.7722E+06    -46.0288E+06    -45.7206E+06    -41.5577E+06    -42.7722E+06     783.399E+03         67.7691
            1279     2.22338E-03     111.231E-03     847.216E-03    -231.259E-03    -268.686E-03    -268.181E-03     846.710E-03    -231.259E-03     2.47352E-03     598.557E-03    -299.374E-03    -300.317E-03    -299.353E-03     598.535E-03    -300.317E-03    -8.72087E-03    -37.0143E+06    -37.9773E+06    -44.0644E+06      -43.62E+06    -37.8584E+06    -37.5776E+06     1.57527E+06         67.8158
            1280     2.96454E-03     111.188E-03     874.014E-03    -243.001E-03    -284.152E-03    -283.801E-03     873.663E-03    -243.001E-03     5.31923E-03     598.117E-03    -299.567E-03    -299.896E-03    -299.677E-03     598.093E-03    -299.762E-03    -9.21798E-03    -30.9203E+06    -32.8416E+06    -41.4629E+06    -41.0123E+06    -33.2922E+06    -30.9203E+06     1.81903E+06         67.9787
            1281     3.70567E-03     111.143E-03     884.391E-03    -251.878E-03    -284.969E-03    -284.659E-03     884.080E-03    -251.878E-03     8.98786E-03     598.275E-03    -298.835E-03    -299.355E-03    -298.950E-03     598.258E-03    -299.222E-03    -7.76857E-03    -24.3277E+06    -28.4531E+06    -38.8729E+06    -38.4706E+06    -28.8555E+06    -24.3277E+06     1.89891E+06         68.2583
            1282     4.44750E-03     111.108E-03     879.903E-03    -256.012E-03    -275.406E-03    -274.175E-03     879.536E-03    -256.876E-03     6.63386E-03     597.162E-03    -298.851E-03    -299.282E-03    -298.888E-03     597.155E-03    -299.238E-03    -4.49074E-03    -17.8652E+06    -24.4756E+06    -36.1926E+06    -35.8197E+06    -24.8485E+06    -17.8652E+06     1.78721E+06         68.5473
            1283     5.18745E-03     111.126E-03     866.890E-03    -254.091E-03    -264.511E-03    -259.623E-03     866.273E-03    -258.363E-03     9.33364E-03     597.755E-03    -298.769E-03    -299.798E-03    -298.810E-03     597.752E-03    -299.754E-03     804.395E-06    -11.3632E+06    -20.0442E+06    -32.8718E+06    -32.5684E+06    -20.3477E+06    -11.3632E+06     1.79536E+06         68.7500
            1284     5.92772E-03     111.160E-03     850.856E-03    -244.947E-03    -258.255E-03    -244.996E-03     850.200E-03    -257.550E-03     7.93135E-03     596.277E-03    -298.095E-03    -299.841E-03    -298.074E-03     596.256E-03    -299.841E-03     7.83021E-03    -2.31793E+06    -14.5479E+06    -29.6062E+06    -29.2823E+06    -14.8718E+06    -2.31793E+06     2.17248E+06         68.8780
            1285     6.67022E-03     111.144E-03     842.842E-03    -238.850E-03    -255.818E-03    -238.600E-03     842.592E-03    -255.818E-03    -4.72533E-03     594.171E-03    -297.749E-03    -298.731E-03    -297.675E-03     594.097E-03    -298.731E-03     15.7508E-03     7.40177E+06    -8.39325E+06    -25.8423E+06    -25.5691E+06    -8.66650E+06     7.40177E+06     2.09292E+06         68.9936
            1286     7.41395E-03     111.131E-03     844.671E-03    -241.841E-03    -254.158E-03    -241.503E-03     844.333E-03    -254.158E-03    -10.9088E-03     595.375E-03    -296.895E-03    -298.968E-03    -296.717E-03     595.197E-03    -298.968E-03     24.7380E-03     14.2015E+06    -3.09825E+06    -22.0562E+06    -21.8988E+06    -3.25562E+06     14.2015E+06     1.49362E+06         69.2232
            1287     8.15332E-03     111.212E-03     848.801E-03    -246.384E-03    -253.559E-03    -246.706E-03     848.456E-03    -252.892E-03    -27.4517E-03     596.362E-03    -296.612E-03    -298.991E-03    -296.270E-03     596.020E-03    -298.991E-03     34.5631E-03     19.2020E+06     729.355E+03    -18.8114E+06    -18.7265E+06     644.548E+03     19.2020E+06     1.07659E+06         69.7976
            1288     8.89349E-03     111.294E-03     853.973E-03    -250.281E-03    -255.672E-03    -253.568E-03     853.833E-03    -252.246E-03    -14.8199E-03     598.436E-03    -297.685E-03    -298.346E-03    -297.264E-03     597.881E-03    -298.212E-03     44.3717E-03     22.6185E+06     3.98928E+06    -15.5871E+06    -15.4029E+06     3.80508E+06     22.6185E+06     1.49921E+06         71.1051
            1289     9.63792E-03     111.332E-03     856.233E-03    -252.094E-03    -257.185E-03    -257.104E-03     856.152E-03    -252.094E-03    -7.74974E-03     599.611E-03    -298.555E-03    -298.811E-03    -297.950E-03     598.751E-03    -298.555E-03     55.2357E-03     24.7746E+06     5.99957E+06    -12.2985E+06    -12.1337E+06     5.83478E+06     24.7746E+06     1.22477E+06         73.5304
            1290     10.3763E-03     111.453E-03     850.795E-03    -248.904E-03    -256.241E-03    -253.381E-03     850.790E-03    -251.758E-03     1.06491E-03     599.464E-03    -298.874E-03    -299.214E-03    -297.623E-03     598.093E-03    -299.094E-03     69.6633E-03     26.6031E+06     7.09342E+06    -9.52854E+06    -9.26639E+06     6.83127E+06     26.6031E+06     1.48558E+06         77.1703
            1291     11.1188E-03     111.592E-03     837.508E-03    -240.657E-03    -252.880E-03    -242.758E-03     837.458E-03    -250.729E-03    -6.92745E-03     598.561E-03    -299.170E-03    -299.984E-03    -297.924E-03     596.720E-03    -299.389E-03     81.1708E-03     29.7047E+06     8.94489E+06    -6.96066E+06    -6.66529E+06     8.64952E+06     29.7047E+06     1.72458E+06         81.9021
            1292     11.8685E-03     111.748E-03     823.430E-03    -231.121E-03    -248.847E-03    -231.058E-03     823.368E-03    -248.847E-03    -3.04300E-03     600.967E-03    -299.133E-03    -301.701E-03    -298.555E-03     597.822E-03    -299.133E-03     104.526E-03     34.1909E+06     11.2628E+06    -4.65325E+06    -4.57148E+06     11.1811E+06     34.1909E+06     1.03961E+06         86.8744
            1293     12.6122E-03     111.937E-03     818.435E-03    -229.427E-03    -246.416E-03    -229.387E-03     818.395E-03    -246.416E-03    -2.76008E-03     603.311E-03    -299.090E-03    -303.150E-03    -299.455E-03     599.616E-03    -299.090E-03     115.118E-03     40.3084E+06     13.6724E+06    -2.45612E+06    -2.41339E+06     13.6296E+06     40.3084E+06     608.265E+03         90.6815
            1294     740.990E-06     113.099E-03     798.684E-03    -180.582E-03    -280.115E-03    -179.920E-03     793.771E-03    -275.863E-03    -11.5130E-03     601.285E-03    -300.147E-03    -300.910E-03    -300.143E-03     601.281E-03    -300.910E-03    -3.11121E-03    -46.4258E+06    -48.2815E+06    -49.2934E+06    -48.7648E+06    -46.9544E+06    -48.2815E+06     286.159E+03         67.7879
            1295     1.48184E-03     113.085E-03     805.875E-03    -222.548E-03    -245.970E-03    -237.167E-03     803.829E-03    -229.305E-03     35.0771E-03     600.277E-03    -299.814E-03    -300.660E-03    -299.800E-03     600.263E-03    -300.660E-03    -6.84054E-03    -43.4153E+06    -44.9187E+06    -47.9373E+06    -47.7378E+06    -43.6148E+06    -44.9187E+06     372.043E+03         67.7829
            1296     2.22242E-03     113.049E-03     818.113E-03    -226.094E-03    -255.973E-03    -248.422E-03     817.710E-03    -233.241E-03    -8.10323E-03     598.690E-03    -299.409E-03    -300.329E-03    -299.387E-03     598.668E-03    -300.329E-03    -8.95086E-03    -39.1932E+06    -40.1402E+06    -46.0534E+06    -45.8399E+06    -39.9631E+06    -39.5839E+06     952.149E+03         67.8278
            1297     2.96391E-03     113.006E-03     824.462E-03    -230.101E-03    -258.148E-03    -250.657E-03     823.965E-03    -237.097E-03    -15.2823E-03     597.929E-03    -299.216E-03    -299.814E-03    -299.240E-03     597.907E-03    -299.767E-03    -8.86661E-03    -32.6431E+06    -34.8806E+06    -43.2798E+06    -43.0086E+06    -35.1519E+06    -32.6431E+06     1.47389E+06         67.9928
            1298     3.70557E-03     112.961E-03     832.081E-03    -234.093E-03    -261.254E-03    -254.788E-03     831.693E-03    -240.172E-03    -17.5329E-03     597.895E-03    -298.541E-03    -299.255E-03    -298.574E-03     597.881E-03    -299.209E-03    -6.98829E-03    -25.2216E+06    -29.7056E+06    -40.4429E+06    -40.0412E+06    -30.1073E+06    -25.2216E+06     1.96626E+06         68.2778
            1299     4.44738E-03     112.924E-03     836.474E-03    -240.695E-03    -258.960E-03    -256.463E-03     836.078E-03    -242.796E-03    -18.7797E-03     596.843E-03    -298.750E-03    -299.298E-03    -298.797E-03     596.838E-03    -299.246E-03    -3.63625E-03    -18.1462E+06    -25.0810E+06    -37.7387E+06    -37.3334E+06    -25.4863E+06    -18.1462E+06     2.00370E+06         68.5715
            1300     5.18775E-03     112.945E-03     832.434E-03    -244.281E-03    -251.323E-03    -250.766E-03     831.877E-03    -244.281E-03    -13.5042E-03     597.670E-03    -298.752E-03    -299.743E-03    -298.802E-03     597.667E-03    -299.691E-03     1.19305E-03    -11.1864E+06    -20.7694E+06    -34.7553E+06    -34.4718E+06    -21.0528E+06    -11.1864E+06     1.78815E+06         68.7772
            1301     5.92754E-03     112.976E-03     824.362E-03    -239.344E-03    -248.919E-03    -243.303E-03     823.920E-03    -244.518E-03    -7.09853E-03     596.203E-03    -298.027E-03    -299.773E-03    -298.007E-03     596.182E-03    -299.773E-03     7.72282E-03    -2.51051E+06    -15.1965E+06    -31.3080E+06    -31.1066E+06    -15.3979E+06    -2.51051E+06     1.69325E+06         68.9071
            1302     6.67053E-03     112.964E-03     817.005E-03    -233.646E-03    -247.193E-03    -236.401E-03     816.587E-03    -244.020E-03    -5.54100E-03     594.053E-03    -297.837E-03    -298.746E-03    -297.808E-03     593.984E-03    -298.707E-03     15.2202E-03     6.61391E+06    -8.44906E+06    -27.0269E+06    -26.8868E+06    -8.58919E+06     6.61391E+06     1.53830E+06         69.0262
            1303     7.41460E-03     112.952E-03     813.953E-03    -234.199E-03    -243.061E-03    -233.754E-03     813.508E-03    -243.061E-03    -1.50191E-03     595.548E-03    -297.058E-03    -298.981E-03    -296.930E-03     595.380E-03    -298.941E-03     23.9673E-03     13.6550E+06    -3.29955E+06    -23.1138E+06    -22.9500E+06    -3.46335E+06     13.6550E+06     1.76902E+06         69.2637
            1304     8.15326E-03     113.031E-03     816.253E-03    -236.376E-03    -242.708E-03    -236.619E-03     815.790E-03    -242.002E-03    -13.5893E-03     596.498E-03    -296.574E-03    -298.981E-03    -296.239E-03     596.163E-03    -298.981E-03     34.1667E-03     19.9258E+06     820.123E+03    -19.7308E+06    -19.4967E+06     585.977E+03     19.9258E+06     2.05881E+06         69.8479
            1305     8.89350E-03     113.110E-03     820.018E-03    -237.810E-03    -244.759E-03    -240.930E-03     819.715E-03    -241.335E-03     491.011E-06     598.414E-03    -297.640E-03    -298.323E-03    -297.178E-03     597.854E-03    -298.225E-03     44.5121E-03     23.8555E+06     3.81277E+06    -16.6485E+06    -16.5190E+06     3.68330E+06     23.8555E+06     1.21546E+06         71.1644
            1306     9.63800E-03     113.145E-03     817.858E-03    -235.390E-03    -245.742E-03    -240.181E-03     817.745E-03    -240.837E-03    -3.52421E-03     599.584E-03    -298.460E-03    -298.735E-03    -297.760E-03     598.704E-03    -298.555E-03     55.8683E-03     25.5978E+06     6.49774E+06    -13.7538E+06    -13.6522E+06     6.39615E+06     25.5978E+06     1.03801E+06         73.5972
            1307     10.3775E-03     113.269E-03     807.043E-03    -229.517E-03    -241.920E-03    -231.687E-03     807.027E-03    -239.734E-03     2.63363E-03     599.174E-03    -298.577E-03    -299.143E-03    -297.268E-03     597.782E-03    -299.061E-03     70.1889E-03     26.5902E+06     7.50103E+06    -11.2803E+06    -10.8527E+06     7.07337E+06     26.5902E+06     1.12904E+06         77.2431
            1308     11.1202E-03     113.403E-03     797.772E-03    -225.232E-03    -237.939E-03    -225.164E-03     797.705E-03    -237.939E-03    -6.60219E-03     598.305E-03    -298.951E-03    -300.073E-03    -297.821E-03     596.443E-03    -299.340E-03     81.6407E-03     28.7691E+06     7.79197E+06    -8.35601E+06    -7.90448E+06     7.34044E+06     28.7691E+06     1.03029E+06         81.9744
            1309     11.8712E-03     113.554E-03     793.080E-03    -222.415E-03    -237.021E-03    -223.470E-03     793.026E-03    -235.912E-03    -8.82023E-03     601.068E-03    -299.060E-03    -302.012E-03    -298.875E-03     597.931E-03    -299.060E-03     104.543E-03     33.8470E+06     11.8109E+06    -5.34742E+06    -5.18810E+06     11.6516E+06     33.8470E+06     1.30530E+06         86.9365
            1310     12.6131E-03     113.745E-03     789.876E-03    -222.536E-03    -234.979E-03    -223.630E-03     789.861E-03    -233.870E-03    -2.33380E-03     603.721E-03    -299.073E-03    -303.665E-03    -300.007E-03     600.063E-03    -299.073E-03     114.604E-03     42.1768E+06     15.6163E+06    -2.44926E+06    -2.40349E+06     15.5705E+06     42.1768E+06     770.115E+03         90.7315
            1311     740.982E-06     114.922E-03     851.507E-03    -224.638E-03    -299.592E-03    -214.721E-03     841.590E-03    -299.592E-03    -43.9842E-03     601.005E-03    -300.265E-03    -300.692E-03    -300.260E-03     601.001E-03    -300.692E-03    -3.37364E-03    -47.8007E+06    -49.2700E+06    -50.4585E+06    -50.1501E+06    -47.9865E+06    -49.3926E+06     337.073E+03         67.7926
            1312     1.48162E-03     114.904E-03     812.609E-03    -234.576E-03    -252.071E-03    -231.567E-03     809.601E-03    -252.071E-03     62.3515E-03     600.268E-03    -299.904E-03    -300.555E-03    -299.891E-03     600.256E-03    -300.555E-03    -6.56248E-03    -44.6909E+06    -46.0890E+06    -49.7332E+06    -49.4485E+06    -44.9756E+06    -46.0890E+06     963.320E+03         67.7878
            1313     2.22271E-03     114.869E-03     788.856E-03    -220.493E-03    -243.126E-03    -219.450E-03     787.813E-03    -243.126E-03     23.2538E-03     598.468E-03    -299.160E-03    -300.288E-03    -299.140E-03     598.448E-03    -300.288E-03    -8.40150E-03    -40.6237E+06    -41.6297E+06    -48.1848E+06    -47.9248E+06    -41.6094E+06    -40.9040E+06     1.07984E+06         67.8313
            1314     2.96479E-03     114.821E-03     778.717E-03    -217.154E-03    -236.801E-03    -215.877E-03     777.440E-03    -236.801E-03     10.8113E-03     597.446E-03    -298.770E-03    -299.689E-03    -298.749E-03     597.425E-03    -299.689E-03    -8.55972E-03    -34.5311E+06    -37.1458E+06    -45.9255E+06    -45.6827E+06    -37.3886E+06    -34.5311E+06     1.42699E+06         67.9985
            1315     3.70710E-03     114.773E-03     768.695E-03    -209.835E-03    -232.154E-03    -208.828E-03     767.687E-03    -232.154E-03    -906.184E-06     597.242E-03    -298.173E-03    -299.083E-03    -298.159E-03     597.228E-03    -299.083E-03    -7.02037E-03    -26.9491E+06    -31.8791E+06    -42.7554E+06    -42.4882E+06    -32.1462E+06    -26.9491E+06     1.66441E+06         68.2897
            1316     4.44874E-03     114.734E-03     765.545E-03    -209.832E-03    -228.762E-03    -209.216E-03     764.559E-03    -228.391E-03    -234.275E-06     596.445E-03    -298.584E-03    -299.355E-03    -298.788E-03     596.440E-03    -299.146E-03    -3.56713E-03    -19.0232E+06    -26.3194E+06    -39.1684E+06    -38.8509E+06    -26.6369E+06    -19.0232E+06     1.90420E+06         68.5906
            1317     5.18854E-03     114.756E-03     772.592E-03    -219.416E-03    -227.830E-03    -219.980E-03     771.526E-03    -226.201E-03     8.65235E-03     597.841E-03    -298.957E-03    -299.801E-03    -299.163E-03     597.839E-03    -299.592E-03     1.41071E-03    -11.1958E+06    -20.9297E+06    -35.9042E+06    -35.4806E+06    -21.3533E+06    -11.1958E+06     2.30796E+06         68.8022
            1318     5.92746E-03     114.785E-03     784.100E-03    -225.978E-03    -233.525E-03    -232.760E-03     783.335E-03    -225.978E-03     23.0999E-03     596.498E-03    -298.277E-03    -299.700E-03    -298.255E-03     596.477E-03    -299.700E-03     7.89889E-03    -1.64101E+06    -14.9800E+06    -32.3256E+06    -31.9959E+06    -15.3098E+06    -1.64101E+06     2.12909E+06         68.9350
            1319     6.67064E-03     114.773E-03     790.946E-03    -225.226E-03    -241.581E-03    -239.196E-03     790.434E-03    -227.098E-03     16.7119E-03     593.900E-03    -297.835E-03    -298.714E-03    -297.804E-03     593.829E-03    -298.674E-03     15.4860E-03     6.83627E+06    -8.54276E+06    -28.8067E+06    -28.6543E+06    -8.69517E+06     6.83627E+06     1.66920E+06         69.0527
            1320     7.41429E-03     114.763E-03     790.675E-03    -226.063E-03    -240.640E-03    -238.092E-03     790.231E-03    -228.168E-03     25.6792E-03     595.465E-03    -297.021E-03    -298.961E-03    -296.892E-03     595.296E-03    -298.921E-03     24.0585E-03     13.1153E+06    -4.03372E+06    -25.1303E+06    -25.0165E+06    -4.14754E+06     13.1153E+06     1.46800E+06         69.2925
            1321     8.15265E-03     114.845E-03     785.293E-03    -227.579E-03    -233.299E-03    -232.415E-03     785.145E-03    -228.315E-03     9.39518E-03     596.504E-03    -296.476E-03    -298.978E-03    -296.140E-03     596.168E-03    -298.978E-03     34.2436E-03     19.1329E+06    -491.684E+03    -21.1708E+06    -20.9916E+06    -670.833E+03     19.1329E+06     1.67420E+06         69.8871
            1322     8.89395E-03     114.924E-03     775.603E-03    -222.705E-03    -228.402E-03    -223.239E-03     775.431E-03    -227.696E-03     20.8875E-03     598.067E-03    -297.541E-03    -298.239E-03    -296.995E-03     597.506E-03    -298.223E-03     44.5548E-03     24.1377E+06     4.27805E+06    -17.4801E+06    -17.2057E+06     4.00363E+06     24.1377E+06     2.00257E+06         71.2175
            1323     9.63938E-03     114.957E-03     766.889E-03    -215.968E-03    -226.480E-03    -215.928E-03     766.848E-03    -226.480E-03     6.64297E-03     599.214E-03    -298.349E-03    -298.551E-03    -297.486E-03     598.336E-03    -298.536E-03     55.7578E-03     27.0521E+06     7.53595E+06    -14.4138E+06    -14.1639E+06     7.28599E+06     27.0521E+06     1.88001E+06         73.6632
            1324     10.3786E-03     115.085E-03     765.107E-03    -215.323E-03    -225.729E-03    -216.195E-03     765.075E-03    -224.825E-03     6.52933E-03     598.918E-03    -298.575E-03    -299.028E-03    -297.212E-03     597.554E-03    -299.028E-03     69.5188E-03     27.7920E+06     8.06425E+06    -11.6634E+06    -11.4641E+06     7.86498E+06     27.7920E+06     288.532E+03         77.3178
            1325     11.1218E-03     115.222E-03     769.294E-03    -219.809E-03    -226.291E-03    -222.709E-03     769.245E-03    -223.342E-03     1.16370E-03     598.566E-03    -299.016E-03    -300.468E-03    -298.372E-03     596.766E-03    -299.312E-03     80.2985E-03     30.0492E+06     8.15273E+06    -9.03250E+06    -8.79846E+06     7.91869E+06     30.0492E+06     322.622E+03         82.0457
            1326     11.8695E-03     115.375E-03     772.989E-03    -222.237E-03    -229.061E-03    -228.983E-03     772.967E-03    -222.293E-03    -5.27477E-03     601.658E-03    -299.054E-03    -302.473E-03    -299.396E-03     598.580E-03    -299.054E-03     103.502E-03     36.3187E+06     11.6610E+06    -5.91167E+06    -5.76620E+06     11.5155E+06     36.3187E+06     927.101E+03         86.9901
            1327     12.6111E-03     115.571E-03     771.239E-03    -220.174E-03    -229.556E-03    -228.439E-03     771.235E-03    -221.287E-03     132.958E-06     603.796E-03    -299.099E-03    -303.532E-03    -299.887E-03     600.151E-03    -299.099E-03     114.444E-03     44.0167E+06     15.9990E+06    -2.84184E+06    -2.82252E+06     15.9797E+06     44.0167E+06     178.770E+03         90.7704
            1328     741.027E-06     116.745E-03     797.123E-03    -211.824E-03    -273.319E-03    -190.324E-03     774.239E-03    -271.934E-03    -99.9123E-03     600.469E-03    -299.757E-03    -300.589E-03    -299.753E-03     600.465E-03    -300.589E-03    -3.18439E-03    -50.7491E+06    -52.5973E+06    -54.4569E+06    -53.9425E+06    -51.1409E+06    -52.7199E+06     982.642E+03         67.7863
            1329     1.48228E-03     116.731E-03     765.911E-03    -218.360E-03    -234.654E-03    -219.039E-03     761.034E-03    -229.098E-03     36.9775E-03     599.772E-03    -299.475E-03    -300.339E-03    -299.463E-03     599.760E-03    -300.339E-03    -6.41575E-03    -47.2022E+06    -48.7659E+06    -52.7598E+06    -52.3828E+06    -47.5793E+06    -48.7659E+06     1.33107E+06         67.7848
            1330     2.22368E-03     116.693E-03     745.839E-03    -203.828E-03    -228.271E-03    -205.363E-03     743.202E-03    -224.099E-03     3.87786E-03     598.094E-03    -299.037E-03    -300.128E-03    -299.016E-03     598.074E-03    -300.128E-03    -8.48360E-03    -41.9152E+06    -43.1630E+06    -50.3715E+06    -50.0039E+06    -43.1566E+06    -42.2893E+06     1.52721E+06         67.8305
            1331     2.96445E-03     116.647E-03     729.555E-03    -197.107E-03    -218.640E-03    -194.625E-03     727.074E-03    -218.640E-03     7.83581E-03     597.332E-03    -298.987E-03    -299.673E-03    -299.102E-03     597.310E-03    -299.536E-03    -8.77280E-03    -35.0504E+06    -38.0395E+06    -47.6198E+06    -47.3367E+06    -38.3226E+06    -35.0504E+06     1.54432E+06         68.0003
            1332     3.70651E-03     116.599E-03     722.607E-03    -193.717E-03    -214.685E-03    -192.335E-03     720.593E-03    -214.053E-03    -2.98722E-03     597.402E-03    -298.323E-03    -299.063E-03    -298.445E-03     597.387E-03    -298.926E-03    -7.32257E-03    -27.5663E+06    -33.0226E+06    -44.5736E+06    -44.3370E+06    -33.2591E+06    -27.5663E+06     1.61248E+06         68.2965
            1333     4.44864E-03     116.560E-03     725.783E-03    -194.697E-03    -216.365E-03    -198.695E-03     724.572E-03    -211.156E-03     13.1285E-03     596.557E-03    -298.626E-03    -299.313E-03    -298.880E-03     596.551E-03    -299.053E-03    -4.03786E-03    -19.8552E+06    -27.6385E+06    -41.0350E+06    -40.7590E+06    -27.9145E+06    -19.8552E+06     1.84713E+06         68.6022
            1334     5.18918E-03     116.585E-03     735.713E-03    -203.366E-03    -218.726E-03    -211.021E-03     734.793E-03    -210.151E-03     4.71356E-03     597.870E-03    -298.867E-03    -299.890E-03    -299.124E-03     597.868E-03    -299.630E-03     1.12552E-03    -12.4716E+06    -22.1997E+06    -37.3130E+06    -36.9647E+06    -22.5479E+06    -12.4716E+06     1.98861E+06         68.8173
            1335     5.92802E-03     116.618E-03     744.228E-03    -210.707E-03    -221.248E-03    -220.216E-03     743.196E-03    -210.707E-03     4.33035E-03     596.540E-03    -298.223E-03    -299.745E-03    -298.202E-03     596.519E-03    -299.745E-03     7.81377E-03    -2.15259E+06    -15.4942E+06    -33.0793E+06    -32.7367E+06    -15.8368E+06    -2.15259E+06     2.16456E+06         68.9528
            1336     6.67065E-03     116.603E-03     751.985E-03    -212.146E-03    -227.909E-03    -227.148E-03     751.224E-03    -212.146E-03    -15.0303E-03     593.867E-03    -297.754E-03    -298.648E-03    -297.679E-03     593.792E-03    -298.648E-03     15.7877E-03     8.07481E+06    -8.71506E+06    -29.1694E+06    -28.9198E+06    -8.96467E+06     8.07481E+06     2.18708E+06         69.0729
            1337     7.41515E-03     116.590E-03     752.075E-03    -213.523E-03    -227.179E-03    -226.365E-03     751.260E-03    -213.523E-03    -14.0742E-03     595.482E-03    -296.870E-03    -298.894E-03    -296.694E-03     595.306E-03    -298.894E-03     24.6444E-03     14.9820E+06    -3.99895E+06    -25.8135E+06    -25.5568E+06    -4.25565E+06     14.9820E+06     2.11723E+06         69.3185
            1338     8.15387E-03     116.675E-03     739.406E-03    -210.065E-03    -218.191E-03    -213.854E-03     738.759E-03    -213.754E-03    -34.2069E-03     596.615E-03    -296.395E-03    -298.959E-03    -296.053E-03     596.273E-03    -298.959E-03     34.5278E-03     20.9618E+06    -290.145E+03    -22.0919E+06    -21.9156E+06    -466.402E+03     20.9618E+06     1.65002E+06         69.9243
            1339     8.89370E-03     116.757E-03     727.165E-03    -203.783E-03    -212.879E-03    -203.620E-03     727.003E-03    -212.879E-03    -12.7721E-03     597.968E-03    -297.473E-03    -298.265E-03    -296.991E-03     597.401E-03    -298.181E-03     44.7754E-03     24.8968E+06     3.94247E+06    -18.2020E+06    -18.0182E+06     3.75876E+06     24.8968E+06     1.50583E+06         71.2677
            1340     9.63939E-03     116.795E-03     726.404E-03    -204.154E-03    -211.746E-03    -204.152E-03     726.357E-03    -211.701E-03    -8.49680E-03     599.051E-03    -298.409E-03    -298.689E-03    -297.725E-03     598.181E-03    -298.502E-03     55.5626E-03     27.1968E+06     6.81793E+06    -14.1679E+06    -14.0110E+06     6.66106E+06     27.1968E+06     1.15735E+06         73.7232
            1341     10.3791E-03     116.920E-03     732.308E-03    -208.562E-03    -213.711E-03    -211.526E-03     732.262E-03    -210.701E-03     2.98526E-03     599.068E-03    -298.947E-03    -299.140E-03    -297.703E-03     597.718E-03    -299.034E-03     69.1531E-03     29.7602E+06     8.37122E+06    -11.0678E+06    -10.8401E+06     8.14360E+06     29.7602E+06     1.34989E+06         77.3810
            1342     11.1207E-03     117.060E-03     735.563E-03    -210.060E-03    -217.305E-03    -217.200E-03     735.457E-03    -210.060E-03    -3.40525E-03     598.884E-03    -299.344E-03    -300.386E-03    -298.564E-03     597.086E-03    -299.369E-03     80.2621E-03     33.7134E+06     10.0759E+06    -8.65949E+06    -8.39916E+06     9.81560E+06     33.7134E+06     1.01863E+06         82.1032
            1343     11.8690E-03     117.211E-03     733.837E-03    -209.532E-03    -217.608E-03    -217.530E-03     733.760E-03    -209.532E-03    -12.1359E-03     601.605E-03    -299.130E-03    -302.185E-03    -299.075E-03     598.495E-03    -299.130E-03     103.947E-03     39.1831E+06     12.3524E+06    -5.74963E+06    -5.68843E+06     12.2912E+06     39.1831E+06     24.2622E+03         87.0368
            1344     12.6117E-03     117.407E-03     728.710E-03    -207.266E-03    -216.025E-03    -214.566E-03     728.669E-03    -208.683E-03    -8.20537E-03     603.459E-03    -299.138E-03    -303.089E-03    -299.401E-03     599.772E-03    -299.138E-03     115.043E-03     46.0772E+06     16.0439E+06    -2.77820E+06    -2.75565E+06     16.0213E+06     46.0772E+06     119.791E+03         90.8111
            1345     741.320E-06     118.570E-03     704.764E-03    -171.711E-03    -232.737E-03    -140.484E-03     661.290E-03    -220.490E-03    -121.091E-03     599.794E-03    -299.436E-03    -300.144E-03    -299.433E-03     599.790E-03    -300.144E-03    -2.87357E-03    -52.3381E+06    -54.2494E+06    -56.8614E+06    -55.6685E+06    -52.8260E+06    -54.9543E+06     1.10996E+06         67.7687
            1346     1.48272E-03     118.555E-03     690.828E-03    -183.894E-03    -205.848E-03    -195.565E-03     680.544E-03    -183.894E-03     57.8801E-03     599.420E-03    -299.535E-03    -300.092E-03    -299.524E-03     599.409E-03    -300.092E-03    -6.13331E-03    -49.2532E+06    -51.0555E+06    -54.6811E+06    -54.4844E+06    -49.4500E+06    -51.0555E+06     895.092E+03         67.7779
            1347     2.22373E-03     118.522E-03     699.825E-03    -185.162E-03    -212.469E-03    -204.439E-03     696.581E-03    -189.947E-03    -10.1333E-03     597.846E-03    -299.322E-03    -299.920E-03    -299.302E-03     597.826E-03    -299.920E-03    -8.30924E-03    -44.5394E+06    -45.6964E+06    -52.3641E+06    -52.1749E+06    -45.2908E+06    -45.1341E+06     997.598E+03         67.8275
            1348     2.96578E-03     118.476E-03     705.039E-03    -185.561E-03    -217.772E-03    -205.782E-03     701.930E-03    -194.443E-03    -8.39601E-03     597.418E-03    -299.231E-03    -299.743E-03    -299.569E-03     597.397E-03    -299.385E-03    -8.62383E-03    -36.9457E+06    -39.5061E+06    -49.4706E+06    -49.1485E+06    -39.8282E+06    -36.9457E+06     1.60876E+06         67.9953
            1349     3.70740E-03     118.432E-03     709.901E-03    -193.317E-03    -215.645E-03    -209.130E-03     707.483E-03    -197.413E-03    -23.3868E-03     597.936E-03    -298.736E-03    -299.220E-03    -299.107E-03     597.922E-03    -298.835E-03    -7.16711E-03    -28.7952E+06    -34.0823E+06    -46.1547E+06    -45.8821E+06    -34.3549E+06    -28.7952E+06     1.72696E+06         68.2952
            1350     4.44834E-03     118.397E-03     713.078E-03    -199.747E-03    -213.409E-03    -212.257E-03     711.925E-03    -199.747E-03     2.92434E-03     596.766E-03    -298.961E-03    -299.246E-03    -299.141E-03     596.760E-03    -299.060E-03    -4.09234E-03    -20.6899E+06    -28.7075E+06    -42.7229E+06    -42.4411E+06    -28.9893E+06    -20.6899E+06     1.94528E+06         68.6065
            1351     5.18812E-03     118.426E-03     711.815E-03    -201.075E-03    -210.501E-03    -209.051E-03     710.582E-03    -201.292E-03     1.30765E-03     597.556E-03    -298.546E-03    -299.843E-03    -298.703E-03     597.554E-03    -299.684E-03     951.631E-06    -12.1158E+06    -23.0575E+06    -39.0379E+06    -38.7355E+06    -23.3600E+06    -12.1158E+06     2.00808E+06         68.8208
            1352     5.92885E-03     118.457E-03     707.810E-03    -198.727E-03    -208.620E-03    -204.286E-03     706.679E-03    -201.930E-03     10.7568E-03     596.227E-03    -297.706E-03    -299.744E-03    -297.686E-03     596.207E-03    -299.744E-03     7.47835E-03    -2.69158E+06    -17.1763E+06    -35.3026E+06    -35.0712E+06    -17.4077E+06    -2.69158E+06     1.88670E+06         68.9544
            1353     6.67182E-03     118.439E-03     700.047E-03    -193.213E-03    -206.285E-03    -196.823E-03     699.204E-03    -201.832E-03    -9.06771E-03     593.805E-03    -297.589E-03    -298.593E-03    -297.533E-03     593.731E-03    -298.575E-03     15.6099E-03     6.97134E+06    -10.2238E+06    -31.1744E+06    -30.9164E+06    -10.4818E+06     6.97134E+06     2.29878E+06         69.0807
            1354     7.41556E-03     118.428E-03     692.577E-03    -190.426E-03    -202.084E-03    -190.668E-03     691.634E-03    -200.899E-03    -13.7992E-03     595.742E-03    -296.798E-03    -298.851E-03    -296.643E-03     595.568E-03    -298.833E-03     24.5417E-03     15.8106E+06    -3.85782E+06    -26.5173E+06    -26.2271E+06    -4.14804E+06     15.8106E+06     2.31341E+06         69.3408
            1355     8.15450E-03     118.517E-03     692.898E-03    -191.567E-03    -202.789E-03    -194.043E-03     692.178E-03    -199.594E-03    -29.2722E-03     596.900E-03    -296.296E-03    -298.916E-03    -295.957E-03     596.561E-03    -298.916E-03     34.3682E-03     22.9721E+06     1.32153E+06    -22.1797E+06    -21.9766E+06     1.11843E+06     22.9721E+06     1.89376E+06         69.9624
            1356     8.89528E-03     118.596E-03     699.061E-03    -193.220E-03    -208.223E-03    -202.304E-03     698.809E-03    -198.887E-03    -3.04553E-03     598.107E-03    -297.469E-03    -298.375E-03    -297.132E-03     597.535E-03    -298.141E-03     44.9525E-03     27.4867E+06     4.83200E+06    -18.3194E+06    -18.2487E+06     4.76127E+06     27.4867E+06     1.05955E+06         71.3153
            1357     9.64000E-03     118.635E-03     702.433E-03    -196.327E-03    -209.114E-03    -206.557E-03     702.358E-03    -198.808E-03    -1.85501E-03     599.300E-03    -298.491E-03    -298.963E-03    -298.091E-03     598.428E-03    -298.491E-03     55.6653E-03     29.8879E+06     6.65187E+06    -14.9184E+06    -14.8385E+06     6.57197E+06     29.8879E+06     927.117E+03         73.7740
            1358     10.3782E-03     118.763E-03     700.328E-03    -198.648E-03    -205.583E-03    -205.508E-03     700.253E-03    -198.648E-03     8.45619E-03     599.181E-03    -298.950E-03    -299.273E-03    -297.822E-03     597.812E-03    -299.032E-03     69.5752E-03     31.1426E+06     8.36166E+06    -12.0627E+06    -11.7663E+06     8.06520E+06     31.1426E+06     1.60363E+06         77.4329
            1359     11.1219E-03     118.900E-03     696.092E-03    -197.921E-03    -203.328E-03    -202.951E-03     695.955E-03    -198.162E-03    -414.316E-06     598.648E-03    -299.307E-03    -300.219E-03    -298.302E-03     596.813E-03    -299.389E-03     81.0821E-03     33.9349E+06     10.1618E+06    -8.77694E+06    -8.51567E+06     9.90058E+06     33.9349E+06     760.582E+03         82.1548
            1360     11.8711E-03     119.048E-03     690.148E-03    -197.099E-03    -200.280E-03    -199.944E-03     690.052E-03    -197.340E-03    -8.48644E-03     601.455E-03    -299.155E-03    -302.083E-03    -298.955E-03     598.327E-03    -299.155E-03     104.294E-03     39.9325E+06     13.5649E+06    -5.78909E+06    -5.73443E+06     13.5103E+06     39.9325E+06     269.373E+03         87.0867
            1361     12.6137E-03     119.243E-03     682.940E-03    -194.680E-03    -198.352E-03    -196.861E-03     682.866E-03    -196.097E-03    -6.97486E-03     603.573E-03    -299.145E-03    -303.133E-03    -299.452E-03     599.892E-03    -299.145E-03     114.926E-03     49.1892E+06     17.0193E+06    -3.06708E+06    -3.04768E+06     16.9999E+06     49.1892E+06     385.055E+03         90.8595
            1362     742.089E-06     120.391E-03     672.861E-03    -160.367E-03    -224.967E-03    -114.060E-03     613.179E-03    -211.591E-03    -138.524E-03     599.367E-03    -299.440E-03    -299.780E-03    -299.436E-03     599.363E-03    -299.780E-03    -3.22281E-03    -54.0521E+06    -56.3319E+06    -58.6877E+06    -57.5301E+06    -54.3950E+06    -57.1466E+06     338.488E+03         67.7608
            1363     1.48352E-03     120.383E-03     642.340E-03    -165.065E-03    -187.742E-03    -174.137E-03     628.734E-03    -165.065E-03     70.6666E-03     599.277E-03    -299.502E-03    -299.988E-03    -299.490E-03     599.264E-03    -299.988E-03    -6.48070E-03    -50.9043E+06    -53.1607E+06    -56.8680E+06    -56.5655E+06    -51.0971E+06    -53.2705E+06     963.809E+03         67.7759
            1364     2.22499E-03     120.351E-03     656.715E-03    -170.842E-03    -195.705E-03    -191.686E-03     652.697E-03    -170.842E-03    -11.9276E-03     597.925E-03    -299.357E-03    -299.953E-03    -299.492E-03     597.903E-03    -299.796E-03    -8.84875E-03    -46.7928E+06    -47.7256E+06    -54.9252E+06    -54.7952E+06    -47.2260E+06    -47.4225E+06     931.964E+03         67.8355
            1365     2.96601E-03     120.307E-03     679.627E-03    -178.415E-03    -212.753E-03    -209.925E-03     676.799E-03    -178.415E-03     2.40198E-03     597.745E-03    -299.283E-03    -299.814E-03    -299.734E-03     597.721E-03    -299.340E-03    -9.12393E-03    -39.6923E+06    -41.6597E+06    -51.7926E+06    -51.5542E+06    -41.8981E+06    -39.6923E+06     1.43793E+06         68.0186
            1366     3.70733E-03     120.266E-03     686.577E-03    -185.293E-03    -214.176E-03    -212.189E-03     684.590E-03    -185.293E-03    -14.3080E-03     597.916E-03    -298.572E-03    -299.202E-03    -298.901E-03     597.900E-03    -298.857E-03    -7.38383E-03    -30.1356E+06    -35.3704E+06    -48.2452E+06    -47.9378E+06    -35.6779E+06    -30.1356E+06     1.91301E+06         68.3264
            1367     4.44834E-03     120.233E-03     672.524E-03    -186.912E-03    -200.272E-03    -197.156E-03     671.293E-03    -188.798E-03     3.74192E-03     596.376E-03    -298.798E-03    -299.182E-03    -298.892E-03     596.370E-03    -299.082E-03    -3.71509E-03    -21.3254E+06    -29.9265E+06    -44.9691E+06    -44.7339E+06    -30.1617E+06    -21.3254E+06     1.84497E+06         68.6326
            1368     5.18869E-03     120.260E-03     656.191E-03    -180.558E-03    -190.078E-03    -180.071E-03     654.335E-03    -188.708E-03     15.3269E-03     597.289E-03    -298.520E-03    -299.641E-03    -298.590E-03     597.287E-03    -299.568E-03     1.48409E-03    -12.7078E+06    -24.1264E+06    -41.0750E+06    -40.8159E+06    -24.3856E+06    -12.7078E+06     2.01820E+06         68.8374
            1369     5.92870E-03     120.293E-03     645.062E-03    -170.778E-03    -186.818E-03    -169.368E-03     643.653E-03    -186.818E-03     35.6524E-03     596.073E-03    -297.776E-03    -299.563E-03    -297.756E-03     596.053E-03    -299.563E-03     7.68130E-03    -1.82860E+06    -17.5141E+06    -36.9007E+06    -36.6532E+06    -17.7615E+06    -1.82860E+06     2.10141E+06         68.9646
            1370     6.67194E-03     120.276E-03     642.859E-03    -169.494E-03    -185.164E-03    -169.054E-03     642.157E-03    -184.902E-03     20.2442E-03     593.672E-03    -297.670E-03    -298.479E-03    -297.615E-03     593.599E-03    -298.461E-03     15.5014E-03     8.74940E+06    -10.3995E+06    -32.2726E+06    -32.1112E+06    -10.5609E+06     8.74940E+06     1.75285E+06         69.0900
            1371     7.41591E-03     120.268E-03     651.680E-03    -173.179E-03    -190.085E-03    -178.976E-03     651.044E-03    -183.653E-03     21.4308E-03     595.695E-03    -296.953E-03    -298.770E-03    -296.804E-03     595.528E-03    -298.751E-03     24.0858E-03     16.5092E+06    -4.34279E+06    -27.3291E+06    -27.1945E+06    -4.47734E+06     16.5092E+06     1.53330E+06         69.3585
            1372     8.15537E-03     120.359E-03     664.633E-03    -178.459E-03    -198.991E-03    -194.014E-03     664.497E-03    -183.300E-03     2.64616E-03     596.935E-03    -296.536E-03    -298.859E-03    -296.209E-03     596.608E-03    -298.859E-03     33.7363E-03     23.2188E+06     953.391E+03    -22.9916E+06    -22.8594E+06     821.185E+03     23.2188E+06     1.65663E+06         69.9931
            1373     8.89541E-03     120.438E-03     674.959E-03    -184.055E-03    -205.641E-03    -205.521E-03     674.839E-03    -184.055E-03     18.8028E-03     598.069E-03    -297.585E-03    -298.357E-03    -297.223E-03     597.513E-03    -298.163E-03     44.3086E-03     28.8911E+06     5.10775E+06    -19.2023E+06    -19.0399E+06     4.94539E+06     28.8911E+06     1.85063E+06         71.3540
            1374     9.64007E-03     120.478E-03     677.043E-03    -185.219E-03    -207.078E-03    -207.040E-03     677.005E-03    -185.219E-03     6.80739E-03     599.055E-03    -298.490E-03    -298.993E-03    -298.123E-03     598.185E-03    -298.490E-03     55.5471E-03     32.3196E+06     7.31243E+06    -15.7160E+06    -15.5196E+06     7.11602E+06     32.3196E+06     1.98362E+06         73.8162
            1375     10.3794E-03     120.604E-03     670.657E-03    -185.728E-03    -200.093E-03    -200.027E-03     670.591E-03    -185.728E-03     9.92822E-03     598.857E-03    -298.839E-03    -299.277E-03    -297.768E-03     597.476E-03    -298.968E-03     69.8904E-03     33.4172E+06     8.83518E+06    -12.2511E+06    -12.1423E+06     8.72631E+06     33.4172E+06     1.01212E+06         77.4808
            1376     11.1222E-03     120.741E-03     660.689E-03    -185.127E-03    -190.689E-03    -190.267E-03     660.507E-03    -185.368E-03    -2.65328E-03     598.619E-03    -299.278E-03    -300.584E-03    -298.631E-03     596.794E-03    -299.406E-03     80.8976E-03     35.6668E+06     10.1325E+06    -9.41515E+06    -9.37100E+06     10.0884E+06     35.6668E+06     553.036E+03         82.2095
            1377     11.8703E-03     120.888E-03     655.264E-03    -184.240E-03    -187.413E-03    -187.033E-03     655.125E-03    -184.481E-03    -7.99449E-03     601.709E-03    -299.161E-03    -302.643E-03    -299.569E-03     598.635E-03    -299.161E-03     103.453E-03     42.6227E+06     14.0042E+06    -6.64871E+06    -6.61031E+06     13.9658E+06     42.6227E+06     759.644E+03         87.1413
            1378     12.6128E-03     121.083E-03     657.511E-03    -183.493E-03    -191.369E-03    -191.231E-03     657.372E-03    -183.493E-03    -8.37932E-03     603.627E-03    -299.109E-03    -303.280E-03    -299.640E-03     599.987E-03    -299.109E-03     114.344E-03     52.4413E+06     17.9803E+06    -3.26025E+06    -3.25059E+06     17.9707E+06     52.4413E+06     339.091E+03         90.9119
            1379     741.437E-06     122.210E-03     701.213E-03    -173.771E-03    -253.638E-03    -118.970E-03     634.214E-03    -241.439E-03    -141.499E-03     600.008E-03    -299.825E-03    -300.245E-03    -299.820E-03     600.003E-03    -300.245E-03    -4.12663E-03    -56.9464E+06    -60.1820E+06    -62.8704E+06    -62.0803E+06    -57.6268E+06    -60.2918E+06     856.307E+03         67.7771
            1380     1.48275E-03     122.208E-03     645.264E-03    -174.388E-03    -194.798E-03    -173.806E-03     628.716E-03    -178.833E-03     84.4441E-03     599.492E-03    -299.254E-03    -300.229E-03    -299.237E-03     599.475E-03    -300.229E-03    -7.57061E-03    -53.1457E+06    -55.5214E+06    -60.6477E+06    -60.2892E+06    -53.3945E+06    -55.6312E+06     1.24005E+06         67.7833
            1381     2.22408E-03     122.178E-03     627.442E-03    -167.339E-03    -182.635E-03    -168.651E-03     622.241E-03    -176.122E-03    -5.74815E-03     598.051E-03    -299.025E-03    -300.092E-03    -299.156E-03     598.025E-03    -299.935E-03    -9.65789E-03    -47.4582E+06    -49.0451E+06    -57.7784E+06    -57.5086E+06    -48.4263E+06    -48.3467E+06     1.57287E+06         67.8518
            1382     2.96532E-03     122.139E-03     621.143E-03    -159.942E-03    -184.863E-03    -166.614E-03     616.806E-03    -173.854E-03     8.06719E-03     597.549E-03    -298.903E-03    -299.719E-03    -299.132E-03     597.524E-03    -299.465E-03    -9.44435E-03    -40.5133E+06    -43.2728E+06    -55.0338E+06    -54.8403E+06    -43.4662E+06    -40.5133E+06     1.45987E+06         68.0663
            1383     3.70729E-03     122.099E-03     616.008E-03    -157.430E-03    -183.744E-03    -166.418E-03     613.713E-03    -172.461E-03    -29.9622E-03     597.196E-03    -297.825E-03    -299.016E-03    -297.906E-03     597.180E-03    -298.920E-03    -7.32908E-03    -31.9325E+06    -37.4434E+06    -51.1900E+06    -51.0241E+06    -37.6093E+06    -31.9325E+06     1.46092E+06         68.3902
            1384     4.44977E-03     122.072E-03     613.667E-03    -164.240E-03    -175.735E-03    -166.896E-03     612.170E-03    -171.583E-03    -16.5388E-03     595.855E-03    -298.262E-03    -299.071E-03    -298.292E-03     595.850E-03    -299.037E-03    -3.45230E-03    -21.8414E+06    -30.5916E+06    -46.5231E+06    -46.3200E+06    -30.7946E+06    -21.8414E+06     1.74986E+06         68.6798
            1385     5.18964E-03     122.098E-03     611.288E-03    -162.757E-03    -175.524E-03    -165.724E-03     609.422E-03    -170.692E-03    -9.29688E-03     597.302E-03    -298.705E-03    -299.449E-03    -298.737E-03     597.299E-03    -299.414E-03     1.53138E-03    -12.4672E+06    -24.5512E+06    -42.6614E+06    -42.4741E+06    -24.7385E+06    -12.4672E+06     1.80743E+06         68.8571
            1386     5.92916E-03     122.135E-03     610.697E-03    -157.056E-03    -179.851E-03    -165.816E-03     609.500E-03    -169.894E-03     3.98681E-03     596.200E-03    -298.406E-03    -299.418E-03    -298.404E-03     596.180E-03    -299.400E-03     7.80447E-03    -1.64347E+06    -17.7002E+06    -38.0791E+06    -37.9301E+06    -17.8493E+06    -1.64347E+06     1.73174E+06         68.9708
            1387     6.67211E-03     122.112E-03     618.058E-03    -163.000E-03    -180.099E-03    -172.648E-03     617.396E-03    -169.789E-03    -13.2088E-03     593.731E-03    -298.032E-03    -298.541E-03    -298.135E-03     593.662E-03    -298.369E-03     15.1428E-03     9.19965E+06    -10.4100E+06    -33.2545E+06    -33.1049E+06    -10.5596E+06     9.19965E+06     1.72667E+06         69.1007
            1388     7.41635E-03     122.102E-03     627.463E-03    -170.428E-03    -181.413E-03    -180.921E-03     626.971E-03    -170.428E-03    -6.28568E-03     595.676E-03    -297.047E-03    -298.876E-03    -297.040E-03     595.516E-03    -298.723E-03     23.4848E-03     17.6480E+06    -4.94544E+06    -29.1700E+06    -29.0169E+06    -5.09856E+06     17.6480E+06     1.74112E+06         69.3779
            1389     8.15463E-03     122.202E-03     631.097E-03    -170.902E-03    -184.700E-03    -183.979E-03     630.758E-03    -171.284E-03    -19.4411E-03     596.772E-03    -296.556E-03    -298.839E-03    -296.235E-03     596.451E-03    -298.839E-03     33.4141E-03     25.1746E+06    -121.274E+03    -24.8487E+06    -24.6855E+06    -284.473E+03     25.1746E+06     1.91889E+06         70.0179
            1390     8.89549E-03     122.276E-03     628.706E-03    -170.424E-03    -184.250E-03    -182.612E-03     628.644E-03    -171.999E-03    -1.27011E-03     597.791E-03    -297.516E-03    -298.270E-03    -297.058E-03     597.239E-03    -298.176E-03     44.1603E-03     30.1614E+06     4.12885E+06    -20.5141E+06    -20.3202E+06     3.93495E+06     30.1614E+06     2.08470E+06         71.3857
            1391     9.64078E-03     122.317E-03     627.492E-03    -169.576E-03    -183.968E-03    -181.141E-03     627.457E-03    -172.368E-03    -6.27378E-03     598.851E-03    -298.497E-03    -299.010E-03    -298.144E-03     597.985E-03    -298.497E-03     55.4062E-03     32.6509E+06     6.92593E+06    -16.4257E+06    -16.2858E+06     6.78607E+06     32.6509E+06     1.58988E+06         73.8550
            1392     10.3798E-03     122.444E-03     630.441E-03    -170.749E-03    -184.428E-03    -182.767E-03     630.378E-03    -172.347E-03     2.28422E-03     598.732E-03    -298.868E-03    -299.498E-03    -298.103E-03     597.383E-03    -298.914E-03     69.1279E-03     35.4078E+06     9.22671E+06    -12.7906E+06    -12.6360E+06     9.07205E+06     35.4078E+06     1.47679E+06         77.5270
            1393     11.1228E-03     122.584E-03     634.679E-03    -172.259E-03    -187.056E-03    -186.789E-03     634.412E-03    -172.259E-03    -11.6991E-03     598.865E-03    -299.502E-03    -300.699E-03    -298.844E-03     597.056E-03    -299.548E-03     80.5136E-03     40.2327E+06     11.6094E+06    -9.61449E+06    -9.46798E+06     11.4629E+06     40.2327E+06     1.38445E+06         82.2618
            1394     11.8691E-03     122.732E-03     638.143E-03    -172.292E-03    -190.147E-03    -189.859E-03     637.855E-03    -172.292E-03    -11.9373E-03     601.681E-03    -299.281E-03    -302.521E-03    -299.432E-03     598.592E-03    -299.281E-03     103.733E-03     47.1638E+06     15.0189E+06    -6.12845E+06    -6.08453E+06     14.9750E+06     47.1638E+06     820.010E+03         87.1923
            1395     12.6125E-03     122.922E-03     639.623E-03    -172.303E-03    -191.022E-03    -190.757E-03     639.358E-03    -172.303E-03    -11.0448E-03     603.253E-03    -299.052E-03    -303.284E-03    -299.605E-03     599.573E-03    -299.052E-03     114.972E-03     55.1945E+06     18.9914E+06    -3.10120E+06    -3.06627E+06     18.9564E+06     55.1945E+06     813.523E+03         90.9604
            1396     740.429E-06     124.033E-03     682.670E-03    -159.854E-03    -261.192E-03    -103.357E-03     615.200E-03    -250.219E-03    -142.325E-03     600.637E-03    -300.086E-03    -300.520E-03    -300.109E-03     600.633E-03    -300.493E-03    -3.50957E-03    -59.5414E+06    -63.6310E+06    -66.5932E+06    -65.1315E+06    -60.2260E+06    -64.4079E+06     332.168E+03         67.7985
            1397     1.48166E-03     124.021E-03     615.661E-03    -168.458E-03    -185.404E-03    -164.220E-03     600.451E-03    -174.432E-03     89.4638E-03     599.938E-03    -299.386E-03    -300.451E-03    -299.399E-03     599.925E-03    -300.424E-03    -6.83979E-03    -54.9960E+06    -58.0581E+06    -63.8560E+06    -62.9200E+06    -55.1550E+06    -58.8351E+06     885.910E+03         67.7926
            1398     2.22302E-03     123.996E-03     587.515E-03    -154.925E-03    -168.983E-03    -150.162E-03     582.753E-03    -168.983E-03     7.19876E-03     598.011E-03    -298.798E-03    -300.135E-03    -298.777E-03     597.989E-03    -300.135E-03    -8.79280E-03    -49.2307E+06    -51.4792E+06    -60.7144E+06    -60.3837E+06    -50.0752E+06    -50.9654E+06     1.84124E+06         67.8512
            1399     2.96436E-03     123.987E-03     570.718E-03    -143.093E-03    -162.946E-03    -138.532E-03     566.157E-03    -162.946E-03     13.8963E-03     597.268E-03    -298.527E-03    -299.601E-03    -298.503E-03     597.245E-03    -299.601E-03    -9.14807E-03    -41.2730E+06    -44.2638E+06    -57.4985E+06    -57.2160E+06    -44.2391E+06    -41.5802E+06     1.84872E+06         68.0648
            1400     3.70610E-03     123.979E-03     564.112E-03    -140.846E-03    -158.164E-03    -138.352E-03     561.525E-03    -158.072E-03    -20.4111E-03     597.250E-03    -297.655E-03    -299.188E-03    -297.638E-03     597.233E-03    -299.188E-03    -7.68444E-03    -32.5863E+06    -38.4086E+06    -53.8339E+06    -53.6935E+06    -38.5490E+06    -32.5863E+06     1.43085E+06         68.3940
            1401     4.44971E-03     123.913E-03     576.749E-03    -150.635E-03    -161.292E-03    -154.022E-03     574.937E-03    -156.093E-03    -8.51677E-03     595.999E-03    -298.270E-03    -299.291E-03    -298.288E-03     595.993E-03    -299.267E-03    -4.12884E-03    -23.5627E+06    -32.4224E+06    -49.5698E+06    -49.3901E+06    -32.6021E+06    -23.5627E+06     1.70988E+06         68.6826
            1402     5.19004E-03     123.933E-03     596.889E-03    -157.119E-03    -175.086E-03    -173.522E-03     595.326E-03    -157.119E-03    -11.1183E-03     597.206E-03    -298.768E-03    -299.421E-03    -298.790E-03     597.204E-03    -299.398E-03     832.296E-06    -13.0451E+06    -25.3870E+06    -44.6609E+06    -44.4140E+06    -25.6340E+06    -13.0451E+06     2.14458E+06         68.8489
            1403     5.92968E-03     123.973E-03     609.596E-03    -159.784E-03    -185.847E-03    -184.943E-03     608.692E-03    -159.784E-03     1.84902E-03     596.124E-03    -298.481E-03    -299.310E-03    -298.480E-03     596.105E-03    -299.292E-03     7.31240E-03    -1.62457E+06    -18.4431E+06    -40.4031E+06    -40.1389E+06    -18.7074E+06    -1.62457E+06     2.33130E+06         68.9602
            1404     6.67235E-03     123.952E-03     609.106E-03    -162.345E-03    -182.539E-03    -181.928E-03     608.495E-03    -162.345E-03    -11.5420E-03     593.920E-03    -298.128E-03    -298.548E-03    -298.298E-03     593.852E-03    -298.310E-03     15.0391E-03     9.04225E+06    -10.9671E+06    -36.2217E+06    -35.9688E+06    -11.2200E+06     9.04225E+06     2.43084E+06         69.1060
            1405     7.41578E-03     123.942E-03     598.825E-03    -162.710E-03    -171.357E-03    -169.960E-03     598.321E-03    -163.604E-03    -7.34377E-03     596.013E-03    -297.077E-03    -298.982E-03    -297.129E-03     595.845E-03    -298.763E-03     23.9815E-03     18.5913E+06    -5.18126E+06    -31.3271E+06    -31.1264E+06    -5.38195E+06     18.5913E+06     2.17523E+06         69.3969
            1406     8.15394E-03     124.040E-03     586.378E-03    -157.981E-03    -164.222E-03    -158.408E-03     586.043E-03    -163.461E-03    -22.7426E-03     596.784E-03    -296.332E-03    -298.850E-03    -296.002E-03     596.453E-03    -298.850E-03     33.9580E-03     27.0049E+06    -713.422E+03    -26.4432E+06    -26.2648E+06    -891.756E+03     27.0049E+06     2.02234E+06         70.0349
            1407     8.89600E-03     124.121E-03     580.889E-03    -154.474E-03    -162.571E-03    -154.380E-03     580.795E-03    -162.571E-03     666.982E-06     597.706E-03    -297.331E-03    -298.307E-03    -296.914E-03     597.146E-03    -298.164E-03     44.4617E-03     32.6391E+06     3.95006E+06    -22.0271E+06    -21.8504E+06     3.77335E+06     32.6391E+06     2.06229E+06         71.3963
            1408     9.64067E-03     124.158E-03     583.499E-03    -156.534E-03    -162.712E-03    -157.518E-03     583.414E-03    -161.643E-03     710.748E-06     599.096E-03    -298.551E-03    -299.113E-03    -298.236E-03     598.220E-03    -298.551E-03     55.7777E-03     36.1896E+06     7.42061E+06    -17.6950E+06    -17.5890E+06     7.31468E+06     36.1896E+06     1.43586E+06         73.8658
            1409     10.3794E-03     124.287E-03     591.734E-03    -159.484E-03    -167.835E-03    -166.015E-03     591.513E-03    -161.083E-03     12.4661E-03     598.948E-03    -298.905E-03    -299.520E-03    -298.129E-03     597.588E-03    -298.937E-03     69.4211E-03     38.1894E+06     10.3847E+06    -13.8662E+06    -13.6938E+06     10.2123E+06     38.1894E+06     1.71296E+06         77.5438
            1410     11.1219E-03     124.420E-03     604.046E-03    -161.131E-03    -178.631E-03    -178.214E-03     603.629E-03    -161.131E-03    -3.25336E-03     598.405E-03    -299.633E-03    -300.396E-03    -298.536E-03     596.576E-03    -299.664E-03     80.9019E-03     41.1090E+06     12.1204E+06    -10.6595E+06    -10.4324E+06     11.8934E+06     41.1090E+06     2.00728E+06         82.2863
            1411     11.8714E-03     124.570E-03     611.661E-03    -161.621E-03    -185.941E-03    -185.631E-03     611.351E-03    -161.621E-03    -7.01270E-03     601.029E-03    -299.363E-03    -302.004E-03    -298.907E-03     597.932E-03    -299.363E-03     103.871E-03     47.6326E+06     14.5380E+06    -7.62388E+06    -7.52778E+06     14.4419E+06     47.6326E+06     1.23886E+06         87.2225
            1412     12.6147E-03     124.757E-03     610.529E-03    -162.045E-03    -185.952E-03    -185.610E-03     610.187E-03    -162.045E-03    -8.21169E-03     603.253E-03    -298.989E-03    -303.277E-03    -299.598E-03     599.574E-03    -298.989E-03     114.971E-03     57.4779E+06     20.0893E+06    -3.96807E+06    -3.92731E+06     20.0486E+06     57.4779E+06     643.969E+03         90.9961
            1413     741.296E-06     125.860E-03     604.787E-03    -123.346E-03    -231.404E-03    -65.6513E-03     537.936E-03    -222.247E-03    -145.038E-03     600.280E-03    -299.842E-03    -300.262E-03    -299.866E-03     600.276E-03    -300.235E-03    -3.12421E-03    -61.3387E+06    -66.1945E+06    -69.1723E+06    -68.0521E+06    -61.5684E+06    -67.0849E+06    -115.574E+03         67.7953
            1414     1.48218E-03     125.843E-03     547.315E-03    -141.919E-03    -154.638E-03    -139.640E-03     533.845E-03    -143.448E-03     65.2948E-03     599.857E-03    -299.452E-03    -300.286E-03    -299.468E-03     599.846E-03    -300.259E-03    -6.04493E-03    -57.6436E+06    -62.5284E+06    -67.8745E+06    -66.9772E+06    -57.7640E+06    -63.3053E+06     747.658E+03         67.7863
            1415     2.22349E-03     125.824E-03     536.945E-03    -136.882E-03    -147.737E-03    -138.300E-03     532.783E-03    -142.156E-03    -10.7829E-03     597.915E-03    -298.751E-03    -300.057E-03    -298.733E-03     597.897E-03    -300.057E-03    -7.99692E-03    -52.7899E+06    -55.9040E+06    -64.5687E+06    -64.3802E+06    -52.9783E+06    -55.9040E+06     1.20329E+06         67.8307
            1416     2.96495E-03     125.822E-03     542.659E-03    -136.003E-03    -153.203E-03    -144.290E-03     539.687E-03    -141.943E-03     4.57503E-03     597.688E-03    -298.791E-03    -299.708E-03    -298.964E-03     597.667E-03    -299.514E-03    -8.62208E-03    -44.7722E+06    -46.8415E+06    -60.7283E+06    -60.4552E+06    -46.3236E+06    -45.5632E+06     1.85372E+06         68.0275
            1417     3.70539E-03     125.818E-03     553.389E-03    -141.180E-03    -158.106E-03    -153.720E-03     551.197E-03    -143.374E-03    -8.34151E-03     598.251E-03    -298.281E-03    -299.542E-03    -298.458E-03     598.235E-03    -299.349E-03    -7.55529E-03    -33.9834E+06    -38.9585E+06    -56.9977E+06    -56.5926E+06    -39.3636E+06    -33.9834E+06     2.51847E+06         68.3569
            1418     4.44701E-03     125.800E-03     561.760E-03    -145.735E-03    -161.082E-03    -159.998E-03     560.676E-03    -145.735E-03     17.1592E-03     596.520E-03    -298.662E-03    -299.629E-03    -298.658E-03     596.514E-03    -299.627E-03    -4.34509E-03    -23.7362E+06    -33.2318E+06    -53.5116E+06    -53.1173E+06    -33.6261E+06    -23.7362E+06     2.60765E+06         68.6648
            1419     5.19019E-03     125.761E-03     567.884E-03    -147.111E-03    -165.606E-03    -163.639E-03     566.924E-03    -148.119E-03     16.6471E-03     596.913E-03    -298.529E-03    -299.526E-03    -298.528E-03     596.910E-03    -299.524E-03     901.740E-06    -13.8493E+06    -27.2207E+06    -48.6869E+06    -48.4336E+06    -27.4740E+06    -13.8493E+06     2.30318E+06         68.8556
            1420     5.93312E-03     125.735E-03     568.909E-03    -147.422E-03    -166.064E-03    -162.698E-03     568.080E-03    -149.959E-03     24.3259E-03     595.620E-03    -297.769E-03    -299.194E-03    -297.748E-03     595.600E-03    -299.194E-03     7.69668E-03    -1.67085E+06    -19.6999E+06    -43.4506E+06    -43.1466E+06    -20.0039E+06    -1.67085E+06     2.63458E+06         68.9743
            1421     6.67287E-03     125.804E-03     565.921E-03    -149.388E-03    -161.066E-03    -159.133E-03     565.517E-03    -150.916E-03     12.8134E-03     593.862E-03    -297.806E-03    -298.489E-03    -297.874E-03     593.790E-03    -298.349E-03     15.5133E-03     10.5361E+06    -11.2545E+06    -38.3578E+06    -38.0032E+06    -11.6091E+06     10.5361E+06     2.98576E+06         69.1025
            1422     7.41227E-03     125.871E-03     562.766E-03    -150.322E-03    -157.252E-03    -155.977E-03     562.385E-03    -151.216E-03     14.1639E-03     596.540E-03    -297.594E-03    -299.000E-03    -297.566E-03     596.371E-03    -298.860E-03     24.1224E-03     20.5391E+06     -5.4321E+06    -32.9744E+06    -32.6763E+06    -5.73024E+06     20.5391E+06     2.74302E+06         69.3775
            1423     8.15580E-03     125.883E-03     561.123E-03    -146.153E-03    -160.148E-03    -154.962E-03     561.035E-03    -151.251E-03    -775.952E-06     597.193E-03    -296.786E-03    -298.822E-03    -296.455E-03     596.862E-03    -298.822E-03     33.9836E-03     29.2357E+06    -814.251E+03    -27.8255E+06    -27.5760E+06    -1.06376E+06     29.2357E+06     2.49512E+06         70.0098
            1424     8.89716E-03     125.932E-03     562.137E-03    -144.659E-03    -163.170E-03    -156.467E-03     561.955E-03    -151.180E-03     21.0507E-03     597.782E-03    -297.411E-03    -298.314E-03    -296.934E-03     597.213E-03    -298.221E-03     44.8223E-03     35.9618E+06     4.53934E+06    -23.0649E+06    -22.8108E+06     4.28520E+06     35.9618E+06     2.56442E+06         71.3611
            1425     9.63704E-03     126.063E-03     565.626E-03    -148.895E-03    -163.127E-03    -160.653E-03     565.470E-03    -151.213E-03     18.4405E-03     598.657E-03    -298.568E-03    -299.070E-03    -298.137E-03     597.765E-03    -298.609E-03     56.2713E-03     39.1590E+06     7.56024E+06    -19.1795E+06    -18.8173E+06     7.19801E+06     39.1590E+06     2.76549E+06         73.8254
            1426     10.3811E-03     126.137E-03     569.715E-03    -151.494E-03    -165.194E-03    -164.701E-03     569.222E-03    -151.494E-03     30.5626E-03     598.544E-03    -298.859E-03    -299.347E-03    -297.920E-03     597.148E-03    -298.891E-03     70.2861E-03     40.2290E+06     10.0105E+06    -15.5693E+06    -15.2787E+06     9.71988E+06     40.2290E+06     2.24252E+06         77.5134
            1427     11.1217E-03     126.257E-03     569.256E-03    -151.772E-03    -165.534E-03    -164.929E-03     568.651E-03    -151.772E-03     13.0862E-03     598.267E-03    -299.633E-03    -300.568E-03    -298.674E-03     596.403E-03    -299.664E-03     81.6956E-03     43.2430E+06     12.6255E+06    -11.8166E+06    -11.6728E+06     12.4817E+06     43.2430E+06     1.76701E+06         82.2723
            1428     11.8678E-03     126.418E-03     567.143E-03    -151.797E-03    -165.273E-03    -164.893E-03     566.763E-03    -151.797E-03     4.15005E-03     601.020E-03    -299.370E-03    -302.440E-03    -299.342E-03     597.921E-03    -299.370E-03     103.983E-03     50.9982E+06     15.8818E+06    -7.73822E+06    -7.63603E+06     15.7796E+06     50.9982E+06     1.23337E+06         87.2280
            1429     12.6136E-03     126.604E-03     566.080E-03    -151.637E-03    -167.424E-03    -166.883E-03     565.539E-03    -151.637E-03    -3.25513E-03     603.513E-03    -298.952E-03    -303.431E-03    -299.779E-03     599.860E-03    -298.952E-03     114.571E-03     62.7052E+06     21.5231E+06    -3.42250E+06    -3.39354E+06     21.4942E+06     62.7052E+06     400.860E+03         91.0206
            1430     741.152E-06     127.668E-03     528.291E-03    -87.2480E-03    -200.996E-03    -51.8053E-03     478.256E-03    -186.403E-03    -107.019E-03     599.729E-03    -299.382E-03    -300.230E-03    -299.378E-03     599.725E-03    -300.230E-03    -3.48194E-03    -64.9363E+06    -72.1638E+06     -75.107E+06    -74.4188E+06    -65.5110E+06    -72.2774E+06     1.97947E+06         67.7735
            1431     1.48291E-03     127.647E-03     510.260E-03    -122.001E-03    -144.769E-03    -134.315E-03     499.806E-03    -122.001E-03     50.5604E-03     599.117E-03    -299.075E-03    -299.992E-03    -299.064E-03     599.105E-03    -299.992E-03    -6.21981E-03    -59.9023E+06    -66.4185E+06    -73.1128E+06    -72.7259E+06    -60.2891E+06    -66.4185E+06     1.99587E+06         67.7643
            1432     2.22493E-03     127.622E-03     521.939E-03    -128.256E-03    -150.104E-03    -147.124E-03     518.959E-03    -128.256E-03    -13.5955E-03     597.724E-03    -298.733E-03    -299.812E-03    -298.713E-03     597.705E-03    -299.812E-03    -8.37500E-03    -55.0013E+06    -58.4749E+06    -70.3141E+06    -69.9943E+06    -55.3211E+06    -58.4749E+06     1.86617E+06         67.8054
            1433     2.96613E-03     127.604E-03     537.559E-03    -134.354E-03    -160.505E-03    -157.984E-03     535.039E-03    -134.354E-03    -10.9551E-03     597.751E-03    -298.957E-03    -299.564E-03    -299.136E-03     597.730E-03    -299.364E-03    -8.70538E-03    -48.2501E+06    -50.2167E+06    -66.9555E+06    -66.6687E+06    -49.6265E+06    -49.1271E+06     2.15765E+06         68.0026
            1434     3.70730E-03     127.594E-03     540.500E-03    -138.592E-03    -158.415E-03    -156.163E-03     538.667E-03    -139.010E-03    -28.3637E-03     598.459E-03    -298.505E-03    -299.443E-03    -298.690E-03     598.445E-03    -299.243E-03    -7.02546E-03    -37.3694E+06    -41.7190E+06    -62.4652E+06    -61.9401E+06    -42.2441E+06    -37.3694E+06     3.18744E+06         68.3407
            1435     4.44772E-03     127.579E-03     532.288E-03    -135.947E-03    -152.441E-03    -146.342E-03     531.403E-03    -141.161E-03    -6.54711E-03     596.428E-03    -298.720E-03    -299.694E-03    -298.716E-03     596.423E-03    -299.694E-03    -3.52099E-03    -24.3128E+06    -33.5896E+06    -57.1770E+06    -56.5758E+06    -34.1908E+06    -24.3128E+06     3.61947E+06         68.6676
            1436     5.18996E-03     127.563E-03     520.333E-03    -130.794E-03    -145.482E-03    -134.034E-03     519.220E-03    -141.129E-03    -304.329E-06     596.427E-03    -298.260E-03    -299.634E-03    -298.256E-03     596.423E-03    -299.634E-03     1.74693E-03    -13.1049E+06    -27.4629E+06    -52.8345E+06    -52.3542E+06    -27.9431E+06    -13.1049E+06     3.36274E+06         68.8843
            1437     5.93354E-03     127.555E-03     515.075E-03    -129.975E-03    -139.927E-03    -129.208E-03     514.309E-03    -139.927E-03     9.95019E-03     595.161E-03    -297.268E-03    -299.082E-03    -297.245E-03     595.139E-03    -299.082E-03     8.27610E-03    -1.47020E+06    -20.5805E+06    -47.6783E+06    -47.3105E+06    -20.9483E+06    -1.47020E+06     3.04703E+06         69.0030
            1438     6.67338E-03     127.606E-03     517.298E-03    -133.325E-03    -138.729E-03    -132.899E-03     516.868E-03    -138.726E-03    -9.22978E-03     593.614E-03    -297.535E-03    -298.360E-03    -297.611E-03     593.541E-03    -298.211E-03     15.6921E-03     10.9263E+06    -12.4111E+06    -41.5681E+06    -41.2404E+06    -12.7388E+06     10.9263E+06     2.99798E+06         69.0950
            1439     7.41192E-03     127.679E-03     526.456E-03    -137.398E-03    -144.063E-03    -142.765E-03     526.146E-03    -138.385E-03    -6.67072E-03     596.610E-03    -297.669E-03    -298.967E-03    -297.647E-03     596.439E-03    -298.818E-03     24.2718E-03     22.1661E+06    -5.85077E+06    -36.0547E+06    -35.6686E+06    -6.23690E+06     22.1661E+06     3.25587E+06         69.3397
            1440     8.15601E-03     127.683E-03     541.574E-03    -139.255E-03    -157.134E-03    -156.857E-03     541.296E-03    -139.255E-03    -14.7007E-03     597.258E-03    -296.838E-03    -298.764E-03    -296.501E-03     596.920E-03    -298.764E-03     34.2906E-03     31.5270E+06    -980.314E+03    -30.6719E+06    -30.3303E+06    -1.32191E+06     31.5270E+06     3.04276E+06         69.9691
            1441     8.89958E-03     127.734E-03     552.319E-03    -140.889E-03    -166.809E-03    -166.599E-03     552.109E-03    -140.889E-03     4.42477E-03     597.528E-03    -297.387E-03    -298.222E-03    -296.804E-03     596.945E-03    -298.222E-03     45.3424E-03     37.5935E+06     3.39213E+06    -25.3826E+06    -25.0095E+06     3.01902E+06     37.5935E+06     3.10571E+06         71.3254
            1442     9.63938E-03     127.839E-03     552.134E-03    -142.497E-03    -165.941E-03    -165.705E-03     551.899E-03    -142.497E-03     412.051E-06     598.246E-03    -298.536E-03    -299.036E-03    -298.070E-03     597.338E-03    -298.594E-03     56.7601E-03     40.9012E+06     6.88386E+06    -20.7269E+06    -20.2482E+06     6.40517E+06     40.9012E+06     3.29566E+06         73.7947
            1443     10.3837E-03     127.918E-03     543.610E-03    -143.197E-03    -157.797E-03    -157.051E-03     543.162E-03    -143.495E-03     8.80613E-03     598.171E-03    -298.829E-03    -299.393E-03    -298.005E-03     596.783E-03    -298.829E-03     70.1288E-03     43.5676E+06     10.0214E+06    -16.0908E+06    -15.7650E+06     9.69562E+06     43.5676E+06     2.48965E+06         77.4918
            1444     11.1247E-03     128.053E-03     534.674E-03    -142.546E-03    -150.265E-03    -148.483E-03     534.003E-03    -143.658E-03    -4.14153E-03     598.507E-03    -299.636E-03    -300.726E-03    -298.892E-03     596.673E-03    -299.636E-03     81.0664E-03     48.7913E+06     14.7713E+06    -11.4959E+06    -11.3715E+06     14.6469E+06     48.7913E+06     1.70635E+06         82.2620
            1445     11.8696E-03     128.206E-03     529.704E-03    -140.765E-03    -147.804E-03    -144.769E-03     529.107E-03    -143.203E-03    -4.61720E-03     601.557E-03    -299.388E-03    -303.013E-03    -299.928E-03     598.472E-03    -299.388E-03     103.751E-03     57.0817E+06     18.3049E+06    -7.92622E+06    -7.82779E+06     18.2064E+06     57.0817E+06     1.37675E+06         87.2358
            1446     12.6123E-03     128.422E-03     532.824E-03    -141.066E-03    -151.796E-03    -149.612E-03     532.264E-03    -142.690E-03    -6.55503E-03     603.281E-03    -298.951E-03    -303.686E-03    -300.039E-03     599.634E-03    -298.951E-03     114.482E-03     68.1616E+06     22.8712E+06    -4.17108E+06    -4.10270E+06     22.8028E+06     68.1616E+06     854.395E+03         91.0466
            1447     741.835E-06     129.470E-03     521.169E-03    -80.4326E-03    -207.547E-03    -68.2058E-03     502.219E-03    -200.823E-03    -44.0977E-03     599.083E-03    -298.787E-03    -300.106E-03    -298.782E-03     599.078E-03    -300.106E-03    -3.68404E-03    -72.2589E+06    -79.0018E+06    -83.0119E+06    -80.2945E+06    -74.9763E+06    -79.0018E+06     3.39528E+06         67.8105
            1448     1.48392E-03     129.443E-03     512.715E-03    -130.965E-03    -148.066E-03    -140.367E-03     509.252E-03    -135.201E-03     34.5398E-03     598.695E-03    -298.987E-03    -299.743E-03    -298.975E-03     598.682E-03    -299.743E-03    -6.60486E-03    -64.4750E+06    -72.4978E+06    -80.6807E+06    -78.9538E+06    -66.2020E+06    -72.4978E+06     4.66057E+06         67.8002
            1449     2.22499E-03     129.427E-03     513.122E-03    -127.325E-03    -153.378E-03    -142.364E-03     511.894E-03    -137.111E-03     3.54132E-03     597.754E-03    -298.965E-03    -299.709E-03    -298.943E-03     597.731E-03    -299.709E-03    -8.83690E-03    -56.6935E+06    -61.8016E+06    -77.8993E+06    -76.4045E+06    -58.1883E+06    -61.8016E+06     5.17794E+06         67.8351
            1450     2.96562E-03     129.431E-03     510.551E-03    -123.654E-03    -152.694E-03    -137.005E-03     509.012E-03    -137.803E-03    -3.96141E-03     597.441E-03    -299.018E-03    -299.379E-03    -299.014E-03     597.418E-03    -299.360E-03    -9.15365E-03    -48.6416E+06    -51.3693E+06    -73.7820E+06    -72.7308E+06    -51.2578E+06    -49.8043E+06     4.65936E+06         68.0183
            1451     3.70616E-03     129.443E-03     502.298E-03    -126.010E-03    -141.699E-03    -129.542E-03     501.065E-03    -136.934E-03    -13.6517E-03     597.729E-03    -298.235E-03    -299.188E-03    -298.240E-03     597.715E-03    -299.169E-03    -7.06880E-03    -38.2409E+06    -43.7404E+06    -68.9818E+06    -68.2611E+06    -44.4611E+06    -38.2409E+06     4.13344E+06         68.3344
            1452     4.44786E-03     129.434E-03     495.895E-03    -125.459E-03    -135.313E-03    -124.472E-03     494.908E-03    -135.313E-03    -6.82734E-03     595.760E-03    -298.430E-03    -299.556E-03    -298.425E-03     595.755E-03    -299.556E-03    -3.37534E-03    -26.4333E+06    -36.4186E+06    -63.2565E+06    -62.5733E+06    -37.1018E+06    -26.4333E+06     4.21451E+06         68.6428
            1453     5.19097E-03     129.398E-03     494.312E-03    -124.057E-03    -134.369E-03    -123.574E-03     493.228E-03    -133.767E-03    -3.13168E-03     596.178E-03    -298.383E-03    -299.566E-03    -298.379E-03     596.175E-03    -299.566E-03     1.83905E-03    -13.4703E+06    -27.9699E+06    -56.9758E+06    -56.2463E+06    -28.6995E+06    -13.4703E+06     4.53770E+06         68.8564
            1454     5.93396E-03     129.370E-03     495.941E-03    -125.289E-03    -134.900E-03    -126.781E-03     495.237E-03    -132.704E-03     9.13948E-03     595.091E-03    -297.133E-03    -298.962E-03    -297.108E-03     595.066E-03    -298.962E-03     8.50522E-03      96.893E+03    -19.7993E+06    -51.2265E+06    -50.6512E+06    -20.3746E+06      96.893E+03     4.15807E+06         68.9836
            1455     6.67519E-03     129.404E-03     501.896E-03    -128.487E-03    -138.525E-03    -134.175E-03     501.419E-03    -132.360E-03    -6.60137E-03     593.416E-03    -297.076E-03    -298.090E-03    -297.073E-03     593.337E-03    -298.015E-03     16.2629E-03     12.6632E+06    -13.3619E+06    -45.5667E+06    -45.1468E+06    -13.7819E+06     12.6632E+06     3.56909E+06         69.0925
            1456     7.41479E-03     129.475E-03     513.197E-03    -131.971E-03    -146.101E-03    -144.706E-03     512.789E-03    -132.959E-03     3.09158E-03     596.131E-03    -297.255E-03    -298.757E-03    -297.147E-03     595.948E-03    -298.682E-03     25.1109E-03     23.4066E+06    -6.90925E+06    -39.6323E+06    -39.2121E+06    -7.32947E+06     23.4066E+06     3.55579E+06         69.3525
            1457     8.15883E-03     129.494E-03     522.787E-03    -134.341E-03    -153.054E-03    -152.749E-03     522.481E-03    -134.341E-03    -15.1794E-03     596.964E-03    -296.642E-03    -298.688E-03    -296.292E-03     596.615E-03    -298.688E-03     34.9750E-03     32.9661E+06    -847.590E+03    -33.6076E+06    -33.1771E+06    -1.27810E+06     32.9661E+06     3.58223E+06         69.9889
            1458     8.90009E-03     129.555E-03     523.581E-03    -135.018E-03    -153.738E-03    -152.841E-03     523.471E-03    -135.806E-03    -14.3331E-03     597.731E-03    -297.397E-03    -298.218E-03    -296.895E-03     597.144E-03    -298.133E-03     45.5244E-03     40.1983E+06     2.70945E+06    -27.9682E+06    -27.5697E+06     2.31101E+06     40.1983E+06     3.08913E+06         71.3554
            1459     9.64093E-03     129.671E-03     518.963E-03    -135.482E-03    -149.354E-03    -147.849E-03     518.732E-03    -136.756E-03    -20.3684E-03     598.383E-03    -298.540E-03    -299.128E-03    -298.204E-03     597.477E-03    -298.558E-03     56.7056E-03     45.1403E+06     7.37829E+06    -22.0412E+06    -21.7433E+06     7.08045E+06     45.1403E+06     2.56787E+06         73.8369
            1460     10.3841E-03     129.751E-03     515.047E-03    -136.334E-03    -144.902E-03    -143.799E-03     514.729E-03    -137.118E-03    -8.81894E-03     598.227E-03    -298.802E-03    -299.464E-03    -298.085E-03     596.848E-03    -298.802E-03     69.9128E-03     47.9431E+06     11.2359E+06    -16.9906E+06    -16.7868E+06     11.0321E+06     47.9431E+06     2.29630E+06         77.5401
            1461     11.1242E-03     129.891E-03     513.264E-03    -135.997E-03    -144.137E-03    -142.388E-03     512.627E-03    -137.108E-03    -18.0837E-03     598.678E-03    -299.570E-03    -300.762E-03    -298.934E-03     596.850E-03    -299.570E-03     80.9372E-03     52.2910E+06     14.8143E+06    -13.2287E+06    -12.9412E+06     14.5269E+06     52.2910E+06     2.59254E+06         82.3100
            1462     11.8692E-03     130.049E-03     515.187E-03    -134.607E-03    -147.602E-03    -144.540E-03     514.563E-03    -137.045E-03    -16.9811E-03     601.553E-03    -299.358E-03    -302.865E-03    -299.780E-03     598.468E-03    -299.358E-03     103.749E-03     61.1448E+06     20.0069E+06    -9.05036E+06    -8.79551E+06     19.7521E+06     61.1448E+06     2.36112E+06         87.2760
            1463     12.6132E-03     130.253E-03     523.750E-03    -135.714E-03    -155.021E-03    -153.097E-03     523.451E-03    -137.339E-03    -6.37101E-03     602.829E-03    -298.942E-03    -303.458E-03    -299.806E-03     599.177E-03    -298.942E-03     114.529E-03     72.1217E+06     25.2053E+06    -4.39448E+06    -4.33143E+06     25.1423E+06     72.1217E+06     909.981E+03         91.0764
            1464     742.133E-06     131.279E-03     517.253E-03    -82.5690E-03    -209.358E-03    -84.8350E-03     515.126E-03    -204.965E-03     33.8783E-03     598.890E-03    -298.832E-03    -299.638E-03    -298.826E-03     598.884E-03    -299.638E-03    -4.10895E-03    -81.7528E+06    -84.5254E+06    -92.8118E+06    -85.5469E+06    -89.5464E+06    -83.9968E+06     3.12062E+06         67.9132
            1465     1.48347E-03     131.250E-03     501.657E-03    -132.433E-03    -147.563E-03    -135.375E-03     500.206E-03    -143.170E-03     37.1769E-03     598.743E-03    -299.137E-03    -299.696E-03    -299.122E-03     598.728E-03    -299.696E-03    -7.22203E-03    -72.7031E+06    -78.0084E+06    -89.1175E+06    -83.1632E+06    -78.6575E+06    -78.0084E+06     6.59568E+06         67.9094
            1466     2.22516E-03     131.232E-03     473.662E-03    -114.110E-03    -137.338E-03    -113.580E-03     473.132E-03    -137.338E-03     17.6061E-03     597.643E-03    -298.695E-03    -299.684E-03    -298.672E-03     597.620E-03    -299.684E-03    -9.02657E-03    -60.9035E+06    -68.1271E+06    -84.8411E+06    -80.6267E+06    -65.1179E+06    -68.1271E+06     8.43417E+06         67.9449
            1467     2.96635E-03     131.225E-03     458.312E-03    -103.467E-03    -129.992E-03    -102.762E-03     457.607E-03    -129.992E-03     6.23345E-03     596.972E-03    -298.742E-03    -299.397E-03    -298.805E-03     596.949E-03    -299.312E-03    -8.89568E-03    -49.5869E+06    -54.6873E+06    -79.7258E+06    -76.9879E+06    -53.1794E+06    -53.8328E+06     8.32988E+06         68.1088
            1468     3.70744E-03     131.229E-03     459.960E-03    -108.880E-03    -124.908E-03    -108.236E-03     459.316E-03    -124.908E-03     4.59236E-03     597.210E-03    -298.125E-03    -299.139E-03    -298.196E-03     597.196E-03    -299.054E-03    -7.07151E-03    -38.6407E+06    -43.9769E+06    -74.4618E+06    -72.5249E+06    -45.2842E+06    -39.2702E+06     7.29797E+06         68.3889
            1469     4.44867E-03     131.240E-03     472.062E-03    -118.343E-03    -125.802E-03    -120.586E-03     471.574E-03    -123.071E-03     10.8171E-03     595.462E-03    -298.180E-03    -299.319E-03    -298.175E-03     595.457E-03    -299.319E-03    -3.55746E-03    -26.0489E+06    -36.6824E+06    -68.5842E+06    -67.3516E+06    -37.9151E+06    -26.0489E+06     6.00260E+06         68.6535
            1470     5.19093E-03     131.228E-03     484.822E-03    -123.245E-03    -133.979E-03    -132.897E-03     484.123E-03    -123.629E-03     17.3588E-03     595.944E-03    -298.121E-03    -299.322E-03    -298.117E-03     595.940E-03    -299.322E-03     1.83220E-03    -13.2486E+06    -29.2239E+06    -61.7914E+06    -60.9720E+06    -30.0433E+06    -13.2486E+06     5.08853E+06         68.8246
            1471     5.93451E-03     131.221E-03     494.248E-03    -125.353E-03    -142.459E-03    -141.856E-03     493.645E-03    -125.353E-03     28.0272E-03     594.935E-03    -296.900E-03    -298.791E-03    -296.875E-03     594.909E-03    -298.791E-03     8.73736E-03     311.317E+03    -20.8050E+06    -55.0563E+06    -54.2665E+06    -21.5948E+06     311.317E+03     5.10444E+06         68.9325
            1472     6.67491E-03     131.272E-03     499.864E-03    -127.349E-03    -147.046E-03    -146.838E-03     499.655E-03    -127.349E-03     15.4629E-03     593.260E-03    -296.982E-03    -298.066E-03    -296.988E-03     593.181E-03    -297.982E-03     16.2928E-03     13.8645E+06    -13.1135E+06    -48.7238E+06    -47.9757E+06    -13.8615E+06     13.8645E+06     5.05730E+06         69.0526
            1473     7.41479E-03     131.336E-03     498.832E-03    -128.146E-03    -144.971E-03    -143.815E-03     498.560E-03    -129.030E-03     23.6939E-03     595.763E-03    -297.375E-03    -298.778E-03    -297.285E-03     595.589E-03    -298.695E-03     24.5050E-03     26.2541E+06    -6.72361E+06    -42.3892E+06    -41.8379E+06    -7.27488E+06     26.2541E+06     4.33114E+06         69.3397
            1474     8.15944E-03     131.336E-03     491.630E-03    -126.551E-03    -139.664E-03    -136.192E-03     491.538E-03    -129.932E-03     7.18745E-03     596.652E-03    -296.788E-03    -298.640E-03    -296.451E-03     596.315E-03    -298.640E-03     34.2724E-03     36.9426E+06    -683.997E+03    -35.9170E+06    -35.4796E+06    -1.12142E+06     36.9426E+06     3.70797E+06         70.0026
            1475     8.90253E-03     131.380E-03     485.334E-03    -126.697E-03    -134.540E-03    -130.964E-03     485.041E-03    -129.981E-03     8.85045E-03     597.787E-03    -297.456E-03    -298.244E-03    -297.031E-03     597.207E-03    -298.087E-03     45.2495E-03     44.7457E+06     4.18049E+06    -29.3181E+06    -28.9642E+06     3.82652E+06     44.7457E+06     3.06447E+06         71.3892
            1476     9.64227E-03     131.483E-03     486.238E-03    -128.399E-03    -133.805E-03    -132.105E-03     485.811E-03    -129.672E-03     9.35148E-03     598.397E-03    -298.547E-03    -299.259E-03    -298.359E-03     597.496E-03    -298.547E-03     56.5513E-03     48.9853E+06     8.10927E+06    -23.7125E+06    -23.4623E+06     7.85907E+06     48.9853E+06     2.47662E+06         73.8906
            1477     10.3861E-03     131.563E-03     495.736E-03    -129.235E-03    -143.221E-03    -142.216E-03     495.217E-03    -129.721E-03     19.8486E-03     598.130E-03    -298.764E-03    -299.522E-03    -298.135E-03     596.743E-03    -298.764E-03     70.0750E-03     51.4915E+06     11.7967E+06    -19.0401E+06    -18.6264E+06     11.3830E+06     51.4915E+06     3.08004E+06         77.6170
            1478     11.1280E-03     131.696E-03     508.822E-03    -130.473E-03    -156.337E-03    -155.751E-03     508.236E-03    -130.473E-03     5.54838E-03     598.408E-03    -299.542E-03    -300.706E-03    -298.826E-03     596.527E-03    -299.542E-03     82.0509E-03     56.0679E+06     15.5912E+06    -14.3078E+06    -13.8229E+06     15.1063E+06     56.0679E+06     3.15662E+06         82.3888
            1479     11.8727E-03     131.855E-03     519.716E-03    -131.829E-03    -166.606E-03    -166.092E-03     519.201E-03    -131.829E-03     3.98508E-03     600.500E-03    -299.299E-03    -302.372E-03    -299.231E-03     597.359E-03    -299.299E-03     104.715E-03     64.0017E+06     20.5901E+06    -9.36247E+06    -9.15141E+06      20.379E+06     64.0017E+06     1.95132E+06         87.3163
            1480     12.6162E-03     132.072E-03     517.836E-03    -133.313E-03    -164.962E-03    -164.483E-03     517.358E-03    -133.313E-03     4.77587E-03     602.132E-03    -298.885E-03    -303.084E-03    -299.376E-03     598.425E-03    -298.885E-03     115.345E-03     75.0515E+06     26.9328E+06    -4.52194E+06    -4.47922E+06     26.8900E+06     75.0515E+06     1.02372E+06         91.0777
            1481     740.923E-06     133.100E-03     458.008E-03    -72.5918E-03    -172.082E-03    -69.8158E-03     450.840E-03    -167.690E-03     65.3096E-03     599.418E-03    -299.373E-03    -299.738E-03    -299.502E-03     599.414E-03    -299.604E-03    -3.80473E-03    -85.9124E+06    -87.8842E+06    -106.745E+06    -88.1479E+06    -105.821E+06    -86.5719E+06     3.65091E+06         67.9250
            1482     1.48221E-03     133.091E-03     448.099E-03    -108.161E-03    -126.864E-03    -115.556E-03     447.048E-03    -118.417E-03    -4.29827E-03     598.695E-03    -299.127E-03    -299.690E-03    -299.113E-03     598.681E-03    -299.690E-03    -6.83545E-03    -80.1814E+06    -82.5884E+06    -98.9411E+06    -86.1961E+06    -94.4344E+06    -81.0805E+06     6.35660E+06         67.9288
            1483     2.22427E-03     133.081E-03     444.309E-03    -103.805E-03    -127.189E-03    -113.308E-03     443.871E-03    -117.248E-03    -3.92342E-03     597.271E-03    -298.252E-03    -299.467E-03    -298.231E-03     597.250E-03    -299.467E-03    -8.69721E-03    -68.3458E+06    -73.3939E+06    -91.8485E+06    -83.1201E+06    -77.7986E+06    -72.6696E+06     9.85310E+06         67.9779
            1484     2.96665E-03     133.086E-03     447.221E-03    -104.075E-03    -127.765E-03    -114.805E-03     446.638E-03    -116.451E-03    -14.6293E-03     596.593E-03    -298.306E-03    -299.256E-03    -298.357E-03     596.572E-03    -299.184E-03    -8.62220E-03    -53.5460E+06    -60.1009E+06    -85.2867E+06    -79.6029E+06    -59.2298E+06    -60.1009E+06     11.5588E+06         68.1585
            1485     3.70763E-03     133.080E-03     453.161E-03    -111.073E-03    -126.090E-03    -120.094E-03     452.687E-03    -116.595E-03    -2.57557E-03     597.014E-03    -298.047E-03    -299.025E-03    -298.104E-03     597.000E-03    -298.953E-03    -6.94895E-03    -40.2549E+06    -45.2262E+06    -78.4275E+06    -74.9103E+06    -45.7309E+06    -43.2674E+06     10.5890E+06         68.4622
            1486     4.44965E-03     133.061E-03     464.210E-03    -117.771E-03    -129.692E-03    -129.282E-03     463.888E-03    -117.858E-03     3.31633E-03     595.390E-03    -298.037E-03    -299.131E-03    -298.033E-03     595.386E-03    -299.131E-03    -3.12730E-03    -26.8731E+06    -34.9132E+06    -71.8032E+06    -69.4722E+06    -37.2443E+06    -26.8731E+06     8.82660E+06         68.7491
            1487     5.19348E-03     133.026E-03     476.327E-03    -120.108E-03    -139.734E-03    -139.268E-03     475.861E-03    -120.108E-03     1.82376E-03     595.646E-03    -297.884E-03    -299.115E-03    -297.881E-03     595.643E-03    -299.115E-03     1.95917E-03     -12.648E+06    -28.4181E+06    -65.3873E+06     -63.861E+06    -29.9444E+06     -12.648E+06     7.12508E+06         68.9148
            1488     5.93698E-03     133.016E-03     481.332E-03    -122.663E-03    -143.006E-03    -142.430E-03     480.755E-03    -122.663E-03     2.60118E-03     594.718E-03    -297.303E-03    -298.757E-03    -297.363E-03     594.694E-03    -298.673E-03     8.38569E-03     1.37247E+06    -21.7060E+06    -58.1058E+06    -57.0908E+06    -22.7209E+06     1.37247E+06     5.96432E+06         68.9823
            1489     6.67654E-03     133.084E-03     472.900E-03    -119.081E-03    -138.464E-03    -132.837E-03     472.534E-03    -124.342E-03    -13.8937E-03     593.066E-03    -297.559E-03    -298.222E-03    -297.772E-03     592.991E-03    -297.935E-03     15.9137E-03     15.9507E+06    -13.5504E+06    -50.7058E+06    -49.7134E+06    -14.5428E+06     15.9507E+06     5.93400E+06         69.0441
            1490     7.41480E-03     133.169E-03     458.450E-03    -113.565E-03    -130.125E-03    -119.055E-03     458.299E-03    -124.485E-03    -3.14175E-03     595.567E-03    -297.417E-03    -298.912E-03    -297.452E-03     595.399E-03    -298.709E-03     24.0870E-03     29.9612E+06    -5.25084E+06    -43.6417E+06    -42.8093E+06    -6.08332E+06     29.9612E+06     5.50927E+06         69.2826
            1491     8.15855E-03     133.191E-03     450.722E-03    -112.373E-03    -123.592E-03    -112.010E-03     450.358E-03    -123.592E-03    -11.3411E-03     596.470E-03    -296.632E-03    -298.649E-03    -296.306E-03     596.144E-03    -298.649E-03     33.7046E-03     41.5664E+06     564.629E+03    -36.7955E+06    -36.2299E+06        -947.820     41.5664E+06     4.39148E+06         69.9301
            1492     8.90034E-03     133.256E-03     454.733E-03    -117.116E-03    -123.652E-03    -117.493E-03     454.133E-03    -122.675E-03     1.80527E-03     597.218E-03    -297.261E-03    -298.196E-03    -296.757E-03     596.643E-03    -298.124E-03     44.9501E-03     48.5158E+06     4.23811E+06    -30.8621E+06    -30.3966E+06     3.77257E+06     48.5158E+06     3.84675E+06         71.3276
            1493     9.64165E-03     133.370E-03     467.402E-03    -122.588E-03    -132.269E-03    -131.879E-03     467.011E-03    -122.588E-03     13.7428E-03     597.853E-03    -298.408E-03    -299.244E-03    -298.193E-03     596.940E-03    -298.545E-03     56.9114E-03     52.3532E+06     8.20623E+06    -25.5419E+06    -24.8782E+06     7.54254E+06     52.3532E+06     4.16037E+06         73.8462
            1494     10.3844E-03     133.450E-03     480.869E-03    -123.505E-03    -145.678E-03    -145.150E-03     480.341E-03    -123.505E-03     22.7066E-03     597.765E-03    -298.718E-03    -299.496E-03    -298.076E-03     596.345E-03    -298.718E-03     70.8729E-03     54.5805E+06     12.5023E+06    -20.6093E+06    -19.8730E+06     11.7659E+06     54.5805E+06     4.08679E+06         77.5877
            1495     11.1256E-03     133.587E-03     491.225E-03    -125.039E-03    -155.353E-03    -154.919E-03     490.791E-03    -125.039E-03     15.7772E-03     597.565E-03    -299.537E-03    -300.215E-03    -298.295E-03     595.645E-03    -299.537E-03     82.8633E-03     58.4492E+06     17.0140E+06    -15.3296E+06    -14.9762E+06     16.6606E+06     58.4492E+06     2.64743E+06         82.3592
            1496     11.8726E-03     133.737E-03     493.687E-03    -126.623E-03    -157.621E-03    -157.348E-03     493.414E-03    -126.623E-03     9.58841E-03     599.205E-03    -299.244E-03    -301.794E-03    -298.625E-03     596.036E-03    -299.244E-03     105.127E-03     67.1164E+06     21.7165E+06    -9.94154E+06    -9.85163E+06     21.6266E+06     67.1164E+06     1.52494E+06         87.2731
            1497     12.6155E-03     133.946E-03     486.650E-03    -127.726E-03    -151.038E-03    -150.463E-03     486.075E-03    -127.726E-03    -4.33833E-03     601.458E-03    -298.836E-03    -303.031E-03    -299.295E-03     597.721E-03    -298.836E-03     115.767E-03     78.8519E+06     28.7803E+06    -5.08747E+06    -5.04394E+06     28.7367E+06     78.8519E+06     985.209E+03         91.0289
            1498     740.802E-06     134.929E-03     420.930E-03    -66.7285E-03    -148.226E-03    -55.3699E-03     401.892E-03    -140.546E-03     96.8608E-03     598.993E-03    -298.909E-03    -299.708E-03    -299.550E-03     598.990E-03    -299.063E-03    -2.96287E-03    -89.6826E+06    -91.4382E+06    -122.990E+06    -91.1615E+06    -122.295E+06    -90.6546E+06     3.71647E+06         67.7701
            1499     1.48301E-03     134.928E-03     421.892E-03    -97.4729E-03    -118.841E-03    -113.612E-03     420.419E-03    -101.229E-03    -16.9822E-03     598.613E-03    -298.982E-03    -299.594E-03    -299.222E-03     598.602E-03    -299.342E-03    -6.12587E-03    -84.6395E+06    -88.0085E+06    -112.358E+06    -89.8034E+06    -110.184E+06    -85.0179E+06     6.42978E+06         67.7733
            1500     2.22525E-03     134.923E-03     446.823E-03    -108.350E-03    -133.240E-03    -132.397E-03     445.980E-03    -108.350E-03     2.23276E-03     597.141E-03    -298.445E-03    -299.259E-03    -298.426E-03     597.122E-03    -299.259E-03    -8.29887E-03    -74.7442E+06    -79.3977E+06    -101.931E+06    -86.5500E+06    -94.0829E+06    -75.4397E+06     9.63528E+06         67.8256
            1501     2.96616E-03     134.939E-03     465.268E-03    -115.907E-03    -144.462E-03    -144.061E-03     464.866E-03    -115.907E-03    -26.3948E-03     596.492E-03    -298.234E-03    -299.084E-03    -298.213E-03     596.471E-03    -299.084E-03    -8.48416E-03    -58.9160E+06    -65.2395E+06    -90.6468E+06    -81.9488E+06    -69.3650E+06    -63.4885E+06     12.5005E+06         68.0296
            1502     3.70800E-03     134.944E-03     468.301E-03    -121.459E-03    -142.090E-03    -141.686E-03     467.897E-03    -121.459E-03    -17.2001E-03     596.852E-03    -297.682E-03    -298.849E-03    -297.669E-03     596.838E-03    -298.849E-03    -6.91095E-03    -43.0706E+06    -48.7444E+06    -82.5717E+06    -77.3096E+06    -48.6183E+06    -48.4588E+06     13.1444E+06         68.3867
            1503     4.45014E-03     134.937E-03     461.840E-03    -120.707E-03    -136.198E-03    -132.546E-03     461.611E-03    -124.130E-03    -5.34557E-03     595.356E-03    -297.909E-03    -299.046E-03    -297.904E-03     595.351E-03    -299.046E-03    -3.49522E-03    -28.9777E+06    -35.1349E+06    -75.4593E+06    -71.8591E+06    -37.2237E+06    -30.4890E+06     11.5748E+06         68.7523
            1504     5.19323E-03     134.903E-03     452.461E-03    -112.923E-03    -134.476E-03    -122.559E-03     452.219E-03    -124.599E-03    -400.920E-06     595.765E-03    -298.171E-03    -299.061E-03    -298.168E-03     595.762E-03    -299.061E-03     1.49896E-03    -12.6681E+06    -26.2239E+06    -67.5898E+06     -65.199E+06    -28.6146E+06    -12.6681E+06     9.55558E+06         68.9952
            1505     5.93686E-03     134.871E-03     442.017E-03    -107.843E-03    -129.156E-03    -112.871E-03     441.611E-03    -123.722E-03    -607.637E-06     594.725E-03    -297.805E-03    -298.729E-03    -297.866E-03     594.702E-03    -298.644E-03     8.26470E-03     3.32197E+06    -20.2263E+06    -60.5046E+06    -58.8091E+06    -21.9219E+06     3.32197E+06     7.95858E+06         69.1019
            1506     6.67765E-03     134.899E-03     435.921E-03    -108.314E-03    -122.811E-03    -108.480E-03     435.496E-03    -122.221E-03    -18.5737E-03     592.504E-03    -297.719E-03    -298.154E-03    -297.914E-03     592.426E-03    -297.881E-03     16.1698E-03     17.6175E+06    -14.1188E+06    -53.5329E+06    -52.2901E+06    -15.3616E+06     17.6175E+06     6.78778E+06         69.1534
            1507     7.41775E-03     134.968E-03     438.498E-03    -109.905E-03    -124.028E-03    -112.814E-03     438.339E-03    -120.960E-03    -11.8116E-03     594.986E-03    -297.094E-03    -298.838E-03    -297.104E-03     594.808E-03    -298.650E-03     24.7866E-03     31.0763E+06    -5.11996E+06    -46.0468E+06    -44.9168E+06    -6.24995E+06     31.0763E+06     6.59864E+06         69.3361
            1508     8.16010E-03     135.004E-03     448.557E-03    -112.775E-03    -131.130E-03    -122.753E-03     448.017E-03    -120.613E-03    -24.2484E-03     596.441E-03    -296.291E-03    -298.638E-03    -295.946E-03     596.097E-03    -298.638E-03     34.6544E-03     42.7264E+06     1.73163E+06    -39.2972E+06    -38.2096E+06     644.022E+03     42.7264E+06     6.50525E+06         69.9106
            1509     8.90203E-03     135.084E-03     456.018E-03    -118.098E-03    -133.623E-03    -130.037E-03     455.495E-03    -121.161E-03    -21.3658E-03     597.135E-03    -297.143E-03    -298.161E-03    -296.641E-03     596.545E-03    -298.072E-03     45.5822E-03     51.2335E+06     4.42024E+06    -33.1508E+06    -32.1032E+06     3.37262E+06     51.2335E+06     5.98654E+06         71.2572
            1510     9.64220E-03     135.199E-03     456.931E-03    -121.284E-03    -132.205E-03    -131.309E-03     456.815E-03    -122.064E-03    -8.49485E-03     597.128E-03    -298.338E-03    -299.104E-03    -298.053E-03     596.215E-03    -298.476E-03     56.9162E-03     55.6075E+06     7.67732E+06    -27.2981E+06    -26.2709E+06     6.65005E+06     55.6075E+06     5.47068E+06         73.7413
            1511     10.3871E-03     135.289E-03     456.214E-03    -119.358E-03    -134.519E-03    -130.666E-03     455.873E-03    -122.870E-03     5.20206E-03     596.977E-03    -298.641E-03    -299.300E-03    -297.871E-03     595.576E-03    -298.668E-03     70.3919E-03     57.8218E+06     13.3743E+06    -20.8791E+06    -20.2854E+06     12.7806E+06     57.8218E+06     3.88220E+06         77.4427
            1512     11.1273E-03     135.433E-03     449.666E-03    -114.030E-03    -134.750E-03    -124.959E-03     449.117E-03    -123.271E-03     1.27706E-03     596.860E-03    -299.471E-03    -299.823E-03    -297.909E-03     594.973E-03    -299.498E-03     82.0850E-03     62.2572E+06     19.0650E+06    -14.9708E+06    -14.7610E+06     18.8552E+06     62.2572E+06     2.57140E+06         82.2036
            1513     11.8721E-03     135.584E-03     439.994E-03    -110.664E-03    -129.783E-03    -117.040E-03     439.592E-03    -123.006E-03    -5.87446E-03     598.690E-03    -299.170E-03    -301.603E-03    -298.462E-03     595.548E-03    -299.170E-03     104.585E-03     71.0337E+06     24.3704E+06    -9.89091E+06    -9.76282E+06     24.2423E+06     71.0337E+06     2.01069E+06         87.1652
            1514     12.6165E-03     135.786E-03     442.346E-03    -115.867E-03    -127.488E-03    -120.563E-03     442.005E-03    -122.451E-03    -7.63702E-03     601.287E-03    -298.769E-03    -303.271E-03    -299.584E-03     597.600E-03    -298.769E-03     114.950E-03     83.3024E+06     31.8173E+06    -4.80443E+06    -4.76497E+06     31.7778E+06     83.3024E+06     1.04069E+06         90.9710
            1515     742.781E-06     136.746E-03     465.382E-03    -106.408E-03    -164.170E-03    -76.6523E-03     427.850E-03    -156.394E-03     135.238E-03     597.717E-03    -298.323E-03    -299.023E-03    -298.953E-03     597.712E-03    -298.388E-03    -3.57324E-03    -93.7949E+06    -95.1759E+06    -137.925E+06    -95.2022E+06    -137.469E+06    -94.2250E+06     3.45174E+06         67.5571
            1516     1.48409E-03     136.737E-03     443.148E-03    -115.352E-03    -131.495E-03    -124.775E-03     438.917E-03    -117.841E-03    -16.4183E-03     598.211E-03    -298.830E-03    -299.305E-03    -299.196E-03     598.199E-03    -298.928E-03    -6.53377E-03    -87.4280E+06    -91.9127E+06    -127.475E+06    -93.0980E+06    -125.911E+06    -87.8064E+06     6.82060E+06         67.5608
            1517     2.22528E-03     136.747E-03     444.838E-03    -113.072E-03    -135.570E-03    -126.810E-03     443.627E-03    -120.621E-03     32.2316E-03     597.055E-03    -298.304E-03    -299.110E-03    -298.287E-03     597.036E-03    -299.108E-03    -8.20888E-03    -77.8943E+06    -85.4275E+06    -113.084E+06    -89.8473E+06    -108.664E+06    -77.8943E+06     9.17751E+06         67.6019
            1518     2.96704E-03     136.765E-03     446.652E-03    -111.561E-03    -139.734E-03    -128.649E-03     446.500E-03    -122.493E-03    -6.33886E-03     596.318E-03    -298.096E-03    -299.130E-03    -298.209E-03     596.299E-03    -298.997E-03    -8.23005E-03    -64.8604E+06    -72.4110E+06    -98.8236E+06    -85.4988E+06    -84.2417E+06    -66.3544E+06     12.2308E+06         67.7871
            1519     3.70870E-03     136.774E-03     442.045E-03    -112.683E-03    -134.400E-03    -123.399E-03     441.625E-03    -123.264E-03     4.52258E-03     596.820E-03    -297.674E-03    -298.773E-03    -297.793E-03     596.807E-03    -298.641E-03    -6.84098E-03    -46.4809E+06    -53.2660E+06    -87.7578E+06    -80.2712E+06    -55.6878E+06    -51.5457E+06     14.5462E+06         68.1479
            1520     4.44996E-03     136.779E-03     429.570E-03    -108.966E-03    -125.334E-03    -111.481E-03     429.120E-03    -122.368E-03     16.8888E-03     595.340E-03    -297.860E-03    -298.872E-03    -297.854E-03     595.335E-03    -298.872E-03    -3.87008E-03    -30.6018E+06    -35.9454E+06    -79.5330E+06    -74.8332E+06    -37.0745E+06    -34.1725E+06     13.9786E+06         68.5510
            1521     5.19311E-03     136.751E-03     416.551E-03    -101.089E-03    -120.161E-03    -100.720E-03     416.182E-03    -120.161E-03     25.2247E-03     595.662E-03    -298.164E-03    -299.055E-03    -298.160E-03     595.658E-03    -299.055E-03     1.44210E-03    -15.8516E+06    -25.1254E+06    -72.4839E+06    -68.8451E+06    -28.7642E+06    -15.8516E+06     12.4945E+06         68.8654
            1522     5.93627E-03     136.740E-03     415.449E-03    -99.8636E-03    -121.072E-03    -102.735E-03     415.117E-03    -117.869E-03     25.8704E-03     594.657E-03    -297.498E-03    -298.566E-03    -297.474E-03     594.633E-03    -298.566E-03     8.56110E-03     1.36072E+06    -18.2837E+06    -64.8245E+06    -62.1071E+06    -21.0012E+06     1.36072E+06     10.8644E+06         69.0641
            1523     6.67663E-03     136.779E-03     428.784E-03    -108.171E-03    -125.619E-03    -116.704E-03     428.515E-03    -116.816E-03     14.8874E-03     592.667E-03    -297.338E-03    -297.831E-03    -297.335E-03     592.588E-03    -297.755E-03     16.3235E-03     16.6925E+06    -12.2305E+06    -57.1813E+06    -55.2919E+06    -14.1199E+06     16.6925E+06     8.89642E+06         69.1995
            1524     7.41781E-03     136.827E-03     446.638E-03    -116.466E-03    -134.691E-03    -133.271E-03     446.238E-03    -117.485E-03     18.3883E-03     595.027E-03    -297.066E-03    -298.663E-03    -296.961E-03     594.846E-03    -298.587E-03     24.9695E-03     30.8589E+06    -6.19292E+06    -50.2319E+06    -48.7493E+06    -7.67546E+06     30.8589E+06     7.83970E+06         69.4369
            1525     8.16365E-03     136.822E-03     457.705E-03    -119.338E-03    -144.179E-03    -143.740E-03     457.267E-03    -119.338E-03     5.92631E-03     596.222E-03    -296.300E-03    -298.587E-03    -295.954E-03     595.876E-03    -298.587E-03     34.7518E-03     43.8192E+06     942.566E+03    -42.7612E+06    -41.3302E+06    -488.421E+03     43.8192E+06     7.75347E+06         70.0068
            1526     8.90599E-03     136.880E-03     460.736E-03    -121.378E-03    -145.332E-03    -144.914E-03     460.318E-03    -121.378E-03     4.83113E-03     597.124E-03    -297.146E-03    -298.049E-03    -296.687E-03     596.529E-03    -297.912E-03     45.7647E-03     53.4527E+06     6.44947E+06    -34.8397E+06    -33.5169E+06     5.12663E+06     53.4527E+06     7.11382E+06         71.2938
            1527     9.64652E-03     136.990E-03     453.445E-03    -122.005E-03    -137.164E-03    -136.096E-03     453.157E-03    -122.785E-03     5.22390E-03     596.692E-03    -298.326E-03    -299.013E-03    -298.085E-03     595.765E-03    -298.326E-03     57.3257E-03     58.5995E+06     9.19727E+06    -27.3104E+06    -26.4105E+06     8.29734E+06     58.5995E+06     5.34341E+06         73.7142
            1528     10.3884E-03     137.090E-03     435.353E-03    -116.056E-03    -126.719E-03    -119.470E-03     435.108E-03    -123.060E-03     5.78607E-03     596.460E-03    -298.576E-03    -299.219E-03    -297.794E-03     595.062E-03    -298.603E-03     70.3236E-03     61.3609E+06     14.6031E+06    -20.8080E+06    -20.3577E+06     14.1527E+06     61.3609E+06     3.77515E+06         77.3694
            1529     11.1304E-03     137.236E-03     419.821E-03    -106.132E-03    -122.226E-03    -105.514E-03     419.203E-03    -122.226E-03    -6.77269E-03     596.761E-03    -299.371E-03    -299.874E-03    -297.988E-03     594.902E-03    -299.398E-03     81.4717E-03     65.9274E+06     20.7074E+06    -15.4647E+06    -15.1339E+06     20.3767E+06     65.9274E+06     3.38190E+06         82.1210
            1530     11.8758E-03     137.387E-03     417.755E-03    -105.310E-03    -121.304E-03    -105.044E-03     417.196E-03    -121.012E-03    -9.31126E-03     598.691E-03    -299.053E-03    -302.064E-03    -298.959E-03     595.587E-03    -299.053E-03     103.982E-03     74.8639E+06     27.2100E+06    -10.6395E+06    -10.3979E+06     26.9684E+06     74.8639E+06     2.85434E+06         87.1147
            1531     12.6186E-03     137.597E-03     426.651E-03    -113.715E-03    -122.722E-03    -115.848E-03     426.362E-03    -120.299E-03    -2.19877E-03     601.102E-03    -298.701E-03    -303.592E-03    -299.933E-03     597.443E-03    -298.701E-03     114.549E-03     86.8832E+06     35.3145E+06    -5.52943E+06    -5.45487E+06     35.2400E+06     86.8832E+06     1.42595E+06         90.9471
            1532     741.807E-06     138.558E-03     523.315E-03    -140.265E-03    -200.388E-03    -89.8015E-03     472.755E-03    -200.291E-03     165.559E-03     597.447E-03    -298.243E-03    -299.062E-03    -298.361E-03     597.440E-03    -298.938E-03    -4.27419E-03    -96.4595E+06    -98.8348E+06    -152.686E+06    -98.9127E+06    -152.330E+06    -96.7372E+06     4.21221E+06         67.3882
            1533     1.48423E-03     138.541E-03     455.087E-03    -130.663E-03    -140.860E-03    -124.130E-03     448.458E-03    -140.763E-03    -27.4219E-03     597.211E-03    -298.388E-03    -298.917E-03    -298.500E-03     597.197E-03    -298.791E-03    -7.00086E-03    -90.2915E+06    -95.3367E+06    -141.310E+06    -96.2873E+06    -140.359E+06    -90.2915E+06     6.10621E+06         67.3985
            1534     2.22683E-03     138.544E-03     426.356E-03    -109.769E-03    -132.478E-03    -107.406E-03     423.993E-03    -132.478E-03     30.6399E-03     596.802E-03    -298.036E-03    -298.958E-03    -298.017E-03     596.781E-03    -298.956E-03    -8.63904E-03    -81.4928E+06    -89.7460E+06    -126.209E+06    -92.6145E+06    -123.341E+06    -81.4928E+06     8.94754E+06         67.4207
            1535     2.96852E-03     138.567E-03     404.495E-03    -94.8283E-03    -124.538E-03    -94.2839E-03     403.950E-03    -124.538E-03    -20.2162E-03     596.251E-03    -298.180E-03    -299.190E-03    -298.388E-03     596.229E-03    -298.960E-03    -8.91657E-03    -68.7203E+06    -79.0542E+06    -109.068E+06    -88.2807E+06    -99.8417E+06    -68.7203E+06     12.3689E+06         67.5438
            1536     3.70921E-03     138.585E-03     397.404E-03    -92.7879E-03    -118.107E-03    -91.5360E-03     396.152E-03    -118.107E-03    -12.1080E-03     596.454E-03    -297.874E-03    -298.757E-03    -298.089E-03     596.439E-03    -298.527E-03    -7.15018E-03    -51.6681E+06    -59.4397E+06    -94.3482E+06    -83.3101E+06    -67.7761E+06    -54.3699E+06     15.3779E+06         67.8555
            1537     4.45067E-03     138.596E-03     402.940E-03    -99.2844E-03    -117.262E-03    -100.465E-03     401.189E-03    -114.330E-03    -17.0061E-03     595.014E-03    -297.821E-03    -298.674E-03    -297.892E-03     595.009E-03    -298.598E-03    -3.43083E-03    -34.4653E+06    -37.9809E+06    -84.5334E+06    -77.8836E+06    -41.2432E+06    -37.8529E+06     16.5757E+06         68.2473
            1538     5.19354E-03     138.584E-03     413.253E-03    -105.796E-03    -121.052E-03    -112.697E-03     412.294E-03    -113.193E-03    -10.3423E-03     595.367E-03    -297.975E-03    -298.951E-03    -298.047E-03     595.363E-03    -298.875E-03     1.91366E-03    -19.0615E+06    -24.5181E+06    -76.7573E+06    -71.7440E+06    -28.8456E+06    -19.7472E+06     15.4436E+06         68.5834
            1539     5.93701E-03     138.576E-03     424.132E-03    -111.707E-03    -126.076E-03    -123.647E-03     423.829E-03    -113.833E-03     2.25904E-03     594.506E-03    -297.282E-03    -298.434E-03    -297.256E-03     594.480E-03    -298.434E-03     8.79072E-03    -1.81637E+06    -16.4162E+06    -68.6857E+06    -64.9037E+06    -20.1982E+06    -1.81637E+06     13.4646E+06         68.8329
            1540     6.67795E-03     138.625E-03     430.016E-03    -115.281E-03    -128.816E-03    -128.505E-03     429.705E-03    -115.281E-03     3.72854E-03     593.004E-03    -297.217E-03    -297.712E-03    -297.257E-03     592.923E-03    -297.592E-03     16.4824E-03     15.8669E+06    -9.74973E+06    -60.7071E+06    -57.9386E+06    -12.5182E+06     15.8669E+06     11.4953E+06         69.0389
            1541     7.41805E-03     138.690E-03     430.971E-03    -114.321E-03    -131.471E-03    -128.585E-03     430.477E-03    -116.713E-03     16.0591E-03     595.342E-03    -297.350E-03    -298.602E-03    -297.289E-03     595.161E-03    -298.482E-03     24.9872E-03     32.2178E+06    -4.81855E+06    -52.3841E+06    -50.4681E+06    -6.73452E+06     32.2178E+06     9.29881E+06         69.3684
            1542     8.16226E-03     138.697E-03     430.438E-03    -113.884E-03    -132.110E-03    -127.761E-03     429.993E-03    -117.787E-03     8.16650E-03     596.135E-03    -296.765E-03    -298.471E-03    -296.422E-03     595.792E-03    -298.471E-03     34.6330E-03     45.7586E+06     673.181E+03    -44.0338E+06    -42.6111E+06    -749.512E+03     45.7586E+06     7.79437E+06         70.0127
            1543     8.90509E-03     138.747E-03     428.705E-03    -114.624E-03    -130.373E-03    -126.001E-03     428.170E-03    -118.461E-03     12.2030E-03     596.804E-03    -297.215E-03    -297.884E-03    -296.671E-03     596.212E-03    -297.835E-03     45.6254E-03     55.5008E+06     8.27460E+06    -36.0612E+06    -34.9826E+06     7.19598E+06     55.5008E+06     6.73383E+06         71.3131
            1544     9.64828E-03     138.828E-03     426.280E-03    -114.911E-03    -128.554E-03    -124.180E-03     425.762E-03    -118.767E-03     7.83780E-03     596.341E-03    -298.178E-03    -298.851E-03    -297.873E-03     595.409E-03    -298.224E-03     57.4394E-03     60.7659E+06     11.4257E+06    -28.8265E+06    -28.0083E+06     10.6075E+06     60.7659E+06     5.64169E+06         73.7309
            1545     10.3932E-03     138.895E-03     426.258E-03    -113.833E-03    -129.900E-03    -124.357E-03     425.740E-03    -118.857E-03     7.35294E-03     596.589E-03    -298.446E-03    -299.220E-03    -297.808E-03     595.177E-03    -298.446E-03     70.6758E-03     63.0634E+06     15.5744E+06    -23.1571E+06    -22.3718E+06     14.7891E+06     63.0634E+06      5.2675E+06         77.4125
            1546     11.1333E-03     139.036E-03     431.400E-03    -112.197E-03    -136.700E-03    -129.204E-03     430.757E-03    -119.049E-03     932.136E-06     597.431E-03    -299.277E-03    -300.315E-03    -298.418E-03     595.535E-03    -299.277E-03     82.3205E-03     67.6547E+06     22.5636E+06    -18.0141E+06    -17.4616E+06     22.0110E+06     67.6547E+06     4.38168E+06         82.1786
            1547     11.8793E-03     139.193E-03     437.142E-03    -116.282E-03    -138.262E-03    -134.437E-03     436.677E-03    -119.642E-03    -4.16220E-03     598.987E-03    -298.955E-03    -302.349E-03    -299.200E-03     595.838E-03    -298.955E-03     104.826E-03     77.5104E+06     30.5309E+06    -11.9716E+06    -11.7428E+06     30.3021E+06     77.5104E+06     2.81216E+06         87.1361
            1548     12.6210E-03     139.415E-03     437.151E-03    -120.499E-03    -135.117E-03    -134.780E-03     436.814E-03    -120.499E-03     437.398E-06     600.582E-03    -298.641E-03    -303.378E-03    -299.644E-03     596.848E-03    -298.641E-03     115.721E-03     90.2448E+06     38.7456E+06    -5.62952E+06    -5.57078E+06     38.6868E+06     90.2448E+06     1.23536E+06         90.9265
            1549     741.505E-06     140.368E-03     487.880E-03    -113.584E-03    -199.011E-03    -55.9473E-03     423.230E-03    -191.998E-03     151.295E-03     596.886E-03    -297.749E-03    -299.046E-03    -297.928E-03     596.882E-03    -298.864E-03    -3.39361E-03    -98.6032E+06    -101.259E+06    -166.718E+06    -100.385E+06    -166.524E+06    -99.6703E+06     2.76807E+06         67.2831
            1550     1.48453E-03     140.347E-03     421.509E-03    -114.737E-03    -133.024E-03    -113.579E-03     409.675E-03    -122.349E-03    -32.4182E-03     596.496E-03    -298.128E-03    -298.754E-03    -298.339E-03     596.484E-03    -298.531E-03    -6.32165E-03    -93.7800E+06    -98.7107E+06    -154.009E+06    -98.4971E+06    -153.434E+06    -94.5694E+06     5.28654E+06         67.2879
            1551     2.22676E-03     140.346E-03     405.506E-03    -103.483E-03    -128.053E-03    -109.254E-03     401.867E-03    -118.643E-03     41.6414E-03     596.457E-03    -298.088E-03    -298.723E-03    -298.108E-03     596.436E-03    -298.682E-03    -8.48859E-03    -85.0037E+06    -93.4533E+06    -139.832E+06    -95.2549E+06    -138.030E+06    -85.0037E+06     8.22324E+06         67.2809
            1552     2.96749E-03     140.372E-03     402.687E-03    -97.4621E-03    -130.313E-03    -110.808E-03     401.959E-03    -116.239E-03    -15.0678E-03     596.165E-03    -298.387E-03    -299.085E-03    -298.608E-03     596.142E-03    -298.842E-03    -8.98794E-03    -72.8824E+06    -85.2399E+06    -120.498E+06    -90.7663E+06    -114.971E+06    -72.8824E+06     11.3765E+06         67.3318
            1553     3.70937E-03     140.391E-03     408.350E-03    -100.652E-03    -130.731E-03    -114.669E-03     407.027E-03    -115.390E-03    -7.60056E-03     596.315E-03    -297.977E-03    -298.824E-03    -298.205E-03     596.299E-03    -298.581E-03    -7.40167E-03    -57.5065E+06    -67.8583E+06    -102.388E+06    -85.3194E+06    -84.2850E+06    -58.1489E+06     15.5331E+06         67.5728
            1554     4.45142E-03     140.407E-03     419.001E-03    -110.873E-03    -130.656E-03    -123.789E-03     417.199E-03    -115.939E-03    -14.1926E-03     594.786E-03    -297.746E-03    -298.551E-03    -297.816E-03     594.780E-03    -298.476E-03    -3.70437E-03    -37.8620E+06    -43.8619E+06    -88.9422E+06    -79.2637E+06    -50.3474E+06    -41.0550E+06     18.4178E+06         67.9370
            1555     5.19461E-03     140.398E-03     427.761E-03    -117.543E-03    -132.316E-03    -131.312E-03     426.756E-03    -117.543E-03    -11.4450E-03     594.870E-03    -297.690E-03    -298.773E-03    -297.761E-03     594.866E-03    -298.698E-03     1.84134E-03    -19.5190E+06    -25.3003E+06    -79.5524E+06    -73.2866E+06    -29.0154E+06    -22.0696E+06     17.6764E+06         68.2780
            1556     5.93795E-03     140.401E-03     427.399E-03    -119.078E-03    -130.423E-03    -130.109E-03     427.246E-03    -119.240E-03    -6.63645E-03     594.374E-03    -297.233E-03    -298.405E-03    -297.206E-03     594.347E-03    -298.405E-03     8.95072E-03    -1.94687E+06    -14.9020E+06    -71.3073E+06    -66.5367E+06    -19.6725E+06    -1.94687E+06     15.6648E+06         68.5433
            1557     6.67861E-03     140.454E-03     417.932E-03    -116.654E-03    -124.843E-03    -121.073E-03     417.620E-03    -120.112E-03    -17.3025E-03     592.540E-03    -297.184E-03    -297.727E-03    -297.354E-03     592.457E-03    -297.475E-03     16.7326E-03     16.6548E+06    -7.18361E+06    -62.7649E+06    -59.0397E+06    -10.9088E+06     16.6548E+06     13.8225E+06         68.7674
            1558     7.41921E-03     140.520E-03     401.909E-03    -105.691E-03    -120.236E-03    -105.985E-03     401.583E-03    -119.616E-03    -11.0415E-03     594.743E-03    -297.212E-03    -298.550E-03    -297.277E-03     594.555E-03    -298.297E-03     25.4336E-03     32.9947E+06    -836.151E+03    -54.1538E+06    -51.5163E+06    -3.47365E+06     32.9947E+06     11.4664E+06         69.1158
            1559     8.16361E-03     140.542E-03     390.446E-03    -97.0022E-03    -118.013E-03    -96.7588E-03     390.203E-03    -118.013E-03    -6.87002E-03     596.183E-03    -296.997E-03    -298.344E-03    -296.636E-03     595.822E-03    -298.344E-03     35.5187E-03     47.1280E+06     3.49387E+06    -45.5960E+06    -43.9843E+06     1.88214E+06     47.1280E+06     8.68395E+06         69.7928
            1560     8.90598E-03     140.605E-03     389.637E-03    -98.2068E-03    -116.259E-03    -97.7818E-03     389.212E-03    -116.259E-03     1.63892E-03     596.706E-03    -297.502E-03    -297.870E-03    -296.949E-03     596.093E-03    -297.810E-03     46.4355E-03     57.7094E+06     8.49233E+06    -37.6208E+06    -36.4736E+06     7.34511E+06     57.7094E+06     7.17223E+06         71.1387
            1561     9.64719E-03     140.714E-03     397.602E-03    -105.911E-03    -116.233E-03    -106.618E-03     397.188E-03    -115.112E-03     1.25478E-03     595.904E-03    -298.116E-03    -298.879E-03    -297.893E-03     594.965E-03    -298.162E-03     57.6733E-03     63.7045E+06     12.8570E+06    -30.4767E+06    -29.4206E+06     11.8009E+06     63.7045E+06     6.65165E+06         73.6108
            1562     10.3922E-03     140.778E-03     416.262E-03    -113.594E-03    -128.488E-03    -126.229E-03     415.535E-03    -115.125E-03     11.1898E-03     596.229E-03    -298.261E-03    -299.125E-03    -297.709E-03     594.812E-03    -298.261E-03     70.7681E-03     66.0506E+06     17.2851E+06    -23.9496E+06    -22.9293E+06     16.2648E+06     66.0506E+06     6.36990E+06         77.3681
            1563     11.1346E-03     140.897E-03     434.535E-03    -116.378E-03    -144.898E-03    -144.113E-03     433.749E-03    -116.378E-03     7.57308E-03     597.239E-03    -299.201E-03    -300.195E-03    -298.266E-03     595.311E-03    -299.201E-03     82.9886E-03     71.0091E+06     25.8552E+06    -17.1758E+06    -16.5015E+06     25.1809E+06     71.0091E+06     5.04120E+06         82.1732
            1564     11.8801E-03     141.043E-03     438.119E-03    -118.040E-03    -146.543E-03    -146.070E-03     437.645E-03    -118.040E-03    -1.01520E-03     598.654E-03    -298.858E-03    -302.089E-03    -298.865E-03     595.430E-03    -298.858E-03     106.032E-03     80.4812E+06     34.2108E+06    -11.0589E+06    -10.8738E+06     34.0258E+06     80.4812E+06     2.63872E+06         87.0852
            1565     12.6235E-03     141.252E-03     427.478E-03    -119.164E-03    -135.769E-03    -135.418E-03     427.127E-03    -119.164E-03     4.21069E-03     600.252E-03    -298.514E-03    -302.898E-03    -299.101E-03     596.455E-03    -298.514E-03     116.605E-03     93.1159E+06     41.0388E+06    -5.37920E+06    -5.33585E+06     40.9955E+06     93.1159E+06     1.35274E+06         90.8212
            1566     743.780E-06     142.176E-03     414.810E-03    -80.6359E-03    -163.390E-03    -19.6577E-03     338.854E-03    -148.412E-03     144.796E-03     595.545E-03    -296.701E-03    -298.705E-03    -297.082E-03     595.540E-03    -298.319E-03    -3.72443E-03    -99.3538E+06    -101.639E+06    -179.457E+06    -100.938E+06    -179.261E+06    -100.250E+06     3.24366E+06         67.2325
            1567     1.48528E-03     142.152E-03     375.381E-03    -88.4910E-03    -116.379E-03    -105.045E-03     364.047E-03    -88.4910E-03    -38.2072E-03     596.232E-03    -298.085E-03    -298.519E-03    -298.507E-03     596.220E-03    -298.085E-03    -6.26513E-03    -94.4268E+06    -99.9273E+06    -166.455E+06    -99.5742E+06    -166.019E+06    -95.2162E+06     5.10833E+06         67.2100
            1568     2.22652E-03     142.144E-03     390.237E-03    -96.8160E-03    -124.442E-03    -121.765E-03     387.560E-03    -96.8160E-03     39.0263E-03     596.183E-03    -297.845E-03    -298.417E-03    -297.875E-03     596.165E-03    -298.369E-03    -8.12153E-03    -86.4307E+06    -95.6544E+06    -152.659E+06    -96.8610E+06    -151.453E+06    -86.4307E+06     7.67073E+06         67.1761
            1569     2.96910E-03     142.162E-03     409.515E-03    -104.849E-03    -136.794E-03    -136.480E-03     409.201E-03    -104.849E-03     1.69511E-03     595.659E-03    -297.977E-03    -299.041E-03    -298.498E-03     595.640E-03    -298.501E-03    -8.23366E-03    -76.0269E+06    -90.0509E+06    -132.088E+06    -93.2105E+06    -128.929E+06    -76.0269E+06     10.3994E+06         67.1754
            1570     3.71002E-03     142.177E-03     425.619E-03    -111.989E-03    -144.915E-03    -144.534E-03     425.237E-03    -111.989E-03     20.7888E-03     596.373E-03    -297.824E-03    -299.005E-03    -298.350E-03     596.360E-03    -298.466E-03    -6.78941E-03    -61.0958E+06    -77.3395E+06    -111.758E+06    -87.6424E+06    -101.455E+06    -61.0958E+06     13.7900E+06         67.3352
            1571     4.45115E-03     142.200E-03     429.174E-03    -117.320E-03    -143.072E-03    -142.609E-03     428.711E-03    -117.320E-03     23.5018E-03     595.030E-03    -297.623E-03    -298.442E-03    -297.618E-03     595.025E-03    -298.442E-03    -3.38924E-03    -42.3090E+06    -53.1277E+06    -94.1847E+06    -81.2541E+06    -64.1934E+06    -44.1739E+06     17.8977E+06         67.6563
            1572     5.19517E-03     142.204E-03     421.695E-03    -120.013E-03    -132.452E-03    -131.907E-03     421.391E-03    -120.253E-03     17.8592E-03     593.602E-03    -297.422E-03    -298.625E-03    -297.418E-03     593.599E-03    -298.625E-03     1.94616E-03    -21.9506E+06    -27.6680E+06    -82.8637E+06    -74.8131E+06    -32.8187E+06    -24.8504E+06     19.8408E+06         67.9969
            1573     5.93927E-03     142.208E-03     409.691E-03    -117.787E-03    -123.115E-03    -119.792E-03     409.554E-03    -120.971E-03     13.3944E-03     593.214E-03    -297.016E-03    -298.448E-03    -296.989E-03     593.187E-03    -298.448E-03     8.91892E-03    -3.18470E+06    -13.6573E+06    -74.1211E+06    -68.1827E+06    -18.5608E+06    -4.21963E+06     18.0694E+06         68.2684
            1574     6.68071E-03     142.260E-03     400.378E-03    -111.754E-03    -120.262E-03    -111.452E-03     400.077E-03    -120.262E-03     310.311E-06     591.919E-03    -296.977E-03    -297.791E-03    -297.302E-03     591.837E-03    -297.383E-03     16.6682E-03     14.6558E+06    -5.34865E+06    -65.1406E+06    -60.7864E+06    -9.70281E+06     14.6558E+06     15.4937E+06         68.4871
            1575     7.42079E-03     142.346E-03     394.817E-03    -105.193E-03    -121.181E-03    -107.163E-03     394.599E-03    -118.994E-03    -3.30980E-03     594.092E-03    -296.822E-03    -298.549E-03    -297.046E-03     593.909E-03    -298.142E-03     25.1680E-03     32.6056E+06     3.38371E+06    -56.0213E+06    -52.8534E+06     215.855E+03     32.6056E+06     13.2634E+06         68.7921
            1576     8.16528E-03     142.371E-03     391.233E-03    -100.603E-03    -121.897E-03    -104.650E-03     391.094E-03    -117.710E-03    -2.90189E-03     596.206E-03    -296.538E-03    -298.297E-03    -296.186E-03     595.854E-03    -298.297E-03     35.0447E-03     49.3916E+06     8.50242E+06    -46.8047E+06    -44.7596E+06     6.45726E+06     49.3916E+06     10.3885E+06         69.4319
            1577     8.90802E-03     142.439E-03     392.854E-03    -102.537E-03    -121.457E-03    -107.045E-03     392.658E-03    -116.754E-03    -488.310E-06     596.544E-03    -297.195E-03    -297.772E-03    -296.723E-03     595.934E-03    -297.634E-03     46.2854E-03     60.8628E+06     9.75331E+06    -38.4812E+06    -37.0637E+06     8.33581E+06     60.8628E+06     8.13880E+06         70.7904
            1578     9.64960E-03     142.544E-03     400.512E-03    -111.155E-03    -121.629E-03    -116.069E-03     400.297E-03    -116.500E-03    -1.82085E-03     595.275E-03    -297.926E-03    -298.932E-03    -297.976E-03     594.318E-03    -297.926E-03     58.1442E-03     67.0777E+06     13.0906E+06    -30.9551E+06    -29.6869E+06     11.8225E+06     67.0777E+06     7.36473E+06         73.2980
            1579     10.3934E-03     142.626E-03     402.570E-03    -112.597E-03    -124.093E-03    -119.459E-03     402.150E-03    -116.811E-03     5.53605E-03     595.524E-03    -298.086E-03    -299.114E-03    -297.642E-03     594.053E-03    -298.086E-03     72.0704E-03     69.6420E+06     18.4138E+06    -23.5434E+06    -22.5265E+06     17.3969E+06     69.6420E+06     6.40706E+06         77.0972
            1580     11.1355E-03     142.758E-03     396.008E-03    -103.682E-03    -127.885E-03    -114.000E-03     395.456E-03    -117.016E-03     976.592E-06     596.383E-03    -299.083E-03    -299.658E-03    -297.679E-03     594.404E-03    -299.083E-03     84.0221E-03     73.9610E+06     28.9453E+06    -17.2080E+06    -16.5899E+06     28.3272E+06     73.9610E+06     5.21232E+06         81.9339
            1581     11.8807E-03     142.921E-03     389.116E-03    -98.4671E-03    -126.867E-03    -108.266E-03     388.740E-03    -116.692E-03    -10.1584E-03     597.791E-03    -298.701E-03    -301.752E-03    -298.490E-03     594.529E-03    -298.701E-03     106.584E-03     83.4018E+06     37.9550E+06    -11.4322E+06    -11.0964E+06     37.6192E+06     83.4018E+06     3.92680E+06         86.8496
            1582     12.6244E-03     143.117E-03     386.432E-03    -102.897E-03    -120.407E-03    -107.008E-03     386.132E-03    -115.996E-03    -7.35934E-03     600.340E-03    -298.326E-03    -303.014E-03    -299.202E-03     596.528E-03    -298.326E-03     116.804E-03     95.6165E+06     44.7002E+06    -5.69214E+06    -5.57597E+06     44.5840E+06     95.6165E+06     2.10242E+06         90.5800
            1583     742.535E-06     143.984E-03     413.767E-03    -80.3836E-03    -166.377E-03    -34.7934E-03     360.212E-03    -158.412E-03     138.790E-03     595.768E-03    -296.658E-03    -298.883E-03    -296.857E-03     595.764E-03    -298.680E-03    -3.64892E-03    -99.1047E+06    -100.291E+06    -190.999E+06    -100.247E+06    -190.821E+06    -99.3269E+06     2.73770E+06         67.2161
            1584     1.48435E-03     143.955E-03     383.132E-03    -98.4146E-03    -118.607E-03    -113.127E-03     378.108E-03    -98.8702E-03    -20.5656E-03     595.951E-03    -297.831E-03    -298.241E-03    -298.028E-03     595.937E-03    -298.031E-03    -6.73065E-03    -93.1107E+06    -97.6808E+06    -179.417E+06    -98.0551E+06    -179.043E+06    -93.1107E+06     5.06479E+06         67.1603
            1585     2.22729E-03     143.933E-03     396.608E-03    -105.602E-03    -128.081E-03    -126.582E-03     395.110E-03    -105.602E-03     27.4978E-03     595.853E-03    -297.647E-03    -298.227E-03    -297.633E-03     595.831E-03    -298.220E-03    -8.81483E-03    -84.5485E+06    -94.3964E+06    -165.392E+06    -95.4518E+06    -164.337E+06    -84.5485E+06     8.06510E+06         67.1102
            1586     2.96946E-03     143.953E-03     402.161E-03    -110.758E-03    -131.119E-03    -130.265E-03     402.056E-03    -111.508E-03    -8.87605E-03     594.768E-03    -297.667E-03    -298.701E-03    -298.121E-03     594.748E-03    -298.227E-03    -8.42437E-03    -72.5782E+06    -88.9116E+06    -144.547E+06    -91.3136E+06    -142.145E+06    -72.5782E+06     10.8166E+06         67.0755
            1587     3.71135E-03     143.971E-03     401.460E-03    -108.579E-03    -132.672E-03    -126.103E-03     401.399E-03    -115.087E-03    -4.60883E-03     595.511E-03    -297.432E-03    -298.696E-03    -297.893E-03     595.498E-03    -298.222E-03    -6.50098E-03    -58.8517E+06    -80.7177E+06    -122.732E+06    -86.8313E+06    -116.618E+06    -58.8517E+06     13.4919E+06         67.1548
            1588     4.45338E-03     143.996E-03     394.062E-03    -103.300E-03    -130.297E-03    -117.194E-03     393.989E-03    -116.330E-03    -2.41990E-03     595.363E-03    -297.307E-03    -298.469E-03    -297.624E-03     595.360E-03    -298.149E-03    -2.68630E-03    -43.6059E+06    -61.5205E+06    -101.452E+06    -81.0794E+06    -81.8936E+06    -43.6059E+06     17.4849E+06         67.4268
            1589     5.19583E-03     144.002E-03     386.692E-03    -105.497E-03    -121.322E-03    -110.747E-03     386.656E-03    -116.036E-03     2.35636E-03     592.737E-03    -297.491E-03    -298.688E-03    -297.808E-03     592.733E-03    -298.368E-03     2.36952E-03    -24.5023E+06    -33.6820E+06    -86.4555E+06    -74.8501E+06    -42.2473E+06    -27.5423E+06     20.9294E+06         67.7623
            1590     5.94013E-03     144.008E-03     383.457E-03    -108.770E-03    -115.185E-03    -108.632E-03     383.319E-03    -115.185E-03     6.96990E-03     591.776E-03    -296.936E-03    -298.538E-03    -296.911E-03     591.751E-03    -298.538E-03     8.67040E-03    -6.46843E+06    -12.8746E+06    -75.6543E+06    -68.5457E+06    -16.9433E+06    -9.50843E+06     20.3535E+06         68.0305
            1591     6.68210E-03     144.057E-03     387.159E-03    -109.131E-03    -118.886E-03    -113.319E-03     387.009E-03    -114.548E-03     3.64138E-03     591.847E-03    -296.620E-03    -297.945E-03    -297.089E-03     591.767E-03    -297.396E-03     16.3305E-03     10.8497E+06    -2.25107E+06    -66.9512E+06    -61.7001E+06    -7.50220E+06     10.8497E+06     17.5640E+06         68.2354
            1592     7.42266E-03     144.137E-03     399.938E-03    -112.616E-03    -128.596E-03    -126.192E-03     399.801E-03    -114.884E-03     5.66581E-03     594.133E-03    -296.649E-03    -298.725E-03    -297.018E-03     593.952E-03    -298.176E-03     24.9469E-03     31.4793E+06     6.89822E+06    -58.0053E+06    -54.3600E+06     3.25289E+06     31.4793E+06     14.8205E+06         68.4925
            1593     8.16653E-03     144.175E-03     414.218E-03    -116.359E-03    -137.853E-03    -137.656E-03     414.020E-03    -116.359E-03     367.485E-06     596.109E-03    -296.000E-03    -298.412E-03    -295.652E-03     595.761E-03    -298.412E-03     34.8473E-03     50.0308E+06     12.8294E+06    -49.1277E+06    -46.5226E+06     10.2243E+06     50.0308E+06     12.4132E+06         69.0775
            1594     8.91009E-03     144.241E-03     417.106E-03    -118.241E-03    -139.494E-03    -139.281E-03     416.893E-03    -118.241E-03     256.798E-06     596.104E-03    -296.395E-03    -297.619E-03    -296.126E-03     595.496E-03    -297.280E-03     46.2141E-03     62.9634E+06     13.8418E+06    -40.9225E+06    -39.0046E+06     11.9239E+06     62.9634E+06     10.0232E+06         70.4083
            1595     9.65145E-03     144.365E-03     404.852E-03    -116.293E-03    -129.905E-03    -126.505E-03     404.627E-03    -119.468E-03    -64.6363E-06     594.693E-03    -297.508E-03    -298.581E-03    -297.620E-03     593.733E-03    -297.508E-03     58.2281E-03     69.2005E+06     13.7475E+06    -33.3413E+06    -31.9123E+06     12.3185E+06     69.2005E+06     8.07497E+06         72.8986
            1596     10.3965E-03     144.446E-03     383.476E-03    -103.892E-03    -120.579E-03    -105.036E-03     383.316E-03    -119.275E-03    -3.40880E-03     595.157E-03    -297.986E-03    -298.887E-03    -297.416E-03     593.686E-03    -297.986E-03     72.0503E-03     71.3145E+06     19.3397E+06    -26.2417E+06    -25.2403E+06     18.3383E+06     71.3145E+06     6.52849E+06         76.6764
            1597     11.1398E-03     144.585E-03     363.859E-03    -88.4959E-03    -117.740E-03    -88.2856E-03     363.649E-03    -117.740E-03    -1.82199E-03     596.070E-03    -298.967E-03    -299.514E-03    -297.559E-03     594.114E-03    -298.967E-03     83.5056E-03     76.1506E+06     31.6751E+06    -19.2225E+06    -18.6791E+06     31.1318E+06     76.1506E+06     5.15471E+06         81.5137
            1598     11.8834E-03     144.749E-03     355.626E-03    -83.7408E-03    -115.629E-03    -83.4989E-03     355.384E-03    -115.629E-03    -5.90043E-03     597.261E-03    -298.583E-03    -301.683E-03    -298.459E-03     594.037E-03    -298.583E-03     105.876E-03     85.4315E+06     40.7218E+06    -12.6418E+06    -12.2914E+06     40.3715E+06     85.4315E+06     4.27166E+06         86.4717
            1599     12.6273E-03     144.961E-03     360.950E-03    -92.4646E-03    -113.857E-03    -92.2297E-03     360.715E-03    -113.857E-03    -906.896E-06     599.715E-03    -298.180E-03    -303.091E-03    -299.309E-03     595.933E-03    -298.180E-03     116.318E-03     98.3011E+06     50.0563E+06    -6.33205E+06    -6.18152E+06     49.9058E+06     98.3011E+06     2.44141E+06         90.2434
            1600     740.928E-06     145.794E-03     484.203E-03    -119.255E-03    -207.072E-03    -94.5422E-03     459.491E-03    -207.072E-03     107.543E-03     596.918E-03    -297.190E-03    -299.465E-03    -297.187E-03     596.914E-03    -299.465E-03    -2.88450E-03    -101.951E+06    -103.300E+06    -202.905E+06    -103.261E+06    -202.828E+06    -102.066E+06     1.23491E+06         67.1978
            1601     1.48444E-03     145.756E-03     434.024E-03    -131.726E-03    -148.465E-03    -131.469E-03     431.243E-03    -145.942E-03    -29.7663E-03     595.346E-03    -297.293E-03    -298.153E-03    -297.281E-03     595.334E-03    -298.153E-03    -6.29119E-03    -96.6381E+06    -101.373E+06    -192.532E+06    -101.699E+06    -192.206E+06    -96.6381E+06     4.98104E+06         67.1215
            1602     2.22692E-03     145.732E-03     405.980E-03    -111.877E-03    -142.285E-03    -115.222E-03     405.063E-03    -138.022E-03     2.51855E-03     594.834E-03    -297.197E-03    -297.935E-03    -297.178E-03     594.815E-03    -297.935E-03    -8.16088E-03    -86.5021E+06    -97.1263E+06    -177.899E+06    -98.0412E+06    -176.984E+06    -86.5021E+06     8.18808E+06         67.0615
            1603     2.96939E-03     145.741E-03     384.058E-03    -100.563E-03    -132.351E-03    -101.940E-03     383.696E-03    -130.612E-03    -21.0150E-03     593.918E-03    -297.493E-03    -298.091E-03    -297.555E-03     593.899E-03    -298.012E-03    -8.06291E-03    -74.3972E+06    -91.6863E+06    -159.232E+06    -93.8690E+06    -157.049E+06    -74.3972E+06     11.5215E+06         67.0035
            1604     3.71246E-03     145.748E-03     367.382E-03    -91.0973E-03    -123.811E-03    -90.8094E-03     367.094E-03    -123.811E-03    -18.5205E-03     594.636E-03    -297.333E-03    -298.059E-03    -297.400E-03     594.624E-03    -297.979E-03    -6.53926E-03    -60.9350E+06    -83.8669E+06    -136.218E+06    -89.0496E+06    -131.035E+06    -60.9350E+06     14.8180E+06         67.0202
            1605     4.45485E-03     145.780E-03     359.559E-03    -87.4158E-03    -117.981E-03    -87.1798E-03     359.323E-03    -117.981E-03    -14.7109E-03     595.285E-03    -297.066E-03    -297.980E-03    -297.397E-03     595.281E-03    -297.645E-03    -3.00225E-03    -45.7547E+06    -70.0047E+06    -111.688E+06    -83.2265E+06    -98.4660E+06    -45.7547E+06     17.9368E+06         67.2456
            1606     5.19788E-03     145.783E-03     363.727E-03    -95.9371E-03    -114.116E-03    -95.7759E-03     363.566E-03    -114.116E-03    -11.7351E-03     592.623E-03    -297.480E-03    -298.423E-03    -297.811E-03     592.618E-03    -298.088E-03     2.40225E-03    -27.1206E+06    -42.2796E+06    -90.5346E+06    -76.0502E+06    -54.7589E+06    -29.1257E+06     20.6044E+06         67.5716
            1607     5.94124E-03     145.786E-03     374.996E-03    -107.365E-03    -115.549E-03    -110.128E-03     374.874E-03    -112.664E-03    -9.35778E-03     591.548E-03    -297.014E-03    -298.709E-03    -296.986E-03     591.520E-03    -298.709E-03     9.18083E-03    -8.95127E+06    -13.0308E+06    -77.4148E+06    -69.1573E+06    -19.1178E+06    -11.1219E+06     21.7149E+06         67.8379
            1608     6.68311E-03     145.829E-03     388.624E-03    -112.898E-03    -125.811E-03    -125.411E-03     388.589E-03    -113.264E-03    -3.67115E-03     592.616E-03    -296.437E-03    -298.188E-03    -297.018E-03     592.533E-03    -297.525E-03     16.7146E-03     9.10043E+06     1.86406E+06    -68.8570E+06     -62.555E+06    -4.27243E+06     8.93491E+06     20.1032E+06         68.0391
            1609     7.42373E-03     145.927E-03     398.745E-03    -115.047E-03    -134.690E-03    -134.570E-03     398.624E-03    -115.047E-03     4.99501E-03     594.094E-03    -296.334E-03    -298.980E-03    -296.814E-03     593.910E-03    -298.317E-03     25.1695E-03     29.8250E+06     9.61499E+06    -60.0795E+06    -55.3088E+06     4.84433E+06     29.8250E+06     17.4700E+06         68.2755
            1610     8.16829E-03     145.962E-03     400.429E-03    -113.872E-03    -136.981E-03    -133.829E-03     400.285E-03    -116.880E-03     1.41993E-03     595.435E-03    -295.625E-03    -298.586E-03    -295.269E-03     595.079E-03    -298.586E-03     35.1973E-03     49.3222E+06     16.2314E+06    -51.8300E+06    -48.1037E+06     12.5051E+06     49.3222E+06     15.3444E+06         68.8187
            1611     8.91235E-03     146.037E-03     393.305E-03    -108.809E-03    -134.457E-03    -125.195E-03     393.140E-03    -117.906E-03    -565.038E-06     595.921E-03    -296.138E-03    -297.463E-03    -295.870E-03     595.307E-03    -297.117E-03     46.4240E-03     64.5169E+06     20.0280E+06    -43.0393E+06    -40.4409E+06     17.4296E+06     64.5169E+06     12.4740E+06         70.0958
            1612     9.65438E-03     146.150E-03     379.789E-03    -103.826E-03    -124.126E-03    -110.082E-03     379.615E-03    -117.697E-03    -719.795E-06     594.479E-03    -297.083E-03    -297.949E-03    -296.734E-03     593.522E-03    -297.341E-03     58.0996E-03     72.5502E+06     18.2310E+06    -33.9934E+06    -32.4014E+06     16.6390E+06     72.5502E+06     8.92751E+06         72.5302
            1613     10.3987E-03     146.242E-03     367.516E-03    -98.5718E-03    -116.415E-03    -98.4803E-03     367.424E-03    -116.415E-03    -3.12036E-03     594.780E-03    -297.748E-03    -298.453E-03    -296.761E-03     593.347E-03    -298.007E-03     71.1381E-03     74.9218E+06     21.0233E+06    -25.8576E+06    -24.7599E+06     19.9256E+06     74.9218E+06     6.93445E+06         76.2549
            1614     11.1410E-03     146.378E-03     362.821E-03    -96.4466E-03    -114.753E-03    -96.4193E-03     362.793E-03    -114.753E-03     3.55189E-03     595.721E-03    -298.882E-03    -299.413E-03    -297.506E-03     593.814E-03    -298.882E-03     82.4419E-03     79.2087E+06     33.6433E+06    -19.2615E+06    -18.4712E+06     32.8531E+06     79.2087E+06     6.16058E+06         81.0751
            1615     11.8846E-03     146.558E-03     364.841E-03    -99.3839E-03    -114.906E-03    -100.836E-03     364.762E-03    -113.375E-03     6.45932E-03     596.991E-03    -298.466E-03    -301.455E-03    -298.278E-03     593.814E-03    -298.466E-03     105.075E-03     88.7393E+06     45.3633E+06    -12.9146E+06    -12.5457E+06     44.9944E+06     88.7393E+06     4.27639E+06         86.0759
            1616     12.6285E-03     146.773E-03     367.131E-03    -103.470E-03    -114.054E-03    -104.880E-03     367.009E-03    -112.523E-03     14.0386E-03     598.637E-03    -298.047E-03    -302.423E-03    -298.659E-03     594.874E-03    -298.047E-03     115.968E-03     100.960E+06     54.9913E+06    -6.44442E+06    -6.35598E+06     54.9028E+06     100.960E+06     2.00156E+06         89.8974
            1617     742.242E-06     147.594E-03     448.321E-03    -115.763E-03    -187.426E-03    -100.938E-03     433.495E-03    -187.426E-03     94.5079E-03     595.841E-03    -296.675E-03    -298.838E-03    -296.671E-03     595.837E-03    -298.838E-03    -2.35462E-03    -109.820E+06    -111.764E+06    -216.180E+06    -111.846E+06    -216.099E+06    -109.820E+06     2.11239E+06         67.1663
            1618     1.48434E-03     147.545E-03     416.050E-03    -128.223E-03    -144.539E-03    -128.072E-03     414.014E-03    -142.654E-03    -2.78018E-03     594.392E-03    -296.766E-03    -297.787E-03    -296.863E-03     594.383E-03    -297.680E-03    -5.51790E-03    -103.554E+06    -108.964E+06    -205.582E+06    -109.302E+06    -205.244E+06    -103.554E+06     5.26488E+06         67.0892
            1619     2.22844E-03     147.514E-03     389.446E-03    -107.485E-03    -137.203E-03    -107.476E-03     387.551E-03    -135.318E-03     27.7106E-03     594.014E-03    -296.733E-03    -297.467E-03    -296.825E-03     594.000E-03    -297.361E-03    -7.05723E-03    -94.8170E+06    -105.391E+06    -191.988E+06    -106.225E+06    -191.153E+06    -94.8170E+06     8.15056E+06         67.0237
            1620     2.97130E-03     147.524E-03     367.586E-03    -95.8778E-03    -126.918E-03    -94.8906E-03     366.546E-03    -126.865E-03     10.0979E-03     593.458E-03    -297.282E-03    -297.836E-03    -297.399E-03     593.442E-03    -297.703E-03    -7.50035E-03    -83.0215E+06    -99.6207E+06    -172.757E+06    -101.444E+06    -170.934E+06    -83.0215E+06     10.9455E+06         66.9553
            1621     3.71363E-03     147.526E-03     363.231E-03    -94.2284E-03    -123.685E-03    -96.7630E-03     362.515E-03    -120.434E-03     6.83187E-03     594.783E-03    -297.511E-03    -298.016E-03    -297.776E-03     594.772E-03    -297.740E-03    -5.97949E-03    -68.4278E+06    -91.5246E+06    -148.291E+06    -95.5413E+06    -144.274E+06    -68.4278E+06     13.7892E+06         66.9361
            1622     4.45549E-03     147.560E-03     369.044E-03    -99.4829E-03    -123.219E-03    -105.261E-03     368.621E-03    -117.018E-03     4.50058E-03     595.867E-03    -296.771E-03    -297.498E-03    -296.926E-03     595.863E-03    -297.340E-03    -3.01431E-03    -51.7164E+06    -79.0894E+06    -121.678E+06    -89.0929E+06    -111.674E+06    -51.7164E+06     16.4998E+06         67.1129
            1623     5.19873E-03     147.570E-03     376.687E-03    -108.014E-03    -122.546E-03    -114.298E-03     376.318E-03    -115.894E-03     4.49173E-03     592.411E-03    -296.735E-03    -297.998E-03    -296.746E-03     592.407E-03    -297.983E-03     2.05483E-03    -33.0194E+06    -52.8385E+06    -98.9302E+06    -81.9336E+06    -69.8350E+06    -33.0194E+06     19.9719E+06         67.4161
            1624     5.94304E-03     147.574E-03     384.413E-03    -114.267E-03    -124.084E-03    -121.887E-03     384.123E-03    -116.174E-03     6.57020E-03     591.017E-03    -296.459E-03    -298.771E-03    -296.430E-03     590.988E-03    -298.771E-03     9.29453E-03    -11.5102E+06    -18.0646E+06    -83.1829E+06    -73.9857E+06    -26.4544E+06    -12.3175E+06     22.2469E+06         67.6819
            1625     6.68479E-03     147.617E-03     385.644E-03    -114.254E-03    -126.596E-03    -123.728E-03     385.532E-03    -117.010E-03     5.30683E-03     592.892E-03    -296.243E-03    -298.386E-03    -296.827E-03     592.804E-03    -297.714E-03     17.2390E-03     8.49396E+06     2.96206E+06    -72.5158E+06    -66.1992E+06    -2.54709E+06     7.68658E+06     20.9557E+06         67.8920
            1626     7.42546E-03     147.702E-03     374.383E-03    -105.867E-03    -125.428E-03    -113.924E-03     374.322E-03    -117.309E-03     5.14631E-03     593.581E-03    -296.318E-03    -298.828E-03    -296.799E-03     593.391E-03    -298.156E-03     25.6507E-03     27.0341E+06     10.4196E+06    -63.5737E+06    -58.4133E+06     5.25923E+06     27.0341E+06     18.8111E+06         68.1387
            1627     8.17017E-03     147.742E-03     357.338E-03    -95.4494E-03    -119.077E-03    -98.1582E-03     357.253E-03    -116.284E-03     3.58978E-03     594.331E-03    -295.846E-03    -298.358E-03    -295.485E-03     593.970E-03    -298.358E-03     35.4594E-03     47.6965E+06     19.1367E+06    -53.8537E+06    -49.6541E+06     14.9371E+06     47.6965E+06     16.8832E+06         68.6601
            1628     8.91438E-03     147.815E-03     346.426E-03    -89.3732E-03    -114.210E-03    -89.2488E-03     346.302E-03    -114.210E-03     2.29222E-03     595.280E-03    -296.400E-03    -297.194E-03    -295.909E-03     594.669E-03    -297.074E-03     46.3607E-03     65.9624E+06     26.5861E+06    -43.5712E+06    -40.6875E+06     23.7024E+06     65.9624E+06     13.8709E+06         69.8748
            1629     9.65581E-03     147.938E-03     348.433E-03    -91.9735E-03    -112.061E-03    -91.8420E-03     348.302E-03    -112.061E-03     258.029E-06     594.164E-03    -296.525E-03    -297.462E-03    -295.693E-03     593.212E-03    -297.342E-03     57.8934E-03     76.0436E+06     24.6492E+06    -34.5945E+06    -32.6464E+06     22.7011E+06     76.0436E+06     10.4938E+06         72.2424
            1630     10.4004E-03     148.036E-03     359.934E-03    -101.292E-03    -115.220E-03    -105.705E-03     359.886E-03    -110.758E-03    -2.39389E-03     594.352E-03    -297.208E-03    -298.241E-03    -295.984E-03     592.911E-03    -298.025E-03     71.2578E-03     78.1607E+06     23.2426E+06    -27.3648E+06    -26.0214E+06     21.8992E+06     78.1607E+06     7.95036E+06         75.9186
            1631     11.1438E-03     148.171E-03     371.798E-03    -108.135E-03    -120.752E-03    -118.343E-03     371.785E-03    -110.531E-03     2.74252E-03     595.399E-03    -298.612E-03    -299.143E-03    -297.195E-03     593.450E-03    -298.612E-03     83.2840E-03     82.1993E+06     36.4293E+06    -20.5669E+06    -19.6053E+06     35.4676E+06     82.1993E+06     7.19861E+06         80.7242
            1632     11.8872E-03     148.353E-03     374.703E-03    -110.521E-03    -121.080E-03    -120.687E-03     374.639E-03    -110.850E-03    -3.15310E-03     596.825E-03    -298.022E-03    -301.055E-03    -297.815E-03     593.584E-03    -298.022E-03     106.170E-03     91.6586E+06     51.7693E+06    -13.5737E+06    -13.1080E+06     51.3036E+06     91.6586E+06     4.82251E+06         85.7506
            1633     12.6329E-03     148.579E-03     365.785E-03    -108.400E-03    -115.504E-03    -112.789E-03     365.704E-03    -111.033E-03    -1.87067E-03     597.572E-03    -297.771E-03    -301.861E-03    -298.019E-03     593.730E-03    -297.771E-03     117.093E-03     103.005E+06      59.258E+06    -6.92406E+06    -6.87858E+06     59.2125E+06     103.005E+06     1.40240E+06         89.6056
            1634     743.615E-06     149.399E-03     301.895E-03    -63.6569E-03    -105.456E-03    -54.1691E-03     290.863E-03    -103.912E-03     67.0013E-03     593.180E-03    -295.865E-03    -297.134E-03    -296.354E-03     593.177E-03    -296.642E-03    -2.36265E-03    -113.081E+06    -114.972E+06    -229.391E+06    -115.014E+06    -229.284E+06    -113.147E+06     3.16461E+06         67.1139
            1635     1.48692E-03     149.348E-03     317.873E-03    -82.8473E-03    -95.1405E-03    -92.7500E-03     316.152E-03    -83.5174E-03     8.65163E-03     593.629E-03    -296.365E-03    -297.442E-03    -297.180E-03     593.620E-03    -296.619E-03    -5.56109E-03    -107.558E+06    -112.811E+06    -218.827E+06    -113.121E+06    -218.516E+06    -107.558E+06     5.24965E+06         67.0501
            1636     2.22937E-03     149.301E-03     348.418E-03    -88.6611E-03    -115.582E-03    -112.151E-03     346.674E-03    -90.3484E-03     32.6733E-03     593.888E-03    -296.526E-03    -297.370E-03    -297.120E-03     593.872E-03    -296.759E-03    -7.48811E-03    -98.5679E+06    -108.719E+06    -203.725E+06    -109.346E+06    -203.098E+06    -98.5679E+06     7.38167E+06         66.9883
            1637     2.97248E-03     149.306E-03     371.143E-03    -96.3998E-03    -132.381E-03    -129.758E-03     370.208E-03    -98.0872E-03     29.4403E-03     592.942E-03    -297.150E-03    -297.528E-03    -297.278E-03     592.925E-03    -297.383E-03    -7.77461E-03    -85.7613E+06    -103.366E+06    -184.008E+06    -104.585E+06    -182.789E+06    -85.7613E+06     9.52154E+06         66.9260
            1638     3.71511E-03     149.305E-03     387.633E-03    -105.678E-03    -143.639E-03    -142.979E-03     386.973E-03    -105.678E-03     34.0749E-03     594.180E-03    -297.583E-03    -298.027E-03    -298.017E-03     594.170E-03    -297.583E-03    -5.78859E-03    -70.1787E+06    -96.0533E+06    -158.752E+06    -98.6313E+06    -156.174E+06    -70.1787E+06     11.8671E+06         66.9037
            1639     4.45661E-03     149.337E-03     395.387E-03    -112.155E-03    -146.640E-03    -146.331E-03     395.078E-03    -112.155E-03     23.9220E-03     596.201E-03    -296.543E-03    -297.632E-03    -296.839E-03     596.198E-03    -297.333E-03    -2.53285E-03    -53.3833E+06    -85.7055E+06    -130.562E+06    -91.9672E+06    -124.300E+06    -53.3833E+06     14.3562E+06         67.0473
            1640     5.19934E-03     149.346E-03     393.392E-03    -116.682E-03    -141.139E-03    -140.854E-03     393.107E-03    -116.682E-03     14.6090E-03     592.479E-03    -295.947E-03    -297.630E-03    -295.942E-03     592.474E-03    -297.630E-03     2.60014E-03    -34.8741E+06    -64.4196E+06    -105.115E+06    -84.2738E+06    -85.2610E+06    -34.8741E+06     17.7386E+06         67.3242
            1641     5.94376E-03     149.353E-03     378.538E-03    -112.316E-03    -128.802E-03    -122.245E-03     378.297E-03    -118.632E-03     6.59088E-03     590.011E-03    -295.417E-03    -298.362E-03    -295.386E-03     589.980E-03    -298.362E-03     9.70915E-03    -14.2389E+06    -27.4150E+06    -86.4965E+06    -75.8371E+06    -37.4325E+06    -14.8808E+06     21.2334E+06         67.5749
            1642     6.68754E-03     149.392E-03     355.478E-03    -97.4410E-03    -119.109E-03    -98.6714E-03     355.332E-03    -117.733E-03     259.303E-06     591.733E-03    -295.766E-03    -298.140E-03    -295.995E-03     591.640E-03    -297.818E-03     17.6363E-03     7.28724E+06     2.59655E+06    -74.6189E+06    -67.7269E+06    -3.65358E+06     6.64538E+06     21.9951E+06         67.7772
            1643     7.42864E-03     149.484E-03     336.280E-03    -82.7818E-03    -114.897E-03    -82.7016E-03     336.199E-03    -114.897E-03    -2.83452E-03     593.051E-03    -296.738E-03    -297.839E-03    -296.857E-03     592.849E-03    -297.517E-03     26.4058E-03     28.1134E+06     12.0680E+06    -65.3005E+06    -59.7777E+06     6.54523E+06     28.1134E+06     19.8719E+06         68.0441
            1644     8.17197E-03     149.530E-03     328.966E-03    -79.6821E-03    -111.627E-03    -79.6147E-03     328.899E-03    -111.627E-03     40.6148E-06     592.972E-03    -296.488E-03    -297.598E-03    -296.248E-03     592.588E-03    -297.453E-03     36.5474E-03     47.9508E+06     21.1158E+06    -56.0338E+06    -51.7781E+06     16.8601E+06     47.9508E+06     17.4969E+06         68.5589
            1645     8.91629E-03     149.595E-03     334.549E-03    -88.7423E-03    -110.278E-03    -89.7701E-03     334.449E-03    -109.149E-03     6.06641E-03     592.748E-03    -296.296E-03    -296.849E-03    -296.022E-03     592.107E-03    -296.482E-03     47.4261E-03     65.6423E+06     31.1730E+06    -46.6566E+06    -43.6284E+06     28.1449E+06     65.6423E+06     14.9973E+06         69.7162
            1646     9.65889E-03     149.708E-03     345.780E-03    -98.5343E-03    -111.339E-03    -101.844E-03     345.677E-03    -107.926E-03     4.31104E-03     593.116E-03    -295.769E-03    -297.131E-03    -295.003E-03     592.127E-03    -296.909E-03     58.9510E-03     77.0348E+06     29.6316E+06    -37.9347E+06    -35.6345E+06     27.3315E+06     77.0348E+06     12.2386E+06         72.0266
            1647     10.4040E-03     149.810E-03     355.916E-03    -104.987E-03    -115.614E-03    -112.797E-03     355.890E-03    -107.778E-03     816.208E-06     594.269E-03    -296.614E-03    -298.271E-03    -295.643E-03     592.780E-03    -297.753E-03     72.4476E-03     81.1905E+06     28.1788E+06    -29.3712E+06    -27.7400E+06     26.5475E+06     81.1905E+06     9.38269E+06         75.6662
            1648     11.1471E-03     149.950E-03     359.193E-03    -106.490E-03    -119.497E-03    -117.773E-03     359.165E-03    -108.186E-03     2.14124E-03     595.241E-03    -297.890E-03    -298.703E-03    -296.588E-03     593.243E-03    -298.007E-03     84.2840E-03     85.5261E+06     40.6836E+06    -20.6707E+06    -19.8562E+06     39.8692E+06     85.5261E+06     6.52776E+06         80.4591
            1649     11.8921E-03     150.141E-03     351.600E-03    -102.954E-03    -117.057E-03    -111.576E-03     351.524E-03    -108.358E-03    -8.92991E-03     596.454E-03    -297.414E-03    -300.448E-03    -297.020E-03     593.144E-03    -297.531E-03     107.251E-03     94.6589E+06     56.7706E+06    -12.9748E+06    -12.6280E+06     56.4238E+06     94.6589E+06     4.42998E+06         85.4995
            1650     12.6374E-03     150.365E-03     336.933E-03    -96.7071E-03    -110.742E-03    -99.5606E-03     336.847E-03    -107.802E-03    -6.59558E-03     596.455E-03    -297.550E-03    -301.102E-03    -297.153E-03     592.506E-03    -297.550E-03     118.607E-03     106.747E+06     64.3211E+06    -6.06314E+06    -5.95563E+06     64.2136E+06     106.747E+06     2.24544E+06         89.3773
            1651     744.333E-06     151.198E-03     301.480E-03    -67.8179E-03    -100.285E-03    -69.2222E-03     296.456E-03    -93.8567E-03     30.3866E-03     592.443E-03    -295.772E-03    -296.552E-03    -296.298E-03     592.439E-03    -296.022E-03    -3.35248E-03    -117.990E+06    -119.712E+06    -241.422E+06    -119.627E+06    -241.326E+06    -118.171E+06     2.55286E+06         66.9916
            1652     1.48732E-03     151.141E-03     312.848E-03    -82.5352E-03    -97.2516E-03    -96.7444E-03     312.434E-03    -82.6292E-03    -18.2713E-03     592.972E-03    -296.211E-03    -297.002E-03    -296.955E-03     592.960E-03    -296.247E-03    -6.33129E-03    -110.311E+06    -116.018E+06    -229.590E+06    -116.246E+06    -229.362E+06    -110.311E+06     4.75106E+06         66.9571
            1653     2.23029E-03     151.093E-03     340.804E-03    -88.9491E-03    -114.113E-03    -113.938E-03     340.723E-03    -89.0431E-03    -8.67725E-03     593.615E-03    -296.347E-03    -297.146E-03    -296.977E-03     593.597E-03    -296.498E-03    -7.94509E-03    -100.277E+06    -111.838E+06    -213.067E+06    -112.233E+06    -212.672E+06    -100.277E+06     6.05052E+06         66.9266
            1654     2.97329E-03     151.091E-03     371.567E-03    -97.6947E-03    -137.467E-03    -136.758E-03     370.857E-03    -97.6947E-03    -15.1724E-03     592.911E-03    -296.578E-03    -297.353E-03    -296.718E-03     592.895E-03    -297.197E-03    -7.46982E-03    -86.9878E+06    -106.203E+06    -192.420E+06    -106.913E+06    -191.710E+06    -86.9878E+06     7.42392E+06         66.8953
            1655     3.71605E-03     151.086E-03     385.695E-03    -106.401E-03    -145.697E-03    -144.688E-03     384.686E-03    -106.401E-03    -15.3014E-03     592.614E-03    -297.067E-03    -297.809E-03    -297.297E-03     592.605E-03    -297.570E-03    -5.32042E-03    -71.4482E+06    -98.8670E+06    -168.416E+06    -100.383E+06    -166.899E+06    -71.4482E+06      9.4671E+06         66.8882
            1656     4.45841E-03     151.117E-03     381.864E-03    -108.337E-03    -141.408E-03    -136.889E-03     381.355E-03    -112.347E-03    -11.9058E-03     595.006E-03    -296.563E-03    -297.306E-03    -296.788E-03     595.004E-03    -297.079E-03    -1.93189E-03    -54.1042E+06    -89.0225E+06    -140.261E+06    -92.7116E+06    -136.572E+06    -54.1042E+06     12.1093E+06         67.0149
            1657     5.20151E-03     151.131E-03     366.247E-03    -102.413E-03    -132.609E-03    -120.018E-03     366.048E-03    -114.804E-03    -11.6088E-03     592.545E-03    -295.706E-03    -296.756E-03    -295.699E-03     592.537E-03    -296.756E-03     3.64238E-03    -35.8550E+06    -73.2694E+06    -111.214E+06    -84.8998E+06    -99.5834E+06    -35.8550E+06     15.2888E+06         67.2804
            1658     5.94598E-03     151.135E-03     344.246E-03    -93.3054E-03    -119.278E-03    -98.3097E-03     344.106E-03    -114.134E-03    -15.5246E-03     590.093E-03    -294.903E-03    -297.608E-03    -294.867E-03     590.056E-03    -297.608E-03     10.7613E-03    -17.0335E+06    -40.7480E+06    -89.7252E+06    -77.1647E+06    -53.3085E+06    -17.0335E+06     19.5551E+06         67.5114
            1659     6.68996E-03     151.166E-03     328.606E-03    -85.5282E-03    -111.490E-03    -85.4415E-03     328.519E-03    -111.490E-03    -11.1745E-03     591.028E-03    -295.327E-03    -297.755E-03    -295.261E-03     590.932E-03    -297.723E-03     18.1068E-03     4.70290E+06    -3.66255E+06    -77.4364E+06    -69.3546E+06    -10.3770E+06     3.33546E+06     22.9432E+06         67.6855
            1660     7.43184E-03     151.254E-03     327.321E-03    -85.6804E-03    -109.763E-03    -86.7512E-03     327.276E-03    -108.648E-03    -8.07740E-03     591.684E-03    -296.382E-03    -296.961E-03    -296.200E-03     591.471E-03    -296.929E-03     27.0224E-03     26.0807E+06     15.2477E+06    -67.6245E+06    -61.5315E+06     10.5222E+06     24.7132E+06     21.7030E+06         67.9582
            1661     8.17551E-03     151.310E-03     335.544E-03    -92.7945E-03    -111.163E-03    -96.9996E-03     335.500E-03    -106.914E-03    -3.51587E-03     590.969E-03    -296.315E-03    -296.827E-03    -296.091E-03     590.555E-03    -296.638E-03     37.8915E-03     45.6696E+06     23.0179E+06    -57.9987E+06    -53.4531E+06     18.4723E+06     45.6696E+06     18.5511E+06         68.4649
            1662     8.92018E-03     151.366E-03     342.880E-03    -101.800E-03    -112.613E-03    -107.914E-03     342.847E-03    -106.466E-03     4.29164E-03     590.023E-03    -295.662E-03    -296.377E-03    -295.692E-03     589.339E-03    -295.662E-03     48.9610E-03     65.5932E+06     33.6378E+06    -48.4561E+06    -44.9233E+06     30.1050E+06     65.5932E+06     16.5773E+06         69.5811
            1663     9.66365E-03     151.488E-03     344.400E-03    -104.767E-03    -111.930E-03    -110.001E-03     344.336E-03    -106.633E-03     6.55391E-03     591.840E-03    -295.064E-03    -296.553E-03    -294.544E-03     590.795E-03    -296.027E-03     60.5626E-03     79.7476E+06     37.3362E+06    -38.8017E+06    -36.2791E+06     34.8136E+06     79.7476E+06     13.5944E+06         71.8502
            1664     10.4079E-03     151.605E-03     337.386E-03    -98.3615E-03    -109.883E-03    -101.672E-03     337.322E-03    -106.509E-03     6.02254E-03     594.221E-03    -296.274E-03    -298.094E-03    -295.574E-03     592.664E-03    -297.238E-03     74.1083E-03     84.6023E+06     34.2491E+06    -29.4023E+06    -27.9282E+06     32.7750E+06     84.6023E+06     9.25389E+06         75.4559
            1665     11.1519E-03     151.742E-03     321.801E-03    -87.8695E-03    -106.612E-03    -88.9260E-03     321.768E-03    -105.522E-03     2.48564E-03     595.046E-03    -296.920E-03    -298.305E-03    -296.125E-03     592.984E-03    -297.038E-03     85.6166E-03     88.2498E+06     43.5220E+06    -20.8495E+06    -20.2444E+06     42.9169E+06     88.2498E+06     5.59516E+06         80.2356
            1666     11.8957E-03     151.919E-03     307.974E-03    -80.3261E-03    -103.680E-03    -80.2892E-03     307.937E-03    -103.680E-03    -1.28702E-03     595.126E-03    -296.758E-03    -299.438E-03    -295.916E-03     591.722E-03    -296.876E-03     108.559E-03     98.0817E+06     60.6229E+06    -13.3528E+06    -13.1026E+06     60.3727E+06     98.0817E+06     4.23203E+06         85.2913
            1667     12.6431E-03     152.142E-03     303.797E-03    -79.6826E-03    -101.573E-03    -79.6462E-03     303.761E-03    -101.573E-03     546.953E-06     594.686E-03    -297.253E-03    -299.757E-03    -295.525E-03     590.624E-03    -297.422E-03     120.069E-03     110.586E+06     69.9610E+06    -6.81048E+06    -6.66702E+06     69.8176E+06     110.586E+06     3.06119E+06         89.1934
            1668     742.966E-06     153.012E-03     405.095E-03    -120.540E-03    -160.644E-03    -124.092E-03     403.763E-03    -155.760E-03     21.7390E-03     591.234E-03    -295.182E-03    -296.157E-03    -295.274E-03     591.231E-03    -296.062E-03    -1.90511E-03    -113.416E+06    -115.740E+06    -249.747E+06    -115.651E+06    -249.720E+06    -113.532E+06     1.51268E+06         66.8210
            1669     1.48672E-03     152.939E-03     393.696E-03    -127.559E-03    -141.324E-03    -131.564E-03     392.816E-03    -136.439E-03     16.7386E-03     591.395E-03    -295.633E-03    -295.819E-03    -295.775E-03     591.387E-03    -295.669E-03    -5.13985E-03    -108.404E+06    -113.572E+06    -240.155E+06    -113.708E+06    -240.019E+06    -108.404E+06     3.52981E+06         66.8041
            1670     2.23129E-03     152.881E-03     377.019E-03    -116.260E-03    -133.504E-03    -117.756E-03     376.794E-03    -131.783E-03     11.3777E-03     592.042E-03    -295.775E-03    -296.149E-03    -296.099E-03     592.027E-03    -295.810E-03    -7.14939E-03    -100.106E+06    -110.133E+06    -220.380E+06    -110.440E+06    -220.073E+06    -100.106E+06     5.41001E+06         66.7976
            1671     2.97439E-03     152.877E-03     353.396E-03    -95.3780E-03    -131.406E-03    -99.8632E-03     352.349E-03    -125.874E-03    -206.408E-06     591.908E-03    -295.767E-03    -296.660E-03    -296.037E-03     591.894E-03    -296.376E-03    -7.01728E-03    -88.8715E+06    -106.358E+06    -198.846E+06    -106.853E+06    -198.351E+06    -88.8715E+06     6.61384E+06         66.8103
            1672     3.71761E-03     152.871E-03     334.467E-03    -83.1756E-03    -123.892E-03    -86.3445E-03     333.048E-03    -119.304E-03    -9.81508E-03     591.053E-03    -296.229E-03    -297.143E-03    -296.527E-03     591.045E-03    -296.838E-03    -4.78321E-03    -73.8902E+06    -101.259E+06    -177.090E+06    -102.229E+06    -176.120E+06    -73.8902E+06     8.20597E+06         66.8425
            1673     4.46020E-03     152.897E-03     315.187E-03    -74.8318E-03    -113.612E-03    -75.0736E-03     314.652E-03    -112.836E-03    -14.2157E-03     593.498E-03    -295.997E-03    -296.746E-03    -296.300E-03     593.497E-03    -296.441E-03    -1.20768E-03    -57.0383E+06    -93.9570E+06    -150.459E+06    -96.2850E+06    -148.131E+06    -57.0383E+06     10.5873E+06         66.9592
            1674     5.20393E-03     152.911E-03     304.347E-03    -70.8533E-03    -107.034E-03    -70.7050E-03     304.199E-03    -107.034E-03    -10.4546E-03     592.401E-03    -295.351E-03    -296.023E-03    -295.402E-03     592.392E-03    -295.963E-03     4.29846E-03    -39.3220E+06    -81.3191E+06    -122.027E+06    -89.4134E+06    -113.933E+06    -39.3220E+06     14.0183E+06         67.2019
            1675     5.94932E-03     152.916E-03     312.761E-03    -79.9946E-03    -103.993E-03    -80.9267E-03     312.673E-03    -102.972E-03    -7.14453E-03     590.387E-03    -294.712E-03    -296.749E-03    -294.729E-03     590.344E-03    -296.690E-03     11.6632E-03    -20.0418E+06    -54.5676E+06    -97.3286E+06    -81.3299E+06    -70.5663E+06    -20.0418E+06     18.3057E+06         67.4277
            1676     6.69303E-03     152.938E-03     330.790E-03    -93.0458E-03    -111.455E-03    -102.906E-03     330.667E-03    -101.472E-03     998.767E-06     591.322E-03    -294.797E-03    -297.231E-03    -294.684E-03     591.208E-03    -297.231E-03     19.6143E-03     693.120E+03    -13.9592E+06    -81.0560E+06    -72.5266E+06    -21.1211E+06    -674.318E+03     21.6741E+06         67.5952
            1677     7.43427E-03     153.032E-03     345.332E-03    -99.8236E-03    -121.615E-03    -119.172E-03     345.184E-03    -102.118E-03     8.66210E-03     590.310E-03    -295.463E-03    -296.686E-03    -295.226E-03     590.073E-03    -296.686E-03     28.5330E-03     20.5350E+06     16.8842E+06    -70.2957E+06    -64.2648E+06     12.2208E+06     19.1676E+06     22.2133E+06         67.8664
            1678     8.17923E-03     153.096E-03     350.098E-03    -103.642E-03    -122.669E-03    -122.577E-03     350.006E-03    -103.642E-03     8.42461E-03     588.944E-03    -295.653E-03    -296.425E-03    -295.269E-03     588.516E-03    -296.381E-03     38.5802E-03     40.3352E+06     26.3989E+06    -60.4068E+06    -55.8516E+06     21.8436E+06     40.3352E+06     19.1957E+06         68.3641
            1679     8.92591E-03     153.145E-03     341.515E-03    -102.893E-03    -115.114E-03    -113.200E-03     341.445E-03    -104.736E-03     2.39196E-03     588.502E-03    -295.285E-03    -296.030E-03    -295.211E-03     587.811E-03    -295.413E-03     49.1235E-03     62.3242E+06     35.6483E+06    -49.5520E+06    -46.3774E+06     32.4737E+06     62.3242E+06     15.9196E+06         69.4526
            1680     9.66844E-03     153.258E-03     322.148E-03    -93.2791E-03    -106.415E-03    -95.0483E-03     322.033E-03    -104.530E-03     334.011E-06     590.013E-03    -294.583E-03    -295.835E-03    -294.094E-03     588.951E-03    -295.263E-03     60.9412E-03     80.0846E+06     42.9923E+06    -38.9075E+06    -36.5957E+06     40.6806E+06     80.0846E+06     13.4656E+06         71.6889
            1681     10.4140E-03     153.366E-03     301.468E-03    -76.4353E-03    -102.879E-03    -76.3162E-03     301.349E-03    -102.879E-03    -2.26618E-03     592.548E-03    -295.675E-03    -297.129E-03    -294.838E-03     590.937E-03    -296.354E-03     75.2299E-03     88.0738E+06     41.1922E+06    -29.9204E+06    -28.1918E+06     39.4636E+06     88.0738E+06     10.5701E+06         75.2690
            1682     11.1585E-03     153.510E-03     288.026E-03    -64.7892E-03    -100.232E-03    -64.6492E-03     287.886E-03    -100.232E-03    -7.51811E-03     593.776E-03    -295.968E-03    -297.435E-03    -295.278E-03     591.619E-03    -295.968E-03     87.4542E-03     92.6548E+06     49.3983E+06    -22.3779E+06    -21.4627E+06     48.4831E+06     92.6548E+06     6.95106E+06         80.0452
            1683     11.9034E-03     153.688E-03     285.116E-03    -65.1269E-03    -97.3895E-03    -65.0294E-03     285.018E-03    -97.3895E-03    -3.64909E-03     593.683E-03    -296.014E-03    -298.177E-03    -294.652E-03     590.159E-03    -296.014E-03     110.372E-03     101.067E+06     63.9885E+06    -14.9144E+06    -14.6983E+06     63.7725E+06     101.067E+06     3.96192E+06         85.1203
            1684     12.6524E-03     153.896E-03     292.813E-03    -73.4295E-03    -95.1190E-03    -73.3339E-03     292.718E-03    -95.1190E-03     4.24186E-03     593.338E-03    -296.513E-03    -298.421E-03    -294.076E-03     589.162E-03    -296.683E-03     121.530E-03     113.391E+06     74.1178E+06    -7.26673E+06    -7.16931E+06     74.0204E+06     113.391E+06     2.64923E+06         89.0447
            1685     745.040E-06     154.800E-03     421.327E-03    -132.646E-03    -171.463E-03    -128.938E-03     417.618E-03    -171.463E-03    -14.3502E-03     589.432E-03    -294.232E-03    -295.402E-03    -294.287E-03     589.430E-03    -295.345E-03    -1.61906E-03    -111.317E+06    -114.454E+06    -258.595E+06    -113.830E+06    -258.533E+06    -112.002E+06     2.83522E+06         66.7014
            1686     1.48904E-03     154.727E-03     384.674E-03    -122.785E-03    -145.740E-03    -121.888E-03     383.778E-03    -145.740E-03     33.4151E-03     589.982E-03    -294.728E-03    -294.982E-03    -294.835E-03     589.976E-03    -294.869E-03    -4.25774E-03    -106.095E+06    -111.365E+06    -246.880E+06    -111.450E+06    -246.795E+06    -106.095E+06     3.31851E+06         66.6630
            1687     2.23225E-03     154.661E-03     342.133E-03    -92.6977E-03    -133.883E-03    -92.4004E-03     341.835E-03    -133.883E-03     15.3838E-03     590.014E-03    -294.632E-03    -295.322E-03    -294.818E-03     590.004E-03    -295.127E-03    -5.75847E-03    -98.4458E+06    -108.113E+06    -228.280E+06    -108.341E+06    -228.052E+06    -98.4458E+06     4.73789E+06         66.6384
            1688     2.97604E-03     154.655E-03     302.729E-03    -66.3845E-03    -120.562E-03    -65.5608E-03     301.905E-03    -120.562E-03     30.6821E-03     588.812E-03    -294.718E-03    -295.611E-03    -294.849E-03     588.803E-03    -295.471E-03    -5.50903E-03    -86.0106E+06    -103.708E+06    -207.999E+06    -104.315E+06    -207.393E+06    -86.0106E+06     7.57619E+06         66.6722
            1689     3.71926E-03     154.649E-03     278.667E-03    -51.3968E-03    -107.998E-03    -50.5330E-03     277.804E-03    -107.998E-03     31.3135E-03     588.936E-03    -295.213E-03    -296.109E-03    -295.828E-03     588.931E-03    -295.489E-03    -3.67315E-03    -70.3067E+06    -98.5241E+06    -186.431E+06    -99.7069E+06    -185.248E+06    -70.3067E+06     9.85455E+06         66.7559
            1690     4.46341E-03     154.672E-03     276.590E-03    -56.0603E-03    -101.825E-03    -58.9197E-03     276.372E-03    -98.7487E-03     15.4208E-03     592.140E-03    -294.701E-03    -295.994E-03    -295.682E-03     592.139E-03    -295.012E-03    -159.330E-06    -53.5736E+06    -92.1285E+06    -160.405E+06    -94.3627E+06    -158.171E+06    -53.5736E+06     11.7700E+06         66.8812
            1691     5.20696E-03     154.693E-03     293.519E-03    -70.4485E-03    -104.037E-03    -79.9997E-03     293.270E-03    -94.2375E-03     14.6360E-03     591.784E-03    -294.732E-03    -295.652E-03    -295.331E-03     591.774E-03    -295.043E-03     5.00607E-03    -36.3464E+06    -82.3463E+06    -132.448E+06    -87.7180E+06    -127.076E+06    -36.3464E+06     14.3444E+06         67.0822
            1692     5.95216E-03     154.694E-03     315.690E-03    -85.0808E-03    -108.260E-03    -99.5881E-03     315.483E-03    -93.5455E-03     13.6794E-03     589.675E-03    -294.469E-03    -296.213E-03    -294.668E-03     589.628E-03    -295.966E-03     12.2636E-03    -19.4371E+06    -61.5179E+06    -102.645E+06    -80.4052E+06    -83.7580E+06    -19.4371E+06     16.9363E+06         67.3202
            1693     6.69817E-03     154.709E-03     332.151E-03    -94.9976E-03    -115.341E-03    -115.219E-03     332.029E-03    -94.9976E-03     8.11896E-03     590.793E-03    -294.290E-03    -296.469E-03    -294.166E-03     590.669E-03    -296.469E-03     20.5582E-03     171.513E+03    -24.4860E+06    -81.2722E+06    -72.0755E+06    -33.6827E+06     171.513E+03     19.8516E+06         67.5189
            1694     7.44047E-03     154.787E-03     335.530E-03    -97.1454E-03    -120.187E-03    -120.024E-03     335.367E-03    -97.1454E-03     7.19098E-03     590.368E-03    -294.914E-03    -296.413E-03    -294.666E-03     590.120E-03    -296.413E-03     29.2490E-03     22.1780E+06     12.7879E+06    -69.6791E+06    -63.0777E+06     7.68484E+06     20.6797E+06     22.0943E+06         67.7684
            1695     8.18434E-03     154.848E-03     325.425E-03    -94.5012E-03    -114.697E-03    -110.466E-03     325.342E-03    -98.6492E-03     5.53714E-03     588.699E-03    -294.844E-03    -296.357E-03    -294.409E-03     588.264E-03    -296.357E-03     38.8513E-03     40.6397E+06     31.8987E+06    -59.4028E+06    -54.6732E+06     28.6674E+06     39.1413E+06     20.2493E+06         68.2466
            1696     8.93125E-03     154.895E-03     309.116E-03    -87.4730E-03    -103.984E-03    -92.7532E-03     309.037E-03    -98.6252E-03     746.805E-06     587.941E-03    -294.734E-03    -295.742E-03    -294.265E-03     587.237E-03    -295.507E-03     49.5231E-03     58.4751E+06     39.3538E+06    -50.0590E+06    -47.0576E+06     36.3524E+06     58.4751E+06     15.9219E+06         69.3210
            1697     9.67479E-03     155.010E-03     293.661E-03    -79.7714E-03    -97.1467E-03    -79.6557E-03     293.546E-03    -97.1467E-03    -120.273E-06     588.253E-03    -294.100E-03    -295.265E-03    -293.251E-03     587.169E-03    -295.030E-03     61.4970E-03     77.8980E+06     45.1537E+06    -40.9309E+06    -39.0230E+06     43.2459E+06     77.8980E+06     12.5858E+06         71.5400
            1698     10.4210E-03     155.131E-03     283.899E-03    -73.1787E-03    -94.9577E-03    -73.0440E-03     283.764E-03    -94.9577E-03    -189.204E-06     589.417E-03    -294.563E-03    -295.891E-03    -293.379E-03     587.758E-03    -295.416E-03     76.1148E-03     89.8338E+06     46.2054E+06    -31.3242E+06    -29.7759E+06     44.6571E+06     89.8338E+06     10.2904E+06         75.1155
            1699     11.1668E-03     155.290E-03     284.493E-03    -72.6676E-03    -95.5741E-03    -75.1227E-03     284.182E-03    -92.8083E-03     1.84186E-03     590.950E-03    -295.113E-03    -295.881E-03    -293.676E-03     588.757E-03    -295.124E-03     88.0257E-03     96.7580E+06     56.2030E+06    -21.6463E+06    -20.5125E+06     55.0691E+06     96.7580E+06     8.28422E+06         79.9006
            1700     11.9133E-03     155.461E-03     291.676E-03    -76.9405E-03    -97.5598E-03    -82.9573E-03     291.387E-03    -91.2533E-03     5.84084E-03     592.541E-03    -295.423E-03    -296.787E-03    -293.237E-03     589.002E-03    -295.435E-03     110.418E-03     105.495E+06     69.6069E+06    -13.5613E+06    -13.0895E+06     69.1351E+06     105.495E+06     5.52214E+06         84.9964
            1701     12.6603E-03     155.660E-03     293.828E-03    -81.2815E-03    -94.1344E-03    -84.9451E-03     293.660E-03    -90.3029E-03     6.25072E-03     592.196E-03    -295.607E-03    -297.126E-03    -292.888E-03     587.958E-03    -295.607E-03     122.311E-03     116.417E+06     78.4398E+06    -7.18098E+06    -7.06515E+06     78.3240E+06     116.417E+06     2.70503E+06         88.9389
            1702     744.069E-06     156.597E-03     283.601E-03    -71.2673E-03    -102.265E-03    -63.2397E-03     275.377E-03    -102.068E-03    -43.8054E-03     590.095E-03    -294.349E-03    -295.739E-03    -294.347E-03     590.093E-03    -295.739E-03    -2.61949E-03    -122.975E+06    -125.491E+06       -268.E+06    -124.857E+06    -267.948E+06    -123.660E+06     1.70580E+06         66.6690
            1703     1.48923E-03     156.518E-03     271.450E-03    -71.5141E-03    -91.6078E-03    -76.3909E-03     270.402E-03    -85.6829E-03     11.5969E-03     589.777E-03    -294.393E-03    -295.204E-03    -294.387E-03     589.771E-03    -295.204E-03    -4.45066E-03    -114.745E+06    -121.350E+06    -253.084E+06    -121.452E+06    -252.982E+06    -114.745E+06     3.41573E+06         66.6224
            1704     2.23465E-03     156.442E-03     269.822E-03    -58.8634E-03    -101.688E-03    -75.6950E-03     269.585E-03    -84.6199E-03    -6.61042E-03     588.851E-03    -293.704E-03    -295.271E-03    -293.696E-03     588.843E-03    -295.271E-03    -5.28528E-03    -102.196E+06    -116.700E+06    -237.196E+06    -116.904E+06    -236.991E+06    -102.196E+06     4.82645E+06         66.5774
            1705     2.97949E-03     156.423E-03     277.883E-03    -60.5327E-03    -109.800E-03    -85.4865E-03     277.251E-03    -84.2142E-03    -612.740E-06     586.560E-03    -293.508E-03    -295.325E-03    -293.502E-03     586.554E-03    -295.325E-03    -4.52227E-03    -87.0759E+06    -109.968E+06    -218.828E+06    -110.474E+06    -218.322E+06    -87.0759E+06     6.97985E+06         66.5689
            1706     3.72402E-03     156.408E-03     288.035E-03    -64.8336E-03    -114.370E-03    -93.1275E-03     287.266E-03    -85.3063E-03    -7.89633E-03     586.190E-03    -294.083E-03    -295.615E-03    -294.920E-03     586.187E-03    -294.775E-03    -2.88884E-03    -70.7538E+06    -102.028E+06    -195.355E+06    -103.062E+06    -194.322E+06    -70.7538E+06     9.45831E+06         66.6270
            1707     4.46695E-03     156.427E-03     303.383E-03    -79.0023E-03    -115.794E-03    -106.672E-03     302.956E-03    -87.6971E-03    -6.69756E-03     590.078E-03    -293.710E-03    -295.239E-03    -295.237E-03     590.077E-03    -293.710E-03     657.677E-06    -53.3594E+06    -93.3378E+06    -169.245E+06    -95.3112E+06    -167.272E+06    -53.3594E+06     11.6969E+06         66.7678
            1708     5.21061E-03     156.447E-03     315.571E-03    -90.8676E-03    -113.793E-03    -112.802E-03     314.580E-03    -90.8676E-03    -9.85348E-03     590.331E-03    -293.536E-03    -295.202E-03    -295.190E-03     590.319E-03    -293.536E-03     5.87533E-03    -35.4450E+06    -83.6526E+06    -140.287E+06    -87.3666E+06    -136.573E+06    -35.4450E+06     13.3865E+06         66.9756
            1709     5.95634E-03     156.438E-03     311.108E-03    -89.0821E-03    -109.797E-03    -104.843E-03     310.253E-03    -93.1806E-03    -7.81768E-03     588.651E-03    -293.913E-03    -295.936E-03    -294.841E-03     588.602E-03    -294.959E-03     12.5346E-03    -18.3966E+06    -66.7044E+06    -108.204E+06    -79.6877E+06    -95.2208E+06    -18.3966E+06     15.7562E+06         67.2382
            1710     6.70234E-03     156.454E-03     295.509E-03    -78.8986E-03    -103.990E-03    -89.1377E-03     295.388E-03    -93.6297E-03    -5.02238E-03     590.176E-03    -294.278E-03    -295.763E-03    -294.157E-03     590.054E-03    -295.763E-03     20.3194E-03     77.9045E+03    -35.5216E+06    -84.6215E+06    -71.9359E+06    -48.2071E+06     77.9045E+03     20.0541E+06         67.4551
            1711     7.44501E-03     156.552E-03     278.514E-03    -67.6156E-03    -96.8537E-03    -72.1021E-03     278.341E-03    -92.1941E-03     42.9226E-06     589.633E-03    -294.515E-03    -295.704E-03    -294.272E-03     589.390E-03    -295.704E-03     28.9321E-03     21.7678E+06     6.13900E+06    -71.4993E+06    -63.9164E+06     900.693E+03     19.4232E+06     22.3880E+06         67.6511
            1712     8.18872E-03     156.637E-03     266.627E-03    -62.8136E-03    -90.9461E-03    -63.9296E-03     266.473E-03    -89.6761E-03     5.48424E-03     588.007E-03    -293.845E-03    -295.752E-03    -293.399E-03     587.561E-03    -295.752E-03     39.2266E-03     40.5117E+06     36.2528E+06    -60.0786E+06    -55.4321E+06     33.9883E+06     38.1297E+06     20.7843E+06         68.0900
            1713     8.93622E-03     156.677E-03     264.040E-03    -64.9264E-03    -87.0958E-03    -64.8500E-03     263.964E-03    -87.0958E-03     7.92904E-03     587.642E-03    -293.495E-03    -295.161E-03    -292.753E-03     586.900E-03    -295.161E-03     50.7691E-03     58.0636E+06     44.5889E+06    -50.6231E+06    -47.2254E+06     41.2285E+06     58.0262E+06     17.5645E+06         69.1732
            1714     9.68152E-03     156.771E-03     272.908E-03    -73.0737E-03    -88.8473E-03    -76.5715E-03     272.713E-03    -85.1548E-03     15.8913E-03     587.525E-03    -293.334E-03    -294.918E-03    -292.208E-03     586.399E-03    -294.918E-03     62.6429E-03     78.6848E+06     51.0904E+06    -41.3229E+06    -39.0365E+06     48.8040E+06     78.6848E+06     14.1970E+06         71.4073
            1715     10.4295E-03     156.875E-03     288.171E-03    -80.8513E-03    -96.6576E-03    -93.0098E-03     288.006E-03    -84.3341E-03     14.0650E-03     586.894E-03    -293.601E-03    -295.088E-03    -292.049E-03     585.186E-03    -294.931E-03     77.0460E-03     91.7818E+06     53.4033E+06    -32.2873E+06    -31.0562E+06     52.1722E+06     91.7818E+06     9.91643E+06         74.9982
            1716     11.1746E-03     157.031E-03     298.057E-03    -83.8405E-03    -104.423E-03    -103.586E-03     297.874E-03    -84.4949E-03     12.2005E-03     588.581E-03    -294.114E-03    -294.596E-03    -292.106E-03     586.356E-03    -294.380E-03     88.4708E-03     97.8095E+06     59.1700E+06    -24.2195E+06    -23.4934E+06     58.4440E+06     97.8095E+06     7.22019E+06         79.8027
            1717     11.9229E-03     157.213E-03     295.803E-03    -84.9338E-03    -102.739E-03    -102.510E-03     295.574E-03    -84.9338E-03     9.34043E-03     591.846E-03    -294.563E-03    -295.810E-03    -292.269E-03     588.317E-03    -294.575E-03     110.164E-03     106.697E+06     73.0248E+06    -16.0900E+06    -15.5972E+06     72.5320E+06     106.697E+06     5.93988E+06         84.9227
            1718     12.6714E-03     157.429E-03     282.101E-03    -83.2908E-03    -91.7435E-03    -89.9834E-03     281.994E-03    -84.9443E-03     465.729E-06     591.153E-03    -294.785E-03    -296.390E-03    -292.184E-03     586.947E-03    -294.785E-03     121.715E-03     119.354E+06     84.2256E+06    -7.72218E+06    -7.58832E+06     84.0917E+06     119.354E+06     2.93179E+06         88.8825
            1719     745.115E-06     158.386E-03     165.280E-03    -18.8441E-03    -56.4980E-03    -12.3173E-03     147.216E-03    -44.9605E-03    -45.5247E-03     589.778E-03    -293.909E-03    -296.008E-03    -293.962E-03     589.776E-03    -295.953E-03    -1.23851E-03    -128.348E+06    -131.372E+06    -274.958E+06    -131.346E+06    -274.933E+06    -128.399E+06     1.08396E+06         66.6766
            1720     1.49013E-03     158.284E-03     200.983E-03    -36.3030E-03    -67.4186E-03    -66.0229E-03     199.588E-03    -36.3030E-03    -8.52067E-06     589.739E-03    -294.470E-03    -295.350E-03    -294.521E-03     589.735E-03    -295.295E-03    -3.86135E-03    -120.710E+06    -128.327E+06    -260.866E+06    -128.402E+06    -260.791E+06    -120.710E+06     2.82037E+06         66.6506
            1721     2.23628E-03     158.206E-03     252.954E-03    -51.6655E-03    -99.1338E-03    -98.5830E-03     252.403E-03    -51.6655E-03    -18.4575E-03     588.528E-03    -293.516E-03    -295.348E-03    -293.508E-03     588.520E-03    -295.348E-03    -5.39982E-03    -108.902E+06    -123.601E+06    -245.386E+06    -123.814E+06    -245.173E+06    -108.902E+06     4.92900E+06         66.5993
            1722     2.98198E-03     158.185E-03     295.654E-03    -67.0146E-03    -127.752E-03    -127.332E-03     295.234E-03    -67.0146E-03    -6.97909E-03     586.204E-03    -292.929E-03    -295.247E-03    -292.921E-03     586.197E-03    -295.247E-03    -5.17677E-03    -94.5345E+06    -118.330E+06    -226.842E+06    -118.699E+06    -226.472E+06    -94.5345E+06     6.23555E+06         66.5245
            1723     3.72689E-03     158.174E-03     321.783E-03    -80.4055E-03    -139.699E-03    -139.123E-03     321.207E-03    -80.4055E-03    -17.7350E-03     584.819E-03    -293.546E-03    -295.080E-03    -294.012E-03     584.815E-03    -294.611E-03    -3.16538E-03    -78.9225E+06    -111.549E+06    -203.101E+06    -112.188E+06    -202.462E+06    -78.9225E+06     7.28729E+06         66.4919
            1724     4.47061E-03     158.203E-03     318.069E-03    -89.4248E-03    -127.518E-03    -127.029E-03     317.580E-03    -89.4248E-03    -11.2288E-03     587.888E-03    -293.525E-03    -294.710E-03    -294.709E-03     587.886E-03    -293.525E-03     699.556E-06    -61.3629E+06    -102.974E+06    -176.734E+06    -104.143E+06    -175.565E+06    -61.3629E+06     8.80900E+06         66.6005
            1725     5.21450E-03     158.228E-03     293.169E-03    -84.5841E-03    -107.500E-03    -98.2333E-03     292.250E-03    -92.9309E-03    -16.1318E-03     588.108E-03    -292.748E-03    -294.807E-03    -294.794E-03     588.096E-03    -292.748E-03     6.03993E-03    -42.7483E+06    -93.0372E+06    -147.261E+06    -95.6160E+06    -144.683E+06    -42.7483E+06     10.8824E+06         66.8402
            1726     5.96036E-03     158.229E-03     263.830E-03    -66.9873E-03    -94.7809E-03    -69.0700E-03     262.990E-03    -91.8583E-03    -13.8129E-03     587.209E-03    -293.191E-03    -295.222E-03    -294.857E-03     587.159E-03    -293.506E-03     12.7096E-03    -23.2501E+06    -78.0442E+06    -115.801E+06    -86.2268E+06    -107.619E+06    -23.2501E+06     13.6875E+06         67.1267
            1727     6.70590E-03     158.230E-03     240.434E-03    -49.3324E-03    -88.1161E-03    -49.0198E-03     240.122E-03    -88.1161E-03    -3.02197E-03     589.468E-03    -294.104E-03    -295.088E-03    -294.493E-03     589.342E-03    -294.574E-03     20.6757E-03    -4.13110E+06    -49.2151E+06    -90.4131E+06    -76.2952E+06    -63.3330E+06    -4.13110E+06     17.4529E+06         67.3381
            1728     7.45000E-03     158.303E-03     227.128E-03    -38.9363E-03    -83.3209E-03    -38.6998E-03     226.892E-03    -83.3209E-03    -2.09267E-03     588.129E-03    -293.990E-03    -294.948E-03    -293.875E-03     587.873E-03    -294.808E-03     29.6247E-03     18.2050E+06    -884.225E+03    -73.7861E+06    -66.7112E+06    -6.37648E+06     16.6224E+06     20.4264E+06         67.5064
            1729     8.19521E-03     158.384E-03     228.636E-03    -44.4531E-03    -79.0610E-03    -44.2706E-03     228.453E-03    -79.0610E-03     5.51400E-03     586.319E-03    -293.061E-03    -294.898E-03    -292.607E-03     585.865E-03    -294.898E-03     39.6120E-03     39.7520E+06     36.8377E+06    -62.6461E+06    -58.1402E+06     33.9517E+06     38.1320E+06     20.7472E+06         67.9161
            1730     8.94337E-03     158.435E-03     245.600E-03    -60.0491E-03    -80.6200E-03    -63.9978E-03     245.552E-03    -76.6235E-03     6.66755E-03     586.944E-03    -292.670E-03    -294.849E-03    -291.925E-03     586.199E-03    -294.849E-03     50.8367E-03     57.6806E+06     49.2242E+06    -53.0084E+06    -49.4082E+06     45.6613E+06     57.6432E+06     18.7403E+06         69.0132
            1731     9.68951E-03     158.534E-03     264.914E-03    -72.0062E-03    -87.8005E-03    -83.5687E-03     264.774E-03    -76.0978E-03     9.65152E-03     587.004E-03    -292.630E-03    -294.719E-03    -291.503E-03     585.877E-03    -294.719E-03     62.6469E-03     77.1274E+06     58.1166E+06    -42.9888E+06    -40.5045E+06     55.6323E+06     77.1274E+06     15.5007E+06         71.2853
            1732     10.4357E-03     158.657E-03     276.053E-03    -76.6803E-03    -93.5994E-03    -93.4629E-03     275.916E-03    -76.6803E-03     3.44770E-03     585.552E-03    -292.875E-03    -294.230E-03    -291.179E-03     583.855E-03    -294.230E-03     76.6720E-03     92.7365E+06     61.4761E+06    -33.6006E+06    -31.9927E+06     59.8682E+06     92.7365E+06     12.1979E+06         74.9084
            1733     11.1843E-03     158.789E-03     276.109E-03    -76.0731E-03    -95.1596E-03    -93.7783E-03     276.070E-03    -77.4154E-03    -1.00029E-03     587.220E-03    -293.280E-03    -293.785E-03    -291.281E-03     584.988E-03    -293.551E-03     88.5073E-03     101.428E+06     64.6461E+06    -24.8804E+06    -24.0715E+06     63.8372E+06     101.428E+06     7.90620E+06         79.7454
            1734     11.9339E-03     158.941E-03     265.127E-03    -74.0109E-03    -88.9803E-03    -85.4657E-03     265.083E-03    -77.4813E-03     104.945E-06     590.405E-03    -293.778E-03    -295.487E-03    -291.924E-03     586.842E-03    -293.778E-03     110.622E-03     110.744E+06     76.5382E+06     -16.316E+06    -16.0864E+06     76.3086E+06     110.744E+06     4.36638E+06         84.8924
            1735     12.6795E-03     159.177E-03     249.939E-03    -70.8754E-03    -79.6129E-03    -73.7363E-03     249.833E-03    -76.6452E-03    -4.15233E-03     589.922E-03    -294.036E-03    -296.114E-03    -291.921E-03     585.729E-03    -294.036E-03     121.385E-03     123.603E+06     89.5582E+06    -8.02201E+06    -7.94306E+06     89.4793E+06     123.603E+06     2.41325E+06         88.8675
            1736     746.857E-06     160.185E-03     240.107E-03    -48.2420E-03    -96.7586E-03    -45.5279E-03     226.053E-03    -85.4183E-03    -12.5883E-03     588.367E-03    -292.976E-03    -295.514E-03    -293.029E-03     588.366E-03    -295.459E-03    -1.05186E-03    -132.535E+06    -134.446E+06    -279.879E+06    -134.431E+06    -279.843E+06    -132.585E+06     848.249E+03         66.6485
            1737     1.49207E-03     160.075E-03     235.568E-03    -54.9313E-03    -89.1202E-03    -77.6622E-03     233.108E-03    -63.9295E-03     31.0584E-03     589.199E-03    -294.362E-03    -294.967E-03    -294.783E-03     589.194E-03    -294.542E-03    -4.00275E-03    -124.500E+06    -130.989E+06    -268.548E+06    -131.058E+06    -268.478E+06    -124.500E+06     2.86216E+06         66.6479
            1738     2.23731E-03     159.991E-03     254.681E-03    -61.6342E-03    -99.0316E-03    -89.6740E-03     252.320E-03    -68.6315E-03     24.8310E-03     589.050E-03    -293.816E-03    -295.082E-03    -294.178E-03     589.042E-03    -294.711E-03    -5.27234E-03    -113.576E+06    -126.737E+06    -252.482E+06    -126.919E+06    -252.300E+06    -113.576E+06     4.66667E+06         66.6189
            1739     2.98331E-03     159.954E-03     271.094E-03    -64.2634E-03    -109.548E-03    -97.7714E-03     269.451E-03    -74.3962E-03     36.5007E-03     587.092E-03    -293.127E-03    -294.982E-03    -293.119E-03     587.084E-03    -294.982E-03    -5.24207E-03    -99.1090E+06    -121.155E+06    -231.707E+06    -121.430E+06    -231.433E+06    -99.1090E+06     5.24375E+06         66.5362
            1740     3.72939E-03     159.942E-03     269.013E-03    -61.1063E-03    -108.638E-03    -90.6323E-03     268.309E-03    -78.4068E-03     19.5497E-03     585.680E-03    -292.902E-03    -294.822E-03    -292.912E-03     585.676E-03    -294.807E-03    -3.42018E-03    -82.1755E+06    -114.303E+06    -208.782E+06    -114.693E+06    -208.392E+06    -82.1755E+06     5.73701E+06         66.4387
            1741     4.47410E-03     159.960E-03     255.877E-03    -65.2112E-03    -92.3677E-03    -77.8359E-03     255.429E-03    -79.2953E-03     16.2767E-03     586.379E-03    -293.013E-03    -294.247E-03    -293.416E-03     586.378E-03    -293.842E-03     191.941E-06    -63.8121E+06    -106.446E+06    -183.218E+06    -107.165E+06    -182.499E+06    -63.8121E+06     7.13027E+06         66.4469
            1742     5.21792E-03     159.985E-03     240.137E-03    -64.9269E-03    -80.1685E-03    -66.4003E-03     239.502E-03    -78.0595E-03     3.71316E-03     585.556E-03    -292.895E-03    -293.940E-03    -293.889E-03     585.544E-03    -292.933E-03     5.77987E-03    -45.3548E+06    -97.4236E+06    -154.142E+06    -99.0634E+06    -152.503E+06    -45.3548E+06     8.39329E+06         66.6307
            1743     5.96380E-03     159.990E-03     229.600E-03    -55.1838E-03    -79.6175E-03    -58.2123E-03     228.967E-03    -75.9564E-03     2.59689E-03     585.090E-03    -292.880E-03    -294.272E-03    -294.219E-03     585.037E-03    -292.880E-03     13.0992E-03    -26.6356E+06    -85.4808E+06    -121.560E+06    -89.9925E+06    -117.048E+06    -26.6356E+06     10.1042E+06         66.9088
            1744     6.71093E-03     159.992E-03     229.613E-03    -49.7058E-03    -81.6615E-03    -57.2370E-03     229.241E-03    -73.7584E-03     6.49532E-03     586.721E-03    -293.357E-03    -294.487E-03    -294.140E-03     586.588E-03    -293.570E-03     21.2096E-03    -6.24595E+06    -61.9917E+06    -92.5446E+06    -79.9557E+06    -74.5806E+06    -6.24595E+06     12.1908E+06         67.1469
            1745     7.45592E-03     160.053E-03     237.596E-03    -52.4118E-03    -86.5461E-03    -66.5852E-03     237.441E-03    -72.2179E-03    -4.88696E-03     586.760E-03    -292.759E-03    -294.194E-03    -292.633E-03     586.494E-03    -294.053E-03     30.1947E-03     15.4810E+06    -15.0547E+06    -75.2319E+06    -70.0066E+06    -19.5438E+06     14.7447E+06     16.1134E+06         67.3533
            1746     8.20064E-03     160.153E-03     248.131E-03    -60.0042E-03    -89.8592E-03    -77.8750E-03     248.041E-03    -71.8976E-03     3.98366E-03     586.096E-03    -292.148E-03    -293.816E-03    -291.697E-03     585.642E-03    -293.813E-03     39.6542E-03     39.7490E+06     30.0536E+06    -64.4886E+06    -60.2781E+06     29.3693E+06     36.2227E+06     19.5809E+06         67.7630
            1747     8.94878E-03     160.202E-03     254.125E-03    -68.7512E-03    -86.0863E-03    -82.3581E-03     254.111E-03    -72.4653E-03     3.13163E-03     586.695E-03    -292.795E-03    -294.321E-03    -292.070E-03     585.968E-03    -294.318E-03     50.2204E-03     58.2188E+06     50.9750E+06    -53.6286E+06    -50.4081E+06     50.5444E+06     55.4288E+06     18.0668E+06         68.8752
            1748     9.69654E-03     160.287E-03     250.710E-03    -69.8649E-03    -82.1478E-03    -78.9525E-03     250.703E-03    -73.0539E-03    -791.810E-06     586.569E-03    -292.074E-03    -294.638E-03    -290.964E-03     585.459E-03    -294.638E-03     62.1277E-03     74.5856E+06     62.5216E+06    -42.8331E+06    -40.5319E+06     60.2205E+06     74.5856E+06     15.3175E+06         71.1946
            1749     10.4435E-03     160.409E-03     237.842E-03    -60.9798E-03    -77.4524E-03    -65.4802E-03     237.746E-03    -72.8568E-03    -8.32763E-03     584.999E-03    -291.872E-03    -293.615E-03    -290.203E-03     583.329E-03    -293.615E-03     76.0312E-03     92.9114E+06     68.0580E+06    -32.9726E+06    -31.3548E+06     66.4402E+06     92.9114E+06     12.4786E+06         74.8634
            1750     11.1918E-03     160.545E-03     222.427E-03    -50.4288E-03    -72.1034E-03    -50.6205E-03     222.037E-03    -71.5215E-03    -13.6656E-03     585.589E-03    -292.829E-03    -293.183E-03    -290.783E-03     583.368E-03    -293.008E-03     88.1385E-03     104.576E+06     70.2464E+06    -23.3018E+06    -22.4508E+06     69.3955E+06     104.576E+06     8.65951E+06         79.7392
            1751     11.9425E-03     160.693E-03     213.661E-03    -45.3084E-03    -69.3463E-03    -44.7203E-03     213.072E-03    -69.3463E-03    -12.0700E-03     587.214E-03    -293.146E-03    -294.767E-03    -291.106E-03     583.613E-03    -293.206E-03     110.941E-03     116.429E+06     82.2717E+06    -15.0537E+06    -14.6100E+06     81.8280E+06     116.429E+06     6.23639E+06         84.9072
            1752     12.6898E-03     160.927E-03     217.088E-03    -53.3618E-03    -67.2310E-03    -53.0062E-03     216.733E-03    -67.2310E-03    -9.80032E-03     587.504E-03    -293.210E-03    -295.442E-03    -291.199E-03     583.261E-03    -293.210E-03     121.878E-03     129.660E+06     96.7414E+06    -7.86406E+06    -7.68116E+06     96.5585E+06     129.660E+06     3.18882E+06         88.8918
            1753     745.975E-06     161.963E-03     331.980E-03    -91.8135E-03    -138.538E-03    -89.9078E-03     330.074E-03    -138.538E-03    -7.96122E-03     587.560E-03    -292.319E-03    -295.235E-03    -292.318E-03     587.558E-03    -295.235E-03    -1.49139E-03    -130.858E+06    -133.681E+06    -283.478E+06    -133.720E+06    -283.439E+06    -130.858E+06     739.400E+03         66.5330
            1754     1.49299E-03     161.837E-03     288.813E-03    -86.7324E-03    -107.079E-03    -84.6442E-03     286.725E-03    -107.079E-03     29.4621E-03     587.762E-03    -293.498E-03    -294.205E-03    -294.070E-03     587.757E-03    -293.629E-03    -4.02230E-03    -123.952E+06    -131.103E+06    -276.848E+06    -131.148E+06    -276.803E+06    -123.952E+06     2.09849E+06         66.5489
            1755     2.23912E-03     161.747E-03     244.979E-03    -56.1595E-03    -93.9562E-03    -54.0624E-03     242.882E-03    -93.9562E-03     32.7068E-03     588.048E-03    -293.519E-03    -294.320E-03    -294.089E-03     588.042E-03    -293.744E-03    -4.71526E-03    -113.782E+06    -126.444E+06    -257.502E+06    -126.555E+06    -257.391E+06    -113.782E+06     3.41763E+06         66.5534
            1756     2.98507E-03     161.720E-03     204.268E-03    -28.4562E-03    -80.3194E-03    -26.4187E-03     202.230E-03    -80.3194E-03     18.4848E-03     587.326E-03    -293.479E-03    -294.398E-03    -293.474E-03     587.321E-03    -294.398E-03    -4.09756E-03    -99.5211E+06    -120.916E+06    -233.875E+06    -121.062E+06    -233.730E+06    -99.5211E+06     3.79108E+06         66.5274
            1757     3.73099E-03     161.693E-03     179.424E-03    -16.5933E-03    -68.1763E-03    -14.2609E-03     177.092E-03    -68.1763E-03    -3.83110E-03     586.674E-03    -292.636E-03    -294.652E-03    -292.634E-03     586.672E-03    -294.652E-03    -2.29201E-03    -81.3778E+06    -114.298E+06    -212.422E+06    -114.522E+06    -212.199E+06    -81.3778E+06     4.00617E+06         66.4532
            1758     4.47582E-03     161.713E-03     178.614E-03    -23.6136E-03    -59.5326E-03    -21.9576E-03     176.958E-03    -59.5326E-03    -5.23440E-03     585.678E-03    -292.338E-03    -294.140E-03    -292.336E-03     585.676E-03    -294.140E-03     1.06587E-03    -62.8567E+06    -106.332E+06    -187.424E+06    -106.679E+06    -187.076E+06    -62.8567E+06     4.50170E+06         66.3899
            1759     5.22121E-03     161.739E-03     197.801E-03    -42.4813E-03    -59.2101E-03    -45.6229E-03     197.231E-03    -55.4993E-03    -11.0980E-03     583.863E-03    -292.638E-03    -293.555E-03    -292.687E-03     583.848E-03    -293.490E-03     6.44446E-03    -44.2553E+06    -97.4794E+06    -158.885E+06    -98.0887E+06    -158.275E+06    -44.2553E+06     5.60336E+06         66.4569
            1760     5.96738E-03     161.758E-03     224.997E-03    -55.7690E-03    -74.3267E-03    -73.6076E-03     224.278E-03    -55.7690E-03    -521.966E-06     583.158E-03    -292.729E-03    -293.676E-03    -293.140E-03     583.103E-03    -293.210E-03     13.3961E-03    -25.6086E+06    -87.2117E+06    -127.160E+06    -89.5241E+06    -124.847E+06    -25.6086E+06     7.69868E+06         66.6764
            1761     6.71506E-03     161.767E-03     246.279E-03    -58.6666E-03    -93.3380E-03    -93.0040E-03     245.945E-03    -58.6666E-03     13.4602E-03     583.262E-03    -292.870E-03    -293.616E-03    -293.141E-03     583.131E-03    -293.214E-03     21.0393E-03    -6.35554E+06    -67.8538E+06    -96.9011E+06    -81.3576E+06    -83.3973E+06    -6.35554E+06     10.2708E+06         66.9670
            1762     7.46194E-03     161.802E-03     259.864E-03    -62.3152E-03    -102.343E-03    -102.101E-03     259.622E-03    -62.3152E-03     11.4576E-03     584.768E-03    -291.861E-03    -293.216E-03    -291.601E-03     584.509E-03    -293.216E-03     29.7907E-03     13.5632E+06    -29.0610E+06    -77.5086E+06    -72.5679E+06    -34.0017E+06     13.5632E+06     13.5994E+06         67.2515
            1763     8.20718E-03     161.885E-03     260.713E-03    -65.5257E-03    -100.664E-03    -100.116E-03     260.165E-03    -65.5257E-03     23.9158E-03     585.992E-03    -291.634E-03    -292.808E-03    -291.186E-03     585.542E-03    -292.806E-03     39.4419E-03     38.4653E+06     19.1692E+06    -65.4572E+06    -62.1268E+06     21.4792E+06     32.8249E+06     16.5833E+06         67.6831
            1764     8.95576E-03     161.948E-03     244.314E-03    -66.5548E-03    -83.3285E-03    -81.8788E-03     243.619E-03    -67.3100E-03     21.3531E-03     585.786E-03    -292.468E-03    -292.967E-03    -291.746E-03     585.061E-03    -292.964E-03     50.0933E-03     59.2327E+06     50.9480E+06    -54.3846E+06    -52.0604E+06     55.6624E+06     52.1941E+06     15.8750E+06         68.8129
            1765     9.70346E-03     162.033E-03     220.439E-03    -58.6849E-03    -68.1360E-03    -58.8397E-03     219.510E-03    -67.0523E-03     20.3735E-03     585.692E-03    -291.077E-03    -293.704E-03    -289.967E-03     584.583E-03    -293.704E-03     62.0191E-03     73.6356E+06     64.5430E+06    -44.3406E+06    -42.7345E+06     64.3350E+06     72.2375E+06     12.3476E+06         71.1703
            1766     10.4517E-03     162.153E-03     204.191E-03    -47.1959E-03    -65.3027E-03    -46.1930E-03     203.188E-03    -65.3027E-03     16.6952E-03     584.666E-03    -290.546E-03    -293.305E-03    -288.857E-03     582.977E-03    -293.305E-03     76.3853E-03     91.9053E+06     72.9309E+06    -33.8688E+06    -32.7035E+06     71.7656E+06     91.9053E+06     10.2791E+06         74.8788
            1767     11.2011E-03     162.279E-03     197.629E-03    -41.5505E-03    -65.3728E-03    -43.0569E-03     196.871E-03    -63.1076E-03     902.869E-06     584.063E-03    -291.957E-03    -292.709E-03    -289.816E-03     581.806E-03    -292.594E-03     88.7323E-03     106.081E+06     75.7386E+06    -24.5643E+06    -23.6292E+06     74.8035E+06     106.081E+06     9.57466E+06         79.7871
            1768     11.9522E-03     162.440E-03     199.528E-03    -40.5209E-03    -68.0260E-03    -46.4969E-03     198.567E-03    -61.0883E-03    -2.11569E-03     585.129E-03    -292.277E-03    -293.869E-03    -290.222E-03     581.542E-03    -292.337E-03     110.668E-03     119.149E+06     88.4759E+06    -16.4094E+06    -15.7419E+06     87.8083E+06     119.149E+06     8.02667E+06         84.9704
            1769     12.6998E-03     162.683E-03     209.083E-03    -49.9098E-03    -65.4098E-03    -55.0202E-03     208.446E-03    -59.6627E-03     3.43932E-03     585.994E-03    -292.443E-03    -294.604E-03    -290.438E-03     581.828E-03    -292.443E-03     120.580E-03     131.971E+06     103.040E+06    -7.69235E+06    -7.45164E+06     102.800E+06     131.971E+06     4.21819E+06         88.9631
            1770     746.667E-06     163.752E-03     267.554E-03    -70.2061E-03    -103.960E-03    -63.2132E-03     260.561E-03    -103.960E-03     3.94865E-03     583.668E-03    -290.852E-03    -293.156E-03    -290.851E-03     583.667E-03    -293.156E-03    -342.275E-06    -130.089E+06    -134.423E+06    -290.508E+06    -134.492E+06    -290.439E+06    -130.089E+06     2.41530E+06         66.2910
            1771     1.49318E-03     163.614E-03     249.283E-03    -67.7208E-03    -85.1296E-03    -67.2771E-03     248.839E-03    -85.1296E-03    -3.05476E-03     583.558E-03    -291.648E-03    -292.140E-03    -291.935E-03     583.555E-03    -291.851E-03    -2.58350E-03    -121.418E+06    -130.067E+06    -280.125E+06    -130.123E+06    -280.069E+06    -121.418E+06     2.06997E+06         66.3219
            1772     2.24089E-03     163.529E-03     208.574E-03    -38.2419E-03    -77.0807E-03    -37.8402E-03     208.172E-03    -77.0807E-03     750.527E-06     584.010E-03    -291.780E-03    -292.490E-03    -292.398E-03     584.006E-03    -291.869E-03    -3.42617E-03    -112.200E+06    -125.646E+06    -260.994E+06    -125.670E+06    -260.970E+06    -112.200E+06     1.59830E+06         66.3612
            1773     2.98785E-03     163.491E-03     176.425E-03    -20.2486E-03    -65.8971E-03    -19.6634E-03     175.839E-03    -65.8971E-03    -10.8260E-03     584.684E-03    -292.067E-03    -293.276E-03    -293.063E-03     584.682E-03    -292.278E-03    -2.49948E-03    -98.6868E+06    -120.175E+06    -237.396E+06    -120.259E+06    -237.312E+06    -98.6868E+06     2.84080E+06         66.4128
            1774     3.73394E-03     163.463E-03     167.790E-03    -21.7428E-03    -57.0846E-03    -20.1636E-03     165.911E-03    -56.7848E-03    -21.2647E-03     585.577E-03    -292.149E-03    -293.488E-03    -292.835E-03     585.576E-03    -292.801E-03    -237.605E-06    -80.4775E+06    -114.018E+06    -213.878E+06    -114.170E+06    -213.726E+06    -80.4775E+06     3.43895E+06         66.4261
            1775     4.47986E-03     163.462E-03     173.510E-03    -29.4491E-03    -51.6682E-03    -28.3323E-03     172.009E-03    -51.2840E-03    -19.7507E-03     585.673E-03    -292.044E-03    -293.151E-03    -292.059E-03     585.668E-03    -293.131E-03     3.23895E-03    -61.8256E+06    -107.533E+06    -189.579E+06    -107.703E+06    -189.410E+06    -61.8256E+06     3.36208E+06         66.3937
            1776     5.22576E-03     163.469E-03     188.654E-03    -40.7634E-03    -52.4102E-03    -43.2000E-03     187.676E-03    -48.9955E-03    -20.2005E-03     583.649E-03    -292.105E-03    -293.444E-03    -292.083E-03     583.627E-03    -293.444E-03     8.23105E-03    -43.4188E+06    -99.6366E+06    -163.452E+06    -100.035E+06    -163.054E+06    -43.4188E+06     4.39106E+06         66.4145
            1777     5.97243E-03     163.492E-03     207.616E-03    -48.3629E-03    -64.6263E-03    -62.3716E-03     206.443E-03    -49.4450E-03    -13.9808E-03     582.446E-03    -291.827E-03    -293.434E-03    -291.765E-03     582.384E-03    -293.434E-03     14.3026E-03    -24.5518E+06    -90.0664E+06    -132.477E+06    -91.0791E+06    -131.465E+06    -24.5518E+06     5.80107E+06         66.5658
            1778     6.72093E-03     163.501E-03     219.278E-03    -49.4267E-03    -78.3737E-03    -75.9235E-03     219.006E-03    -51.6053E-03     4.64050E-03     582.063E-03    -291.765E-03    -292.738E-03    -291.630E-03     581.927E-03    -292.738E-03     21.3887E-03    -6.11632E+06    -73.8916E+06    -99.4636E+06    -80.8642E+06    -92.4910E+06    -6.11632E+06     7.87637E+06         66.8586
            1779     7.46790E-03     163.542E-03     219.384E-03    -50.2148E-03    -79.5541E-03    -75.5226E-03     218.992E-03    -53.8541E-03     13.4705E-03     582.578E-03    -291.518E-03    -292.082E-03    -291.264E-03     582.313E-03    -292.071E-03     30.0427E-03     13.4999E+06    -39.1305E+06    -76.9445E+06    -70.4927E+06    -45.5823E+06     13.4999E+06     11.6198E+06         67.2104
            1780     8.21267E-03     163.630E-03     209.789E-03    -48.5431E-03    -72.1241E-03    -65.0000E-03     209.069E-03    -54.9473E-03     27.1641E-03     583.625E-03    -291.011E-03    -291.985E-03    -290.556E-03     583.158E-03    -291.974E-03     40.0422E-03     36.3968E+06     13.4474E+06    -65.1773E+06    -62.0980E+06     13.2186E+06     33.5463E+06     14.5249E+06         67.6903
            1781     8.96180E-03     163.704E-03     200.666E-03    -50.2081E-03    -61.7983E-03    -56.4525E-03     199.937E-03    -54.8247E-03     22.1351E-03     583.899E-03    -291.345E-03    -292.074E-03    -290.607E-03     583.161E-03    -292.074E-03     50.5531E-03     59.3462E+06     51.3319E+06    -55.3807E+06    -53.2992E+06     56.8720E+06     51.7247E+06     15.1966E+06         68.8349
            1782     9.71074E-03     163.798E-03     198.136E-03    -48.9069E-03    -60.2087E-03    -54.0673E-03     197.173E-03    -54.0853E-03     17.5328E-03     584.204E-03    -290.488E-03    -292.431E-03    -289.380E-03     583.096E-03    -292.431E-03     61.9166E-03     76.5917E+06     68.8211E+06    -45.9189E+06    -44.5884E+06     72.8358E+06     71.2464E+06     11.8837E+06         71.2044
            1783     10.4583E-03     163.921E-03     199.021E-03    -47.0935E-03    -63.6058E-03    -56.1174E-03     197.763E-03    -53.3234E-03     9.30098E-03     584.001E-03    -290.106E-03    -292.426E-03    -288.436E-03     582.330E-03    -292.426E-03     75.9292E-03     90.0493E+06     73.2139E+06    -36.9047E+06    -36.2169E+06     73.1003E+06     89.4751E+06     8.13031E+06         74.9294
            1784     11.2099E-03     164.040E-03     204.312E-03    -51.1995E-03    -66.2637E-03    -63.6503E-03     203.505E-03    -53.0061E-03    -2.00276E-03     583.007E-03    -291.093E-03    -291.946E-03    -289.202E-03     580.809E-03    -291.639E-03     87.4903E-03     103.120E+06     75.8187E+06    -27.5689E+06    -26.7664E+06     75.0162E+06     103.120E+06     8.69746E+06         79.8592
            1785     11.9610E-03     164.183E-03     213.145E-03    -53.1968E-03    -72.7096E-03    -72.1298E-03     212.565E-03    -53.1968E-03     3.06275E-03     583.658E-03    -291.348E-03    -293.064E-03    -289.604E-03     580.198E-03    -291.348E-03     108.555E-03     119.455E+06     94.1683E+06    -17.7541E+06    -17.2113E+06     93.6255E+06     119.455E+06     6.67767E+06         85.0698
            1786     12.7070E-03     164.428E-03     211.506E-03    -53.5516E-03    -71.3782E-03    -70.8279E-03     210.956E-03    -53.5516E-03     911.967E-06     584.697E-03    -291.896E-03    -293.868E-03    -289.824E-03     580.653E-03    -291.896E-03     118.710E-03     133.840E+06     109.039E+06    -8.26364E+06    -8.13586E+06     108.911E+06     133.840E+06     3.47557E+06         89.0880
            1787     748.180E-06     165.525E-03     142.559E-03     11.2262E-03    -67.0955E-03     22.0173E-03     56.5666E-03     8.10553E-03     73.9182E-03     578.253E-03    -288.833E-03    -289.863E-03    -289.128E-03     578.253E-03    -289.567E-03     418.747E-06    -141.018E+06    -145.063E+06    -297.430E+06    -143.980E+06    -297.334E+06    -142.197E+06      907.42E+03         65.9314
            1788     1.49639E-03     165.375E-03     137.468E-03     108.181E-06    -51.3886E-03    -21.3602E-03     107.518E-03     29.0144E-06     29.9444E-03     578.816E-03    -289.552E-03    -289.896E-03    -289.700E-03     578.815E-03    -289.748E-03    -625.070E-06    -130.219E+06    -138.579E+06    -280.918E+06    -138.697E+06    -280.801E+06    -130.219E+06     1.35562E+06         65.9852
            1789     2.24350E-03     165.277E-03     163.281E-03    -8.82638E-03    -69.0446E-03    -57.6830E-03     159.958E-03    -16.8658E-03     30.1192E-03     579.636E-03    -289.836E-03    -290.412E-03    -290.250E-03     579.635E-03    -289.997E-03    -1.06907E-03    -115.330E+06    -132.433E+06    -262.691E+06    -132.476E+06    -262.649E+06    -115.330E+06     1.52337E+06         66.0721
            1790     2.99074E-03     165.237E-03     195.218E-03    -27.3866E-03    -82.8816E-03    -78.6901E-03     194.944E-03    -31.3047E-03     10.4581E-03     579.938E-03    -290.012E-03    -291.484E-03    -291.421E-03     579.937E-03    -290.073E-03    -149.204E-06    -99.2610E+06    -125.733E+06    -241.775E+06    -125.761E+06    -241.747E+06    -99.2610E+06     1.40362E+06         66.1895
            1791     3.73814E-03     165.213E-03     209.964E-03    -40.9501E-03    -82.8306E-03    -81.8458E-03     209.738E-03    -41.7096E-03     5.78536E-03     582.300E-03    -290.338E-03    -292.327E-03    -292.324E-03     582.297E-03    -290.338E-03     2.10754E-03    -81.1131E+06    -117.675E+06    -216.421E+06    -117.781E+06    -216.315E+06    -81.1131E+06     2.72874E+06         66.3009
            1792     4.48513E-03     165.217E-03     212.301E-03    -48.0594E-03    -75.3729E-03    -75.1549E-03     212.083E-03    -48.0594E-03     4.62291E-03     584.915E-03    -290.543E-03    -292.146E-03    -292.022E-03     584.904E-03    -290.657E-03     5.64845E-03    -59.8308E+06    -108.821E+06    -190.793E+06    -108.986E+06    -190.629E+06    -59.8308E+06     3.36379E+06         66.3628
            1793     5.23070E-03     165.234E-03     201.951E-03    -50.9979E-03    -61.7545E-03    -60.7504E-03     200.947E-03    -50.9979E-03    -4.80425E-03     583.066E-03    -291.119E-03    -292.641E-03    -291.665E-03     583.033E-03    -292.061E-03     10.4170E-03    -39.7238E+06    -99.6734E+06    -165.682E+06    -99.8147E+06    -165.541E+06    -39.7238E+06     2.94828E+06         66.4112
            1794     5.97768E-03     165.263E-03     182.062E-03    -43.2584E-03    -51.9956E-03    -42.8748E-03     180.849E-03    -51.1654E-03    -7.67291E-03     581.772E-03    -290.900E-03    -292.870E-03    -290.819E-03     581.691E-03    -292.870E-03     16.4617E-03    -22.1124E+06    -89.7513E+06    -134.906E+06    -90.1443E+06    -134.513E+06    -22.1124E+06     3.23693E+06         66.5269
            1795     6.72554E-03     165.273E-03     162.591E-03    -28.6033E-03    -49.4376E-03    -28.2134E-03     162.202E-03    -49.4376E-03    -701.417E-06     582.027E-03    -290.407E-03    -292.156E-03    -290.243E-03     581.862E-03    -292.156E-03     23.6270E-03    -5.21470E+06    -78.6086E+06    -100.634E+06    -80.6788E+06    -98.5641E+06    -5.21470E+06     4.53955E+06         66.7762
            1796     7.47356E-03     165.302E-03     153.685E-03    -21.3460E-03    -46.8343E-03    -21.0788E-03     153.417E-03    -46.8343E-03     283.913E-06     581.382E-03    -290.654E-03    -291.284E-03    -290.364E-03     581.081E-03    -291.273E-03     32.0551E-03     12.9388E+06    -51.9454E+06    -76.5168E+06    -71.0617E+06    -57.4004E+06     12.9388E+06     7.24153E+06         67.1575
            1797     8.22043E-03     165.381E-03     156.255E-03    -25.4391E-03    -44.3736E-03    -25.0972E-03     155.913E-03    -44.3736E-03     3.59458E-03     581.164E-03    -290.446E-03    -291.302E-03    -289.954E-03     580.661E-03    -291.291E-03     41.5957E-03      35.025E+06     3.88613E+06    -63.1027E+06    -60.2946E+06     1.07808E+06      35.025E+06     12.4918E+06         67.7111
            1798     8.96864E-03     165.457E-03     166.963E-03    -36.5637E-03    -45.0059E-03    -38.4860E-03     166.817E-03    -42.9372E-03    -2.59417E-03     582.238E-03    -290.946E-03    -291.940E-03    -290.244E-03     581.466E-03    -291.870E-03     51.6434E-03     62.6453E+06     49.9605E+06    -53.3423E+06    -50.9492E+06     56.1041E+06     54.1087E+06     15.6371E+06         68.8898
            1799     9.71812E-03     165.539E-03     183.534E-03    -42.8757E-03    -56.8539E-03    -56.7497E-03     183.430E-03    -42.8757E-03     22.8153E-06     582.709E-03    -290.906E-03    -291.751E-03    -289.859E-03     581.591E-03    -291.681E-03     62.2063E-03     81.9536E+06     71.2413E+06    -44.2651E+06    -42.5656E+06     80.2540E+06     71.2413E+06     14.4218E+06         71.2731
            1800     10.4674E-03     165.659E-03     199.369E-03    -43.9540E-03    -72.1732E-03    -71.7854E-03     198.982E-03    -43.9540E-03    -7.23498E-03     582.645E-03    -290.741E-03    -291.788E-03    -289.402E-03     581.016E-03    -291.497E-03     75.0250E-03     89.7521E+06     74.9106E+06    -35.6860E+06    -34.6335E+06     76.0337E+06     87.5765E+06     10.4191E+06         75.0174
            1801     11.2160E-03     165.781E-03     206.796E-03    -45.5167E-03    -76.0150E-03    -75.5687E-03     206.350E-03    -45.5167E-03    -10.7348E-03     582.365E-03    -290.862E-03    -291.663E-03    -289.460E-03     580.234E-03    -290.933E-03     86.1207E-03     101.323E+06     75.7513E+06    -27.4874E+06    -26.9546E+06     75.2184E+06     101.323E+06     6.81776E+06         79.9744
            1802     11.9679E-03     165.915E-03     203.024E-03    -46.7732E-03    -71.5295E-03    -71.3013E-03     202.795E-03    -46.7732E-03    -6.61801E-03     582.790E-03    -290.700E-03    -292.401E-03    -289.008E-03     579.397E-03    -290.700E-03     107.360E-03     119.761E+06     97.0248E+06    -18.8159E+06    -18.5540E+06     96.7628E+06     119.761E+06     4.73292E+06         85.2309
            1803     12.7159E-03     166.164E-03     194.057E-03    -47.3271E-03    -64.4332E-03    -64.2437E-03     193.868E-03    -47.3271E-03    -10.5156E-03     583.484E-03    -291.378E-03    -293.250E-03    -289.262E-03     579.495E-03    -291.378E-03     117.780E-03     137.163E+06     116.579E+06    -9.07879E+06    -8.97820E+06     116.479E+06     137.163E+06     2.70543E+06         89.2961
            1804     750.366E-06     167.304E-03     124.805E-03     22.8949E-03    -65.7473E-03     23.1801E-03     29.8962E-03     28.8760E-03     65.4441E-03     575.003E-03    -287.051E-03    -288.165E-03    -287.347E-03     575.003E-03    -287.870E-03     659.055E-06    -149.950E+06    -155.933E+06    -297.731E+06    -154.824E+06    -297.660E+06    -151.129E+06    -530.706E+03         65.5444
            1805     1.49925E-03     167.153E-03     100.498E-03     16.9580E-03    -43.6903E-03    -16.2045E-03     67.0309E-03     22.9391E-03     11.8352E-03     576.072E-03    -288.014E-03    -288.432E-03    -288.078E-03     576.072E-03    -288.368E-03     761.300E-06    -138.693E+06    -148.911E+06    -281.901E+06    -149.040E+06    -281.772E+06    -138.693E+06    -701.941E+03         65.5979
            1806     2.24778E-03     167.059E-03     123.821E-03     6.07992E-03    -54.8426E-03    -51.0263E-03     120.005E-03     6.07992E-03     37.3118E-03     576.494E-03    -288.323E-03    -288.819E-03    -288.322E-03     576.492E-03    -288.819E-03     1.54865E-03    -122.053E+06    -141.784E+06    -263.837E+06    -141.876E+06    -263.745E+06    -122.053E+06     202.118E+03         65.6902
            1807     2.99603E-03     167.019E-03     171.381E-03    -11.8467E-03    -83.6767E-03    -83.1621E-03     170.866E-03    -11.8467E-03     20.2828E-03     576.380E-03    -288.680E-03    -289.441E-03    -289.228E-03     576.377E-03    -288.890E-03     2.91070E-03    -102.345E+06    -133.820E+06    -242.001E+06    -133.848E+06    -241.973E+06    -102.345E+06     264.818E+03         65.8409
            1808     3.74449E-03     166.984E-03     199.892E-03    -27.3231E-03    -93.3598E-03    -92.9485E-03     199.481E-03    -27.3231E-03     16.5851E-03     577.830E-03    -288.772E-03    -291.077E-03    -291.067E-03     577.820E-03    -288.772E-03     5.48591E-03    -82.4842E+06    -124.418E+06    -217.492E+06    -124.471E+06    -217.439E+06    -82.4842E+06    -525.329E+03         66.0427
            1809     4.49119E-03     166.983E-03     199.236E-03    -37.3908E-03    -79.5880E-03    -79.4572E-03     199.106E-03    -37.3908E-03     8.71177E-03     580.982E-03    -288.790E-03    -291.439E-03    -291.413E-03     580.956E-03    -288.790E-03     9.12887E-03    -62.1251E+06    -113.718E+06    -192.067E+06    -113.809E+06    -191.976E+06    -62.1251E+06    -523.807E+03         66.2155
            1810     5.23805E-03     166.992E-03     182.890E-03    -42.0737E-03    -60.6574E-03    -60.3962E-03     182.629E-03    -42.0737E-03     2.82758E-03     581.257E-03    -289.129E-03    -291.197E-03    -290.717E-03     581.196E-03    -289.548E-03     14.0400E-03    -41.2440E+06    -103.058E+06    -166.183E+06    -103.137E+06    -166.104E+06    -41.2440E+06     129.115E+03         66.3298
            1811     5.98489E-03     167.020E-03     164.408E-03    -36.3441E-03    -50.7011E-03    -43.2955E-03     163.828E-03    -43.1691E-03    -677.082E-06     580.686E-03    -289.785E-03    -291.658E-03    -290.419E-03     580.565E-03    -290.904E-03     20.0504E-03    -22.1430E+06    -93.4318E+06    -136.467E+06    -93.4844E+06    -136.414E+06    -22.1430E+06     917.259E+03         66.4563
            1812     6.73360E-03     167.038E-03     147.451E-03    -23.5617E-03    -47.4158E-03    -28.2775E-03     146.968E-03    -42.2175E-03    -2.38776E-03     581.538E-03    -290.244E-03    -291.516E-03    -290.032E-03     581.326E-03    -291.516E-03     26.8758E-03    -4.81969E+06    -83.3961E+06    -103.686E+06    -84.4063E+06    -102.676E+06    -4.81969E+06     2.02660E+06         66.6656
            1813     7.48314E-03     167.055E-03     138.590E-03    -18.5050E-03    -43.1911E-03    -21.2409E-03     138.489E-03    -40.3540E-03    -2.70835E-03     580.725E-03    -290.114E-03    -291.121E-03    -290.182E-03     580.369E-03    -290.697E-03     34.9104E-03     12.7379E+06    -60.2669E+06    -77.9710E+06    -74.1216E+06    -64.1163E+06     12.7379E+06     3.16959E+06         67.0377
            1814     8.23009E-03     167.117E-03     142.045E-03    -24.5294E-03    -39.3413E-03    -25.0274E-03     141.856E-03    -38.6535E-03    -408.118E-06     579.500E-03    -290.180E-03    -291.110E-03    -290.213E-03     578.940E-03    -290.517E-03     43.8570E-03     30.9656E+06    -12.5569E+06    -63.8621E+06    -62.6283E+06    -13.7907E+06     30.9656E+06     6.60403E+06         67.6684
            1815     8.97800E-03     167.208E-03     151.983E-03    -33.7150E-03    -39.6110E-03    -35.3616E-03     151.839E-03    -37.8209E-03    -1.83864E-03     580.464E-03    -290.812E-03    -291.458E-03    -290.295E-03     579.627E-03    -291.139E-03     53.7343E-03     59.3231E+06     38.6156E+06    -53.2989E+06    -51.2420E+06     46.0474E+06     49.8343E+06     12.8675E+06         68.9367
            1816     9.72691E-03     167.290E-03     162.105E-03    -37.9061E-03    -46.1585E-03    -46.0017E-03     161.949E-03    -37.9061E-03     8.02310E-03     581.393E-03    -290.729E-03    -291.502E-03    -290.274E-03     580.199E-03    -290.762E-03     64.2828E-03     84.6529E+06     65.8609E+06    -44.3994E+06    -42.4753E+06     82.7288E+06     65.8609E+06     15.4846E+06         71.3895
            1817     10.4745E-03     167.405E-03     170.156E-03    -37.2082E-03    -56.6173E-03    -55.0318E-03     169.946E-03    -38.5839E-03     5.61392E-03     581.667E-03    -290.486E-03    -292.083E-03    -290.345E-03     579.962E-03    -290.519E-03     76.7628E-03     90.2622E+06     76.1022E+06    -36.0031E+06    -34.7376E+06     84.1399E+06     80.9590E+06     12.1248E+06         75.1997
            1818     11.2239E-03     167.538E-03     173.140E-03    -37.3463E-03    -58.8598E-03    -56.6976E-03     172.985E-03    -39.3539E-03     4.08215E-03     582.605E-03    -290.331E-03    -292.368E-03    -290.174E-03     580.411E-03    -290.331E-03     87.4329E-03     100.068E+06     81.0661E+06    -26.4655E+06    -25.9548E+06     80.5554E+06     100.068E+06     6.86117E+06         80.2120
            1819     11.9755E-03     167.663E-03     172.526E-03    -39.0799E-03    -55.4910E-03    -54.7138E-03     172.381E-03    -39.7118E-03     9.92344E-03     583.700E-03    -290.163E-03    -293.176E-03    -289.756E-03     580.279E-03    -290.163E-03     107.996E-03     123.407E+06     100.548E+06    -16.9006E+06    -16.7292E+06     100.377E+06     123.407E+06     4.39906E+06         85.5061
            1820     12.7227E-03     167.898E-03     169.911E-03    -39.5962E-03    -53.7538E-03    -53.6093E-03     169.766E-03    -39.5962E-03    -1.87790E-03     583.199E-03    -290.525E-03    -293.437E-03    -289.542E-03     579.304E-03    -290.525E-03     116.284E-03     142.263E+06     123.392E+06    -7.55932E+06    -7.44937E+06     123.282E+06     142.263E+06     3.13103E+06         89.5961
            1821     751.351E-06     169.044E-03     238.721E-03    -63.4565E-03    -105.193E-03    -66.5396E-03     222.382E-03    -85.7707E-03     37.7696E-03     570.561E-03    -284.440E-03    -286.246E-03    -284.507E-03     570.557E-03    -286.176E-03     2.79718E-03    -153.539E+06    -159.973E+06    -296.311E+06    -158.720E+06    -296.257E+06    -154.846E+06    -6.29737E+03         65.1345
            1822     1.50271E-03     168.885E-03     172.637E-03    -28.9605E-03    -75.4225E-03    -39.5929E-03     168.058E-03    -60.2107E-03    -11.2738E-03     571.466E-03    -285.590E-03    -285.982E-03    -285.655E-03     571.462E-03    -285.911E-03     3.30212E-03    -143.515E+06    -154.372E+06    -279.247E+06    -154.452E+06    -279.167E+06    -143.515E+06    -1.02801E+06         65.2162
            1823     2.25332E-03     168.808E-03     132.467E-03    -9.62004E-03    -53.8978E-03    -15.1725E-03     129.276E-03    -45.1542E-03     7.93641E-03     572.195E-03    -285.957E-03    -286.406E-03    -285.994E-03     572.185E-03    -286.359E-03     5.12994E-03    -127.429E+06    -147.329E+06    -262.686E+06    -147.496E+06    -262.520E+06    -127.429E+06    -2.08115E+06         65.3082
            1824     3.00382E-03     168.768E-03     117.321E-03     5.27453E-03    -55.0794E-03    -7.66231E-03     110.005E-03    -34.8263E-03    -11.8910E-03     572.877E-03    -286.427E-03    -287.219E-03    -287.051E-03     572.857E-03    -286.576E-03     7.39088E-03    -107.007E+06    -138.300E+06    -239.887E+06    -138.434E+06    -239.754E+06    -107.007E+06    -2.09644E+06         65.4614
            1825     3.75224E-03     168.738E-03     119.794E-03     4.40942E-03    -54.1071E-03    -10.1171E-03     109.105E-03    -28.8916E-03    -9.39850E-03     572.859E-03    -286.893E-03    -288.599E-03    -288.560E-03     572.820E-03    -286.893E-03     10.7773E-03    -86.1685E+06    -129.844E+06    -214.954E+06    -129.932E+06    -214.866E+06    -86.1685E+06    -2.55069E+06         65.7029
            1826     4.50151E-03     168.723E-03     124.014E-03    -11.3444E-03    -41.6913E-03    -21.1837E-03     118.586E-03    -26.4234E-03    -15.2606E-03     574.694E-03    -287.141E-03    -289.367E-03    -289.297E-03     574.623E-03    -287.141E-03     14.9351E-03    -66.3868E+06    -120.951E+06    -191.448E+06    -121.141E+06    -191.258E+06    -66.3868E+06    -3.53212E+06         65.9781
            1827     5.25025E-03     168.731E-03     131.027E-03    -24.1197E-03    -38.1356E-03    -35.2688E-03     130.548E-03    -26.5077E-03    -15.0464E-03     577.354E-03    -286.906E-03    -289.866E-03    -289.745E-03     577.233E-03    -286.906E-03     20.0461E-03    -46.3812E+06    -110.481E+06    -165.799E+06    -110.895E+06    -165.386E+06    -46.3812E+06    -3.87527E+06         66.2255
            1828     5.99781E-03     168.764E-03     143.433E-03    -27.9489E-03    -44.8262E-03    -44.3154E-03     142.922E-03    -27.9489E-03    -11.4942E-03     579.349E-03    -287.424E-03    -290.982E-03    -290.516E-03     579.159E-03    -287.699E-03     25.4699E-03    -25.7728E+06    -98.6531E+06    -138.260E+06    -99.3065E+06    -137.607E+06    -25.7728E+06    -3.55420E+06         66.4126
            1829     6.74482E-03     168.798E-03     155.620E-03    -30.0983E-03    -54.3305E-03    -54.0864E-03     155.376E-03    -30.0983E-03    -2.42581E-03     581.635E-03    -288.845E-03    -291.372E-03    -290.715E-03     581.345E-03    -289.212E-03     31.5056E-03    -6.46833E+06    -86.0777E+06    -106.411E+06    -87.3886E+06    -105.100E+06    -6.46833E+06    -2.56376E+06         66.5968
            1830     7.49338E-03     168.820E-03     160.640E-03    -32.5641E-03    -58.7234E-03    -58.6662E-03     160.583E-03    -32.5641E-03     2.46271E-03     580.579E-03    -289.158E-03    -290.812E-03    -290.279E-03     580.137E-03    -289.251E-03     38.9236E-03     10.3588E+06    -65.0549E+06    -79.7666E+06    -76.3646E+06    -68.4569E+06     10.3588E+06    -938.015E+03         66.9540
            1831     8.24160E-03     168.870E-03     156.428E-03    -32.8330E-03    -52.5511E-03    -50.7665E-03     156.238E-03    -34.4269E-03     11.0373E-03     578.494E-03    -289.346E-03    -291.014E-03    -290.364E-03     577.843E-03    -289.346E-03     47.2950E-03     26.7855E+06    -24.1919E+06    -66.6807E+06    -66.1654E+06    -24.7072E+06     26.7855E+06     2.07695E+06         67.6480
            1832     8.98964E-03     168.946E-03     150.578E-03    -33.7844E-03    -46.1169E-03    -44.3386E-03     150.394E-03    -35.3782E-03     10.2033E-03     579.278E-03    -290.227E-03    -291.631E-03    -290.696E-03     578.342E-03    -290.227E-03     56.8050E-03     48.2883E+06     26.0726E+06    -57.1561E+06    -56.2758E+06     30.6114E+06     42.8692E+06     6.36890E+06         69.0321
            1833     9.73781E-03     169.029E-03     143.386E-03    -31.9697E-03    -39.7830E-03    -35.9794E-03     143.249E-03    -35.6367E-03     8.21306E-03     580.469E-03    -289.795E-03    -291.840E-03    -290.536E-03     579.165E-03    -289.795E-03     67.1733E-03     77.5074E+06     58.7913E+06    -45.7521E+06    -44.5005E+06     76.2558E+06     58.7913E+06     10.3306E+06         71.6032
            1834     10.4845E-03     169.149E-03     132.960E-03    -24.7931E-03    -35.2096E-03    -24.5706E-03     132.641E-03    -35.1130E-03    -1.84751E-03     581.847E-03    -289.203E-03    -292.758E-03    -290.924E-03     580.014E-03    -289.203E-03     79.6954E-03     94.0321E+06     75.9167E+06    -34.4412E+06    -33.4594E+06     92.5363E+06     76.4307E+06     10.9554E+06         75.5323
            1835     11.2338E-03     169.255E-03     127.216E-03    -20.5969E-03    -34.0257E-03    -20.2797E-03     126.898E-03    -34.0257E-03    -6.56455E-03     582.816E-03    -289.273E-03    -293.333E-03    -290.983E-03     580.465E-03    -289.273E-03     90.5334E-03     103.170E+06     87.7794E+06    -25.8614E+06    -25.3669E+06     91.5893E+06     98.8656E+06     7.08933E+06         80.6196
            1836     11.9841E-03     169.399E-03     131.541E-03    -21.6261E-03    -36.5231E-03    -25.0721E-03     131.389E-03    -32.9249E-03     3.23744E-03     584.649E-03    -289.615E-03    -294.631E-03    -290.979E-03     580.997E-03    -289.615E-03     111.723E-03     124.079E+06     104.917E+06    -17.2265E+06    -16.9669E+06     104.657E+06     124.079E+06     5.27782E+06         85.8960
            1837     12.7348E-03     169.542E-03     144.540E-03    -27.7496E-03    -43.8523E-03    -39.1815E-03     144.392E-03    -32.2725E-03    -2.43326E-03     584.990E-03    -289.789E-03    -295.430E-03    -291.268E-03     580.827E-03    -289.789E-03     120.377E-03     144.132E+06     125.628E+06    -8.64202E+06    -8.43472E+06     125.421E+06     144.132E+06     3.69378E+06         89.9431
            1838     754.762E-06     170.833E-03     286.854E-03    -91.3547E-03    -125.271E-03    -98.7348E-03     282.632E-03    -113.669E-03    -3.95204E-03     562.604E-03    -280.417E-03    -282.325E-03    -280.479E-03     562.596E-03    -282.255E-03     5.11605E-03    -156.585E+06    -161.220E+06    -293.481E+06    -159.994E+06    -293.399E+06    -157.892E+06    -1.68356E+06         64.5410
            1839     1.50798E-03     170.652E-03     230.955E-03    -58.2540E-03    -102.892E-03    -57.5839E-03     227.552E-03    -100.159E-03    -24.1814E-03     564.134E-03    -281.840E-03    -282.378E-03    -282.126E-03     564.117E-03    -282.074E-03     7.33218E-03    -145.138E+06    -154.526E+06    -275.160E+06    -154.602E+06    -275.084E+06    -145.138E+06    -2.13301E+06         64.6758
            1840     2.26163E-03     170.557E-03     164.389E-03    -15.4694E-03    -79.5137E-03    -12.9562E-03     161.875E-03    -79.5137E-03    -2.19344E-03     565.725E-03    -282.613E-03    -283.280E-03    -283.175E-03     565.688E-03    -282.680E-03     10.6089E-03    -128.313E+06    -148.216E+06    -258.428E+06    -148.373E+06    -258.271E+06    -128.313E+06    -2.29888E+06         64.8032
            1841     3.01392E-03     170.492E-03     107.699E-03     19.0776E-03    -57.9970E-03     26.3487E-03     100.427E-03    -57.9970E-03    -20.6113E-03     566.853E-03    -283.152E-03    -284.488E-03    -284.423E-03     566.788E-03    -283.152E-03     14.2730E-03    -109.998E+06    -141.288E+06    -236.061E+06    -141.588E+06    -235.761E+06    -109.998E+06    -3.77360E+06         64.9695
            1842     3.76646E-03     170.439E-03     74.8390E-03     30.7402E-03    -39.2206E-03     42.1418E-03     63.4374E-03    -39.2206E-03    -19.6768E-03     567.956E-03    -283.772E-03    -285.704E-03    -285.605E-03     567.857E-03    -283.772E-03     17.9526E-03    -89.4792E+06    -132.244E+06    -211.846E+06    -132.635E+06    -211.455E+06    -89.4792E+06    -4.87705E+06         65.2234
            1843     4.51728E-03     170.430E-03     68.2209E-03     22.4416E-03    -26.4249E-03     29.0078E-03     61.6546E-03    -26.4249E-03    -21.7554E-03     569.506E-03    -284.352E-03    -287.583E-03    -287.436E-03     569.359E-03    -284.352E-03     22.0787E-03    -66.9935E+06    -121.604E+06    -186.402E+06    -122.168E+06    -185.838E+06    -66.9935E+06    -5.59186E+06         65.5714
            1844     5.26501E-03     170.448E-03     84.4169E-03     2.18235E-03    -23.8257E-03    -508.894E-06     83.6767E-03    -20.3943E-03    -12.3390E-03     572.693E-03    -284.566E-03    -289.745E-03    -289.535E-03     572.482E-03    -284.566E-03     26.6356E-03    -46.2372E+06    -110.906E+06    -161.798E+06    -111.966E+06    -160.738E+06    -46.2372E+06    -6.87774E+06         65.9682
            1845     6.01315E-03     170.475E-03     112.388E-03    -15.6613E-03    -34.3774E-03    -30.1572E-03     112.110E-03    -19.6038E-03    -3.40401E-03     576.819E-03    -284.813E-03    -291.249E-03    -290.952E-03     576.522E-03    -284.813E-03     31.7926E-03    -27.5664E+06    -99.1072E+06    -137.558E+06    -101.284E+06    -135.381E+06    -27.5664E+06    -8.22631E+06         66.2706
            1846     6.76242E-03     170.496E-03     136.831E-03    -21.7873E-03    -50.4467E-03    -50.3421E-03     136.727E-03    -21.7873E-03     5.45965E-03     580.054E-03    -285.726E-03    -291.675E-03    -291.262E-03     579.641E-03    -285.726E-03     37.6688E-03    -9.72286E+06    -86.2705E+06    -110.674E+06    -90.0149E+06    -106.929E+06    -9.72286E+06    -7.82561E+06         66.5171
            1847     7.51083E-03     170.508E-03     153.827E-03    -25.1758E-03    -63.4393E-03    -63.4130E-03     153.801E-03    -25.1758E-03     4.41624E-03     580.402E-03    -286.493E-03    -291.086E-03    -290.506E-03     579.822E-03    -286.493E-03     44.6466E-03     7.77646E+06    -67.0256E+06    -85.6471E+06    -79.7696E+06    -72.9030E+06     7.77646E+06    -5.64492E+06         66.9368
            1848     8.25846E-03     170.564E-03     159.341E-03    -28.4846E-03    -64.0878E-03    -63.9630E-03     159.216E-03    -28.4846E-03     7.70183E-03     579.448E-03    -287.777E-03    -292.125E-03    -291.330E-03     578.652E-03    -287.777E-03     52.4318E-03     24.9571E+06    -31.3219E+06    -70.4654E+06    -69.3805E+06    -32.4069E+06     24.9571E+06    -2.84346E+06         67.6926
            1849     9.00628E-03     170.642E-03     150.288E-03    -30.7531E-03    -54.0434E-03    -53.8134E-03     150.058E-03    -30.7531E-03     4.27622E-03     579.518E-03    -289.398E-03    -293.239E-03    -292.165E-03     578.445E-03    -289.398E-03     60.9507E-03     42.5694E+06     19.7565E+06    -59.4043E+06    -58.6578E+06     20.1040E+06     41.4754E+06     1.13628E+06         69.1692
            1850     9.75263E-03     170.731E-03     132.312E-03    -26.9586E-03    -40.1509E-03    -35.4205E-03     132.141E-03    -31.5177E-03    -2.25338E-03     580.545E-03    -288.890E-03    -293.189E-03    -291.742E-03     579.099E-03    -288.890E-03     70.8259E-03     71.3672E+06     55.5567E+06    -49.6298E+06    -49.3344E+06     70.1737E+06     56.4548E+06     3.70510E+06         71.8717
            1851     10.5003E-03     170.840E-03     119.619E-03    -20.7183E-03    -30.9238E-03    -20.5004E-03     119.401E-03    -30.9238E-03    -5.27865E-03     582.655E-03    -287.970E-03    -293.701E-03    -291.727E-03     580.680E-03    -287.970E-03     82.8108E-03     94.4220E+06     70.3647E+06    -39.5485E+06    -39.1116E+06     93.9851E+06     70.3647E+06     4.46565E+06         75.9409
            1852     11.2481E-03     170.992E-03     117.799E-03    -18.0382E-03    -31.7311E-03    -19.5412E-03     117.400E-03    -29.8286E-03    -1.14825E-03     583.008E-03    -288.340E-03    -294.142E-03    -291.649E-03     580.515E-03    -288.340E-03     93.3074E-03     102.487E+06     87.3356E+06    -29.1758E+06    -28.7924E+06     97.1911E+06     92.2478E+06     4.91563E+06         81.1050
            1853     11.9934E-03     171.186E-03     120.441E-03    -18.2826E-03    -33.4826E-03    -22.5695E-03     120.194E-03    -28.9494E-03     3.25332E-03     584.935E-03    -289.055E-03    -295.947E-03    -292.162E-03     581.151E-03    -289.055E-03     114.018E-03     119.490E+06     107.371E+06    -19.9838E+06    -19.7341E+06     107.122E+06     119.490E+06     4.33724E+06         86.3527
            1854     12.7434E-03     171.388E-03     129.652E-03    -24.1323E-03    -38.0014E-03    -33.2110E-03     129.384E-03    -28.6552E-03     6.54398E-03     586.956E-03    -289.263E-03    -297.548E-03    -293.294E-03     582.702E-03    -289.263E-03     121.992E-03     144.150E+06     126.996E+06    -10.5538E+06    -10.3856E+06     126.828E+06     144.150E+06     2.24932E+06         90.3606
            1855     758.668E-06     172.522E-03     159.282E-03    -10.3637E-03    -79.2865E-03    -24.1795E-03     94.6114E-03    -799.992E-06     191.416E-06     551.555E-03    -274.993E-03    -276.724E-03    -275.087E-03     551.540E-03    -276.615E-03     6.69103E-03    -151.739E+06    -156.454E+06    -287.079E+06    -156.245E+06    -287.016E+06    -152.011E+06    -2.09993E+06         63.7655
            1856     1.51743E-03     172.381E-03     145.153E-03    -17.8532E-03    -59.7509E-03    -29.4049E-03     123.403E-03    -26.4499E-03    -19.0973E-03     553.548E-03    -276.565E-03    -277.554E-03    -277.347E-03     553.507E-03    -276.732E-03     11.1109E-03    -141.058E+06    -152.350E+06    -272.310E+06    -152.418E+06    -272.241E+06    -141.058E+06    -2.27330E+06         63.9209
            1857     2.27265E-03     172.295E-03     124.800E-03    -3.78992E-03    -56.6518E-03    -25.4421E-03     122.101E-03    -32.3000E-03     7.90551E-03     556.442E-03    -277.490E-03    -279.371E-03    -279.287E-03     556.357E-03    -277.490E-03     16.3480E-03    -124.928E+06    -145.858E+06    -254.946E+06    -146.003E+06    -254.801E+06    -124.928E+06    -2.45513E+06         64.0961
            1858     3.02855E-03     172.256E-03     113.400E-03     5.58432E-03    -53.3006E-03    -14.9573E-03     112.030E-03    -31.3894E-03     5.99024E-03     559.148E-03    -278.222E-03    -280.985E-03    -280.847E-03     559.011E-03    -278.222E-03     21.1175E-03    -105.891E+06    -138.429E+06    -229.699E+06    -138.716E+06    -229.411E+06    -105.891E+06    -3.58177E+06         64.3030
            1859     3.78227E-03     172.243E-03     104.119E-03     8.52008E-03    -49.3896E-03    -9.68473E-03     101.074E-03    -28.1397E-03     26.5923E-03     561.643E-03    -279.355E-03    -283.099E-03    -282.900E-03     561.445E-03    -279.355E-03     25.4819E-03    -85.3037E+06    -129.925E+06    -204.675E+06    -130.567E+06    -204.033E+06    -85.3037E+06    -6.05918E+06         64.5577
            1860     4.53325E-03     172.235E-03     96.6988E-03     9.06653E-03    -43.2616E-03    -4.37155E-03     91.5962E-03    -24.7209E-03     31.8303E-03     564.620E-03    -280.495E-03    -286.004E-03    -285.727E-03     564.343E-03    -280.495E-03     30.1896E-03    -64.4966E+06    -120.165E+06    -181.450E+06    -121.244E+06    -180.372E+06    -64.4966E+06    -7.91007E+06         64.9106
            1861     5.28275E-03     172.231E-03     96.5077E-03    -1.96181E-03    -33.5576E-03    -9.47227E-03     92.6111E-03    -22.1505E-03     30.4241E-03     568.742E-03    -281.258E-03    -288.920E-03    -288.551E-03     568.373E-03    -281.258E-03     35.1159E-03    -43.7516E+06    -109.122E+06    -156.611E+06    -111.113E+06    -154.620E+06    -43.7516E+06    -8.91450E+06         65.3841
            1862     6.03157E-03     172.248E-03     103.117E-03    -16.0628E-03    -29.8049E-03    -23.4698E-03     102.167E-03    -21.4478E-03     12.2104E-03     572.808E-03    -281.856E-03    -291.326E-03    -290.846E-03     572.328E-03    -281.856E-03     40.3179E-03    -25.0630E+06    -98.2032E+06    -132.603E+06    -101.607E+06    -129.198E+06    -25.0630E+06    -9.82972E+06         65.8055
            1863     6.77991E-03     172.278E-03     110.849E-03    -19.6784E-03    -31.6984E-03    -29.1950E-03     110.740E-03    -22.0730E-03     3.54407E-03     576.243E-03    -282.437E-03    -292.270E-03    -291.663E-03     575.637E-03    -282.437E-03     45.5843E-03    -8.51255E+06    -84.9393E+06    -112.075E+06    -92.3695E+06    -104.645E+06    -8.51255E+06    -10.9052E+06         66.1656
            1864     7.52812E-03     172.311E-03     117.790E-03    -20.3499E-03    -38.0666E-03    -34.6951E-03     117.194E-03    -23.1253E-03    -5.66058E-03     579.051E-03    -283.560E-03    -292.808E-03    -292.033E-03     578.276E-03    -283.560E-03     51.6939E-03     8.42128E+06    -63.5646E+06    -90.9082E+06    -80.7551E+06    -73.7177E+06     8.42128E+06    -10.9694E+06         66.6765
            1865     8.27344E-03     172.368E-03     120.510E-03    -17.6931E-03    -42.3194E-03    -34.5296E-03     119.180E-03    -24.1525E-03    -14.1768E-03     580.438E-03    -285.591E-03    -294.383E-03    -293.387E-03     579.443E-03    -285.591E-03     58.7933E-03     24.9656E+06    -33.4781E+06    -72.3414E+06    -68.8339E+06    -36.9856E+06     24.9656E+06    -8.95068E+06         67.5301
            1866     9.01732E-03     172.462E-03     118.006E-03    -19.8335E-03    -37.5494E-03    -31.2297E-03     116.550E-03    -24.6968E-03    -19.6977E-03     580.902E-03    -287.310E-03    -295.207E-03    -293.936E-03     579.632E-03    -287.310E-03     66.4844E-03     39.2594E+06     8.16694E+06    -59.6755E+06    -58.4893E+06     6.98073E+06     39.2594E+06    -4.75832E+06         69.1809
            1867     9.76350E-03     172.568E-03     117.376E-03    -23.8106E-03    -35.0918E-03    -33.2250E-03     116.629E-03    -24.9300E-03    -15.0392E-03     582.317E-03    -287.291E-03    -295.623E-03    -294.000E-03     580.694E-03    -287.291E-03     75.2681E-03     72.4469E+06     49.0725E+06    -48.3335E+06    -47.6675E+06     65.2595E+06     55.5940E+06     870.059E+03         72.0783
            1868     10.5097E-03     172.684E-03     120.624E-03    -23.9568E-03    -37.2116E-03    -35.8285E-03     120.503E-03    -25.2181E-03    -6.44216E-03     584.668E-03    -286.639E-03    -296.133E-03    -294.025E-03     582.560E-03    -286.639E-03     85.8766E-03     97.7896E+06     69.3309E+06    -39.8697E+06    -39.7355E+06     97.6554E+06     69.3309E+06     1.76497E+06         76.2830
            1869     11.2568E-03     172.812E-03     125.899E-03    -25.3449E-03    -40.9534E-03    -40.2944E-03     125.609E-03    -25.7141E-03     3.45326E-03     585.549E-03    -287.471E-03    -296.890E-03    -294.368E-03     583.028E-03    -287.471E-03     94.1752E-03     98.0446E+06     80.0222E+06    -32.4294E+06    -32.3211E+06     91.5197E+06     86.4388E+06     975.484E+03         81.5405
            1870     12.0025E-03     172.986E-03     134.154E-03    -26.5394E-03    -46.3086E-03    -46.0816E-03     133.927E-03    -26.5394E-03     9.70361E-03     587.488E-03    -288.447E-03    -299.482E-03    -295.874E-03     583.879E-03    -288.447E-03     111.896E-03     115.724E+06     104.309E+06    -21.8339E+06    -21.6908E+06     104.166E+06     115.724E+06    -589.018E+03         86.8703
            1871     12.7453E-03     173.197E-03     137.327E-03    -27.6457E-03    -49.7800E-03    -49.4435E-03     136.991E-03    -27.6457E-03     12.5723E-03     588.895E-03    -288.768E-03    -300.542E-03    -296.652E-03     585.005E-03    -288.768E-03     116.907E-03     147.359E+06     131.627E+06    -10.9079E+06    -10.8255E+06     131.544E+06     147.359E+06    -1.60485E+06         90.9488
            1872     765.573E-06     174.216E-03     78.5155E-03     55.5902E-03    -68.1738E-03     55.5125E-03    -56.4928E-03     66.9122E-03     8.42347E-03     536.730E-03    -267.612E-03    -269.399E-03    -267.921E-03     536.695E-03    -269.055E-03     10.0425E-03    -155.896E+06    -161.348E+06    -285.422E+06    -160.915E+06    -285.401E+06    -156.351E+06     152.287E+03         62.9963
            1873     1.52739E-03     174.015E-03     61.7725E-03     36.2507E-03    -37.8332E-03     13.9918E-03    -4.09647E-03     50.2947E-03    -27.1566E-03     539.767E-03    -269.678E-03    -270.961E-03    -270.877E-03     539.683E-03    -269.678E-03     15.8386E-03    -141.551E+06    -154.449E+06    -267.743E+06    -154.511E+06    -267.681E+06    -141.551E+06    -1.09572E+06         63.2213
            1874     2.29017E-03     173.912E-03     74.0450E-03     19.2840E-03    -37.6640E-03    -29.5102E-03     55.6637E-03     29.5115E-03    -13.9875E-03     544.004E-03    -270.892E-03    -273.905E-03    -273.749E-03     543.848E-03    -270.892E-03     22.1882E-03    -125.584E+06    -147.224E+06    -249.976E+06    -147.369E+06    -249.831E+06    -125.584E+06    -2.96922E+06         63.4885
            1875     3.04915E-03     173.881E-03     102.459E-03     10.6514E-03    -56.9109E-03    -54.7836E-03     100.332E-03     10.6514E-03    -6.55516E-03     549.438E-03    -271.943E-03    -276.759E-03    -276.510E-03     549.189E-03    -271.943E-03     28.2204E-03    -103.370E+06    -137.418E+06    -223.786E+06    -137.778E+06    -223.426E+06    -103.370E+06    -4.41730E+06         63.7896
            1876     3.80594E-03     173.865E-03     132.678E-03    -4.31158E-03    -72.7966E-03    -70.4076E-03     130.289E-03    -4.31158E-03     17.2759E-03     553.580E-03    -273.532E-03    -280.321E-03    -279.960E-03     553.220E-03    -273.532E-03     34.2187E-03    -79.9168E+06    -127.528E+06    -196.159E+06    -128.180E+06    -195.507E+06    -79.9168E+06    -5.75665E+06         64.1011
            1877     4.56035E-03     173.870E-03     148.742E-03    -15.5563E-03    -76.1143E-03    -71.7543E-03     144.382E-03    -15.5563E-03     27.0009E-03     558.305E-03    -275.458E-03    -283.871E-03    -283.399E-03     557.834E-03    -275.458E-03     39.4914E-03    -58.6235E+06    -117.646E+06    -173.716E+06    -119.100E+06    -172.263E+06    -58.6235E+06    -8.30970E+06         64.4669
            1878     5.31208E-03     173.885E-03     140.205E-03    -22.4768E-03    -58.3597E-03    -54.7816E-03     136.627E-03    -22.4768E-03     29.2623E-03     563.241E-03    -276.824E-03    -287.185E-03    -286.588E-03     562.644E-03    -276.824E-03     44.7358E-03    -39.1734E+06    -106.409E+06    -150.753E+06    -109.051E+06    -148.111E+06    -39.1734E+06    -10.0814E+06         64.9558
            1879     6.06058E-03     173.932E-03     116.578E-03    -23.8276E-03    -35.6619E-03    -33.1968E-03     115.556E-03    -25.2701E-03     13.2756E-03     567.090E-03    -277.800E-03    -290.489E-03    -289.756E-03     566.357E-03    -277.800E-03     49.8536E-03    -19.8831E+06    -93.1525E+06    -127.639E+06    -98.3632E+06    -122.428E+06    -19.8831E+06    -11.5651E+06         65.4553
            1880     6.80710E-03     173.994E-03     98.1661E-03    -17.2607E-03    -25.5643E-03    -17.1850E-03     97.8805E-03    -25.3543E-03     8.83073E-03     572.331E-03    -278.901E-03    -293.276E-03    -292.404E-03     571.459E-03    -278.901E-03     54.6724E-03    -1.87149E+06    -76.2678E+06    -107.510E+06    -86.9422E+06    -96.8360E+06    -1.87149E+06    -13.8738E+06         65.9194
            1881     7.55162E-03     174.055E-03     84.2175E-03    -7.96028E-03    -24.0836E-03    -7.12004E-03     83.3773E-03    -24.0836E-03    -6.94216E-03     577.591E-03    -280.720E-03    -295.729E-03    -294.696E-03     576.557E-03    -280.720E-03     59.8423E-03     12.4904E+06    -57.6032E+06    -89.7551E+06    -76.7386E+06    -70.6196E+06     12.4904E+06    -15.0677E+06         66.4689
            1882     8.29533E-03     174.137E-03     73.9329E-03    -550.362E-06    -22.1513E-03     877.853E-06     72.5047E-03    -22.1513E-03    -18.1885E-03     580.757E-03    -282.457E-03    -297.167E-03    -295.947E-03     579.536E-03    -282.457E-03     65.2862E-03     26.5461E+06    -33.0704E+06    -73.8485E+06    -66.6076E+06    -40.3112E+06     26.5461E+06    -14.0107E+06         67.3979
            1883     9.03879E-03     174.236E-03     79.3827E-03    -8.06190E-03    -20.4855E-03    -6.69623E-03     77.9494E-03    -20.4179E-03    -13.9162E-03     582.359E-03    -283.786E-03    -298.201E-03    -296.736E-03     580.894E-03    -283.786E-03     71.6700E-03     40.1256E+06    -261.086E+03    -58.3797E+06    -55.3879E+06    -3.25287E+06     40.1256E+06    -10.9583E+06         69.2710
            1884     9.78236E-03     174.329E-03     98.4571E-03    -19.6820E-03    -27.0149E-03    -26.0037E-03     97.6731E-03    -19.9092E-03    -2.75429E-03     584.604E-03    -285.153E-03    -299.246E-03    -297.498E-03     582.855E-03    -285.153E-03     78.4845E-03     67.2527E+06     41.1050E+06    -45.8818E+06    -44.9467E+06     52.0948E+06     55.3278E+06    -4.96127E+06         72.4003
            1885     10.5265E-03     174.441E-03     118.246E-03    -20.7471E-03    -44.1352E-03    -43.8302E-03     117.940E-03    -20.7471E-03     4.21518E-03     587.004E-03    -285.450E-03    -300.390E-03    -298.260E-03     584.873E-03    -285.450E-03     86.7163E-03     96.9134E+06     71.3454E+06    -34.7786E+06    -34.4459E+06     96.5807E+06     71.3454E+06     1.05916E+06         76.7519
            1886     11.2701E-03     174.575E-03     132.622E-03    -22.5743E-03    -60.8488E-03    -60.0198E-03     131.793E-03    -22.5743E-03     14.3376E-03     589.077E-03    -286.201E-03    -301.956E-03    -299.459E-03     586.581E-03    -286.201E-03     94.1718E-03     103.470E+06     82.6775E+06    -25.0397E+06    -24.9648E+06     96.2456E+06     89.8272E+06    -78.4784E+03         82.1319
            1887     12.0113E-03     174.721E-03     135.645E-03    -24.7268E-03    -61.6928E-03    -60.9990E-03     134.951E-03    -24.7268E-03     18.2611E-03     592.130E-03    -287.441E-03    -304.882E-03    -301.278E-03     588.527E-03    -287.441E-03     112.412E-03     116.487E+06     103.021E+06    -16.8644E+06    -16.7660E+06     102.922E+06     116.487E+06    -3.32145E+06         87.5874
            1888     12.7544E-03     174.907E-03     126.637E-03    -26.2654E-03    -49.1287E-03    -48.9732E-03     126.482E-03    -26.2654E-03     6.48593E-03     592.875E-03    -288.292E-03    -305.793E-03    -301.922E-03     589.004E-03    -288.292E-03     117.198E-03     151.071E+06     130.170E+06    -8.42443E+06    -8.32314E+06     130.069E+06     151.071E+06    -1.63786E+06         91.7558
            1889     772.285E-06     175.954E-03     100.613E-03     17.0576E-03    -64.6713E-03     11.5645E-03     24.4989E-03     16.9355E-03    -4.37515E-03     520.103E-03    -259.362E-03    -260.976E-03    -259.956E-03     520.048E-03    -260.326E-03     12.6775E-03    -161.303E+06    -164.058E+06    -280.146E+06    -164.060E+06    -279.961E+06    -161.486E+06    -2.66077E+06         62.0720
            1890     1.54124E-03     175.773E-03     74.5408E-03     15.3583E-03    -37.0139E-03     5.64865E-03     26.6910E-03     20.5455E-03    -46.2312E-03     524.672E-03    -261.526E-03    -263.739E-03    -263.598E-03     524.531E-03    -261.526E-03     20.5056E-03    -147.256E+06    -157.912E+06    -263.132E+06    -158.071E+06    -262.973E+06    -147.256E+06    -2.85260E+06         62.4260
            1891     2.30569E-03     175.669E-03     72.8729E-03     10.5830E-03    -31.0845E-03    -17.9453E-03     54.4245E-03     15.8922E-03    -38.0889E-03     530.540E-03    -263.296E-03    -267.890E-03    -267.616E-03     530.266E-03    -263.296E-03     29.0093E-03    -127.290E+06    -150.426E+06    -242.557E+06    -150.705E+06    -242.279E+06    -127.290E+06    -4.26235E+06         62.8419
            1892     3.06967E-03     175.642E-03     100.008E-03     4.97261E-03    -52.4657E-03    -48.2306E-03     95.7728E-03     4.97261E-03    -37.0444E-03     537.485E-03    -265.137E-03    -272.225E-03    -271.794E-03     537.054E-03    -265.137E-03     36.8355E-03    -103.186E+06    -140.844E+06    -216.143E+06    -141.405E+06    -215.582E+06    -103.186E+06    -5.76991E+06         63.3125
            1893     3.82992E-03     175.615E-03     125.321E-03    -7.40824E-03    -69.7378E-03    -68.1665E-03     123.749E-03    -7.40824E-03    -28.7309E-03     544.058E-03    -267.224E-03    -277.158E-03    -276.558E-03     543.458E-03    -267.224E-03     43.9471E-03    -76.8534E+06    -128.159E+06    -188.795E+06    -129.413E+06    -187.541E+06    -76.8534E+06    -7.63537E+06         63.8183
            1894     4.58747E-03     175.607E-03     130.390E-03    -17.3870E-03    -67.0991E-03    -65.9227E-03     129.213E-03    -17.3870E-03    -24.4643E-03     550.618E-03    -269.546E-03    -281.685E-03    -280.929E-03     549.861E-03    -269.546E-03     49.7547E-03    -53.5682E+06    -115.608E+06    -164.427E+06    -117.934E+06    -162.101E+06    -53.5682E+06    -9.64325E+06         64.3347
            1895     5.34113E-03     175.606E-03     121.649E-03    -23.1141E-03    -48.9445E-03    -47.3895E-03     120.094E-03    -23.1141E-03    -20.1845E-03     556.516E-03    -271.536E-03    -286.052E-03    -285.157E-03     555.621E-03    -271.536E-03     54.5763E-03    -33.0070E+06    -102.280E+06    -143.465E+06    -106.937E+06    -138.809E+06    -33.0070E+06    -12.0634E+06         64.9109
            1896     6.09258E-03     175.627E-03     105.512E-03    -23.6604E-03    -33.1216E-03    -29.5733E-03     103.387E-03    -25.0839E-03    -21.9312E-03     561.738E-03    -273.272E-03    -290.274E-03    -289.257E-03     560.721E-03    -273.272E-03     58.6557E-03    -14.1363E+06    -86.1192E+06    -122.344E+06    -95.0375E+06    -113.426E+06    -14.1363E+06    -14.5788E+06         65.5773
            1897     6.84001E-03     175.658E-03     84.3960E-03    -10.1483E-03    -24.6352E-03    -8.53564E-03     82.5734E-03    -24.4252E-03    -9.28223E-03     568.353E-03    -275.142E-03    -294.788E-03    -293.640E-03     567.205E-03    -275.142E-03     62.7740E-03     2.60437E+06    -69.2478E+06    -103.174E+06    -83.8663E+06    -88.5552E+06     2.60437E+06    -16.1709E+06         66.2711
            1898     7.58566E-03     175.709E-03     71.1086E-03     236.116E-06    -22.2431E-03     2.23861E-03     69.1061E-03    -22.2431E-03    -13.9967E-03     576.061E-03    -276.977E-03    -299.012E-03    -297.734E-03     574.783E-03    -276.977E-03     66.7643E-03     17.3859E+06    -51.2518E+06    -88.3305E+06    -74.5714E+06    -65.0109E+06     17.3859E+06    -17.1119E+06         66.9273
            1899     8.32863E-03     175.775E-03     71.4911E-03    -3.10529E-03    -22.6543E-03    -4.51811E-03     70.4734E-03    -20.2238E-03    -14.8112E-03     581.321E-03    -278.585E-03    -300.947E-03    -299.550E-03     579.925E-03    -278.585E-03     70.1139E-03     30.2045E+06    -29.8157E+06    -74.8652E+06    -65.8310E+06    -38.8499E+06     30.2045E+06    -17.6363E+06         67.8940
            1900     9.06938E-03     175.873E-03     79.9468E-03    -11.6982E-03    -21.7662E-03    -13.9562E-03     79.7067E-03    -19.2681E-03    -1.68996E-03     583.748E-03    -280.709E-03    -302.618E-03    -301.030E-03     582.160E-03    -280.709E-03     74.9064E-03     41.8609E+06    -1.87654E+06    -61.5530E+06    -56.0702E+06    -7.35939E+06     41.8609E+06    -15.9960E+06         69.8815
            1901     9.80957E-03     175.976E-03     90.2115E-03    -19.1995E-03    -23.7855E-03    -23.4542E-03     89.9573E-03    -19.2767E-03     9.71556E-03     587.551E-03    -283.103E-03    -304.043E-03    -302.201E-03     585.709E-03    -283.103E-03     80.9138E-03     57.1568E+06     36.3425E+06    -48.2674E+06    -45.9764E+06     37.3466E+06     53.8618E+06    -11.9219E+06         73.1861
            1902     10.5487E-03     176.094E-03     101.609E-03    -19.8668E-03    -34.1086E-03    -33.6094E-03     101.277E-03    -20.0336E-03     12.9984E-03     589.973E-03    -284.110E-03    -305.242E-03    -303.008E-03     587.739E-03    -284.110E-03     89.1509E-03     88.7950E+06     66.0435E+06    -36.0534E+06    -35.3952E+06     87.2987E+06     66.8816E+06    -6.53343E+06         77.7271
            1903     11.2878E-03     176.247E-03     109.785E-03    -18.1940E-03    -46.1953E-03    -42.3188E-03     108.972E-03    -21.2576E-03     20.2351E-03     592.189E-03    -284.874E-03    -306.570E-03    -303.948E-03     589.566E-03    -284.874E-03     96.8973E-03     105.326E+06     85.0464E+06    -25.2761E+06    -24.8810E+06     103.585E+06     86.3921E+06    -4.75942E+06         83.2280
            1904     12.0279E-03     176.411E-03     108.118E-03    -19.4295E-03    -44.7297E-03    -40.8068E-03     107.092E-03    -22.3263E-03     22.8881E-03     596.076E-03    -286.307E-03    -309.144E-03    -305.353E-03     592.284E-03    -286.307E-03     115.797E-03     110.833E+06     101.507E+06    -17.2830E+06    -17.0826E+06     101.622E+06     110.517E+06    -2.77673E+06         88.6759
            1905     12.7632E-03     176.643E-03     101.309E-03    -22.6916E-03    -34.0277E-03    -33.5034E-03     100.785E-03    -22.6916E-03     11.3136E-03     597.294E-03    -287.802E-03    -310.584E-03    -306.435E-03     593.145E-03    -287.802E-03     122.008E-03     151.772E+06     123.773E+06    -9.81070E+06    -9.75314E+06     123.716E+06     151.772E+06     844.884E+03         92.8076
            1906     776.414E-06     177.668E-03     157.104E-03    -48.1161E-03    -71.0141E-03    -56.6737E-03     151.923E-03    -57.2762E-03     20.1900E-03     504.424E-03    -251.716E-03    -252.688E-03    -252.376E-03     504.335E-03    -251.939E-03     15.3280E-03    -156.156E+06    -159.572E+06    -269.896E+06    -159.398E+06    -269.713E+06    -156.513E+06    -3.14731E+06         60.7468
            1907     1.55214E-03     177.521E-03     133.687E-03    -40.2564E-03    -49.9739E-03    -38.0158E-03     131.114E-03    -49.6412E-03    -4.67001E-03     508.775E-03    -253.249E-03    -255.813E-03    -255.580E-03     508.542E-03    -253.249E-03     25.8335E-03    -144.025E+06    -155.986E+06    -255.776E+06    -156.340E+06    -255.423E+06    -144.025E+06    -4.86816E+06         61.1834
            1908     2.32523E-03     177.421E-03     112.286E-03    -19.5989E-03    -44.8402E-03    -19.7399E-03     108.274E-03    -40.6872E-03     4.37438E-03     515.699E-03    -254.976E-03    -261.097E-03    -260.656E-03     515.258E-03    -254.976E-03     36.4428E-03    -123.063E+06    -147.408E+06    -233.155E+06    -148.146E+06    -232.418E+06    -123.063E+06    -7.37104E+06         61.7284
            1909     3.09224E-03     177.409E-03     97.8568E-03    -6.45114E-03    -44.6923E-03    -6.02817E-03     85.6466E-03    -32.9051E-03    -6.07450E-03     524.213E-03    -257.255E-03    -267.693E-03    -267.019E-03     523.538E-03    -257.255E-03     45.8167E-03    -99.1731E+06    -136.459E+06    -207.971E+06    -137.896E+06    -206.534E+06    -99.1731E+06    -9.19131E+06         62.3658
            1910     3.85686E-03     177.407E-03     87.1726E-03    -2.30748E-03    -41.8785E-03    -916.529E-06     70.6871E-03    -26.7840E-03    -535.663E-06     533.751E-03    -260.292E-03    -273.997E-03    -273.107E-03     532.860E-03    -260.292E-03     53.3301E-03    -73.8800E+06    -125.082E+06    -181.271E+06    -127.163E+06    -179.191E+06    -73.8800E+06    -9.87366E+06         63.0901
            1911     4.61678E-03     177.417E-03     77.5238E-03    -6.82804E-03    -30.2424E-03    -3.30802E-03     66.3089E-03    -22.5475E-03     3.18528E-03     542.560E-03    -263.272E-03    -279.601E-03    -278.520E-03     541.478E-03    -263.272E-03     59.3957E-03    -48.4001E+06    -112.071E+06    -155.671E+06    -115.509E+06    -152.233E+06    -48.4001E+06    -11.0535E+06         63.8465
            1912     5.37182E-03     177.441E-03     76.9357E-03    -14.1660E-03    -21.3765E-03    -8.61302E-03     70.0281E-03    -20.0219E-03     7.06436E-03     550.129E-03    -265.896E-03    -285.616E-03    -284.385E-03     548.897E-03    -265.896E-03     63.9495E-03    -25.6751E+06    -96.6500E+06    -133.841E+06    -103.525E+06    -126.967E+06    -25.6751E+06    -13.8642E+06         64.6395
            1913     6.12082E-03     177.478E-03     80.4951E-03    -15.7030E-03    -24.1828E-03    -17.4532E-03     76.9318E-03    -18.8692E-03    -8.39776E-03     558.093E-03    -268.403E-03    -291.743E-03    -290.394E-03     556.745E-03    -268.403E-03     67.4823E-03    -7.33237E+06    -80.6107E+06    -115.346E+06    -92.8133E+06    -103.143E+06    -7.33237E+06    -16.0980E+06         65.5597
            1914     6.86709E-03     177.534E-03     85.5780E-03    -10.1190E-03    -32.7411E-03    -22.4475E-03     83.8623E-03    -18.6969E-03    -10.2825E-03     566.112E-03    -270.905E-03    -297.374E-03    -295.927E-03     564.665E-03    -270.905E-03     70.5049E-03     8.01637E+06    -64.4605E+06    -99.3294E+06    -83.0585E+06    -80.7314E+06     8.01637E+06    -17.0623E+06         66.5499
            1915     7.61118E-03     177.564E-03     95.2902E-03    -10.0678E-03    -39.5417E-03    -28.6239E-03     93.5038E-03    -19.1991E-03    -14.1186E-03     575.287E-03    -273.238E-03    -301.854E-03    -300.331E-03     573.764E-03    -273.238E-03     72.9524E-03     22.1912E+06    -45.9669E+06    -85.4357E+06    -73.1718E+06    -58.2308E+06     22.1912E+06    -17.9135E+06         67.4397
            1916     8.35221E-03     177.613E-03     103.145E-03    -18.5152E-03    -41.9730E-03    -38.8285E-03     101.978E-03    -20.4921E-03    -20.4859E-03     582.554E-03    -275.546E-03    -304.995E-03    -303.362E-03     580.921E-03    -275.546E-03     75.9526E-03     34.1645E+06    -24.3282E+06    -73.0713E+06    -64.1007E+06    -33.2989E+06     34.1645E+06    -18.5084E+06         68.5778
            1917     9.09095E-03     177.687E-03     103.292E-03    -21.9632E-03    -36.7421E-03    -35.6361E-03     102.263E-03    -22.0404E-03    -20.3135E-03     586.411E-03    -278.378E-03    -307.963E-03    -306.136E-03     584.584E-03    -278.378E-03     80.6243E-03     43.2770E+06    -705.114E+03    -62.0188E+06    -55.4835E+06    -7.24042E+06     43.2770E+06    -18.7227E+06         70.7472
            1918     9.82803E-03     177.787E-03     95.4420E-03    -21.4731E-03    -29.4252E-03    -26.4687E-03     94.0446E-03    -23.0322E-03    -14.4348E-03     591.031E-03    -281.027E-03    -309.574E-03    -307.484E-03     588.942E-03    -281.027E-03     86.5275E-03     54.2046E+06     34.2443E+06    -51.0217E+06     -46.947E+06     31.3768E+06     52.9974E+06    -17.1264E+06         74.2770
            1919     10.5633E-03     177.924E-03     81.4785E-03    -13.3585E-03    -25.9276E-03    -15.0394E-03     80.4789E-03    -23.2472E-03    -7.03437E-03     593.590E-03    -282.580E-03    -310.530E-03    -307.997E-03     591.056E-03    -282.580E-03     95.3550E-03     81.5968E+06     63.3139E+06    -39.8547E+06    -37.9702E+06     78.8742E+06     64.1520E+06    -14.0828E+06         79.0831
            1920     11.2976E-03     178.108E-03     67.4704E-03    -843.548E-06    -22.5586E-03    -460.345E-06     67.0872E-03    -22.5586E-03    -1.04980E-03     596.111E-03    -283.825E-03    -311.828E-03    -308.902E-03     593.185E-03    -283.825E-03     102.879E-03     97.3722E+06     78.9462E+06    -30.3520E+06    -29.5545E+06     96.5747E+06     78.9462E+06    -9.07046E+06         84.7301
            1921     12.0312E-03     178.289E-03     63.8844E-03     368.359E-06    -22.0142E-03     886.950E-06     62.6924E-03    -21.3409E-03     1.64500E-03     600.693E-03    -285.675E-03    -314.366E-03    -310.327E-03     596.653E-03    -285.675E-03     120.349E-03     102.897E+06     92.4264E+06    -21.7895E+06    -21.5433E+06     94.3686E+06     100.709E+06    -3.33502E+06         90.0981
            1922     12.7659E-03     178.526E-03     74.1204E-03    -8.43074E-03    -24.1327E-03    -9.59947E-03     71.5794E-03    -20.4231E-03    -4.20890E-03     602.552E-03    -287.595E-03    -315.767E-03    -311.404E-03     598.189E-03    -287.595E-03     125.882E-03     148.641E+06     117.295E+06    -11.6974E+06    -11.6070E+06     117.205E+06     148.641E+06    -1.10042E+06         94.1210
            1923     784.963E-06     179.323E-03     196.463E-03    -70.3044E-03    -86.0832E-03    -73.9571E-03     193.752E-03    -79.7189E-03     2.08830E-03     488.788E-03    -243.795E-03    -244.984E-03    -244.873E-03     488.678E-03    -243.795E-03     16.7683E-03    -150.373E+06    -156.378E+06    -260.191E+06    -156.304E+06    -259.908E+06    -150.730E+06    -3.00161E+06         59.2557
            1924     1.56635E-03     179.182E-03     165.828E-03    -53.9612E-03    -72.3699E-03    -51.7487E-03     163.283E-03    -72.0371E-03    -12.8858E-03     494.170E-03    -245.677E-03    -248.459E-03    -248.160E-03     493.870E-03    -245.677E-03     29.2673E-03    -134.988E+06    -148.588E+06    -242.795E+06    -149.185E+06    -242.198E+06    -134.988E+06    -6.44610E+06         59.6940
            1925     2.34354E-03     179.096E-03     117.520E-03    -16.6604E-03    -59.5102E-03    -13.2025E-03     114.062E-03    -59.5102E-03     3.09920E-03     501.575E-03    -247.566E-03    -254.039E-03    -253.487E-03     501.023E-03    -247.566E-03     40.5192E-03    -116.567E+06    -140.312E+06    -221.708E+06    -141.429E+06    -220.592E+06    -116.567E+06    -8.94546E+06         60.2735
            1926     3.11762E-03     179.096E-03     76.0605E-03     7.80078E-03    -44.1263E-03     18.2788E-03     65.5825E-03    -44.1263E-03     10.8442E-03     511.159E-03    -249.857E-03    -261.682E-03    -260.836E-03     510.313E-03    -249.857E-03     50.8970E-03    -93.1087E+06    -129.501E+06    -198.463E+06    -131.572E+06    -196.392E+06    -93.1087E+06    -11.4253E+06         60.9834
            1927     3.88470E-03     179.110E-03     53.3263E-03     16.2801E-03    -30.0455E-03     33.4482E-03     36.1582E-03    -30.0455E-03     13.1092E-03     522.308E-03    -252.916E-03    -269.760E-03    -268.613E-03     521.162E-03    -252.916E-03     60.0531E-03    -68.3047E+06    -117.327E+06    -174.627E+06    -120.816E+06    -171.138E+06    -68.3047E+06    -12.8470E+06         61.8333
            1928     4.64707E-03     179.138E-03     44.7792E-03     14.0671E-03    -19.7726E-03     28.7804E-03     30.0659E-03    -19.7726E-03     14.6447E-03     533.458E-03    -256.675E-03    -277.466E-03    -276.056E-03     532.048E-03    -256.675E-03     67.3716E-03    -42.9508E+06    -103.580E+06    -148.565E+06    -108.580E+06    -143.565E+06    -42.9508E+06    -13.4285E+06         62.7928
            1929     5.40297E-03     179.175E-03     51.6580E-03     2.36255E-03    -14.0540E-03     11.1184E-03     42.9021E-03    -14.0540E-03     19.2883E-03     544.021E-03    -260.126E-03    -285.155E-03    -283.559E-03     542.424E-03    -260.126E-03     72.5208E-03    -20.2369E+06    -89.2290E+06    -124.424E+06    -96.7103E+06    -116.942E+06    -20.2369E+06    -13.9530E+06         63.8163
            1930     6.15434E-03     179.231E-03     71.3629E-03    -8.77314E-03    -24.4717E-03    -18.1271E-03     68.9023E-03    -12.6571E-03     7.03662E-03     554.387E-03    -263.213E-03    -292.868E-03    -291.131E-03     552.650E-03    -263.213E-03     76.4943E-03    -909.532E+03    -74.5735E+06    -106.169E+06    -86.4826E+06    -94.2596E+06    -909.532E+03    -14.9275E+06         64.9045
            1931     6.89949E-03     179.313E-03     100.299E-03    -14.8326E-03    -48.1488E-03    -48.0265E-03     100.177E-03    -14.8326E-03     4.56046E-03     564.383E-03    -266.679E-03    -299.287E-03    -297.420E-03     562.517E-03    -266.679E-03     80.0111E-03     15.3232E+06    -57.7897E+06    -91.4585E+06    -76.6074E+06    -72.6408E+06     15.3232E+06    -16.2945E+06         66.0297
            1932     7.63970E-03     179.388E-03     119.774E-03    -18.7774E-03    -61.6002E-03    -61.4304E-03     119.604E-03    -18.7774E-03    -4.97390E-03     573.878E-03    -269.509E-03    -304.518E-03    -302.550E-03     571.911E-03    -269.509E-03     82.8055E-03     28.4563E+06    -39.6458E+06    -79.0166E+06    -67.4617E+06    -51.2006E+06     28.4563E+06    -17.5975E+06         67.1535
            1933     8.37786E-03     179.485E-03     121.470E-03    -22.5709E-03    -60.4387E-03    -59.7947E-03     120.826E-03    -22.5709E-03    -19.3731E-03     582.330E-03    -272.167E-03    -309.031E-03    -306.949E-03     580.248E-03    -272.167E-03     85.8732E-03     39.8149E+06    -17.7790E+06    -67.3950E+06    -58.2341E+06    -26.9399E+06     39.8149E+06    -18.9871E+06         68.6585
            1934     9.11235E-03     179.606E-03     111.408E-03    -25.0783E-03    -46.4378E-03    -45.2442E-03     110.214E-03    -25.0783E-03    -25.8642E-03     588.855E-03    -275.531E-03    -312.653E-03    -310.403E-03     586.606E-03    -275.531E-03     89.8249E-03     48.9682E+06     4.12384E+06    -56.3274E+06    -49.4574E+06    -2.74611E+06     48.9682E+06    -18.9692E+06         71.2352
            1935     9.84609E-03     179.713E-03     93.4748E-03    -22.3932E-03    -30.6968E-03    -25.6405E-03     91.9091E-03    -25.8838E-03    -25.2506E-03     593.730E-03    -278.860E-03    -315.095E-03    -312.623E-03     591.258E-03    -278.860E-03     94.5794E-03     60.1937E+06     37.0449E+06    -45.4523E+06    -41.1041E+06     33.9039E+06     58.9864E+06    -17.9036E+06         75.1481
            1936     10.5779E-03     179.859E-03     73.3114E-03    -11.4683E-03    -25.3133E-03    -10.3532E-03     72.1963E-03    -25.3133E-03    -17.3921E-03     597.437E-03    -281.161E-03    -317.166E-03    -314.328E-03     594.598E-03    -281.161E-03     101.633E-03     76.0697E+06     64.0274E+06    -36.4238E+06    -33.9480E+06     71.5041E+06     66.1172E+06    -16.0606E+06         80.3198
            1937     11.3096E-03     180.012E-03     62.0574E-03    -2.66774E-03    -24.0772E-03    -2.26722E-03     61.6568E-03    -24.0772E-03    -3.36020E-03     601.752E-03    -282.708E-03    -319.316E-03    -316.177E-03     598.612E-03    -282.708E-03     107.355E-03     87.5796E+06     69.6644E+06    -28.0646E+06    -26.7512E+06     78.9694E+06     76.9612E+06    -10.6322E+06         86.2074
            1938     12.0415E-03     180.173E-03     63.3130E-03    -3.51096E-03    -25.8370E-03    -5.06748E-03     61.9994E-03    -22.9669E-03     3.32989E-03     607.033E-03    -284.927E-03    -321.790E-03    -317.657E-03     602.900E-03    -284.927E-03     122.853E-03     101.989E+06     85.0082E+06    -18.5216E+06    -18.0181E+06     86.3778E+06     100.116E+06    -4.72421E+06         91.5847
            1939     12.7697E-03     180.392E-03     72.1213E-03    -10.5320E-03    -29.1166E-03    -13.4283E-03     68.4254E-03    -22.5244E-03     5.00639E-03     609.488E-03    -287.296E-03    -322.805E-03    -318.505E-03     605.187E-03    -287.296E-03     125.817E-03     147.895E+06     113.813E+06    -9.71479E+06    -9.55929E+06     113.657E+06     147.895E+06    -3.05079E+06         95.5343
            1940     789.583E-06     180.897E-03     123.717E-03    -38.8649E-03    -56.1041E-03    -41.8895E-03     111.637E-03    -40.9996E-03    -2.53243E-03     476.839E-03    -237.551E-03    -239.326E-03    -239.226E-03     476.739E-03    -237.551E-03     15.4567E-03    -141.946E+06    -149.155E+06    -245.697E+06    -148.490E+06    -245.370E+06    -142.938E+06    -4.18490E+06         58.0641
            1941     1.57554E-03     180.756E-03     102.144E-03    -27.7869E-03    -47.6746E-03    -26.7608E-03     96.7196E-03    -43.2766E-03    -41.7173E-03     482.866E-03    -239.619E-03    -242.946E-03    -242.643E-03     482.563E-03    -239.619E-03     28.9786E-03    -128.717E+06    -143.209E+06    -229.431E+06    -144.025E+06    -228.615E+06    -128.717E+06    -6.84294E+06         58.4363
            1942     2.35820E-03     180.675E-03     84.7199E-03    -10.7206E-03    -47.0652E-03    -13.4991E-03     77.8336E-03    -37.4004E-03    -49.0951E-03     490.414E-03    -241.755E-03    -248.172E-03    -247.575E-03     489.816E-03    -241.755E-03     41.5979E-03    -110.070E+06    -134.664E+06    -210.187E+06    -135.989E+06    -208.862E+06    -110.070E+06    -9.35697E+06         58.9585
            1943     3.13632E-03     180.711E-03     71.8546E-03    -4.94292E-03    -36.9452E-03    -4.06047E-03     64.4430E-03    -30.4160E-03    -44.9490E-03     499.485E-03    -244.180E-03    -255.052E-03    -254.101E-03     498.533E-03    -244.180E-03     53.2824E-03    -86.0661E+06    -123.979E+06    -187.669E+06    -126.840E+06    -184.808E+06    -86.0661E+06    -12.0632E+06         59.6356
            1944     3.91003E-03     180.751E-03     61.5840E-03    -2.91652E-03    -27.3647E-03    -1.43794E-03     57.5064E-03    -24.7656E-03    -23.1321E-03     510.409E-03    -246.732E-03    -264.120E-03    -262.775E-03     509.063E-03    -246.732E-03     64.2969E-03    -61.2081E+06    -110.938E+06    -165.874E+06    -115.903E+06    -160.909E+06    -61.2081E+06    -15.0847E+06         60.4814
            1945     4.67523E-03     180.801E-03     62.9839E-03    -3.22978E-03    -28.0696E-03    -5.50996E-03     58.5444E-03    -21.3499E-03    -8.35513E-03     522.987E-03    -250.424E-03    -274.115E-03    -272.396E-03     521.268E-03    -250.424E-03     73.8212E-03    -38.1427E+06    -96.5110E+06    -143.887E+06    -103.410E+06    -136.987E+06    -38.1427E+06    -16.2643E+06         61.4835
            1946     5.43477E-03     180.876E-03     70.0772E-03    -9.55069E-03    -26.5282E-03    -12.5915E-03     66.7011E-03    -20.1113E-03    -7.01043E-03     536.901E-03    -254.255E-03    -283.023E-03    -281.010E-03     534.888E-03    -254.255E-03     80.9955E-03    -16.2112E+06     -81.609E+06    -120.347E+06    -90.6273E+06    -111.328E+06    -16.2112E+06    -15.9569E+06         62.5989
            1947     6.18635E-03     180.964E-03     81.5168E-03    -16.7593E-03    -30.1518E-03    -24.7791E-03     80.1643E-03    -20.7795E-03    -13.0299E-03     549.296E-03    -257.822E-03    -291.442E-03    -289.208E-03     547.062E-03    -257.822E-03     86.3568E-03     4.11026E+06    -66.9959E+06    -99.6192E+06    -78.6736E+06    -87.9415E+06     4.11026E+06    -15.3502E+06         63.7551
            1948     6.93309E-03     181.067E-03     89.2892E-03    -15.0203E-03    -41.7489E-03    -30.7416E-03     85.7384E-03    -22.4769E-03    -20.6765E-03     559.588E-03    -261.887E-03    -299.120E-03    -296.719E-03     557.187E-03    -261.887E-03     90.5059E-03     22.0082E+06    -50.4963E+06    -82.9096E+06    -68.5512E+06    -64.8548E+06     22.0082E+06    -15.5966E+06         64.9231
            1949     7.67577E-03     181.174E-03     87.0983E-03    -7.90596E-03    -46.1675E-03    -24.7043E-03     81.4164E-03    -23.6872E-03    -26.3356E-03     570.279E-03    -265.092E-03    -306.206E-03    -303.687E-03     567.759E-03    -265.092E-03     93.7270E-03     37.3303E+06    -32.3106E+06    -69.4340E+06    -58.3962E+06    -43.3484E+06     37.3303E+06    -16.8738E+06         66.2571
            1950     8.41075E-03     181.283E-03     80.3094E-03    -4.73462E-03    -42.6489E-03    -19.7518E-03     76.5092E-03    -23.8315E-03    -22.0850E-03     581.087E-03    -268.381E-03    -312.779E-03    -310.169E-03     578.477E-03    -268.381E-03     96.3472E-03     49.0025E+06    -11.0089E+06    -58.1159E+06    -49.5073E+06    -19.6175E+06     49.0025E+06    -17.6417E+06         68.2113
            1951     9.14398E-03     181.392E-03     73.8621E-03    -10.3224E-03    -32.3986E-03    -18.0931E-03     72.5444E-03    -23.3103E-03    -15.0508E-03     589.661E-03    -272.572E-03    -317.411E-03    -314.710E-03     586.960E-03    -272.572E-03     98.7628E-03     57.4264E+06     11.4925E+06    -48.4025E+06    -41.2853E+06     4.37522E+06     57.4264E+06    -19.2519E+06         71.2995
            1952     9.87524E-03     181.515E-03     73.1897E-03    -16.4837E-03    -25.8972E-03    -19.4853E-03     72.8813E-03    -22.5873E-03    -9.51446E-03     595.835E-03    -275.926E-03    -321.186E-03    -318.367E-03     593.016E-03    -275.926E-03     101.481E-03     64.5686E+06     38.3567E+06     -38.225E+06    -32.8076E+06     32.9393E+06     64.5686E+06    -18.5595E+06         75.6728
            1953     10.6031E-03     181.649E-03     82.3710E-03    -18.1690E-03    -35.5397E-03    -30.7748E-03     81.7292E-03    -22.2922E-03     1.37236E-03     602.241E-03    -278.558E-03    -324.999E-03    -321.937E-03     599.178E-03    -278.558E-03     106.347E-03     73.8296E+06     61.8829E+06    -27.4701E+06    -25.3820E+06     62.9491E+06     70.6753E+06    -12.7982E+06         81.2604
            1954     11.3301E-03     181.806E-03     91.7346E-03    -20.0122E-03    -43.2266E-03    -39.8846E-03     91.1507E-03    -22.7702E-03     13.4850E-03     609.008E-03    -281.193E-03    -328.010E-03    -324.737E-03     605.734E-03    -281.193E-03     110.561E-03     85.0104E+06     65.7563E+06    -21.1029E+06    -20.1299E+06     67.9376E+06      81.856E+06    -8.52909E+06         87.4333
            1955     12.0545E-03     181.960E-03     93.8859E-03    -23.0431E-03    -42.7655E-03    -41.4762E-03     93.2400E-03    -23.6866E-03     16.9664E-03     614.800E-03    -284.063E-03    -330.539E-03    -326.396E-03     610.657E-03    -284.063E-03     124.273E-03     102.210E+06     78.8952E+06    -15.7412E+06    -15.1364E+06     78.2904E+06     102.210E+06    -5.53254E+06         92.8761
            1956     12.7788E-03     182.193E-03     86.4582E-03    -24.5464E-03    -38.8222E-03    -36.5224E-03     84.1584E-03    -24.5464E-03     14.9460E-03     618.107E-03    -286.852E-03    -331.674E-03    -327.492E-03     613.925E-03    -286.852E-03     125.176E-03     146.637E+06     109.970E+06    -7.45631E+06    -7.08122E+06     109.595E+06     146.637E+06    -1.26972E+06         96.7800
            1957     790.487E-06     182.454E-03     44.9193E-03     8.40297E-03    -40.9676E-03     5.91581E-03    -1.96412E-03     8.40297E-03    -7.62224E-03     471.860E-03    -235.024E-03    -236.948E-03    -236.850E-03     471.762E-03    -235.024E-03     15.0247E-03    -138.140E+06    -143.973E+06    -230.254E+06    -143.185E+06    -230.049E+06    -139.132E+06    -3.20560E+06         57.4692
            1958     1.58046E-03     182.285E-03     52.0082E-03    -290.836E-06    -36.5631E-03    -17.9954E-03     33.4405E-03    -290.836E-06    -61.0869E-03     475.639E-03    -236.632E-03    -239.011E-03    -238.718E-03     475.345E-03    -236.632E-03     28.3137E-03    -123.565E+06    -136.875E+06    -215.509E+06    -137.665E+06    -214.718E+06    -123.565E+06    -6.46944E+06         57.7157
            1959     2.36753E-03     182.239E-03     71.1090E-03    -10.0129E-03    -43.2763E-03    -35.0556E-03     62.8882E-03    -10.0129E-03    -53.8358E-03     481.485E-03    -238.025E-03    -243.474E-03    -242.874E-03     480.886E-03    -238.025E-03     41.1844E-03    -102.686E+06    -127.882E+06    -198.500E+06    -130.048E+06    -196.334E+06    -102.686E+06    -11.2101E+06         58.1159
            1960     3.15091E-03     182.267E-03     91.6717E-03    -17.5087E-03    -50.6690E-03    -44.3721E-03     85.3748E-03    -17.5087E-03    -40.2401E-03     489.916E-03    -239.910E-03    -249.926E-03    -248.917E-03     488.907E-03    -239.910E-03     54.3057E-03    -78.5715E+06    -115.777E+06    -177.015E+06    -119.401E+06    -173.391E+06    -78.5715E+06    -13.4215E+06         58.6891
            1961     3.92747E-03     182.329E-03     106.031E-03    -23.8324E-03    -57.2171E-03    -54.9199E-03     103.734E-03    -23.8324E-03    -19.9962E-03     500.450E-03    -242.381E-03    -258.258E-03    -256.793E-03     498.985E-03    -242.381E-03     66.4321E-03    -52.3193E+06    -102.599E+06    -155.371E+06    -107.718E+06    -150.253E+06    -52.3193E+06    -14.9865E+06         59.4170
            1962     4.69909E-03     182.418E-03     115.258E-03    -29.7875E-03    -61.1058E-03    -60.8585E-03     115.011E-03    -29.7875E-03    -7.89172E-03     512.148E-03    -245.678E-03    -268.112E-03    -266.191E-03     510.226E-03    -245.678E-03     77.2210E-03    -29.0531E+06    -88.2501E+06    -135.893E+06    -95.8028E+06    -128.340E+06    -29.0531E+06    -16.9989E+06         60.2769
            1963     5.46215E-03     182.521E-03     111.965E-03    -33.1024E-03    -51.2665E-03    -50.1262E-03     111.871E-03    -34.1481E-03    -3.62093E-03     525.886E-03    -249.072E-03    -278.168E-03    -275.820E-03     523.538E-03    -249.072E-03     86.6735E-03    -9.82699E+06    -74.8585E+06    -116.436E+06    -84.7537E+06    -106.541E+06    -9.82699E+06    -17.4687E+06         61.2909
            1964     6.22015E-03     182.649E-03     88.5837E-03    -20.9598E-03    -36.9670E-03    -21.9278E-03     87.8006E-03    -35.2159E-03    -6.18254E-03     540.435E-03    -252.566E-03    -287.459E-03    -284.773E-03     537.750E-03    -252.566E-03     94.0766E-03     9.01051E+06    -61.3643E+06    -97.4966E+06    -74.6389E+06    -84.2220E+06     9.01051E+06    -17.0374E+06         62.4334
            1965     6.96989E-03     182.782E-03     61.6402E-03    -18.5890E-06    -32.8911E-03     4.71781E-03     56.9038E-03    -32.8911E-03    -13.3051E-03     553.190E-03    -256.647E-03    -297.492E-03    -294.576E-03     550.275E-03    -256.647E-03     99.3385E-03     27.9682E+06    -45.4753E+06    -78.4409E+06    -63.8066E+06    -60.1096E+06     27.9682E+06    -16.0484E+06         63.6779
            1966     7.71171E-03     182.895E-03     43.6418E-03     13.0603E-03    -28.6206E-03     21.9242E-03     34.7779E-03    -28.6206E-03    -17.1908E-03     565.892E-03    -260.859E-03    -307.044E-03    -303.976E-03     562.824E-03    -260.859E-03     103.187E-03     43.6505E+06    -27.3310E+06    -64.3645E+06    -55.2431E+06    -36.4524E+06     43.6505E+06    -15.2058E+06         65.2627
            1967     8.45035E-03     183.012E-03     35.9115E-03     16.4277E-03    -24.0580E-03     25.3540E-03     26.9852E-03    -24.0580E-03    -15.5581E-03     579.150E-03    -264.779E-03    -315.250E-03    -312.119E-03     576.019E-03    -264.779E-03     105.554E-03     54.4804E+06    -6.65720E+06    -53.6358E+06    -47.5567E+06    -12.7363E+06     54.4804E+06    -15.2368E+06         67.6801
            1968     9.18214E-03     183.134E-03     41.3415E-03     4.37163E-03    -20.7257E-03     8.86403E-03     36.8491E-03    -20.7257E-03    -14.9077E-03     590.256E-03    -268.830E-03    -322.681E-03    -319.533E-03     587.108E-03    -268.830E-03     106.969E-03     61.6114E+06     16.9953E+06    -46.7877E+06    -41.7006E+06     11.9082E+06     61.6114E+06    -15.8808E+06         71.2741
            1969     9.90895E-03     183.259E-03     59.5504E-03    -12.8698E-03    -24.4840E-03    -17.3771E-03     59.0739E-03    -19.5001E-03    -8.98093E-03     599.085E-03    -272.038E-03    -328.366E-03    -325.177E-03     595.896E-03    -272.038E-03     108.537E-03     65.2822E+06     39.5818E+06    -41.9999E+06    -37.3575E+06     34.9394E+06     65.2822E+06    -17.4549E+06         76.0809
            1970     10.6326E-03     183.411E-03     80.5281E-03    -20.0915E-03    -38.1480E-03    -37.4397E-03     79.8198E-03    -20.0915E-03     219.100E-06     607.827E-03    -275.509E-03    -333.275E-03    -329.933E-03     604.485E-03    -275.509E-03     111.928E-03     67.6733E+06     52.8050E+06    -34.0060E+06    -30.9894E+06     49.7884E+06     67.6733E+06    -14.8660E+06         82.0385
            1971     11.3535E-03     183.579E-03     90.4258E-03    -21.5154E-03    -46.2418E-03    -45.4946E-03     89.6786E-03    -21.5154E-03     6.98180E-03     616.031E-03    -279.335E-03    -336.925E-03    -333.445E-03     612.551E-03    -279.335E-03     114.950E-03     78.0726E+06     59.4556E+06    -24.3128E+06    -23.1445E+06     58.2873E+06     78.0726E+06    -8.19135E+06         88.4394
            1972     12.0730E-03     183.754E-03     85.0377E-03    -20.2080E-03    -41.1260E-03    -38.4150E-03     84.8006E-03    -22.6819E-03     4.93470E-03     623.329E-03    -282.676E-03    -340.479E-03    -336.223E-03     619.074E-03    -282.676E-03     127.316E-03     99.0403E+06     72.1469E+06    -17.2513E+06    -16.9161E+06     71.8116E+06     99.0403E+06    -3.41941E+06         93.9091
            1973     12.7865E-03     183.998E-03     68.7192E-03    -19.6578E-03    -30.5746E-03    -25.7575E-03     67.1353E-03    -22.8910E-03     638.571E-06     628.761E-03    -286.199E-03    -342.801E-03    -338.608E-03     624.568E-03    -286.199E-03     126.735E-03     142.943E+06     103.578E+06    -11.2912E+06    -10.8052E+06     103.092E+06     142.943E+06    -1.23862E+06         97.7523
            1974     790.856E-06     184.038E-03     34.9167E-03     13.1089E-03    -36.3345E-03     13.2804E-03    -6.03503E-03     4.44566E-03    -6.94367E-03     472.651E-03    -235.101E-03    -237.565E-03    -237.485E-03     472.571E-03    -235.101E-03     13.3624E-03    -128.335E+06    -133.608E+06    -212.508E+06    -133.001E+06    -211.891E+06    -129.560E+06    -5.53962E+06         57.4629
            1975     1.58096E-03     183.855E-03     37.6985E-03     7.50517E-03    -29.4653E-03    -9.25526E-03     17.4885E-03     7.50517E-03    -34.7084E-03     473.917E-03    -236.305E-03    -237.688E-03    -237.434E-03     473.663E-03    -236.305E-03     26.1408E-03    -115.383E+06    -125.833E+06    -200.283E+06    -127.371E+06    -198.745E+06    -115.383E+06     -9.9396E+06         57.5728
            1976     2.37037E-03     183.810E-03     61.4499E-03    -1.81430E-03    -40.1519E-03    -36.3899E-03     57.6880E-03    -1.81430E-03    -27.3900E-03     477.632E-03    -236.997E-03    -240.886E-03    -240.347E-03     477.093E-03    -236.997E-03     38.8070E-03    -94.8025E+06    -116.923E+06    -185.130E+06    -119.520E+06    -182.534E+06    -94.8025E+06    -12.2434E+06         57.8146
            1977     3.15621E-03     183.834E-03     100.439E-03    -13.6472E-03    -63.1382E-03    -62.8107E-03     100.112E-03    -13.6472E-03    -7.00931E-03     484.170E-03    -238.176E-03    -246.134E-03    -245.193E-03     483.230E-03    -238.176E-03     52.0048E-03    -71.5069E+06    -106.698E+06    -167.095E+06    -110.735E+06    -163.058E+06    -71.5069E+06    -14.1551E+06         58.2291
            1978     3.93864E-03     183.894E-03     127.058E-03    -25.0341E-03    -78.7003E-03    -78.0720E-03     126.430E-03    -25.0341E-03     6.48987E-03     492.831E-03    -240.072E-03    -252.819E-03    -251.400E-03     491.412E-03    -240.072E-03     64.7505E-03    -45.7314E+06    -93.4803E+06    -146.548E+06    -98.5585E+06    -141.470E+06    -45.7314E+06    -14.8073E+06         58.7970
            1979     4.71427E-03     183.994E-03     127.742E-03    -33.2845E-03    -73.4051E-03    -71.2325E-03     125.570E-03    -33.2845E-03     23.8705E-03     502.468E-03    -242.391E-03    -260.485E-03    -258.531E-03     500.514E-03    -242.391E-03     76.9290E-03    -22.2605E+06    -82.8965E+06    -127.093E+06    -89.4433E+06    -120.546E+06    -22.2605E+06    -15.0542E+06         59.4882
            1980     5.48552E-03     184.111E-03     104.612E-03    -31.5546E-03    -52.5999E-03    -45.2795E-03     102.259E-03    -36.5224E-03     22.5493E-03     513.724E-03    -244.949E-03    -270.292E-03    -267.772E-03     511.204E-03    -244.949E-03     88.6269E-03    -3.56747E+06    -73.9360E+06    -110.138E+06    -82.1811E+06    -101.893E+06    -3.56747E+06    -14.8851E+06         60.3336
            1981     6.24788E-03     184.240E-03     75.1539E-03    -14.7894E-03    -34.9240E-03    -13.2215E-03     73.5860E-03    -34.9240E-03     15.2772E-03     528.274E-03    -248.167E-03    -281.292E-03    -278.265E-03     525.248E-03    -248.167E-03     98.7109E-03     13.6200E+06    -62.1953E+06    -92.0162E+06    -73.2112E+06    -81.0004E+06     13.6200E+06    -13.5696E+06         61.3875
            1982     7.00445E-03     184.395E-03     57.3055E-03    -1.28540E-03    -30.8881E-03     1.60540E-03     54.4147E-03    -30.8881E-03     2.79520E-03     544.227E-03    -251.770E-03    -293.095E-03    -289.676E-03     540.807E-03    -251.770E-03     106.679E-03     29.2194E+06    -48.4393E+06    -76.2939E+06    -66.8535E+06    -57.8797E+06     29.2194E+06    -12.2782E+06         62.7031
            1983     7.75186E-03     184.559E-03     52.4652E-03    -860.388E-06    -28.9884E-03     2.14315E-03     47.5846E-03    -27.1113E-03    -13.4949E-03     560.250E-03    -256.150E-03    -305.402E-03    -301.752E-03     556.600E-03    -256.150E-03     112.071E-03     43.4434E+06    -28.0880E+06    -64.2616E+06    -59.5806E+06    -32.7691E+06     43.4434E+06    -10.6397E+06         64.5518
            1984     8.48901E-03     184.724E-03     57.4146E-03    -3.28148E-03    -30.8001E-03    -2.50477E-03     50.5080E-03    -24.6703E-03    -22.5955E-03     576.184E-03    -260.563E-03    -316.758E-03    -313.057E-03     572.483E-03    -260.563E-03     114.638E-03     53.6432E+06    -4.83602E+06    -56.5837E+06    -54.0934E+06    -7.32627E+06     53.6432E+06    -9.43419E+06         67.3743
            1985     9.21882E-03     184.891E-03     61.4921E-03    -11.5338E-03    -28.0924E-03    -11.2656E-03     56.7746E-03    -23.6432E-03    -25.2208E-03     590.947E-03    -264.646E-03    -326.974E-03    -323.305E-03     587.278E-03    -264.646E-03     115.730E-03     62.4137E+06     24.1765E+06    -50.9950E+06    -49.0321E+06     22.2136E+06     62.4137E+06    -10.6427E+06         71.3726
            1986     9.94276E-03     185.053E-03     61.5465E-03    -15.5228E-03    -26.5595E-03    -16.6022E-03     59.6552E-03    -23.5887E-03    -19.2419E-03     603.466E-03    -268.491E-03    -335.432E-03    -331.824E-03     599.858E-03    -268.491E-03     116.125E-03     66.5244E+06     47.1252E+06    -44.1390E+06    -41.8727E+06     44.8590E+06     66.5244E+06    -13.7914E+06         76.5087
            1987     10.6616E-03     185.210E-03     56.0401E-03    -8.38139E-03    -28.3894E-03    -11.0922E-03     53.9419E-03    -23.5804E-03    -18.0624E-03     614.276E-03    -273.156E-03    -342.366E-03    -338.747E-03     610.657E-03    -273.156E-03     117.449E-03     65.4208E+06     47.6464E+06    -39.2316E+06    -36.0099E+06     44.4247E+06     65.4208E+06    -16.1235E+06         82.7199
            1988     11.3771E-03     185.395E-03     51.2026E-03    -7.69822E-03    -27.2079E-03    -2.50037E-03     41.7346E-03    -22.9378E-03    -6.83458E-03     624.145E-03    -277.497E-03    -346.945E-03    -343.364E-03     620.564E-03    -277.497E-03     117.710E-03     73.5112E+06     45.8298E+06    -31.9348E+06    -29.3833E+06     43.2782E+06     73.5112E+06    -13.1765E+06         89.2550
            1989     12.0889E-03     185.582E-03     50.6455E-03    -11.0036E-03    -23.7650E-03     6.51299E-03     30.8935E-03    -21.5296E-03    -9.98903E-03     633.110E-03    -281.190E-03    -351.278E-03    -347.103E-03     628.935E-03    -281.190E-03     127.515E-03     95.1151E+06     61.8753E+06    -21.1822E+06    -19.9108E+06     60.6039E+06     95.1151E+06    -7.04587E+06         94.7246
            1990     12.7970E-03     185.831E-03     44.7563E-03    -8.80708E-03    -19.7900E-03     4.41382E-03     31.5354E-03    -19.7900E-03    -9.30816E-03     639.626E-03    -285.554E-03    -353.881E-03    -349.822E-03     635.567E-03    -285.554E-03     126.077E-03     142.235E+06     97.8617E+06    -10.4021E+06    -9.63399E+06     97.0936E+06     142.235E+06    -2.39121E+06         98.5246
            1991     787.581E-06     185.666E-03     68.8640E-03    -11.5584E-03    -33.7914E-03    -7.59375E-03     60.3179E-03    -29.2100E-03     10.0520E-03     477.350E-03    -237.749E-03    -239.438E-03    -239.386E-03     477.297E-03    -237.749E-03     10.7822E-03    -111.820E+06    -118.726E+06    -196.118E+06    -118.104E+06    -195.515E+06    -113.045E+06    -5.14453E+06         57.8684
            1992     1.57781E-03     185.453E-03     62.8942E-03    -16.3823E-03    -27.9200E-03    -20.8656E-03     55.8398E-03    -16.3823E-03    -9.10689E-03     477.147E-03    -237.972E-03    -238.813E-03    -238.621E-03     476.955E-03    -237.972E-03     22.5617E-03    -104.164E+06    -115.983E+06    -184.969E+06    -117.374E+06    -183.578E+06    -104.164E+06    -8.76358E+06         57.8818
            1993     2.36720E-03     185.406E-03     67.7568E-03    -16.0456E-03    -35.4546E-03    -31.2939E-03     65.9237E-03    -18.3732E-03     6.71482E-03     478.507E-03    -238.290E-03    -240.436E-03    -239.999E-03     478.071E-03    -238.290E-03     34.7953E-03    -89.3104E+06    -111.614E+06    -172.352E+06    -113.474E+06    -170.493E+06    -89.3104E+06    -9.58037E+06         57.9753
            1994     3.15405E-03     185.426E-03     80.7394E-03    -17.3464E-03    -45.0008E-03    -35.7001E-03     76.2332E-03    -22.1409E-03     22.8166E-03     482.252E-03    -238.700E-03    -243.541E-03    -242.757E-03     481.468E-03    -238.700E-03     47.2120E-03    -68.3120E+06    -103.854E+06    -157.155E+06    -107.034E+06    -153.975E+06    -68.3120E+06    -11.4856E+06         58.2167
            1995     3.93885E-03     185.463E-03     84.0340E-03    -19.4069E-03    -47.7157E-03    -35.2194E-03     76.9660E-03    -24.8352E-03     34.0873E-03     487.623E-03    -239.477E-03    -247.792E-03    -246.529E-03     486.360E-03    -239.477E-03     60.4905E-03    -48.3311E+06    -98.3873E+06    -141.689E+06    -102.142E+06    -137.935E+06    -48.3311E+06    -11.2369E+06         58.6224
            1996     4.72112E-03     185.552E-03     76.0666E-03    -18.6955E-03    -41.0396E-03    -28.5673E-03     70.4164E-03    -25.5177E-03     36.6134E-03     494.333E-03    -240.751E-03    -253.420E-03    -251.557E-03     492.471E-03    -240.751E-03     74.2945E-03    -25.9669E+06    -91.6693E+06    -121.558E+06    -95.5498E+06    -117.678E+06    -25.9669E+06    -9.13205E+06         59.2012
            1997     5.49875E-03     185.673E-03     65.4577E-03    -16.7700E-03    -33.9476E-03    -23.5576E-03     62.8506E-03    -24.5529E-03     17.3590E-03     504.018E-03    -242.392E-03    -261.562E-03    -259.015E-03     501.472E-03    -242.392E-03     87.9713E-03    -4.19039E+06    -81.7432E+06    -103.605E+06    -87.5010E+06    -97.8472E+06    -4.19039E+06    -7.78156E+06         59.9519
            1998     6.27039E-03     185.828E-03     66.7682E-03    -15.6470E-03    -35.5571E-03    -25.6519E-03     64.6206E-03    -23.4046E-03    -417.944E-06     517.228E-03    -245.022E-03    -272.768E-03    -269.551E-03     514.010E-03    -245.022E-03     100.544E-03     12.0495E+06    -71.0507E+06    -89.5184E+06    -81.2048E+06    -79.3643E+06     12.0495E+06    -6.80483E+06         60.9435
            1999     7.03240E-03     185.997E-03     75.8463E-03    -19.0257E-03    -39.7160E-03    -32.6639E-03     72.9809E-03    -23.2125E-03    -22.2014E-03     533.776E-03    -247.918E-03    -286.044E-03    -282.265E-03     529.996E-03    -247.918E-03     111.019E-03     26.8889E+06    -52.6580E+06    -76.3515E+06    -73.6485E+06    -55.3611E+06     26.8889E+06    -5.38933E+06         62.3272
            2000     7.78428E-03     186.189E-03     84.8129E-03    -23.8820E-03    -44.8983E-03    -42.3919E-03     82.6578E-03    -24.2333E-03    -24.4660E-03     552.510E-03    -251.651E-03    -300.850E-03    -296.717E-03     548.378E-03    -251.651E-03     118.434E-03     40.1337E+06    -28.5816E+06    -68.1474E+06    -66.9866E+06    -29.7424E+06     40.1337E+06    -5.08243E+06         64.3801
            2001     8.52543E-03     186.389E-03     90.2490E-03    -25.9827E-03    -48.2821E-03    -46.8770E-03     88.8439E-03    -25.9827E-03    -17.2970E-03     571.865E-03    -256.299E-03    -316.034E-03    -311.811E-03     567.642E-03    -256.299E-03     122.127E-03     51.7350E+06    -1.46114E+06    -58.6689E+06    -57.7021E+06    -2.42793E+06     51.7350E+06    -6.92087E+06         67.4635
            2002     9.25583E-03     186.603E-03     82.4578E-03    -27.3290E-03    -38.4019E-03    -37.0906E-03     81.1465E-03    -27.3290E-03    -13.0726E-03     590.360E-03    -261.082E-03    -329.936E-03    -325.811E-03     586.235E-03    -261.082E-03     122.902E-03     63.2152E+06     33.3762E+06    -47.7514E+06    -46.5348E+06     32.1595E+06     63.2152E+06    -9.17584E+06         71.7039
            2003     9.97727E-03     186.803E-03     61.0928E-03    -17.7908E-03    -28.3312E-03    -16.7664E-03     58.9996E-03    -27.2623E-03    -4.19345E-03     607.224E-03    -265.871E-03    -342.058E-03    -338.186E-03     603.352E-03    -265.871E-03     120.946E-03     68.9723E+06     57.8400E+06    -39.9752E+06    -38.5118E+06     56.3766E+06     68.9723E+06    -11.6348E+06         77.0247
            2004     10.6902E-03     187.016E-03     37.8835E-03     2.99824E-03    -25.5838E-03     6.32637E-03     34.5554E-03    -25.5838E-03    -8.23844E-03     621.788E-03    -270.981E-03    -351.522E-03    -347.870E-03     618.135E-03    -270.981E-03     119.001E-03     68.1887E+06     50.7436E+06    -33.9649E+06    -31.6423E+06     48.4210E+06     68.1887E+06    -13.4884E+06         83.3513
            2005     11.3972E-03     187.218E-03     27.0648E-03     7.58177E-03    -22.9594E-03     17.7845E-03     16.8621E-03    -22.9594E-03    -3.87112E-03     633.499E-03    -275.832E-03    -357.645E-03    -354.199E-03     630.052E-03    -275.832E-03     116.624E-03     72.9070E+06     39.6536E+06    -27.7828E+06    -24.9067E+06     36.7774E+06     72.9070E+06    -13.5941E+06         89.9366
            2006     12.1006E-03     187.427E-03     33.9823E-03    -4.37687E-03    -20.4415E-03     15.3358E-03     14.2697E-03    -20.4415E-03    -6.31864E-03     642.903E-03    -280.456E-03    -362.121E-03    -358.230E-03     639.013E-03    -280.456E-03     124.449E-03     90.6033E+06     51.5832E+06    -20.6559E+06    -18.6029E+06     49.5302E+06     90.6033E+06    -11.5287E+06         95.4163
            2007     12.8006E-03     187.669E-03     36.8244E-03    -8.76492E-03    -18.6919E-03     5.71921E-03     22.3402E-03    -18.6919E-03    -3.12531E-03     647.699E-03    -285.261E-03    -362.293E-03    -358.506E-03     643.912E-03    -285.261E-03     122.919E-03     137.535E+06     85.2455E+06    -12.6358E+06    -11.1976E+06     83.8072E+06     137.535E+06    -7.31439E+06         99.2061
            2008     786.008E-06     187.262E-03     144.698E-03    -43.9818E-03    -72.3874E-03    -44.2373E-03     140.854E-03    -68.2885E-03    -16.7000E-03     486.182E-03    -242.580E-03    -243.494E-03    -242.894E-03     486.156E-03    -243.154E-03     7.19835E-03    -114.550E+06    -121.640E+06    -203.181E+06    -121.285E+06    -201.530E+06    -116.556E+06     4.64218E+06         58.5380
            2009     1.57154E-03     187.075E-03     117.991E-03    -42.3630E-03    -56.8417E-03    -45.9245E-03     115.111E-03    -50.4002E-03    -30.2428E-03     484.480E-03    -241.872E-03    -242.468E-03    -242.115E-03     484.365E-03    -242.110E-03     16.9019E-03    -104.749E+06    -119.507E+06    -186.561E+06    -122.823E+06    -183.245E+06    -104.749E+06     7.37753E+06         58.4806
            2010     2.35802E-03     187.006E-03     83.1213E-03    -22.0820E-03    -46.1397E-03    -20.3275E-03     79.0242E-03    -43.7972E-03    -11.4488E-03     482.922E-03    -240.961E-03    -242.245E-03    -241.217E-03     482.627E-03    -241.693E-03     28.4066E-03    -90.5656E+06    -118.778E+06    -168.489E+06    -123.397E+06    -163.870E+06    -90.5656E+06     4.76201E+06         58.4621
            2011     3.14502E-03     187.013E-03     59.0771E-03    -9.06500E-03    -35.0105E-03     2.76307E-03     47.2490E-03    -35.0105E-03     4.64557E-03     483.255E-03    -240.309E-03    -242.687E-03    -241.351E-03     482.680E-03    -241.069E-03     40.1748E-03    -73.1905E+06    -117.008E+06    -154.863E+06    -123.148E+06    -148.723E+06    -73.1905E+06     2.25816E+06         58.5707
            2012     3.93259E-03     187.058E-03     47.8698E-03    -7.47631E-03    -26.6742E-03     11.3048E-03     29.0887E-03    -26.6742E-03     1.29403E-03     484.854E-03    -240.590E-03    -243.845E-03    -242.580E-03     483.855E-03    -240.857E-03     53.2317E-03    -53.6861E+06    -114.521E+06    -139.579E+06    -119.964E+06    -134.136E+06    -53.6861E+06     199.155E+03         58.8504
            2013     4.71903E-03     187.144E-03     38.9411E-03    -3.17689E-03    -20.6859E-03     8.21954E-03     27.5447E-03    -20.6859E-03    -7.34667E-03     488.426E-03    -241.199E-03    -247.293E-03    -245.700E-03     486.833E-03    -241.199E-03     67.8600E-03    -34.6134E+06    -104.416E+06    -123.585E+06    -112.802E+06    -115.199E+06    -34.6134E+06    -2.14828E+06         59.3321
            2014     5.50231E-03     187.278E-03     47.5811E-03    -10.4005E-03    -23.8266E-03    -11.8846E-03     43.3164E-03    -18.0778E-03    -26.1528E-03     496.317E-03    -242.140E-03    -254.164E-03    -251.851E-03     494.004E-03    -242.140E-03     82.8753E-03    -14.8262E+06    -90.5511E+06    -107.426E+06    -102.959E+06    -95.0178E+06    -14.8262E+06    -3.39481E+06         60.0451
            2015     6.27939E-03     187.427E-03     63.8092E-03    -18.5754E-03    -33.1194E-03    -30.0671E-03     60.7569E-03    -18.5754E-03    -30.7936E-03     507.937E-03    -243.832E-03    -264.426E-03    -261.345E-03     504.856E-03    -243.832E-03     97.1873E-03     4.08224E+06    -75.6580E+06    -93.6037E+06    -92.2302E+06    -77.0316E+06     4.08224E+06    -4.72551E+06         61.0566
            2016     7.04947E-03     187.618E-03     74.9156E-03    -20.4252E-03    -41.1662E-03    -39.6404E-03     73.3898E-03    -20.4252E-03    -24.9260E-03     523.980E-03    -245.900E-03    -278.454E-03    -274.670E-03     520.195E-03    -245.900E-03     109.896E-03     20.9478E+06    -52.1080E+06    -81.4793E+06    -79.7934E+06    -53.7940E+06     20.9478E+06    -5.63701E+06         62.5200
            2017     7.80746E-03     187.809E-03     82.0086E-03    -22.4394E-03    -47.3695E-03    -46.1108E-03     80.7498E-03    -22.4394E-03    -2.14174E-03     543.966E-03    -248.945E-03    -294.824E-03    -290.553E-03     539.696E-03    -248.945E-03     119.392E-03     37.0950E+06    -23.7185E+06    -67.0046E+06    -65.4648E+06    -25.2583E+06     37.0950E+06    -6.54134E+06         64.7099
            2018     8.55439E-03     188.029E-03     77.8884E-03    -23.8350E-03    -43.1197E-03    -42.4228E-03     77.1915E-03    -23.8350E-03     9.80237E-03     565.995E-03    -252.933E-03    -312.500E-03    -308.078E-03     561.574E-03    -252.933E-03     124.323E-03     50.5550E+06     6.20068E+06    -54.5046E+06    -53.1010E+06     4.79700E+06     50.5550E+06    -8.91465E+06         67.9508
            2019     9.28725E-03     188.265E-03     63.5029E-03    -22.1439E-03    -31.0673E-03    -28.7804E-03     62.9666E-03    -23.8945E-03    -101.633E-06     588.389E-03    -258.034E-03    -331.148E-03    -326.902E-03     584.143E-03    -258.034E-03     124.625E-03     61.8032E+06     42.4476E+06    -45.0613E+06    -43.4981E+06     40.8843E+06     61.8032E+06    -11.1101E+06         72.3252
            2020     10.0059E-03     188.512E-03     48.6281E-03    -16.9212E-03    -23.5712E-03    -16.0194E-03     46.8540E-03    -22.6989E-03    -2.27930E-03     609.852E-03    -263.297E-03    -347.401E-03    -343.559E-03     606.011E-03    -263.297E-03     120.930E-03     67.6127E+06     61.2827E+06    -35.8608E+06    -34.5311E+06     59.9530E+06     67.6127E+06    -11.0036E+06         77.7261
            2021     10.7134E-03     188.758E-03     40.4505E-03    -7.42189E-03    -22.6179E-03    -6.27655E-03     37.5782E-03    -20.8909E-03    -10.2086E-03     628.437E-03    -268.580E-03    -359.291E-03    -355.861E-03     625.007E-03    -268.580E-03     116.106E-03     66.8873E+06     52.4205E+06    -28.6415E+06    -27.1401E+06     50.9191E+06     66.8873E+06    -10.5653E+06         84.0732
            2022     11.4138E-03     188.998E-03     40.4166E-03    -3.91573E-03    -24.5175E-03    -7.23220E-03     38.4329E-03    -19.2173E-03    -2.79161E-03     641.751E-03    -274.565E-03    -366.694E-03    -363.605E-03     638.662E-03    -274.565E-03     111.288E-03     71.7442E+06     44.4146E+06    -24.7205E+06    -21.8122E+06     41.5063E+06     71.7442E+06    -13.3021E+06         90.6394
            2023     12.1096E-03     189.225E-03     43.1644E-03    -10.1924E-03    -23.7999E-03    -15.1082E-03     42.4852E-03    -18.2049E-03     11.6637E-03     649.372E-03    -280.226E-03    -369.521E-03    -366.007E-03     645.858E-03    -280.226E-03     118.945E-03     89.1994E+06     46.6994E+06    -18.7375E+06    -15.2063E+06     43.1682E+06     89.1994E+06    -13.7870E+06         96.0884
            2024     12.8047E-03     189.477E-03     40.9202E-03    -12.3686E-03    -19.5452E-03    -11.4598E-03     37.9895E-03    -17.5233E-03     10.6084E-03     651.460E-03    -285.150E-03    -366.656E-03    -363.084E-03     647.889E-03    -285.150E-03     120.035E-03     137.160E+06     70.5621E+06    -9.14345E+06    -6.36466E+06     67.7833E+06     137.160E+06    -7.01282E+06         99.8541
            2025     778.403E-06     188.898E-03     160.234E-03    -53.1691E-03    -86.4447E-03    -51.1568E-03     158.221E-03    -86.4447E-03    -35.9305E-03     499.359E-03    -248.762E-03    -250.562E-03    -248.867E-03     499.352E-03    -250.450E-03     3.10344E-03    -175.621E+06    -200.843E+06    -245.891E+06    -202.010E+06    -220.128E+06    -200.218E+06     5.76334E+06         59.4995
            2026     1.56078E-03     188.713E-03     137.104E-03    -55.5553E-03    -65.8115E-03    -49.7738E-03     131.323E-03    -65.8115E-03    -52.9709E-03     495.528E-03    -247.133E-03    -248.484E-03    -247.200E-03     495.483E-03    -248.372E-03     10.0539E-03    -156.623E+06    -170.031E+06    -208.888E+06    -176.849E+06    -197.707E+06    -160.986E+06     9.67415E+06         59.3388
            2027     2.34461E-03     188.642E-03     105.215E-03    -32.5010E-03    -56.6184E-03    -24.3040E-03     97.0179E-03    -56.6184E-03    -64.8618E-03     491.191E-03    -244.322E-03    -247.093E-03    -244.179E-03     491.049E-03    -247.093E-03     19.0008E-03    -124.609E+06    -149.115E+06    -180.296E+06    -157.847E+06    -171.564E+06    -124.609E+06     12.6447E+06         59.2042
            2028     3.13073E-03     188.634E-03     72.1355E-03    -10.6097E-03    -45.4165E-03     1.72646E-03     59.7993E-03    -45.4165E-03    -51.3783E-03     487.602E-03    -241.804E-03    -245.712E-03    -241.469E-03     487.267E-03    -245.712E-03     29.9361E-03    -89.9913E+06    -131.820E+06    -160.009E+06    -143.185E+06    -148.644E+06    -89.9913E+06     13.2314E+06         59.1878
            2029     3.91790E-03     188.691E-03     50.0515E-03    -1.36698E-03    -34.9107E-03     13.9168E-03     34.7677E-03    -34.9107E-03    -40.1004E-03     485.826E-03    -241.237E-03    -244.847E-03    -240.710E-03     485.165E-03    -244.713E-03     42.9466E-03    -62.1936E+06    -118.619E+06    -140.548E+06    -130.313E+06    -128.854E+06    -62.1936E+06     10.7123E+06         59.3733
            2030     4.70534E-03     188.777E-03     40.5015E-03     2.80329E-03    -27.1001E-03     14.0787E-03     29.2261E-03    -27.1001E-03    -13.4983E-03     487.468E-03    -242.411E-03    -245.261E-03    -242.513E-03     486.306E-03    -243.997E-03     57.5195E-03    -40.5452E+06    -103.746E+06    -126.285E+06    -120.970E+06    -109.062E+06    -40.5452E+06     6.38080E+06         59.7929
            2031     5.49193E-03     188.915E-03     43.8745E-03    -6.20569E-03    -24.2077E-03     1.65860E-03     34.2800E-03    -22.4775E-03    -2.94839E-03     493.176E-03    -243.711E-03    -249.300E-03    -247.303E-03     491.365E-03    -243.897E-03     72.6969E-03    -22.8725E+06    -84.7005E+06    -115.203E+06    -113.618E+06    -86.2852E+06    -22.8725E+06     390.780E+03         60.4847
            2032     6.27441E-03     189.070E-03     52.1991E-03    -17.2270E-03    -23.0305E-03    -13.1267E-03     45.6641E-03    -20.5959E-03     3.93593E-03     502.686E-03    -244.739E-03    -258.276E-03    -255.757E-03     500.166E-03    -244.739E-03     86.9629E-03    -5.69703E+06    -64.4373E+06    -104.228E+06    -102.501E+06    -66.1641E+06    -5.69703E+06    -6.64920E+06         61.5425
            2033     7.04866E-03     189.276E-03     57.8780E-03    -17.4722E-03    -24.3838E-03    -19.4482E-03     55.5733E-03    -20.1031E-03     2.12853E-03     517.016E-03    -246.141E-03    -271.360E-03    -268.156E-03     513.813E-03    -246.141E-03     99.9325E-03     10.8617E+06    -39.1307E+06    -93.5531E+06    -88.9621E+06    -43.7218E+06     10.8617E+06    -14.9841E+06         63.0873
            2034     7.81377E-03     189.502E-03     53.8647E-03    -14.1827E-03    -25.9028E-03    -19.2670E-03     52.8069E-03    -19.7606E-03     529.536E-06     536.733E-03    -248.534E-03    -287.887E-03    -284.195E-03     533.041E-03    -248.534E-03     109.850E-03     26.3579E+06    -11.5954E+06    -81.4112E+06    -73.1909E+06    -19.8157E+06     26.3579E+06    -21.8269E+06         65.3633
            2035     8.56455E-03     189.749E-03     48.9351E-03    -15.9568E-03    -23.0909E-03    -12.1007E-03     40.8919E-03    -18.9038E-03    -11.0863E-03     559.735E-03    -252.205E-03    -307.114E-03    -303.248E-03     555.869E-03    -252.205E-03     115.265E-03     41.2489E+06     15.7431E+06    -63.8058E+06    -54.8668E+06     6.80412E+06     41.2489E+06    -22.6064E+06         68.6965
            2036     9.30071E-03     190.006E-03     43.7904E-03    -15.7891E-03    -20.3420E-03    -7.30483E-03     32.5038E-03    -17.5396E-03    -32.9033E-03     584.481E-03    -257.219E-03    -328.505E-03    -324.812E-03     580.788E-03    -257.219E-03     115.562E-03     54.0363E+06     40.7350E+06    -44.6322E+06    -38.8150E+06     34.9178E+06     54.0363E+06    -18.7944E+06         73.1488
            2037     10.0205E-03     190.266E-03     40.5627E-03    -14.4817E-03    -19.7197E-03    -11.1297E-03     33.8092E-03    -16.3182E-03    -34.1498E-03     609.338E-03    -262.034E-03    -347.574E-03    -344.269E-03     606.032E-03    -262.034E-03     111.930E-03     61.3443E+06     54.1940E+06    -29.6555E+06    -27.3096E+06     52.1245E+06     61.0680E+06    -12.7885E+06         78.5856
            2038     10.7258E-03     190.509E-03     46.2043E-03    -15.0195E-03    -19.5613E-03    -15.2344E-03     42.4719E-03    -15.6139E-03    -29.1523E-03     630.828E-03    -267.240E-03    -362.131E-03    -359.199E-03     627.897E-03    -267.240E-03     107.490E-03     67.1563E+06     52.4557E+06    -20.2834E+06    -18.8583E+06     51.3069E+06     66.8799E+06    -9.55499E+06         84.9020
            2039     11.4211E-03     190.760E-03     50.1469E-03    -13.8709E-03    -20.5368E-03    -16.9886E-03     47.9645E-03    -15.2366E-03    -11.5671E-03     645.503E-03    -274.018E-03    -370.679E-03    -368.066E-03     642.891E-03    -274.018E-03     102.758E-03     76.1922E+06     47.3717E+06    -15.7520E+06    -13.2754E+06     44.8951E+06     76.1922E+06    -8.36065E+06         91.3693
            2040     12.1120E-03     191.024E-03     45.2858E-03    -12.0552E-03    -20.4980E-03    -16.3768E-03     44.0124E-03    -14.9030E-03     4.23006E-03     651.240E-03    -280.289E-03    -371.498E-03    -368.531E-03     648.273E-03    -280.289E-03     109.448E-03     91.1162E+06     43.1983E+06    -14.0119E+06    -11.1372E+06     40.3236E+06     91.1162E+06    -7.73529E+06         96.7115
            2041     12.8068E-03     191.291E-03     39.5550E-03    -9.44042E-03    -18.6887E-03    -12.9049E-03     38.7392E-03    -14.4084E-03    -2.07266E-03     650.247E-03    -285.236E-03    -365.664E-03    -362.551E-03     647.135E-03    -285.236E-03     111.949E-03     137.714E+06     59.0932E+06    -9.55381E+06    -7.04543E+06     56.5848E+06     137.714E+06    -4.95131E+06         100.394
            2042     772.409E-06     190.560E-03     96.8953E-03    -22.3822E-03    -56.0160E-03    -3.71784E-03     76.2484E-03    -54.0335E-03    -42.9282E-03     517.284E-03    -257.737E-03    -259.518E-03    -257.731E-03     517.278E-03    -259.518E-03    -1.67714E-03    -206.279E+06    -283.347E+06    -292.799E+06    -289.683E+06    -208.116E+06    -284.626E+06    -10.0656E+06         60.9350
            2043     1.54726E-03     190.384E-03     85.8334E-03    -31.6570E-03    -36.6901E-03    -27.5885E-03     78.9509E-03    -33.8761E-03    -50.2442E-03     510.410E-03    -253.914E-03    -256.604E-03    -253.898E-03     510.394E-03    -256.604E-03     355.635E-06    -187.704E+06    -253.356E+06    -270.001E+06    -265.033E+06    -193.282E+06    -252.746E+06    -16.1711E+06         60.6293
            2044     2.32591E-03     190.306E-03     80.0438E-03    -27.8769E-03    -34.1806E-03    -22.0851E-03     73.4204E-03    -33.3490E-03    -44.9427E-03     502.787E-03    -248.555E-03    -254.511E-03    -248.519E-03     502.751E-03    -254.511E-03     5.92216E-03    -153.299E+06    -219.888E+06    -244.441E+06    -234.184E+06    -172.202E+06    -211.242E+06    -15.9962E+06         60.3583
            2045     3.10951E-03     190.291E-03     72.3080E-03    -16.1991E-03    -39.1811E-03    -18.1434E-03     65.6683E-03    -30.5972E-03    -15.1597E-03     495.931E-03    -243.880E-03    -252.631E-03    -243.764E-03     495.814E-03    -252.631E-03     15.4457E-03    -119.779E+06    -178.022E+06    -215.278E+06    -200.812E+06    -150.686E+06    -161.580E+06    -13.1210E+06         60.2080
            2046     3.89720E-03     190.332E-03     65.6385E-03    -7.69405E-03    -44.4233E-03    -16.6524E-03     57.6417E-03    -27.4682E-03     16.8079E-03     491.723E-03    -241.833E-03    -250.660E-03    -241.521E-03     491.411E-03    -250.660E-03     27.7584E-03    -92.5198E+06    -137.916E+06    -182.576E+06    -168.820E+06    -129.541E+06    -114.650E+06    -10.9524E+06         60.2743
            2047     4.68404E-03     190.415E-03     60.3169E-03    -4.94544E-03    -39.1821E-03    -9.02729E-03     49.3788E-03    -24.1621E-03     45.7169E-03     492.137E-03    -243.477E-03    -248.807E-03    -242.828E-03     491.488E-03    -248.807E-03     41.7302E-03    -66.4917E+06    -102.388E+06    -149.755E+06    -139.051E+06    -105.755E+06    -73.8290E+06    -9.94993E+06         60.6278
            2048     5.46849E-03     190.570E-03     56.9648E-03    -8.89281E-03    -35.2541E-03    -12.1521E-03     46.3182E-03    -21.3482E-03     49.0215E-03     496.390E-03    -246.841E-03    -249.646E-03    -247.171E-03     495.297E-03    -248.223E-03     55.5044E-03    -39.0951E+06    -69.5480E+06    -120.578E+06    -111.394E+06    -78.7317E+06    -39.0951E+06    -10.8940E+06         61.2861
            2049     6.24945E-03     190.741E-03     52.6474E-03    -16.2807E-03    -27.3227E-03    -17.8289E-03     46.8952E-03    -20.0223E-03     35.9538E-03     505.168E-03    -248.757E-03    -256.152E-03    -254.577E-03     503.592E-03    -248.757E-03     67.9450E-03    -11.7979E+06    -44.3444E+06    -96.2872E+06    -88.4869E+06    -52.1446E+06    -11.7979E+06    -14.2714E+06         62.3206
            2050     7.02332E-03     190.969E-03     46.4674E-03    -14.6782E-03    -19.1893E-03    -9.77665E-03     41.5226E-03    -19.1461E-03     3.75618E-03     517.950E-03    -249.957E-03    -267.895E-03    -265.871E-03     515.926E-03    -249.957E-03     78.3936E-03     10.8356E+06    -16.3287E+06    -78.9564E+06    -70.7878E+06    -24.4973E+06     10.8356E+06    -20.4035E+06         63.8614
            2051     7.78878E-03     191.208E-03     37.9944E-03    -8.72196E-03    -17.6467E-03    -982.542E-06     30.2550E-03    -17.6467E-03    -25.6314E-03     535.081E-03    -252.355E-03    -282.972E-03    -280.639E-03     532.748E-03    -252.355E-03     85.7681E-03     27.0583E+06     8.66232E+06    -69.3698E+06    -57.5616E+06    -3.14587E+06     27.0583E+06    -27.7406E+06         66.1657
            2052     8.54141E-03     191.508E-03     35.4525E-03    -7.58430E-03    -16.7015E-03     5.13048E-03     21.6658E-03    -15.6295E-03    -36.8105E-03     555.682E-03    -255.539E-03    -300.086E-03    -297.621E-03     553.217E-03    -255.539E-03     90.2757E-03     35.0892E+06     20.1401E+06    -61.7631E+06    -48.1256E+06     6.50258E+06     35.0892E+06    -30.4993E+06         69.5274
            2053     9.27776E-03     191.819E-03     35.7489E-03    -8.40764E-03    -15.8723E-03     2.00624E-03     23.0820E-03    -13.6192E-03    -34.8499E-03     577.975E-03    -259.697E-03    -319.546E-03    -317.105E-03     575.534E-03    -259.697E-03     92.4005E-03     41.6633E+06     28.4207E+06    -51.2867E+06    -41.2838E+06     18.4179E+06     41.6633E+06    -25.8853E+06         73.9661
            2054     10.0002E-03     192.119E-03     37.3816E-03    -10.2575E-03    -17.9423E-03    -9.54103E-03     30.9762E-03    -12.2534E-03    -15.9463E-03     602.391E-03    -264.159E-03    -338.463E-03    -336.162E-03     600.090E-03    -264.159E-03     92.2850E-03     50.9072E+06     43.6320E+06    -40.9023E+06    -35.0333E+06     38.0394E+06     50.6308E+06    -20.5755E+06         79.3463
            2055     10.7091E-03     192.418E-03     38.7069E-03    -10.9376E-03    -17.9016E-03    -13.1634E-03     34.4771E-03    -11.4460E-03    -3.03752E-03     624.183E-03    -269.200E-03    -354.317E-03    -352.147E-03     622.013E-03    -269.200E-03     91.6723E-03     62.0920E+06     46.4514E+06    -32.1767E+06    -28.4324E+06     42.9835E+06     61.8157E+06    -15.8246E+06         85.5542
            2056     11.4083E-03     192.682E-03     37.0199E-03    -9.34881E-03    -17.4553E-03    -11.4525E-03     32.3827E-03    -10.7145E-03     6.87746E-03     639.662E-03    -275.356E-03    -364.462E-03    -362.451E-03     637.650E-03    -275.356E-03     89.4076E-03     68.8520E+06     36.5152E+06    -26.5565E+06    -23.6825E+06     33.6413E+06     68.8520E+06    -9.49061E+06         91.8699
            2057     12.1045E-03     192.907E-03     34.8116E-03    -7.24257E-03    -21.2668E-03    -13.9639E-03     30.3565E-03    -10.0904E-03     14.5969E-03     646.436E-03    -281.022E-03    -365.823E-03    -363.526E-03     644.139E-03    -281.022E-03     95.6647E-03     85.5560E+06     34.7502E+06    -19.0710E+06    -17.3657E+06     33.0449E+06     85.5560E+06    -4.57932E+06         97.0873
            2058     12.7998E-03     193.115E-03     27.9895E-03    -4.56927E-03    -18.1323E-03    -11.0773E-03     25.8556E-03    -9.49027E-03     6.84598E-03     642.564E-03    -285.647E-03    -357.586E-03    -354.986E-03     639.965E-03    -285.647E-03     101.726E-03     141.981E+06     54.2631E+06    -5.65268E+06    -4.40954E+06     53.0200E+06     141.981E+06    -2.82300E+06         100.744
            2059     760.384E-06     192.326E-03     100.854E-03     21.2815E-03    -102.677E-03     80.2845E-03    -74.2516E-03     13.4259E-03     10.9928E-03     543.393E-03    -270.446E-03    -272.680E-03    -270.426E-03     543.373E-03    -272.680E-03    -6.98780E-03    -143.977E+06    -229.722E+06    -242.752E+06    -237.128E+06    -149.601E+06    -229.722E+06    -19.2828E+06         63.2115
            2060     1.52708E-03     192.078E-03     53.4473E-03     15.2292E-03    -47.6192E-03     13.2045E-03    -24.9039E-03     32.7566E-03    -9.39174E-03     533.864E-03    -264.877E-03    -268.576E-03    -264.815E-03     533.802E-03    -268.576E-03    -12.3000E-03    -135.046E+06    -231.489E+06    -256.719E+06    -244.752E+06    -147.013E+06    -231.489E+06    -34.2328E+06         62.7747
            2061     2.30141E-03     192.003E-03     42.9270E-03     5.14794E-03    -25.4984E-03    -10.5450E-03     14.2628E-03     18.8586E-03    -12.9549E-03     522.207E-03    -256.781E-03    -265.548E-03    -256.694E-03     522.120E-03    -265.548E-03    -12.3070E-03    -119.612E+06    -219.295E+06    -259.658E+06    -241.461E+06    -137.809E+06    -219.295E+06    -45.8098E+06         62.3981
            2062     3.08087E-03     191.949E-03     50.7745E-03     6.07571E-03    -33.0695E-03    -30.3226E-03     46.0060E-03     8.09738E-03     8.41095E-03     512.238E-03    -250.160E-03    -262.756E-03    -250.082E-03     512.160E-03    -262.756E-03    -6.48375E-03    -105.335E+06    -191.828E+06    -250.618E+06    -225.754E+06    -130.199E+06    -191.828E+06    -53.2983E+06         62.1638
            2063     3.86172E-03     191.989E-03     73.5827E-03    -1.15922E-03    -54.2416E-03    -48.9060E-03     68.2472E-03    -1.15922E-03     24.4540E-03     505.509E-03    -246.875E-03    -259.662E-03    -246.784E-03     505.418E-03    -259.662E-03     2.49654E-03    -90.0386E+06    -155.903E+06    -230.522E+06    -200.901E+06    -119.660E+06    -155.903E+06    -56.2115E+06         62.1238
            2064     4.64586E-03     192.072E-03     86.6791E-03    -8.90264E-03    -61.7629E-03    -54.0989E-03     79.0151E-03    -8.90264E-03     33.5512E-03     503.758E-03    -247.293E-03    -257.016E-03    -247.113E-03     503.578E-03    -257.016E-03     13.1465E-03    -67.1155E+06    -118.716E+06    -202.816E+06    -170.701E+06    -99.6120E+06    -118.335E+06    -57.1370E+06         62.3352
            2065     5.42527E-03     192.226E-03     81.0966E-03    -14.2651E-03    -51.1650E-03    -45.9628E-03     75.8944E-03    -14.2651E-03     24.1136E-03     507.564E-03    -251.162E-03    -256.799E-03    -250.878E-03     507.229E-03    -256.748E-03     22.9287E-03    -40.1658E+06    -87.7341E+06    -173.905E+06    -140.324E+06    -77.8662E+06    -83.6153E+06    -56.4423E+06         62.8499
            2066     6.20163E-03     192.417E-03     59.1039E-03    -15.9822E-03    -30.2560E-03    -27.8546E-03     57.4579E-03    -16.7377E-03     8.46712E-03     515.697E-03    -255.749E-03    -260.169E-03    -257.904E-03     515.169E-03    -257.486E-03     31.1646E-03    -10.4940E+06    -63.3391E+06    -146.077E+06    -112.909E+06    -53.9992E+06    -53.0020E+06    -55.0246E+06         63.6973
            2067     6.96899E-03     192.663E-03     37.2987E-03    -9.95566E-03    -16.2140E-03    -5.22283E-03     32.5659E-03    -16.2140E-03    -13.3330E-03     526.434E-03    -258.138E-03    -268.283E-03    -267.600E-03     525.752E-03    -258.138E-03     36.7502E-03     13.8423E+06    -34.8362E+06    -117.532E+06    -88.7540E+06    -25.9205E+06    -23.8519E+06    -51.2107E+06         65.0441
            2068     7.72638E-03     192.938E-03     28.1183E-03    -5.63961E-03    -13.5822E-03     6.45658E-03     16.0221E-03    -13.5822E-03    -18.5833E-03     539.816E-03    -260.740E-03    -279.385E-03    -278.614E-03     539.045E-03    -260.740E-03     40.9944E-03     27.7750E+06    -6.13673E+06    -94.0241E+06    -72.0374E+06    -2.95770E+06     2.60923E+06    -44.4831E+06         67.2349
            2069     8.47191E-03     193.271E-03     24.0156E-03    -4.75767E-03    -11.2388E-03     5.26194E-03     13.1703E-03    -10.4131E-03    -4.75959E-03     555.034E-03    -263.763E-03    -291.163E-03    -290.317E-03     554.187E-03    -263.763E-03     45.7989E-03     31.7082E+06     11.5241E+06    -80.9173E+06    -61.9624E+06     1.92637E+06     22.3511E+06    -39.2918E+06         70.4515
            2070     9.21093E-03     193.617E-03     22.5967E-03    -2.61154E-03    -13.8485E-03    -2.95995E-03     16.9196E-03    -7.82306E-03     9.95616E-03     570.607E-03    -266.908E-03    -304.152E-03    -303.222E-03     569.677E-03    -266.908E-03     50.5054E-03     36.2735E+06     18.0127E+06    -67.6029E+06    -51.0926E+06     1.50242E+06     36.2735E+06    -32.7573E+06         74.6468
            2071     9.93831E-03     193.992E-03     23.1724E-03    -4.01669E-03    -15.7190E-03    -7.71572E-03     17.1650E-03    -6.01259E-03     20.3304E-03     587.989E-03    -270.831E-03    -317.752E-03    -316.741E-03     586.978E-03    -270.831E-03     55.5786E-03     55.0681E+06     34.2431E+06    -49.4982E+06    -40.0318E+06     24.7767E+06     55.0681E+06    -24.7175E+06         79.7325
            2072     10.6569E-03     194.335E-03     18.0681E-03    -4.70875E-03    -13.6793E-03    -9.06347E-03     13.4523E-03    -4.70875E-03     17.6721E-03     605.113E-03    -274.833E-03    -330.679E-03    -329.579E-03     604.013E-03    -274.833E-03     61.1001E-03     64.8150E+06     31.9247E+06    -37.2980E+06    -31.7852E+06     26.4119E+06     64.8150E+06    -16.4234E+06         85.6281
            2073     11.3693E-03     194.632E-03     16.6304E-03    -4.20701E-03    -13.8607E-03    -9.87414E-03     12.2509E-03    -3.81406E-03     19.3685E-03     618.917E-03    -279.342E-03    -340.171E-03    -338.986E-03     617.733E-03    -279.342E-03     66.0178E-03     68.4742E+06     25.5312E+06    -27.7642E+06    -23.6676E+06     21.4345E+06     68.4742E+06    -8.31339E+06         91.7570
            2074     12.0742E-03     194.877E-03     19.1407E-03    -3.65642E-03    -19.5628E-03    -10.3216E-03     9.50658E-03    -3.26346E-03     17.4971E-03     626.237E-03    -283.367E-03    -343.171E-03    -341.565E-03     624.630E-03    -283.367E-03     77.9437E-03      89.056E+06     31.2614E+06    -20.7908E+06    -17.1560E+06     27.6266E+06      89.056E+06    -8.16737E+06         97.0272
            2075     12.7868E-03     195.061E-03     13.0603E-03     227.832E-06    -14.8446E-03    -3.61652E-03     4.76280E-03    -2.70268E-03     3.09987E-03     622.071E-03    -286.681E-03    -335.954E-03    -333.843E-03     619.960E-03    -286.681E-03     89.6228E-03     145.435E+06     45.5696E+06    -9.02693E+06    -5.85041E+06     42.3931E+06     145.435E+06    -6.30159E+06         100.845
            2076     750.496E-06     194.094E-03     151.302E-03     29.0248E-03    -164.597E-03     74.7434E-03    -15.0751E-03    -43.9384E-03    -14.9485E-03     577.799E-03    -286.263E-03    -291.238E-03    -286.155E-03     577.692E-03    -291.238E-03    -16.9914E-03    -71.4523E+06    -105.014E+06    -127.207E+06    -109.824E+06    -92.4077E+06    -101.442E+06    -8.88876E+06         66.8500
            2077     1.50529E-03     193.838E-03     85.9157E-03     8.03468E-03    -70.4777E-03     6.74570E-03    -8.83520E-03     25.5621E-03    -62.1666E-03     564.880E-03    -279.905E-03    -284.791E-03    -279.695E-03     564.670E-03    -284.791E-03    -25.5294E-03    -71.7800E+06    -111.410E+06    -138.459E+06    -125.451E+06    -86.7501E+06    -109.448E+06    -20.9731E+06         66.4822
            2078     2.26476E-03     193.736E-03     65.6232E-03     6.13162E-03    -49.1651E-03    -12.0086E-03     14.0137E-03     20.5846E-03    -77.0842E-03     553.441E-03    -272.634E-03    -281.038E-03    -272.358E-03     553.165E-03    -281.038E-03    -29.6745E-03    -60.8172E+06    -110.142E+06    -154.942E+06    -136.414E+06    -79.3460E+06    -110.142E+06    -37.2093E+06         66.2245
            2079     3.03267E-03     193.683E-03     58.3591E-03     9.19327E-03    -43.3883E-03    -23.0170E-03     35.2239E-03     11.9572E-03    -63.4556E-03     544.511E-03    -267.279E-03    -277.901E-03    -266.933E-03     544.166E-03    -277.901E-03    -31.5870E-03    -47.3066E+06    -106.104E+06    -171.463E+06    -142.330E+06    -76.4394E+06    -106.104E+06    -52.5022E+06         66.0860
            2080     3.80547E-03     193.706E-03     58.5596E-03     3.38702E-03    -45.1248E-03    -37.3725E-03     50.8073E-03     3.38702E-03    -38.0828E-03     540.136E-03    -265.273E-03    -275.314E-03    -264.755E-03     539.618E-03    -275.314E-03    -34.8778E-03    -35.0228E+06    -99.3944E+06    -183.634E+06    -143.002E+06    -75.6551E+06    -99.3944E+06    -66.0696E+06         66.0308
            2081     4.57600E-03     193.786E-03     60.6795E-03    -1.63657E-03    -45.7092E-03    -38.8158E-03     56.1116E-03    -3.96196E-03    -13.1892E-03     539.399E-03    -265.305E-03    -273.615E-03    -264.397E-03     538.491E-03    -273.615E-03    -41.0547E-03    -24.1112E+06    -89.3813E+06    -187.542E+06    -138.213E+06    -73.4395E+06    -89.3813E+06    -74.5918E+06         66.0757
            2082     5.34593E-03     193.923E-03     58.2988E-03    -5.12353E-03    -34.0358E-03    -19.9410E-03     46.5294E-03    -7.44892E-03     9.14809E-03     540.042E-03    -265.667E-03    -273.778E-03    -264.120E-03     538.495E-03    -273.778E-03    -49.7873E-03    -11.1159E+06    -74.7624E+06    -182.601E+06    -130.936E+06    -62.7808E+06    -74.7624E+06    -78.1179E+06         66.2732
            2083     6.10740E-03     194.134E-03     44.4281E-03    -6.62531E-03    -22.3934E-03    -8.59895E-03     31.0164E-03    -7.00806E-03     17.0270E-03     541.685E-03    -266.523E-03    -275.147E-03    -264.751E-03     539.596E-03    -274.829E-03    -55.6922E-03     3.57760E+06    -54.8669E+06    -172.020E+06    -121.555E+06    -46.8876E+06    -54.8669E+06    -79.1743E+06         66.6340
            2084     6.86166E-03     194.374E-03     26.7311E-03    -310.765E-06    -16.0750E-03    -4.14113E-03     19.2187E-03    -4.73221E-03     8.72569E-03     544.927E-03    -266.256E-03    -278.175E-03    -266.677E-03     542.612E-03    -275.439E-03    -57.2762E-03     15.5955E+06    -33.1328E+06    -157.987E+06    -109.898E+06    -32.4940E+06    -33.1328E+06    -77.4487E+06         67.3725
            2085     7.60965E-03     194.664E-03     22.1526E-03     2.44396E-03    -15.9584E-03    -5.30715E-03     16.0972E-03    -2.15189E-03     6.28772E-03     548.384E-03    -265.497E-03    -283.353E-03    -268.840E-03     545.996E-03    -277.621E-03    -55.9740E-03     23.5853E+06    -11.4614E+06    -139.263E+06    -94.9447E+06    -20.7334E+06    -11.4614E+06    -70.8176E+06         68.9512
            2086     8.35186E-03     195.002E-03     21.0618E-03     312.774E-06    -15.2990E-03    -10.1932E-03     16.5132E-03    -244.380E-06     8.08510E-03     552.698E-03    -265.082E-03    -288.325E-03    -271.258E-03     550.478E-03    -279.929E-03    -50.1290E-03     24.7592E+06     8.42442E+06    -115.881E+06    -78.1786E+06    -16.1604E+06     11.6412E+06    -59.7759E+06         71.5754
            2087     9.08555E-03     195.379E-03     17.7750E-03     924.953E-06    -15.5913E-03    -10.0013E-03     12.1850E-03     924.953E-06     7.48870E-03     557.529E-03    -264.045E-03    -293.339E-03    -273.724E-03     555.860E-03    -281.990E-03    -38.4122E-03     28.8015E+06     13.3378E+06    -96.9677E+06    -64.8289E+06    -18.8010E+06     28.8015E+06    -49.9855E+06         75.1964
            2088     9.81759E-03     195.773E-03     11.4394E-03     1.87800E-03    -12.9816E-03    -6.10137E-03     4.55919E-03     1.87800E-03     7.06398E-03     562.056E-03    -263.571E-03    -298.559E-03    -276.906E-03     561.079E-03    -284.246E-03    -20.3297E-03     46.1528E+06     17.5343E+06    -77.2003E+06    -52.2205E+06    -7.44543E+06     46.1528E+06    -38.7652E+06         79.7561
            2089     10.5498E-03     196.161E-03     6.28676E-03     2.75837E-03    -10.7573E-03    -5.47974E-03     1.00925E-03     2.75837E-03     10.5168E-03     567.106E-03    -263.533E-03    -303.289E-03    -280.927E-03     566.644E-03    -285.432E-03     4.26016E-03     61.4163E+06     19.8612E+06    -57.1129E+06    -40.8451E+06     3.59339E+06     61.4163E+06    -28.4281E+06         85.1698
            2090     11.2824E-03     196.535E-03     7.83733E-03     3.21142E-03    -13.4151E-03    -3.71929E-03    -2.25140E-03     3.60437E-03     18.5332E-03     573.180E-03    -266.449E-03    -306.937E-03    -286.106E-03     572.720E-03    -286.820E-03     32.1597E-03     79.2583E+06     28.0951E+06    -43.6515E+06    -22.5570E+06     7.00067E+06     79.2583E+06    -24.9402E+06         91.1416
            2091     12.0223E-03     196.834E-03     10.3750E-03     4.08765E-03    -18.3984E-03    -1.38904E-03    -7.02739E-03     4.48060E-03     18.7827E-03     580.795E-03    -272.924E-03    -308.378E-03    -292.222E-03     579.659E-03    -287.944E-03     61.0468E-03     109.918E+06     35.3493E+06    -27.6205E+06    -2.66907E+06     10.3979E+06     109.918E+06    -11.4795E+06         96.7699
            2092     12.7595E-03     197.069E-03     9.74215E-03     5.17267E-03    -18.4643E-03     839.598E-06    -9.56176E-03     5.17267E-03     11.4231E-03     584.075E-03    -279.425E-03    -305.040E-03    -294.192E-03     582.309E-03    -288.508E-03     78.6776E-03     151.913E+06     42.8233E+06    -10.9208E+06     2.47315E+06     29.4294E+06     151.913E+06     727.808E+03         100.986
            2093     727.930E-06     195.962E-03     145.956E-03     26.8635E-03    -126.179E-03     52.5348E-03     113.746E-03    -119.640E-03    -19.8669E-03     594.457E-03    -290.700E-03    -303.582E-03    -299.924E-03     594.205E-03    -294.107E-03     4.25809E-03    -8.26591E+06    -16.5033E+06    -45.9036E+06    -16.8286E+06    -40.9135E+06    -12.9307E+06    -5.68100E+06         70.9735
            2094     1.47531E-03     195.693E-03     89.1245E-03    -17.9131E-03    -43.2865E-03    -7.08864E-03     59.8221E-03    -24.8085E-03    -30.8603E-03     597.926E-03    -294.240E-03    -303.537E-03    -300.398E-03     597.663E-03    -297.115E-03    -3.91177E-03    -7.10691E+06    -17.4349E+06    -48.1923E+06    -23.8605E+06    -33.4009E+06    -15.4727E+06    -11.7480E+06         71.0691
            2095     2.22381E-03     195.596E-03     72.2414E-03    -12.2542E-03    -41.4195E-03     1.05958E-03     32.7034E-03    -15.1953E-03    -28.8638E-03     606.359E-03    -295.466E-03    -310.969E-03    -307.121E-03     606.065E-03    -299.020E-03    -24.6947E-03    -987.285E+03    -11.7886E+06    -54.5079E+06    -27.4153E+06    -29.0045E+06    -10.8640E+06    -21.1297E+06         71.3051
            2096     2.97018E-03     195.535E-03     61.2202E-03    -7.80884E-03    -32.2230E-03     8.54997E-03     22.0989E-03    -9.46043E-03    -26.1743E-03     614.643E-03    -297.921E-03    -317.554E-03    -312.874E-03     613.591E-03    -301.550E-03    -57.5287E-03     9.38398E+06    -8.97911E+06    -65.1540E+06    -32.8699E+06    -27.1585E+06    -4.72067E+06    -29.2897E+06         71.5090
            2097     3.71090E-03     195.557E-03     44.8140E-03    -5.32907E-03    -26.5946E-03     9.11756E-03     9.44445E-03    -5.67163E-03    -8.91884E-03     621.870E-03    -301.199E-03    -320.202E-03    -314.193E-03     618.731E-03    -304.069E-03    -99.9031E-03     23.8704E+06    -9.46167E+06    -74.8125E+06    -36.0361E+06    -27.6006E+06     3.23289E+06    -37.3113E+06         71.5663
            2098     4.44821E-03     195.618E-03     35.4772E-03     125.637E-06    -26.4829E-03     19.7280E-03    -8.40828E-03    -2.19976E-03     2.01036E-03     624.166E-03    -304.289E-03    -318.793E-03    -309.911E-03     617.616E-03    -306.621E-03    -144.727E-03     31.1504E+06    -10.2792E+06    -83.2067E+06    -39.3813E+06    -32.7169E+06     9.76262E+06    -43.3407E+06         71.4917
            2099     5.17661E-03     195.746E-03     37.3828E-03     4.76021E-03    -28.6897E-03     31.2776E-03    -20.2591E-03     2.43481E-03     12.2701E-03     621.074E-03    -305.266E-03    -314.857E-03    -300.297E-03     610.234E-03    -308.986E-03    -186.292E-03     38.9174E+06    -6.50321E+06    -86.4780E+06    -39.7606E+06    -33.0236E+06     18.7203E+06    -46.6557E+06         71.3122
            2100     5.90405E-03     195.931E-03     35.5382E-03     6.79146E-03    -33.5043E-03     22.8589E-03    -20.8249E-03     6.79146E-03     10.7061E-03     614.279E-03    -300.184E-03    -312.495E-03    -285.455E-03     598.480E-03    -311.425E-03    -220.982E-03     48.4030E+06     3.46159E+06    -82.4283E+06    -38.9881E+06    -24.0422E+06     32.4665E+06    -47.3262E+06         71.0153
            2101     6.63911E-03     196.148E-03     25.9646E-03     9.30076E-03    -27.8021E-03     9.74209E-03    -11.5796E-03     9.30076E-03    -957.767E-06     601.878E-03    -287.904E-03    -313.168E-03    -267.303E-03     581.277E-03    -313.168E-03    -244.145E-03     55.9805E+06     10.2380E+06    -79.5701E+06    -41.5356E+06    -16.7623E+06     44.9464E+06    -47.1494E+06         70.7687
            2102     7.37236E-03     196.418E-03     21.7936E-03     9.09294E-03    -19.9146E-03    -1.05756E-03     1.77151E-03     10.2580E-03    -4.10376E-03     586.196E-03    -272.363E-03    -314.123E-03    -248.204E-03     562.037E-03    -314.123E-03    -254.844E-03     63.4375E+06     9.23977E+06    -74.1918E+06    -38.5336E+06    -16.5376E+06     53.5566E+06    -44.4636E+06         71.1460
            2103     8.10237E-03     196.745E-03     19.2564E-03     6.36407E-03    -14.9068E-03    -8.47911E-03     8.82498E-03     10.3678E-03    -2.01689E-03     570.269E-03    -255.763E-03    -314.074E-03    -229.759E-03     544.264E-03    -314.074E-03    -253.470E-03     61.3343E+06     8.67068E+06    -69.9205E+06    -39.1704E+06    -18.3187E+06     57.5736E+06    -39.2432E+06         72.7079
            2104     8.84391E-03     197.089E-03     15.7656E-03     6.61784E-03    -13.1011E-03    -9.21071E-03     8.13325E-03     10.3598E-03    -572.318E-06     551.198E-03    -236.803E-03    -313.433E-03    -211.215E-03     525.610E-03    -313.433E-03    -236.500E-03     60.8812E+06     9.14960E+06    -67.4498E+06    -40.5428E+06    -17.7574E+06     60.8812E+06    -35.7239E+06         75.5707
            2105     9.59469E-03     197.465E-03     12.6870E-03     9.03616E-03    -14.1245E-03    -8.29878E-03     5.19396E-03     10.7035E-03     6.99148E-03     528.698E-03    -216.179E-03    -312.073E-03    -193.453E-03     505.972E-03    -312.073E-03    -204.212E-03     64.3696E+06     6.18900E+06    -64.4929E+06    -38.7413E+06    -19.5626E+06     64.3696E+06    -33.6474E+06         79.6101
            2106     10.3591E-03     197.868E-03     13.0113E-03     8.94306E-03    -18.0673E-03    -7.29608E-03    -229.258E-06     11.4123E-03     23.7892E-03     506.718E-03    -197.237E-03    -309.011E-03    -179.000E-03     488.482E-03    -309.011E-03    -160.363E-03     74.4354E+06     11.7330E+06    -53.7914E+06    -33.7731E+06    -8.28537E+06     74.4354E+06    -28.7376E+06         84.6725
            2107     11.1470E-03     198.265E-03     16.1760E-03     7.76915E-03    -20.1257E-03    -2.50764E-03    -6.06384E-03     12.3910E-03     30.3349E-03     489.900E-03    -185.611E-03    -304.619E-03    -172.776E-03     477.066E-03    -304.619E-03    -109.348E-03     96.8488E+06     26.4302E+06    -51.3533E+06    -29.5247E+06     4.60161E+06     96.8488E+06    -27.0026E+06         90.5615
            2108     11.9395E-03     198.639E-03     17.9045E-03     6.50284E-03    -21.2188E-03    -699.725E-06    -9.38952E-03     13.2777E-03     24.5347E-03     485.726E-03    -186.751E-03    -299.621E-03    -179.698E-03     478.673E-03    -299.621E-03    -53.0209E-03     116.453E+06     17.7038E+06    -52.5706E+06    -18.3560E+06    -16.5108E+06     116.453E+06    -13.7323E+06         96.5680
            2109     12.7374E-03     198.898E-03     16.2654E-03     6.93922E-03    -20.6199E-03    -1.18853E-03    -9.75941E-03     13.5327E-03     11.9800E-03     487.617E-03    -193.891E-03    -294.216E-03    -191.295E-03     485.022E-03    -294.216E-03     4.16112E-03     137.063E+06     32.4227E+06    -29.7147E+06    -6.06998E+06     8.77794E+06     137.063E+06    -2.07542E+06         101.384


