********************************************************************************
Field Output Report, written Tue May  6 14:01:53 2025

Source 1
---------

   ODB: D:/AISI_1020/Vel_20/1020_2a_40_rd_2500_cal_10_v_20_f_025.odb
   Step: Step-1
   Frame: Increment  15488092: Step Time =    1.103

Loc 1 : Nodal values from source 1

Output sorted by column "Node Label".

Field Output reported at nodes for region: DIE_2A_40_D0_36-1.Region_1
   Computation algorithm: EXTRAPOLATE_COMPUTE_AVERAGE
   Averaged at nodes
   Averaging regions: ODB_REGIONS

      Node Label     COORD.COOR1     COORD.COOR2
                          @Loc 1          @Loc 1
-------------------------------------------------
               1     18.1173E-03     375.058E-03


Field Output reported at nodes for region: DIE_2A_40_D0_36-1.Region_2
   Computation algorithm: EXTRAPOLATE_COMPUTE_AVERAGE
   Averaged at nodes
   Averaging regions: ODB_REGIONS

      Node Label     COORD.COOR1     COORD.COOR2
                          @Loc 1          @Loc 1
-------------------------------------------------
               1     18.1173E-03     375.058E-03


Field Output reported at nodes for part: WIRE_1-1
   Computation algorithm: EXTRAPOLATE_COMPUTE_AVERAGE
   Averaged at nodes
   Averaging regions: ODB_REGIONS

      Node Label     COORD.COOR1     COORD.COOR2    ER.Max. Prin    ER.Mid. Prin    ER.Min. Prin         ER.ER11         ER.ER22         ER.ER33         ER.ER12    PE.Max. Prin    PE.Mid. Prin    PE.Min. Prin         PE.PE11         PE.PE22         PE.PE33         PE.PE12     S.Max. Prin     S.Mid. Prin     S.Min. Prin           S.S11           S.S22           S.S33           S.S12            TEMP
                          @Loc 1          @Loc 1          @Loc 1          @Loc 1          @Loc 1          @Loc 1          @Loc 1          @Loc 1          @Loc 1          @Loc 1          @Loc 1          @Loc 1          @Loc 1          @Loc 1          @Loc 1          @Loc 1          @Loc 1          @Loc 1          @Loc 1          @Loc 1          @Loc 1          @Loc 1          @Loc 1          @Loc 1
-----------------------------------------------------------------------------------------------------------------------------------------------------------------------------------------------------------------------------------------------------------------------------------------------------------------------------------------------------------------------------------------------------------------
               1     12.9212E-03     111.043E-03     237.012E-03    -67.1902E-03    -74.0583E-03    -66.8218E-03     229.775E-03    -67.1902E-03    -93.6909E-03     672.327E-03    -333.134E-03    -340.701E-03    -334.377E-03     666.003E-03    -333.134E-03     159.567E-03     11.1048E+06     2.29101E+06    -11.7145E+06    -1.62485E+06    -806.200E+03     4.11232E+06    -438.309E+03         95.3259
               2     257.766E-09     108.072E-03     237.017E-03    -59.3125E-03    -88.3006E-03    -80.6215E-03     237.000E-03    -66.9742E-03    -1.14433E-03     670.712E-03    -334.719E-03    -336.352E-03    -336.352E-03     670.711E-03    -334.719E-03    -730.761E-06    -2.97627E+06    -4.38937E+06    -8.04914E+06    -3.98065E+06    -7.04476E+06    -4.38937E+06    -465.595E+03         76.3802
               3    -6.24251E-06    -1.25915E-06     350.772E-03    -130.213E-03    -151.246E-03    -146.233E-03     345.760E-03    -130.213E-03     99.8236E-03     850.552E-03    -418.586E-03    -431.812E-03    -418.542E-03     850.508E-03    -431.812E-03     14.8952E-03     33.6805E+06     2.87559E+06    -12.6298E+06    -981.763E+03     22.0325E+06     2.87559E+06    -20.0935E+06         87.2714
               4     12.5507E-03    -1.25915E-06     579.484E-03    -108.292E-03    -253.490E-03    -82.9229E-03     408.917E-03    -108.292E-03     672.264E-03         1.16508    -333.737E-03    -827.275E-03    -796.082E-03         1.13389    -333.737E-03     494.674E-03     134.801E+06     78.1348E+06     39.1798E+06     53.6652E+06     120.315E+06     78.1348E+06    -34.2824E+06         101.008
               5     13.5095E-03     216.622E-03     15.8273E-03    -1.14550E-03    -11.7856E-03    -11.3638E-03     15.4055E-03    -1.14550E-03     6.77321E-03     172.252E-03     128.848E-03    -301.204E-03     129.687E-03     171.413E-03    -301.204E-03    -11.9519E-03     161.705E+06     127.433E+06    -86.6368E+06    -69.7970E+06     144.866E+06     127.433E+06    -62.4378E+06         67.4295
               6     61.3293E-06     208.406E-03     129.608E-03    -14.6071E-03    -69.5632E-03     43.8670E-03     71.1339E-03    -69.5632E-03     141.614E-03     465.906E-03    -206.553E-03    -258.731E-03    -258.724E-03     465.898E-03    -206.553E-03     4.69282E-03    -79.3850E+06    -104.422E+06    -120.030E+06    -108.418E+06    -90.9967E+06    -104.422E+06    -18.3610E+06         55.2280
               7     12.2025E-03     110.785E-03     236.585E-03    -65.2706E-03    -74.2432E-03    -61.5451E-03     226.028E-03    -67.4111E-03     16.7714E-03     684.685E-03    -331.747E-03    -353.752E-03    -338.593E-03     669.526E-03    -331.747E-03     237.735E-03     14.7475E+06     2.33776E+06    -9.39515E+06    -185.906E+03     5.08595E+06     2.79009E+06     245.206E+03         93.9304
               8     11.4805E-03     110.218E-03     242.641E-03    -65.6653E-03    -76.9734E-03    -59.0942E-03     227.100E-03    -68.0037E-03    -8.03545E-03     683.198E-03    -331.308E-03    -352.822E-03    -335.730E-03     666.106E-03    -331.308E-03     258.804E-03     17.1162E+06     1.60936E+06    -6.13062E+06     1.27635E+06     10.1676E+06     1.15103E+06     1.04508E+06         90.9333
               9     10.7695E-03     109.887E-03     245.503E-03    -67.4333E-03    -76.2249E-03    -63.2789E-03     233.758E-03    -68.6338E-03    -35.7776E-03     668.971E-03    -331.832E-03    -339.733E-03    -328.131E-03     657.369E-03    -331.832E-03     214.697E-03     11.1966E+06     1.61642E+06    -5.21996E+06    -2.65220E+03     6.91386E+06     681.900E+03     805.238E+03         88.0631
              10     10.0526E-03     109.487E-03     237.454E-03    -63.7565E-03    -71.1841E-03    -62.3171E-03     233.995E-03    -69.1645E-03     28.6630E-03     667.247E-03    -331.436E-03    -338.615E-03    -327.502E-03     656.134E-03    -331.436E-03     209.505E-03     8.63969E+06     2.13347E+06    -3.44663E+06    -509.325E+03     7.43217E+06     403.687E+03     363.014E+03         85.9287
              11     9.31086E-03     109.241E-03     237.995E-03    -63.8738E-03    -74.6363E-03    -66.6140E-03     235.589E-03    -69.4907E-03    -43.0338E-03     663.996E-03    -332.159E-03    -335.069E-03    -326.364E-03     655.291E-03    -332.159E-03     185.604E-03     8.12925E+06     1.76973E+06    -1.98619E+06     73.0986E+03     6.85104E+06     988.648E+03    -225.262E+03         84.5287
              12     8.60158E-03     108.972E-03     244.291E-03    -68.0850E-03    -79.4886E-03    -72.3385E-03     238.352E-03    -69.2963E-03     13.2564E-03     663.019E-03    -331.375E-03    -332.094E-03    -324.210E-03     655.446E-03    -331.685E-03     172.772E-03     7.13400E+06     1.98141E+06    -3.31201E+06     290.356E+03     3.51745E+06     1.99559E+06     276.104E+03         83.5911
              13     7.87624E-03     108.795E-03     247.464E-03    -68.6906E-03    -81.4691E-03    -73.4527E-03     239.448E-03    -68.6906E-03    -2.89163E-03     662.042E-03    -328.941E-03    -330.257E-03    -322.641E-03     655.674E-03    -330.189E-03     158.213E-03     8.76811E+06     941.444E+03    -2.75044E+06     360.296E+03     5.89153E+06     707.277E+03    -187.597E+03         82.8196
              14     7.18183E-03     108.446E-03     247.985E-03    -67.9819E-03    -79.7900E-03    -73.2099E-03     241.405E-03    -67.9819E-03    -12.8623E-03     654.657E-03    -327.195E-03    -329.657E-03    -322.038E-03     649.500E-03    -329.657E-03     141.679E-03     6.89321E+06    -848.746E+03    -1.89237E+06    -501.524E+03     6.37932E+06    -1.72570E+06    -520.796E+03         82.0791
              15     6.45303E-03     108.361E-03     245.669E-03    -67.3015E-03    -76.8729E-03    -72.5875E-03     241.383E-03    -67.3015E-03     4.59445E-03     651.968E-03    -324.033E-03    -330.067E-03    -320.271E-03     648.206E-03    -330.067E-03     120.278E-03     6.76867E+06    -1.32267E+06    -2.96026E+06    -607.635E+03     6.03163E+06    -2.93824E+06     343.942E+03         81.2624
              16     5.72920E-03     108.282E-03     239.916E-03    -65.7025E-03    -75.0250E-03    -72.2560E-03     237.981E-03    -66.5369E-03    -29.6551E-03     653.252E-03    -323.166E-03    -331.076E-03    -320.765E-03     650.851E-03    -331.076E-03     95.9435E-03     7.38330E+06    -1.75341E+06    -4.54366E+06    -1.23308E+06     5.12811E+06    -2.80880E+06     45.9185E+03         80.3651
              17     5.01638E-03     108.158E-03     228.316E-03    -62.3110E-03    -69.1169E-03    -64.5582E-03     227.570E-03    -66.1241E-03     24.0976E-03     653.866E-03    -324.654E-03    -331.074E-03    -323.227E-03     652.439E-03    -331.074E-03     73.9870E-03     5.76539E+06    -1.56190E+06    -4.76934E+06    -1.83907E+06     2.57843E+06    -1.30521E+06    -249.413E+03         79.5005
              18     4.29578E-03     108.087E-03     228.227E-03    -63.5915E-03    -69.4461E-03    -59.0728E-03     221.010E-03    -66.7477E-03    -38.7394E-03     656.905E-03    -325.840E-03    -330.747E-03    -325.069E-03     656.134E-03    -330.747E-03     54.0783E-03     3.83186E+06    -703.089E+03    -2.84256E+06    -840.727E+03     488.856E+03     638.083E+03    -401.910E+03         78.7220
              19     3.57906E-03     108.079E-03     239.847E-03    -66.9821E-03    -74.3628E-03    -62.2758E-03     228.699E-03    -67.9207E-03    -5.70014E-03     658.017E-03    -327.758E-03    -331.017E-03    -327.414E-03     657.673E-03    -331.017E-03     35.8569E-03     3.83559E+06     314.934E+03    -1.76578E+06    -119.971E+03     1.12850E+06     1.37622E+06    -417.707E+03         78.0480
              20     2.86199E-03     108.091E-03     244.186E-03    -67.6076E-03    -73.2651E-03    -66.2589E-03     238.423E-03    -68.8512E-03     26.0798E-03     658.888E-03    -328.879E-03    -331.856E-03    -328.757E-03     658.766E-03    -331.856E-03     20.9329E-03     2.81482E+06    -52.5082E+03    -2.17147E+06    -770.004E+03     615.906E+03     744.942E+03    -95.0338E+03         77.4731
              21     2.14616E-03     108.109E-03     244.168E-03    -67.1382E-03    -71.8495E-03    -67.1241E-03     241.992E-03    -69.6870E-03    -30.5722E-03     661.698E-03    -330.411E-03    -332.522E-03    -330.396E-03     661.670E-03    -332.509E-03     9.32830E-03     767.664E+03    -244.277E+03    -3.45548E+06    -1.53269E+06    -2.01956E+06     620.159E+03    -53.6036E+03         76.9734
              22     1.43126E-03     108.116E-03     243.343E-03    -65.6245E-03    -74.6365E-03    -67.3047E-03     241.493E-03    -71.1055E-03     12.1474E-03     664.341E-03    -331.884E-03    -332.651E-03    -332.018E-03     664.338E-03    -332.514E-03     2.99297E-03     983.747E+03    -181.308E+03    -5.30326E+06    -2.35872E+06    -2.55821E+06     416.103E+03     273.738E+03         76.5905
              23     716.117E-06     108.099E-03     239.509E-03    -62.2653E-03    -82.2126E-03    -74.1376E-03     238.679E-03    -69.5107E-03     15.9486E-03     667.785E-03    -333.475E-03    -334.554E-03    -334.415E-03     667.784E-03    -333.614E-03     425.409E-06    -1.11774E+06    -2.71545E+06    -7.22182E+06    -3.59490E+06    -5.21568E+06    -2.24443E+06     273.361E+03         76.4099
              24     680.036E-09     106.112E-03     238.010E-03    -53.6336E-03    -92.5472E-03    -72.0094E-03     235.060E-03    -71.2208E-03    -47.0471E-03     671.995E-03    -334.793E-03    -337.001E-03    -337.001E-03     671.994E-03    -334.793E-03    -434.845E-06    -1.28525E+06    -2.94459E+06    -6.49049E+06    -2.86875E+06    -5.55500E+06    -2.29657E+06     389.595E+03         76.2780
              25     1.71189E-06     104.156E-03     297.282E-03    -31.0378E-03    -168.785E-03    -79.5274E-03     225.611E-03    -48.6251E-03    -284.569E-03     673.697E-03    -335.848E-03    -337.736E-03    -337.736E-03     673.697E-03    -335.848E-03    -292.212E-06    -3.45711E+06    -4.63410E+06    -8.36453E+06    -5.02695E+06    -7.44271E+06    -3.98609E+06     181.333E+03         76.2409
              26    -919.945E-09     102.190E-03     465.196E-03    -12.6555E-03    -356.614E-03    -93.5448E-03     202.127E-03    -12.6555E-03    -760.940E-03     674.280E-03    -336.779E-03    -337.633E-03    -337.633E-03     674.280E-03    -336.779E-03    -44.4221E-06    -3.26270E+06    -4.03633E+06    -7.46012E+06    -3.44050E+06    -7.28232E+06    -4.03633E+06    -342.153E+03         76.3060
              27     2.23878E-06     100.230E-03     730.694E-03    -62.7688E-03    -548.365E-03    -84.7652E-03     267.094E-03    -62.7688E-03        -1.22967     675.618E-03    -337.311E-03    -338.421E-03    -338.420E-03     675.617E-03    -337.311E-03     1.43912E-03    -3.89714E+06    -5.33520E+06    -8.01882E+06    -5.67967E+06    -7.42969E+06    -4.14179E+06     462.159E+03         76.4317
              28    -1.33307E-06     98.2642E-03     871.916E-03    -77.3745E-03    -676.706E-03    -85.6608E-03     280.871E-03    -77.3745E-03        -1.50385     676.379E-03    -337.739E-03    -338.944E-03    -338.451E-03     676.377E-03    -338.229E-03     522.948E-06     2.42563E+06    -2.53742E+06    -5.63008E+06     354.335E+03    -3.69755E+06    -2.39865E+06    -423.303E+03         76.4072
              29     1.02653E-06     96.2989E-03     866.515E-03    -76.9658E-03    -691.869E-03    -68.0470E-03     242.693E-03    -76.9658E-03        -1.52702     672.648E-03    -336.039E-03    -336.710E-03    -336.218E-03     672.647E-03    -336.530E-03    -1.10691E-03    -271.479E+03    -6.71492E+06    -9.73906E+06    -4.24777E+06    -7.38192E+06    -5.09576E+06    -267.889E+03         76.1965
              30    -523.497E-09     94.3446E-03     794.650E-03    -78.2377E-03    -596.439E-03    -59.3241E-03     257.536E-03    -78.2377E-03        -1.35328     668.432E-03    -333.731E-03    -334.569E-03    -333.911E-03     668.432E-03    -334.389E-03     301.807E-06    -2.50866E+06    -6.71020E+06    -9.14429E+06    -6.40284E+06    -7.92391E+06    -4.03640E+06     187.269E+03         76.1179
              31    -726.623E-09     92.3853E-03     754.788E-03    -54.0698E-03    -547.004E-03    -62.4216E-03     270.206E-03    -54.0698E-03        -1.25840     669.745E-03    -333.798E-03    -335.869E-03    -335.211E-03     669.745E-03    -334.455E-03     470.670E-06     2.09243E+06    -1.07784E+06    -4.30850E+06     897.712E+03    -3.11378E+06    -1.07784E+06     921.385E+03         76.2134
              32     2.73989E-06     90.4131E-03     701.028E-03    -80.2883E-03    -480.866E-03    -47.8784E-03     268.040E-03    -80.2883E-03        -1.13827     671.366E-03    -333.668E-03    -337.819E-03    -337.818E-03     671.366E-03    -333.668E-03    -711.157E-06    -1.60290E+06    -4.64981E+06    -9.92904E+06     -5.9718E+06    -6.96452E+06    -3.24543E+06     828.192E+03         76.2225
              33     1.56103E-06     88.4454E-03     572.424E-03    -113.514E-03    -363.548E-03    -78.5353E-03     287.411E-03    -113.514E-03    -855.218E-03     669.897E-03    -332.827E-03    -337.209E-03    -337.208E-03     669.896E-03    -332.827E-03    -297.631E-06     2.05705E+06    -3.64468E+06    -6.46645E+06    -1.50562E+06    -4.30815E+06    -2.24030E+06    -1.01684E+06         76.1377
              34     859.606E-09     86.4848E-03     474.098E-03    -127.460E-03    -267.893E-03    -108.013E-03     314.217E-03    -127.460E-03    -606.725E-03     670.581E-03    -334.482E-03    -336.459E-03    -336.459E-03     670.581E-03    -334.482E-03     946.776E-06     2.23962E+06    -3.06214E+06    -4.08619E+06     523.283E+03    -3.37425E+06    -2.05774E+06    -64.0505E+03         76.1386
              35    -673.747E-09     84.5121E-03     410.607E-03    -112.787E-03    -198.808E-03    -92.1130E-03     303.912E-03    -112.787E-03    -463.194E-03     671.405E-03    -335.781E-03    -336.462E-03    -336.113E-03     671.405E-03    -336.130E-03    -22.3634E-06    -755.997E+03    -2.05212E+06    -4.74738E+06    -2.50027E+06    -4.00751E+06    -1.04771E+06    -194.466E+03         76.2201
              36     108.910E-09     82.5472E-03     383.973E-03    -106.125E-03    -154.257E-03    -95.0799E-03     324.796E-03    -106.125E-03    -314.672E-03     671.587E-03    -335.731E-03    -336.347E-03    -335.998E-03     671.587E-03    -336.079E-03    -226.773E-06    -3.56031E+06    -4.86479E+06    -7.22460E+06    -4.69699E+06    -7.10069E+06    -3.85203E+06    -105.191E+03         76.2504
              37    -76.1114E-09     80.5759E-03     358.052E-03    -94.8239E-03    -121.816E-03    -83.1433E-03     345.388E-03    -120.833E-03    -66.3863E-03     671.752E-03    -334.798E-03    -337.244E-03    -337.242E-03     671.751E-03    -334.798E-03    -1.57632E-03     1.24997E+06    -2.86694E+06    -4.11724E+06     114.341E+03    -3.99439E+06    -1.85417E+06    -186.875E+03         76.2546
              38     2.96723E-06     78.6096E-03     367.774E-03    -53.2386E-03    -171.015E-03    -46.9721E-03     269.739E-03    -79.2473E-03     330.448E-03     671.376E-03    -334.785E-03    -337.149E-03    -337.145E-03     671.373E-03    -334.785E-03     435.062E-06     1.31403E+06    -3.35957E+06    -5.38476E+06    -1.38231E+06    -4.25788E+06    -1.79011E+06    -603.828E+03         76.3064
              39    -3.16349E-06     76.6352E-03     470.059E-03    -82.6237E-03    -255.004E-03    -71.4731E-03     286.528E-03    -82.6237E-03     626.502E-03     673.059E-03    -336.353E-03    -336.893E-03    -336.536E-03     673.056E-03    -336.707E-03     1.15417E-03    -3.07347E+06    -5.34246E+06    -9.53527E+06    -5.96080E+06    -8.21741E+06    -3.77300E+06     629.120E+03         76.3635
              40     3.01584E-06     74.6528E-03     585.324E-03    -130.331E-03    -331.167E-03    -100.077E-03     354.233E-03    -130.331E-03     792.877E-03     674.234E-03    -335.528E-03    -338.605E-03    -338.251E-03     674.234E-03    -335.882E-03    -1.08387E-03     130.425E+03    -1.11742E+06    -5.70543E+06    -912.890E+03    -4.66212E+06    -1.11742E+06    -140.780E+03         76.3794
              41     1.17548E-06     72.6432E-03     574.838E-03    -90.0442E-03    -348.346E-03    -76.6914E-03     303.183E-03    -90.0442E-03     840.920E-03     672.808E-03    -334.963E-03    -337.709E-03    -337.686E-03     672.807E-03    -334.986E-03     544.120E-06     576.664E+03    -294.160E+03    -6.05681E+06    -1.14782E+06    -4.65483E+06     28.3453E+03     428.034E+03         76.3655
              42    -1.00172E-06     70.6635E-03     448.474E-03    -43.1466E-03    -258.645E-03    -88.0488E-03     277.878E-03    -43.1466E-03     589.029E-03     672.338E-03    -336.062E-03    -336.340E-03    -336.317E-03     672.338E-03    -336.084E-03     312.630E-06     1.42643E+06     492.411E+03    -6.05416E+06    -494.830E+03    -4.45541E+06     814.917E+03      51.367E+03         76.3543
              43     2.31885E-06     68.6581E-03     419.178E-03    -112.396E-03    -197.711E-03    -143.184E-03     364.651E-03    -112.396E-03     328.602E-03     672.924E-03    -335.045E-03    -338.103E-03    -338.103E-03     672.924E-03    -335.045E-03    -949.303E-06     553.574E+03    -3.50785E+06    -8.69836E+06    -529.715E+03    -7.61507E+06    -3.50785E+06    -763.014E+03         76.3518
              44     1.05547E-06     66.6599E-03     362.044E-03    -112.963E-03    -140.735E-03    -120.190E-03     341.499E-03    -112.963E-03     198.585E-03     672.814E-03    -335.068E-03    -337.929E-03    -337.929E-03     672.813E-03    -335.068E-03     414.340E-06    -1.25391E+06    -7.15022E+06    -10.4829E+06    -4.12788E+06    -10.0553E+06    -4.70382E+06     434.745E+03         76.3459
              45    -997.937E-09     64.6658E-03     289.444E-03    -55.8859E-03    -81.7382E-03    -67.4933E-03     275.200E-03    -55.8859E-03     141.374E-03     673.412E-03    -336.456E-03    -337.099E-03    -337.098E-03     673.411E-03    -336.456E-03     58.4333E-06     1.28489E+06    -4.37199E+06    -7.96223E+06    -1.52478E+06    -7.59896E+06    -1.92558E+06    -128.446E+03         76.3425
              46     1.56847E-06     62.6836E-03     321.051E-03    -65.1057E-03    -107.633E-03    -102.032E-03     315.449E-03    -65.1057E-03     55.6784E-03     674.134E-03    -336.484E-03    -337.644E-03    -337.643E-03     674.133E-03    -336.484E-03     107.294E-06     922.624E+03    -5.42761E+06    -10.4571E+06    -3.87212E+06    -8.80212E+06    -2.28785E+06    -582.848E+03         76.3573
              47    -991.215E-09     60.6961E-03     377.255E-03    -74.8383E-03    -174.517E-03    -118.202E-03     320.940E-03    -74.8383E-03    -249.063E-03     674.986E-03    -337.210E-03    -337.792E-03    -337.785E-03     674.985E-03    -337.215E-03     898.514E-06    -537.703E+03    -7.50160E+06    -12.6581E+06    -5.44706E+06    -10.8885E+06    -4.36185E+06     238.442E+03         76.4111
              48     931.019E-09     58.7039E-03     509.296E-03    -79.6430E-03    -291.805E-03    -93.8541E-03     311.345E-03    -79.6430E-03    -683.302E-03     675.962E-03    -337.745E-03    -338.381E-03    -337.745E-03     675.962E-03    -338.381E-03     440.722E-06     76.3144E+03    -4.82819E+06    -10.7745E+06    -1.95726E+06    -9.82131E+06    -3.74783E+06    -354.887E+03         76.4771
              49    -1.78113E-06     56.7080E-03     686.493E-03    -71.8625E-03    -460.016E-03    -101.949E-03     328.426E-03    -71.8625E-03        -1.06168     675.253E-03    -336.417E-03    -338.998E-03    -338.366E-03     675.250E-03    -337.047E-03    -1.55923E-03     1.39931E+06    -1.36950E+06    -8.77816E+06    -823.776E+03    -7.63543E+06    -289.145E+03     111.757E+03         76.4954
              50     4.84241E-06     54.7288E-03     839.195E-03    -78.1210E-03    -608.232E-03    -110.660E-03     341.623E-03    -78.1210E-03        -1.37426     674.956E-03    -336.477E-03    -338.530E-03    -338.524E-03     674.950E-03    -336.477E-03     577.121E-06     1.16488E+06    -1.33925E+06    -9.73545E+06    -600.937E+03    -7.96964E+06    -1.33925E+06    -747.443E+03         76.4933
              51    -4.25167E-06     52.7351E-03     863.054E-03    -93.3142E-03    -635.086E-03    -73.2558E-03     301.224E-03    -93.3142E-03        -1.44937     675.725E-03    -337.549E-03    -338.576E-03    -337.644E-03     675.719E-03    -338.474E-03     411.429E-06    -1.13264E+06    -3.36637E+06    -13.2168E+06    -3.54091E+06    -10.8086E+06    -3.36637E+06     396.003E+03         76.5359
              52     3.49452E-06     50.7383E-03     806.553E-03    -111.157E-03    -555.355E-03    -76.6303E-03     327.828E-03    -111.157E-03        -1.29391     677.129E-03    -338.171E-03    -339.697E-03    -338.766E-03     677.123E-03    -339.097E-03     159.712E-06     1.64449E+06    -701.506E+03    -9.38688E+06    -775.804E+03    -6.96659E+06    -701.506E+03     797.089E+03         76.5866
              53    -2.32058E-06     48.7425E-03     685.457E-03    -135.070E-03    -399.318E-03    -107.847E-03     393.986E-03    -135.070E-03    -955.746E-03     677.972E-03    -338.078E-03    -340.371E-03    -340.363E-03     677.964E-03    -338.078E-03    -692.039E-06     563.352E+03    -1.69204E+06    -9.57962E+06    -1.24814E+06    -7.76813E+06    -1.69204E+06    -242.588E+03         76.5808
              54     4.31990E-06     46.7598E-03     474.780E-03    -120.891E-03    -211.554E-03    -90.6283E-03     353.855E-03    -120.891E-03    -513.888E-03     676.237E-03    -337.229E-03    -339.123E-03    -338.915E-03     676.230E-03    -337.430E-03    -977.665E-06     22.3117E+03    -2.21865E+06    -10.5130E+06    -1.03040E+06    -9.46031E+06    -2.21865E+06    -29.6011E+03         76.5567
              55    -4.15423E-06     44.7583E-03     366.792E-03    -91.3365E-03    -124.071E-03    -78.3286E-03     333.949E-03    -104.236E-03    -225.863E-03     676.460E-03    -337.700E-03    -338.817E-03    -337.698E-03     676.457E-03    -338.817E-03     1.22202E-03     1.18212E+06    -1.02373E+06    -8.88761E+06    -1.05030E+06    -7.94753E+06     268.617E+03    -464.841E+03         76.5873
              56     3.19410E-06     42.7298E-03     384.088E-03    -95.6886E-03    -121.983E-03    -89.0548E-03     377.454E-03    -121.983E-03    -30.9420E-03     677.814E-03    -336.818E-03    -341.345E-03    -340.428E-03     677.813E-03    -337.734E-03    -1.19601E-03     2.11855E+06    -696.492E+03    -6.39458E+06    -75.7186E+03    -5.49265E+06     595.854E+03     -13.867E+03         76.6506
              57     1.80298E-06     40.7303E-03     400.310E-03    -100.225E-03    -155.045E-03    -107.204E-03     365.864E-03    -113.620E-03     220.298E-03     678.356E-03    -337.075E-03    -341.607E-03    -341.606E-03     678.355E-03    -337.075E-03     1.31150E-03     1.08521E+06    -1.03775E+06    -5.76735E+06     374.324E+03    -5.05646E+06    -1.03775E+06    -646.956E+03         76.6756
              58    -742.690E-09     38.7145E-03     467.031E-03    -135.631E-03    -203.773E-03    -122.763E-03     386.021E-03    -135.631E-03     437.066E-03     678.152E-03    -337.932E-03    -340.306E-03    -338.850E-03     678.149E-03    -339.385E-03    -391.820E-06    -906.309E+03    -3.22116E+06    -8.35938E+06    -2.71546E+06    -8.26481E+06    -1.50657E+06     656.029E+03         76.6581
              59    -1.26520E-06     36.7337E-03     598.943E-03    -147.312E-03    -305.221E-03    -98.8882E-03     392.610E-03    -147.312E-03     732.541E-03     677.033E-03    -337.427E-03    -339.901E-03    -338.446E-03     677.031E-03    -338.880E-03    -1.60749E-03     3.10226E+06    -2.50809E+06    -6.25978E+06     1.23060E+06    -6.10271E+06    -793.508E+03     1.04630E+06         76.6394
              60     2.80810E-06     34.7349E-03     699.661E-03    -96.0295E-03    -434.294E-03    -74.3180E-03     339.685E-03    -96.0295E-03         1.05529     678.018E-03    -336.830E-03    -341.590E-03    -341.590E-03     678.018E-03    -336.830E-03    -148.454E-06     2.80918E+06    -2.06847E+06    -7.27674E+06    -286.683E+03    -5.16275E+06    -1.08659E+06    -327.569E+03         76.6150
              61     2.38170E-06     32.7550E-03     761.385E-03    -99.4803E-03    -494.293E-03    -103.091E-03     370.184E-03    -99.4803E-03         1.16222     677.899E-03    -335.909E-03    -342.311E-03    -339.644E-03     677.896E-03    -338.573E-03     1.90733E-03     175.964E+03    -2.91476E+06    -11.0658E+06    -2.96044E+06    -8.91124E+06    -1.93288E+06    -2.13254E+06         76.5550
              62    -5.76162E-06     30.7676E-03     774.969E-03    -124.549E-03    -503.362E-03    -120.481E-03     392.088E-03    -124.549E-03         1.17102     677.397E-03    -337.416E-03    -340.333E-03    -337.410E-03     677.390E-03    -340.333E-03    -435.130E-06    -2.37814E+06    -4.73112E+06    -14.8294E+06    -6.43518E+06    -11.0165E+06    -4.48699E+06     808.301E+03         76.4855
              63     5.75300E-06     28.7886E-03     800.749E-03    -135.068E-03    -516.024E-03    -123.390E-03     408.115E-03    -135.068E-03         1.20464     678.086E-03    -338.321E-03    -340.044E-03    -339.784E-03     678.079E-03    -338.573E-03    -265.400E-06     314.298E+03    -4.33103E+06    -11.8709E+06    -3.81955E+06    -7.98115E+06    -4.08691E+06     585.961E+03         76.4499
              64    -3.89419E-06     26.7949E-03     804.226E-03    -127.012E-03    -516.266E-03    -116.069E-03     404.029E-03    -127.012E-03         1.21340     677.617E-03    -337.007E-03    -341.204E-03    -338.475E-03     677.614E-03    -339.733E-03     2.99563E-03    -2.00888E+06    -6.50933E+06    -14.2122E+06    -7.01359E+06    -9.30677E+06    -6.41008E+06    -737.409E+03         76.4140
              65    -39.1827E-09     24.8100E-03     738.178E-03    -87.1367E-03    -503.403E-03    -86.4143E-03     321.189E-03    -87.1367E-03         1.17121     675.544E-03    -335.853E-03    -340.220E-03    -337.492E-03     675.542E-03    -338.579E-03    -1.66509E-03     1.00446E+06    -6.54530E+06    -15.7071E+06    -3.78979E+06    -11.0121E+06    -6.44606E+06     273.022E+03         76.2576
              66     2.23430E-06     22.8426E-03     689.101E-03    -100.710E-03    -455.120E-03    -114.300E-03     348.281E-03    -100.710E-03         1.03373     672.827E-03    -335.066E-03    -337.844E-03    -337.841E-03     672.823E-03    -335.066E-03    -544.449E-06    -581.704E+03    -8.35182E+06    -20.9397E+06    -9.07117E+06    -12.7698E+06    -8.03222E+06    -428.958E+03         75.8587
              67    -226.606E-09     20.8694E-03     661.281E-03    -126.768E-03    -372.541E-03    -121.054E-03     409.794E-03    -126.768E-03     886.445E-03     668.951E-03    -332.641E-03    -336.440E-03    -333.776E-03     668.949E-03    -335.304E-03     452.573E-06    -4.76737E+06    -15.3217E+06    -24.2230E+06    -13.3182E+06    -15.9918E+06    -15.0021E+06     646.197E+03         75.1595
              68    -3.05374E-06     18.9158E-03     581.923E-03    -79.3523E-03    -300.395E-03    -80.7322E-03     362.260E-03    -79.3523E-03     762.741E-03     661.848E-03    -328.722E-03    -333.244E-03    -330.569E-03     661.836E-03    -331.384E-03    -5.81637E-03     3.02595E+06    -7.69160E+06    -18.4924E+06    -7.53245E+06    -8.41688E+06    -7.20877E+06     1.62197E+06         74.1546
              69     6.14399E-06     17.0075E-03     419.642E-03    -46.4938E-03    -199.201E-03    -99.8214E-03     320.262E-03    -46.4938E-03     409.136E-03     649.531E-03    -323.755E-03    -325.831E-03    -325.820E-03     649.520E-03    -323.755E-03    -5.63666E-03     3.09536E+06     -7.6387E+06    -19.2946E+06    -7.47513E+06    -7.62093E+06    -8.74185E+06     1.66531E+06         72.8685
              70    -5.73548E-06     15.1240E-03     384.222E-03    -113.911E-03    -161.062E-03    -149.180E-03     372.340E-03    -113.911E-03    -5.33290E-03     629.810E-03    -313.075E-03    -316.719E-03    -313.258E-03     629.776E-03    -316.502E-03    -8.81767E-03     7.57898E+06    -4.87056E+06    -17.8835E+06    -5.77921E+06    -5.13759E+06    -4.25823E+06     2.84485E+06         71.3062
              71     986.970E-09     13.3118E-03     445.119E-03    -159.402E-03    -185.291E-03    -158.878E-03     418.706E-03    -159.402E-03    -238.337E-03     607.342E-03    -300.503E-03    -306.762E-03    -303.293E-03     607.300E-03    -303.931E-03    -11.6686E-03     20.0572E+06     2.03196E+06    -10.9980E+06     4.52891E+06     2.33191E+06     4.23027E+06    -3.88694E+06         69.5342
              72     2.79334E-06     11.5102E-03     443.772E-03    -120.025E-03    -153.259E-03    -108.722E-03     399.235E-03    -120.025E-03    -313.276E-03     582.140E-03    -287.879E-03    -294.193E-03    -294.165E-03     582.112E-03    -287.879E-03    -9.61955E-03     15.5743E+06    -795.837E+03    -18.6279E+06    -1.71639E+06    -1.33722E+06    -795.837E+03    -741.274E+03         68.0115
              73     2.60866E-06     9.78625E-03     395.237E-03    -64.0283E-03    -79.5538E-03    -43.3008E-03     358.984E-03    -64.0283E-03    -251.826E-03     559.183E-03    -277.523E-03    -281.655E-03    -280.986E-03     559.163E-03    -278.172E-03    -6.75198E-03     29.3791E+06     14.2630E+06    -8.90027E+06     13.1322E+06     7.34666E+06     14.2630E+06     156.247E+03         67.3981
              74    -3.87625E-06     8.07951E-03     360.010E-03    -44.6217E-03    -49.4139E-03    -31.1989E-03     345.634E-03    -48.4609E-03    -58.8635E-03     565.254E-03    -281.813E-03    -283.456E-03    -282.799E-03     565.245E-03    -282.462E-03     2.74074E-03     27.8797E+06     10.9502E+06    -11.7197E+06     9.96427E+06     6.19569E+06     10.9502E+06    -140.444E+03         68.3063
              75     5.71164E-06     6.32130E-03     438.035E-03    -105.344E-03    -113.078E-03    -99.2227E-03     431.914E-03    -113.078E-03     113.345E-03     619.671E-03    -307.362E-03    -312.343E-03    -312.230E-03     619.557E-03    -307.362E-03     18.1797E-03     17.4690E+06     8.48565E+06    -11.4934E+06    -1.17304E+06     7.14862E+06     8.48565E+06      649.44E+03         71.6119
              76     669.549E-09     4.43091E-03     449.295E-03    -138.020E-03    -157.417E-03    -134.690E-03     430.464E-03    -141.916E-03     198.761E-03     716.514E-03    -355.382E-03    -361.145E-03    -359.168E-03     716.313E-03    -357.157E-03     29.4003E-03     36.7816E+06     10.2260E+06     5.13251E+06     19.0240E+06     22.8901E+06     10.2260E+06     4.69849E+06         77.5043
              77    -2.32496E-06     2.30810E-03     373.624E-03    -126.104E-03    -152.121E-03    -135.345E-03     356.848E-03    -126.104E-03     171.846E-03     812.051E-03    -401.787E-03    -410.175E-03    -401.669E-03     811.933E-03    -410.175E-03     22.3444E-03     35.4586E+06     127.205E+03    -8.47546E+06     2.30060E+06     24.6825E+06     127.205E+03    -1.19376E+06         84.1400
              78     645.320E-06    -1.25915E-06     356.407E-03    -118.986E-03    -139.642E-03    -126.965E-03     353.869E-03    -129.125E-03     44.4626E-03     837.940E-03    -414.193E-03    -423.607E-03    -414.109E-03     837.856E-03    -423.607E-03     19.9202E-03     29.8527E+06     3.28672E+06    -8.54248E+06     817.203E+03     20.4931E+06     3.28672E+06    -3.61379E+06         86.9097
              79     1.29852E-03    -1.25915E-06     372.537E-03    -94.7589E-03    -121.001E-03    -92.5544E-03     370.332E-03    -121.001E-03     39.2825E-03     814.121E-03    -401.555E-03    -412.058E-03    -401.320E-03     813.887E-03    -412.058E-03     32.7364E-03     21.6174E+06     2.08940E+06    -4.60945E+06     1.92010E+06     15.0878E+06     2.08940E+06     1.54114E+06         85.8744
              80     1.95807E-03    -1.25915E-06     387.586E-03    -81.2284E-03    -109.116E-03    -78.9275E-03     385.285E-03    -109.116E-03     55.7363E-03     784.288E-03    -380.856E-03    -402.798E-03    -380.401E-03     783.833E-03    -402.798E-03     45.6007E-03     22.3823E+06     2.35822E+06    -7.85981E+06     1.15377E+06     13.3687E+06     2.35822E+06     4.03425E+06         84.2635
              81     2.63719E-03    -1.25915E-06     391.387E-03    -92.0456E-03    -111.135E-03    -99.1149E-03     391.152E-03    -103.830E-03     21.4371E-03     748.971E-03    -356.508E-03    -392.192E-03    -355.857E-03     748.321E-03    -392.192E-03     53.4648E-03     28.8568E+06     2.99090E+06    -9.11067E+06     978.265E+03     18.7678E+06     2.99090E+06     1.20690E+06         82.2421
              82     3.33257E-03    -1.25915E-06     388.047E-03    -105.904E-03    -130.444E-03    -129.848E-03     387.451E-03    -105.904E-03    -12.2813E-03     714.922E-03    -332.392E-03    -382.116E-03    -331.613E-03     714.142E-03    -382.116E-03     57.0676E-03     29.5435E+06    -1.33816E+06    -7.05594E+06     960.327E+03     21.5272E+06    -1.33816E+06    -301.431E+03         80.0178
              83     4.04788E-03    -1.25915E-06     380.982E-03    -110.014E-03    -129.001E-03    -128.497E-03     380.478E-03    -110.014E-03    -18.9048E-03     680.512E-03    -308.550E-03    -371.181E-03    -307.691E-03     679.652E-03    -371.181E-03     58.2476E-03     26.9694E+06    -4.14544E+06    -6.41635E+06    -906.680E+03     21.4597E+06    -4.14544E+06     2.75119E+06         77.7172
              84     4.79765E-03    -1.25915E-06     379.388E-03    -91.7270E-03    -112.052E-03    -93.4578E-03     379.366E-03    -110.300E-03     6.26824E-03     647.737E-03    -286.577E-03    -360.312E-03    -285.649E-03     646.809E-03    -360.312E-03     58.8468E-03     24.1608E+06    -3.70311E+06    -6.88578E+06    -3.22972E+06     20.5048E+06    -3.70311E+06     640.691E+03         75.4401
              85     5.55133E-03    -1.25915E-06     385.149E-03    -73.4091E-03    -106.728E-03    -73.3551E-03     385.095E-03    -106.728E-03     9.08178E-03     615.117E-03    -266.148E-03    -349.169E-03    -265.247E-03     614.215E-03    -349.169E-03     56.3285E-03     27.6681E+06    -2.92195E+06    -6.74055E+06    -3.32937E+06     24.2569E+06    -2.92195E+06     499.214E+03         73.4816
              86     6.31570E-03    -1.25915E-06     390.091E-03    -89.6953E-03    -118.408E-03    -103.557E-03     389.986E-03    -104.441E-03     14.4050E-03     585.710E-03    -248.896E-03    -337.551E-03    -248.096E-03     584.910E-03    -337.551E-03     51.6485E-03     29.3062E+06    -1.41672E+06    -7.81010E+06    -4.10166E+06     25.5977E+06    -1.41672E+06     1.35060E+06         72.4135
              87     7.09098E-03    -1.25915E-06     393.254E-03    -106.619E-03    -146.858E-03    -146.548E-03     392.944E-03    -106.619E-03     24.5201E-03     565.170E-03    -238.575E-03    -327.151E-03    -237.893E-03     564.489E-03    -327.151E-03     46.7257E-03     27.7352E+06     418.348E+03    -9.92586E+06    -4.71172E+06     22.5211E+06     418.348E+03    -683.755E+03         72.6985
              88     7.87729E-03    -1.25915E-06     394.350E-03    -108.446E-03    -136.309E-03    -134.362E-03     393.994E-03    -110.038E-03     26.9204E-03     554.066E-03    -235.355E-03    -318.826E-03    -234.810E-03     553.521E-03    -318.826E-03     41.4172E-03     39.8070E+06     4.98604E+06    -18.1703E+06    -7.40890E+06     29.0456E+06     4.98604E+06     8.75163E+06         74.3905
              89     8.66071E-03    -1.25915E-06     390.041E-03    -80.6476E-03    -109.933E-03    -80.5408E-03     389.934E-03    -109.933E-03     11.9643E-03     549.738E-03    -238.926E-03    -311.174E-03    -238.560E-03     549.371E-03    -311.174E-03     33.5104E-03     41.8202E+06     10.2986E+06    -25.0645E+06    -13.1262E+06     29.8819E+06     10.2986E+06     5.73203E+06         77.3547
              90     9.44847E-03    -1.25915E-06     385.230E-03    -77.2863E-03    -107.387E-03    -77.2802E-03     385.224E-03    -107.387E-03     214.661E-06     558.917E-03    -253.803E-03    -305.391E-03    -253.671E-03     558.785E-03    -305.391E-03     17.8069E-03     49.1606E+06     7.18849E+06    -50.3963E+06    -25.4934E+06     24.2577E+06     7.18849E+06     22.5767E+06         81.4365
              91     10.2193E-03    -1.25915E-06     379.502E-03    -104.594E-03    -130.957E-03    -128.034E-03     378.985E-03    -107.001E-03    -24.8855E-03     596.759E-03    -284.536E-03    -312.460E-03    -293.198E-03     596.750E-03    -303.789E-03     2.97419E-03     25.3999E+06    -7.69003E+06    -68.6540E+06    -46.7862E+06     1.95416E+06    -6.11210E+06     28.0157E+06         86.4942
              92     11.0283E-03    -1.25915E-06     395.721E-03    -109.185E-03    -152.998E-03    -148.505E-03     391.227E-03    -109.185E-03     43.4103E-03     676.129E-03    -306.061E-03    -368.825E-03    -368.815E-03     676.119E-03    -306.061E-03     3.71813E-03    -37.2733E+06    -43.2515E+06    -101.318E+06    -59.5459E+06    -80.6234E+06    -41.6735E+06    -242.870E+03         92.1017
              93     11.6891E-03    -1.25915E-06     415.024E-03    -96.0381E-03    -130.028E-03    -91.4659E-03     390.594E-03    -110.170E-03    -69.4681E-03     801.002E-03    -313.307E-03    -484.786E-03    -484.692E-03     800.907E-03    -313.307E-03     20.1947E-03    -58.0047E+06    -79.1894E+06    -118.756E+06    -58.4385E+06    -115.590E+06    -81.9216E+06     4.48623E+06         96.9948
              94     12.2621E-03    -1.25915E-06     496.183E-03    -94.9211E-03    -181.652E-03    -61.7863E-03     390.450E-03    -109.053E-03     199.935E-03         1.01950    -326.131E-03    -690.289E-03    -674.607E-03         1.00382    -326.131E-03     262.941E-03     39.3630E+06    -5.75443E+06    -27.9641E+06    -1.21037E+06     15.3414E+06    -8.48657E+06    -16.8351E+06         100.024
              95     12.8328E-03     3.73374E-03     565.113E-03    -110.509E-03    -273.919E-03    -80.5373E-03     371.731E-03    -110.509E-03     704.865E-03     979.615E-03    -332.414E-03    -643.679E-03    -613.730E-03     949.666E-03    -332.414E-03     434.892E-03     48.9769E+06    -1.94080E+06    -31.6959E+06    -3.35560E+06     20.6366E+06    -1.94080E+06    -32.8958E+06         101.464
              96     12.8489E-03     5.52386E-03     490.072E-03    -113.011E-03    -238.513E-03    -109.447E-03     361.006E-03    -113.011E-03     523.361E-03     751.546E-03    -331.175E-03    -420.554E-03    -398.095E-03     729.087E-03    -331.175E-03     319.506E-03     14.4097E+06    -22.7931E+06    -67.5385E+06    -27.9878E+06    -25.1411E+06    -22.7931E+06     8.02087E+06         102.184
              97     12.8516E-03     7.41295E-03     407.792E-03    -112.686E-03    -171.752E-03    -148.800E-03     384.840E-03    -112.686E-03     201.041E-03     700.431E-03    -330.996E-03    -371.916E-03    -358.634E-03     687.148E-03    -330.996E-03     235.923E-03     34.4082E+06     4.97950E+06    -31.3745E+06     3.16380E+06    -130.037E+03     4.97950E+06     20.6387E+06         101.778
              98     12.8762E-03     9.37565E-03     383.171E-03    -95.4853E-03    -135.966E-03    -117.217E-03     380.528E-03    -111.592E-03     21.8497E-03     686.585E-03    -330.547E-03    -358.114E-03    -348.874E-03     677.344E-03    -330.547E-03     195.326E-03     659.188E+03    -19.6246E+06    -24.5655E+06    -3.08326E+06    -17.7683E+06    -22.6794E+06    -428.713E+03         100.102
              99     12.8807E-03     11.3219E-03     377.393E-03    -93.6701E-03    -110.859E-03    -89.2242E-03     372.947E-03    -110.859E-03    -84.5740E-03     687.913E-03    -330.048E-03    -359.636E-03    -351.721E-03     679.998E-03    -330.048E-03     181.387E-03     7.95912E+06    -9.42441E+06    -12.9170E+06     4.81571E+06    -6.71888E+06    -12.4792E+06     2.31297E+06         98.4619
             100     12.8918E-03     13.3219E-03     381.525E-03    -109.495E-03    -125.976E-03    -116.089E-03     372.721E-03    -110.577E-03    -132.229E-03     699.098E-03    -329.700E-03    -371.235E-03    -364.398E-03     692.261E-03    -329.700E-03     170.145E-03     8.38888E+06    -9.67173E+06    -13.9943E+06    -1.50391E+06    -4.10146E+06    -9.67173E+06    -1.63133E+06         97.4879
             101     12.8874E-03     15.3690E-03     397.079E-03    -110.166E-03    -127.490E-03    -115.736E-03     385.325E-03    -110.166E-03    -154.781E-03     706.786E-03    -329.685E-03    -379.087E-03    -372.302E-03     700.001E-03    -329.685E-03     170.855E-03     7.22999E+06    -3.54412E+06    -8.18503E+06    -2.77934E+06     2.58057E+06    -4.30039E+06    -474.253E+03         96.8516
             102     12.8931E-03     17.4224E-03     392.704E-03    -109.547E-03    -113.413E-03    -101.424E-03     380.715E-03    -109.547E-03    -153.742E-03     703.071E-03    -329.635E-03    -374.273E-03    -366.581E-03     695.379E-03    -329.635E-03     181.396E-03     10.2545E+06     923.033E+03    -2.26690E+06     3.04385E+06     5.69998E+06     166.766E+03     1.41254E+06         96.2103
             103     12.8908E-03     19.4169E-03     373.877E-03    -109.187E-03    -119.914E-03    -110.775E-03     364.739E-03    -109.187E-03    -132.706E-03     692.323E-03    -329.817E-03    -362.710E-03    -354.402E-03     684.015E-03    -329.817E-03     186.386E-03     8.55019E+06     2.24395E+06    -4.11181E+06    -135.346E+03     2.97499E+06     3.84268E+06     795.735E+03         95.5598
             104     12.8974E-03     21.4018E-03     380.783E-03    -108.438E-03    -120.320E-03    -115.211E-03     375.673E-03    -108.438E-03    -96.6710E-03     684.891E-03    -329.840E-03    -356.170E-03    -347.818E-03     676.539E-03    -329.840E-03     185.679E-03     10.9930E+06     5.00126E+06    -5.58566E+06    -1.49089E+06     906.488E+03     10.9930E+06    -929.506E+03         95.0610
             105     12.8962E-03     23.3707E-03     386.472E-03    -103.968E-03    -110.602E-03    -105.653E-03     385.063E-03    -107.507E-03    -48.5201E-03     677.124E-03    -329.645E-03    -348.804E-03    -341.075E-03     669.394E-03    -329.645E-03     177.429E-03     16.5483E+06     5.72179E+06    -2.12043E+06     4.66782E+06     5.36704E+06     10.1148E+06     1.49720E+06         94.7870
             106     12.9016E-03     25.3356E-03     379.066E-03    -104.060E-03    -114.075E-03    -110.347E-03     378.878E-03    -107.599E-03    -14.7483E-03     671.606E-03    -329.557E-03    -342.687E-03    -335.497E-03     664.417E-03    -329.557E-03     170.126E-03     13.6237E+06     4.10921E+06    -6.93001E+06     272.009E+03     6.42167E+06     4.10921E+06    -131.700E+03         94.6970
             107     12.8949E-03     27.2892E-03     368.163E-03    -98.1221E-03    -114.818E-03    -104.548E-03     368.114E-03    -108.342E-03     5.11901E-03     671.008E-03    -329.473E-03    -343.472E-03    -336.633E-03     664.169E-03    -329.473E-03     166.028E-03     11.0273E+06     3.80550E+06    -8.16579E+06    -3.38154E+06     6.24308E+06     3.80550E+06     233.638E+03         94.6621
             108     12.9016E-03     29.2639E-03     358.488E-03    -97.1637E-03    -109.115E-03    -96.6129E-03     357.937E-03    -109.115E-03     28.1176E-03     669.114E-03    -329.532E-03    -341.375E-03    -334.523E-03     662.261E-03    -329.532E-03     165.859E-03     12.8470E+06     5.26172E+06    -2.49478E+06     2.36854E+06     7.98366E+06     5.26172E+06     560.443E+03         94.6381
             109     12.9037E-03     31.2122E-03     369.431E-03    -107.699E-03    -113.729E-03    -111.050E-03     368.483E-03    -109.430E-03     42.6345E-03     670.221E-03    -329.539E-03    -342.033E-03    -335.440E-03     663.628E-03    -329.539E-03     162.820E-03     7.28037E+06     934.266E+03    -4.92128E+06    -3.12400E+06     5.48309E+06     934.266E+03    -881.996E+03         94.6790
             110     12.9001E-03     33.1769E-03     380.056E-03    -108.272E-03    -112.802E-03    -111.324E-03     378.809E-03    -108.503E-03     48.9328E-03     672.803E-03    -329.661E-03    -345.113E-03    -338.810E-03     666.499E-03    -329.661E-03     159.709E-03     6.64833E+06     1.12396E+06     781.368E+03     1.94298E+06     5.48672E+06     1.12396E+06     1.18518E+06         94.7230
             111     12.9029E-03     35.1574E-03     363.627E-03    -100.952E-03    -107.382E-03    -99.9676E-03     362.642E-03    -107.382E-03     40.6117E-03     669.472E-03    -329.780E-03    -340.732E-03    -334.228E-03     662.968E-03    -329.780E-03     161.556E-03     5.10850E+06     375.071E+03    -2.51309E+06    -1.55193E+06     2.03660E+06     2.48582E+06    -1.61071E+06         94.6919
             112     12.9022E-03     37.1267E-03     350.740E-03    -99.2211E-03    -106.656E-03    -98.2548E-03     349.774E-03    -106.656E-03     39.4531E-03     669.044E-03    -329.684E-03    -339.946E-03    -333.306E-03     662.404E-03    -329.684E-03     163.158E-03     6.42274E+06     631.941E+03    -2.45729E+06     1.41699E+06     437.719E+03     2.74269E+06     472.488E+03         94.6337
             113     12.9046E-03     39.0996E-03     366.409E-03    -104.118E-03    -109.234E-03    -106.993E-03     365.405E-03    -105.355E-03     41.4480E-03     670.617E-03    -329.668E-03    -342.560E-03    -336.013E-03     664.070E-03    -329.668E-03     162.357E-03     6.97317E+06    -936.691E+03    -3.72578E+06    -513.093E+03     3.76048E+06    -936.691E+03     470.892E+03         94.6201
             114     12.9055E-03     41.0797E-03     368.443E-03    -104.464E-03    -110.538E-03    -110.287E-03     368.192E-03    -104.464E-03     20.0212E-03     668.872E-03    -329.690E-03    -341.318E-03    -334.913E-03     662.467E-03    -329.690E-03     160.350E-03     8.62567E+06    -475.880E+03    -3.28857E+06     1.81148E+06     3.88436E+06    -834.627E+03     26.7815E+03         94.6423
             115     12.9054E-03     43.0582E-03     345.035E-03    -98.8114E-03    -105.894E-03    -100.848E-03     344.876E-03    -103.699E-03    -5.07671E-03     669.081E-03    -329.708E-03    -342.025E-03    -335.551E-03     662.607E-03    -329.708E-03     161.272E-03     6.39449E+06    -3.77736E+06    -8.57073E+06    -3.10251E+06     1.28502E+06    -4.13610E+06    -1.06998E+06         94.6490
             116     12.9053E-03     45.0438E-03     340.855E-03    -95.6072E-03    -101.872E-03    -95.0836E-03     340.332E-03    -101.872E-03    -29.2401E-03     669.783E-03    -329.717E-03    -342.480E-03    -335.938E-03     663.240E-03    -329.717E-03     162.219E-03     13.8685E+06    -1.30917E+06    -6.45912E+06     2.93290E+06     4.47652E+06    -1.30917E+06     1.60806E+06         94.6319
             117     12.9092E-03     47.0221E-03     363.227E-03    -99.0214E-03    -109.391E-03    -107.388E-03     362.601E-03    -100.399E-03    -33.8958E-03     669.571E-03    -329.705E-03    -341.404E-03    -334.885E-03     663.053E-03    -329.705E-03     161.822E-03     17.1271E+06    -1.67128E+06    -7.92734E+06     2.24532E+06     6.95447E+06    -1.67128E+06    -286.627E+03         94.6176
             118     12.9045E-03     48.9986E-03     361.112E-03    -99.1641E-03    -108.970E-03    -108.674E-03     360.816E-03    -99.1641E-03    -22.7119E-03     670.398E-03    -329.890E-03    -342.340E-03    -335.832E-03     663.890E-03    -329.890E-03     161.837E-03     12.0888E+06    -5.12038E+06    -10.7463E+06    -3.45551E+06     4.88320E+06    -5.20553E+06    -491.779E+03         94.6071
             119     12.9096E-03     51.0037E-03     334.523E-03    -91.5963E-03    -98.2882E-03    -92.1637E-03     334.277E-03    -97.4747E-03     4.49120E-03     668.127E-03    -330.085E-03    -339.893E-03    -333.364E-03     661.599E-03    -330.085E-03     161.696E-03     12.6173E+06    -113.748E+03    -5.66890E+06     2.14682E+06     4.88669E+06    -198.891E+03    -129.016E+03         94.5908
             120     12.9097E-03     52.9820E-03     332.633E-03    -90.5931E-03    -98.5767E-03    -91.3669E-03     331.302E-03    -96.4715E-03     43.9805E-03     667.798E-03    -329.982E-03    -339.478E-03    -332.852E-03     661.172E-03    -329.982E-03     162.844E-03     11.8991E+06     143.522E+03    -6.06347E+06    -225.240E+03     6.06090E+06     143.522E+03     91.7248E+03         94.5881
             121     12.9093E-03     54.9794E-03     343.147E-03    -96.5559E-03    -102.651E-03    -101.031E-03     341.527E-03    -96.5559E-03     52.3476E-03     670.122E-03    -329.857E-03    -342.165E-03    -335.557E-03     663.514E-03    -329.857E-03     163.044E-03     12.8953E+06    -1.36156E+06    -4.44252E+06     684.008E+03     7.76879E+06    -1.36156E+06     878.766E+03         94.6138
             122     12.9111E-03     56.9742E-03     336.079E-03    -95.7731E-03    -100.601E-03    -100.020E-03     335.498E-03    -95.7731E-03     30.2215E-03     670.807E-03    -329.898E-03    -342.385E-03    -335.997E-03     664.420E-03    -329.898E-03     160.345E-03     8.28144E+06    -1.84495E+06    -4.60640E+06    -1.19097E+06     4.86602E+06    -1.84495E+06    -1.38684E+06         94.6473
             123     12.9082E-03     58.9865E-03     322.223E-03    -89.9272E-03    -94.6030E-03    -90.6516E-03     322.109E-03    -93.7648E-03     8.30780E-03     671.120E-03    -329.991E-03    -341.594E-03    -335.232E-03     664.758E-03    -329.991E-03     159.995E-03     5.54879E+06     414.740E+03    -5.06978E+06    -313.367E+03    -1.15916E+06     2.36628E+06    -775.855E+03         94.6533
             124     12.9109E-03     60.9929E-03     328.222E-03    -89.6600E-03    -100.273E-03    -96.4223E-03     328.209E-03    -93.4976E-03    -4.50080E-03     669.626E-03    -330.027E-03    -340.015E-03    -333.411E-03     663.021E-03    -330.027E-03     162.784E-03     10.0562E+06     1.26894E+06    -5.42549E+06     1.06941E+06     1.60976E+06     3.22048E+06     1.68732E+06         94.6269
             125     12.9136E-03     63.0060E-03     338.253E-03    -93.6264E-03    -104.747E-03    -104.737E-03     338.242E-03    -93.6264E-03    -2.72757E-03     668.296E-03    -330.066E-03    -339.641E-03    -332.979E-03     661.633E-03    -330.066E-03     163.346E-03     9.22993E+06     63.8389E+03    -10.3567E+06    -777.477E+03    -349.303E+03     63.8389E+03    -1.34042E+06         94.6107
             126     12.9132E-03     65.0205E-03     322.227E-03    -90.0969E-03    -96.4647E-03    -94.2685E-03     322.053E-03    -92.1191E-03    -11.3619E-03     669.833E-03    -330.084E-03    -341.226E-03    -334.674E-03     663.282E-03    -330.084E-03     162.230E-03     9.57516E+06     4.65744E+06    -14.3333E+06     1.13083E+06    -5.88893E+06     4.65744E+06    -160.353E+03         94.6321
             127     12.9137E-03     67.0451E-03     312.902E-03    -90.2768E-03    -92.3335E-03    -89.7187E-03     312.309E-03    -92.2990E-03    -30.2540E-03     670.801E-03    -329.987E-03    -342.526E-03    -336.177E-03     664.452E-03    -329.987E-03     159.915E-03     8.50031E+06     5.14847E+06    -14.7411E+06    -1.42883E+06    -4.81200E+06     5.14847E+06     466.346E+03         94.6760
             128     12.9109E-03     69.0864E-03     324.947E-03    -94.1971E-03    -95.8845E-03    -95.3773E-03     324.440E-03    -94.1971E-03    -27.2587E-03     670.141E-03    -329.937E-03    -342.264E-03    -335.957E-03     663.834E-03    -329.937E-03     159.321E-03     14.3450E+06     3.00020E+06    -9.92138E+06     1.93107E+06     2.49252E+06     3.00020E+06     1.81710E+06         94.7183
             129     12.9115E-03     71.1482E-03     318.105E-03    -91.5153E-03    -95.4907E-03    -92.9865E-03     317.923E-03    -93.8378E-03    -17.2778E-03     669.944E-03    -329.950E-03    -341.345E-03    -335.005E-03     663.604E-03    -329.950E-03     159.642E-03     16.4357E+06    -3.90718E+06    -14.7876E+06    -2.18998E+06     3.83813E+06    -3.90718E+06    -725.241E+03         94.7279
             130     12.9108E-03     73.1940E-03     299.586E-03    -81.5339E-03    -91.5236E-03    -81.4399E-03     299.492E-03    -91.5236E-03    -7.87895E-03     669.487E-03    -329.942E-03    -340.588E-03    -334.053E-03     662.952E-03    -329.942E-03     161.953E-03     19.7698E+06    -5.50363E+06    -15.0292E+06    -295.338E+03     5.03599E+06    -5.50363E+06     1.02853E+06         94.7122
             131     12.9159E-03     75.2187E-03     306.125E-03    -81.3524E-03    -90.3924E-03    -80.7000E-03     305.473E-03    -90.3924E-03     23.6005E-03     668.345E-03    -329.983E-03    -340.033E-03    -333.540E-03     661.852E-03    -329.983E-03     161.293E-03     22.9712E+06     459.026E+03    -16.1943E+06     5.31982E+06     1.45702E+06     459.026E+03    -2.38394E+06         94.7220
             132     12.9115E-03     77.2279E-03     320.523E-03    -88.4749E-03    -95.7389E-03    -92.1387E-03     318.295E-03    -89.8476E-03     59.3985E-03     669.559E-03    -330.167E-03    -340.764E-03    -334.389E-03     663.183E-03    -330.167E-03     160.008E-03     15.6358E+06     5.13420E+06    -23.2941E+06    -3.00439E+06    -4.65388E+06     5.13420E+06    -2.34194E+06         94.7646
             133     12.9154E-03     79.2490E-03     304.884E-03    -83.3341E-03    -94.7474E-03    -86.1154E-03     301.774E-03    -88.8560E-03     69.7045E-03     670.955E-03    -330.125E-03    -341.821E-03    -335.304E-03     664.438E-03    -330.125E-03     161.955E-03     15.7186E+06     3.17049E+06    -12.9427E+06     2.70151E+06     74.3519E+03     3.17049E+06     2.82549E+06         94.7974
             134     12.9120E-03     81.2557E-03     286.734E-03    -80.8491E-03    -88.9739E-03    -77.8851E-03     283.770E-03    -88.9739E-03     65.7300E-03     667.843E-03    -329.945E-03    -339.776E-03    -333.293E-03     661.359E-03    -329.945E-03     161.127E-03     14.0705E+06    -4.28927E+06    -11.7480E+06    -813.574E+03     3.13601E+06    -4.28927E+06     943.024E+03         94.8149
             135     12.9187E-03     83.2575E-03     294.466E-03    -86.3545E-03    -94.7949E-03    -90.4063E-03     292.680E-03    -88.9574E-03     49.3818E-03     668.527E-03    -329.971E-03    -340.359E-03    -333.855E-03     662.023E-03    -329.971E-03     161.484E-03     15.5875E+06    -2.81992E+06    -13.2429E+06    -1.21175E+06     3.55635E+06    -2.81992E+06    -593.706E+03         94.8469
             136     12.9117E-03     85.2613E-03     299.236E-03    -86.2639E-03    -95.7856E-03    -95.0959E-03     298.547E-03    -86.2639E-03     788.527E-06     670.783E-03    -330.000E-03    -342.259E-03    -335.647E-03     664.172E-03    -330.000E-03     163.145E-03     11.7073E+06    -650.780E+03    -14.8356E+06    -1.40045E+06    -1.72788E+06    -650.780E+03    -1.24882E+06         94.8681
             137     12.9209E-03     87.2682E-03     290.314E-03    -82.8043E-03    -88.5181E-03    -85.9668E-03     287.763E-03    -82.8043E-03    -56.2945E-03     671.107E-03    -329.975E-03    -340.853E-03    -334.298E-03     664.552E-03    -329.975E-03     162.364E-03     10.7895E+06     2.84973E+06    -14.5095E+06     1.05939E+06    -4.77941E+06     2.84973E+06     71.6155E+03         94.8937
             138     12.9101E-03     89.2817E-03     278.856E-03    -80.9587E-03    -84.1164E-03    -80.3844E-03     275.124E-03    -80.9587E-03    -72.9493E-03     672.176E-03    -330.393E-03    -340.719E-03    -334.199E-03     665.656E-03    -330.393E-03     162.007E-03     13.3085E+06     1.99435E+06    -14.8844E+06    -642.185E+03    -933.715E+03     1.99435E+06     963.053E+03         95.0434
             139     12.9182E-03     91.2607E-03     278.509E-03    -79.9319E-03    -82.5712E-03    -79.9910E-03     275.928E-03    -79.9319E-03    -60.5629E-03     670.939E-03    -330.510E-03    -341.091E-03    -334.447E-03     664.294E-03    -330.510E-03     163.456E-03     14.3890E+06    -1.52690E+06    -14.5182E+06    -1.05206E+06     922.930E+03    -1.52690E+06     149.884E+03         95.3133
             140     12.9128E-03     93.2236E-03     281.831E-03    -78.3211E-03    -81.9214E-03    -80.4854E-03     280.395E-03    -78.3211E-03    -11.4464E-03     670.507E-03    -330.909E-03    -341.720E-03    -335.313E-03     664.101E-03    -330.909E-03     160.473E-03     11.6152E+06     1.95732E+06    -12.7006E+06    -770.620E+03    -314.765E+03     1.95732E+06    -2.02132E+06         95.5708
             141     12.9178E-03     95.2098E-03     268.921E-03    -71.8018E-03    -77.2014E-03    -71.9341E-03     266.964E-03    -75.1124E-03     48.2270E-03     669.186E-03    -331.871E-03    -340.112E-03    -333.445E-03     662.519E-03    -331.871E-03     163.322E-03     10.4535E+06     4.54163E+06    -8.79534E+06     1.75433E+06    -96.2125E+03     4.54163E+06     1.41665E+06         95.7614
             142     12.9189E-03     97.1465E-03     260.869E-03    -68.6072E-03    -76.7251E-03    -70.1537E-03     257.608E-03    -71.9178E-03     65.7081E-03     669.971E-03    -332.117E-03    -339.430E-03    -332.677E-03     663.218E-03    -332.117E-03     164.419E-03     10.5484E+06    -1.34796E+06    -13.2453E+06    -4.39100E+06     1.69413E+06    -1.34796E+06     1.02943E+06         95.8860
             143     12.9189E-03     99.1143E-03     266.189E-03    -70.6575E-03    -79.7189E-03    -75.5491E-03     262.019E-03    -70.6575E-03     75.1237E-03     672.818E-03    -332.357E-03    -341.282E-03    -334.819E-03     666.355E-03    -332.357E-03     161.368E-03     13.6749E+06    -109.617E+03    -12.5006E+06    -2.48976E+06     3.66408E+06    -109.617E+03    -477.175E+03         95.9858
             144     12.9231E-03     101.099E-03     252.998E-03    -68.4350E-03    -75.8734E-03    -69.4054E-03     249.715E-03    -71.6193E-03     63.1470E-03     671.061E-03    -332.461E-03    -340.537E-03    -334.033E-03     664.557E-03    -332.461E-03     161.686E-03     15.7772E+06     473.326E+03    -7.56086E+06     2.86315E+06     5.35317E+06     473.326E+03    -515.426E+03         96.1078
             145     12.9230E-03     103.093E-03     246.793E-03    -70.3115E-03    -76.9917E-03    -72.3722E-03     245.357E-03    -73.4957E-03     42.6878E-03     672.040E-03    -332.390E-03    -341.782E-03    -335.599E-03     665.857E-03    -332.390E-03     157.842E-03     16.3618E+06     1.19085E+06    -6.02458E+06     4.49528E+06     5.84199E+06     1.19085E+06     513.647E+03         96.1767
             146     12.9162E-03     105.082E-03     252.700E-03    -73.0993E-03    -81.1406E-03    -80.1066E-03     251.666E-03    -73.0993E-03     4.82078E-03     673.407E-03    -332.587E-03    -342.127E-03    -335.987E-03     667.267E-03    -332.587E-03     157.446E-03     14.5123E+06     662.548E+03    -9.30751E+06     1.07194E+06     4.13283E+06     662.548E+03     650.726E+03         96.0574
             147     12.9208E-03     107.065E-03     246.024E-03    -70.5318E-03    -76.9421E-03    -74.0159E-03     243.097E-03    -70.5318E-03    -55.6338E-03     671.040E-03    -332.826E-03    -339.265E-03    -332.916E-03     664.690E-03    -332.826E-03     159.674E-03     13.8732E+06     265.797E+03    -11.8786E+06    -757.289E+03     2.75193E+06     265.797E+03    -739.197E+03         95.7723
             148     12.9148E-03     109.054E-03     242.994E-03    -68.1781E-03    -75.4505E-03    -69.4688E-03     237.012E-03    -68.1781E-03    -86.2487E-03     671.005E-03    -333.097E-03    -339.173E-03    -332.678E-03     664.510E-03    -333.097E-03     161.479E-03     13.9971E+06     5.12997E+06    -10.4194E+06     1.50081E+06     255.594E+03     6.95128E+06    -779.886E+03         95.5065
             149     12.9131E-03     113.058E-03     239.048E-03    -66.6232E-03    -73.2928E-03    -67.6410E-03     233.396E-03    -66.6232E-03    -81.6296E-03     674.406E-03    -333.016E-03    -342.901E-03    -336.709E-03     668.214E-03    -333.016E-03     158.254E-03     11.0464E+06    -184.313E+03    -11.3902E+06    -986.152E+03     642.429E+03    -184.313E+03     157.137E+03         95.1508
             150     12.9167E-03     115.085E-03     236.114E-03    -63.5351E-03    -71.5064E-03    -65.7309E-03     233.101E-03    -66.2974E-03    -60.0963E-03     674.151E-03    -333.004E-03    -342.596E-03    -336.354E-03     667.909E-03    -333.004E-03     158.841E-03     12.1599E+06     1.61928E+06    -12.0868E+06    -1.47704E+06     1.55012E+06     1.61928E+06    -1.05361E+06         94.9109
             151     12.9129E-03     117.095E-03     217.081E-03    -57.9518E-03    -66.4598E-03    -56.5141E-03     215.644E-03    -66.4598E-03    -13.3175E-03     674.128E-03    -332.990E-03    -342.656E-03    -336.371E-03     667.843E-03    -332.990E-03     159.387E-03     14.0810E+06     -718.68E+03    -14.3955E+06    -4.81261E+06     4.49811E+06     -718.68E+03    -1.04862E+06         94.5656
             152     12.9145E-03     119.121E-03     224.284E-03    -58.7566E-03    -68.8341E-03    -60.9942E-03     222.190E-03    -64.5023E-03     45.5150E-03     671.599E-03    -333.022E-03    -339.997E-03    -333.732E-03     665.334E-03    -333.022E-03     158.724E-03     14.5892E+06     422.473E+03    -10.2734E+06    -584.303E+03     4.90006E+06     422.473E+03     2.24467E+06         94.2139
             153     12.9124E-03     121.033E-03     226.813E-03    -61.9823E-03    -66.5866E-03    -62.5752E-03     222.802E-03    -61.9823E-03     67.9418E-03     668.756E-03    -333.282E-03    -336.725E-03    -330.417E-03     662.448E-03    -333.282E-03     158.782E-03     12.7443E+06     1.48340E+06    -7.78892E+06     2.15100E+06     2.80435E+06     1.48340E+06     1.64454E+06         94.0863
             154     12.9148E-03     122.924E-03     213.332E-03    -61.7161E-03    -66.0022E-03    -62.6482E-03     209.978E-03    -61.7161E-03     60.0350E-03     673.066E-03    -333.608E-03    -340.999E-03    -334.792E-03     666.858E-03    -333.608E-03     158.165E-03     12.0718E+06     940.110E+03    -7.20612E+06    -800.198E+03     5.66588E+06     940.110E+03     629.024E+03         94.2319
             155     12.9119E-03     124.952E-03     204.639E-03    -61.2547E-03    -66.6482E-03    -65.4743E-03     203.465E-03    -61.2547E-03     28.5585E-03     674.844E-03    -333.740E-03    -342.515E-03    -336.239E-03     668.567E-03    -333.740E-03     159.282E-03     14.5151E+06     2.82809E+06    -4.85638E+06     1.40290E+06     8.25583E+06     2.82809E+06     517.965E+03         94.4076
             156     12.9144E-03     126.838E-03     197.311E-03    -59.3175E-03    -62.6120E-03    -60.9550E-03     195.654E-03    -59.3175E-03    -25.7366E-03     673.909E-03    -333.785E-03    -341.640E-03    -335.313E-03     667.581E-03    -333.785E-03     159.800E-03     17.9312E+06     4.81189E+06    -5.42813E+06     5.10951E+06     7.39353E+06     4.81189E+06    -765.393E+03         94.3827
             157     12.9081E-03     128.698E-03     205.580E-03    -57.0417E-03    -64.2424E-03    -59.1160E-03     200.454E-03    -57.0417E-03    -72.6499E-03     674.048E-03    -333.860E-03    -342.216E-03    -335.979E-03     667.811E-03    -333.860E-03     158.734E-03     11.7295E+06    -286.604E+03    -13.1292E+06    -3.41045E+06     2.01068E+06    -286.604E+03    -1.48611E+06         94.2754
             158     12.9162E-03     130.529E-03     200.219E-03    -53.3361E-03    -59.8294E-03    -54.1920E-03     195.788E-03    -54.5431E-03    -64.7581E-03     673.759E-03    -333.808E-03    -341.986E-03    -335.459E-03     667.231E-03    -333.808E-03     162.315E-03     16.2392E+06     5.14213E+06    -13.1421E+06     3.32455E+06    -227.441E+03     5.14213E+06     234.321E+03         94.2880
             159     12.9112E-03     132.409E-03     185.632E-03    -52.0040E-03    -54.8756E-03    -47.9941E-03     179.958E-03    -53.2110E-03    -67.9421E-03     673.718E-03    -333.715E-03    -342.295E-03    -335.885E-03     667.308E-03    -333.715E-03     160.859E-03     17.9668E+06     7.40829E+06    -16.3280E+06      116.67E+03     1.52214E+06     7.40829E+06     850.632E+03         94.3229
             160     12.9122E-03     134.210E-03     189.840E-03    -53.3798E-03    -63.2572E-03    -57.3703E-03     183.954E-03    -53.3798E-03    -71.5036E-03     673.814E-03    -333.767E-03    -342.640E-03    -336.617E-03     667.791E-03    -333.767E-03     156.017E-03     11.7177E+06     978.949E+03    -14.2373E+06    -6.77585E+06     4.25625E+06     978.949E+03     1.22144E+06         94.2877
             161     12.9092E-03     135.984E-03     177.182E-03    -46.5216E-03    -60.2622E-03    -53.0466E-03     175.494E-03    -52.0494E-03    -39.1458E-03     672.302E-03    -333.896E-03    -341.043E-03    -334.815E-03     666.073E-03    -333.896E-03     158.349E-03     13.2720E+06     5.80026E+06    -3.23996E+06     3.75090E+06     6.28113E+06     5.80026E+06    -841.894E+03         94.2273
             162     12.9172E-03     137.933E-03     168.515E-03    -43.1210E-03    -55.5134E-03    -49.4518E-03     167.981E-03    -48.6487E-03    -14.6883E-03     671.729E-03    -333.922E-03    -340.231E-03    -333.764E-03     665.262E-03    -333.922E-03     161.275E-03     11.7765E+06     10.4538E+06    -6.74936E+06     2.07811E+06     2.94903E+06     10.4538E+06    -1.44982E+06         94.1376
             163     12.9137E-03     139.920E-03     175.647E-03    -45.2363E-03    -52.3941E-03    -50.1993E-03     173.745E-03    -45.5294E-03     28.4263E-03     673.497E-03    -333.851E-03    -342.001E-03    -335.757E-03     667.253E-03    -333.851E-03     158.757E-03     10.7627E+06     9.83387E+06    -10.2496E+06    -278.428E+03    -52.5256E+03     10.6779E+06     259.091E+03         94.0209
             164     12.9179E-03     141.909E-03     175.499E-03    -44.6039E-03    -52.8842E-03    -47.4766E-03     170.385E-03    -44.8970E-03     67.1295E-03     673.700E-03    -333.865E-03    -342.138E-03    -335.971E-03     667.533E-03    -333.865E-03     157.821E-03     10.9845E+06     9.77019E+06    -10.9727E+06    -71.0145E+03    -761.235E+03     10.6143E+06     46.0147E+03         93.9151
             165     12.9138E-03     143.891E-03     163.563E-03    -45.6155E-03    -53.9618E-03    -50.3899E-03     160.350E-03    -45.9745E-03     38.4474E-03     674.365E-03    -333.820E-03    -342.827E-03    -336.453E-03     667.991E-03    -333.820E-03     160.532E-03     13.3663E+06     9.18992E+06    -12.0513E+06    -1.88422E+06     3.19919E+06     9.18992E+06    -157.018E+03         93.8471
             166     12.9183E-03     145.885E-03     143.154E-03    -38.9976E-03    -45.9098E-03    -37.7618E-03     141.919E-03    -45.9098E-03    -20.3550E-03     675.041E-03    -333.770E-03    -343.665E-03    -337.444E-03     668.820E-03    -333.770E-03     158.693E-03     12.1534E+06     7.45325E+06    -7.64339E+06    -3.90327E+06     7.51919E+06     8.34736E+06     1.60809E+06         93.8170
             167     12.9109E-03     147.870E-03     153.177E-03    -37.3684E-03    -57.6613E-03    -42.8305E-03     144.900E-03    -43.9216E-03    -76.7056E-03     673.764E-03    -333.836E-03    -342.129E-03    -335.954E-03     667.589E-03    -333.836E-03     157.898E-03     15.8870E+06     12.1105E+06    -2.01144E+06     1.96516E+06     11.0163E+06     13.0047E+06     1.70081E+06         93.8028
             168     12.9172E-03     149.817E-03     167.043E-03    -42.8530E-03    -62.6384E-03    -46.6101E-03     151.015E-03    -42.8530E-03    -116.555E-03     672.583E-03    -333.838E-03    -340.655E-03    -334.305E-03     666.233E-03    -333.838E-03     159.920E-03     20.5395E+06     15.4066E+06    -1.64434E+06     3.45338E+06     13.1912E+06     17.6572E+06     146.315E+03         93.7956
             169     12.9132E-03     151.792E-03     162.206E-03    -43.0262E-03    -51.4582E-03    -41.2108E-03     151.958E-03    -43.0262E-03    -37.2805E-03     672.490E-03    -333.629E-03    -340.785E-03    -334.385E-03     666.091E-03    -333.629E-03     160.533E-03     23.0532E+06     11.7166E+06    -7.53424E+06    -3.44464E+06     7.62697E+06     23.0532E+06    -2.07339E+06         93.8102
             170     12.9198E-03     153.788E-03     148.137E-03    -41.9406E-03    -44.5889E-03    -39.6010E-03     143.412E-03    -42.2026E-03     57.0620E-03     673.834E-03    -333.379E-03    -342.168E-03    -335.588E-03     667.255E-03    -333.379E-03     162.994E-03     31.5289E+06     12.2352E+06    -4.72370E+06     105.017E+03     7.40652E+06     31.5289E+06     434.409E+03         93.8395
             171     12.9200E-03     155.774E-03     140.999E-03    -40.4862E-03    -46.9238E-03    -37.3091E-03     131.646E-03    -40.7482E-03     81.2141E-03     674.671E-03    -333.031E-03    -342.943E-03    -336.579E-03     668.307E-03    -333.031E-03     160.397E-03     29.9187E+06     11.6120E+06    -7.66268E+06    -2.88929E+06     6.83860E+06     29.9187E+06     316.835E+03         93.8659
             172     12.9221E-03     157.741E-03     140.334E-03    -36.8780E-03    -44.3429E-03    -32.7852E-03     130.066E-03    -38.1673E-03     84.2787E-03     673.710E-03    -332.868E-03    -341.964E-03    -335.708E-03     667.454E-03    -332.868E-03     158.910E-03     29.1505E+06     10.9230E+06    -7.21630E+06    -3.34390E+06     7.05059E+06     29.1505E+06     1.18164E+06         93.8745
             173     12.9239E-03     159.713E-03     128.964E-03    -35.6627E-03    -42.4423E-03    -36.3578E-03     124.169E-03    -36.9520E-03     25.4043E-03     671.620E-03    -332.630E-03    -339.825E-03    -333.066E-03     664.862E-03    -332.630E-03     164.751E-03     36.6656E+06     12.8402E+06    -3.88446E+06     -146.01E+03     9.10176E+06     36.6656E+06    -136.519E+03         93.8371
             174     12.9358E-03     161.683E-03     130.297E-03    -37.3187E-03    -48.0160E-03    -47.2973E-03     129.578E-03    -37.3187E-03    -1.35957E-03     669.477E-03    -331.970E-03    -338.804E-03    -332.025E-03     662.698E-03    -331.970E-03     164.752E-03     45.8291E+06     14.7427E+06    -953.236E+03     1.59761E+06     12.1919E+06     45.8291E+06     723.575E+03         93.8138
             175     12.9352E-03     163.642E-03     116.921E-03    -24.3565E-03    -40.4615E-03    -28.5315E-03     115.889E-03    -35.2545E-03     23.0648E-03     671.007E-03    -331.654E-03    -340.954E-03    -334.464E-03     664.518E-03    -331.654E-03     161.553E-03     47.0781E+06     21.1961E+06    -6.58221E+06    -3.97704E+06     18.5910E+06     47.0781E+06     1.82713E+06         93.8963
             176     12.9385E-03     165.608E-03     110.108E-03    -22.2173E-03    -41.2345E-03    -27.7290E-03     107.500E-03    -33.1153E-03     37.6568E-03     668.250E-03    -331.101E-03    -338.666E-03    -331.666E-03     661.250E-03    -331.101E-03     167.197E-03     52.7049E+06     22.7455E+06    -5.74244E+06    -2.37451E+06     19.3776E+06     52.7049E+06     547.176E+03         94.1452
             177     12.9648E-03     167.354E-03     130.913E-03    -31.4182E-03    -46.5090E-03    -32.0220E-03     116.426E-03    -31.4182E-03     88.1750E-03     664.058E-03    -329.660E-03    -335.824E-03    -328.048E-03     656.282E-03    -329.660E-03     175.639E-03     59.8148E+06     27.5724E+06     782.409E+03     4.35286E+06     24.0020E+06     59.8148E+06     1.81572E+06         94.3440
             178     12.9667E-03     169.338E-03     112.858E-03    -28.8097E-03    -36.9167E-03    -22.4279E-03     99.5042E-03    -29.9451E-03     76.0057E-03     666.481E-03    -328.740E-03    -338.261E-03    -330.745E-03     658.965E-03    -328.740E-03     173.026E-03     58.9771E+06     30.0126E+06    -6.96428E+06    -6.17904E+06     29.2273E+06     58.9771E+06    -191.473E+03         94.0104
             179     12.9744E-03     171.315E-03     102.537E-03    -28.3992E-03    -42.0898E-03    -39.9011E-03     101.484E-03    -29.5346E-03     23.2637E-03     668.742E-03    -327.973E-03    -340.740E-03    -334.325E-03     662.328E-03    -327.973E-03     160.260E-03     72.7625E+06     31.5223E+06    -636.461E+03     421.444E+03     30.4644E+06     72.7625E+06     460.276E+03         93.3680
             180     12.9762E-03     173.219E-03     107.888E-03    -24.1966E-03    -39.9108E-03    -31.5302E-03     102.667E-03    -27.3556E-03    -22.1638E-03     664.890E-03    -326.812E-03    -337.715E-03    -331.045E-03     658.220E-03    -326.812E-03     162.653E-03     77.9973E+06     36.9695E+06    -5.90162E+06    -5.20163E+06     36.2695E+06     77.9973E+06     1.06180E+06         93.3927
             181     13.0088E-03     175.123E-03     91.3731E-03    -22.4457E-03    -28.5026E-03    -20.3431E-03     86.3726E-03    -25.6047E-03    -36.9113E-03     657.150E-03    -325.999E-03    -330.097E-03    -322.094E-03     649.147E-03    -325.999E-03     176.939E-03     82.8813E+06     40.5406E+06     2.76893E+06     3.47238E+06     39.8371E+06     82.8813E+06     596.363E+03         94.1360
             182     13.0119E-03     177.141E-03     98.5772E-03    -24.7707E-03    -36.0917E-03    -23.2103E-03     85.6958E-03    -24.7707E-03     52.5772E-03     659.141E-03    -325.329E-03    -332.213E-03    -324.232E-03     651.160E-03    -325.329E-03     177.046E-03     83.3087E+06     39.2885E+06    -7.48915E+06    -6.90982E+06     38.7092E+06     83.3087E+06     1.38609E+06         94.3424
             183     13.0209E-03     179.164E-03     92.3461E-03    -23.0362E-03    -33.1739E-03    -13.5691E-03     72.7413E-03    -23.0362E-03     91.0031E-03     660.642E-03    -324.678E-03    -335.781E-03    -328.490E-03     653.352E-03    -324.678E-03     169.837E-03     81.1579E+06     39.0349E+06    -8.79213E+06    -8.72095E+06     38.9638E+06     81.1579E+06    -1.84106E+06         93.4763
             184     13.0329E-03     181.094E-03     84.0373E-03    -21.9670E-03    -36.7245E-03    -23.0422E-03     70.3550E-03    -21.9670E-03     76.1455E-03     653.470E-03    -323.622E-03    -330.075E-03    -322.272E-03     645.666E-03    -323.622E-03     174.326E-03     85.4294E+06     41.0806E+06    -2.01554E+06    -1.94419E+06     41.0092E+06     85.4294E+06     545.216E+03         92.3363
             185     13.0564E-03     183.051E-03     83.4516E-03    -18.9024E-03    -33.5534E-03    -22.4843E-03     73.9906E-03    -20.5105E-03     62.8403E-03     642.807E-03    -319.024E-03    -324.014E-03    -310.658E-03     632.930E-03    -322.502E-03     193.481E-03     92.9178E+06     47.9944E+06    -3.67954E+06    -3.60682E+06     47.9217E+06     92.9178E+06     1.93032E+06         91.4285
             186     13.1004E-03     184.873E-03     79.2802E-03    -17.2853E-03    -29.5836E-03    -24.4167E-03     75.7215E-03    -18.8935E-03     5.06568E-03     626.640E-03    -306.716E-03    -319.477E-03    -294.283E-03     614.208E-03    -319.477E-03     213.666E-03     98.7729E+06     55.8972E+06    -1.02482E+06    -997.111E+03     55.8695E+06     98.7729E+06     581.308E+03         90.3643
             187     13.1647E-03     186.733E-03     68.6425E-03    -13.2726E-03    -28.8157E-03    -22.9887E-03     67.6684E-03    -18.1255E-03    -16.2071E-03     605.266E-03    -289.880E-03    -314.696E-03    -274.270E-03     589.656E-03    -314.696E-03     233.633E-03     95.3766E+06     52.7858E+06    -1.30830E+06    -1.26000E+06     52.7376E+06     95.3766E+06     774.898E+03         88.8947
             188     13.2610E-03     188.456E-03     52.4288E-03    -8.89292E-03    -17.5322E-03    -8.88923E-03     52.4251E-03    -17.5322E-03    -829.313E-06     587.845E-03    -278.724E-03    -308.405E-03    -260.159E-03     569.280E-03    -308.405E-03     250.831E-03     98.6661E+06     51.5096E+06    -5.05707E+06    -4.80937E+06     51.2619E+06     98.6661E+06     3.66719E+06         87.6500
             189     13.3567E-03     190.296E-03     51.1255E-03    -12.8553E-03    -21.2064E-03    -17.2847E-03     50.9902E-03    -16.6417E-03     4.21781E-03     581.300E-03    -279.955E-03    -300.501E-03    -260.405E-03     561.751E-03    -300.501E-03     256.552E-03     100.618E+06     66.8037E+06     1.53449E+06     2.06574E+06     66.2725E+06     100.618E+06     5.76779E+06         87.5944
             190     13.4552E-03     192.032E-03     50.4764E-03    -14.5912E-03    -19.9345E-03    -15.6200E-03     46.1620E-03    -14.5912E-03    -17.9344E-03     595.673E-03    -287.212E-03    -308.742E-03    -285.519E-03     578.848E-03    -293.610E-03     242.209E-03     102.799E+06     59.4651E+06    -5.70925E+06    -4.09802E+06     57.8539E+06     102.799E+06    -3.61391E+06         88.8346
             191     13.4932E-03     193.959E-03     55.3938E-03    -12.8228E-03    -15.5530E-03    -10.8607E-03     50.7015E-03    -12.8228E-03    -30.9914E-03     636.805E-03    -289.035E-03    -347.845E-03    -336.131E-03     625.091E-03    -289.035E-03     211.761E-03     125.613E+06     31.5461E+06    -27.1553E+06    -4.43795E+06     8.82878E+06     125.613E+06    -1.98013E+06         90.7757
             192     13.5048E-03     195.958E-03     60.0341E-03    -12.3076E-03    -23.8493E-03    -10.3734E-03     46.5581E-03    -12.3076E-03     33.3802E-03     678.696E-03    -286.513E-03    -392.175E-03    -384.097E-03     670.618E-03    -286.513E-03     184.429E-03     119.687E+06     8.17593E+06    -72.5326E+06    -4.32424E+06    -60.0325E+06     119.687E+06    -18.4474E+06         93.0378
             193     13.5027E-03     197.947E-03     38.0746E-03    -9.74167E-03    -21.1508E-03    -2.05119E-03     20.7940E-03    -11.5606E-03     52.2632E-03     702.628E-03    -285.464E-03    -417.020E-03    -411.220E-03     696.828E-03    -285.464E-03     160.095E-03     118.608E+06     28.8889E+06    -77.6331E+06     4.85756E+06    -53.6018E+06     118.608E+06    -1.97130E+06         95.2481
             194     13.5052E-03     199.854E-03     31.7792E-03    -8.13839E-03    -11.2983E-03    -5.15818E-03     27.4579E-03    -9.95730E-03     10.9270E-03     711.622E-03    -285.515E-03    -426.009E-03    -420.886E-03     706.499E-03    -285.515E-03     152.287E-03     123.054E+06     25.7964E+06    -54.4455E+06    -8.48834E+06    -20.1608E+06     123.054E+06     6.27419E+06         97.1033
             195     13.5030E-03     201.842E-03     58.7431E-03    -7.66744E-03    -25.3953E-03    -20.7960E-03     54.1438E-03    -7.66744E-03     30.5946E-03     711.664E-03    -285.574E-03    -426.025E-03    -420.596E-03     706.235E-03    -285.574E-03     156.803E-03     135.690E+06     51.5256E+06    -29.1401E+06     4.33616E+06     18.0494E+06     135.690E+06     9.41708E+06         98.6884
             196     13.5048E-03     203.797E-03     52.5609E-03    -6.40820E-03    -38.9417E-03    -22.9287E-03     36.5480E-03    -6.40820E-03     64.9047E-03     708.452E-03    -285.757E-03    -422.918E-03    -416.869E-03     702.403E-03    -285.757E-03     164.789E-03     134.621E+06     88.4710E+06    -38.3060E+06    -10.5144E+06     60.6794E+06     134.621E+06     6.03270E+06         99.6267
             197     13.5018E-03     205.913E-03     36.2693E-03    -5.51823E-03    -38.6434E-03    -12.7281E-03     10.3540E-03    -5.51823E-03     70.8621E-03     699.626E-03    -286.255E-03    -413.886E-03    -407.094E-03     692.834E-03    -286.255E-03     173.382E-03     134.135E+06     90.8042E+06    -20.3181E+06     7.09246E+06     63.3936E+06     134.135E+06    -3.02934E+06         98.6553
             198     13.5061E-03     208.057E-03     18.6145E-03    -3.49747E-03    -23.0350E-03    -4.94347E-03     522.926E-06    -3.49747E-03     40.3076E-03     682.731E-03    -286.708E-03    -396.734E-03    -390.859E-03     676.856E-03    -286.708E-03     158.302E-03     137.055E+06     75.5265E+06    -45.0405E+06    -18.3931E+06     48.8791E+06     137.055E+06    -2.54705E+06         95.1316
             199     13.5027E-03     210.118E-03     14.1660E-03     4.12387E-03    -5.17145E-03     5.51049E-03     10.2203E-03    -2.61239E-03     1.23275E-03     653.613E-03    -287.071E-03    -367.155E-03    -363.098E-03     649.556E-03    -287.071E-03     128.081E-03     173.187E+06     88.8345E+06    -67.0803E+06     3.43546E+06     18.3187E+06     173.187E+06     -7.2375E+06         89.7751
             200     13.5139E-03     212.076E-03     15.9534E-03     4.40569E-03    -6.87747E-03     7.25915E-03     8.55308E-03    -2.33058E-03    -9.50262E-03     607.461E-03    -287.933E-03    -319.439E-03    -316.053E-03     604.075E-03    -287.933E-03     111.737E-03     188.445E+06     75.7536E+06    -62.8320E+06     3.97970E+06     8.94187E+06     188.445E+06     8.11760E+06         83.3921
             201     13.5097E-03     213.960E-03     20.9452E-03    -15.3714E-06    -5.68095E-03     8.42241E-03     7.96048E-03    -1.13405E-03    -22.5456E-03     538.029E-03    -246.676E-03    -291.144E-03    -242.678E-03     532.582E-03    -289.695E-03     126.640E-03     204.998E+06     62.5062E+06    -53.1704E+06     -7.7216E+06     17.0574E+06     204.998E+06     -26.917E+03         76.2676
             202     13.5238E-03     215.599E-03     25.8578E-03     319.954E-06    -6.11879E-03     1.14710E-03     19.7106E-03    -798.724E-06    -12.8594E-03     333.845E-03    -37.9649E-03    -296.010E-03    -33.8378E-03     329.718E-03    -296.010E-03     65.6980E-03     216.104E+06     123.901E+06    -28.6266E+06     25.1559E+06     87.2550E+06     198.968E+06    -28.7871E+06         69.9836
             203     12.1690E-03     216.460E-03     20.9483E-03    -1.19376E-03    -15.0703E-03     6.44317E-03    -565.123E-06    -1.19376E-03    -5.41700E-03     231.955E-03     79.6630E-03    -311.710E-03     86.7515E-03     224.867E-03    -311.710E-03    -63.4715E-03     74.7902E+06     57.0596E+06    -168.871E+06    -43.7729E+06    -50.9023E+06     57.6540E+06    -15.1342E+06         66.6166
             204     11.2995E-03     215.812E-03     18.0165E-03    -1.08873E-03    -19.6376E-03     1.66582E-03    -3.28694E-03    -1.08873E-03    -9.03840E-03     271.868E-03     57.2672E-03    -329.175E-03     66.8475E-03     262.288E-03    -329.175E-03    -88.2265E-03     96.6128E+06     48.6430E+06    -143.992E+06    -18.1002E+06    -77.2486E+06     96.6128E+06    -8.29793E+06         65.3089
             205     10.3571E-03     215.126E-03     5.71352E-03    -829.905E-06    -17.0053E-03    -9.79948E-03    -1.49226E-03    -829.905E-06     1.20467E-03     259.328E-03     84.4709E-03    -344.053E-03     94.3922E-03     249.407E-03    -344.053E-03    -79.2160E-03     185.480E+06     47.5719E+06    -59.6216E+06    -17.2485E+06     5.19884E+06     185.480E+06    -21.2573E+06         64.3397
             206     9.46228E-03     214.437E-03     9.44444E-03    -514.546E-06    -23.2897E-03    -15.9527E-03     2.10745E-03    -514.546E-06     5.09762E-03     282.858E-03     74.7514E-03    -357.805E-03     96.3300E-03     261.280E-03    -357.805E-03    -125.843E-03     158.344E+06     31.7004E+06    -70.8980E+06    -24.5799E+06    -14.6177E+06     158.344E+06    -24.0168E+06         63.3630
             207     8.62933E-03     213.679E-03     21.4025E-03     363.153E-06    -22.3740E-03    -14.2942E-03     13.3227E-03     363.153E-06    -14.5000E-03     317.017E-03     52.0500E-03    -369.013E-03     94.5798E-03     274.487E-03    -369.013E-03    -193.086E-03     126.143E+06     22.7155E+06    -78.9656E+06    -35.0275E+06    -21.2226E+06     126.143E+06    -34.4964E+06         62.4658
             208     7.82440E-03     212.973E-03     23.3968E-03     941.489E-06    -17.2269E-03    -7.65485E-03     13.8248E-03     941.489E-06    -6.56651E-03     351.789E-03     25.3546E-03    -377.352E-03     96.1865E-03     280.957E-03    -377.352E-03    -268.362E-03     100.663E+06     3.89739E+06    -92.3002E+06    -41.1702E+06    -47.2326E+06     100.663E+06    -37.0424E+06         61.9417
             209     7.09191E-03     212.202E-03     13.0999E-03     658.548E-06    -23.4348E-03    -18.5564E-03     8.22157E-03     658.548E-06     23.5442E-03     386.284E-03    -6.09381E-03    -379.776E-03     94.0668E-03     286.123E-03    -379.776E-03    -341.926E-03     82.5824E+06     19.3698E+06     -94.734E+06    -44.1272E+06    -31.2370E+06     82.5824E+06    -54.4020E+06         61.9605
             210     6.39893E-03     211.493E-03     22.0058E-03     4.85978E-03    -12.3218E-03    -2.96473E-03     17.7604E-03    -251.863E-06     19.4022E-03     421.938E-03    -44.3534E-03    -376.516E-03     87.5308E-03     290.054E-03    -376.516E-03    -419.781E-03     50.5880E+06    -8.75398E+06    -107.063E+06    -55.3376E+06    -60.4799E+06     50.5880E+06    -48.5199E+06         62.3146
             211     5.72845E-03     210.796E-03     36.7451E-03     4.81713E-03    -12.1909E-03    -3.71223E-03     33.3781E-03    -294.520E-06     23.3071E-03     459.757E-03    -92.2194E-03    -367.610E-03     69.8026E-03     297.735E-03    -367.610E-03    -502.714E-03     17.6037E+06    -8.68559E+06    -129.503E+06    -62.6173E+06    -74.8592E+06     16.8921E+06    -59.6227E+06         62.6395
             212     5.19452E-03     210.109E-03     37.8208E-03     1.63912E-03    -24.6609E-03    -4.03050E-03     17.1904E-03     1.63912E-03    -17.6632E-03     500.545E-03    -148.521E-03    -352.837E-03     25.1518E-03     326.873E-03    -352.837E-03    -573.717E-03     4.53634E+06    -15.6495E+06    -146.800E+06    -79.7244E+06    -62.5396E+06    -15.6495E+06    -70.6488E+06         62.7062
             213     4.55107E-03     209.649E-03     46.5375E-03     3.38176E-03    -17.7258E-03     594.866E-06     28.2169E-03     3.38176E-03    -30.6845E-03     534.192E-03    -197.955E-03    -336.403E-03    -30.0044E-03     366.241E-03    -336.403E-03    -614.987E-03    -8.22123E+06    -42.3500E+06    -144.343E+06    -91.2231E+06    -61.3413E+06    -42.3500E+06    -63.9703E+06         62.2136
             214     3.96102E-03     209.172E-03     42.5320E-03     5.01229E-03    -23.9920E-03    -17.0014E-03     35.5414E-03     5.01229E-03     31.1682E-03     554.473E-03    -235.408E-03    -319.180E-03    -85.1212E-03     404.187E-03    -319.180E-03    -618.394E-03     634.794E+03    -59.2752E+06    -158.247E+06    -97.8566E+06    -59.7555E+06    -59.2752E+06    -74.6203E+06         61.0130
             215     3.35310E-03     208.799E-03     21.8983E-03     5.54607E-03    -32.5294E-03    -22.3302E-03     8.95032E-03     8.29480E-03     15.5362E-03     564.350E-03    -264.152E-03    -300.255E-03    -143.746E-03     443.944E-03    -300.255E-03    -581.553E-03    -19.9309E+06    -88.7229E+06    -169.694E+06    -121.357E+06    -68.2672E+06    -88.7229E+06    -69.5794E+06         59.4818
             216     2.73926E-03     208.454E-03     14.6023E-03     7.86464E-03    -11.7385E-03    -1.43066E-03     1.54569E-03     10.6134E-03    -17.4912E-03     564.720E-03    -274.678E-03    -289.360E-03    -196.343E-03     479.306E-03    -282.281E-03    -506.107E-03    -30.7898E+06    -112.498E+06    -172.160E+06    -136.138E+06    -66.8117E+06    -112.498E+06    -59.4988E+06         57.9875
             217     2.11087E-03     208.218E-03     20.7927E-03     7.88891E-03     203.430E-06     14.3094E-03     6.68681E-03     7.88891E-03     8.00277E-03     554.393E-03    -265.102E-03    -288.603E-03    -241.516E-03     507.306E-03    -265.102E-03    -377.151E-03    -28.7488E+06    -124.814E+06    -160.650E+06    -129.103E+06    -60.2959E+06    -124.814E+06    -54.6945E+06         56.6647
             218     1.46405E-03     208.094E-03     13.7982E-03     3.04945E-03    -27.3920E-03     7.75047E-03    -21.3443E-03     3.04945E-03     6.44704E-03     522.695E-03    -248.021E-03    -274.508E-03    -258.552E-03     506.739E-03    -248.021E-03    -208.604E-03    -23.9655E+06    -131.395E+06    -148.599E+06    -128.861E+06    -43.7040E+06    -131.395E+06    -38.8998E+06         55.6905
             219     761.589E-06     208.070E-03     67.1967E-03    -6.74470E-03    -60.8069E-03     23.9782E-03     9.88969E-03    -34.2227E-03     64.5558E-03     482.691E-03    -223.122E-03    -259.278E-03    -256.815E-03     480.228E-03    -223.122E-03    -58.5611E-03    -31.9152E+06    -113.970E+06    -137.011E+06    -126.398E+06    -42.5284E+06    -113.970E+06    -28.7874E+06         55.2720
             220    -22.6039E-06     206.704E-03     116.815E-03     23.3089E-03    -118.694E-03     50.2239E-03    -24.6250E-03    -4.16915E-03     173.987E-03     387.561E-03    -178.132E-03    -209.035E-03    -203.762E-03     387.102E-03    -182.945E-03    -18.0684E-03    -94.5633E+06    -188.223E+06    -203.841E+06    -198.035E+06    -100.369E+06    -188.223E+06    -9.13221E+06         52.9527
             221     4.50189E-06     205.258E-03     95.6203E-03     32.7370E-03    -87.1430E-03     36.0885E-03    -27.6112E-03     32.7370E-03     63.4345E-03     251.346E-03    -122.738E-03    -128.508E-03    -123.236E-03     250.887E-03    -127.552E-03    -21.9461E-03    -172.822E+06    -288.853E+06    -310.346E+06    -306.606E+06    -176.561E+06    -288.853E+06    -12.8997E+06         48.7032
             222    -5.95660E-06     203.991E-03     65.4240E-03    -10.3622E-03    -24.5390E-03     15.7495E-03     25.1355E-03    -10.3622E-03    -80.0274E-03     172.549E-03    -84.9873E-03    -87.5674E-03    -85.8852E-03     172.491E-03    -86.6110E-03     3.42598E-03    -258.604E+06    -398.511E+06    -415.730E+06    -408.104E+06    -266.230E+06    -398.511E+06    -33.1187E+06         45.7381
             223     841.239E-09     202.851E-03     58.6606E-03    -3.51553E-03    -49.8207E-03    -20.3639E-03     29.2037E-03    -3.51553E-03    -47.4416E-03     155.404E-03    -76.7725E-03    -78.6867E-03    -76.6825E-03     155.023E-03    -78.3962E-03     17.4263E-03    -253.487E+06    -393.076E+06    -417.351E+06    -363.866E+06    -306.973E+06    -393.076E+06    -3.34591E+06         44.3344
             224     163.488E-09     201.717E-03     81.8520E-03     17.3112E-03    -63.2991E-03    -3.19155E-03     64.8716E-03    -25.8160E-03     29.3749E-03     187.365E-03    -93.4588E-03    -93.9461E-03    -93.0542E-03     186.669E-03    -93.6556E-03     27.8959E-03    -184.019E+06    -220.015E+06    -290.044E+06    -228.329E+06    -247.158E+06    -218.591E+06     38.0491E+06         44.0552
             225     1.71112E-06     200.559E-03     67.4212E-03     12.7834E-03    -48.3312E-03     19.7090E-03     42.5082E-03    -30.3438E-03     6.45274E-03     253.824E-03    -126.394E-03    -127.443E-03    -125.770E-03     253.200E-03    -127.443E-03     30.3547E-03    -92.4718E+06    -123.363E+06    -211.762E+06    -134.690E+06    -170.968E+06    -121.940E+06     5.89749E+06         44.9999
             226    -2.06193E-06     199.237E-03     43.1908E-03     22.0490E-03    -62.0224E-03    -15.0816E-03    -3.74999E-03     22.0490E-03    -98.8290E-03     334.680E-03    -165.657E-03    -169.021E-03    -165.159E-03     334.183E-03    -169.021E-03     31.4596E-03    -58.7296E+06    -102.153E+06    -179.491E+06    -78.0406E+06    -174.136E+06    -88.1974E+06    -7.36079E+06         47.7649
             227    -748.156E-09     197.767E-03     103.574E-03    -2.20665E-03    -79.6184E-03     7.68130E-03     27.6017E-03    -13.5345E-03    -167.380E-03     413.574E-03    -205.074E-03    -208.500E-03    -205.666E-03     413.251E-03    -207.586E-03     26.8982E-03    -61.4809E+06    -94.4949E+06    -198.495E+06    -78.2901E+06    -195.641E+06    -80.5392E+06    -1.69382E+06         52.5263
             228     2.28465E-06     196.235E-03     105.256E-03    -8.75616E-03    -66.2854E-03    -9.10687E-03     59.4056E-03    -20.0840E-03    -57.3987E-03     477.900E-03    -238.120E-03    -239.763E-03    -239.563E-03     477.700E-03    -238.120E-03     23.8934E-03    -52.8506E+06    -83.2397E+06    -207.396E+06    -66.4768E+06    -205.101E+06    -71.9089E+06    -1.44086E+06         58.0851
             229    -788.450E-09     194.608E-03     83.5111E-03     8.82607E-03    -82.5370E-03    -16.8959E-03     63.0316E-03    -36.3355E-03     90.5121E-03     527.943E-03    -263.434E-03    -264.499E-03    -263.999E-03     527.779E-03    -263.770E-03     22.0008E-03    -67.1842E+06    -86.8164E+06    -212.064E+06    -80.7337E+06    -209.845E+06    -75.4857E+06    -552.462E+03         62.9535
             230     279.353E-09     192.893E-03     154.096E-03    -10.6900E-03    -125.688E-03    -19.2796E-03     92.8490E-03    -55.8516E-03     204.557E-03     564.080E-03    -281.226E-03    -282.956E-03    -282.551E-03     564.011E-03    -281.562E-03     15.0852E-03    -92.1817E+06    -100.846E+06    -220.554E+06    -94.0314E+06    -219.068E+06    -100.483E+06    -3.92328E+06         66.4827
             231     1.68529E-06     191.119E-03     214.716E-03    -1.67168E-03    -178.379E-03    -23.7292E-03     60.0665E-03    -1.67168E-03     376.745E-03     586.958E-03    -292.594E-03    -294.520E-03    -294.477E-03     586.914E-03    -292.594E-03     12.2973E-03    -118.313E+06    -122.920E+06    -228.471E+06    -119.552E+06    -227.596E+06    -122.557E+06      -66.22E+03         68.7773
             232    -1.04480E-06     189.297E-03     228.045E-03    -8.59440E-03    -179.783E-03     16.0359E-03     32.2259E-03    -8.59440E-03     407.475E-03     599.737E-03    -298.900E-03    -300.702E-03    -299.410E-03     599.714E-03    -300.170E-03     8.62000E-03    -132.078E+06    -137.729E+06    -234.221E+06    -134.346E+06    -233.359E+06    -136.323E+06    -573.253E+03         70.1782
             233    -187.266E-09     187.468E-03     182.228E-03    -8.54772E-03    -160.801E-03    -40.0642E-03     61.4916E-03    -8.54772E-03     309.611E-03     604.773E-03    -301.618E-03    -303.076E-03    -301.793E-03     604.760E-03    -302.887E-03     6.73886E-03    -143.359E+06    -146.970E+06    -235.646E+06    -145.678E+06    -234.733E+06    -145.564E+06    -378.641E+03         70.8778
             234     651.010E-09     185.640E-03     110.777E-03    -6.60159E-03    -95.1816E-03    -59.8650E-03     75.4600E-03    -6.60159E-03     93.3995E-03     610.303E-03    -303.939E-03    -306.406E-03    -306.397E-03     610.293E-03    -303.939E-03     5.73172E-03    -152.877E+06    -155.181E+06    -240.558E+06    -153.741E+06    -239.794E+06    -155.082E+06    -1.32636E+06         71.2198
             235     2.51977E-06     183.770E-03     51.2982E-03    -11.6533E-03    -16.4964E-03    -7.08961E-03     46.0896E-03    -15.8515E-03    -30.5090E-03     618.556E-03    -307.246E-03    -311.268E-03    -311.263E-03     618.550E-03    -307.246E-03     4.50473E-03    -153.418E+06    -154.311E+06    -240.265E+06    -154.876E+06    -239.699E+06    -153.418E+06    -157.922E+03         71.7695
             236     179.144E-09     181.914E-03     42.2841E-03    -3.67374E-03    -10.7905E-03    -1.05771E-03     39.6680E-03    -10.7905E-03     17.0319E-03     625.064E-03    -311.296E-03    -313.911E-03    -313.035E-03     625.060E-03    -312.168E-03     3.53796E-03    -142.516E+06    -146.427E+06    -241.916E+06    -143.872E+06    -241.354E+06    -145.633E+06     319.004E+03         72.4248
             237    -1.27860E-06     180.023E-03     92.9971E-03    -13.8830E-03    -40.0176E-03    -34.4791E-03     90.3772E-03    -16.8015E-03     18.8238E-03     632.455E-03    -314.857E-03    -317.522E-03    -314.854E-03     632.451E-03    -317.522E-03     3.23562E-03    -131.209E+06    -135.898E+06    -235.138E+06    -133.163E+06    -234.757E+06    -134.326E+06     1.67077E+06         72.8856
             238    -840.693E-09     178.137E-03     124.321E-03    -16.9560E-03    -40.8685E-03    -22.7742E-03     106.227E-03    -16.9560E-03     60.6428E-03     641.164E-03    -318.818E-03    -321.835E-03    -320.039E-03     641.161E-03    -320.611E-03     1.95764E-03    -126.053E+06    -128.595E+06    -225.082E+06    -127.884E+06    -224.823E+06    -127.024E+06     579.309E+03         73.5291
             239     3.00602E-06     176.200E-03     108.695E-03    -23.1382E-03    -25.2483E-03     13.1747E-03     70.2721E-03    -23.1382E-03     121.087E-03     643.804E-03    -319.754E-03    -323.652E-03    -323.652E-03     643.804E-03    -319.754E-03    -164.258E-06    -115.084E+06    -117.030E+06    -197.392E+06    -115.567E+06    -196.908E+06    -117.030E+06     6.08021E+06         74.5529
             240     1.19471E-06     174.243E-03     162.212E-03    -44.3958E-03    -83.3189E-03    -32.2015E-03     111.095E-03    -44.3958E-03     196.587E-03     644.226E-03    -320.463E-03    -324.012E-03    -323.133E-03     644.221E-03    -321.337E-03     3.19095E-03    -105.563E+06    -107.438E+06    -152.635E+06    -106.461E+06    -151.738E+06    -107.438E+06     5.97450E+06         75.4306
             241    -2.53589E-06     172.245E-03     246.461E-03    -31.5073E-03    -181.652E-03    -45.9574E-03     110.767E-03    -31.5073E-03     381.466E-03     649.411E-03    -323.567E-03    -326.037E-03    -323.562E-03     649.406E-03    -326.037E-03     2.67760E-03    -94.6333E+06    -98.4403E+06    -112.870E+06    -98.1653E+06    -112.245E+06     -95.533E+06     3.01055E+06         75.7284
             242     342.906E-09     170.426E-03     228.021E-03    -5.99011E-03    -183.368E-03    -17.4212E-03     62.0736E-03    -5.99011E-03     403.282E-03     652.838E-03    -324.610E-03    -328.198E-03    -326.601E-03     652.838E-03    -326.207E-03    -834.300E-06    -79.7775E+06    -88.8626E+06    -93.1085E+06    -86.9324E+06    -86.9338E+06    -87.8824E+06     3.22064E+06         75.7108
             243     3.31300E-06     168.596E-03     192.738E-03    -29.9800E-03    -113.685E-03    -43.3237E-03     122.376E-03    -29.9800E-03     227.642E-03     654.729E-03    -325.543E-03    -328.894E-03    -328.893E-03     654.728E-03    -325.543E-03     1.09489E-03    -66.3853E+06    -74.7927E+06    -80.2214E+06    -76.2455E+06    -68.4341E+06    -76.7197E+06     2.26092E+06         75.7450
             244    -1.53183E-06     166.680E-03     138.783E-03    -31.8799E-03    -60.8164E-03    -45.0882E-03     123.054E-03    -31.8799E-03     106.264E-03     658.289E-03    -327.095E-03    -330.615E-03    -328.454E-03     658.288E-03    -329.254E-03     1.52937E-03    -61.5301E+06    -63.9133E+06    -71.0972E+06    -67.3144E+06    -61.6307E+06    -67.5956E+06    -559.709E+03         75.8271
             245    -1.47388E-06     164.731E-03     115.324E-03    -22.0492E-03    -38.3906E-03    -8.68144E-03     85.6150E-03    -22.0492E-03    -49.0311E-03     660.161E-03    -328.153E-03    -331.310E-03    -329.150E-03     660.160E-03    -330.312E-03    -1.36391E-03    -58.8365E+06    -59.1225E+06    -66.7448E+06    -62.0801E+06    -59.9513E+06    -62.6724E+06     1.74805E+06         75.9254
             246     2.83779E-06     162.787E-03     193.305E-03    -31.3854E-03    -103.472E-03    -32.3599E-03     122.193E-03    -31.3854E-03    -253.346E-03     661.732E-03    -329.172E-03    -332.259E-03    -332.256E-03     661.730E-03    -329.172E-03     518.812E-06    -49.2651E+06    -51.8168E+06    -57.0304E+06    -52.7535E+06    -52.4008E+06     -52.958E+06     818.467E+03         76.0863
             247     451.464E-09     160.835E-03     272.671E-03    -51.8931E-03    -177.947E-03    -48.3376E-03     143.062E-03    -51.8931E-03    -405.944E-03     665.705E-03    -331.593E-03    -334.194E-03    -334.192E-03     665.703E-03    -331.593E-03     1.42431E-03    -40.3005E+06    -43.2886E+06    -46.3603E+06    -42.8033E+06    -43.1527E+06    -43.9933E+06    -266.228E+03         76.2862
             248     924.152E-09     158.874E-03     297.818E-03    -35.3693E-03    -205.054E-03    -34.1304E-03     126.894E-03    -35.3693E-03    -476.063E-03     667.739E-03    -333.152E-03    -334.375E-03    -333.664E-03     667.739E-03    -333.863E-03    -168.978E-06    -42.5036E+06    -44.8646E+06    -46.6710E+06    -45.1339E+06    -44.6095E+06    -44.2957E+06    -202.395E+03         76.3982
             249    -2.16709E-06     156.933E-03     232.747E-03    -31.8121E-03    -151.470E-03    -18.1305E-03     99.4083E-03    -31.8121E-03    -365.640E-03     666.589E-03    -332.437E-03    -333.667E-03    -332.954E-03     666.587E-03    -333.149E-03    -1.60746E-03    -39.8902E+06    -41.7407E+06    -45.3259E+06    -41.9550E+06    -43.2612E+06    -41.7407E+06     997.632E+03         76.3698
             250     2.97467E-06     154.991E-03     219.704E-03    -73.6769E-03    -112.825E-03    -38.9572E-03     145.836E-03    -73.6769E-03    -267.652E-03     667.760E-03    -332.831E-03    -333.998E-03    -333.994E-03     667.756E-03    -332.831E-03     271.756E-06    -30.1040E+06    -32.3164E+06    -37.0010E+06    -32.9330E+06    -34.1720E+06    -32.3164E+06     213.171E+03         76.3343
             251    -2.47864E-06     153.028E-03     204.721E-03    -58.7802E-03    -100.013E-03    -51.3088E-03     156.017E-03    -58.7802E-03    -223.044E-03     669.531E-03    -333.614E-03    -334.931E-03    -334.927E-03     669.527E-03    -333.614E-03     182.847E-06    -23.2646E+06    -27.7878E+06    -31.8895E+06    -26.2706E+06    -28.8836E+06    -27.7878E+06     926.163E+03         76.3325
             252     2.63180E-06     151.073E-03     219.046E-03    -43.3672E-03    -79.8367E-03    -22.7671E-03     161.977E-03    -43.3672E-03    -234.846E-03     668.960E-03    -332.664E-03    -335.411E-03    -335.410E-03     668.958E-03    -332.664E-03    -1.60539E-03    -18.6608E+06    -21.7499E+06    -28.9811E+06    -23.3436E+06    -24.2982E+06    -21.7499E+06      77.582E+03         76.3126
             253     95.9002E-09     149.116E-03     202.434E-03    -18.3769E-03    -74.7364E-03    -29.0172E-03     156.715E-03    -18.3769E-03    -201.930E-03     668.110E-03    -331.446E-03    -336.331E-03    -333.524E-03     668.109E-03    -334.252E-03     1.65446E-03    -15.8503E+06    -22.3617E+06    -27.3162E+06    -19.8550E+06    -23.3116E+06    -22.3617E+06    -24.1092E+03         76.3241
             254    -3.79958E-06     147.162E-03     107.872E-03     6.39558E-03    -52.2753E-03    -14.4691E-03     96.4554E-03    -19.9935E-03    -74.6673E-03     670.015E-03    -333.165E-03    -336.476E-03    -333.163E-03     670.014E-03    -336.476E-03     424.682E-06    -10.6895E+06    -19.2854E+06    -23.1499E+06    -17.0131E+06    -19.6309E+06    -16.4808E+06     1.10470E+06         76.4052
             255     3.23085E-06     145.202E-03     170.380E-03    -32.6959E-03    -91.8785E-03    -39.6418E-03     144.532E-03    -59.0850E-03    -146.715E-03     672.165E-03    -333.777E-03    -337.924E-03    -337.418E-03     672.164E-03    -334.282E-03    -1.72479E-03    -8.84723E+06    -16.6214E+06    -20.3545E+06    -14.3382E+06    -17.0822E+06    -14.4027E+06    -248.175E+03         76.4936
             256     1.81016E-06     143.236E-03     247.628E-03    -93.4941E-03    -129.773E-03    -97.4246E-03     215.279E-03    -93.4941E-03    -206.618E-03     672.058E-03    -333.149E-03    -339.273E-03    -336.788E-03     672.054E-03    -335.631E-03     1.74248E-03    -6.94610E+06    -14.7383E+06    -17.6007E+06    -12.2215E+06    -14.5620E+06    -12.5015E+06     692.085E+03         76.5231
             257    -4.58432E-06     141.268E-03     216.612E-03    -74.4445E-03    -95.8694E-03    -67.1774E-03     205.859E-03    -92.3835E-03    -100.755E-03     671.221E-03    -333.773E-03    -337.958E-03    -333.767E-03     671.215E-03    -337.958E-03     117.382E-06    -7.45529E+06    -13.2955E+06    -15.6509E+06    -12.4954E+06    -13.4335E+06    -10.4728E+06    -440.203E+03         76.4837
             258     2.66300E-06     139.301E-03     128.794E-03     543.923E-06    -43.0301E-03    -24.5501E-03     128.253E-03    -17.3951E-03    -14.5268E-03     670.529E-03    -334.342E-03    -336.329E-03    -334.621E-03     670.524E-03    -336.045E-03    -435.009E-06    -8.88184E+06    -14.5919E+06    -15.1232E+06    -12.0141E+06    -14.6834E+06    -11.8994E+06    -152.326E+03         76.4345
             259    -2.44625E-06     137.362E-03     170.255E-03    -5.54849E-03    -73.0376E-03    -27.4515E-03     166.523E-03    -47.4026E-03    -46.5591E-03     670.506E-03    -334.742E-03    -335.736E-03    -335.732E-03     670.502E-03    -334.742E-03     73.7980E-06    -5.32368E+06    -10.3537E+06    -11.0359E+06    -8.56342E+06    -10.4887E+06    -7.66119E+06     438.883E+03         76.4961
             260     3.06645E-06     135.424E-03     228.789E-03    -4.34006E-03    -140.131E-03    -51.0771E-03     181.589E-03    -46.1941E-03    -198.430E-03     670.723E-03    -332.693E-03    -338.136E-03    -338.134E-03     670.721E-03    -332.693E-03    -1.87919E-03    -3.82188E+06    -6.60385E+06    -8.99764E+06    -4.53806E+06    -8.72592E+06    -6.15939E+06     -52.069E+03         76.6862
             261     3.20062E-06     133.485E-03     246.353E-03    -5.35576E-03    -173.952E-03    -35.1121E-03     107.514E-03    -5.35576E-03    -390.307E-03     670.267E-03    -331.371E-03    -339.638E-03    -336.104E-03     670.266E-03    -334.904E-03     1.41252E-03     -7.5306E+06    -9.67295E+06    -12.9090E+06    -8.33690E+06    -12.5472E+06    -9.22849E+06     145.618E+03         76.9035
             262    -8.40259E-06     131.552E-03     350.850E-03    -100.758E-03    -186.648E-03    -37.3416E-03     212.774E-03    -111.988E-03    -440.763E-03     670.736E-03    -333.552E-03    -338.240E-03    -333.548E-03     670.732E-03    -338.240E-03    -1.20256E-03    -7.23923E+06    -10.7195E+06    -12.1570E+06    -9.22241E+06    -11.9561E+06    -8.93712E+06     692.548E+03         77.1673
             263     7.24333E-06     129.599E-03     319.177E-03    -115.352E-03    -163.355E-03    -99.1192E-03     266.172E-03    -126.582E-03    -115.849E-03     673.865E-03    -333.387E-03    -340.517E-03    -339.359E-03     673.862E-03    -334.541E-03    -1.73323E-03    -5.95823E+06    -7.88243E+06    -9.85332E+06    -7.96042E+06    -9.77534E+06    -5.95823E+06    -365.319E+03         77.4413
             264     1.17168E-06     127.649E-03     308.111E-03    -94.2318E-03    -166.302E-03    -58.8272E-03     200.636E-03    -94.2318E-03     355.834E-03     675.279E-03    -333.416E-03    -341.311E-03    -341.310E-03     675.279E-03    -333.416E-03     1.16732E-03    -5.37723E+06    -7.55556E+06    -10.0377E+06    -5.59637E+06    -9.96042E+06    -7.41371E+06    -389.807E+03         77.3721
             265     558.680E-09     125.678E-03     447.437E-03    -86.3757E-03    -290.432E-03    -42.1696E-03     199.175E-03    -86.3757E-03     697.253E-03     672.734E-03    -334.712E-03    -337.995E-03    -336.631E-03     672.734E-03    -336.076E-03    -550.847E-06    -2.03144E+06    -4.11045E+06    -7.49624E+06    -2.98765E+06    -6.58257E+06    -4.06792E+06     1.15935E+06         76.8316
             266    -2.37210E-06     123.731E-03     550.251E-03    -71.9566E-03    -393.611E-03    -74.8650E-03     231.505E-03    -71.9566E-03     892.713E-03     670.345E-03    -333.572E-03    -336.871E-03    -333.571E-03     670.345E-03    -336.871E-03    -1.10908E-03    -2.69161E+06    -2.78412E+06    -8.36444E+06    -4.34753E+06    -6.80102E+06    -2.69161E+06    -47.6868E+03         76.3600
             267    -478.405E-09     121.793E-03     490.226E-03    -42.7275E-03    -344.893E-03    -71.7003E-03     217.033E-03    -42.7275E-03     782.989E-03     671.900E-03    -333.785E-03    -337.998E-03    -336.063E-03     671.900E-03    -335.720E-03    -1.32532E-03    -1.40372E+06    -1.51246E+06    -5.80374E+06    -2.54689E+06    -4.71055E+06    -1.46248E+06    -646.433E+03         76.3331
             268     3.32551E-06     119.828E-03     315.015E-03    -7.67506E-03    -189.323E-03    -54.6130E-03     180.304E-03    -7.67506E-03     441.133E-03     674.323E-03    -334.510E-03    -339.221E-03    -339.219E-03     674.321E-03    -334.510E-03     126.392E-06    -817.525E+03    -2.32941E+06    -5.34188E+06    -1.27510E+06    -4.88431E+06    -2.32941E+06     388.963E+03         76.4526
             269     891.528E-09     117.864E-03     241.926E-03    -36.2518E-03    -85.7229E-03    -49.4577E-03     205.661E-03    -36.2518E-03     55.8422E-03     671.693E-03    -334.027E-03    -337.373E-03    -337.372E-03     671.692E-03    -334.027E-03     759.858E-06    -5.47144E+06    -7.13471E+06    -10.1207E+06    -5.68804E+06    -9.90408E+06    -7.13471E+06    -711.856E+03         76.4958
             270    -238.063E-09     115.908E-03     250.349E-03    -60.3413E-03    -90.2922E-03    -82.7628E-03     242.820E-03    -60.3413E-03    -84.9533E-03     669.607E-03    -334.351E-03    -335.563E-03    -335.562E-03     669.607E-03    -334.351E-03    -731.232E-06    -4.12596E+06    -4.92052E+06     -8.9473E+06    -5.03261E+06    -8.62507E+06    -4.33610E+06     79.4317E+03         76.4948
             271     1.01609E-06     113.953E-03     229.301E-03    -40.2511E-03    -88.6521E-03    -44.5118E-03     220.703E-03    -75.7939E-03     40.1822E-03     672.668E-03    -335.437E-03    -337.399E-03    -337.398E-03     672.668E-03    -335.437E-03     488.649E-06    -4.36826E+06    -5.19677E+06    -8.93542E+06    -5.36841E+06    -8.51968E+06    -4.61236E+06     69.6072E+03         76.4791
             272     1.42750E-06     111.986E-03     257.123E-03    -38.8776E-03    -112.927E-03    -49.2322E-03     228.970E-03    -74.4204E-03     185.547E-03     674.059E-03    -335.749E-03    -338.409E-03    -338.408E-03     674.058E-03    -335.749E-03     94.0610E-06    -2.42417E+06    -3.36483E+06    -7.78624E+06    -2.90512E+06    -7.30529E+06    -3.36483E+06     362.637E+03         76.4949
             273     604.835E-09     110.028E-03     288.850E-03    -71.7732E-03    -117.942E-03    -90.2818E-03     268.852E-03    -79.4349E-03     129.603E-03     672.029E-03    -335.239E-03    -337.090E-03    -337.089E-03     672.028E-03    -335.239E-03    -1.41666E-03    -2.21428E+06    -3.31262E+06    -7.89461E+06    -3.39070E+06    -6.71820E+06    -3.31262E+06     177.278E+03         76.4779
             274     12.2065E-03     108.792E-03     239.939E-03    -66.3011E-03    -74.0483E-03    -65.2705E-03     233.302E-03    -68.4416E-03     535.924E-06     684.191E-03    -331.785E-03    -353.007E-03    -337.732E-03     668.916E-03    -331.785E-03     238.919E-03     14.0515E+06     5.06278E+06    -9.20843E+06     754.277E+03     3.63644E+06     5.51511E+06    -535.675E+03         94.1159
             275     11.4758E-03     108.228E-03     239.998E-03    -66.6639E-03    -72.5050E-03    -64.0887E-03     233.920E-03    -69.0024E-03     15.9158E-03     683.810E-03    -331.362E-03    -353.318E-03    -336.302E-03     666.794E-03    -331.362E-03     258.050E-03     13.6774E+06     3.12061E+06    -7.16523E+06    -743.519E+03     7.71404E+06     2.66228E+06     758.074E+03         91.1322
             276     10.7687E-03     107.899E-03     242.702E-03    -68.2128E-03    -71.6687E-03    -67.7637E-03     239.997E-03    -69.4133E-03    -30.2444E-03     670.535E-03    -331.825E-03    -341.270E-03    -329.951E-03     659.216E-03    -331.825E-03     212.443E-03     11.5658E+06     1.23420E+06    -5.23223E+06    -1.18817E+06     8.45623E+06     299.673E+03     328.585E+03         88.2501
             277     10.0533E-03     107.515E-03     243.428E-03    -67.4612E-03    -73.5932E-03    -69.5824E-03     241.534E-03    -69.5783E-03     22.4709E-03     668.970E-03    -331.362E-03    -340.093E-03    -329.191E-03     658.068E-03    -331.362E-03     207.968E-03     8.53511E+06     740.589E+03    -3.60845E+06    -491.809E+03     7.14826E+06    -989.197E+03    -997.033E+03         86.0607
             278     9.31905E-03     107.238E-03     251.042E-03    -68.2468E-03    -82.6013E-03    -77.4386E-03     246.994E-03    -69.3614E-03    -15.5097E-03     663.551E-03    -331.400E-03    -335.206E-03    -325.980E-03     654.909E-03    -331.984E-03     184.868E-03     8.68186E+06     97.5921E+03    -3.14062E+06    -149.040E+03     7.07525E+06    -1.28737E+06     474.667E+03         84.5918
             279     8.59848E-03     107.021E-03     253.892E-03    -68.6527E-03    -86.6835E-03    -80.5034E-03     247.712E-03    -68.6527E-03     8.55395E-03     661.239E-03    -330.042E-03    -331.752E-03    -322.604E-03     653.636E-03    -331.588E-03     172.850E-03     7.69197E+06     757.823E+03    -4.87405E+06     319.782E+03     3.08785E+06     168.119E+03     252.542E+03         83.5882
             280     7.88064E-03     106.781E-03     247.345E-03    -68.1176E-03    -78.3162E-03    -71.8596E-03     240.888E-03    -68.1176E-03     10.2879E-03     661.231E-03    -328.344E-03    -330.086E-03    -321.852E-03     654.739E-03    -330.086E-03     159.622E-03     8.37800E+06     159.965E+03    -4.11142E+06     477.842E+03     3.82787E+06     120.831E+03    -383.804E+03         82.7650
             281     7.17770E-03     106.482E-03     246.407E-03    -68.1081E-03    -73.5768E-03    -67.8132E-03     240.643E-03    -68.1081E-03     5.18437E-03     655.168E-03    -327.534E-03    -329.504E-03    -322.257E-03     649.890E-03    -329.504E-03     143.392E-03     10.5022E+06    -445.266E+03    -1.42882E+06    -145.896E+03     9.58593E+06    -811.948E+03     804.385E+03         81.9864
             282     6.44997E-03     106.395E-03     246.682E-03    -64.5446E-03    -76.8768E-03    -68.9479E-03     242.440E-03    -68.2312E-03     19.7262E-03     652.687E-03    -324.511E-03    -329.940E-03    -320.704E-03     648.880E-03    -329.940E-03     120.998E-03     7.20348E+06     796.124E+03    -1.45187E+06    -580.382E+03     6.65953E+06     468.577E+03     1.01445E+06         81.1402
             283     5.73164E-03     106.304E-03     244.428E-03    -63.7721E-03    -76.5992E-03    -70.5652E-03     242.936E-03    -68.3134E-03    -10.9503E-03     653.541E-03    -323.763E-03    -330.796E-03    -321.305E-03     651.083E-03    -330.796E-03     97.3071E-03     7.91345E+06     1.32782E+06    -1.40377E+06    -40.2000E+03     7.32517E+06     552.529E+03     597.596E+03         80.2211
             284     5.01964E-03     106.151E-03     242.013E-03    -64.9634E-03    -74.7695E-03    -70.7227E-03     241.405E-03    -68.4021E-03     26.4153E-03     653.377E-03    -324.495E-03    -330.730E-03    -323.005E-03     651.887E-03    -330.730E-03     75.3350E-03     6.66766E+06     958.921E+03    -1.70460E+06     396.205E+03     4.99304E+06     532.735E+03    -518.438E+03         79.3275
             285     4.29646E-03     106.084E-03     247.690E-03    -65.2987E-03    -77.9991E-03    -73.6340E-03     246.086E-03    -68.0601E-03     3.99975E-03     655.521E-03    -324.517E-03    -330.557E-03    -323.740E-03     654.743E-03    -330.557E-03     54.3548E-03     1.33753E+06    -233.204E+03    -2.94946E+06    -515.576E+03    -1.64019E+06     310.634E+03    -1.33240E+06         78.5198
             286     3.57896E-03     106.078E-03     252.863E-03    -66.5799E-03    -78.9569E-03    -75.9795E-03     250.063E-03    -66.7574E-03     16.4111E-03     657.624E-03    -327.366E-03    -330.996E-03    -327.001E-03     657.259E-03    -330.996E-03     37.0677E-03     2.77334E+06     28.4636E+03    -2.65302E+06    -103.502E+03     546.473E+03    -294.186E+03    -597.104E+03         77.8447
             287     2.86394E-03     106.092E-03     245.556E-03    -64.8966E-03    -71.3395E-03    -66.6178E-03     241.642E-03    -65.7043E-03     32.5334E-03     659.360E-03    -329.406E-03    -331.711E-03    -329.263E-03     659.217E-03    -331.711E-03     22.8288E-03     2.62986E+06    -51.6742E+03    -2.50501E+06     7.48924E+03     476.479E+03    -410.792E+03     508.299E+03         77.2920
             288     2.14862E-03     106.119E-03     239.174E-03    -64.3061E-03    -67.7397E-03    -61.9102E-03     235.286E-03    -66.2474E-03    -22.8028E-03     660.969E-03    -329.893E-03    -332.211E-03    -329.848E-03     660.925E-03    -332.211E-03     12.3449E-03    -196.239E+03    -1.00360E+06    -4.04315E+06    -1.33237E+06    -3.06528E+06    -845.337E+03     781.863E+03         76.8124
             289     1.43100E-03     106.137E-03     237.206E-03    -66.1841E-03    -71.3841E-03    -64.1080E-03     231.599E-03    -67.8531E-03     17.3275E-03     663.333E-03    -331.116E-03    -332.452E-03    -331.105E-03     663.323E-03    -332.452E-03     5.42220E-03     465.536E+03    -617.498E+03    -4.41409E+06    -1.47139E+06    -2.85358E+06    -241.080E+03    -111.710E+03         76.4492
             290     715.174E-06     106.132E-03     237.347E-03    -60.6708E-03    -82.7019E-03    -67.7589E-03     231.733E-03    -70.0000E-03     23.5681E-03     668.277E-03    -333.429E-03    -334.825E-03    -334.532E-03     668.276E-03    -333.721E-03     1.09747E-03    -16.3250E+03    -1.64255E+06    -5.25848E+06    -2.03995E+06    -3.93528E+06    -942.124E+03    -279.935E+03         76.2942
             291     12.1964E-03     106.815E-03     246.207E-03    -70.6895E-03    -77.3309E-03    -75.0628E-03     243.938E-03    -70.6895E-03    -7.52991E-03     685.031E-03    -331.653E-03    -353.824E-03    -338.945E-03     670.151E-03    -331.653E-03     236.148E-03     13.4307E+06     1.20470E+06    -11.5475E+06    -688.454E+03     2.57167E+06     1.20470E+06    -167.030E+03         94.3671
             292     11.4817E-03     106.231E-03     248.254E-03    -71.0152E-03    -78.0121E-03    -76.3335E-03     246.575E-03    -71.0152E-03     36.3579E-03     685.132E-03    -331.326E-03    -354.932E-03    -338.401E-03     668.601E-03    -331.326E-03     254.707E-03     13.4263E+06     1.03654E+06    -7.75651E+06    -885.706E+03     6.55553E+06     1.03654E+06    -355.470E+03         91.3198
             293     10.7776E-03     105.881E-03     252.808E-03    -71.1935E-03    -81.1624E-03    -78.8609E-03     250.506E-03    -71.1935E-03    -12.6379E-03     670.472E-03    -331.716E-03    -341.348E-03    -330.179E-03     659.303E-03    -331.716E-03     210.924E-03     12.7702E+06     597.290E+03    -3.38115E+06    -306.250E+03     9.69526E+06     597.290E+03    -1.63487E+06         88.3428
             294     10.0603E-03     105.504E-03     255.007E-03    -71.1470E-03    -83.1965E-03    -78.2966E-03     250.107E-03    -71.1470E-03     19.1300E-03     668.151E-03    -331.212E-03    -338.525E-03    -327.497E-03     657.123E-03    -331.212E-03     208.987E-03     8.12738E+06     1.63264E+06    -2.63080E+06     22.5264E+03     5.47405E+06     1.63264E+06    -1.24170E+06         86.0856
             295     9.31671E-03     105.269E-03     255.358E-03    -70.9830E-03    -82.7486E-03    -77.5422E-03     250.152E-03    -70.9830E-03     13.7346E-03     663.033E-03    -331.129E-03    -334.207E-03    -324.523E-03     654.092E-03    -331.872E-03     187.882E-03     8.93106E+06     883.060E+03    -2.78825E+06     73.6304E+03     6.65888E+06     293.356E+03     144.907E+03         84.5815
             296     8.59958E-03     105.025E-03     255.478E-03    -69.5756E-03    -82.3398E-03    -77.3358E-03     251.705E-03    -70.8058E-03     1.93574E-03     660.997E-03    -329.835E-03    -331.476E-03    -321.989E-03     653.151E-03    -331.476E-03     175.483E-03     9.57305E+06     407.017E+03    -4.89672E+06     390.571E+03     4.87547E+06    -182.687E+03     324.257E+03         83.5597
             297     7.88116E-03     104.797E-03     253.737E-03    -69.6564E-03    -77.9651E-03    -74.0484E-03     251.050E-03    -70.8866E-03     16.8077E-03     661.072E-03    -328.354E-03    -330.036E-03    -321.816E-03     654.534E-03    -330.036E-03     160.142E-03     6.80429E+06     174.435E+03    -5.27343E+06    -321.569E+03     1.23091E+06     795.960E+03     576.672E+03         82.7329
             298     7.17698E-03     104.496E-03     252.145E-03    -70.5223E-03    -74.2250E-03    -70.8534E-03     249.545E-03    -71.2932E-03     12.3294E-03     655.068E-03    -327.375E-03    -329.583E-03    -322.127E-03     649.821E-03    -329.583E-03     142.962E-03     10.7560E+06     436.879E+03    -1.81052E+06     9.95421E+03     8.69387E+06     678.561E+03     1.21081E+06         81.9573
             299     6.45435E-03     104.393E-03     246.536E-03    -65.5371E-03    -73.3540E-03    -64.1709E-03     243.906E-03    -72.0911E-03     13.0316E-03     652.951E-03    -324.624E-03    -329.936E-03    -320.765E-03     649.092E-03    -329.936E-03     122.010E-03     10.5061E+06     2.56179E+06    -648.571E+03     780.535E+03     10.3889E+06     1.24987E+06     256.595E+03         81.1106
             300     5.73097E-03     104.306E-03     249.966E-03    -66.3291E-03    -77.0955E-03    -69.1290E-03     248.637E-03    -72.9667E-03     2.36986E-03     653.588E-03    -323.883E-03    -330.738E-03    -321.315E-03     651.020E-03    -330.738E-03     99.4782E-03     8.81359E+06     2.82748E+06    -591.444E+03     1.04840E+06     8.65840E+06     1.34284E+06    -234.196E+03         80.1646
             301     5.01615E-03     104.204E-03     262.629E-03    -71.8941E-03    -83.7034E-03    -81.1185E-03     260.899E-03    -72.7488E-03     8.12863E-03     653.286E-03    -324.053E-03    -330.829E-03    -322.504E-03     651.737E-03    -330.829E-03     76.8029E-03     6.41832E+06     1.25560E+06    -1.09623E+06     913.603E+03     4.57426E+06     1.08983E+06     161.880E+03         79.2218
             302     4.29500E-03     104.148E-03     263.792E-03    -70.5445E-03    -84.6407E-03    -82.4994E-03     262.357E-03    -71.2505E-03     2.87495E-03     656.114E-03    -324.498E-03    -330.754E-03    -323.669E-03     655.285E-03    -330.754E-03     56.2210E-03     2.27704E+06     640.374E+03    -2.45703E+06     199.689E+03    -961.202E+03     1.22190E+06    -12.3428E+03         78.3823
             303     3.57716E-03     104.129E-03     256.960E-03    -68.9864E-03    -79.0657E-03    -75.7301E-03     254.330E-03    -69.6924E-03    -7.14643E-03     657.826E-03    -327.057E-03    -331.185E-03    -326.653E-03     657.422E-03    -331.185E-03     38.8369E-03     2.77955E+06    -1.04784E+06    -3.51939E+06    -1.55671E+06     85.2591E+03    -316.218E+03    -133.645E+03         77.6962
             304     2.85880E-03     104.138E-03     250.312E-03    -68.9380E-03    -72.9243E-03    -67.5260E-03     245.239E-03    -69.2633E-03     18.7935E-03     659.044E-03    -328.797E-03    -332.057E-03    -328.646E-03     658.893E-03    -332.057E-03     23.4678E-03     2.23828E+06    -2.04711E+06    -4.05749E+06    -2.27798E+06    -785.970E+03    -802.372E+03     225.551E+03         77.1528
             305     2.14255E-03     104.176E-03     252.049E-03    -68.6867E-03    -79.6579E-03    -65.7219E-03     239.572E-03    -70.1455E-03    -29.7289E-03     662.311E-03    -330.755E-03    -332.887E-03    -330.711E-03     662.266E-03    -332.887E-03     12.0928E-03     772.309E+03    -441.338E+03    -3.96792E+06    -1.24142E+06    -2.66624E+06     270.717E+03     526.354E+03         76.7103
             306     1.42837E-03     104.190E-03     262.285E-03    -68.4475E-03    -97.0285E-03    -72.9731E-03     239.899E-03    -70.1165E-03     21.2595E-03     665.169E-03    -332.273E-03    -333.138E-03    -332.265E-03     665.159E-03    -333.137E-03     4.69419E-03     1.25718E+06     583.170E+03    -3.42628E+06    -632.054E+03    -2.07208E+06     1.11820E+06     103.053E+03         76.3842
             307     714.583E-06     104.175E-03     282.609E-03    -49.6773E-03    -137.338E-03    -79.4627E-03     234.063E-03    -59.0064E-03    -49.7102E-03     669.650E-03    -334.194E-03    -335.449E-03    -335.137E-03     669.649E-03    -334.505E-03     853.241E-06    -735.528E+03    -1.85485E+06    -5.52595E+06    -2.67008E+06    -4.44624E+06    -1.00002E+06     10.1614E+03         76.2497
             308     12.2116E-03     104.810E-03     253.261E-03    -73.1059E-03    -81.8690E-03    -79.7547E-03     251.147E-03    -73.1059E-03    -15.2548E-03     686.769E-03    -331.440E-03    -355.791E-03    -341.143E-03     672.121E-03    -331.440E-03     234.378E-03     16.2113E+06    -1.03038E+06    -10.2508E+06     178.679E+03     5.78185E+06    -1.03038E+06     417.185E+03         94.6043
             309     11.4817E-03     104.262E-03     255.789E-03    -73.1458E-03    -82.9455E-03    -77.5010E-03     250.345E-03    -73.1458E-03     30.9463E-03     685.448E-03    -331.138E-03    -355.419E-03    -338.927E-03     668.956E-03    -331.138E-03     254.903E-03     16.2223E+06    -2.66315E+06    -9.61891E+06     301.604E+03     6.30182E+06    -2.66315E+06    -719.718E+03         91.4180
             310     10.7797E-03     103.910E-03     264.043E-03    -73.0163E-03    -88.1599E-03    -80.0268E-03     255.910E-03    -73.0163E-03    -5.21741E-03     668.890E-03    -331.607E-03    -340.342E-03    -328.966E-03     657.515E-03    -331.607E-03     212.546E-03     12.8396E+06    -2.01790E+06    -5.66794E+06     1.14125E+06     6.03038E+06    -2.01790E+06    -539.061E+03         88.3155
             311     10.0633E-03     103.509E-03     264.595E-03    -72.6536E-03    -86.4097E-03    -79.4604E-03     257.645E-03    -72.6536E-03    -12.5975E-03     665.699E-03    -330.890E-03    -336.723E-03    -325.521E-03     654.497E-03    -330.890E-03     210.137E-03     8.91039E+06    -180.798E+03    -2.99728E+06     644.089E+03     5.63441E+06    -546.184E+03    -68.7305E+03         86.0385
             312     9.31796E-03     103.268E-03     256.400E-03    -71.7941E-03    -77.4843E-03    -72.2560E-03     251.871E-03    -72.4929E-03     6.59753E-03     661.841E-03    -330.711E-03    -333.489E-03    -323.489E-03     652.822E-03    -331.692E-03     188.480E-03     7.79788E+06     1.17206E+06    -3.09442E+06    -88.6906E+03     5.15754E+06     806.671E+03    -469.714E+03         84.5475
             313     8.59367E-03     103.072E-03     253.766E-03    -70.1882E-03    -74.0371E-03    -68.7540E-03     251.010E-03    -72.7154E-03    -11.1996E-03     661.175E-03    -330.081E-03    -331.549E-03    -322.116E-03     653.209E-03    -331.549E-03     176.871E-03     10.0584E+06     2.39820E+06    -4.04893E+06     133.935E+03     5.87554E+06     2.39820E+06     235.615E+03         83.5166
             314     7.88778E-03     102.768E-03     255.116E-03    -70.9175E-03    -74.2666E-03    -70.6666E-03     253.599E-03    -73.0009E-03     4.26348E-03     661.457E-03    -328.839E-03    -330.184E-03    -322.131E-03     654.748E-03    -330.184E-03     162.252E-03     7.46195E+06     2.50720E+06    -4.14184E+06    -244.569E+03     2.90402E+06     3.16786E+06     381.444E+03         82.6962
             315     7.17473E-03     102.533E-03     256.110E-03    -71.9332E-03    -76.9838E-03    -75.0663E-03     255.218E-03    -72.9591E-03    -16.0511E-03     655.768E-03    -327.281E-03    -329.742E-03    -321.924E-03     650.411E-03    -329.742E-03     144.459E-03     8.31157E+06     999.338E+03    -2.30458E+06    -120.977E+03     6.18965E+06     937.656E+03    -88.1274E+03         81.9422
             316     6.44913E-03     102.421E-03     256.496E-03    -69.4968E-03    -82.7462E-03    -78.5685E-03     255.186E-03    -72.3642E-03    -23.3331E-03     653.188E-03    -324.173E-03    -329.883E-03    -320.245E-03     649.259E-03    -329.883E-03     123.116E-03     11.6658E+06     105.168E+03    -2.31122E+06     483.504E+03     11.2874E+06    -2.31122E+06     405.987E+03         81.1148
             317     5.73545E-03     102.310E-03     257.627E-03    -69.0712E-03    -84.8133E-03    -80.6692E-03     255.579E-03    -71.1675E-03    -619.227E-06     652.914E-03    -322.920E-03    -331.066E-03    -320.313E-03     650.308E-03    -331.066E-03     100.097E-03     9.84210E+06    -430.899E+03    -3.13294E+06    -278.084E+03     9.68928E+06    -3.13294E+06     448.575E+03         80.1843
             318     5.01273E-03     102.234E-03     254.623E-03    -69.4751E-03    -79.3500E-03    -75.8143E-03     251.488E-03    -69.8761E-03    -11.1295E-03     654.151E-03    -323.783E-03    -331.513E-03    -322.211E-03     652.579E-03    -331.513E-03     77.4833E-03     5.81543E+06    -395.792E+03    -2.80406E+06    -576.373E+03     4.02105E+06    -829.099E+03    -187.325E+03         79.2481
             319     4.28858E-03     102.169E-03     246.325E-03    -65.2062E-03    -73.0281E-03    -66.0414E-03     243.709E-03    -69.5768E-03    -20.2491E-03     658.601E-03    -325.931E-03    -331.418E-03    -325.093E-03     657.763E-03    -331.418E-03     56.4782E-03     2.45595E+06     175.814E+03    -2.58505E+06    -324.308E+03    -937.266E+03     1.30830E+06     406.049E+03         78.4178
             320     3.57413E-03     102.155E-03     244.726E-03    -63.5583E-03    -71.8123E-03    -60.1033E-03     240.354E-03    -70.8948E-03    -32.1315E-03     659.743E-03    -328.668E-03    -331.784E-03    -328.285E-03     659.360E-03    -331.784E-03     37.6478E-03     2.71495E+06     434.619E+03    -1.51061E+06    -243.401E+03    -414.857E+03     2.29721E+06     685.723E+03         77.7365
             321     2.85856E-03     102.170E-03     254.596E-03    -69.5265E-03    -79.3029E-03    -65.3856E-03     244.046E-03    -72.8934E-03     13.7706E-03     660.138E-03    -329.771E-03    -332.621E-03    -329.643E-03     660.011E-03    -332.621E-03     21.1945E-03     3.49909E+06     947.487E+03    -1.35810E+06    -419.051E+03     8.43934E+03     3.49909E+06    -427.363E+03         77.1956
             322     2.14434E-03     102.196E-03     271.594E-03    -73.6204E-03    -94.5274E-03    -74.7362E-03     251.803E-03    -73.6204E-03    -32.9312E-03     663.526E-03    -331.299E-03    -333.579E-03    -331.271E-03     663.497E-03    -333.578E-03     9.74382E-03     2.80975E+06     1.48297E+06    -2.42164E+06    -280.872E+03    -657.797E+03     2.80975E+06    -872.660E+03         76.7639
             323     1.43021E-03     102.222E-03     300.020E-03    -69.6275E-03    -123.875E-03    -84.7960E-03     260.941E-03    -69.6275E-03     49.0175E-03     666.701E-03    -332.887E-03    -333.890E-03    -332.883E-03     666.695E-03    -333.889E-03     3.88749E-03    -831.296E+03    -1.20948E+06    -5.25960E+06    -2.66914E+06    -3.79994E+06    -831.296E+03    -70.9655E+03         76.4467
             324     714.584E-06     102.212E-03     391.517E-03    -39.2451E-03    -250.057E-03    -92.5732E-03     234.033E-03    -39.2451E-03    -235.905E-03     670.723E-03    -335.062E-03    -335.744E-03    -335.487E-03     670.722E-03    -335.317E-03     1.08129E-03    -3.22330E+06    -3.90833E+06    -7.48667E+06    -4.28573E+06    -6.72244E+06    -3.61012E+06     48.0432E+03         76.3146
             325     12.2136E-03     102.791E-03     253.360E-03    -71.7361E-03    -79.4685E-03    -73.4799E-03     248.964E-03    -73.3283E-03    -28.0367E-03     685.588E-03    -331.348E-03    -355.225E-03    -340.124E-03     670.488E-03    -331.348E-03     237.250E-03     18.3114E+06    -319.822E+03    -7.92801E+06     2.79685E+06     7.58650E+06    -319.822E+03    -327.574E+03         94.6811
             326     11.4809E-03     102.289E-03     262.933E-03    -72.9502E-03    -83.3641E-03    -73.6748E-03     253.244E-03    -72.9502E-03     14.4275E-03     685.004E-03    -331.143E-03    -354.917E-03    -337.845E-03     667.933E-03    -331.143E-03     259.044E-03     16.5727E+06    -542.750E+03    -10.3452E+06     869.910E+03     5.35760E+06    -542.750E+03     239.479E+03         91.4119
             327     10.7726E-03     101.939E-03     266.977E-03    -72.5318E-03    -85.8345E-03    -73.8583E-03     255.001E-03    -72.5318E-03    -161.011E-06     668.334E-03    -331.960E-03    -340.509E-03    -328.918E-03     656.743E-03    -331.960E-03     214.561E-03     12.3808E+06    -424.592E+03    -7.18868E+06     329.012E+03     4.86309E+06    -424.592E+03     907.580E+03         88.2603
             328     10.0612E-03     101.521E-03     261.773E-03    -71.8205E-03    -80.7525E-03    -73.2512E-03     254.603E-03    -72.1512E-03    -36.2290E-03     664.824E-03    -331.194E-03    -337.048E-03    -325.739E-03     653.516E-03    -331.194E-03     211.053E-03     10.5430E+06    -738.274E+03    -4.70266E+06    -200.858E+03     6.40655E+06    -1.10366E+06     1.16147E+06         85.9706
             329     9.31765E-03     101.285E-03     256.610E-03    -70.9014E-03    -74.8648E-03    -70.7874E-03     253.562E-03    -71.9309E-03    -6.83109E-03     662.035E-03    -330.058E-03    -333.682E-03    -322.871E-03     652.951E-03    -331.785E-03     189.113E-03     8.52416E+06     486.127E+03    -5.08384E+06    -910.253E+03     4.71596E+06     120.741E+03     1.06200E+06         84.4691
             330     8.59300E-03     101.081E-03     257.140E-03    -70.4541E-03    -74.9244E-03    -71.4046E-03     254.917E-03    -71.7510E-03    -19.2417E-03     660.555E-03    -329.157E-03    -331.632E-03    -321.154E-03     652.551E-03    -331.632E-03     177.143E-03     9.79286E+06    -100.049E+03    -4.35588E+06    -1.98503E+06     7.61390E+06    -291.928E+03    -59.9047E+03         83.4237
             331     7.88193E-03     100.775E-03     255.865E-03    -70.5044E-03    -74.6444E-03    -72.7016E-03     254.775E-03    -71.3575E-03    -5.69035E-03     660.585E-03    -328.502E-03    -330.612E-03    -321.716E-03     653.799E-03    -330.612E-03     163.119E-03     8.73162E+06    -836.471E+03    -3.75557E+06    -2.10884E+06     7.27676E+06    -1.02835E+06    -264.770E+03         82.6084
             332     7.16946E-03     100.563E-03     255.741E-03    -70.3696E-03    -78.1603E-03    -77.0415E-03     254.877E-03    -70.6246E-03    -20.5166E-03     657.118E-03    -328.045E-03    -330.119E-03    -322.567E-03     651.640E-03    -330.119E-03     146.231E-03     4.63049E+06    -365.233E+03    -3.41603E+06    -2.10659E+06     3.66355E+06    -707.731E+03    -1.02338E+06         81.8966
             333     6.45273E-03     100.423E-03     255.897E-03    -69.3076E-03    -84.0808E-03    -83.1453E-03     254.961E-03    -69.3076E-03    -22.5357E-03     653.766E-03    -324.828E-03    -329.969E-03    -320.788E-03     649.726E-03    -329.969E-03     124.960E-03     7.07477E+06     22.1823E+03    -3.43195E+06    -1.62682E+06     6.37411E+06    -1.08229E+06    -980.361E+03         81.1359
             334     5.73039E-03     100.309E-03     249.021E-03    -67.3571E-03    -78.7635E-03    -76.5722E-03     247.377E-03    -67.9051E-03    -287.618E-06     653.413E-03    -323.201E-03    -331.465E-03    -320.596E-03     650.809E-03    -331.465E-03     99.7551E-03     10.6511E+06    -581.123E+03    -3.13987E+06    -986.721E+03     10.1844E+06    -2.26754E+06    -173.454E+03         80.2595
             335     5.01251E-03     100.237E-03     240.797E-03    -64.2340E-03    -69.5584E-03    -63.5171E-03     238.186E-03    -67.6646E-03    -9.07349E-03     656.115E-03    -325.214E-03    -331.576E-03    -323.767E-03     654.668E-03    -331.576E-03     74.1890E-03     6.48847E+06    -503.279E+03    -2.74174E+06    -702.077E+03     5.11927E+06    -1.17374E+06    -104.696E+03         79.3266
             336     4.29065E-03     100.192E-03     241.333E-03    -61.3896E-03    -68.8519E-03    -58.5989E-03     238.542E-03    -68.8519E-03    -7.08937E-03     659.411E-03    -327.064E-03    -331.191E-03    -326.353E-03     658.700E-03    -331.191E-03     51.9040E-03     1.18049E+06    -709.259E+03    -3.08941E+06    -1.19764E+06    -1.52306E+06     102.524E+03    -9.27294E+03         78.4838
             337     3.57422E-03     100.198E-03     248.081E-03    -62.7916E-03    -73.0081E-03    -60.6030E-03     243.622E-03    -70.7381E-03    -21.6671E-03     659.417E-03    -329.029E-03    -331.690E-03    -328.717E-03     659.105E-03    -331.690E-03     34.3304E-03     2.44664E+06    -945.659E+03    -3.64078E+06    -1.52285E+06     734.718E+03    -1.35166E+06    -38.4812E+03         77.8084
             338     2.85989E-03     100.220E-03     259.770E-03    -69.4201E-03    -79.8815E-03    -64.6752E-03     247.931E-03    -72.7869E-03     27.7503E-03     659.442E-03    -329.511E-03    -332.587E-03    -329.392E-03     659.323E-03    -332.587E-03     20.7409E-03     3.40654E+06    -114.930E+03    -3.33361E+06    -558.095E+03     1.40328E+06    -887.184E+03    -966.640E+03         77.2716
             339     2.14355E-03     100.262E-03     272.969E-03    -75.1425E-03    -88.9415E-03    -67.2073E-03     251.235E-03    -75.1425E-03    -19.7661E-03     662.694E-03    -330.119E-03    -333.682E-03    -330.084E-03     662.659E-03    -333.682E-03     11.2111E-03     245.542E+03    -1.16459E+06    -4.43946E+06    -1.78536E+06    -2.67587E+06    -897.284E+03    -725.420E+03         76.8449
             340     1.42673E-03     100.276E-03     322.844E-03    -76.6900E-03    -135.134E-03    -75.7888E-03     263.499E-03    -76.6900E-03     108.600E-03     666.870E-03    -332.490E-03    -334.324E-03    -332.481E-03     666.861E-03    -334.324E-03     5.53386E-03    -629.095E+03    -1.53749E+06    -5.40109E+06    -2.88637E+06    -3.75285E+06    -928.461E+03     682.097E+03         76.5500
             341     714.681E-06     100.259E-03     548.743E-03    -69.8419E-03    -362.110E-03    -84.2760E-03     270.909E-03    -69.8419E-03    -412.314E-03     671.933E-03    -335.600E-03    -336.439E-03    -336.153E-03     671.931E-03    -335.884E-03     2.31151E-03    -1.82288E+06    -3.07517E+06    -6.59541E+06    -4.11327E+06    -5.43498E+06    -1.94521E+06     810.022E+03         76.4372
             342     12.2148E-03     100.814E-03     257.563E-03    -69.8352E-03    -77.1399E-03    -70.3909E-03     252.407E-03    -71.4273E-03    -16.4819E-03     684.634E-03    -331.441E-03    -353.970E-03    -338.724E-03     669.388E-03    -331.441E-03     238.907E-03     19.0034E+06    -28.2405E+03    -9.49699E+06     1.58002E+06     7.92641E+06    -28.2405E+03     563.236E+03         94.6078
             343     11.4743E-03     100.289E-03     259.959E-03    -70.2397E-03    -77.6683E-03    -68.6770E-03     251.818E-03    -71.0900E-03     6.19622E-03     683.856E-03    -331.500E-03    -353.556E-03    -336.584E-03     666.884E-03    -331.500E-03     257.802E-03     17.6485E+06     881.454E+03    -12.6095E+06     167.777E+03     4.87123E+06     881.454E+03     928.474E+03         91.3451
             344     10.7721E-03     99.9497E-03     255.647E-03    -68.6421E-03    -76.8682E-03    -65.7220E-03     246.854E-03    -70.9955E-03     3.57956E-03     668.398E-03    -332.695E-03    -339.628E-03    -328.125E-03     656.895E-03    -332.695E-03     213.616E-03     14.2246E+06     1.21255E+06    -9.53927E+06    -728.282E+03     5.41356E+06     1.21255E+06     833.231E+03         88.2099
             345     10.0512E-03     99.5624E-03     253.279E-03    -69.2552E-03    -75.6747E-03    -68.4712E-03     247.909E-03    -71.0891E-03    -23.0763E-03     665.277E-03    -331.833E-03    -337.068E-03    -325.715E-03     653.924E-03    -331.833E-03     211.565E-03     12.0498E+06     2.20557E+06    -6.31267E+06    -686.547E+03     6.42364E+06     2.20557E+06     1.13425E+06         85.9145
             346     9.31623E-03     99.2762E-03     256.152E-03    -70.6454E-03    -76.9779E-03    -74.6892E-03     254.194E-03    -70.9762E-03     10.6413E-03     662.441E-03    -330.711E-03    -333.762E-03    -323.409E-03     653.272E-03    -331.895E-03     190.083E-03     9.94250E+06     967.709E+03    -6.05690E+06    -812.464E+03     5.04546E+06     620.317E+03     984.017E+03         84.3993
             347     8.59118E-03     99.0857E-03     259.715E-03    -70.4546E-03    -79.6225E-03    -78.7120E-03     258.804E-03    -70.4546E-03    -6.80783E-03     661.026E-03    -329.848E-03    -331.566E-03    -321.938E-03     653.090E-03    -331.540E-03     176.450E-03     11.0466E+06    -1.75522E+06    -3.46662E+06    -739.292E+03     9.15909E+06    -2.59507E+06     846.395E+03         83.3515
             348     7.88047E-03     98.8104E-03     255.737E-03    -68.9929E-03    -76.4666E-03    -74.7696E-03     254.915E-03    -69.8674E-03    -10.0706E-03     660.504E-03    -328.174E-03    -330.646E-03    -321.640E-03     653.944E-03    -330.620E-03     160.334E-03     9.42237E+06     258.032E+03    -1.64823E+06     466.887E+03     7.79971E+06    -234.424E+03     190.757E+03         82.5269
             349     7.16848E-03     98.5702E-03     248.148E-03    -65.3598E-03    -74.5257E-03    -69.0697E-03     247.082E-03    -69.7489E-03    -5.30463E-03     657.666E-03    -327.303E-03    -330.262E-03    -322.071E-03     652.434E-03    -330.262E-03     142.810E-03     7.36410E+06     1.88785E+06    -1.01167E+06     104.856E+03     6.24757E+06     1.88785E+06    -920.937E+03         81.8155
             350     6.44678E-03     98.4114E-03     245.037E-03    -63.4775E-03    -74.5620E-03    -66.9533E-03     244.121E-03    -70.1708E-03    -2.84037E-03     653.984E-03    -325.683E-03    -330.467E-03    -321.814E-03     650.114E-03    -330.467E-03     122.361E-03     5.93568E+06     1.42986E+06    -1.96766E+06    -1.41883E+06     5.38685E+06     1.42986E+06    -1.71548E+06         81.0944
             351     5.73577E-03     98.2846E-03     247.922E-03    -67.0277E-03    -73.9108E-03    -68.7281E-03     246.466E-03    -70.7544E-03     6.40324E-03     654.221E-03    -324.297E-03    -331.441E-03    -321.742E-03     651.665E-03    -331.441E-03     98.9681E-03     7.94634E+06    -73.0290E+03    -2.90643E+06    -2.08445E+06     7.59339E+06    -542.054E+03    -1.17830E+06         80.2656
             352     5.01928E-03     98.2256E-03     253.022E-03    -68.1690E-03    -74.5846E-03    -69.6236E-03     251.090E-03    -71.1984E-03    -897.678E-06     656.883E-03    -325.609E-03    -330.800E-03    -324.127E-03     655.400E-03    -330.800E-03     75.3122E-03     5.59769E+06    -875.487E+03    -3.30419E+06    -1.73472E+06     4.24327E+06    -1.09053E+06     112.199E+03         79.3507
             353     4.29421E-03     98.2087E-03     255.596E-03    -67.7973E-03    -73.3562E-03    -67.0742E-03     253.301E-03    -71.7849E-03     3.89075E-03     657.636E-03    -326.910E-03    -330.474E-03    -326.126E-03     656.851E-03    -330.474E-03     54.5184E-03     1.45263E+06    -783.968E+03    -3.52625E+06    -1.46168E+06     108.068E+03    -1.50398E+06     336.788E+03         78.5110
             354     3.57704E-03     98.2196E-03     261.236E-03    -70.6732E-03    -76.8382E-03    -72.2164E-03     258.121E-03    -72.1792E-03     45.0499E-06     656.322E-03    -327.145E-03    -331.123E-03    -326.790E-03     655.966E-03    -331.123E-03     36.3118E-03     3.05369E+06    -1.13734E+06    -3.60977E+06    -1.27147E+06     2.84430E+06    -3.26626E+06    -251.002E+03         77.8312
             355     2.85783E-03     98.2512E-03     268.592E-03    -71.4278E-03    -84.3090E-03    -77.4496E-03     261.732E-03    -71.4278E-03     30.0087E-03     657.711E-03    -327.998E-03    -332.273E-03    -327.869E-03     657.582E-03    -332.273E-03     21.5964E-03     1.00849E+06    -2.19513E+06    -5.05246E+06    -1.93863E+06    -754.917E+03    -3.54555E+06     98.1963E+03         77.2701
             356     2.14090E-03     98.2860E-03     275.515E-03    -71.7810E-03    -92.7575E-03    -65.5401E-03     248.298E-03    -71.7810E-03    -62.4540E-03     662.610E-03    -330.227E-03    -333.561E-03    -330.192E-03     662.575E-03    -333.561E-03     10.7254E-03    -1.29576E+06    -2.31687E+06    -5.51703E+06    -2.50767E+06    -4.18341E+06    -2.43859E+06     265.582E+03         76.8250
             357     1.42783E-03     98.3001E-03     353.042E-03    -75.9329E-03    -169.068E-03    -63.7899E-03     247.764E-03    -75.9329E-03     164.237E-03     668.651E-03    -333.509E-03    -335.201E-03    -333.503E-03     668.645E-03    -335.201E-03     4.12309E-03     113.497E+03    -1.53164E+06    -4.42902E+06    -1.84916E+06    -2.92961E+06    -1.06838E+06     31.4033E+03         76.5351
             358     712.691E-06     98.2882E-03     648.800E-03    -78.1837E-03    -458.230E-03    -79.5996E-03     270.169E-03    -78.1837E-03    -466.328E-03     673.990E-03    -336.612E-03    -337.623E-03    -336.968E-03     673.989E-03    -337.266E-03     1.28781E-03     1.84713E+06    -1.90637E+06    -4.77000E+06    -451.856E+03    -2.92986E+06    -1.44753E+06    -175.635E+03         76.4206
             359     12.2086E-03     98.8092E-03     265.401E-03    -70.5915E-03    -78.9912E-03    -74.8492E-03     261.259E-03    -70.5915E-03     717.700E-06     685.496E-03    -331.671E-03    -354.223E-03    -338.896E-03     670.170E-03    -331.671E-03     239.366E-03     18.2005E+06     242.152E+03    -12.9131E+06    -1.51752E+06     6.80493E+06     242.152E+03    -479.136E+03         94.5084
             360     11.4833E-03     98.3052E-03     259.409E-03    -69.7742E-03    -75.7400E-03    -70.8046E-03     255.324E-03    -70.6245E-03    -2.62635E-03     683.724E-03    -332.168E-03    -353.125E-03    -335.868E-03     666.467E-03    -332.168E-03     260.147E-03     17.7215E+06     1.74170E+06    -14.0170E+06    -579.368E+03     4.28380E+06     1.74170E+06     43.5433E+03         91.3053
             361     10.7702E-03     97.9721E-03     252.162E-03    -68.6046E-03    -73.1299E-03    -67.3794E-03     248.765E-03    -70.9579E-03     8.31873E-03     669.453E-03    -333.351E-03    -339.278E-03    -327.606E-03     657.781E-03    -333.351E-03     215.344E-03     14.1769E+06     2.12045E+06    -9.69862E+06    -475.091E+03     5.41608E+06     1.65773E+06     1.30384E+06         88.2233
             362     10.0513E-03     97.6028E-03     252.449E-03    -69.7509E-03    -75.6033E-03    -71.7206E-03     250.070E-03    -71.2539E-03    -1.26861E-03     666.548E-03    -332.089E-03    -337.368E-03    -326.072E-03     655.251E-03    -332.089E-03     211.190E-03     12.6977E+06     1.27377E+06    -5.23084E+06    -362.189E+03     8.60750E+06     495.294E+03     481.724E+03         85.9525
             363     9.31231E-03     97.2807E-03     254.216E-03    -70.5596E-03    -77.2877E-03    -75.6276E-03     253.178E-03    -71.1818E-03     26.2871E-03     662.968E-03    -331.426E-03    -334.015E-03    -324.653E-03     653.975E-03    -331.794E-03     188.386E-03     9.77011E+06     1.84748E+06    -5.30062E+06     212.320E+03     4.92032E+06     1.18432E+06    -691.794E+03         84.4404
             364     8.59069E-03     97.0911E-03     254.042E-03    -67.3233E-03    -77.0345E-03    -73.2344E-03     253.959E-03    -71.0400E-03     5.32783E-03     661.969E-03    -331.041E-03    -331.644E-03    -323.316E-03     654.218E-03    -331.618E-03     174.622E-03     11.2337E+06     1.93096E+06    -2.87409E+06     830.669E+03     8.17686E+06     1.28299E+06     13.7224E+03         83.3588
             365     7.88358E-03     96.8430E-03     251.462E-03    -65.0915E-03    -74.7121E-03    -67.2953E-03     250.353E-03    -71.3998E-03    -21.9010E-03     661.085E-03    -328.692E-03    -330.223E-03    -322.258E-03     654.625E-03    -330.197E-03     159.215E-03     9.89316E+06     1.67081E+06    -1.62545E+06     861.361E+03     8.47550E+06     601.657E+03     278.388E+03         82.4630
             366     7.17048E-03     96.6067E-03     248.664E-03    -63.9445E-03    -72.4822E-03    -62.0872E-03     246.807E-03    -72.4822E-03    -3.31440E-03     657.696E-03    -327.052E-03    -329.811E-03    -321.922E-03     652.566E-03    -329.811E-03     141.425E-03     8.33235E+06     840.484E+03    -2.29383E+06     572.057E+03      7.2062E+06    -899.249E+03     95.4841E+03         81.6829
             367     6.45381E-03     96.4416E-03     253.798E-03    -65.1797E-03    -76.6458E-03    -66.9651E-03     252.620E-03    -73.6824E-03     6.53481E-03     652.679E-03    -325.004E-03    -331.038E-03    -321.204E-03     648.880E-03    -331.038E-03     121.207E-03     7.72343E+06     900.883E+03    -2.18631E+06     166.434E+03     7.41003E+06    -1.13846E+06     82.1840E+03         80.9369
             368     5.73353E-03     96.3146E-03     261.123E-03    -70.0542E-03    -79.0064E-03    -73.7447E-03     260.035E-03    -74.2281E-03     3.01596E-03     652.968E-03    -322.889E-03    -332.010E-03    -320.290E-03     650.370E-03    -332.010E-03     99.9296E-03     5.80858E+06     1.39794E+06    -1.25595E+06    -150.825E+03     5.77165E+06     329.756E+03    -120.739E+03         80.1504
             369     5.01414E-03     96.2533E-03     264.397E-03    -73.1873E-03    -78.2544E-03    -75.6444E-03     262.783E-03    -74.1825E-03    -6.02497E-03     657.261E-03    -324.428E-03    -330.913E-03    -322.841E-03     655.675E-03    -330.913E-03     78.0449E-03     3.79852E+06     560.695E+03    -1.27704E+06    -368.304E+03     2.51803E+06     932.452E+03     98.1770E+03         79.3452
             370     4.28912E-03     96.2258E-03     264.221E-03    -73.7641E-03    -77.1948E-03    -75.4132E-03     262.630E-03    -73.9541E-03    -4.95665E-03     658.216E-03    -327.247E-03    -330.280E-03    -326.390E-03     657.360E-03    -330.280E-03     57.1918E-03     3.38943E+06     828.121E+03    -2.21130E+06    -337.913E+03     1.56330E+06     780.863E+03     206.133E+03         78.5997
             371     3.57328E-03     96.2398E-03     263.461E-03    -72.7570E-03    -77.0227E-03    -75.3776E-03     262.709E-03    -73.6500E-03     14.9125E-03     656.924E-03    -328.169E-03    -331.193E-03    -328.248E-03     656.534E-03    -330.724E-03     38.0927E-03     3.32131E+06     50.8438E+03    -2.17102E+06    -647.573E+03     1.04904E+06     799.662E+03     58.3057E+03         77.9142
             372     2.85786E-03     96.2650E-03     266.429E-03    -71.5369E-03    -84.9363E-03    -81.8429E-03     264.038E-03    -72.2400E-03     31.3490E-03     658.235E-03    -329.185E-03    -331.976E-03    -329.523E-03     658.103E-03    -331.506E-03     21.5953E-03     1.74364E+06     72.6038E+03    -2.39181E+06    -770.489E+03    -1.28840E+06     1.48333E+06     812.459E+03         77.2650
             373     2.14381E-03     96.2999E-03     285.484E-03    -69.0097E-03    -110.953E-03    -80.8136E-03     255.345E-03    -69.0097E-03    -108.450E-03     661.618E-03    -330.565E-03    -332.349E-03    -330.538E-03     661.591E-03    -332.349E-03     8.81874E-03     1.42600E+06     632.837E+03    -3.01762E+06    -1.21316E+06    -1.17163E+06     1.42600E+06     926.999E+03         76.7179
             374     1.42802E-03     96.3194E-03     379.665E-03    -67.2780E-03    -206.110E-03    -66.1061E-03     239.662E-03    -67.2780E-03     195.153E-03     665.942E-03    -332.500E-03    -333.649E-03    -332.506E-03     665.940E-03    -333.642E-03     2.25969E-03     429.055E+03     -1.5933E+06    -4.65835E+06    -2.55022E+06    -2.81891E+06    -453.461E+03    -387.204E+03         76.3639
             375     715.315E-06     96.3124E-03     661.973E-03    -72.2569E-03    -486.905E-03    -62.7995E-03     237.868E-03    -72.2569E-03    -423.665E-03     670.546E-03    -335.064E-03    -335.629E-03    -335.161E-03     670.546E-03    -335.531E-03     16.2367E-06     -252.33E+03    -4.94613E+06    -7.86326E+06    -3.73552E+06    -5.77922E+06    -3.54699E+06    -804.376E+03         76.2203
             376     12.2081E-03     96.8481E-03     262.511E-03    -68.6466E-03    -76.0938E-03    -70.1086E-03     260.170E-03    -72.2910E-03     19.0423E-03     683.865E-03    -332.185E-03    -353.153E-03    -337.651E-03     668.363E-03    -332.185E-03     241.040E-03     17.0469E+06     411.779E+03    -12.0873E+06    -1.22139E+06     6.18102E+06     411.779E+03     290.632E+03         94.4351
             377     11.4717E-03     96.3535E-03     266.217E-03    -71.0448E-03    -77.1242E-03    -73.9826E-03     265.065E-03    -73.0339E-03    -265.691E-06     684.604E-03    -332.848E-03    -353.206E-03    -336.041E-03     667.438E-03    -332.848E-03     259.171E-03     17.9900E+06     2.73092E+06    -12.0351E+06     624.125E+03     5.33069E+06     2.73092E+06     353.185E+03         91.2983
             378     10.7592E-03     96.0098E-03     269.689E-03    -73.4040E-03    -83.9920E-03    -83.3711E-03     269.068E-03    -73.4040E-03     11.7296E-03     671.359E-03    -333.809E-03    -339.644E-03    -328.266E-03     659.981E-03    -333.809E-03     212.830E-03     12.5662E+06     1.78809E+06    -8.22624E+06    -363.801E+03     5.16646E+06     1.32538E+06     435.751E+03         88.2786
             379     10.0507E-03     95.6339E-03     268.181E-03    -73.1750E-03    -87.2996E-03    -86.7871E-03     267.669E-03    -73.1750E-03    -16.2362E-06     668.266E-03    -332.500E-03    -337.639E-03    -326.586E-03     657.213E-03    -332.500E-03     209.177E-03     12.1074E+06     150.031E+03    -2.89196E+06    -140.276E+03     10.1342E+06    -628.443E+03     177.393E+03         86.0436
             380     9.31327E-03     95.3316E-03     258.863E-03    -71.3002E-03    -79.2171E-03    -76.5274E-03     257.862E-03    -72.9893E-03     18.9918E-03     663.454E-03    -331.441E-03    -334.173E-03    -325.177E-03     654.547E-03    -331.530E-03     187.601E-03     10.2782E+06     934.502E+03    -3.78388E+06    -766.207E+03     7.57625E+06     618.742E+03    -303.129E+03         84.5257
             381     8.59119E-03     95.1266E-03     251.351E-03    -65.4447E-03    -73.6273E-03    -64.7739E-03     250.680E-03    -73.6273E-03     15.6724E-03     660.574E-03    -331.224E-03    -331.876E-03    -323.754E-03     652.812E-03    -331.583E-03     174.682E-03     9.88775E+06     699.058E+03    -4.15969E+06    -1.10577E+06     6.83383E+06     699.058E+03    -1.02442E+06         83.3724
             382     7.88209E-03     94.8717E-03     255.777E-03    -65.0934E-03    -74.9577E-03    -64.5018E-03     255.185E-03    -74.9577E-03    -15.4063E-03     659.870E-03    -329.057E-03    -330.253E-03    -322.464E-03     653.277E-03    -330.253E-03     160.810E-03     10.3121E+06    -805.656E+03    -3.09621E+06    -757.135E+03     8.87990E+06    -1.71250E+06    -934.258E+03         82.3501
             383     7.17251E-03     94.6234E-03     269.098E-03    -70.6951E-03    -82.0249E-03    -75.4298E-03     267.683E-03    -75.8752E-03     10.2883E-03     656.788E-03    -326.907E-03    -329.747E-03    -321.566E-03     651.448E-03    -329.747E-03     144.264E-03     8.13734E+06    -405.389E+03    -3.98288E+06    -79.3624E+03     5.87481E+06    -2.04637E+06    -326.667E+03         81.4531
             384     6.44799E-03     94.4912E-03     275.835E-03    -73.8274E-03    -86.8121E-03    -83.8618E-03     274.694E-03    -75.6368E-03     9.21994E-03     651.106E-03    -323.897E-03    -331.575E-03    -319.975E-03     647.184E-03    -331.575E-03     122.923E-03     8.00744E+06     804.599E+03    -3.83136E+06     901.182E+03     5.97436E+06    -1.89486E+06     688.385E+03         80.6851
             385     5.73013E-03     94.3678E-03     268.363E-03    -73.2914E-03    -80.0771E-03    -77.9666E-03     268.013E-03    -75.0515E-03    -11.3933E-03     652.334E-03    -321.699E-03    -333.028E-03    -319.099E-03     649.734E-03    -333.028E-03     99.7674E-03     7.49607E+06     1.14301E+06    -1.81330E+06     1.11733E+06     7.42810E+06    -1.71964E+06     507.703E+03         79.9792
             386     5.01387E-03     94.2923E-03     263.585E-03    -73.2406E-03    -76.1941E-03    -73.6175E-03     262.769E-03    -75.0007E-03     103.732E-06     658.444E-03    -323.957E-03    -331.566E-03    -322.441E-03     656.927E-03    -331.566E-03     76.1315E-03     4.07449E+06     1.24674E+06    -1.06442E+06     853.213E+03     2.68244E+06     721.149E+03    -234.190E+03         79.2987
             387     4.28693E-03     94.2672E-03     266.884E-03    -74.7888E-03    -79.6971E-03    -78.7737E-03     265.961E-03    -74.7888E-03    -1.84048E-03     660.450E-03    -327.954E-03    -330.479E-03    -327.497E-03     659.676E-03    -330.162E-03     54.3928E-03     3.78944E+06     2.21666E+06    -546.342E+03     1.12069E+06     834.097E+03     3.50498E+06    -370.359E+03         78.6408
             388     3.57206E-03     94.2699E-03     263.910E-03    -73.3104E-03    -79.3895E-03    -78.5222E-03     263.746E-03    -74.0135E-03     3.99974E-03     658.503E-03    -329.754E-03    -331.154E-03    -330.639E-03     658.153E-03    -329.920E-03     36.2406E-03     4.39862E+06     2.17052E+06    -422.256E+03     663.955E+03     1.08431E+06     4.39862E+06     49.5522E+03         77.9534
             389     2.85911E-03     94.2863E-03     258.984E-03    -72.4646E-03    -77.7767E-03    -76.4076E-03     258.318E-03    -73.1677E-03     22.7416E-03     657.430E-03    -329.662E-03    -330.883E-03    -330.451E-03     657.301E-03    -329.966E-03     21.6580E-03     2.85897E+06     436.384E+03    -1.81096E+06    -983.626E+03    -390.947E+03     2.85897E+06     391.162E+03         77.2430
             390     2.14508E-03     94.3249E-03     288.691E-03    -71.5524E-03    -107.380E-03    -78.8290E-03     260.140E-03    -71.5524E-03    -128.857E-03     658.837E-03    -329.639E-03    -330.502E-03    -329.598E-03     658.796E-03    -330.502E-03     11.5355E-03     1.51006E+06    -356.382E+03    -2.93387E+06    -1.72280E+06    -1.56745E+06     1.51006E+06     483.378E+03         76.6389
             391     1.43124E-03     94.3583E-03     380.686E-03    -69.2382E-03    -197.491E-03    -73.6029E-03     256.798E-03    -69.2382E-03     161.776E-03     662.863E-03    -331.299E-03    -331.989E-03    -331.418E-03     662.851E-03    -331.859E-03     5.23001E-03     974.545E+03    -948.259E+03    -4.39278E+06    -2.10164E+06    -2.66156E+06     396.714E+03     402.631E+03         76.2701
             392     715.226E-06     94.3519E-03     618.663E-03    -73.1897E-03    -427.663E-03    -63.1239E-03     254.124E-03    -73.1897E-03    -365.645E-03     667.071E-03    -333.278E-03    -333.828E-03    -333.497E-03     667.070E-03    -333.607E-03     1.59052E-03    -932.681E+03    -4.20085E+06    -7.38233E+06    -4.53247E+06    -5.70901E+06    -2.27438E+06     242.860E+03         76.1368
             393     12.1950E-03     94.8998E-03     268.916E-03    -71.9459E-03    -76.8525E-03    -72.1828E-03     267.891E-03    -75.5903E-03     29.4456E-03     682.994E-03    -332.649E-03    -353.331E-03    -338.268E-03     667.931E-03    -332.649E-03     237.848E-03     16.2640E+06     2.50010E+06    -8.87979E+06     1.63844E+06     5.82179E+06     2.42414E+06     1.41208E+06         94.3287
             394     11.4893E-03     94.3661E-03     269.853E-03    -73.9851E-03    -78.0930E-03    -75.4989E-03     269.704E-03    -76.4305E-03     1.02419E-03     684.705E-03    -333.027E-03    -353.286E-03    -336.730E-03     668.149E-03    -333.027E-03     254.555E-03     16.6168E+06     1.34394E+06    -10.7738E+06     1.40140E+06     4.51759E+06     1.26797E+06     1.39114E+06         91.2332
             395     10.7551E-03     94.0591E-03     274.500E-03    -76.4173E-03    -85.4120E-03    -83.6399E-03     273.184E-03    -76.8736E-03     20.2515E-03     672.077E-03    -333.737E-03    -340.082E-03    -328.905E-03     660.900E-03    -333.737E-03     210.999E-03     12.4984E+06     1.65095E+06    -7.24498E+06     973.389E+03     4.43364E+06     1.49730E+06     493.809E+03         88.2577
             396     10.0555E-03     93.6616E-03     278.346E-03    -76.8751E-03    -91.8829E-03    -89.3339E-03     275.797E-03    -76.8751E-03    -3.26133E-03     668.760E-03    -332.910E-03    -337.552E-03    -326.466E-03     657.673E-03    -332.910E-03     209.538E-03     13.8077E+06     202.455E+03    -2.24769E+06     11.4707E+03     11.7021E+06     48.7993E+03     611.979E+03         86.0631
             397     9.31037E-03     93.3841E-03     273.276E-03    -75.8329E-03    -85.2627E-03    -82.0415E-03     271.122E-03    -76.8998E-03    -5.41774E-03     663.579E-03    -331.460E-03    -333.851E-03    -324.889E-03     654.617E-03    -331.460E-03     188.165E-03     13.2199E+06    -348.756E+03    -1.85539E+06     223.434E+03     11.5283E+06    -735.966E+03     937.274E+03         84.5438
             398     8.58663E-03     93.1613E-03     269.281E-03    -72.8768E-03    -80.0121E-03    -74.5436E-03     268.279E-03    -77.3427E-03     13.3297E-03     659.761E-03    -331.172E-03    -332.081E-03    -324.144E-03     651.886E-03    -331.235E-03     175.921E-03     10.0606E+06     378.600E+03    -1.43912E+06     977.357E+03     8.03137E+06    -8.61040E+03    -615.670E+03         83.3269
             399     7.88351E-03     92.8828E-03     274.947E-03    -73.3638E-03    -82.2713E-03    -77.6178E-03     274.724E-03    -77.7943E-03    -5.62536E-03     658.186E-03    -328.533E-03    -330.714E-03    -322.280E-03     651.483E-03    -330.264E-03     161.981E-03     9.76279E+06     936.689E+03    -598.347E+03     916.830E+03     8.38588E+06     798.423E+03    -910.485E+03         82.2075
             400     7.17122E-03     92.6534E-03     279.767E-03    -74.6787E-03    -86.0891E-03    -82.6687E-03     279.351E-03    -77.6832E-03     18.5702E-03     655.797E-03    -325.565E-03    -330.142E-03    -320.200E-03     650.432E-03    -330.142E-03     144.387E-03     8.09684E+06     1.59384E+06    -1.33831E+06     495.103E+03     6.16467E+06     1.69259E+06    -658.438E+03         81.2053
             401     6.44759E-03     92.5478E-03     274.622E-03    -72.0859E-03    -85.6419E-03    -79.3679E-03     273.692E-03    -77.4300E-03    -3.43814E-03     651.849E-03    -323.972E-03    -331.953E-03    -320.079E-03     647.956E-03    -331.953E-03     122.482E-03     6.32816E+06     1.18325E+06    -3.10559E+06     179.215E+03     2.53893E+06     1.68767E+06    -193.972E+03         80.4076
             402     5.72985E-03     92.4047E-03     269.369E-03    -73.4915E-03    -80.6798E-03    -75.9347E-03     268.760E-03    -77.6275E-03    -14.0028E-03     653.337E-03    -322.719E-03    -333.514E-03    -320.149E-03     650.767E-03    -333.514E-03     99.3351E-03     10.0880E+06     654.288E+03    -1.98816E+06     753.080E+03     8.10177E+06    -100.673E+03     853.368E+03         79.7658
             403     5.01224E-03     92.3297E-03     275.008E-03    -76.8140E-03    -83.6399E-03    -82.3021E-03     274.435E-03    -77.5789E-03     24.0078E-03     659.335E-03    -324.450E-03    -331.931E-03    -322.969E-03     657.855E-03    -331.931E-03     75.1251E-03     6.28862E+06     213.508E+03    -2.46978E+06     184.886E+03     4.65631E+06    -808.853E+03     831.883E+03         79.1395
             404     4.28748E-03     92.2990E-03     276.730E-03    -76.6648E-03    -86.2864E-03    -84.4235E-03     274.867E-03    -76.6648E-03    -6.03800E-03     660.737E-03    -328.315E-03    -330.474E-03    -327.892E-03     659.997E-03    -330.157E-03     53.2986E-03     2.77297E+06    -1.16733E+06    -3.87194E+06    -1.22379E+06     138.013E+03    -1.18052E+06     550.110E+03         78.5007
             405     3.57502E-03     92.2889E-03     264.654E-03    -72.8618E-03    -82.0362E-03    -77.6941E-03     263.275E-03    -75.8245E-03    -20.7730E-03     657.337E-03    -329.326E-03    -330.285E-03    -329.745E-03     656.990E-03    -329.520E-03     36.0803E-03     3.93574E+06    -663.431E+03    -2.88595E+06    -1.26343E+06     2.60321E+06    -953.418E+03     109.688E+03         77.8234
             406     2.85725E-03     92.3186E-03     262.981E-03    -72.4200E-03    -78.3939E-03    -72.1309E-03     260.353E-03    -76.0546E-03     44.4106E-03     655.908E-03    -328.629E-03    -329.835E-03    -328.946E-03     655.776E-03    -329.387E-03     21.8815E-03     2.22097E+06    -256.191E+03    -2.34218E+06    -1.18950E+06     325.037E+03     487.067E+03    -359.678E+03         77.1388
             407     2.14030E-03     92.3594E-03     297.292E-03    -75.1986E-03    -101.497E-03    -79.1694E-03     275.636E-03    -75.8705E-03    -82.3236E-03     657.804E-03    -328.755E-03    -330.139E-03    -328.710E-03     657.760E-03    -330.139E-03     12.5043E-03     1.22397E+06    -989.430E+03    -2.82840E+06    -1.69506E+06    -2.09780E+06     1.19900E+06    -589.382E+03         76.6027
             408     1.42563E-03     92.3808E-03     373.854E-03    -71.4293E-03    -172.812E-03    -86.6442E-03     287.686E-03    -71.4293E-03     138.884E-03     664.581E-03    -331.992E-03    -333.057E-03    -332.102E-03     664.567E-03    -332.933E-03     5.98626E-03    -129.252E+03    -2.35555E+06    -4.76924E+06    -2.51580E+06    -3.55106E+06    -1.18717E+06    -354.404E+03         76.3125
             409     714.597E-06     92.3902E-03     588.821E-03    -60.8370E-03    -383.739E-03    -74.3408E-03     279.423E-03    -60.8370E-03    -368.298E-03     669.889E-03    -334.282E-03    -335.646E-03    -335.111E-03     669.887E-03    -334.816E-03     1.61449E-03     286.125E+03    -2.35693E+06    -5.45414E+06    -1.12236E+06    -4.04566E+06    -2.35693E+06     496.530E+03         76.2229
             410     12.2060E-03     92.9303E-03     278.065E-03    -78.4790E-03    -81.1194E-03    -80.1033E-03     277.049E-03    -78.4790E-03     7.57120E-03     682.831E-03    -332.548E-03    -354.012E-03    -338.980E-03     667.799E-03    -332.548E-03     236.925E-03     13.0184E+06     1.29516E+06    -11.9014E+06    -626.193E+03     1.81918E+06     1.21919E+06    -545.158E+03         94.1474
             411     11.4747E-03     92.4133E-03     272.122E-03    -78.3664E-03    -81.1623E-03    -78.9887E-03     270.404E-03    -78.8227E-03    -14.0738E-03     683.174E-03    -333.282E-03    -353.426E-03    -336.645E-03     666.394E-03    -333.282E-03     256.284E-03     14.0591E+06     1.31373E+06    -10.0891E+06     100.496E+03     3.94550E+06     1.23776E+06     654.465E+03         91.0874
             412     10.7513E-03     92.0971E-03     270.835E-03    -78.7600E-03    -81.7177E-03    -76.5817E-03     266.155E-03    -79.2163E-03     19.6963E-03     670.140E-03    -333.637E-03    -340.523E-03    -329.240E-03     658.856E-03    -333.637E-03     211.951E-03     14.0019E+06     946.201E+03    -6.20369E+06     500.693E+03     7.45117E+06     792.545E+03     941.335E+03         88.1761
             413     10.0564E-03     91.6863E-03     276.715E-03    -79.1521E-03    -84.0209E-03    -76.7052E-03     269.862E-03    -79.6145E-03    -3.01206E-03     667.709E-03    -333.031E-03    -337.669E-03    -326.562E-03     656.602E-03    -333.031E-03     209.666E-03     15.1644E+06    -1.11637E+06    -3.18595E+06     595.800E+03     11.5363E+06    -1.27003E+06     544.102E+03         86.0416
             414     9.30667E-03     91.4477E-03     282.068E-03    -79.4090E-03    -84.6379E-03    -79.8887E-03     277.782E-03    -79.8715E-03    -28.3236E-03     664.218E-03    -331.598E-03    -333.790E-03    -324.862E-03     655.290E-03    -331.598E-03     187.833E-03     14.9646E+06    -550.827E+03    -2.02311E+06     1.59589E+06     12.3630E+06    -1.56822E+06    -194.185E+03         84.5319
             415     8.58606E-03     91.2208E-03     286.953E-03    -79.7619E-03    -86.4822E-03    -85.6028E-03     286.074E-03    -79.7619E-03     14.8584E-03     660.175E-03    -330.852E-03    -332.054E-03    -324.234E-03     652.354E-03    -330.852E-03     175.406E-03     10.1437E+06     733.676E+03    -1.42989E+06     1.17101E+06      8.9775E+06    -701.043E+03     294.200E+03         83.2826
             416     7.87929E-03     90.9195E-03     287.849E-03    -79.2348E-03    -88.7908E-03    -88.4674E-03     287.525E-03    -79.2348E-03    -9.11943E-03     657.008E-03    -328.327E-03    -330.885E-03    -322.453E-03     650.288E-03    -330.039E-03     162.101E-03     8.57244E+06     175.988E+03    -1.47409E+06    -55.8637E+03     7.95032E+06    -620.118E+03     310.977E+03         82.1381
             417     7.16788E-03     90.7006E-03     275.201E-03    -73.7129E-03    -83.2270E-03    -77.7209E-03     275.011E-03    -79.0293E-03    -650.465E-06     655.383E-03    -325.731E-03    -330.373E-03    -320.313E-03     649.965E-03    -330.373E-03     145.118E-03     7.82953E+06     745.607E+03    -786.932E+03    -230.629E+03     7.71137E+06     307.468E+03    -22.9944E+03         81.1213
             418     6.44445E-03     90.5678E-03     268.526E-03    -71.0514E-03    -80.1484E-03    -70.9589E-03     268.024E-03    -79.7389E-03    -13.2029E-03     653.401E-03    -324.813E-03    -332.010E-03    -320.854E-03     649.442E-03    -332.010E-03     123.613E-03     3.85935E+06     686.463E+03    -1.95709E+06    -1.11619E+06     1.91329E+06     1.79163E+06    -309.566E+03         80.3136
             419     5.72325E-03     90.4548E-03     276.242E-03    -77.0200E-03    -83.4464E-03    -79.5382E-03     275.705E-03    -80.3911E-03    -6.86971E-03     654.648E-03    -324.100E-03    -333.768E-03    -321.542E-03     652.090E-03    -333.768E-03     99.1446E-03     6.26665E+06    -620.909E+03    -2.51041E+06    -1.55797E+06     4.27470E+06     418.602E+03     308.157E+03         79.6691
             420     5.01179E-03     90.3359E-03     279.377E-03    -76.0322E-03    -87.5259E-03    -82.8349E-03     278.970E-03    -80.3169E-03     22.5986E-03     659.769E-03    -324.912E-03    -332.380E-03    -323.416E-03     658.272E-03    -332.380E-03     75.8397E-03     6.03965E+06    -158.960E+03    -2.68968E+06    -861.073E+03     4.33606E+06    -283.975E+03     1.73512E+06         79.0217
             421     4.28911E-03     90.2833E-03     277.296E-03    -75.8542E-03    -86.9294E-03    -80.4868E-03     275.138E-03    -80.1389E-03    -20.7232E-03     660.378E-03    -327.871E-03    -330.464E-03    -327.070E-03     659.577E-03    -330.464E-03     55.4057E-03     5.59216E+06    -101.972E+03    -2.80084E+06    -645.348E+03     3.87939E+06    -544.700E+03     1.75909E+06         78.3618
             422     3.57219E-03     90.2928E-03     276.275E-03    -77.1084E-03    -85.2475E-03    -80.4164E-03     274.407E-03    -80.0711E-03    -35.9045E-03     656.881E-03    -329.081E-03    -329.828E-03    -328.696E-03     656.496E-03    -329.828E-03     38.1687E-03     5.49365E+06    -927.855E+03    -1.98798E+06    -965.392E+03     5.06956E+06    -1.52635E+06     267.063E+03         77.6946
             423     2.85600E-03     90.3278E-03     281.716E-03    -76.2931E-03    -88.6742E-03    -80.5872E-03     277.263E-03    -79.9277E-03     56.6834E-03     656.393E-03    -329.214E-03    -329.951E-03    -329.064E-03     656.243E-03    -329.951E-03     23.2187E-03     1.09827E+06    -627.301E+03    -2.40599E+06    -892.587E+03    -259.367E+03    -783.069E+03    -717.975E+03         77.0594
             424     2.14292E-03     90.3680E-03     303.694E-03    -77.1100E-03    -105.307E-03    -90.2502E-03     289.309E-03    -77.7819E-03    -33.9281E-03     660.782E-03    -330.302E-03    -331.637E-03    -330.263E-03     660.743E-03    -331.637E-03     11.3623E-03     663.134E+03    -882.264E+03    -2.96841E+06    -645.247E+03    -2.07894E+06    -463.348E+03    -483.849E+03         76.5976
             425     1.42765E-03     90.3890E-03     342.681E-03    -71.8684E-03    -140.914E-03    -87.3296E-03     289.097E-03    -71.8684E-03     104.154E-03     664.703E-03    -331.856E-03    -333.157E-03    -331.850E-03     664.698E-03    -333.157E-03     3.23641E-03     1.02629E+06    -1.49763E+06    -3.83543E+06    -1.40613E+06    -2.49275E+06    -407.882E+03    -226.392E+03         76.3408
             426     711.802E-06     90.4042E-03     533.668E-03    -74.1488E-03    -321.755E-03    -61.6397E-03     273.552E-03    -74.1488E-03    -373.877E-03     668.471E-03    -333.006E-03    -335.567E-03    -335.081E-03     668.470E-03    -333.492E-03    -434.805E-06    -426.948E+03    -3.10132E+06    -7.15388E+06    -4.06320E+06    -4.89065E+06    -1.72830E+06     274.350E+03         76.2397
             427     12.1908E-03     90.9622E-03     277.228E-03    -80.0097E-03    -82.8764E-03    -80.9259E-03     275.277E-03    -80.0097E-03    -8.65936E-03     682.295E-03    -332.610E-03    -353.695E-03    -338.508E-03     667.108E-03    -332.610E-03     238.535E-03     14.5004E+06    -406.332E+03    -14.1607E+06    -1.62968E+06      1.9694E+06    -406.332E+03    -677.012E+03         93.9243
             428     11.4853E-03     90.4641E-03     279.988E-03    -80.0785E-03    -86.9308E-03    -83.2084E-03     276.266E-03    -80.0785E-03    -25.8337E-03     681.239E-03    -333.437E-03    -353.022E-03    -336.236E-03     664.453E-03    -333.437E-03     255.945E-03     15.3088E+06    -452.744E+03    -11.5390E+06    -1.56923E+06     5.33905E+06    -452.744E+03    -588.351E+03         90.9577
             429     10.7526E-03     90.1347E-03     283.996E-03    -80.0322E-03    -88.3186E-03    -81.7051E-03     277.383E-03    -80.0322E-03     3.00170E-03     668.472E-03    -333.371E-03    -339.954E-03    -328.749E-03     657.266E-03    -333.371E-03     211.006E-03     14.9834E+06    -2.21585E+06    -8.43777E+06    -816.168E+03     7.36181E+06    -2.21585E+06    -197.575E+03         88.1382
             430     10.0618E-03     89.6902E-03     284.291E-03    -79.7016E-03    -83.2193E-03    -75.7672E-03     277.302E-03    -80.1641E-03     1.93149E-03     666.323E-03    -332.930E-03    -337.925E-03    -326.865E-03     655.263E-03    -332.930E-03     209.141E-03     14.0624E+06    -2.34732E+06    -5.40308E+06     105.762E+03     8.55351E+06    -2.34732E+06    -629.709E+03         86.0217
             431     9.31151E-03     89.3990E-03     283.583E-03    -78.1237E-03    -81.5923E-03    -74.5220E-03     278.994E-03    -80.6048E-03    -19.8361E-03     662.441E-03    -331.340E-03    -334.003E-03    -324.804E-03     653.449E-03    -331.546E-03     188.350E-03     12.1071E+06    -1.54559E+06    -3.25027E+06     29.6970E+03     9.45727E+06    -2.17577E+06    -118.128E+03         84.4884
             432     8.59725E-03     89.1164E-03     281.199E-03    -75.2078E-03    -85.1468E-03    -78.0825E-03     280.022E-03    -81.0958E-03     32.6381E-03     659.235E-03    -330.282E-03    -331.453E-03    -323.351E-03     651.340E-03    -330.488E-03     176.057E-03     10.3837E+06    -1.30793E+06    -3.31769E+06    -777.922E+03     9.44055E+06    -2.90453E+06     766.729E+03         83.2603
             433     7.87933E-03     88.8967E-03     279.397E-03    -76.0645E-03    -86.5935E-03    -80.6906E-03     278.944E-03    -81.5144E-03    -12.8377E-03     656.786E-03    -328.592E-03    -330.670E-03    -322.608E-03     650.090E-03    -329.959E-03     161.769E-03     9.44305E+06    -1.04322E+06    -2.83468E+06    -597.973E+03     8.99780E+06    -2.83468E+06     1.22519E+06         82.1712
             434     7.15681E-03     88.7347E-03     279.875E-03    -76.9663E-03    -87.0302E-03    -81.6395E-03     279.408E-03    -81.8904E-03    -15.6323E-03     655.598E-03    -326.574E-03    -330.555E-03    -321.214E-03     650.238E-03    -330.555E-03     144.425E-03     8.45655E+06    -531.940E+03    -2.23278E+06    -430.901E+03     8.35551E+06    -2.23278E+06     625.818E+03         81.1980
             435     6.44495E-03     88.5541E-03     284.813E-03    -78.6518E-03    -88.4467E-03    -85.0045E-03     284.715E-03    -81.9953E-03     1.75630E-03     653.677E-03    -324.861E-03    -331.992E-03    -320.907E-03     649.724E-03    -331.992E-03     123.613E-03     5.24659E+06     25.7424E+03    -2.97949E+06    -533.319E+03     3.67621E+06    -850.054E+03    -17.7895E+03         80.4070
             436     5.72506E-03     88.4374E-03     286.230E-03    -78.9499E-03    -86.7557E-03    -83.7542E-03     286.126E-03    -81.8470E-03     1.86363E-03     654.483E-03    -323.706E-03    -333.971E-03    -321.087E-03     651.863E-03    -333.971E-03     100.387E-03     3.31583E+06     910.163E+03    -2.20792E+06    -639.438E+03     1.74735E+06     910.163E+03     83.8118E+03         79.7534
             437     5.00920E-03     88.3539E-03     276.364E-03    -72.4231E-03    -84.0922E-03    -73.8216E-03     276.106E-03    -82.4365E-03    -792.312E-06     660.065E-03    -324.637E-03    -333.089E-03    -323.050E-03     658.477E-03    -333.089E-03     78.2237E-03     4.45439E+06     2.20845E+06    -1.42157E+06    -11.8962E+03     2.88498E+06     2.36819E+06    -10.5086E+03         79.0840
             438     4.28233E-03     88.3099E-03     282.442E-03    -76.5591E-03    -86.4237E-03    -77.1309E-03     280.266E-03    -83.6755E-03     7.73049E-03     661.853E-03    -328.013E-03    -331.303E-03    -327.317E-03     661.014E-03    -331.160E-03     56.4962E-03     7.71401E+06     2.17084E+06    -1.00187E+06     982.188E+03     6.10155E+06     1.79924E+06    -162.374E+03         78.3993
             439     3.56844E-03     88.3169E-03     302.495E-03    -83.3184E-03    -96.6530E-03    -92.5447E-03     298.387E-03    -83.3184E-03    -22.8197E-03     658.954E-03    -329.762E-03    -330.762E-03    -329.848E-03     658.592E-03    -330.315E-03     36.7270E-03     7.18821E+06     1.80845E+06     27.9486E+03     1.48835E+06     5.99440E+06     1.54185E+06     429.696E+03         77.7219
             440     2.85366E-03     88.3375E-03     299.161E-03    -81.2449E-03    -97.6307E-03    -90.2779E-03     291.808E-03    -81.2449E-03     29.3049E-03     657.767E-03    -329.750E-03    -330.708E-03    -329.925E-03     657.639E-03    -330.404E-03     21.2265E-03     2.56618E+06     1.82281E+06    -1.21669E+06     871.580E+03    -49.4558E+03     2.35018E+06     903.475E+03         77.0847
             441     2.14058E-03     88.3716E-03     286.575E-03    -74.5259E-03    -94.9087E-03    -77.4409E-03     275.132E-03    -80.5505E-03    -4.51806E-03     661.310E-03    -330.770E-03    -331.690E-03    -330.738E-03     661.278E-03    -331.690E-03     10.1103E-03     1.46812E+06    -522.698E+03    -2.90812E+06    -638.910E+03    -1.69039E+06     366.606E+03     543.367E+03         76.6059
             442     1.42774E-03     88.4039E-03     296.442E-03    -78.0548E-03    -107.093E-03    -71.1691E-03     266.543E-03    -84.0794E-03     66.6032E-03     662.464E-03    -331.083E-03    -331.765E-03    -331.105E-03     662.459E-03    -331.738E-03     3.53864E-03     755.553E+03    -2.12164E+06    -3.72133E+06    -1.45932E+06    -2.67457E+06    -953.533E+03     162.797E+03         76.3054
             443     715.324E-06     88.4237E-03     440.644E-03    -100.337E-03    -239.808E-03    -73.6375E-03     274.473E-03    -100.337E-03    -294.579E-03     665.382E-03    -331.499E-03    -333.999E-03    -333.716E-03     665.381E-03    -331.780E-03     461.208E-06     1.39480E+06    -2.75250E+06    -5.16800E+06    -1.48623E+06    -3.53058E+06    -1.50888E+06    -448.523E+03         76.1649
             444     12.2057E-03     89.0031E-03     279.463E-03    -81.0773E-03    -84.3059E-03    -81.2488E-03     276.406E-03    -81.0773E-03    -7.49744E-03     682.683E-03    -332.604E-03    -353.806E-03    -338.529E-03     667.405E-03    -332.604E-03     238.793E-03     16.9337E+06     1.30254E+06    -13.0550E+06     206.882E+03     3.67187E+06     1.30254E+06     484.533E+03         93.7038
             445     11.4904E-03     88.3914E-03     287.486E-03    -81.2284E-03    -88.4485E-03    -85.4855E-03     284.523E-03    -81.2284E-03    -412.358E-06     680.246E-03    -333.049E-03    -353.344E-03    -336.300E-03     663.202E-03    -333.049E-03     257.905E-03     19.2080E+06    -285.203E+03    -10.8767E+06     298.260E+03     8.03307E+06    -285.203E+03    -605.792E+03         90.8596
             446     10.7671E-03     88.0413E-03     293.775E-03    -80.3137E-03    -89.0362E-03    -84.6518E-03     290.441E-03    -81.3645E-03     371.978E-06     667.648E-03    -332.812E-03    -340.162E-03    -328.597E-03     656.083E-03    -332.812E-03     214.201E-03     14.8408E+06    -151.512E+03    -9.06817E+06     80.5304E+03     5.69205E+06    -151.512E+03    -738.231E+03         88.1101
             447     10.0539E-03     87.6674E-03     290.498E-03    -79.8397E-03    -83.9988E-03    -79.3753E-03     287.858E-03    -81.8232E-03     7.57014E-03     665.255E-03    -332.844E-03    -338.005E-03    -326.685E-03     653.934E-03    -332.844E-03     211.316E-03     12.9041E+06     375.943E+03    -4.70029E+06     604.068E+03     7.59975E+06     375.943E+03     383.122E+03         85.9578
             448     9.31000E-03     87.3772E-03     287.080E-03    -79.5906E-03    -84.2412E-03    -79.5762E-03     285.366E-03    -82.5419E-03    -8.17511E-03     661.520E-03    -331.307E-03    -333.666E-03    -324.322E-03     652.467E-03    -331.598E-03     188.874E-03     12.4362E+06    -151.714E+03    -1.80879E+06     404.664E+03     10.6337E+06    -562.692E+03     681.320E+03         84.4043
             449     8.59551E-03     87.1014E-03     278.355E-03    -77.0532E-03    -84.9386E-03    -77.9851E-03     277.662E-03    -83.3134E-03     20.3005E-03     659.430E-03    -330.031E-03    -331.205E-03    -323.002E-03     651.519E-03    -330.323E-03     176.175E-03     10.5198E+06     462.213E+03    -2.29786E+06     880.919E+03     7.56334E+06     239.886E+03     1.46508E+06         83.2294
             450     7.87761E-03     86.8816E-03     274.900E-03    -78.0120E-03    -84.1186E-03    -77.5959E-03     274.484E-03    -84.1186E-03    -7.73440E-03     657.403E-03    -328.734E-03    -330.695E-03    -322.998E-03     650.785E-03    -329.813E-03     160.894E-03     10.0329E+06     515.311E+03    -2.27115E+06     840.176E+03     7.58348E+06    -146.565E+03     1.99168E+06         82.2098
             451     7.15819E-03     86.7253E-03     284.705E-03    -81.7418E-03    -87.7974E-03    -84.3953E-03     284.161E-03    -84.5991E-03    -3.16574E-03     655.903E-03    -326.626E-03    -330.587E-03    -321.318E-03     650.595E-03    -330.587E-03     143.781E-03     10.8792E+06     380.116E+03    -1.32379E+06     655.164E+03     10.6041E+06    -1.32379E+06     1.16126E+06         81.2740
             452     6.44562E-03     86.5464E-03     291.661E-03    -79.5945E-03    -90.7866E-03    -85.4070E-03     291.431E-03    -84.7447E-03     16.2534E-03     652.663E-03    -323.860E-03    -331.986E-03    -319.882E-03     648.685E-03    -331.986E-03     123.952E-03     7.94285E+06     1.69684E+06    -1.37623E+06     1.18077E+06     6.23922E+06     843.470E+03     799.463E+03         80.4946
             453     5.72153E-03     86.4418E-03     294.061E-03    -77.9554E-03    -90.5933E-03    -83.4804E-03     294.003E-03    -85.0105E-03     4.11622E-03     653.531E-03    -322.879E-03    -334.091E-03    -320.208E-03     650.860E-03    -334.091E-03     101.266E-03     4.90674E+06     2.28667E+06    -1.79969E+06     777.052E+03     3.35757E+06     1.25909E+06     508.332E+03         79.8559
             454     5.00417E-03     86.3557E-03     294.315E-03    -79.7746E-03    -89.1559E-03    -82.3488E-03     293.236E-03    -85.5034E-03    -27.3605E-03     660.691E-03    -325.029E-03    -333.405E-03    -323.469E-03     659.131E-03    -333.405E-03     77.3248E-03     5.88603E+06     1.22403E+06    -2.39380E+06     5.42191E+03     4.55634E+06     154.489E+03    -308.651E+03         79.1937
             455     4.28283E-03     86.3171E-03     301.683E-03    -83.4662E-03    -91.6631E-03    -80.3601E-03     293.212E-03    -86.2979E-03     45.6409E-03     663.477E-03    -328.984E-03    -331.724E-03    -328.534E-03     662.697E-03    -331.393E-03     54.5985E-03     6.92319E+06     174.856E+03    -3.04190E+06    -337.598E+03     3.74123E+06     652.519E+03    -1.09543E+06         78.4954
             456     3.56937E-03     86.3208E-03     311.176E-03    -84.2794E-03    -99.2062E-03    -83.6168E-03     298.424E-03    -87.1171E-03     7.03922E-03     660.182E-03    -330.320E-03    -331.097E-03    -330.614E-03     659.841E-03    -330.462E-03     35.8036E-03     5.21433E+06     742.277E+03    -2.57909E+06    -345.000E+03     2.02369E+06     1.69883E+06    -224.764E+03         77.8057
             457     2.85760E-03     86.3523E-03     304.349E-03    -78.9868E-03    -96.4279E-03    -77.0397E-03     294.762E-03    -88.7886E-03    -10.2794E-03     657.526E-03    -329.297E-03    -330.665E-03    -329.468E-03     657.393E-03    -330.362E-03     21.7648E-03     4.27188E+06     1.06865E+06    -2.00316E+06    -603.089E+03     2.23169E+06     1.70877E+06     819.790E+03         77.1367
             458     2.14299E-03     86.3897E-03     295.144E-03    -80.0598E-03    -93.8899E-03    -70.4743E-03     285.556E-03    -93.8878E-03    -8.21437E-03     658.520E-03    -329.160E-03    -330.642E-03    -329.119E-03     658.479E-03    -330.642E-03     11.2026E-03     2.76368E+06    -1.08132E+06    -2.49745E+06    -1.85061E+06     816.423E+03     219.097E+03     488.918E+03         76.6019
             459     1.42773E-03     86.4246E-03     308.655E-03    -96.1112E-03    -110.907E-03    -81.1058E-03     285.718E-03    -102.975E-03     57.3982E-03     660.870E-03    -330.378E-03    -331.110E-03    -330.398E-03     660.863E-03    -331.083E-03     4.67707E-03     434.019E+03    -2.31528E+06    -3.62912E+06    -2.34879E+06    -2.79055E+06    -371.036E+03     226.365E+03         76.2784
             460     713.004E-06     86.4514E-03     398.756E-03    -117.890E-03    -196.039E-03    -98.5062E-03     301.223E-03    -117.890E-03    -183.351E-03     666.306E-03    -332.699E-03    -333.861E-03    -333.714E-03     666.305E-03    -332.845E-03     1.91538E-03     1.77052E+06    -2.48240E+06    -4.10814E+06    -656.304E+03    -3.03056E+06    -1.13317E+06     137.966E+03         76.1543
             461     12.1932E-03     86.9701E-03     289.528E-03    -83.0529E-03    -87.9549E-03    -85.6488E-03     287.222E-03    -83.0529E-03    -1.58535E-03     681.622E-03    -332.313E-03    -353.636E-03    -338.423E-03     666.409E-03    -332.313E-03     238.320E-03     15.0894E+06     137.176E+03    -13.5883E+06    -79.4123E+03     1.58047E+06     137.176E+03    -304.884E+03         93.5648
             462     11.4906E-03     86.3579E-03     289.354E-03    -80.7069E-03    -87.5145E-03    -83.2885E-03     288.126E-03    -83.7051E-03     30.6703E-03     678.165E-03    -332.855E-03    -352.441E-03    -335.482E-03     661.206E-03    -332.855E-03     257.007E-03     19.6552E+06    -1.51432E+06    -10.4934E+06     590.119E+03     8.57176E+06    -1.51432E+06    -735.788E+03         90.7570
             463     10.7639E-03     86.0298E-03     289.831E-03    -77.7939E-03    -86.4245E-03    -79.1774E-03     289.450E-03    -84.6602E-03     5.37254E-03     665.734E-03    -332.695E-03    -339.661E-03    -328.096E-03     654.169E-03    -332.695E-03     213.956E-03     15.4508E+06    -28.5718E+03    -7.39875E+06     909.765E+03     7.26942E+06    -155.665E+03     71.4236E+03         88.0405
             464     10.0528E-03     85.6558E-03     290.490E-03    -79.2294E-03    -85.8671E-03    -78.6475E-03     289.908E-03    -85.8671E-03     10.6313E-03     665.163E-03    -332.865E-03    -338.193E-03    -326.914E-03     653.883E-03    -332.865E-03     210.907E-03     11.2455E+06     334.560E+03    -3.90914E+06    -21.1469E+03     7.69777E+06    -5.73158E+03     141.312E+03         85.8970
             465     9.30821E-03     85.3727E-03     294.230E-03    -84.0782E-03    -91.2913E-03    -87.9902E-03     293.699E-03    -86.8478E-03     1.20657E-03     662.535E-03    -331.536E-03    -333.752E-03    -324.753E-03     653.621E-03    -331.621E-03     187.525E-03     11.1978E+06     629.357E+03    -1.26498E+06     429.030E+03     10.1279E+06     5.17967E+03     369.585E+03         84.3655
             466     8.59620E-03     85.0857E-03     295.269E-03    -86.7639E-03    -95.8089E-03    -95.2515E-03     295.083E-03    -87.1361E-03    -1.99621E-03     660.000E-03    -330.135E-03    -331.322E-03    -323.429E-03     652.192E-03    -330.221E-03     175.147E-03     8.91745E+06     135.865E+03    -2.57714E+06    -262.428E+03     6.51452E+06     224.087E+03     961.924E+03         83.2163
             467     7.87934E-03     84.8705E-03     292.857E-03    -86.3572E-03    -93.5120E-03    -92.7732E-03     292.775E-03    -87.0139E-03     3.43366E-03     656.809E-03    -328.227E-03    -330.725E-03    -322.602E-03     650.150E-03    -329.691E-03     161.352E-03     9.93317E+06    -104.641E+03    -2.27408E+06    -220.379E+03     7.78453E+06    -9.70684E+03     1.01802E+06         82.2082
             468     7.15808E-03     84.7219E-03     291.187E-03    -82.7642E-03    -89.4682E-03    -84.6144E-03     290.769E-03    -87.1994E-03     14.1356E-03     654.989E-03    -325.636E-03    -330.555E-03    -320.279E-03     649.632E-03    -330.555E-03     144.263E-03     11.6548E+06     424.643E+03    -325.000E+03     380.452E+03     11.3905E+06    -16.5593E+03     1.41668E+06         81.2915
             469     6.44290E-03     84.5398E-03     291.777E-03    -78.5460E-03    -88.1827E-03    -77.9184E-03     291.149E-03    -88.1827E-03     27.9962E-03     652.441E-03    -323.414E-03    -331.980E-03    -319.456E-03     648.484E-03    -331.980E-03     123.545E-03     7.89940E+06     1.73661E+06    -12.7505E+03     978.375E+03     7.50675E+06     1.13814E+06     1.12802E+06         80.5403
             470     5.72078E-03     84.4304E-03     300.589E-03    -83.4700E-03    -91.9688E-03    -85.5098E-03     299.890E-03    -89.2295E-03     25.4762E-03     654.162E-03    -323.526E-03    -334.085E-03    -320.887E-03     651.523E-03    -334.085E-03     100.725E-03     5.79771E+06     2.72282E+06    -859.665E+03     963.394E+03     5.56377E+06     1.13370E+06     648.208E+03         79.9210
             471     5.00746E-03     84.3430E-03     309.180E-03    -89.1231E-03    -96.6125E-03    -92.6541E-03     305.495E-03    -89.3966E-03    -35.4710E-03     660.894E-03    -325.597E-03    -333.307E-03    -324.068E-03     659.365E-03    -333.307E-03     76.5065E-03     6.97006E+06     1.03685E+06    -1.35958E+06    -58.4325E+03     6.89820E+06    -192.432E+03     138.334E+03         79.2481
             472     4.28284E-03     84.3051E-03     311.872E-03    -89.3931E-03    -101.120E-03    -87.6400E-03     298.392E-03    -89.3931E-03     39.9191E-03     663.262E-03    -328.840E-03    -331.514E-03    -328.248E-03     662.484E-03    -331.328E-03     54.7851E-03     5.59232E+06     286.823E+03    -1.15764E+06    -22.7251E+03     3.67612E+06     1.06811E+06    -317.502E+03         78.5306
             473     3.56892E-03     84.3224E-03     312.318E-03    -87.7774E-03    -100.593E-03    -80.0797E-03     294.642E-03    -90.6150E-03     13.9187E-03     660.043E-03    -330.183E-03    -330.823E-03    -330.084E-03     659.670E-03    -330.549E-03     37.5627E-03     2.70511E+06     349.144E+03    -1.89446E+06    -674.481E+03    -545.164E+03     2.37945E+06    -267.984E+03         77.8453
             474     2.85282E-03     84.3558E-03     314.771E-03    -83.7534E-03    -98.9040E-03    -78.8870E-03     304.556E-03    -93.5552E-03    -28.5814E-03     657.864E-03    -329.587E-03    -330.752E-03    -329.524E-03     657.714E-03    -330.665E-03     23.4439E-03     3.94958E+06    -56.7694E+03    -1.50056E+06    -1.09032E+06     2.02752E+06     1.45504E+06    -139.433E+03         77.1782
             475     2.13902E-03     84.4019E-03     327.005E-03    -89.0052E-03    -107.248E-03    -89.3146E-03     316.875E-03    -96.8087E-03    -32.4355E-03     659.125E-03    -329.428E-03    -330.984E-03    -329.381E-03     659.078E-03    -330.984E-03     12.3297E-03     3.63274E+06    -158.473E+03    -942.145E+03    -444.208E+03     1.88818E+06     1.08815E+06    -75.3575E+03         76.6286
             476     1.42597E-03     84.4417E-03     330.630E-03    -98.0989E-03    -115.400E-03    -96.7313E-03     312.801E-03    -98.9383E-03     11.6830E-03     663.735E-03    -331.703E-03    -332.580E-03    -331.806E-03     663.727E-03    -332.470E-03     4.42380E-03     1.78674E+06    -1.53317E+06    -3.01585E+06    -1.00088E+06    -1.98515E+06     223.757E+03    -189.916E+03         76.3154
             477     713.495E-06     84.4754E-03     367.896E-03    -106.241E-03    -157.895E-03    -94.0537E-03     304.054E-03    -106.241E-03    -140.242E-03     669.393E-03    -334.635E-03    -335.232E-03    -334.911E-03     669.393E-03    -334.955E-03     776.079E-06     737.605E+03    -2.39820E+06    -4.73177E+06    -2.02424E+06    -3.44693E+06    -921.186E+03    -353.096E+03         76.2226
             478     12.2042E-03     84.9542E-03     299.983E-03    -86.4630E-03    -95.6024E-03    -94.5594E-03     298.940E-03    -86.4630E-03    -3.59420E-03     681.033E-03    -332.370E-03    -354.233E-03    -338.962E-03     665.762E-03    -332.370E-03     238.815E-03     14.1655E+06    -21.0373E+03    -13.0868E+06    -497.445E+03     1.57613E+06    -21.0373E+03    -1.18174E+06         93.5327
             479     11.4920E-03     84.3578E-03     295.500E-03    -84.0567E-03    -91.6679E-03    -87.4817E-03     294.312E-03    -87.0550E-03     14.8641E-03     677.284E-03    -332.980E-03    -352.540E-03    -335.517E-03     660.261E-03    -332.980E-03     257.418E-03     16.5451E+06    -771.090E+03    -10.5246E+06    -907.255E+03     6.92772E+06    -771.090E+03    -310.879E+03         90.7173
             480     10.7638E-03     84.0094E-03     290.703E-03    -80.4680E-03    -88.1863E-03    -79.1676E-03     289.168E-03    -87.9519E-03    -5.34670E-03     666.057E-03    -332.798E-03    -339.739E-03    -328.333E-03     654.651E-03    -332.798E-03     212.665E-03     13.0942E+06    -876.672E+03    -7.15453E+06    -500.119E+03     6.56690E+06    -1.00376E+06     128.870E+03         88.0128
             481     10.0524E-03     83.6421E-03     290.356E-03    -78.1582E-03    -89.0342E-03    -76.5844E-03     288.782E-03    -89.0342E-03    -5.00261E-03     666.701E-03    -332.836E-03    -338.725E-03    -327.629E-03     655.604E-03    -332.836E-03     209.547E-03     9.34585E+06    -659.536E+03    -3.70636E+06    -318.441E+03     6.29822E+06    -999.828E+03     781.884E+03         85.8846
             482     9.31003E-03     83.3460E-03     294.639E-03    -80.9469E-03    -92.7856E-03    -83.0057E-03     293.879E-03    -89.9673E-03     5.80235E-03     662.545E-03    -331.533E-03    -334.560E-03    -325.682E-03     653.667E-03    -331.533E-03     187.228E-03     9.41558E+06    -762.178E+03    -2.03331E+06    -1.49225E+06     9.08772E+06    -975.378E+03     885.331E+03         84.3566
             483     8.59690E-03     83.0708E-03     302.745E-03    -86.8213E-03    -97.3235E-03    -93.5924E-03     302.469E-03    -90.2759E-03    -14.3694E-03     658.632E-03    -330.040E-03    -330.917E-03    -322.946E-03     650.819E-03    -330.198E-03     175.083E-03     9.37006E+06     252.911E+03    -2.04126E+06    -586.499E+03     6.96546E+06     1.20275E+06    -498.501E+03         83.2036
             484     7.87915E-03     82.8502E-03     305.372E-03    -88.7348E-03    -96.6074E-03    -95.0382E-03     305.178E-03    -90.1094E-03    -8.09389E-03     655.400E-03    -327.430E-03    -330.194E-03    -321.148E-03     648.652E-03    -329.727E-03     162.200E-03     10.4257E+06     124.878E+03    -1.82693E+06    -161.373E+03     8.05014E+06     834.894E+03    -177.616E+03         82.1914
             485     7.15548E-03     82.7088E-03     306.094E-03    -86.3342E-03    -94.8024E-03    -90.6959E-03     305.697E-03    -90.0430E-03     5.06315E-03     654.431E-03    -325.327E-03    -330.628E-03    -319.933E-03     649.036E-03    -330.628E-03     144.655E-03     11.0210E+06     532.235E+03    -679.673E+03     286.147E+03     10.9586E+06    -371.232E+03     272.360E+03         81.2909
             486     6.44293E-03     82.5193E-03     304.275E-03    -85.6159E-03    -92.7813E-03    -87.3128E-03     303.481E-03    -90.2907E-03     10.4382E-03     653.380E-03    -324.339E-03    -332.040E-03    -320.364E-03     649.405E-03    -332.040E-03     123.971E-03     7.12818E+06     1.57033E+06    -715.384E+03     785.525E+03     6.85246E+06     345.147E+03     513.301E+03         80.5662
             487     5.72286E-03     82.4106E-03     296.477E-03    -83.6821E-03    -91.0048E-03    -82.5384E-03     295.334E-03    -91.0048E-03     18.6832E-03     654.824E-03    -323.977E-03    -334.072E-03    -321.295E-03     652.142E-03    -334.072E-03     101.649E-03     5.58948E+06     2.68854E+06    -619.456E+03     1.04198E+06     5.33302E+06     1.28356E+06     698.335E+03         79.9516
             488     5.00670E-03     82.3246E-03     299.266E-03    -85.9921E-03    -98.5371E-03    -88.0036E-03     294.539E-03    -91.7985E-03    -37.2688E-03     660.217E-03    -324.802E-03    -333.359E-03    -323.239E-03     658.654E-03    -333.359E-03     77.3037E-03     9.61277E+06     2.68975E+06     304.936E+03     1.69264E+06     9.44273E+06     1.47209E+06     558.116E+03         79.2625
             489     4.28081E-03     82.2981E-03     314.728E-03    -91.3429E-03    -112.542E-03    -100.125E-03     302.311E-03    -91.3429E-03     26.2479E-03     662.963E-03    -328.303E-03    -331.743E-03    -327.723E-03     662.168E-03    -331.528E-03     55.3708E-03     6.92080E+06     1.10229E+06    -601.228E+03     653.085E+03     5.65732E+06     1.11145E+06     1.00675E+06         78.5404
             490     3.56596E-03     82.3175E-03     320.725E-03    -89.5754E-03    -114.861E-03    -100.216E-03     306.081E-03    -89.5754E-03     12.3674E-03     661.607E-03    -330.639E-03    -331.711E-03    -331.118E-03     661.238E-03    -330.863E-03     37.1870E-03     3.76827E+06    -116.081E+03    -1.84951E+06    -489.438E+03     1.62122E+06     670.893E+03     186.401E+03         77.8735
             491     2.85436E-03     82.3617E-03     312.757E-03    -88.0479E-03    -102.122E-03    -92.5589E-03     303.194E-03    -88.0479E-03    -21.4293E-03     659.724E-03    -330.476E-03    -331.602E-03    -331.005E-03     659.599E-03    -330.948E-03     21.1545E-03     4.68973E+06     617.722E+03    -1.54680E+06     29.0914E+03     1.81354E+06     1.91802E+06    -1.06604E+06         77.2221
             492     2.13996E-03     82.4100E-03     309.587E-03    -79.9059E-03    -99.6798E-03    -82.6042E-03     301.217E-03    -88.6119E-03    -11.4144E-03     659.767E-03    -329.790E-03    -331.058E-03    -329.782E-03     659.738E-03    -331.037E-03     9.78448E-03     2.64891E+06     824.734E+03    -2.01994E+06    -428.250E+03    -766.957E+03     2.64891E+06    -995.169E+03         76.6704
             493     1.42639E-03     82.4504E-03     321.446E-03    -81.7384E-03    -105.053E-03    -80.4234E-03     307.698E-03    -92.6207E-03     21.2764E-03     663.601E-03    -331.366E-03    -332.533E-03    -331.473E-03     663.598E-03    -332.422E-03     3.01175E-03     1.99909E+06    -1.06914E+06    -3.33141E+06    -1.08182E+06    -1.80579E+06     486.161E+03    -577.015E+03         76.3502
             494     713.410E-06     82.4863E-03     357.158E-03    -98.6743E-03    -129.531E-03    -89.1799E-03     318.983E-03    -100.851E-03    -74.4984E-03     669.339E-03    -334.471E-03    -335.170E-03    -334.715E-03     669.338E-03    -334.925E-03     194.192E-06    -704.575E+03    -3.49759E+06    -5.69946E+06    -2.84172E+06    -4.69654E+06    -2.36337E+06    -287.603E+03         76.2539
             495     12.1946E-03     82.9389E-03     296.804E-03    -87.7107E-03    -95.9228E-03    -91.4417E-03     293.624E-03    -89.0121E-03    -15.2324E-03     680.352E-03    -332.414E-03    -353.482E-03    -338.162E-03     665.032E-03    -332.414E-03     238.752E-03     15.0255E+06    -555.019E+03    -12.2941E+06    -397.084E+03     3.12850E+06    -555.019E+03     133.799E+03         93.5121
             496     11.4906E-03     82.3323E-03     299.543E-03    -89.1342E-03    -94.2178E-03    -90.6016E-03     295.927E-03    -89.1342E-03    -8.87217E-03     678.779E-03    -333.153E-03    -353.646E-03    -336.598E-03     661.732E-03    -333.153E-03     257.602E-03     14.8369E+06     126.620E+03    -8.69771E+06     164.650E+03     5.97454E+06     126.620E+03    -496.866E+03         90.7025
             497     10.7634E-03     81.9929E-03     304.123E-03    -87.5622E-03    -94.7663E-03    -88.8239E-03     299.849E-03    -89.2307E-03    -16.8181E-03     667.760E-03    -332.916E-03    -341.114E-03    -329.707E-03     656.353E-03    -332.916E-03     212.894E-03     9.71331E+06    -294.090E+03    -6.19386E+06    -1.04799E+06     3.89024E+06     383.119E+03     134.200E+03         88.0020
             498     10.0541E-03     81.6208E-03     304.383E-03    -83.0783E-03    -95.9751E-03    -86.2771E-03     300.907E-03    -89.3001E-03    -28.0442E-03     667.172E-03    -332.813E-03    -339.061E-03    -327.782E-03     655.894E-03    -332.813E-03     211.364E-03     8.93566E+06     611.026E+03    -3.49595E+06    -1.32723E+06     6.08973E+06     1.28823E+06     1.03875E+06         85.8672
             499     9.30824E-03     81.3184E-03     300.608E-03    -81.2697E-03    -91.6888E-03    -82.6534E-03     299.761E-03    -89.4579E-03     4.53961E-03     661.994E-03    -331.131E-03    -334.391E-03    -324.883E-03     652.893E-03    -331.539E-03     189.436E-03     11.3403E+06     778.110E+03    -20.9908E+03     8.01702E+03     11.3113E+06     778.110E+03     203.973E+03         84.3346
             500     8.59529E-03     81.0448E-03     300.445E-03    -83.2965E-03    -89.6957E-03    -82.9103E-03     300.059E-03    -89.6957E-03    -22.6289E-03     658.403E-03    -329.747E-03    -330.731E-03    -322.221E-03     650.460E-03    -330.314E-03     176.411E-03     9.34537E+06     507.353E+03    -1.36555E+06     57.7707E+03     6.97779E+06     1.45161E+06    -226.743E+03         83.1908
             501     7.87708E-03     80.8332E-03     304.078E-03    -86.4949E-03    -90.6089E-03    -87.0295E-03     303.813E-03    -89.8095E-03    -19.3054E-03     655.856E-03    -327.964E-03    -330.097E-03    -321.430E-03     649.089E-03    -329.865E-03     162.470E-03     9.73397E+06    -49.4198E+03    -2.40252E+06    -656.717E+03     7.28372E+06     655.018E+03    -844.790E+03         82.1923
             502     7.15418E-03     80.6840E-03     307.734E-03    -88.7011E-03    -92.8515E-03    -91.7516E-03     307.495E-03    -89.5615E-03    -12.0641E-03     655.114E-03    -326.184E-03    -330.751E-03    -320.789E-03     649.719E-03    -330.751E-03     144.764E-03     9.52279E+06     412.905E+03    -2.07815E+06    -1.00734E+06     9.35545E+06    -490.563E+03    -185.473E+03         81.2944
             503     6.44154E-03     80.4922E-03     304.145E-03    -87.2304E-03    -91.7109E-03    -89.1875E-03     303.612E-03    -89.2203E-03    -19.3313E-03     653.701E-03    -324.755E-03    -332.150E-03    -320.774E-03     649.720E-03    -332.150E-03     124.130E-03     6.29798E+06    -140.349E+03    -2.81002E+06    -1.97509E+06     6.12670E+06    -803.995E+03     80.0859E+03         80.5604
             504     5.72176E-03     80.3833E-03     297.800E-03    -82.1043E-03    -93.0804E-03    -85.2144E-03     297.147E-03    -89.3170E-03    -9.06686E-03     654.496E-03    -323.548E-03    -334.122E-03    -320.891E-03     651.839E-03    -334.122E-03     101.004E-03     6.22647E+06    -1.28814E+06    -3.12946E+06    -2.14165E+06     6.08209E+06    -2.13157E+06     291.553E+03         79.9396
             505     5.00631E-03     80.3142E-03     299.419E-03    -83.8137E-03    -98.8597E-03    -90.7758E-03     296.868E-03    -89.3467E-03    -31.7846E-03     660.061E-03    -324.227E-03    -333.433E-03    -322.701E-03     658.535E-03    -333.433E-03     76.4547E-03     8.74429E+06    -1.73195E+06    -3.25262E+06    -1.60446E+06     8.57285E+06    -3.20867E+06     904.695E+03         79.2551
             506     4.27865E-03     80.2845E-03     305.379E-03    -86.6237E-03    -103.769E-03    -94.2288E-03     297.913E-03    -88.6981E-03     19.6378E-03     663.454E-03    -328.446E-03    -331.940E-03    -327.951E-03     662.668E-03    -331.649E-03     54.9849E-03     7.00136E+06    -848.365E+03    -2.65657E+06    -1.08103E+06     5.76189E+06    -1.18443E+06     835.988E+03         78.5381
             507     3.56673E-03     80.3022E-03     303.575E-03    -82.0270E-03    -105.274E-03    -91.4359E-03     295.565E-03    -87.8550E-03     14.6362E-03     662.075E-03    -330.847E-03    -331.918E-03    -331.552E-03     661.710E-03    -330.847E-03     37.2007E-03     7.22499E+06     257.024E+03    -1.29943E+06    -192.557E+03     6.02770E+06     347.438E+03    -156.705E+03         77.8760
             508     2.85383E-03     80.3473E-03     299.402E-03    -83.4320E-03    -97.6448E-03    -89.1034E-03     294.614E-03    -87.1856E-03    -14.5126E-03     660.225E-03    -330.879E-03    -331.759E-03    -331.622E-03     660.088E-03    -330.879E-03     22.2708E-03     4.47447E+06    -455.347E+03    -2.63897E+06    -759.368E+03     2.85413E+06    -714.605E+03    -1.01929E+06         77.2327
             509     2.14181E-03     80.4047E-03     300.142E-03    -78.5635E-03    -96.3850E-03    -84.7853E-03     297.248E-03    -87.2695E-03     12.3987E-03     659.993E-03    -330.396E-03    -331.097E-03    -330.523E-03     659.957E-03    -330.935E-03     10.7498E-03    -127.197E+03    -1.02362E+06    -4.49223E+06    -1.76922E+06    -2.94309E+06     -930.74E+03    -739.258E+03         76.6838
             510     1.42756E-03     80.4593E-03     311.607E-03    -79.5689E-03    -97.8136E-03    -79.9408E-03     304.616E-03    -90.4512E-03     29.8542E-03     662.929E-03    -331.246E-03    -332.267E-03    -331.303E-03     662.925E-03    -332.204E-03     3.46405E-03    -469.582E+03    -1.87435E+06    -5.04220E+06    -2.59605E+06    -3.69055E+06    -1.09954E+06    -221.099E+03         76.3602
             511     712.904E-06     80.4986E-03     339.658E-03    -91.8560E-03    -108.137E-03    -80.6697E-03     327.371E-03    -107.037E-03     16.6981E-03     668.921E-03    -333.751E-03    -335.394E-03    -334.973E-03     668.920E-03    -334.171E-03    -267.877E-06     339.026E+03    -2.89241E+06    -5.01890E+06    -1.60384E+06    -4.21189E+06    -1.75655E+06    -89.4672E+03         76.2600
             512     12.1988E-03     80.9224E-03     292.117E-03    -84.2956E-03    -90.0317E-03    -81.1695E-03     288.058E-03    -89.0987E-03    -10.4263E-03     679.915E-03    -332.390E-03    -352.990E-03    -337.907E-03     664.832E-03    -332.390E-03     237.090E-03     16.4730E+06    -3.40689E+06    -11.5295E+06    -187.168E+03     5.13065E+06    -3.40689E+06     1.32115E+06         93.4779
             513     11.4893E-03     80.2990E-03     301.767E-03    -88.4709E-03    -92.2923E-03    -86.7170E-03     296.932E-03    -89.2115E-03    -1.11999E-03     678.802E-03    -333.189E-03    -353.349E-03    -336.562E-03     662.015E-03    -333.189E-03     255.786E-03     15.7438E+06    -2.04553E+06    -8.53725E+06    -799.799E+03     8.00632E+06    -2.04553E+06     911.274E+03         90.6591
             514     10.7613E-03     79.9718E-03     309.491E-03    -88.1142E-03    -95.7624E-03    -89.3278E-03     304.113E-03    -89.1706E-03    -7.64848E-03     667.690E-03    -332.967E-03    -341.563E-03    -330.099E-03     656.227E-03    -332.967E-03     213.394E-03     7.81192E+06    -48.0389E+03    -3.95403E+06    -1.14543E+06     4.32611E+06     629.169E+03    -239.618E+03         87.9514
             515     10.0509E-03     79.5873E-03     313.776E-03    -87.9930E-03    -97.6338E-03    -92.4126E-03     309.611E-03    -89.0494E-03    -20.8346E-03     666.335E-03    -332.889E-03    -338.754E-03    -327.405E-03     654.986E-03    -332.889E-03     211.848E-03     6.88787E+06     681.728E+03    -1.82019E+06     136.818E+03     4.25365E+06     1.35894E+06    -1.28293E+06         85.8276
             516     9.30718E-03     79.3049E-03     311.883E-03    -87.8157E-03    -96.4031E-03    -93.8000E-03     310.284E-03    -88.8203E-03     7.97916E-03     661.609E-03    -330.594E-03    -333.455E-03    -323.226E-03     652.496E-03    -331.709E-03     189.398E-03     9.55183E+06    -445.400E+03    -1.97946E+06    -332.460E+03     8.49469E+06    -1.03525E+06    -613.970E+03         84.3173
             517     8.59114E-03     79.0196E-03     308.228E-03    -85.6703E-03    -95.0280E-03    -91.1676E-03     307.313E-03    -88.6149E-03    -13.2886E-03     659.655E-03    -329.391E-03    -331.326E-03    -322.241E-03     651.685E-03    -330.506E-03     176.802E-03     9.54635E+06    -580.076E+03    -2.35504E+06    -755.851E+03     9.47233E+06    -2.10524E+06     592.258E+03         83.1982
             518     7.87536E-03     78.8149E-03     306.199E-03    -86.5265E-03    -92.8872E-03    -90.5262E-03     305.778E-03    -88.4665E-03     1.13460E-03     657.875E-03    -329.294E-03    -330.813E-03    -323.360E-03     651.121E-03    -329.993E-03     162.653E-03     7.87221E+06     508.101E+03    -2.04771E+06    -650.357E+03     7.41017E+06    -427.213E+03     482.325E+03         82.2127
             519     7.15541E-03     78.6622E-03     301.005E-03    -86.1576E-03    -89.9225E-03    -87.5164E-03     300.914E-03    -88.4725E-03    -7.95764E-03     656.106E-03    -327.303E-03    -330.788E-03    -321.969E-03     650.773E-03    -330.788E-03     144.047E-03     7.49505E+06     858.725E+03    -2.19752E+06    -1.32086E+06     7.00205E+06     475.065E+03     430.854E+03         81.2982
             520     6.44236E-03     78.4674E-03     300.404E-03    -84.9748E-03    -89.8380E-03    -85.7917E-03     300.164E-03    -88.7810E-03    -5.75541E-03     653.211E-03    -324.350E-03    -332.191E-03    -320.470E-03     649.332E-03    -332.191E-03     122.496E-03     8.26175E+06     1.03566E+06    -1.33106E+06    -775.113E+03     8.08946E+06     651.997E+03     68.9826E+03         80.5383
             521     5.72125E-03     78.3679E-03     309.904E-03    -87.2655E-03    -95.3636E-03    -93.2805E-03     309.312E-03    -88.7569E-03     11.0075E-03     654.188E-03    -323.139E-03    -334.227E-03    -320.553E-03     651.602E-03    -334.227E-03     99.5924E-03     7.65530E+06     148.006E+03    -1.56036E+06    -691.922E+03     5.40281E+06     1.53206E+06     225.721E+03         79.9142
             522     5.00458E-03     78.3066E-03     315.771E-03    -87.9545E-03    -97.2658E-03    -96.0929E-03     314.598E-03    -87.9545E-03    -9.40984E-03     660.997E-03    -325.074E-03    -333.439E-03    -323.549E-03     659.472E-03    -333.439E-03     76.6947E-03     8.88505E+06    -467.171E+03    -2.31110E+06    -1.22610E+06     6.67505E+06     657.832E+03     589.688E+03         79.2446
             523     4.28050E-03     78.2695E-03     305.716E-03    -84.6271E-03    -91.2503E-03    -86.3850E-03     303.712E-03    -87.4887E-03     2.40937E-03     663.931E-03    -329.140E-03    -331.822E-03    -328.684E-03     663.123E-03    -331.470E-03     55.6078E-03     7.56079E+06    -557.774E+03    -2.12903E+06    -1.27916E+06     7.47469E+06    -1.32155E+06     144.763E+03         78.5285
             524     3.56505E-03     78.3005E-03     295.346E-03    -81.7887E-03    -88.7272E-03    -79.9894E-03     293.223E-03    -88.4039E-03     17.8307E-03     661.192E-03    -330.583E-03    -331.418E-03    -331.066E-03     660.840E-03    -330.583E-03     36.3170E-03     7.01897E+06    -1.27131E+06    -3.42130E+06    -1.42546E+06     6.99839E+06    -3.24657E+06    -9.82358E+03         77.8502
             525     2.85189E-03     78.3385E-03     305.805E-03    -85.4454E-03    -94.6297E-03    -89.6455E-03     304.574E-03    -89.1991E-03     6.94364E-03     659.349E-03    -330.225E-03    -331.441E-03    -330.660E-03     659.221E-03    -330.879E-03     21.5764E-03     4.08913E+06    -1.34198E+06    -3.98679E+06    -1.31821E+06     2.58294E+06    -2.50437E+06     345.179E+03         77.2047
             526     2.13946E-03     78.4026E-03     320.356E-03    -85.3374E-03    -109.379E-03    -108.770E-03     319.747E-03    -85.3374E-03     25.9460E-03     660.014E-03    -330.372E-03    -331.291E-03    -330.476E-03     659.977E-03    -331.150E-03     11.4537E-03    -64.4132E+03    -1.57930E+06    -3.65426E+06    -1.51002E+06    -2.91999E+06    -867.956E+03     474.081E+03         76.6799
             527     1.42732E-03     78.4708E-03     306.108E-03    -75.3169E-03    -105.210E-03    -100.662E-03     301.561E-03    -75.3169E-03    -30.3324E-03     665.677E-03    -333.040E-03    -333.402E-03    -333.130E-03     665.669E-03    -333.304E-03     4.94625E-03    -819.371E+03    -2.29049E+06    -4.47723E+06    -1.85709E+06    -3.84271E+06    -1.88729E+06    -6.71577E+03         76.3910
             528     714.081E-06     78.5069E-03     327.997E-03    -61.1833E-03    -131.030E-03    -64.7479E-03     274.719E-03    -74.1876E-03     125.266E-03     671.148E-03    -335.055E-03    -336.412E-03    -336.270E-03     671.145E-03    -335.194E-03     1.49039E-03     40.8239E+03    -3.27745E+06    -5.40138E+06    -1.73190E+06    -4.41338E+06    -2.49272E+06    -542.808E+03         76.3100
             529     12.1958E-03     78.8939E-03     307.848E-03    -85.4869E-03    -93.3023E-03    -87.3824E-03     305.429E-03    -88.9885E-03     10.9672E-03     681.395E-03    -332.505E-03    -353.917E-03    -338.830E-03     666.307E-03    -332.505E-03     237.392E-03     17.3092E+06     2.22849E+06    -11.9284E+06     643.872E+03     4.73701E+06     2.22849E+06     1.76284E+06         93.4578
             530     11.4899E-03     78.2712E-03     310.056E-03    -87.3344E-03    -91.9199E-03    -87.6281E-03     307.691E-03    -89.2614E-03     8.31079E-03     678.138E-03    -333.169E-03    -352.968E-03    -336.135E-03     661.306E-03    -333.169E-03     256.168E-03     17.2125E+06     1.80884E+06    -6.32415E+06     1.11261E+06     9.77571E+06     1.80884E+06     603.277E+03         90.6294
             531     10.7610E-03     77.9387E-03     306.309E-03    -87.3876E-03    -91.1064E-03    -85.9156E-03     303.361E-03    -89.6303E-03     362.590E-06     666.129E-03    -332.939E-03    -340.378E-03    -328.900E-03     654.652E-03    -332.939E-03     213.292E-03     10.4883E+06     2.21711E+06    -872.911E+03     2.91369E+06     7.18388E+06     1.73490E+06    -158.141E+03         87.9175
             532     10.0501E-03     77.5632E-03     304.802E-03    -88.3899E-03    -92.1661E-03    -87.6605E-03     301.978E-03    -90.0710E-03     1.19643E-03     665.561E-03    -332.992E-03    -338.057E-03    -326.783E-03     654.287E-03    -332.992E-03     210.984E-03     5.31453E+06     1.26679E+06    -1.69844E+06     1.26748E+06     2.83082E+06     784.585E+03    -115.784E+03         85.8051
             533     9.30590E-03     77.2770E-03     305.321E-03    -86.9917E-03    -95.8067E-03    -90.3315E-03     303.309E-03    -90.4548E-03     10.6511E-03     662.530E-03    -331.127E-03    -333.846E-03    -324.141E-03     653.531E-03    -331.834E-03     188.348E-03     8.24581E+06     628.773E+03    -2.27352E+06     697.310E+03     6.26933E+06    -365.573E+03     432.153E+03         84.3068
             534     8.59187E-03     76.9988E-03     306.948E-03    -85.9834E-03    -97.2865E-03    -90.6889E-03     305.241E-03    -90.8734E-03     6.18660E-03     660.276E-03    -329.819E-03    -331.755E-03    -323.257E-03     652.484E-03    -330.525E-03     174.952E-03     11.4967E+06     700.834E+03    -1.24002E+06     769.149E+03     11.1731E+06    -984.706E+03     1.19856E+06         83.1884
             535     7.87498E-03     76.7746E-03     310.569E-03    -89.2267E-03    -96.1583E-03    -92.9963E-03     309.458E-03    -91.2784E-03     23.1346E-03     657.646E-03    -328.957E-03    -331.052E-03    -323.463E-03     651.072E-03    -329.972E-03     160.436E-03     8.56078E+06     1.66612E+06    -978.390E+03     869.102E+03     8.01748E+06     361.917E+03     1.78461E+06         82.1968
             536     7.15547E-03     76.6326E-03     312.763E-03    -89.4982E-03    -96.3117E-03    -94.2627E-03     312.719E-03    -91.5029E-03    -3.87082E-03     655.837E-03    -326.739E-03    -330.843E-03    -321.382E-03     650.480E-03    -330.843E-03     144.458E-03     9.67388E+06     2.21636E+06    -320.951E+03     1.50345E+06     9.30180E+06     764.044E+03     801.787E+03         81.2804
             537     6.44329E-03     76.4524E-03     314.009E-03    -89.4971E-03    -97.3258E-03    -95.2661E-03     313.953E-03    -91.5018E-03     7.63847E-03     653.367E-03    -324.347E-03    -332.356E-03    -320.268E-03     649.288E-03    -332.356E-03     125.558E-03     9.53075E+06     2.15730E+06    -686.760E+03     1.33393E+06     7.67748E+06     1.98988E+06     539.012E+03         80.5260
             538     5.72058E-03     76.3625E-03     313.257E-03    -86.9467E-03    -96.2490E-03    -90.9931E-03     312.593E-03    -91.5382E-03     28.1759E-03     655.475E-03    -324.246E-03    -334.328E-03    -321.553E-03     652.783E-03    -334.328E-03     101.614E-03     7.43432E+06     1.18473E+06    -1.60996E+06     339.209E+03     3.48570E+06     3.18418E+06     773.151E+03         79.9050
             539     5.00602E-03     76.2916E-03     317.099E-03    -85.3970E-03    -95.0069E-03    -87.5205E-03     316.249E-03    -92.0333E-03     11.8313E-03     662.114E-03    -326.128E-03    -333.314E-03    -324.603E-03     660.589E-03    -333.314E-03     76.6494E-03     11.2102E+06     927.989E+03    -954.749E+03     268.552E+03     8.94469E+06     1.97023E+06     310.828E+03         79.2355
             540     4.27904E-03     76.2560E-03     323.763E-03    -89.4826E-03    -97.2779E-03    -93.7708E-03     323.088E-03    -92.3146E-03    -14.0026E-03     664.126E-03    -329.400E-03    -331.766E-03    -328.881E-03     663.331E-03    -331.490E-03     55.2901E-03     9.21417E+06     1.89309E+06    -207.736E+03     626.972E+03     8.61821E+06     1.65434E+06     37.6434E+03         78.5193
             541     3.56778E-03     76.2902E-03     324.975E-03    -90.6508E-03    -100.930E-03    -98.6493E-03     323.481E-03    -91.4379E-03     23.8216E-03     660.950E-03    -330.642E-03    -331.248E-03    -330.818E-03     660.586E-03    -330.707E-03     36.9578E-03     7.57253E+06     1.60028E+06    -2.13612E+06     410.685E+03     5.21317E+06     1.41283E+06     790.937E+03         77.8293
             542     2.85431E-03     76.3341E-03     316.396E-03    -89.5595E-03    -100.090E-03    -98.2001E-03     314.506E-03    -89.5595E-03     20.4931E-03     658.420E-03    -329.601E-03    -331.060E-03    -329.732E-03     658.287E-03    -330.795E-03     21.8283E-03     5.66996E+06     702.138E+03    -2.94506E+06    -108.599E+03     2.33412E+06     1.20151E+06     1.13802E+06         77.1762
             543     2.13826E-03     76.4035E-03     307.908E-03    -80.9803E-03    -104.330E-03    -93.1519E-03     303.085E-03    -87.3350E-03     39.9467E-03     660.382E-03    -329.948E-03    -331.768E-03    -329.913E-03     660.347E-03    -331.768E-03     10.9852E-03     1.80017E+06    -142.451E+03    -1.80491E+06    -653.817E+03    -1.00124E+06     1.50786E+06     259.387E+03         76.6756
             544     1.42456E-03     76.4780E-03     321.735E-03    -78.0843E-03    -119.736E-03    -90.1730E-03     298.527E-03    -84.4390E-03    -77.8282E-03     667.437E-03    -333.540E-03    -334.475E-03    -333.569E-03     667.430E-03    -334.439E-03     4.46328E-03     810.880E+03    -674.736E+03    -2.87806E+06    -1.17770E+06    -1.93712E+06     372.911E+03     503.339E+03         76.4253
             545     712.349E-06     76.5131E-03     403.155E-03    -82.6397E-03    -191.946E-03    -80.9576E-03     292.167E-03    -82.6397E-03     188.411E-03     672.764E-03    -336.151E-03    -336.731E-03    -336.278E-03     672.761E-03    -336.602E-03     1.69319E-03    -1.56835E+06    -3.27154E+06    -6.82763E+06    -3.78039E+06    -5.53104E+06    -2.35608E+06     945.681E+03         76.3641
             546     12.1973E-03     76.8705E-03     317.504E-03    -87.2924E-03    -94.3189E-03    -90.0845E-03     315.982E-03    -90.0051E-03     12.0894E-03     680.735E-03    -332.540E-03    -353.460E-03    -338.344E-03     665.619E-03    -332.540E-03     237.070E-03     18.4421E+06     4.21365E+06    -13.8353E+06     745.985E+03     3.86079E+06     4.21365E+06    -1.57969E+06         93.4266
             547     11.4898E-03     76.2439E-03     309.071E-03    -84.8126E-03    -91.8799E-03    -85.5218E-03     308.412E-03    -90.5118E-03    -6.61465E-03     677.912E-03    -333.199E-03    -352.878E-03    -335.867E-03     660.901E-03    -333.199E-03     257.548E-03     15.1268E+06     1.54207E+06    -4.76238E+06     2.76590E+06     6.88779E+06     2.25284E+06     608.450E+03         90.6093
             548     10.7616E-03     75.9168E-03     304.274E-03    -87.4368E-03    -91.3485E-03    -87.0602E-03     303.712E-03    -91.1628E-03    -2.09386E-03     665.999E-03    -332.949E-03    -339.784E-03    -328.354E-03     654.568E-03    -332.949E-03     212.886E-03     10.0473E+06    -68.0634E+03    -3.57312E+06     739.450E+03     5.50617E+06     160.499E+03     1.43002E+06         87.9126
             549     10.0456E-03     75.5406E-03     306.432E-03    -90.8251E-03    -95.2470E-03    -93.5219E-03     305.385E-03    -91.5030E-03     6.32292E-03     665.962E-03    -332.942E-03    -338.227E-03    -327.140E-03     654.875E-03    -332.942E-03     209.312E-03     8.84274E+06     949.926E+03    -1.52588E+06     726.598E+03     7.13127E+06     408.917E+03     1.23012E+06         85.8001
             550     9.30514E-03     75.2554E-03     304.353E-03    -86.9242E-03    -95.2287E-03    -88.2875E-03     302.158E-03    -91.6704E-03    -12.3565E-03     662.980E-03    -331.761E-03    -334.495E-03    -325.614E-03     654.099E-03    -331.761E-03     187.292E-03     6.99542E+06     2.44457E+06    -944.388E+03     823.471E+03     5.69086E+06     1.98127E+06     1.30421E+06         84.2853
             551     8.59438E-03     74.9735E-03     301.077E-03    -81.9403E-03    -92.2608E-03    -79.4601E-03     298.597E-03    -92.2608E-03    -4.72610E-03     660.067E-03    -330.392E-03    -331.467E-03    -323.639E-03     652.238E-03    -330.392E-03     175.421E-03     9.25509E+06     2.00736E+06    -354.111E+03     569.346E+03     8.73613E+06     1.60287E+06     1.27345E+06         83.1437
             552     7.87857E-03     74.7299E-03     307.007E-03    -81.9849E-03    -94.4055E-03    -82.1945E-03     305.958E-03    -93.1469E-03     22.6176E-03     656.156E-03    -327.703E-03    -330.739E-03    -321.883E-03     649.486E-03    -329.889E-03     161.292E-03     11.6662E+06     1.07070E+06    -52.1068E+03     753.025E+03     11.4741E+06     457.696E+03     755.429E+03         82.1374
             553     7.15323E-03     74.5903E-03     316.016E-03    -88.5400E-03    -97.7485E-03    -92.4727E-03     315.790E-03    -93.5903E-03    -13.4253E-03     654.902E-03    -325.640E-03    -330.961E-03    -320.319E-03     649.581E-03    -330.961E-03     143.755E-03     12.0120E+06     965.893E+03    -359.448E+03     1.04699E+06     11.8340E+06    -262.512E+03     667.742E+03         81.2283
             554     6.43708E-03     74.3904E-03     318.374E-03    -93.1882E-03    -98.1228E-03    -97.7386E-03     318.157E-03    -93.3556E-03    -8.21077E-03     654.096E-03    -324.726E-03    -332.509E-03    -320.734E-03     650.104E-03    -332.509E-03     124.201E-03     7.70839E+06     293.699E+03    -1.59505E+06     437.064E+03     5.61978E+06     350.197E+03     1.33088E+06         80.4897
             555     5.71901E-03     74.2990E-03     315.177E-03    -88.4310E-03    -97.9324E-03    -92.8849E-03     314.801E-03    -93.1025E-03     4.23527E-03     656.143E-03    -324.656E-03    -334.276E-03    -321.995E-03     653.481E-03    -334.276E-03     101.194E-03     8.45321E+06     1.14114E+06    -592.670E+03     1.26655E+06     6.38256E+06     1.35257E+06     434.346E+03         79.8725
             556     5.00685E-03     74.2357E-03     316.094E-03    -86.5799E-03    -98.4268E-03    -91.1346E-03     315.438E-03    -93.2163E-03     14.1812E-03     662.158E-03    -326.249E-03    -333.139E-03    -324.702E-03     660.611E-03    -333.139E-03     77.1732E-03     10.3983E+06     2.38335E+06      804.62E+03     1.85030E+06     9.98194E+06     1.75401E+06    -400.431E+03         79.2005
             557     4.28013E-03     74.2033E-03     323.631E-03    -89.0203E-03    -99.4184E-03    -92.5454E-03     321.132E-03    -93.3942E-03    -27.9230E-03     663.848E-03    -329.398E-03    -331.431E-03    -328.652E-03     663.053E-03    -331.382E-03     55.2268E-03     8.00356E+06     3.14986E+06     1.31281E+06     1.77014E+06     7.24999E+06     3.44609E+06    -445.877E+03         78.4861
             558     3.56333E-03     74.2337E-03     326.569E-03    -90.1684E-03    -102.486E-03    -94.8388E-03     322.071E-03    -93.3171E-03     5.04033E-03     660.473E-03    -330.561E-03    -330.805E-03    -330.380E-03     660.114E-03    -330.627E-03     36.7204E-03     7.89003E+06     3.78236E+06     740.606E+03     1.90780E+06     5.02120E+06     5.48400E+06    -374.438E+03         77.7986
             559     2.85053E-03     74.2766E-03     322.348E-03    -91.8370E-03    -106.772E-03    -96.3870E-03     312.782E-03    -92.6566E-03    -26.1871E-03     658.414E-03    -330.000E-03    -330.862E-03    -329.996E-03     658.280E-03    -330.732E-03     22.0107E-03     5.92265E+06     2.51436E+06    -607.762E+03     1.04591E+06     1.75596E+06     5.02738E+06     332.481E+03         77.1590
             560     2.13930E-03     74.3442E-03     315.654E-03    -87.0322E-03    -108.219E-03    -85.5991E-03     299.389E-03    -93.3869E-03     13.5996E-03     661.694E-03    -330.968E-03    -332.313E-03    -330.932E-03     661.658E-03    -332.313E-03     10.9241E-03     3.55869E+06     1.35950E+06    -869.903E+03     344.534E+03     437.366E+03     3.26638E+06     678.019E+03         76.6896
             561     1.42535E-03     74.4332E-03     340.789E-03    -93.4187E-03    -121.092E-03    -79.3339E-03     305.385E-03    -99.7734E-03    -71.0284E-03     668.633E-03    -334.098E-03    -335.222E-03    -334.093E-03     668.628E-03    -335.222E-03     3.58519E-03     1.56200E+06     303.277E+03    -2.56593E+06    -611.062E+03    -1.15399E+06     1.06440E+06     270.153E+03         76.4571
             562     711.761E-06     74.4713E-03     477.635E-03    -117.621E-03    -233.249E-03    -91.2976E-03     335.684E-03    -117.621E-03     241.924E-03     673.486E-03    -335.717E-03    -337.766E-03    -337.078E-03     673.486E-03    -336.405E-03    -43.0898E-06     354.760E+03    -897.489E+03    -4.63044E+06    -979.881E+03    -3.42653E+06    -766.761E+03    -14.4885E+03         76.3879
             563     12.1949E-03     74.8375E-03     301.293E-03    -77.5834E-03    -90.8605E-03    -76.9276E-03     300.638E-03    -90.8605E-03    -2.49223E-03     679.808E-03    -332.421E-03    -352.647E-03    -337.442E-03     664.604E-03    -332.421E-03     237.791E-03     18.1668E+06    -1.37967E+06    -13.9614E+06     1.55297E+06     2.65237E+06    -1.37967E+06    -1.24581E+06         93.3883
             564     11.4853E-03     74.2325E-03     298.665E-03    -79.3303E-03    -91.8402E-03    -78.9694E-03     298.304E-03    -91.8402E-03    -9.87041E-03     677.957E-03    -333.255E-03    -352.552E-03    -335.525E-03     660.929E-03    -333.255E-03     257.544E-03     10.0448E+06    -2.09418E+06    -9.97711E+06    -2.29856E+06     3.11508E+06    -2.84298E+06    -523.246E+03         90.5826
             565     10.7573E-03     73.8822E-03     306.819E-03    -88.6637E-03    -94.9653E-03    -90.9976E-03     306.657E-03    -92.4696E-03     9.18982E-03     667.320E-03    -332.982E-03    -340.806E-03    -329.537E-03     656.051E-03    -332.982E-03     211.715E-03     9.52297E+06    -1.15592E+06    -5.73664E+06    -1.77162E+06     6.70635E+06    -2.30432E+06    -286.970E+03         87.8934
             566     10.0510E-03     73.5033E-03     314.850E-03    -92.3007E-03    -98.4754E-03    -98.2051E-03     314.700E-03    -92.4214E-03     8.01472E-03     666.950E-03    -332.817E-03    -339.017E-03    -328.120E-03     656.053E-03    -332.817E-03     207.793E-03     8.35515E+06    -462.274E+03    -2.40983E+06    -1.09800E+06     7.50173E+06    -920.679E+03     197.647E+03         85.7709
             567     9.30770E-03     73.1968E-03     321.117E-03    -90.7196E-03    -100.803E-03    -98.2678E-03     319.933E-03    -92.0702E-03    -19.0183E-03     662.513E-03    -331.173E-03    -334.236E-03    -324.843E-03     653.635E-03    -331.688E-03     187.177E-03     4.61319E+06     991.463E+03    -1.90537E+06    -750.962E+03     3.87560E+06     574.638E+03     443.195E+03         84.2373
             568     8.59229E-03     72.9063E-03     324.087E-03    -86.3922E-03    -100.879E-03    -93.9288E-03     322.568E-03    -91.8227E-03    -6.02067E-03     659.588E-03    -329.835E-03    -331.118E-03    -322.715E-03     651.700E-03    -330.349E-03     175.957E-03     8.22407E+06     1.24205E+06    -937.406E+03     97.3916E+03     7.66706E+06     764.261E+03     49.1494E+03         83.0827
             569     7.87357E-03     72.6834E-03     317.608E-03    -82.8276E-03    -97.1241E-03    -87.3644E-03     316.959E-03    -91.9379E-03     25.9592E-03     656.357E-03    -328.101E-03    -330.556E-03    -322.185E-03     649.747E-03    -329.863E-03     160.504E-03     12.8897E+06     496.088E+03    -439.681E+03     308.854E+03     12.8225E+06    -185.190E+03    -746.579E+03         82.0706
             570     7.15259E-03     72.5281E-03     311.901E-03    -87.2129E-03    -93.6898E-03    -87.9664E-03     311.228E-03    -92.2632E-03    -7.73585E-03     655.391E-03    -326.487E-03    -330.949E-03    -321.338E-03     650.242E-03    -330.949E-03     141.506E-03     10.0257E+06     1.09884E+06    -654.150E+03     260.181E+03     9.83265E+06     377.577E+03     26.4130E+03         81.1585
             571     6.44311E-03     72.3313E-03     313.811E-03    -92.0094E-03    -95.7364E-03    -94.9400E-03     313.182E-03    -92.1769E-03    -8.89702E-03     653.934E-03    -324.777E-03    -332.408E-03    -320.956E-03     650.114E-03    -332.408E-03     121.561E-03     7.07947E+06     2.16097E+06     725.061E+03     1.33821E+06     6.62607E+06     2.00122E+06     283.283E+03         80.4119
             572     5.71987E-03     72.2384E-03     318.449E-03    -91.0453E-03    -103.685E-03    -103.161E-03     318.005E-03    -91.1254E-03    -4.31388E-03     655.012E-03    -323.659E-03    -334.213E-03    -321.112E-03     652.466E-03    -334.213E-03     98.9630E-03     9.40874E+06     1.83238E+06     610.121E+03     1.47070E+06     8.95213E+06     1.42841E+06    -310.722E+03         79.7897
             573     5.00439E-03     72.1555E-03     314.144E-03    -87.5046E-03    -101.008E-03    -98.3302E-03     313.599E-03    -89.6384E-03     2.73967E-03     661.184E-03    -325.392E-03    -333.171E-03    -323.888E-03     659.680E-03    -333.171E-03     76.0453E-03     9.49116E+06     2.26936E+06    -329.878E+03     1.19767E+06     9.13653E+06     1.09643E+06    -155.621E+03         79.1310
             574     4.27727E-03     72.1222E-03     303.928E-03    -81.3509E-03    -92.0868E-03    -79.3017E-03     299.631E-03    -89.8386E-03    -38.4196E-03     663.265E-03    -329.105E-03    -331.329E-03    -328.367E-03     662.479E-03    -331.280E-03     54.9226E-03     8.78698E+06     1.69384E+06    -656.302E+03     839.075E+03     8.56306E+06     422.380E+03    -166.341E+03         78.4355
             575     3.56689E-03     72.1613E-03     310.240E-03    -85.3282E-03    -93.4988E-03    -74.6108E-03     298.526E-03    -92.5018E-03     20.0676E-03     660.879E-03    -330.578E-03    -331.161E-03    -330.770E-03     660.508E-03    -330.597E-03     37.4260E-03     6.02445E+06     988.308E+03    -2.00009E+06     214.187E+03     4.31266E+06     485.811E+03    -591.643E+03         77.7630
             576     2.85183E-03     72.2032E-03     333.826E-03    -94.2045E-03    -108.503E-03    -89.0765E-03     315.220E-03    -95.0240E-03    -23.5964E-03     659.140E-03    -330.232E-03    -331.283E-03    -330.602E-03     658.996E-03    -330.769E-03     22.5406E-03     3.81200E+06     1.74208E+06    -2.22552E+06     164.038E+03     145.957E+03     3.01857E+06    -776.614E+03         77.1468
             577     2.13774E-03     72.2757E-03     347.912E-03    -94.2135E-03    -124.903E-03    -103.505E-03     326.515E-03    -94.2135E-03     433.814E-06     663.722E-03    -332.287E-03    -332.999E-03    -332.253E-03     663.688E-03    -332.999E-03     10.6883E-03     3.61821E+06     1.60904E+06    -1.82198E+06     252.788E+03     150.280E+03     3.00219E+06    -518.152E+03         76.7070
             578     1.42569E-03     72.3647E-03     358.961E-03    -89.0991E-03    -141.233E-03    -104.017E-03     321.744E-03    -89.0991E-03    -60.0858E-03     670.519E-03    -335.355E-03    -335.817E-03    -335.399E-03     670.514E-03    -335.767E-03     3.70396E-03     1.78578E+06     645.451E+03    -2.09046E+06     454.944E+03    -953.557E+03     839.380E+03    -297.070E+03         76.4816
             579     713.559E-06     72.3957E-03     472.203E-03    -87.7841E-03    -250.862E-03    -88.3777E-03     309.720E-03    -87.7841E-03     262.250E-03     672.683E-03    -335.506E-03    -337.166E-03    -336.917E-03     672.682E-03    -335.755E-03     941.607E-06     811.248E+03    -199.024E+03    -3.99623E+06    -366.327E+03    -3.05717E+06     39.4907E+03     39.5601E+03         76.3896
             580     12.1953E-03     72.8097E-03     302.571E-03    -80.3172E-03    -94.1145E-03    -82.1893E-03     302.371E-03    -92.0428E-03    -488.919E-06     680.312E-03    -332.345E-03    -353.013E-03    -338.030E-03     665.329E-03    -332.345E-03     236.566E-03     12.2775E+06    -3.33111E+06    -12.8270E+06    -962.907E+03     413.383E+03    -3.33111E+06    -784.861E+03         93.3808
             581     11.4859E-03     72.1872E-03     311.420E-03    -84.8077E-03    -97.6043E-03    -89.4259E-03     311.239E-03    -92.8047E-03     6.19621E-03     678.326E-03    -333.186E-03    -353.076E-03    -336.381E-03     661.632E-03    -333.186E-03     255.187E-03     7.17405E+06    -383.169E+03    -6.80320E+06    -734.573E+03     2.56499E+06    -1.84273E+06    -704.942E+03         90.5717
             582     10.7628E-03     71.8206E-03     316.394E-03    -90.7196E-03    -98.2051E-03    -95.7119E-03     316.162E-03    -92.9814E-03     15.6168E-03     667.271E-03    -332.898E-03    -340.954E-03    -329.729E-03     656.046E-03    -332.898E-03     211.242E-03     11.3895E+06    -180.631E+03    -2.62243E+06    -247.726E+03     10.8740E+06    -2.03980E+06     167.697E+03         87.8677
             583     10.0506E-03     71.4369E-03     313.495E-03    -87.6441E-03    -95.5888E-03    -89.9185E-03     313.273E-03    -93.0931E-03     10.6484E-03     666.269E-03    -332.658E-03    -338.436E-03    -327.529E-03     655.362E-03    -332.658E-03     207.696E-03     8.23281E+06     478.314E+03    -3.16071E+06    -503.308E+03     5.91748E+06     136.241E+03    -619.887E+03         85.7314
             584     9.30521E-03     71.1515E-03     321.358E-03    -87.6124E-03    -98.6799E-03    -91.3604E-03     319.931E-03    -93.5053E-03     20.5052E-03     662.519E-03    -331.066E-03    -333.893E-03    -324.583E-03     653.723E-03    -331.581E-03     186.267E-03     6.02407E+06     1.12223E+06    -2.73307E+06    -236.370E+03     3.82786E+06     821.739E+03    -820.909E+03         84.1902
             585     8.59081E-03     70.8593E-03     334.505E-03    -92.1985E-03    -104.496E-03    -100.937E-03     332.386E-03    -93.6380E-03     12.4648E-03     659.648E-03    -329.767E-03    -330.910E-03    -322.738E-03     651.991E-03    -330.282E-03     173.319E-03     8.50697E+06    -249.536E+03    -1.81877E+06    -547.625E+03     8.19194E+06    -1.20565E+06    -905.759E+03         83.0299
             586     7.87597E-03     70.6356E-03     332.630E-03    -93.2740E-03    -103.972E-03    -102.765E-03     331.423E-03    -93.2740E-03     10.2629E-03     656.445E-03    -328.351E-03    -330.341E-03    -322.478E-03     649.990E-03    -329.759E-03     158.789E-03     10.6764E+06    -383.508E+03    -1.74461E+06    -516.364E+03     10.6078E+06    -1.54311E+06    -627.070E+03         82.0122
             587     7.15723E-03     70.4669E-03     324.204E-03    -92.8013E-03    -100.909E-03    -99.3927E-03     322.687E-03    -92.8013E-03    -7.01437E-03     655.253E-03    -326.468E-03    -330.834E-03    -321.224E-03     650.009E-03    -330.834E-03     142.829E-03     9.53129E+06      728.86E+03    -1.12426E+06    -274.023E+03     9.39788E+06     12.0276E+03    -767.002E+03         81.0964
             588     6.44106E-03     70.2888E-03     318.304E-03    -92.3292E-03    -101.084E-03    -98.6569E-03     315.877E-03    -92.3292E-03     4.52467E-03     653.378E-03    -324.561E-03    -332.347E-03    -320.608E-03     649.425E-03    -332.347E-03     123.653E-03     7.75753E+06     134.989E+03    -1.61116E+06    -1.19967E+06     7.50135E+06    -20.3287E+03    -753.162E+03         80.3488
             589     5.72028E-03     70.1835E-03     314.775E-03    -88.6116E-03    -103.520E-03    -98.9290E-03     313.271E-03    -91.6991E-03     24.5424E-03     654.752E-03    -323.843E-03    -334.208E-03    -321.223E-03     652.132E-03    -334.208E-03     100.278E-03     8.65462E+06    -845.712E+03    -2.00245E+06    -1.62718E+06     8.30312E+06    -869.482E+03     -535.97E+03         79.7294
             590     5.00730E-03     70.1120E-03     313.416E-03    -86.0237E-03    -99.3252E-03    -93.6852E-03     312.997E-03    -91.2449E-03     7.67809E-03     660.334E-03    -324.682E-03    -333.197E-03    -323.191E-03     658.843E-03    -333.197E-03     75.5667E-03     9.15440E+06    -1.28301E+06    -2.79685E+06    -1.47290E+06     8.86737E+06    -2.31993E+06    -927.187E+03         79.0832
             591     4.27738E-03     70.0705E-03     318.077E-03    -84.9229E-03    -102.184E-03    -92.4144E-03     314.466E-03    -91.0815E-03    -36.2170E-03     662.767E-03    -328.393E-03    -331.480E-03    -327.621E-03     661.995E-03    -331.480E-03     54.5105E-03     8.22753E+06    -1.12774E+06    -3.29844E+06    -1.03273E+06     6.92177E+06    -2.08769E+06    -741.717E+03         78.4060
             592     3.56089E-03     70.1132E-03     326.753E-03    -87.2785E-03    -104.808E-03    -88.5144E-03     314.484E-03    -91.3033E-03     32.3928E-03     661.572E-03    -330.586E-03    -331.673E-03    -331.193E-03     661.201E-03    -330.695E-03     37.3106E-03     6.83548E+06     170.113E+03    -2.40727E+06    -33.4514E+03     4.40847E+06     223.309E+03     75.7547E+03         77.7440
             593     2.85019E-03     70.1565E-03     331.641E-03    -88.6536E-03    -102.522E-03    -82.4705E-03     315.935E-03    -92.9992E-03     9.30077E-03     659.675E-03    -330.098E-03    -331.593E-03    -330.938E-03     659.537E-03    -330.614E-03     21.7648E-03     4.69713E+06     890.715E+03    -2.49836E+06    -124.783E+03     2.18718E+06     1.02709E+06    -566.843E+03         77.1296
             594     2.13883E-03     70.2312E-03     342.284E-03    -90.5289E-03    -112.692E-03    -91.8387E-03     325.776E-03    -94.8745E-03     19.5883E-03     663.135E-03    -331.809E-03    -332.562E-03    -331.778E-03     663.104E-03    -332.562E-03     10.3364E-03     592.405E+03    -307.659E+03    -3.20697E+06    -835.837E+03    -1.89041E+06    -195.976E+03    -1.15508E+06         76.6895
             595     1.42619E-03     70.3268E-03     364.314E-03    -90.2754E-03    -141.262E-03    -109.602E-03     332.654E-03    -90.2754E-03    -50.8514E-03     669.899E-03    -335.063E-03    -335.409E-03    -335.107E-03     669.893E-03    -335.360E-03     4.20288E-03    -844.632E+03    -1.77762E+06    -3.64217E+06    -1.36502E+06    -3.17435E+06    -1.72506E+06    -343.210E+03         76.4648
             596     713.462E-06     70.3688E-03     412.750E-03    -64.1718E-03    -210.289E-03    -103.112E-03     305.573E-03    -64.1718E-03     149.565E-03     672.536E-03    -336.179E-03    -336.428E-03    -336.356E-03     672.536E-03    -336.251E-03     1.19064E-03     70.6117E+03    -732.919E+03    -4.94069E+06    -1.09911E+06    -4.00948E+06    -494.404E+03     179.441E+03         76.3762
             597     12.1927E-03     70.7548E-03     324.607E-03    -92.7567E-03    -99.9216E-03    -98.2842E-03     324.131E-03    -93.9179E-03     9.29783E-03     681.492E-03    -332.288E-03    -354.546E-03    -339.692E-03     666.639E-03    -332.288E-03     235.517E-03     10.6438E+06    -1.04878E+06    -9.11850E+06    -1.07311E+06     3.77114E+06    -2.22155E+06     428.642E+03         93.3946
             598     11.4890E-03     70.1397E-03     330.867E-03    -93.8113E-03    -104.630E-03    -104.103E-03     330.340E-03    -93.8113E-03     9.49570E-03     679.021E-03    -332.975E-03    -354.521E-03    -337.862E-03     662.362E-03    -332.975E-03     255.267E-03     6.79874E+06     591.641E+03    -2.35684E+06    -430.277E+03     6.13654E+06    -672.727E+03     1.33113E+06         90.5716
             599     10.7635E-03     69.7768E-03     325.226E-03    -92.5109E-03    -100.330E-03    -99.0993E-03     324.991E-03    -93.5065E-03    -4.39961E-03     666.063E-03    -332.704E-03    -340.296E-03    -329.074E-03     654.841E-03    -332.704E-03     211.004E-03     9.74830E+06    -707.168E+03    -1.38313E+06    -230.971E+03     8.68947E+06    -800.498E+03     210.343E+03         87.8469
             600     10.0518E-03     69.3945E-03     316.710E-03    -88.0971E-03    -97.0317E-03    -91.2897E-03     316.349E-03    -93.4786E-03    -8.87510E-03     665.161E-03    -332.528E-03    -337.510E-03    -326.610E-03     654.261E-03    -332.528E-03     207.400E-03     8.66959E+06    -196.827E+03    -2.69897E+06     152.273E+03     5.76256E+06    -141.036E+03    -296.596E+03         85.7016
             601     9.30574E-03     69.1025E-03     314.187E-03    -87.1456E-03    -96.0866E-03    -87.0714E-03     311.741E-03    -93.7150E-03     28.3782E-03     662.745E-03    -331.457E-03    -334.249E-03    -325.427E-03     653.923E-03    -331.457E-03     186.653E-03     7.72585E+06     30.3402E+03    -3.16574E+06    -586.048E+03     5.52645E+06    -349.951E+03    -728.786E+03         84.1603
             602     8.59641E-03     68.8302E-03     313.946E-03    -89.3634E-03    -95.7819E-03    -87.3560E-03     310.136E-03    -93.9802E-03     5.46942E-03     660.065E-03    -330.310E-03    -331.280E-03    -323.549E-03     652.334E-03    -330.310E-03     174.261E-03     8.74992E+06     24.6804E+03    -2.20749E+06    -996.801E+03     8.45538E+06    -891.467E+03    -1.05562E+06         82.9997
             603     7.87623E-03     68.6179E-03     312.829E-03    -84.9927E-03    -99.8028E-03    -88.3389E-03     310.663E-03    -94.2905E-03    -15.4592E-03     655.818E-03    -327.418E-03    -330.305E-03    -321.404E-03     649.250E-03    -329.751E-03     160.082E-03     8.99593E+06     411.505E+03    -1.31769E+06    -337.722E+03     8.84076E+06    -413.303E+03    -221.828E+03         81.9792
             604     7.15497E-03     68.4477E-03     316.863E-03    -86.2134E-03    -101.388E-03    -91.0151E-03     314.983E-03    -94.7062E-03    -12.8801E-03     654.116E-03    -325.037E-03    -330.732E-03    -319.782E-03     648.861E-03    -330.732E-03     142.685E-03     9.09647E+06    -120.255E+03    -1.01854E+06    -289.007E+03     8.86874E+06    -622.054E+03    -153.324E+03         81.0593
             605     6.44125E-03     68.2619E-03     321.875E-03    -91.7681E-03    -100.272E-03    -94.2274E-03     319.139E-03    -95.0769E-03    -1.50340E-03     652.756E-03    -323.972E-03    -332.328E-03    -320.087E-03     648.871E-03    -332.328E-03     122.576E-03     8.71805E+06    -649.564E+03    -1.66291E+06    -849.123E+03     8.27044E+06    -1.01574E+06    -559.094E+03         80.3204
             606     5.72065E-03     68.1528E-03     321.649E-03    -90.7603E-03    -98.1273E-03    -91.8347E-03     320.124E-03    -95.5282E-03     23.1017E-03     654.229E-03    -323.447E-03    -334.196E-03    -320.797E-03     651.579E-03    -334.196E-03     100.928E-03     8.27158E+06    -876.206E+03    -1.63242E+06    -817.866E+03     7.76106E+06    -1.18024E+06    -770.738E+03         79.7223
             607     5.00341E-03     68.0925E-03     325.878E-03    -92.8264E-03    -98.8179E-03    -95.2533E-03     325.401E-03    -95.9139E-03     7.80133E-03     660.792E-03    -325.375E-03    -333.267E-03    -323.842E-03     659.259E-03    -333.267E-03     76.6061E-03     9.62907E+06    -187.597E+03    -828.591E+03    -352.340E+03     9.37375E+06    -408.520E+03    -1.08003E+06         79.0893
             608     4.27500E-03     68.0532E-03     341.477E-03    -95.0505E-03    -107.874E-03    -106.277E-03     339.880E-03    -95.0505E-03    -7.65217E-03     664.022E-03    -329.290E-03    -332.021E-03    -329.026E-03     663.255E-03    -331.517E-03     54.3064E-03     6.45558E+06     533.457E+03    -1.49480E+06    -569.840E+03     5.10267E+06     961.404E+03    -455.971E+03         78.4153
             609     3.56586E-03     68.0767E-03     346.957E-03    -92.6535E-03    -110.690E-03    -106.692E-03     342.959E-03    -92.6535E-03     17.4767E-03     661.156E-03    -330.284E-03    -331.636E-03    -331.024E-03     660.815E-03    -330.555E-03     35.6737E-03     4.57514E+06    -934.923E+03    -2.59384E+06    -1.85636E+06     3.28197E+06    -379.229E+03    -187.848E+03         77.7484
             610     2.85276E-03     68.1312E-03     330.006E-03    -86.8929E-03    -100.596E-03    -90.7257E-03     324.481E-03    -91.2385E-03     43.1603E-06     658.525E-03    -329.641E-03    -331.042E-03    -330.095E-03     658.402E-03    -330.465E-03     21.1379E-03     4.15992E+06    -1.16466E+06    -3.17628E+06    -2.16137E+06     2.68587E+06    -705.519E+03    -59.9745E+03         77.1204
             611     2.13804E-03     68.2104E-03     317.059E-03    -79.3369E-03    -97.0517E-03    -73.3627E-03     308.950E-03    -94.9173E-03     18.8383E-03     661.626E-03    -330.927E-03    -331.888E-03    -330.890E-03     661.589E-03    -331.888E-03     11.1496E-03    -444.582E+03    -1.68106E+06    -4.14841E+06    -2.48867E+06    -3.16843E+06    -616.947E+03     161.245E+03         76.6624
             612     1.42503E-03     68.3024E-03     329.953E-03    -79.1755E-03    -114.306E-03    -73.3348E-03     316.708E-03    -106.901E-03    -17.3571E-03     668.646E-03    -334.322E-03    -334.813E-03    -334.316E-03     668.640E-03    -334.813E-03     4.00837E-03    -1.33922E+06    -2.49597E+06    -4.67282E+06    -2.62089E+06    -3.99612E+06    -1.89101E+06    -668.185E+03         76.4332
             613     712.304E-06     68.3402E-03     381.495E-03    -97.3295E-03    -163.362E-03    -111.691E-03     346.314E-03    -113.820E-03     86.5774E-03     672.771E-03    -335.622E-03    -337.324E-03    -337.151E-03     672.770E-03    -335.795E-03     78.4975E-06    -234.289E+03    -2.64442E+06    -6.78230E+06    -1.31928E+06    -5.69731E+06    -2.64442E+06    -896.040E+03         76.3617
             614     12.1963E-03     68.7156E-03     322.458E-03    -90.8473E-03    -97.9439E-03    -94.2172E-03     321.879E-03    -93.9946E-03     1.91778E-03     681.894E-03    -332.277E-03    -355.164E-03    -340.239E-03     666.968E-03    -332.277E-03     235.997E-03     12.1346E+06     2.93144E+06    -7.29565E+06     377.862E+03     5.63390E+06     1.75866E+06     2.31533E+06         93.3791
             615     11.4873E-03     68.0966E-03     318.454E-03    -86.9519E-03    -99.6821E-03    -92.3303E-03     317.813E-03    -93.6630E-03    -434.162E-06     679.110E-03    -332.929E-03    -354.264E-03    -337.564E-03     662.410E-03    -332.929E-03     255.382E-03     10.2237E+06     1.96322E+06    -2.99965E+06    -227.723E+03     8.71614E+06     698.858E+03     717.812E+03         90.5428
             616     10.7648E-03     67.7631E-03     320.405E-03    -89.8415E-03    -98.6228E-03    -94.7297E-03     320.076E-03    -93.4054E-03    -16.0995E-03     666.200E-03    -332.666E-03    -340.133E-03    -328.888E-03     654.955E-03    -332.666E-03     211.154E-03     7.83276E+06     920.981E+03    -1.94183E+06     469.557E+03     5.51470E+06     827.650E+03    -636.058E+03         87.8112
             617     10.0542E-03     67.3814E-03     324.323E-03    -92.9666E-03    -100.121E-03    -99.2019E-03     323.404E-03    -92.9666E-03    -27.1369E-03     665.691E-03    -332.585E-03    -338.054E-03    -326.949E-03     654.586E-03    -332.585E-03     209.491E-03     7.00075E+06     371.660E+03    -1.50449E+06     79.2625E+03     5.43177E+06     356.890E+03     364.151E+03         85.6713
             618     9.30579E-03     67.0903E-03     320.490E-03    -91.6419E-03    -100.789E-03    -97.3599E-03     317.805E-03    -92.3858E-03     11.1566E-03     662.106E-03    -331.266E-03    -334.501E-03    -325.266E-03     653.122E-03    -331.518E-03     188.262E-03     9.85155E+06     738.027E+03    -557.460E+03     335.921E+03     9.40902E+06     287.175E+03     100.644E+03         84.1404
             619     8.59089E-03     66.8107E-03     311.904E-03    -88.9464E-03    -97.2935E-03    -90.3765E-03     308.164E-03    -92.1237E-03    -1.09756E-03     659.423E-03    -330.122E-03    -331.436E-03    -323.354E-03     651.592E-03    -330.373E-03     175.343E-03     9.66164E+06     821.662E+03    -1.08150E+06     277.450E+03     8.85520E+06     269.151E+03    -840.460E+03         82.9919
             620     7.87714E-03     66.6161E-03     306.699E-03    -83.1654E-03    -95.1878E-03    -83.0114E-03     303.820E-03    -92.4632E-03    -12.8061E-03     656.372E-03    -328.026E-03    -330.452E-03    -322.049E-03     649.702E-03    -329.759E-03     161.393E-03     8.68740E+06     90.0449E+03    -1.54433E+06    -404.828E+03     8.00907E+06    -371.127E+03    -686.562E+03         81.9817
             621     7.16110E-03     66.4218E-03     313.491E-03    -84.5674E-03    -94.3480E-03    -84.1875E-03     311.823E-03    -93.0602E-03     2.11343E-03     654.250E-03    -325.348E-03    -330.618E-03    -320.052E-03     648.954E-03    -330.618E-03     143.257E-03     7.99573E+06    -424.740E+03    -1.54081E+06    -361.883E+03     7.16328E+06    -771.222E+03    -415.129E+03         81.0612
             622     6.43900E-03     66.2584E-03     325.388E-03    -89.7440E-03    -93.5288E-03    -88.9290E-03     324.393E-03    -93.3485E-03    -17.2235E-03     652.102E-03    -323.308E-03    -332.204E-03    -319.449E-03     648.243E-03    -332.204E-03     121.999E-03     9.22936E+06     280.250E+03    -240.857E+03     1.10760E+06     8.10273E+06     58.4253E+03    -309.593E+03         80.3215
             623     5.72018E-03     66.1344E-03     329.591E-03    -91.2447E-03    -95.2232E-03    -92.7273E-03     329.071E-03    -93.2209E-03    -8.11637E-03     653.915E-03    -323.023E-03    -334.092E-03    -320.463E-03     651.355E-03    -334.092E-03     99.0568E-03     9.88656E+06     917.533E+03     539.086E+03     1.35353E+06     9.45056E+06     539.086E+03    -15.7042E+03         79.7329
             624     5.00394E-03     66.0730E-03     323.107E-03    -89.2074E-03    -95.7379E-03    -90.9460E-03     322.235E-03    -93.1270E-03    -23.5216E-03     661.048E-03    -325.610E-03    -333.180E-03    -324.142E-03     659.580E-03    -333.180E-03     75.0655E-03     9.76801E+06     1.10989E+06     41.1716E+03     808.965E+03     9.64887E+06     461.242E+03     381.007E+03         79.0996
             625     4.27761E-03     66.0304E-03     317.370E-03    -83.8698E-03    -95.6749E-03    -84.4579E-03     316.237E-03    -93.9538E-03     6.02214E-03     663.736E-03    -329.222E-03    -331.916E-03    -328.951E-03     662.960E-03    -331.412E-03     54.7918E-03     6.61207E+06     1.88016E+06    -1.42254E+06     411.919E+03     5.26964E+06     1.38813E+06    -11.9461E+03         78.4174
             626     3.56409E-03     66.0664E-03     326.196E-03    -87.0711E-03    -100.611E-03    -91.4321E-03     325.028E-03    -95.0826E-03     8.95279E-03     660.871E-03    -330.215E-03    -331.534E-03    -330.645E-03     660.493E-03    -330.726E-03     37.7819E-03     3.00547E+06     1.29741E+06    -2.22690E+06    -942.131E+03     1.48876E+06     1.52934E+06    -329.154E+03         77.7537
             627     2.84905E-03     66.1158E-03     335.659E-03    -92.5835E-03    -104.689E-03    -101.868E-03     334.685E-03    -94.4305E-03    -21.5602E-03     659.090E-03    -330.104E-03    -331.074E-03    -330.267E-03     658.949E-03    -330.770E-03     22.6459E-03     3.28306E+06     727.931E+03    -2.31916E+06    -1.51614E+06     1.31079E+06     1.89718E+06     89.2002E+03         77.1241
             628     2.13759E-03     66.1878E-03     328.207E-03    -81.9334E-03    -108.035E-03    -94.7203E-03     326.127E-03    -93.1682E-03    -20.2965E-03     662.069E-03    -331.086E-03    -331.834E-03    -331.049E-03     662.032E-03    -331.834E-03     10.8993E-03     1.77863E+06    -114.173E+03    -3.10906E+06    -1.76318E+06    -1.46006E+06     1.77863E+06    -84.0200E+03         76.6477
             629     1.42647E-03     66.2853E-03     318.484E-03    -68.7776E-03    -115.932E-03    -83.4070E-03     313.684E-03    -96.5030E-03     1.75394E-03     668.477E-03    -334.130E-03    -334.626E-03    -334.125E-03     668.473E-03    -334.626E-03     3.31102E-03    -285.104E+03    -1.72920E+06    -4.37919E+06    -2.31982E+06    -3.29995E+06    -773.721E+03    -346.568E+03         76.4094
             630     713.201E-06     66.3252E-03     339.821E-03    -90.0361E-03    -130.817E-03    -100.994E-03     326.488E-03    -106.527E-03     105.127E-03     672.508E-03    -335.511E-03    -337.174E-03    -336.940E-03     672.508E-03    -335.744E-03     594.423E-06    -1.36387E+06    -4.80065E+06    -8.03547E+06    -3.39158E+06    -7.23096E+06    -3.57744E+06    -84.3121E+03         76.3482
             631     12.1981E-03     66.6838E-03     310.374E-03    -86.5888E-03    -92.2880E-03    -86.1837E-03     309.951E-03    -92.2708E-03    -5.22007E-03     681.475E-03    -332.259E-03    -354.578E-03    -339.534E-03     666.431E-03    -332.259E-03     236.709E-03     11.4829E+06     4.15006E+06    -9.03295E+06    -243.164E+03     2.69314E+06     4.15006E+06     159.470E+03         93.3334
             632     11.4899E-03     66.0890E-03     309.328E-03    -83.0103E-03    -92.3991E-03    -82.6518E-03     308.970E-03    -92.3991E-03     6.69232E-03     678.024E-03    -332.934E-03    -352.951E-03    -336.104E-03     661.178E-03    -332.934E-03     256.176E-03     12.7861E+06     2.69879E+06    -2.46588E+06     894.662E+03     9.42558E+06     2.69879E+06    -153.769E+03         90.4967
             633     10.7601E-03     65.7458E-03     316.610E-03    -87.0436E-03    -93.8235E-03    -87.2827E-03     315.727E-03    -92.7012E-03     14.7229E-03     666.792E-03    -332.775E-03    -340.377E-03    -328.994E-03     655.410E-03    -332.775E-03     212.521E-03     9.41143E+06     2.90167E+06    -1.26355E+06     571.606E+03     7.57627E+06     2.90167E+06     293.161E+03         87.7779
             634     10.0544E-03     65.3709E-03     325.637E-03    -91.9211E-03    -96.5566E-03    -93.9411E-03     323.961E-03    -92.8608E-03    -11.3024E-03     666.732E-03    -332.599E-03    -339.041E-03    -327.810E-03     655.500E-03    -332.599E-03     210.880E-03     9.54995E+06     3.23322E+06    -36.5921E+03     680.800E+03     8.84559E+06     3.22019E+06     418.502E+03         85.6566
             635     9.30617E-03     65.0758E-03     329.126E-03    -92.7578E-03    -101.370E-03    -98.8650E-03     326.622E-03    -92.7578E-03     5.79430E-03     661.263E-03    -330.860E-03    -334.331E-03    -324.688E-03     652.283E-03    -331.523E-03     188.070E-03     10.1010E+06     2.09446E+06    -387.248E+03     741.271E+03     8.98551E+06     2.08143E+06     49.4778E+03         84.1406
             636     8.59080E-03     64.8137E-03     332.139E-03    -92.3024E-03    -105.725E-03    -102.627E-03     329.041E-03    -92.3024E-03    -2.37116E-03     658.886E-03    -329.777E-03    -331.555E-03    -322.994E-03     650.987E-03    -330.440E-03     176.058E-03     9.21038E+06     1.84778E+06    -828.859E+03     825.140E+03     7.67107E+06     1.73309E+06    -303.223E+03         83.0029
             637     7.87375E-03     64.5985E-03     334.344E-03    -91.3543E-03    -107.238E-03    -104.783E-03     331.889E-03    -91.3543E-03    -11.0403E-03     657.106E-03    -328.792E-03    -330.892E-03    -323.164E-03     650.362E-03    -329.776E-03     162.325E-03     9.68363E+06     1.64979E+06    -393.613E+03     737.430E+03     9.01439E+06     1.18798E+06    -640.963E+03         82.0007
             638     7.15816E-03     64.4115E-03     331.314E-03    -90.2134E-03    -100.813E-03    -99.5886E-03     330.090E-03    -90.2134E-03     24.1116E-03     654.576E-03    -326.140E-03    -330.570E-03    -320.826E-03     649.262E-03    -330.570E-03     143.668E-03     7.88913E+06     1.67995E+06    -715.500E+03     587.404E+03     6.93334E+06     1.33284E+06    -371.210E+03         81.0876
             639     6.43994E-03     64.2490E-03     325.146E-03    -88.5771E-03    -91.7095E-03    -90.1536E-03     324.622E-03    -89.6096E-03     1.97636E-03     652.289E-03    -323.604E-03    -332.069E-03    -319.674E-03     648.360E-03    -332.069E-03     123.106E-03     7.98806E+06     1.01203E+06    -777.321E+03     188.846E+03     7.03286E+06     1.00106E+06     241.605E+03         80.3469
             640     5.72221E-03     64.1211E-03     318.317E-03    -85.0849E-03    -91.4156E-03    -86.0627E-03     317.667E-03    -89.7879E-03     8.39736E-03     654.373E-03    -323.571E-03    -333.959E-03    -320.970E-03     651.773E-03    -333.959E-03     99.9151E-03     10.2772E+06     203.485E+03    -170.204E+03     144.531E+03     10.0607E+06     105.298E+03     645.518E+03         79.7408
             641     5.00800E-03     64.0555E-03     314.972E-03    -82.5984E-03    -97.2893E-03    -88.4995E-03     313.772E-03    -90.1886E-03    -18.2553E-03     660.633E-03    -325.011E-03    -332.966E-03    -323.510E-03     659.132E-03    -332.966E-03     75.8349E-03     9.47707E+06     590.705E+03    -447.065E+03     338.870E+03     9.27038E+06     11.4581E+03     689.146E+03         79.0857
             642     4.27456E-03     64.0169E-03     310.592E-03    -79.9896E-03    -105.304E-03    -93.6149E-03     308.986E-03    -90.0736E-03     4.49902E-03     662.401E-03    -328.249E-03    -331.265E-03    -327.588E-03     661.639E-03    -331.164E-03     53.9948E-03     6.75427E+06     310.606E+03    -2.75386E+06    -846.014E+03     5.33845E+06    -181.422E+03     184.135E+03         78.3923
             643     3.56125E-03     64.0439E-03     302.775E-03    -80.8044E-03    -99.8014E-03    -88.7999E-03     301.012E-03    -90.0436E-03     1.57392E-03     660.889E-03    -330.322E-03    -331.361E-03    -330.693E-03     660.551E-03    -330.652E-03     35.4550E-03     5.04317E+06     684.993E+03    -3.71321E+06    -1.06982E+06     3.29339E+06    -208.617E+03    -466.579E+03         77.7362
             644     2.85093E-03     64.0955E-03     309.664E-03    -84.0100E-03    -95.2838E-03    -86.3093E-03     307.735E-03    -91.0558E-03    -11.7480E-03     659.825E-03    -330.244E-03    -331.220E-03    -330.732E-03     659.706E-03    -330.612E-03     20.9033E-03     3.38446E+06     698.356E+03    -2.65546E+06    -574.860E+03     1.58292E+06     419.302E+03    -569.168E+03         77.1161
             645     2.13812E-03     64.1765E-03     329.966E-03    -85.9302E-03    -110.863E-03    -102.248E-03     325.321E-03    -89.9012E-03    -41.2928E-03     661.301E-03    -330.710E-03    -331.394E-03    -330.678E-03     661.268E-03    -331.394E-03     10.2870E-03     1.79579E+06    -187.004E+03    -2.14629E+06    -1.09762E+06    -1.09852E+06     1.65863E+06    -218.485E+03         76.6353
             646     1.42503E-03     64.2718E-03     324.893E-03    -81.5898E-03    -112.733E-03    -107.088E-03     319.248E-03    -81.5898E-03    -16.7889E-03     667.847E-03    -333.823E-03    -334.482E-03    -333.819E-03     667.843E-03    -334.482E-03     3.57433E-03    -1.00541E+06    -2.63013E+06    -4.53787E+06    -3.03157E+06    -3.76796E+06    -1.37387E+06     19.4859E+03         76.3951
             647     712.455E-06     64.3125E-03     299.745E-03    -65.5482E-03    -92.8831E-03    -83.6749E-03     290.537E-03    -65.5482E-03     108.791E-03     673.022E-03    -336.223E-03    -336.889E-03    -336.544E-03     673.021E-03    -336.567E-03     850.166E-06    -1.24432E+06    -4.46640E+06    -7.35465E+06    -2.96413E+06    -6.88322E+06    -3.21802E+06    -67.6115E+03         76.3408
             648     12.1985E-03     64.6727E-03     324.052E-03    -89.6306E-03    -99.4519E-03    -96.7183E-03     323.853E-03    -92.1653E-03     3.94373E-03     680.332E-03    -332.282E-03    -353.360E-03    -338.082E-03     665.055E-03    -332.282E-03     238.528E-03     11.2124E+06     3.05182E+06    -8.74438E+06     846.768E+03     1.62123E+06     3.05182E+06    -741.457E+03         93.2935
             649     11.4868E-03     64.0796E-03     325.534E-03    -89.5601E-03    -98.1190E-03    -95.2291E-03     325.322E-03    -92.2377E-03     10.3324E-03     677.707E-03    -333.071E-03    -352.834E-03    -335.775E-03     660.648E-03    -333.071E-03     257.708E-03     11.7602E+06     1.38322E+06    -2.50933E+06     118.195E+03     9.13264E+06     1.38322E+06    -429.935E+03         90.4695
             650     10.7595E-03     63.7363E-03     322.019E-03    -86.1771E-03    -93.2339E-03    -86.1878E-03     321.262E-03    -92.4665E-03     19.1723E-03     667.524E-03    -332.988E-03    -341.338E-03    -329.851E-03     656.037E-03    -332.988E-03     213.706E-03     10.0094E+06     894.605E+03    -1.33705E+06    -337.882E+03     9.01025E+06     894.605E+03     233.533E+03         87.7675
             651     10.0544E-03     63.3497E-03     321.323E-03    -85.0476E-03    -93.0364E-03    -83.9737E-03     320.154E-03    -92.9417E-03    -1.55870E-03     667.015E-03    -332.660E-03    -339.212E-03    -327.955E-03     655.759E-03    -332.660E-03     211.153E-03     9.35074E+06     411.013E+03    -1.42716E+06    -580.783E+03     8.68455E+06     230.824E+03    -371.807E+03         85.6613
             652     9.30580E-03     63.0667E-03     327.883E-03    -89.4418E-03    -95.8442E-03    -90.8187E-03     326.680E-03    -93.2638E-03     3.91198E-03     662.640E-03    -331.165E-03    -334.038E-03    -324.617E-03     653.635E-03    -331.581E-03     188.461E-03     9.61190E+06     173.185E+03    -2.61848E+06    -997.522E+03     8.17114E+06    -7.00418E+03    -514.482E+03         84.1575
             653     8.58742E-03     62.8063E-03     332.835E-03    -91.8075E-03    -101.336E-03    -98.6182E-03     331.393E-03    -93.0829E-03     437.651E-06     660.725E-03    -330.090E-03    -331.777E-03    -323.496E-03     652.861E-03    -330.506E-03     175.842E-03     9.53239E+06     627.404E+03    -2.15534E+06     -601.16E+03     8.05621E+06     549.412E+03    -683.237E+03         83.0236
             654     7.87477E-03     62.5807E-03     333.745E-03    -90.5766E-03    -105.671E-03    -102.407E-03     332.417E-03    -92.5122E-03    -1.17336E-03     656.769E-03    -328.009E-03    -331.100E-03    -322.726E-03     650.215E-03    -329.830E-03     159.926E-03     9.92198E+06     1.33145E+06    -1.21819E+06    -180.784E+03     9.30968E+06     906.341E+03    -675.125E+03         82.0172
             655     7.15807E-03     62.3967E-03     328.097E-03    -87.7489E-03    -101.498E-03    -96.3262E-03     327.363E-03    -92.1864E-03     27.8271E-03     654.048E-03    -325.724E-03    -330.601E-03    -320.564E-03     648.888E-03    -330.601E-03     141.613E-03     7.70339E+06     1.64634E+06    -1.51968E+06    -888.077E+03     7.41890E+06     1.29922E+06     192.573E+03         81.1085
             656     6.44027E-03     62.2383E-03     317.255E-03    -85.0421E-03    -94.7356E-03    -86.6034E-03     316.897E-03    -92.8159E-03     6.71773E-03     652.877E-03    -324.272E-03    -332.014E-03    -320.340E-03     648.946E-03    -332.014E-03     123.282E-03     6.70042E+06     1.17991E+06    -2.08599E+06    -1.88560E+06     6.50003E+06     1.17991E+06     32.2651E+03         80.3712
             657     5.72069E-03     62.1047E-03     317.116E-03    -85.4448E-03    -95.5458E-03    -85.5024E-03     315.803E-03    -94.1752E-03     31.1393E-03     654.569E-03    -323.521E-03    -333.834E-03    -320.890E-03     651.939E-03    -333.834E-03     100.483E-03     9.16951E+06     30.4496E+03    -2.29651E+06    -2.00355E+06     8.87655E+06     30.4496E+03    -390.153E+03         79.7480
             658     5.00442E-03     62.0342E-03     326.469E-03    -91.1471E-03    -102.997E-03    -97.4639E-03     324.606E-03    -94.8177E-03     5.48230E-03     660.796E-03    -325.085E-03    -332.929E-03    -323.590E-03     659.301E-03    -332.929E-03     75.5937E-03     8.18191E+06    -1.29830E+06    -2.61994E+06    -2.26545E+06     7.82741E+06    -1.29830E+06     210.405E+03         79.0750
             659     4.27745E-03     61.9991E-03     329.800E-03    -93.3976E-03    -111.374E-03    -109.117E-03     327.543E-03    -93.3976E-03     10.7376E-03     663.153E-03    -328.915E-03    -331.530E-03    -328.564E-03     662.403E-03    -331.132E-03     53.6202E-03     6.65616E+06    -1.11798E+06    -3.04217E+06    -1.97889E+06     6.43831E+06    -1.96341E+06     877.308E+03         78.3724
             660     3.56561E-03     62.0202E-03     319.982E-03    -89.6125E-03    -105.801E-03    -102.070E-03     317.479E-03    -90.8402E-03     6.88739E-03     660.611E-03    -330.247E-03    -331.303E-03    -330.959E-03     660.267E-03    -330.247E-03     35.8959E-03     6.44371E+06    -547.485E+03    -3.78808E+06    -1.41170E+06     6.03829E+06    -2.51845E+06     548.904E+03         77.7122
             661     2.85111E-03     62.0760E-03     315.063E-03    -84.3797E-03    -102.082E-03    -88.5588E-03     306.739E-03    -89.5784E-03     44.0823E-03     659.361E-03    -329.985E-03    -331.143E-03    -330.516E-03     659.235E-03    -330.485E-03     21.3465E-03     3.40299E+06    -971.747E+03    -3.66014E+06    -1.65319E+06     1.92975E+06    -1.50546E+06    -150.664E+03         77.1091
             662     2.13735E-03     62.1528E-03     323.501E-03    -84.7505E-03    -106.100E-03    -88.2599E-03     310.591E-03    -89.6802E-03     3.97570E-03     662.359E-03    -331.112E-03    -332.161E-03    -331.080E-03     662.327E-03    -332.161E-03     9.88814E-03     128.411E+03    -1.54880E+06    -3.01108E+06    -2.04135E+06    -2.33840E+06    -51.7176E+03    -394.433E+03         76.6597
             663     1.42490E-03     62.2543E-03     326.074E-03    -87.3738E-03    -100.376E-03    -92.6753E-03     319.662E-03    -88.6617E-03    -42.3821E-03     668.945E-03    -334.207E-03    -335.203E-03    -334.204E-03     668.942E-03    -335.203E-03     2.92529E-03    -1.96884E+06    -3.11406E+06    -4.64982E+06    -3.33624E+06    -4.21286E+06    -2.18362E+06    -454.047E+03         76.4297
             664     712.412E-06     62.2975E-03     322.576E-03    -75.9830E-03    -101.580E-03    -97.6216E-03     318.946E-03    -76.3122E-03     53.8559E-03     673.600E-03    -336.297E-03    -337.324E-03    -336.877E-03     673.600E-03    -336.744E-03     577.625E-06    -1.35473E+06    -4.72684E+06    -8.23214E+06    -4.02082E+06    -7.16111E+06    -3.13178E+06    -481.173E+03         76.3630
             665     12.1934E-03     62.6564E-03     338.531E-03    -93.3603E-03    -105.449E-03    -105.255E-03     338.337E-03    -93.3603E-03    -4.97020E-03     679.774E-03    -332.392E-03    -352.634E-03    -337.351E-03     664.491E-03    -332.392E-03     238.805E-03     9.06272E+06     843.520E+03    -8.55967E+06    -1.31739E+06     1.82044E+06     843.520E+03    -1.10919E+06         93.2794
             666     11.4858E-03     62.0639E-03     334.541E-03    -92.8433E-03    -102.576E-03    -102.310E-03     334.275E-03    -92.8433E-03    -11.7917E-03     679.054E-03    -333.295E-03    -353.511E-03    -336.472E-03     662.016E-03    -333.295E-03     257.900E-03     9.22304E+06     952.877E+03    -4.31247E+06    -1.32270E+06     6.23327E+06     952.877E+03    -665.698E+03         90.4688
             667     10.7579E-03     61.7161E-03     328.475E-03    -88.3429E-03    -98.9460E-03    -94.5490E-03     328.274E-03    -92.5385E-03     1.03713E-03     668.368E-03    -333.101E-03    -341.516E-03    -330.057E-03     656.909E-03    -333.101E-03     213.584E-03     8.60496E+06     5.94073E+03    -2.34780E+06    -792.424E+03     7.04959E+06     5.94073E+03    -841.327E+03         87.7739
             668     10.0499E-03     61.3393E-03     324.734E-03    -85.6473E-03    -96.4873E-03    -89.2642E-03     324.465E-03    -92.6018E-03     477.963E-06     666.249E-03    -332.693E-03    -338.178E-03    -327.166E-03     655.236E-03    -332.693E-03     208.551E-03     8.61905E+06    -275.305E+03    -2.33468E+06    -648.516E+03     7.11308E+06    -455.494E+03    -771.111E+03         85.6711
             669     9.30121E-03     61.0522E-03     321.410E-03    -86.7639E-03    -93.6621E-03    -86.5587E-03     320.521E-03    -92.9789E-03     15.1877E-03     663.027E-03    -331.558E-03    -333.394E-03    -324.567E-03     654.204E-03    -331.563E-03     186.604E-03     11.0535E+06     428.063E+03    -2.21184E+06    -320.645E+03     10.4137E+06    -823.422E+03    -401.077E+03         84.1677
             670     8.58962E-03     60.7891E-03     317.778E-03    -86.2383E-03    -93.6550E-03    -85.0559E-03     316.596E-03    -93.6550E-03     6.20922E-03     661.197E-03    -330.423E-03    -331.319E-03    -323.517E-03     653.400E-03    -330.428E-03     175.121E-03     11.4762E+06     486.870E+03    -2.33548E+06    -545.204E+03     10.8353E+06    -662.417E+03    -462.790E+03         83.0280
             671     7.87440E-03     60.5715E-03     317.259E-03    -85.6796E-03    -94.6216E-03    -84.5139E-03     316.093E-03    -94.6216E-03     6.43528E-03     656.728E-03    -328.071E-03    -330.729E-03    -322.398E-03     650.165E-03    -329.839E-03     160.124E-03     9.70632E+06    -157.753E+03    -3.97523E+06    -1.56459E+06     7.14139E+06    -3.46694E+03    -219.886E+03         82.0191
             672     7.15656E-03     60.3867E-03     321.468E-03    -87.9070E-03    -97.1402E-03    -88.3283E-03     320.352E-03    -95.6025E-03     9.02746E-03     654.819E-03    -326.236E-03    -330.646E-03    -321.012E-03     649.596E-03    -330.646E-03     142.492E-03     8.56978E+06     143.060E+03    -3.94119E+06    -2.05750E+06     6.45381E+06     375.338E+03     39.9412E+03         81.1169
             673     6.43979E-03     60.2291E-03     326.050E-03    -89.2610E-03    -98.9805E-03    -91.3503E-03     325.457E-03    -96.2981E-03    -28.1329E-03     653.439E-03    -324.700E-03    -331.995E-03    -320.850E-03     649.589E-03    -331.995E-03     121.988E-03     8.02412E+06     314.834E+03    -2.44748E+06    -2.04081E+06     7.89261E+06     39.6675E+03    -268.812E+03         80.3884
             674     5.72087E-03     60.1003E-03     331.679E-03    -92.3309E-03    -99.2170E-03    -93.4973E-03     330.330E-03    -96.7017E-03     18.1656E-03     654.468E-03    -323.418E-03    -333.702E-03    -320.876E-03     651.926E-03    -333.702E-03     98.8231E-03     8.77731E+06    -74.1920E+03    -2.62895E+06    -2.07996E+06     8.50349E+06    -349.359E+03    -755.784E+03         79.7650
             675     5.00710E-03     60.0220E-03     334.329E-03    -95.8677E-03    -99.6598E-03    -94.7667E-03     330.522E-03    -96.9535E-03    -14.2469E-03     660.209E-03    -324.755E-03    -332.769E-03    -323.262E-03     658.716E-03    -332.769E-03     75.7334E-03     7.98429E+06    -1.04139E+06    -3.38078E+06    -2.17910E+06     6.15405E+06    -412.834E+03    -455.479E+03         79.0760
             676     4.27519E-03     59.9853E-03     333.714E-03    -92.3368E-03    -100.364E-03    -90.9017E-03     329.533E-03    -97.6181E-03    -10.5208E-03     662.347E-03    -328.481E-03    -331.377E-03    -327.977E-03     661.545E-03    -331.080E-03     55.6037E-03     7.31764E+06     108.925E+03    -3.50197E+06    -1.58703E+06     5.61956E+06    -107.944E+03     445.593E+03         78.3536
             677     3.56192E-03     60.0114E-03     341.050E-03    -93.9563E-03    -107.185E-03    -97.6002E-03     335.708E-03    -98.1994E-03    -20.2413E-03     660.170E-03    -330.128E-03    -331.185E-03    -330.579E-03     659.780E-03    -330.344E-03     38.4555E-03     8.06779E+06     1.57922E+06    -1.97801E+06    -810.587E+03     7.74580E+06     733.793E+03     436.149E+03         77.6919
             678     2.85065E-03     60.0662E-03     355.327E-03    -96.6246E-03    -122.459E-03    -108.773E-03     341.641E-03    -96.6246E-03     40.2660E-03     659.989E-03    -330.474E-03    -331.558E-03    -330.868E-03     659.839E-03    -331.014E-03     23.2902E-03     4.50234E+06     439.851E+03    -2.00303E+06    -1.23824E+06     2.98242E+06     1.19498E+06    -172.501E+03         77.1227
             679     2.13865E-03     60.1538E-03     355.920E-03    -93.0278E-03    -121.630E-03    -99.6537E-03     334.903E-03    -93.9864E-03    -1.32475E-03     665.060E-03    -332.377E-03    -333.736E-03    -332.333E-03     665.016E-03    -333.736E-03     12.0876E-03    -511.444E+03    -1.52803E+06    -3.48081E+06    -2.09225E+06    -2.65513E+06    -772.898E+03    -142.033E+03         76.7283
             680     1.42554E-03     60.2535E-03     353.649E-03    -92.7869E-03    -111.867E-03    -89.5175E-03     332.587E-03    -94.0749E-03    -15.3778E-03     671.362E-03    -335.321E-03    -336.477E-03    -335.309E-03     671.351E-03    -336.477E-03     5.30783E-03    -2.41663E+06    -3.08195E+06    -4.51124E+06    -2.59260E+06    -4.33528E+06    -3.08195E+06     139.243E+03         76.5190
             681     712.559E-06     60.2920E-03     367.620E-03    -84.6881E-03    -143.264E-03    -104.870E-03     329.555E-03    -85.0173E-03    -43.1836E-03     674.349E-03    -336.897E-03    -337.526E-03    -337.183E-03     674.347E-03    -337.238E-03     1.83000E-03    -1.57734E+06    -5.46315E+06    -8.69479E+06    -4.06621E+06    -7.77579E+06    -3.89328E+06     247.552E+03         76.4314
             682     12.1925E-03     60.6527E-03     326.071E-03    -89.3652E-03    -98.2254E-03    -94.0068E-03     325.910E-03    -93.4236E-03    -11.9165E-03     681.280E-03    -332.365E-03    -353.549E-03    -338.488E-03     666.220E-03    -332.365E-03     237.517E-03     9.79830E+06     2.21271E+06    -5.30645E+06     903.014E+03     2.61306E+06     3.18848E+06     995.837E+03         93.3003
             683     11.4840E-03     60.0507E-03     325.568E-03    -89.2384E-03    -97.2928E-03    -92.8501E-03     325.328E-03    -93.4410E-03    -9.14583E-03     679.399E-03    -333.187E-03    -353.728E-03    -337.003E-03     662.674E-03    -333.187E-03     255.593E-03     10.5887E+06     1.76546E+06    -4.04042E+06     113.282E+03     6.43499E+06     1.76546E+06    -943.787E+03         90.4942
             684     10.7591E-03     59.6986E-03     329.037E-03    -90.9427E-03    -99.2593E-03    -96.3736E-03     328.828E-03    -93.6194E-03     9.75640E-03     667.511E-03    -332.931E-03    -340.334E-03    -329.115E-03     656.292E-03    -332.931E-03     211.127E-03     9.34961E+06     1.67716E+06    -2.50607E+06    -1.28491E+03     6.84482E+06     1.67716E+06    -1.37697E+06         87.7972
             685     10.0525E-03     59.3263E-03     331.788E-03    -93.1528E-03    -98.2860E-03    -97.5434E-03     331.659E-03    -93.7663E-03     6.88668E-03     666.092E-03    -332.530E-03    -338.032E-03    -327.199E-03     655.259E-03    -332.530E-03     206.867E-03     9.58530E+06     2.44033E+06    -915.175E+03     637.501E+03     8.03263E+06     2.44033E+06    -266.871E+03         85.6842
             686     9.30691E-03     59.0465E-03     330.711E-03    -91.4738E-03    -98.7576E-03    -95.7334E-03     330.080E-03    -93.8668E-03     5.26847E-03     662.027E-03    -331.042E-03    -333.876E-03    -324.650E-03     653.184E-03    -331.426E-03     186.773E-03     11.9836E+06     1.90976E+06    -1.17718E+06     306.457E+03     11.5713E+06     838.462E+03    -1.71872E+03         84.1611
             687     8.58714E-03     58.7865E-03     325.891E-03    -87.5137E-03    -97.6544E-03    -89.8631E-03     324.667E-03    -94.0811E-03    -14.3613E-03     659.186E-03    -330.002E-03    -330.767E-03    -322.462E-03     651.265E-03    -330.386E-03     176.236E-03     11.0801E+06     1.34982E+06    -2.11611E+06    -124.309E+03     10.1596E+06     278.525E+03     548.764E+03         83.0077
             688     7.87256E-03     58.5723E-03     326.329E-03    -86.8742E-03    -99.2227E-03    -90.5695E-03     325.108E-03    -94.3066E-03     691.312E-06     656.646E-03    -328.694E-03    -330.241E-03    -322.392E-03     649.963E-03    -329.861E-03     161.583E-03     8.93928E+06     543.751E+03    -3.13670E+06    -544.318E+03     6.11462E+06     776.029E+03     616.257E+03         82.0013
             689     7.15634E-03     58.3845E-03     332.127E-03    -90.8048E-03    -100.614E-03    -96.1207E-03     330.892E-03    -94.0628E-03    -172.562E-06     655.535E-03    -326.821E-03    -330.672E-03    -321.490E-03     650.203E-03    -330.672E-03     144.021E-03     8.12620E+06     404.266E+03    -3.32495E+06    -999.437E+03     5.90702E+06     297.938E+03    -54.6778E+03         81.1079
             690     6.44027E-03     58.2232E-03     335.103E-03    -93.3980E-03    -97.4737E-03    -96.6394E-03     334.269E-03    -93.3980E-03    -36.6689E-03     653.030E-03    -324.507E-03    -332.011E-03    -320.553E-03     649.076E-03    -332.011E-03     123.641E-03     9.89731E+06     113.025E+03    -1.68437E+06    -765.891E+03     9.59260E+06    -500.748E+03     153.728E+03         80.3936
             691     5.72190E-03     58.0956E-03     331.281E-03    -92.2283E-03    -95.2687E-03    -93.9528E-03     330.565E-03    -92.8276E-03     5.38377E-03     654.527E-03    -323.655E-03    -333.872E-03    -320.970E-03     651.842E-03    -333.872E-03     101.623E-03     10.8489E+06     66.6743E+03    -1.23025E+06    -508.245E+03     10.4020E+06    -208.493E+03    -266.912E+03         79.7874
             692     5.00526E-03     58.0228E-03     330.097E-03    -91.2223E-03    -93.2164E-03    -88.6249E-03     327.143E-03    -92.8598E-03    -22.9865E-03     660.587E-03    -324.956E-03    -332.872E-03    -323.367E-03     658.998E-03    -332.872E-03     78.0935E-03     7.70590E+06     1.81854E+06    -1.76040E+06    -517.466E+03     5.66012E+06     2.62138E+06    -880.278E+03         79.0947
             693     4.27470E-03     57.9835E-03     332.853E-03    -88.0599E-03    -98.8996E-03    -90.4023E-03     329.637E-03    -93.3412E-03    -16.7998E-03     661.964E-03    -328.100E-03    -330.989E-03    -327.287E-03     661.151E-03    -330.989E-03     55.7785E-03     6.72239E+06     2.20025E+06    -2.82021E+06    -1.34714E+06     4.44649E+06     3.00309E+06    -825.953E+03         78.3577
             694     3.56142E-03     58.0044E-03     335.092E-03    -89.3578E-03    -104.132E-03    -94.6755E-03     329.879E-03    -93.6010E-03    -35.5766E-03     659.499E-03    -329.776E-03    -330.614E-03    -329.592E-03     659.126E-03    -330.424E-03     37.6147E-03     8.00757E+06     393.222E+03    -2.40538E+06    -1.57966E+06     7.18185E+06     393.222E+03    -417.613E+03         77.7011
             695     2.84726E-03     58.0617E-03     343.048E-03    -93.4949E-03    -108.564E-03    -96.0278E-03     330.511E-03    -93.4949E-03     23.2433E-03     659.615E-03    -330.043E-03    -331.248E-03    -330.087E-03     659.470E-03    -331.058E-03     22.9798E-03     3.58491E+06    -917.503E+03    -2.44432E+06    -1.69969E+06     2.23292E+06    -310.138E+03     136.811E+03         77.1565
             696     2.13333E-03     58.1476E-03     356.374E-03    -93.4931E-03    -119.918E-03    -93.5431E-03     329.999E-03    -93.4931E-03    -44.4074E-03     666.990E-03    -333.317E-03    -334.584E-03    -333.273E-03     666.947E-03    -334.584E-03     11.8998E-03    -859.508E+03    -2.00700E+06    -4.14577E+06    -2.81836E+06    -3.11594E+06    -1.07799E+06     474.876E+03         76.7955
             697     1.42112E-03     58.2455E-03     375.096E-03    -92.5789E-03    -139.116E-03    -96.7710E-03     332.751E-03    -92.5789E-03     24.1907E-03     673.935E-03    -336.876E-03    -337.680E-03    -336.865E-03     673.924E-03    -337.680E-03     4.71352E-03    -1.14775E+06    -2.25461E+06    -4.11116E+06    -2.53911E+06    -3.37612E+06    -1.59829E+06     724.190E+03         76.6036
             698     711.252E-06     58.2878E-03     447.599E-03    -85.5961E-03    -221.530E-03    -98.5030E-03     324.572E-03    -85.5961E-03    -188.837E-03     675.476E-03    -337.513E-03    -338.104E-03    -337.511E-03     675.474E-03    -338.104E-03     1.17595E-03    -367.118E+03    -3.38610E+06    -6.98025E+06    -1.89357E+06    -6.32865E+06    -2.51125E+06     153.662E+03         76.5064
             699     12.1921E-03     58.6451E-03     323.752E-03    -89.9818E-03    -96.2420E-03    -92.1194E-03     323.688E-03    -94.0401E-03     2.72226E-03     682.214E-03    -332.214E-03    -354.825E-03    -339.810E-03     667.199E-03    -332.214E-03     236.712E-03     9.18356E+06     540.843E+03    -4.42424E+06     236.358E+03     3.54719E+06     1.51661E+06    -775.838E+03         93.3254
             700     11.4870E-03     58.0420E-03     329.387E-03    -90.3050E-03    -98.2177E-03    -93.9112E-03     329.284E-03    -94.5076E-03     7.64502E-03     679.199E-03    -332.939E-03    -354.009E-03    -337.281E-03     662.471E-03    -332.939E-03     255.417E-03     12.2465E+06     9.08255E+03    -3.66578E+06     572.505E+03     8.12858E+06    -111.232E+03    -715.302E+03         90.5135
             701     10.7592E-03     57.7019E-03     333.126E-03    -92.0758E-03    -96.9076E-03    -93.9276E-03     332.823E-03    -94.7525E-03     2.05017E-03     666.601E-03    -332.781E-03    -340.009E-03    -328.759E-03     655.351E-03    -332.781E-03     211.181E-03     9.38745E+06     730.317E+03    -2.24260E+06     543.295E+03     6.90907E+06     422.812E+03    -45.1284E+03         87.8052
             702     10.0535E-03     57.3118E-03     333.592E-03    -94.1577E-03    -95.8059E-03    -94.9036E-03     333.304E-03    -94.7713E-03    -2.38551E-03     665.650E-03    -332.544E-03    -338.021E-03    -326.943E-03     654.572E-03    -332.544E-03     209.168E-03     8.14924E+06     678.576E+03    -1.27325E+06    -284.044E+03     7.34722E+06     491.385E+03    -354.506E+03         85.6775
             703     9.30256E-03     57.0359E-03     337.526E-03    -94.5520E-03    -99.1062E-03    -98.8836E-03     337.304E-03    -94.5520E-03    -6.25447E-03     662.144E-03    -331.128E-03    -334.053E-03    -324.664E-03     653.139E-03    -331.512E-03     188.483E-03     10.2414E+06     803.710E+03    -1.80473E+06    -536.602E+03     9.94127E+06    -164.341E+03    -507.534E+03         84.1439
             704     8.58866E-03     56.7877E-03     342.915E-03    -93.4771E-03    -105.639E-03    -104.825E-03     342.527E-03    -93.9032E-03    -21.5106E-03     659.406E-03    -330.078E-03    -330.983E-03    -322.611E-03     651.418E-03    -330.462E-03     177.024E-03     10.1213E+06     1.08715E+06    -1.91271E+06    -62.2752E+03     9.23889E+06     119.098E+03     622.791E+03         82.9884
             705     7.87274E-03     56.5683E-03     344.617E-03    -92.2861E-03    -109.062E-03    -107.974E-03     343.955E-03    -92.7122E-03     8.74001E-03     656.580E-03    -328.497E-03    -330.398E-03    -322.196E-03     649.788E-03    -329.906E-03     162.907E-03     8.75175E+06     512.856E+03    -2.92941E+06     8.98303E+03     5.81336E+06     512.856E+03     840.705E+03         81.9815
             706     7.15513E-03     56.3737E-03     336.802E-03    -91.4768E-03    -101.914E-03    -100.999E-03     335.887E-03    -91.4768E-03    -1.21031E-03     654.856E-03    -326.046E-03    -330.695E-03    -320.659E-03     649.468E-03    -330.695E-03     144.614E-03     9.17405E+06     886.027E+03    -2.86938E+06    -123.756E+03     6.76703E+06     547.421E+03     622.938E+03         81.0853
             707     6.43670E-03     56.2226E-03     324.603E-03    -89.8657E-03    -94.2451E-03    -92.6370E-03     324.003E-03    -90.8734E-03    -27.6197E-03     652.313E-03    -323.649E-03    -332.068E-03    -319.653E-03     648.317E-03    -332.068E-03     124.279E-03     11.5283E+06     795.713E+03    -1.24861E+06    -32.8174E+03     10.6511E+06     457.107E+03    -134.055E+03         80.3789
             708     5.71648E-03     56.0976E-03     321.633E-03    -88.7434E-03    -92.2086E-03    -89.1692E-03     320.763E-03    -90.9122E-03     15.7573E-03     654.626E-03    -323.616E-03    -334.094E-03    -320.865E-03     651.876E-03    -334.094E-03     102.846E-03     11.9509E+06     536.544E+03    -1.29579E+06    -166.961E+03     10.8220E+06     536.544E+03    -180.388E+03         79.7999
             709     5.00390E-03     56.0250E-03     327.228E-03    -89.8381E-03    -94.2638E-03    -91.9406E-03     326.066E-03    -90.9992E-03     8.40321E-03     661.575E-03    -325.835E-03    -333.200E-03    -324.210E-03     659.950E-03    -333.200E-03     79.0821E-03     8.53197E+06     1.08430E+06    -2.11745E+06    -553.378E+03     7.47452E+06     577.671E+03    -375.589E+03         79.1348
             710     4.27396E-03     55.9816E-03     329.905E-03    -90.1889E-03    -100.066E-03    -99.2778E-03     329.117E-03    -90.1889E-03     2.13821E-03     663.770E-03    -329.137E-03    -331.727E-03    -328.673E-03     662.936E-03    -331.357E-03     56.5350E-03     5.14732E+06     1.49123E+06    -2.19927E+06    -596.064E+03     4.05074E+06     984.608E+03    -1.65831E+06         78.4163
             711     3.56042E-03     56.0183E-03     325.650E-03    -88.6169E-03    -97.0610E-03    -93.8646E-03     322.738E-03    -88.9022E-03    -28.7677E-03     661.308E-03    -330.337E-03    -331.575E-03    -330.781E-03     660.947E-03    -330.769E-03     36.6904E-03     5.19865E+06     608.687E+03    -1.76198E+06    -685.897E+03     3.57467E+06     1.15659E+06    -930.370E+03         77.7682
             712     2.84621E-03     56.0677E-03     321.916E-03    -88.5363E-03    -91.2409E-03    -80.0572E-03     311.699E-03    -89.5030E-03     32.4320E-03     660.492E-03    -330.338E-03    -331.580E-03    -330.657E-03     660.375E-03    -331.145E-03     20.1899E-03     3.90948E+06    -277.944E+03    -2.35340E+06    -1.31642E+06     1.21606E+06     1.37850E+06     277.396E+03         77.2142
             713     2.13586E-03     56.1466E-03     331.041E-03    -92.7135E-03    -101.587E-03    -76.1939E-03     306.329E-03    -93.3949E-03    -41.2623E-03     667.465E-03    -333.783E-03    -334.446E-03    -333.758E-03     667.440E-03    -334.446E-03     9.03212E-03     758.585E+03    -946.313E+03    -3.64404E+06    -2.16544E+06    -2.15021E+06     483.879E+03    -104.671E+03         76.8355
             714     1.42473E-03     56.2514E-03     388.482E-03    -96.1602E-03    -158.636E-03    -95.6270E-03     325.473E-03    -96.1602E-03     103.209E-03     674.047E-03    -337.177E-03    -337.494E-03    -337.173E-03     674.043E-03    -337.494E-03     2.83314E-03    -238.458E+03    -1.85131E+06    -4.07615E+06    -1.93666E+06    -3.03427E+06    -1.19498E+06    -241.686E+03         76.6311
             715     711.899E-06     56.2870E-03     561.447E-03    -84.0104E-03    -332.563E-03    -107.530E-03     336.415E-03    -84.0104E-03    -308.623E-03     675.035E-03    -336.854E-03    -338.328E-03    -337.828E-03     675.033E-03    -337.352E-03    -519.263E-06     352.764E+03    -2.04813E+06    -6.39664E+06    -1.29674E+06    -5.62199E+06    -1.17328E+06     73.3630E+03         76.5271
             716     12.1959E-03     56.6362E-03     341.554E-03    -95.7269E-03    -103.041E-03    -102.636E-03     341.149E-03    -95.7269E-03     8.10918E-03     681.469E-03    -332.115E-03    -354.728E-03    -339.649E-03     666.390E-03    -332.115E-03     237.057E-03     10.9764E+06    -1.34141E+06    -4.46646E+06    -454.412E+03     6.96440E+06    -1.34141E+06    -905.891E+03         93.3130
             717     11.4856E-03     56.0360E-03     346.587E-03    -95.4314E-03    -106.093E-03    -105.901E-03     346.395E-03    -95.4314E-03     1.37400E-03     678.584E-03    -332.957E-03    -353.082E-03    -336.255E-03     661.757E-03    -332.957E-03     256.015E-03     11.2565E+06     189.335E+03    -4.37482E+06     429.731E+03     6.18827E+06     453.043E+03     -94.771E+03         90.4882
             718     10.7581E-03     55.6964E-03     343.250E-03    -94.9668E-03    -102.473E-03    -101.714E-03     342.491E-03    -94.9668E-03    -15.4164E-03     666.630E-03    -332.866E-03    -339.596E-03    -328.082E-03     655.115E-03    -332.866E-03     213.504E-03     7.65074E+06    -243.052E+03    -3.36867E+06    -308.001E+03     4.63215E+06    -285.122E+03    -362.272E+03         87.7729
             719     10.0516E-03     55.3116E-03     335.128E-03    -94.7277E-03    -96.8313E-03    -95.9461E-03     334.243E-03    -94.7277E-03    -10.6797E-03     665.251E-03    -332.611E-03    -337.697E-03    -326.314E-03     653.868E-03    -332.611E-03     211.861E-03     6.84246E+06    -788.528E+03    -2.05372E+06    -709.014E+03     6.54033E+06    -1.83111E+06    -441.908E+03         85.6524
             720     9.30125E-03     55.0408E-03     330.495E-03    -93.6119E-03    -95.3169E-03    -93.8923E-03     330.242E-03    -94.7833E-03     10.9159E-03     662.454E-03    -331.585E-03    -333.915E-03    -324.847E-03     653.387E-03    -331.585E-03     189.142E-03     7.57859E+06     306.842E+03    -1.94011E+06    -69.9476E+03     7.41328E+06    -1.39802E+06    -207.860E+03         84.1354
             721     8.58533E-03     54.7840E-03     336.839E-03    -92.6885E-03    -102.888E-03    -100.412E-03     336.400E-03    -94.7252E-03     10.2177E-03     661.594E-03    -330.492E-03    -332.006E-03    -324.076E-03     653.664E-03    -330.492E-03     176.682E-03     8.30198E+06     148.952E+03    -2.56673E+06    -559.114E+03     8.17087E+06    -1.72756E+06    -33.6770E+03         82.9889
             722     7.87187E-03     54.5736E-03     339.889E-03    -92.3084E-03    -105.821E-03    -103.143E-03     339.290E-03    -94.3868E-03     18.8660E-03     657.163E-03    -327.606E-03    -331.167E-03    -322.284E-03     650.545E-03    -329.872E-03     160.756E-03     9.82409E+06     225.956E+03    -3.83690E+06    -715.269E+03     7.61092E+06    -682.511E+03     645.444E+03         81.9785
             723     7.15361E-03     54.3777E-03     334.638E-03    -92.9485E-03    -101.430E-03    -99.7456E-03     334.167E-03    -94.1616E-03    -4.38995E-03     653.537E-03    -324.644E-03    -330.642E-03    -319.463E-03     648.356E-03    -330.642E-03     141.639E-03     11.6955E+06     204.753E+03    -3.48071E+06    -42.1732E+03     8.25696E+06     204.753E+03    -373.772E+03         81.0719
             724     6.43652E-03     54.2256E-03     333.256E-03    -92.9054E-03    -103.151E-03    -101.728E-03     332.840E-03    -93.9131E-03    -19.8895E-03     652.198E-03    -323.261E-03    -332.041E-03    -319.396E-03     648.333E-03    -332.041E-03     122.193E-03     10.8975E+06    -314.263E+03    -2.02699E+06     48.6437E+03     8.82182E+06    -314.263E+03    -934.691E+03         80.3567
             725     5.71757E-03     54.1015E-03     333.192E-03    -91.8382E-03    -101.742E-03    -98.9255E-03     331.993E-03    -93.4555E-03     20.4284E-03     654.864E-03    -323.639E-03    -334.178E-03    -321.029E-03     652.254E-03    -334.178E-03     100.071E-03     10.5239E+06    -571.142E+03    -2.41968E+06     30.4668E+03     8.84215E+06    -1.33953E+06    -252.603E+03         79.7862
             726     5.00069E-03     54.0233E-03     331.133E-03    -91.4234E-03    -98.8198E-03    -96.0597E-03     329.990E-03    -93.0410E-03     21.6663E-03     661.173E-03    -325.477E-03    -333.373E-03    -323.964E-03     659.660E-03    -333.373E-03     76.2627E-03     11.3123E+06    -325.665E+03    -2.20218E+06     579.257E+03     9.98014E+06    -1.77497E+06    -370.810E+03         79.1502
             727     4.27090E-03     53.9882E-03     330.289E-03    -87.4662E-03    -97.2907E-03    -91.4952E-03     330.000E-03    -92.9720E-03     4.17749E-03     664.172E-03    -329.210E-03    -332.041E-03    -328.831E-03     663.366E-03    -331.615E-03     55.7328E-03     6.99970E+06     1.21283E+06    -1.06625E+06     788.604E+03     5.51991E+06     837.768E+03    -810.609E+03         78.4642
             728     3.56038E-03     54.0195E-03     334.515E-03    -88.6997E-03    -95.7857E-03    -88.8101E-03     332.323E-03    -93.4828E-03    -29.0109E-03     663.280E-03    -331.237E-03    -332.555E-03    -332.177E-03     662.901E-03    -331.237E-03     37.7511E-03     2.70710E+06     1.71627E+06    -1.20836E+06     103.570E+03     541.411E+03     2.57002E+06    -1.27066E+06         77.8338
             729     2.85044E-03     54.0720E-03     339.803E-03    -92.8968E-03    -100.581E-03    -93.3801E-03     333.569E-03    -93.8635E-03     16.9916E-03     661.957E-03    -331.169E-03    -332.252E-03    -331.929E-03     661.821E-03    -331.355E-03     21.9883E-03     2.63047E+06      1.0089E+06    -1.33339E+06    -42.2453E+03     126.944E+03     2.22128E+06    -591.792E+03         77.2687
             730     2.13612E-03     54.1482E-03     346.667E-03    -93.6119E-03    -111.044E-03    -91.9831E-03     328.287E-03    -94.2933E-03    -53.6239E-03     666.191E-03    -333.277E-03    -333.679E-03    -333.247E-03     666.156E-03    -333.674E-03     10.6861E-03     1.08318E+06    -597.768E+03    -3.12842E+06    -934.961E+03    -1.77477E+06     66.7146E+03     92.9027E+03         76.8565
             731     1.42329E-03     54.2581E-03     419.232E-03    -95.3850E-03    -179.377E-03    -93.5927E-03     333.448E-03    -95.3850E-03     177.294E-03     672.204E-03    -336.168E-03    -336.613E-03    -336.162E-03     672.198E-03    -336.613E-03     4.05910E-03    -369.533E+03    -2.24516E+06    -4.55290E+06    -2.04617E+06    -3.37574E+06    -1.74568E+06     79.9438E+03         76.6289
             732     712.548E-06     54.3000E-03     662.587E-03    -87.0749E-03    -425.196E-03    -104.771E-03     342.163E-03    -87.0749E-03    -398.222E-03     674.487E-03    -336.653E-03    -337.914E-03    -337.676E-03     674.484E-03    -336.887E-03     1.15710E-03     574.295E+03    -1.85907E+06    -6.84103E+06    -1.29475E+06    -5.47147E+06    -1.35959E+06    -272.497E+03         76.5228
             733     12.1926E-03     54.6328E-03     342.267E-03    -95.1287E-03    -102.617E-03    -100.321E-03     341.295E-03    -96.4523E-03     14.4107E-03     680.865E-03    -332.118E-03    -354.261E-03    -338.901E-03     665.505E-03    -332.118E-03     239.398E-03     13.5065E+06    -534.167E+03    -5.22504E+06     8.90998E+03     8.27251E+06    -534.167E+03    -279.483E+03         93.2796
             734     11.4866E-03     54.0461E-03     340.503E-03    -94.0130E-03    -103.295E-03    -100.367E-03     339.906E-03    -96.3432E-03     5.08488E-03     678.340E-03    -333.100E-03    -352.411E-03    -335.253E-03     661.182E-03    -333.100E-03     258.552E-03     10.1808E+06     65.1967E+03    -5.84808E+06    -571.441E+03     4.58348E+06     385.856E+03    -712.773E+03         90.4582
             735     10.7537E-03     53.6930E-03     339.633E-03    -95.3229E-03    -106.021E-03    -103.639E-03     338.257E-03    -96.3294E-03    -12.0987E-03     667.367E-03    -332.982E-03    -339.614E-03    -328.006E-03     655.759E-03    -332.982E-03     214.576E-03     7.01959E+06    -111.331E+03    -3.48904E+06    -731.296E+03     4.05977E+06     90.7414E+03    -135.578E+03         87.7537
             736     10.0470E-03     53.3208E-03     340.255E-03    -96.2510E-03    -106.015E-03    -104.646E-03     338.885E-03    -96.2510E-03    -9.77835E-03     666.506E-03    -332.575E-03    -338.248E-03    -327.026E-03     655.284E-03    -332.575E-03     210.509E-03     7.96144E+06     941.074E+03    -1.12241E+06    -157.935E+03     7.85236E+06     85.6800E+03    -334.076E+03         85.6513
             737     9.29827E-03     53.0395E-03     337.762E-03    -94.9068E-03    -103.982E-03    -101.959E-03     336.911E-03    -96.0782E-03     7.35834E-03     663.001E-03    -331.518E-03    -334.159E-03    -325.277E-03     654.119E-03    -331.518E-03     187.269E-03     7.16799E+06     402.771E+03    -2.70141E+06    -590.092E+03     5.32738E+06     132.071E+03        -842.506         84.1477
             738     8.58700E-03     52.7851E-03     329.766E-03    -88.3717E-03    -100.253E-03    -91.2880E-03     328.685E-03    -96.2566E-03     11.2545E-03     661.498E-03    -330.459E-03    -331.862E-03    -324.133E-03     653.769E-03    -330.459E-03     174.431E-03     8.56082E+06     143.317E+03    -3.59750E+06    -1.36689E+06     6.77256E+06    -299.042E+03     520.512E+03         83.0015
             739     7.87416E-03     52.5678E-03     324.767E-03    -84.2906E-03    -97.2608E-03    -83.1698E-03     323.646E-03    -97.2608E-03     6.97553E-03     656.902E-03    -327.422E-03    -330.936E-03    -322.073E-03     650.427E-03    -329.810E-03     159.028E-03     11.7061E+06    -163.480E+03    -3.13421E+06    -826.560E+03     10.5260E+06    -1.29104E+06    -631.204E+03         81.9866
             740     7.15556E-03     52.3930E-03     334.627E-03    -92.0905E-03    -100.752E-03    -93.1587E-03     333.291E-03    -98.3473E-03     3.39383E-03     653.415E-03    -324.773E-03    -330.527E-03    -319.547E-03     648.190E-03    -330.527E-03     142.352E-03     11.7112E+06    -2.17519E+06    -3.44109E+06    -594.870E+03     9.08404E+06    -2.39428E+06    -1.24604E+06         81.0749
             741     6.43573E-03     52.2271E-03     353.120E-03    -98.1912E-03    -110.924E-03    -109.189E-03     351.386E-03    -98.1912E-03    -7.50830E-03     652.334E-03    -323.755E-03    -331.920E-03    -319.808E-03     648.387E-03    -331.920E-03     123.409E-03     10.7628E+06    -2.28846E+06    -3.08152E+06    -274.421E+03     8.32690E+06    -2.65962E+06    -713.600E+03         80.3482
             742     5.71831E-03     52.1041E-03     354.109E-03    -96.7127E-03    -114.332E-03    -113.096E-03     352.873E-03    -96.7127E-03    -12.2646E-03     654.934E-03    -323.806E-03    -334.028E-03    -321.206E-03     652.335E-03    -334.028E-03     99.8608E-03     10.4607E+06    -908.857E+03    -2.45251E+06     499.263E+03     8.64852E+06    -2.04841E+06    -680.270E+03         79.7666
             743     5.00379E-03     52.0271E-03     339.608E-03    -89.5882E-03    -103.054E-03    -96.3536E-03     339.082E-03    -95.7629E-03     3.57561E-03     661.138E-03    -325.382E-03    -333.408E-03    -323.924E-03     659.680E-03    -333.408E-03     74.7048E-03     9.77045E+06    -425.005E+03    -2.33279E+06     270.912E+03     8.70282E+06    -1.96108E+06    -155.708E+03         79.1296
             744     4.27066E-03     51.9861E-03     335.698E-03    -81.5683E-03    -97.1572E-03    -80.7124E-03     334.842E-03    -97.1572E-03     12.0736E-03     663.053E-03    -328.565E-03    -331.676E-03    -327.874E-03     662.306E-03    -331.620E-03     53.7258E-03     7.77671E+06     262.636E+03    -2.84832E+06     433.161E+03     6.38524E+06    -1.62738E+06     323.161E+03         78.4501
             745     3.55747E-03     52.0172E-03     348.610E-03    -89.9095E-03    -101.879E-03    -91.0093E-03     347.155E-03    -99.3237E-03     3.93128E-03     661.925E-03    -330.662E-03    -331.881E-03    -330.804E-03     661.554E-03    -331.369E-03     37.5811E-03     3.03451E+06     212.014E+03    -3.01938E+06     176.393E+03     961.071E+03    -910.322E+03     320.211E+03         77.8426
             746     2.84509E-03     52.0678E-03     361.591E-03    -98.5539E-03    -112.741E-03    -110.389E-03     359.239E-03    -98.5539E-03     19.4161E-03     662.078E-03    -331.269E-03    -332.128E-03    -331.575E-03     661.923E-03    -331.666E-03     24.0275E-03     299.822E+03    -967.368E+03    -2.73457E+06    -1.10503E+06    -1.85108E+06    -446.014E+03     227.078E+03         77.3118
             747     2.13550E-03     52.1518E-03     371.439E-03    -93.5989E-03    -126.545E-03    -113.770E-03     358.664E-03    -93.5989E-03    -64.4609E-03     667.048E-03    -333.670E-03    -334.090E-03    -333.756E-03     666.998E-03    -333.955E-03     12.9660E-03     396.397E+03    -1.13125E+06    -2.90744E+06    -1.24495E+06    -2.05198E+06    -345.360E+03     650.468E+03         76.9112
             748     1.42410E-03     52.2666E-03     419.223E-03    -87.3208E-03    -177.155E-03    -98.9725E-03     341.040E-03    -87.3208E-03     167.136E-03     673.023E-03    -336.620E-03    -337.148E-03    -336.788E-03     673.014E-03    -336.971E-03     4.93437E-03     87.6715E+03    -1.92526E+06    -3.67208E+06    -1.72905E+06    -2.61937E+06    -1.16125E+06     403.822E+03         76.6741
             749     710.760E-06     52.3032E-03     661.666E-03    -88.8802E-03    -428.286E-03    -80.3621E-03     313.743E-03    -88.8802E-03    -454.377E-03     675.193E-03    -337.359E-03    -338.129E-03    -337.452E-03     675.189E-03    -338.032E-03     1.18954E-03    -443.878E+03    -2.88951E+06    -8.65542E+06    -2.81014E+06    -6.78863E+06    -2.39003E+06     84.5394E+03         76.5641
             750     12.1915E-03     52.6366E-03     326.815E-03    -87.9520E-03    -97.8747E-03    -88.2706E-03     326.081E-03    -96.8220E-03     14.6865E-03     679.816E-03    -332.269E-03    -352.816E-03    -337.380E-03     664.380E-03    -332.269E-03     239.735E-03     13.9383E+06     637.232E+03    -5.92738E+06     570.637E+03     7.44031E+06     637.232E+03     153.637E+03         93.2589
             751     11.4805E-03     52.0423E-03     324.276E-03    -87.8311E-03    -97.6700E-03    -86.7998E-03     323.245E-03    -97.6700E-03     20.8922E-03     678.909E-03    -333.198E-03    -352.853E-03    -335.695E-03     661.751E-03    -333.198E-03     258.411E-03     11.8470E+06     1.07154E+06    -4.95348E+06     143.967E+03     6.28012E+06     1.54095E+06     444.478E+03         90.4553
             752     10.7540E-03     51.7003E-03     333.966E-03    -93.0894E-03    -102.743E-03    -95.7012E-03     332.237E-03    -98.4026E-03     2.22004E-03     668.316E-03    -333.001E-03    -340.573E-03    -329.237E-03     656.980E-03    -333.001E-03     212.330E-03     9.00945E+06     1.15858E+06    -1.93497E+06    -344.466E+03     6.94954E+06     1.62798E+06     461.606E+03         87.7717
             753     10.0513E-03     51.3182E-03     344.901E-03    -97.0753E-03    -109.326E-03    -106.497E-03     343.476E-03    -98.4804E-03    -1.39681E-03     667.970E-03    -332.587E-03    -339.070E-03    -328.086E-03     656.987E-03    -332.587E-03     208.637E-03     9.56616E+06     1.30805E+06    -434.569E+03    -266.810E+03     9.39840E+06     1.30805E+06    -511.440E+03         85.6756
             754     9.30399E-03     51.0514E-03     349.831E-03    -98.1046E-03    -108.816E-03    -107.218E-03     348.233E-03    -98.1046E-03    -4.58580E-03     663.690E-03    -331.516E-03    -334.392E-03    -325.503E-03     654.801E-03    -331.516E-03     187.458E-03     6.36418E+06     2.12223E+06    -2.12798E+06    -572.740E+03     4.34283E+06     2.58834E+06     85.4583E+03         84.1658
             755     8.58674E-03     50.7894E-03     346.272E-03    -92.1066E-03    -106.528E-03    -99.4130E-03     345.005E-03    -97.9547E-03    -13.5362E-03     659.744E-03    -330.211E-03    -330.853E-03    -322.798E-03     651.932E-03    -330.454E-03     175.091E-03     8.71353E+06     1.63465E+06    -2.59748E+06     312.499E+03     5.35550E+06     2.08270E+06    -2.50312E+03         83.0112
             756     7.87046E-03     50.5847E-03     340.983E-03    -87.3435E-03    -105.932E-03    -94.0897E-03     340.032E-03    -98.2354E-03    -6.83297E-03     655.907E-03    -327.823E-03    -330.149E-03    -321.494E-03     649.287E-03    -329.859E-03     160.721E-03     13.1854E+06    -158.671E+03    -2.05463E+06     971.621E+03     10.3963E+06    -395.820E+03    -844.073E+03         81.9918
             757     7.15177E-03     50.4013E-03     343.318E-03    -92.5284E-03    -102.506E-03    -93.7390E-03     340.639E-03    -98.6167E-03     19.9518E-03     654.520E-03    -326.080E-03    -330.552E-03    -320.704E-03     649.144E-03    -330.552E-03     144.545E-03     12.0055E+06    -318.069E+03    -1.62261E+06     1.15376E+06     9.44821E+06    -537.159E+03     52.7672E+03         81.0850
             758     6.43727E-03     50.2426E-03     347.362E-03    -95.6236E-03    -104.269E-03    -97.5311E-03     343.797E-03    -98.7963E-03     5.67622E-03     652.890E-03    -324.447E-03    -331.892E-03    -320.436E-03     648.879E-03    -331.892E-03     124.461E-03     11.2260E+06    -544.495E+03    -2.33585E+06     414.419E+03     8.84689E+06    -915.658E+03     152.229E+03         80.3668
             759     5.71646E-03     50.1202E-03     347.428E-03    -92.1600E-03    -108.087E-03    -99.9469E-03     345.882E-03    -98.7545E-03    -31.3048E-03     654.387E-03    -323.590E-03    -333.842E-03    -320.935E-03     651.732E-03    -333.842E-03     100.990E-03     9.63836E+06    -1.28854E+06    -3.46867E+06    -926.517E+03     8.09695E+06    -2.28928E+06     185.496E+03         79.7816
             760     5.00166E-03     50.0418E-03     348.089E-03    -89.2604E-03    -107.051E-03    -96.9734E-03     347.645E-03    -98.8935E-03    -12.4328E-03     661.006E-03    -325.578E-03    -333.232E-03    -324.053E-03     659.481E-03    -333.232E-03     76.4454E-03     7.80623E+06    -1.16081E+06    -3.56802E+06    -842.709E+03     7.12546E+06    -3.20536E+06     422.526E+03         79.1325
             761     4.27189E-03     50.0046E-03     346.850E-03    -89.3784E-03    -106.516E-03    -95.3497E-03     345.767E-03    -99.4615E-03     4.95709E-03     663.456E-03    -328.911E-03    -331.929E-03    -328.541E-03     662.687E-03    -331.530E-03     54.3508E-03     6.65784E+06    -169.033E+03    -3.48955E+06     119.476E+03     5.39285E+06    -2.51308E+06     1.08911E+06         78.4406
             762     3.55810E-03     50.0424E-03     344.382E-03    -90.8248E-03    -105.384E-03    -95.0953E-03     343.672E-03    -100.403E-03     18.2509E-03     661.579E-03    -330.518E-03    -331.839E-03    -330.794E-03     661.240E-03    -331.224E-03     35.5070E-03     3.70333E+06     694.736E+03    -2.93232E+06     121.129E+03     1.49906E+06    -154.446E+03     1.78627E+06         77.8406
             763     2.84500E-03     50.0915E-03     350.248E-03    -92.3458E-03    -108.788E-03    -98.3201E-03     348.753E-03    -101.318E-03     31.5303E-03     663.875E-03    -332.107E-03    -333.259E-03    -332.207E-03     663.760E-03    -333.043E-03     20.3618E-03     1.67083E+06     615.511E+03    -2.19401E+06    -528.931E+03    -712.922E+03     1.33419E+06     1.40330E+06         77.3527
             764     2.13091E-03     50.1737E-03     365.399E-03    -96.2389E-03    -121.936E-03    -105.518E-03     353.292E-03    -100.549E-03    -64.2973E-03     670.511E-03    -335.037E-03    -336.278E-03    -335.134E-03     670.477E-03    -336.147E-03     10.3500E-03     1.46538E+06     506.700E+03    -1.16334E+06    -161.396E+03    -495.240E+03     1.46538E+06     389.737E+03         76.9846
             765     1.42096E-03     50.2838E-03     395.032E-03    -97.8809E-03    -155.664E-03    -102.194E-03     341.562E-03    -97.8809E-03     107.123E-03     675.152E-03    -337.563E-03    -338.338E-03    -337.733E-03     675.145E-03    -338.161E-03     4.29284E-03    -24.4616E+03    -1.39365E+06    -3.24429E+06    -1.00783E+06    -2.58082E+06    -1.07376E+06     54.6163E+03         76.7401
             766     711.894E-06     50.3299E-03     611.092E-03    -103.745E-03    -368.047E-03    -85.8598E-03     328.905E-03    -103.745E-03    -439.432E-03     676.762E-03    -338.133E-03    -339.114E-03    -338.476E-03     676.759E-03    -338.768E-03     1.17375E-03     148.252E+03    -2.07404E+06    -7.68534E+06    -1.65740E+06    -5.87968E+06    -2.07404E+06     552.841E+03         76.6170
             767     12.1875E-03     50.6487E-03     334.676E-03    -90.2629E-03    -98.4874E-03    -90.7905E-03     334.526E-03    -97.8093E-03    -2.40325E-03     679.715E-03    -332.322E-03    -352.791E-03    -337.755E-03     664.678E-03    -332.322E-03     236.831E-03     13.6592E+06    -437.976E+03    -6.16821E+06     287.714E+03     7.24588E+06    -480.548E+03     640.615E+03         93.2659
             768     11.4841E-03     50.0552E-03     337.196E-03    -90.8374E-03    -100.741E-03    -92.5881E-03     336.551E-03    -98.3462E-03     15.6601E-03     678.156E-03    -333.150E-03    -352.671E-03    -335.975E-03     661.460E-03    -333.150E-03     254.947E-03     10.7191E+06     2.09370E+06    -5.46398E+06    -301.029E+03     7.12785E+06     521.998E+03    -226.980E+03         90.4709
             769     10.7550E-03     49.7100E-03     337.789E-03    -91.4073E-03    -100.782E-03    -92.4419E-03     336.699E-03    -98.6584E-03     506.760E-06     667.693E-03    -332.934E-03    -340.414E-03    -329.186E-03     656.464E-03    -332.934E-03     211.198E-03     8.22567E+06     2.53189E+06    -2.26599E+06     562.824E+03     6.96855E+06     960.191E+03    -1.11137E+06         87.7904
             770     10.0493E-03     49.3366E-03     339.318E-03    -92.1793E-03    -101.658E-03    -93.5727E-03     337.926E-03    -98.8735E-03     8.41614E-03     667.579E-03    -332.579E-03    -339.075E-03    -327.930E-03     656.434E-03    -332.579E-03     210.231E-03     9.42284E+06     309.083E+03    -499.961E+03     70.2213E+03     8.85266E+06     309.083E+03     449.453E+03         85.6873
             771     9.30035E-03     49.0597E-03     347.163E-03    -96.6530E-03    -102.267E-03    -97.8787E-03     345.119E-03    -98.9977E-03    -3.55389E-03     663.439E-03    -331.514E-03    -334.516E-03    -325.319E-03     654.252E-03    -331.524E-03     190.554E-03     7.54979E+06     587.023E+03    -2.01980E+06     252.588E+03     5.56684E+06     297.578E+03    -178.390E+03         84.1711
             772     8.58563E-03     48.8138E-03     353.402E-03    -98.8296E-03    -103.965E-03    -102.772E-03     352.208E-03    -98.8296E-03    -28.4069E-03     660.190E-03    -330.277E-03    -330.937E-03    -322.667E-03     652.172E-03    -330.530E-03     177.392E-03     8.68197E+06    -30.5199E+03    -2.83296E+06     642.707E+03     5.51380E+06    -338.024E+03    -1.11384E+06         83.0198
             773     7.86853E-03     48.5982E-03     354.093E-03    -96.9820E-03    -106.353E-03    -104.180E-03     353.311E-03    -98.3726E-03    -21.1120E-03     656.835E-03    -328.489E-03    -330.369E-03    -322.189E-03     650.149E-03    -329.983E-03     161.623E-03     11.5357E+06    -774.885E+03    -2.49817E+06     30.7184E+03     9.02490E+06    -792.945E+03    -346.139E+03         82.0053
             774     7.15229E-03     48.4142E-03     348.126E-03    -95.7133E-03    -103.120E-03    -97.9618E-03     345.403E-03    -98.1486E-03     17.3104E-03     655.012E-03    -326.612E-03    -330.610E-03    -321.326E-03     649.726E-03    -330.610E-03     143.325E-03     11.3608E+06    -551.890E+03    -2.49536E+06    -369.191E+03     9.23463E+06    -551.890E+03     121.893E+03         81.1025
             775     6.43483E-03     48.2554E-03     340.587E-03    -95.2992E-03    -100.320E-03    -94.0772E-03     337.516E-03    -98.4719E-03     12.7612E-03     653.172E-03    -324.683E-03    -331.971E-03    -320.811E-03     649.301E-03    -331.971E-03     122.341E-03     10.3685E+06    -179.294E+03    -2.70074E+06    -79.0885E+03     8.41956E+06    -852.046E+03     749.984E+03         80.3932
             776     5.71708E-03     48.1332E-03     341.720E-03    -92.4816E-03    -101.443E-03    -93.6914E-03     340.564E-03    -99.0761E-03    -20.0273E-03     654.443E-03    -323.628E-03    -333.936E-03    -321.041E-03     651.856E-03    -333.936E-03     99.7217E-03     8.85172E+06     400.019E+03    -2.24296E+06     233.763E+03     7.67732E+06    -902.311E+03     689.061E+03         79.8140
             777     5.00175E-03     48.0558E-03     348.340E-03    -94.7592E-03    -106.616E-03    -101.095E-03     347.285E-03    -99.2256E-03    -20.2876E-03     660.507E-03    -324.920E-03    -333.193E-03    -323.422E-03     659.010E-03    -333.193E-03     75.7182E-03     7.96379E+06     991.173E+03    -1.22926E+06     622.636E+03     6.56536E+06     537.716E+03     710.780E+03         79.1599
             778     4.26804E-03     48.0162E-03     345.921E-03    -98.3456E-03    -107.615E-03    -106.529E-03     344.836E-03    -98.3456E-03    -22.0313E-03     663.992E-03    -328.988E-03    -332.104E-03    -328.834E-03     663.227E-03    -331.494E-03     54.2489E-03     6.29188E+06     2.28496E+06    -1.33747E+06     623.144E+03     3.65603E+06     2.96020E+06     1.92096E+06         78.4584
             779     3.55918E-03     48.0535E-03     336.179E-03    -92.8855E-03    -103.663E-03    -98.8069E-03     335.985E-03    -97.5477E-03     7.61366E-03     662.460E-03    -330.883E-03    -332.224E-03    -331.874E-03     662.109E-03    -330.883E-03     36.2903E-03     4.99284E+06     2.40347E+06    -1.92507E+06    -285.063E+03     2.77382E+06     2.98247E+06     2.22989E+06         77.8476
             780     2.84846E-03     48.1061E-03     328.587E-03    -86.4014E-03    -101.063E-03    -87.4864E-03     327.595E-03    -98.9856E-03     21.9721E-03     663.651E-03    -331.895E-03    -333.299E-03    -332.636E-03     663.527E-03    -332.434E-03     20.9462E-03     5.02954E+06     465.869E+03    -2.15999E+06    -1.30012E+06     3.97235E+06     663.191E+03     1.08202E+06         77.3541
             781     2.13550E-03     48.1840E-03     338.687E-03    -95.1445E-03    -107.845E-03    -87.3883E-03     326.440E-03    -103.354E-03    -78.4424E-03     669.655E-03    -334.569E-03    -335.973E-03    -334.674E-03     669.625E-03    -335.839E-03     9.29270E-03     2.28693E+06    -777.275E+03    -2.43198E+06    -1.45512E+06     706.418E+03    -173.632E+03     247.236E+03         76.9855
             782     1.42177E-03     48.3022E-03     376.198E-03    -109.910E-03    -134.800E-03    -94.5893E-03     336.274E-03    -110.198E-03     68.4434E-03     674.432E-03    -336.977E-03    -338.152E-03    -336.974E-03     674.429E-03    -338.152E-03     2.50818E-03     655.170E+03    -177.336E+03    -2.93500E+06    -863.500E+03    -1.90254E+06     308.876E+03     169.862E+03         76.7371
             783     709.407E-06     48.3390E-03     542.944E-03    -124.638E-03    -276.873E-03    -102.538E-03     368.608E-03    -124.638E-03    -309.373E-03     677.028E-03    -337.875E-03    -339.466E-03    -339.017E-03     677.024E-03    -338.320E-03    -26.4390E-06     1.02086E+06    -453.130E+03    -6.35270E+06    -751.876E+03    -4.57997E+06    -453.130E+03    -35.9868E+03         76.6109
             784     12.1947E-03     48.6600E-03     362.059E-03    -99.0009E-03    -108.991E-03    -108.808E-03     361.876E-03    -99.0009E-03    -16.9004E-03     681.139E-03    -332.175E-03    -354.571E-03    -339.411E-03     665.979E-03    -332.175E-03     237.883E-03     11.9214E+06    -2.52945E+06    -7.73658E+06    -1.23781E+06     6.37417E+06    -3.48096E+06    -962.795E+03         93.2839
             785     11.4852E-03     48.0740E-03     357.912E-03    -98.6946E-03    -106.111E-03    -105.980E-03     357.781E-03    -98.6946E-03    -4.53737E-03     678.403E-03    -333.043E-03    -353.208E-03    -336.245E-03     661.439E-03    -333.043E-03     257.258E-03     8.87737E+06     849.179E+03    -4.02094E+06     984.539E+03     6.88530E+06    -2.16423E+06    -375.837E+03         90.4807
             786     10.7544E-03     47.7261E-03     348.582E-03    -95.5829E-03    -104.589E-03    -101.357E-03     348.294E-03    -98.5273E-03    -10.9883E-03     666.883E-03    -332.899E-03    -340.042E-03    -328.608E-03     655.448E-03    -332.899E-03     213.034E-03     6.53316E+06     494.631E+03    -2.73491E+06     535.182E+03     5.96168E+06    -2.20398E+06     595.489E+03         87.7810
             787     10.0478E-03     47.3576E-03     345.732E-03    -93.2816E-03    -104.348E-03    -97.6586E-03     344.332E-03    -98.5706E-03     20.7087E-03     665.997E-03    -332.623E-03    -338.288E-03    -327.079E-03     654.788E-03    -332.623E-03     210.525E-03     8.04694E+06    -1.37730E+06    -3.21889E+06     278.749E+03     6.11637E+06    -2.94437E+06      28.783E+03         85.6689
             788     9.29788E-03     47.0763E-03     347.501E-03    -96.2985E-03    -102.301E-03    -98.0744E-03     345.619E-03    -98.6431E-03     10.5588E-03     662.593E-03    -331.462E-03    -334.057E-03    -324.921E-03     653.535E-03    -331.541E-03     189.035E-03     10.4759E+06    -2.44277E+06    -3.84920E+06     656.173E+03     7.23285E+06    -3.70514E+06    -259.769E+03         84.1592
             789     8.57997E-03     46.8292E-03     346.254E-03    -96.1655E-03    -100.609E-03    -97.3267E-03     345.517E-03    -98.7113E-03    -19.3234E-03     661.357E-03    -330.525E-03    -331.505E-03    -323.617E-03     653.549E-03    -330.604E-03     175.222E-03     10.5251E+06    -1.75987E+06    -3.54580E+06     231.422E+03     7.71106E+06    -2.72305E+06     270.674E+03         83.0226
             790     7.86818E-03     46.6107E-03     344.237E-03    -94.0556E-03    -99.3742E-03    -93.6069E-03     343.505E-03    -99.0909E-03    -20.1491E-03     658.174E-03    -328.918E-03    -330.955E-03    -323.270E-03     651.625E-03    -330.054E-03     160.152E-03     10.2988E+06    -250.870E+03    -2.58516E+06     231.065E+03     8.15630E+06    -924.607E+03     528.601E+03         82.0188
             791     7.15191E-03     46.4295E-03     345.791E-03    -97.0574E-03    -102.721E-03    -98.4280E-03     343.988E-03    -99.5469E-03     8.06045E-03     654.813E-03    -326.384E-03    -330.595E-03    -321.160E-03     649.589E-03    -330.595E-03     142.484E-03     11.9130E+06    -100.605E+03    -1.81365E+06     109.806E+03     9.98955E+06    -100.605E+03     348.784E+03         81.1110
             792     6.43688E-03     46.2720E-03     348.753E-03    -99.6165E-03    -103.341E-03    -101.854E-03     347.266E-03    -99.6165E-03     13.7930E-03     652.959E-03    -324.458E-03    -331.989E-03    -320.562E-03     649.062E-03    -331.989E-03     122.758E-03     9.53927E+06     1.39022E+06    -1.61393E+06     403.701E+03     8.19440E+06     717.463E+03     10.2038E+03         80.3977
             793     5.71754E-03     46.1514E-03     347.691E-03    -99.2387E-03    -102.164E-03    -101.483E-03     347.225E-03    -99.4535E-03    -7.19451E-03     654.934E-03    -324.133E-03    -333.984E-03    -321.510E-03     652.312E-03    -333.984E-03     100.363E-03     8.99495E+06     3.13729E+06    -228.845E+03     1.28219E+06     8.15667E+06     2.46454E+06     144.831E+03         79.8271
             794     5.00329E-03     46.0799E-03     344.625E-03    -98.9130E-03    -103.738E-03    -102.796E-03     343.899E-03    -99.1278E-03    -5.53604E-03     660.860E-03    -325.237E-03    -333.243E-03    -323.708E-03     659.330E-03    -333.243E-03     76.7258E-03     8.16701E+06     2.82359E+06     4.78750E+03     700.947E+03     6.23395E+06     4.06049E+06     777.895E+03         79.1725
             795     4.27070E-03     46.0347E-03     343.431E-03    -97.3986E-03    -101.977E-03    -99.8943E-03     342.756E-03    -98.8062E-03    -21.1642E-03     663.509E-03    -328.659E-03    -331.857E-03    -328.065E-03     662.704E-03    -331.645E-03     55.5101E-03     4.61629E+06     2.86228E+06    -1.83070E+06    -251.397E+03     1.38755E+06     4.51171E+06     1.15655E+06         78.4625
             796     3.55752E-03     46.0629E-03     344.289E-03    -96.9390E-03    -103.465E-03    -101.583E-03     343.814E-03    -98.3466E-03     11.5319E-03     661.880E-03    -330.570E-03    -331.832E-03    -331.085E-03     661.508E-03    -330.946E-03     37.6403E-03     7.07604E+06     2.69608E+06    -1.21877E+06    -38.4885E+03     5.48323E+06     3.10862E+06     973.999E+03         77.8480
             797     2.84584E-03     46.1237E-03     340.233E-03    -93.5460E-03    -107.673E-03    -103.375E-03     339.547E-03    -97.1577E-03     7.67772E-03     663.181E-03    -331.729E-03    -332.604E-03    -332.457E-03     663.034E-03    -331.729E-03     23.1962E-03     8.75742E+06     1.75088E+06     451.805E+03     608.358E+03     7.91773E+06     2.43402E+06     245.184E+03         77.3448
             798     2.13444E-03     46.2022E-03     340.932E-03    -92.1437E-03    -107.726E-03    -98.8790E-03     335.985E-03    -96.0427E-03    -58.3183E-03     668.147E-03    -334.075E-03    -334.779E-03    -334.434E-03     668.106E-03    -334.378E-03     11.8550E-03     3.74875E+06     146.871E+03    -1.10934E+06    -566.766E+03     2.06486E+06     1.28819E+06     162.841E+03         76.9624
             799     1.42369E-03     46.3173E-03     353.836E-03    -96.6777E-03    -112.993E-03    -93.6810E-03     334.812E-03    -96.9650E-03     56.9525E-03     672.882E-03    -336.453E-03    -337.269E-03    -336.685E-03     672.874E-03    -337.029E-03     4.29464E-03     775.822E+03    -489.766E+03    -2.85893E+06    -759.298E+03    -1.78200E+06    -31.5786E+03     253.525E+03         76.7085
             800     712.816E-06     46.3547E-03     417.848E-03    -109.537E-03    -165.332E-03    -90.5185E-03     343.034E-03    -109.537E-03    -151.112E-03     675.759E-03    -337.315E-03    -338.573E-03    -338.195E-03     675.755E-03    -337.688E-03     198.413E-06     802.146E+03    -1.12573E+06    -6.85249E+06    -442.590E+03    -5.60775E+06    -1.12573E+06    -14.6637E+03         76.5847
             801     12.1879E-03     46.6692E-03     360.009E-03    -99.6623E-03    -109.772E-03    -108.727E-03     359.653E-03    -100.351E-03    -18.0239E-03     680.741E-03    -332.089E-03    -354.066E-03    -338.895E-03     665.571E-03    -332.089E-03     237.910E-03     12.9865E+06    -1.30984E+06    -5.94171E+06     1.23062E+06     6.72311E+06    -2.21879E+06     453.206E+03         93.2918
             802     11.4826E-03     46.0931E-03     355.810E-03    -100.335E-03    -108.740E-03    -108.630E-03     355.700E-03    -100.335E-03    -8.90002E-03     678.521E-03    -333.051E-03    -353.292E-03    -336.399E-03     661.627E-03    -333.051E-03     256.564E-03     7.83502E+06    -458.654E+03    -3.46786E+06     -54.365E+03     6.46439E+06    -2.50151E+06     1.34530E+06         90.4809
             803     10.7551E-03     45.7530E-03     356.795E-03    -100.269E-03    -110.669E-03    -110.571E-03     356.696E-03    -100.269E-03    -10.8082E-03     667.123E-03    -332.893E-03    -340.281E-03    -328.899E-03     655.741E-03    -332.893E-03     212.535E-03      7.0578E+06    -340.629E+03    -3.12764E+06     192.465E+03     6.15325E+06    -2.75617E+06     810.142E+03         87.7744
             804     10.0460E-03     45.3770E-03     357.331E-03    -100.050E-03    -110.349E-03    -109.530E-03     356.512E-03    -100.050E-03     22.3694E-03     665.966E-03    -332.626E-03    -338.055E-03    -327.004E-03     654.916E-03    -332.626E-03     208.865E-03     9.04978E+06    -840.025E+03    -3.95072E+06     391.959E+03     6.96165E+06    -3.09458E+06    -65.7628E+03         85.6580
             805     9.29693E-03     45.1028E-03     349.718E-03    -96.2580E-03    -104.870E-03    -100.050E-03     348.793E-03    -100.152E-03     14.3586E-03     662.304E-03    -331.186E-03    -333.681E-03    -324.600E-03     653.565E-03    -331.527E-03     185.635E-03     11.2594E+06    -253.577E+03    -4.67422E+06     923.250E+03     6.63489E+06    -1.22650E+06    -159.064E+03         84.1422
             806     8.58399E-03     44.8399E-03     345.395E-03    -93.6167E-03    -102.221E-03    -94.6579E-03     345.098E-03    -100.882E-03     725.845E-06     660.695E-03    -330.187E-03    -331.187E-03    -323.251E-03     653.100E-03    -330.529E-03     172.768E-03     11.3318E+06    -533.974E+03    -3.81668E+06     1.22709E+06     6.97911E+06    -1.22510E+06     628.580E+03         83.0038
             807     7.86825E-03     44.6284E-03     351.644E-03    -97.0325E-03    -107.860E-03    -102.936E-03     351.190E-03    -101.503E-03    -4.88379E-03     657.449E-03    -328.691E-03    -330.654E-03    -322.886E-03     650.985E-03    -329.995E-03     159.068E-03     11.9893E+06    -581.920E+03    -2.20016E+06     1.23693E+06     9.73320E+06    -1.76286E+06     788.845E+03         82.0026
             808     7.15278E-03     44.4396E-03     354.021E-03    -97.3055E-03    -109.457E-03    -104.402E-03     353.227E-03    -101.567E-03     4.44545E-03     654.389E-03    -325.996E-03    -330.585E-03    -320.743E-03     649.136E-03    -330.585E-03     142.868E-03     12.7316E+06     1.28576E+06    -301.262E+03     2.19662E+06     10.7235E+06     795.956E+03     195.213E+03         81.0983
             809     6.43344E-03     44.2878E-03     349.171E-03    -95.3571E-03    -103.792E-03    -96.6301E-03     348.568E-03    -101.917E-03     16.9112E-03     652.672E-03    -324.121E-03    -331.992E-03    -320.129E-03     648.679E-03    -331.992E-03     124.285E-03     10.3343E+06     3.21947E+06     776.631E+03     2.15402E+06     8.95686E+06     3.21947E+06    -102.063E+03         80.3942
             810     5.71567E-03     44.1606E-03     347.041E-03    -98.9979E-03    -102.991E-03    -99.1858E-03     346.886E-03    -102.647E-03    -1.26131E-03     655.331E-03    -324.324E-03    -334.146E-03    -321.618E-03     652.624E-03    -334.146E-03     101.956E-03     8.72193E+06     4.35128E+06     677.350E+03     1.84676E+06     7.55253E+06     4.35128E+06     48.8352E+03         79.8398
             811     5.00259E-03     44.0956E-03     352.440E-03    -101.794E-03    -104.051E-03    -102.593E-03     352.283E-03    -103.095E-03     10.6742E-03     661.504E-03    -325.889E-03    -333.440E-03    -324.307E-03     659.922E-03    -333.440E-03     78.1730E-03     7.68793E+06     4.61675E+06     529.445E+03     1.94288E+06     5.57439E+06     5.31685E+06     320.427E+03         79.1992
             812     4.26868E-03     44.0497E-03     358.859E-03    -100.788E-03    -106.310E-03    -103.063E-03     358.068E-03    -103.244E-03    -14.7569E-03     663.512E-03    -328.988E-03    -331.753E-03    -328.141E-03     662.665E-03    -331.753E-03     57.0069E-03     5.25891E+06     3.80650E+06    -184.040E+03     1.34030E+06     2.28216E+06     5.25891E+06    -708.565E+03         78.4983
             813     3.55575E-03     44.0828E-03     361.596E-03    -101.469E-03    -110.287E-03    -106.439E-03     359.155E-03    -102.876E-03     16.4830E-03     662.117E-03    -331.097E-03    -331.708E-03    -330.871E-03     661.732E-03    -331.548E-03     38.1744E-03     7.69521E+06     3.00027E+06     792.086E+03     1.57269E+06     6.16230E+06     3.75257E+06    -1.01437E+06         77.8935
             814     2.84400E-03     44.1274E-03     364.352E-03    -101.085E-03    -114.783E-03    -111.435E-03     361.004E-03    -101.085E-03     2.56657E-03     665.519E-03    -333.135E-03    -333.435E-03    -333.218E-03     665.377E-03    -333.209E-03     22.7089E-03     8.21232E+06     2.08997E+06     581.206E+03     1.74535E+06     7.34654E+06     1.79160E+06     52.0679E+03         77.3966
             815     2.13360E-03     44.2177E-03     363.617E-03    -96.5899E-03    -111.534E-03    -108.736E-03     361.802E-03    -97.5720E-03    -32.3944E-03     670.921E-03    -335.416E-03    -335.913E-03    -335.801E-03     670.882E-03    -335.489E-03     11.9226E-03     4.70244E+06     2.30564E+06    -725.665E+03     2.03872E+06     2.01934E+06     2.22436E+06     604.902E+03         77.0121
             816     1.42251E-03     44.3285E-03     357.127E-03    -91.5381E-03    -103.668E-03    -98.2665E-03     354.220E-03    -94.0325E-03     51.5371E-03     673.995E-03    -337.047E-03    -337.710E-03    -337.436E-03     673.985E-03    -337.313E-03     5.60044E-03     2.35492E+06     1.08099E+06    -2.01074E+06     792.507E+03    -1.04115E+06     1.67381E+06     861.608E+03         76.7510
             817     711.382E-06     44.3691E-03     359.957E-03    -90.4643E-03    -112.414E-03    -85.3453E-03     340.850E-03    -98.4261E-03    -65.4698E-03     676.111E-03    -337.676E-03    -338.539E-03    -337.712E-03     676.108E-03    -338.500E-03     2.15571E-03     937.958E+03    -1.22181E+06    -6.30900E+06    -1.20785E+06    -5.18510E+06    -199.904E+03     279.521E+03         76.6190
             818     12.1941E-03     44.6977E-03     344.433E-03    -98.6088E-03    -102.368E-03    -98.2156E-03     343.931E-03    -102.259E-03    -1.89876E-03     680.924E-03    -332.089E-03    -354.654E-03    -339.482E-03     665.752E-03    -332.089E-03     238.056E-03     10.3433E+06    -837.533E+03    -4.94682E+06     1.02924E+06     5.30669E+06    -1.77696E+06     658.800E+03         93.3115
             819     11.4851E-03     44.1211E-03     354.190E-03    -102.221E-03    -109.083E-03    -108.285E-03     353.909E-03    -102.739E-03     6.61995E-03     678.778E-03    -333.030E-03    -353.847E-03    -337.000E-03     661.932E-03    -333.030E-03     256.228E-03     6.95936E+06     118.567E+03    -3.25528E+06     34.3262E+03     6.44872E+06    -2.66040E+06     191.135E+03         90.5127
             820     10.7554E-03     43.7739E-03     360.781E-03    -100.815E-03    -112.220E-03    -110.178E-03     360.722E-03    -102.798E-03    -8.14034E-03     667.858E-03    -332.814E-03    -340.948E-03    -329.712E-03     656.622E-03    -332.814E-03     211.365E-03     8.08682E+06     314.267E+03    -2.52167E+06     729.425E+03     7.36274E+06    -2.21275E+06     340.031E+03         87.8111
             821     10.0504E-03     43.3968E-03     357.352E-03    -99.0929E-03    -107.532E-03    -103.441E-03     357.179E-03    -103.011E-03     8.35784E-03     666.258E-03    -332.441E-03    -337.896E-03    -327.022E-03     655.384E-03    -332.441E-03     207.249E-03     10.4543E+06     1.18978E+06    -737.587E+03     1.44490E+06     9.03415E+06     427.478E+03     448.890E+03         85.6769
             822     9.30175E-03     43.1135E-03     351.705E-03    -95.8378E-03    -105.131E-03    -96.8084E-03     351.340E-03    -103.796E-03    -2.99229E-03     661.413E-03    -330.600E-03    -333.295E-03    -323.818E-03     652.676E-03    -331.340E-03     185.503E-03     10.7561E+06     2.09092E+06    -2.90573E+06     1.12720E+06     6.79803E+06     2.01610E+06     102.301E+03         84.1317
             823     8.58300E-03     42.8582E-03     355.917E-03    -97.8108E-03    -109.921E-03    -101.877E-03     354.723E-03    -104.659E-03     14.3840E-03     659.021E-03    -329.667E-03    -330.682E-03    -322.013E-03     651.222E-03    -330.537E-03     174.841E-03     11.8918E+06     2.47001E+06    -4.62816E+06     1.18791E+06     6.09314E+06     2.45262E+06    -723.038E+03         82.9770
             824     7.86833E-03     42.6359E-03     363.795E-03    -100.969E-03    -116.478E-03    -111.249E-03     362.457E-03    -104.859E-03     9.46215E-03     656.352E-03    -328.394E-03    -330.252E-03    -321.836E-03     649.649E-03    -330.107E-03     161.789E-03     13.3165E+06     2.23574E+06    -2.86858E+06     1.55958E+06     9.39551E+06     1.72854E+06    -99.9156E+03         81.9754
             825     7.14964E-03     42.4569E-03     359.709E-03    -97.7393E-03    -111.360E-03    -103.549E-03     359.160E-03    -105.002E-03    -10.2776E-03     654.880E-03    -326.276E-03    -330.628E-03    -320.912E-03     649.516E-03    -330.628E-03     144.336E-03     12.5338E+06     800.139E+03    -1.66150E+06     711.530E+03     10.6505E+06     310.330E+03     386.342E+03         81.0855
             826     6.43320E-03     42.3013E-03     353.731E-03    -98.1730E-03    -107.730E-03    -99.8774E-03     353.475E-03    -105.769E-03     15.2379E-03     653.322E-03    -324.615E-03    -331.998E-03    -320.675E-03     649.382E-03    -331.998E-03     123.451E-03     11.1182E+06     674.384E+03    -428.940E+03     1.15896E+06     9.94604E+06     258.635E+03     70.9501E+03         80.4062
             827     5.71418E-03     42.1788E-03     356.521E-03    -101.250E-03    -108.525E-03    -103.121E-03     356.430E-03    -106.564E-03     2.32935E-03     655.246E-03    -323.901E-03    -334.213E-03    -321.273E-03     652.618E-03    -334.213E-03     100.523E-03     8.47180E+06     1.48004E+06    -637.846E+03     1.27739E+06     7.16997E+06     866.635E+03    -136.633E+03         79.8736
             828     4.99845E-03     42.1000E-03     361.235E-03    -104.175E-03    -107.533E-03    -103.800E-03     360.467E-03    -107.140E-03     19.3478E-03     661.677E-03    -325.700E-03    -333.724E-03    -324.188E-03     660.164E-03    -333.724E-03     76.1963E-03     6.86965E+06     2.18358E+06    -828.024E+03     1.10886E+06     5.44570E+06     1.67065E+06    -709.015E+03         79.2526
             829     4.26643E-03     42.0670E-03     365.646E-03    -106.242E-03    -112.269E-03    -108.919E-03     363.344E-03    -107.291E-03    -14.3628E-03     664.928E-03    -329.806E-03    -332.297E-03    -329.116E-03     664.148E-03    -332.206E-03     54.8748E-03     6.50258E+06     2.36931E+06    -680.577E+03     1.44968E+06     5.00047E+06     1.74115E+06    -1.19996E+06         78.5755
             830     3.55470E-03     42.0889E-03     369.747E-03    -106.775E-03    -114.914E-03    -110.328E-03     365.161E-03    -106.775E-03     15.1507E-03     664.172E-03    -332.302E-03    -332.546E-03    -332.112E-03     663.814E-03    -332.378E-03     36.6736E-03     5.73142E+06     1.45351E+06    -910.066E+03     918.839E+03     4.06850E+06     1.28753E+06    -1.10785E+06         77.9886
             831     2.84277E-03     42.1438E-03     368.168E-03    -103.232E-03    -112.697E-03    -102.305E-03     361.408E-03    -106.865E-03    -4.24826E-03     665.079E-03    -332.966E-03    -333.395E-03    -332.917E-03     664.953E-03    -333.317E-03     21.5114E-03      5.5932E+06     1.37113E+06    -1.71297E+06     47.0960E+03     4.66773E+06     536.530E+03     142.691E+03         77.4920
             832     2.13100E-03     42.2140E-03     367.201E-03    -103.194E-03    -113.785E-03    -103.665E-03     361.696E-03    -107.808E-03    -20.9005E-03     671.570E-03    -335.773E-03    -336.324E-03    -335.939E-03     671.534E-03    -336.123E-03     11.1631E-03     3.65522E+06     1.07119E+06    -3.25773E+06    -299.075E+03     1.48832E+06     279.442E+03     597.290E+03         77.1013
             833     1.42148E-03     42.3388E-03     371.632E-03    -105.193E-03    -116.576E-03    -109.134E-03     366.685E-03    -107.687E-03     22.0462E-03     676.742E-03    -338.506E-03    -338.988E-03    -338.716E-03     676.735E-03    -338.771E-03     4.59344E-03     2.82783E+06     1.39900E+06    -1.95429E+06     1.18160E+06    -873.535E+03     1.96448E+06    -117.037E+03         76.8342
             834     709.967E-06     42.3791E-03     378.978E-03    -99.8824E-03    -119.733E-03    -98.5786E-03     372.483E-03    -114.542E-03    -30.5091E-03     677.443E-03    -337.572E-03    -340.117E-03    -339.393E-03     677.442E-03    -338.296E-03     471.283E-06     3.35100E+06     1.00908E+06    -3.02750E+06     1.43000E+06    -2.12841E+06     2.03099E+06    -63.1074E+03         76.6901
             835     12.1889E-03     42.7102E-03     351.964E-03    -100.827E-03    -106.492E-03    -103.177E-03     351.610E-03    -103.788E-03     12.4169E-03     681.060E-03    -332.099E-03    -354.982E-03    -339.784E-03     665.862E-03    -332.099E-03     238.132E-03     7.33435E+06    -1.05197E+06    -4.45591E+06    -485.168E+03     4.55023E+06    -2.23860E+06    -150.694E+03         93.3309
             836     11.4823E-03     42.1297E-03     358.080E-03    -97.4200E-03    -108.537E-03    -101.624E-03     357.718E-03    -103.970E-03     6.81401E-03     679.900E-03    -333.068E-03    -354.658E-03    -337.738E-03     662.981E-03    -333.068E-03     256.993E-03     8.14752E+06     1.21790E+06    -938.440E+03     1.03287E+06     7.88908E+06    -494.974E+03     41.5878E+03         90.5349
             837     10.7559E-03     41.7899E-03     355.251E-03    -92.6262E-03    -107.410E-03    -95.3733E-03     355.038E-03    -104.450E-03    -17.8080E-03     668.515E-03    -332.866E-03    -341.145E-03    -329.748E-03     657.119E-03    -332.866E-03     212.854E-03     9.35471E+06     1.23353E+06    -310.861E+03     803.634E+03     9.03222E+06     441.522E+03    -17.5508E+03         87.8291
             838     10.0504E-03     41.4158E-03     353.304E-03    -93.0096E-03    -105.421E-03    -92.8710E-03     353.166E-03    -105.421E-03    -8.42298E-03     666.422E-03    -332.442E-03    -338.059E-03    -326.796E-03     655.159E-03    -332.442E-03     210.996E-03     9.97846E+06     1.07440E+06    -375.493E+03     845.011E+03     8.91915E+06     913.197E+03     536.617E+03         85.6852
             839     9.29966E-03     41.1394E-03     356.443E-03    -97.6500E-03    -107.806E-03    -98.7815E-03     356.166E-03    -106.398E-03    -14.3309E-03     661.729E-03    -330.837E-03    -333.718E-03    -324.147E-03     652.626E-03    -331.304E-03     189.373E-03     9.87657E+06     840.693E+03    -1.77950E+06     210.534E+03     7.96135E+06     765.873E+03     345.871E+03         84.1344
             840     8.58194E-03     40.8782E-03     361.785E-03    -101.086E-03    -113.559E-03    -106.107E-03     360.137E-03    -106.890E-03     20.3481E-03     659.941E-03    -330.006E-03    -331.152E-03    -322.642E-03     652.030E-03    -330.604E-03     176.184E-03     9.77835E+06     1.95731E+06    -3.73363E+06     222.448E+03     5.82227E+06     1.95731E+06    -234.423E+03         82.9775
             841     7.86307E-03     40.6632E-03     362.018E-03    -99.0146E-03    -112.586E-03    -101.646E-03     359.389E-03    -107.325E-03     4.60734E-03     657.010E-03    -328.227E-03    -330.587E-03    -321.970E-03     650.415E-03    -330.249E-03     160.480E-03     11.3147E+06     2.60140E+06    -4.13273E+06     319.333E+03     6.86262E+06     2.60140E+06    -581.189E+03         81.9742
             842     7.14805E-03     40.4736E-03     361.152E-03    -102.277E-03    -110.249E-03    -103.331E-03     359.905E-03    -107.948E-03    -31.9441E-03     654.692E-03    -325.963E-03    -330.662E-03    -320.776E-03     649.506E-03    -330.662E-03     141.876E-03     12.8019E+06     1.70947E+06    -1.64017E+06     625.115E+03     10.5366E+06     1.70947E+06    -207.479E+03         81.0866
             843     6.43153E-03     40.3225E-03     365.207E-03    -107.014E-03    -112.469E-03    -111.372E-03     365.146E-03    -108.050E-03     6.17090E-03     653.716E-03    -324.978E-03    -332.014E-03    -321.132E-03     649.871E-03    -332.014E-03     122.064E-03     10.5141E+06     258.835E+03    -1.39195E+06    -30.9340E+03     9.56887E+06    -156.913E+03     195.349E+03         80.4169
             844     5.71544E-03     40.2007E-03     363.078E-03    -103.907E-03    -110.169E-03    -105.037E-03     362.090E-03    -108.051E-03    -16.6436E-03     655.918E-03    -324.607E-03    -334.311E-03    -322.011E-03     653.322E-03    -334.311E-03     99.9502E-03     8.48182E+06    -678.120E+03    -2.41315E+06    -403.534E+03     7.71305E+06    -1.91896E+06     98.6654E+03         79.8975
             845     4.99909E-03     40.1266E-03     359.453E-03    -104.522E-03    -109.773E-03    -102.748E-03     356.573E-03    -108.667E-03     18.6110E-03     661.709E-03    -325.824E-03    -333.764E-03    -324.355E-03     660.240E-03    -333.764E-03     75.0448E-03     7.28232E+06    -778.411E+03    -2.55662E+06    -321.473E+03     6.82538E+06    -2.55662E+06    -159.987E+03         79.2823
             846     4.26582E-03     40.0896E-03     362.953E-03    -108.543E-03    -112.887E-03    -106.794E-03     357.622E-03    -109.305E-03    -12.7516E-03     665.058E-03    -329.698E-03    -332.280E-03    -329.075E-03     664.318E-03    -332.162E-03     53.4675E-03     6.92122E+06    -280.091E+03    -2.51164E+06    -859.200E+03     6.87455E+06    -1.88586E+06    -150.041E+03         78.6110
             847     3.55551E-03     40.1151E-03     362.883E-03    -104.279E-03    -113.623E-03    -99.4331E-03     354.988E-03    -110.574E-03     8.38825E-03     665.171E-03    -332.572E-03    -332.987E-03    -332.647E-03     664.831E-03    -332.572E-03     35.7787E-03     4.42465E+06     78.9994E+03    -2.62522E+06    -1.14805E+06     2.87609E+06     150.390E+03    -677.499E+03         78.0442
             848     2.84404E-03     40.1779E-03     365.739E-03    -104.313E-03    -115.431E-03    -97.7812E-03     357.255E-03    -113.479E-03     2.42097E-03     667.219E-03    -334.019E-03    -334.716E-03    -334.321E-03     667.100E-03    -334.296E-03     20.8325E-03     3.12125E+06     1.37919E+06    -2.17618E+06    -711.125E+03     932.152E+03     2.10324E+06    -891.716E+03         77.5647
             849     2.13150E-03     40.2515E-03     377.185E-03    -111.865E-03    -125.848E-03    -113.725E-03     368.695E-03    -115.498E-03     6.37051E-03     672.695E-03    -336.418E-03    -337.066E-03    -336.556E-03     672.667E-03    -336.899E-03     9.19933E-03     4.14595E+06     538.050E+03    -2.38103E+06    -1.18917E+06     3.24528E+06     246.863E+03     -692.78E+03         77.1659
             850     1.41993E-03     40.3498E-03     377.650E-03    -113.830E-03    -131.230E-03    -120.969E-03     367.389E-03    -113.830E-03    -7.51450E-03     676.508E-03    -338.325E-03    -338.912E-03    -338.382E-03     676.506E-03    -338.853E-03     2.42634E-03     1.70522E+06    -1.60537E+06    -3.82725E+06    -1.75105E+06    -79.7964E+03    -1.89656E+06    -859.530E+03         76.8768
             851     711.385E-06     40.3963E-03     386.010E-03    -106.106E-03    -141.944E-03    -112.283E-03     363.046E-03    -112.804E-03     35.4908E-03     677.773E-03    -337.699E-03    -340.304E-03    -339.980E-03     677.772E-03    -338.022E-03     1.09205E-03     428.199E+03    -1.35399E+06    -5.15117E+06    -522.261E+03    -4.20071E+06    -1.35399E+06    -786.305E+03         76.7186
             852     12.1934E-03     40.7299E-03     365.949E-03    -104.380E-03    -109.371E-03    -109.194E-03     365.772E-03    -104.380E-03     13.8766E-03     680.929E-03    -332.089E-03    -354.427E-03    -339.381E-03     665.884E-03    -332.089E-03     236.883E-03     8.06993E+06    -359.722E+03    -2.01469E+06     795.297E+03     5.68794E+06    -787.715E+03     89.4853E+03         93.3165
             853     11.4817E-03     40.1492E-03     358.877E-03    -97.0665E-03    -106.544E-03    -98.8809E-03     358.737E-03    -104.590E-03    -4.21864E-03     679.017E-03    -333.181E-03    -353.133E-03    -336.363E-03     662.247E-03    -333.181E-03     255.673E-03     6.85748E+06     49.7262E+03    -1.07404E+06    -315.515E+03     6.77925E+06    -630.574E+03    -342.179E+03         90.5033
             854     10.7539E-03     39.8080E-03     354.821E-03    -94.0157E-03    -105.395E-03    -93.7506E-03     354.508E-03    -105.347E-03    -22.3653E-03     666.839E-03    -333.018E-03    -339.597E-03    -328.061E-03     655.303E-03    -333.018E-03     213.692E-03     7.74944E+06     14.6498E+03    -1.40100E+06    -686.547E+03     7.55304E+06    -503.411E+03    -503.214E+03         87.7929
             855     10.0435E-03     39.4471E-03     356.810E-03    -97.5675E-03    -107.566E-03    -98.8414E-03     356.579E-03    -106.061E-03    -13.9435E-03     666.262E-03    -332.600E-03    -338.197E-03    -326.826E-03     654.891E-03    -332.600E-03     211.826E-03     9.08315E+06    -610.052E+03    -2.45030E+06    -1.09073E+06     7.80996E+06    -696.432E+03    -271.047E+03         85.6716
             856     9.29425E-03     39.1681E-03     358.515E-03    -101.614E-03    -109.444E-03    -104.189E-03     357.945E-03    -106.299E-03    -21.4484E-03     663.856E-03    -331.434E-03    -334.180E-03    -325.247E-03     654.924E-03    -331.434E-03     187.846E-03     9.83580E+06    -68.2683E+03    -2.65232E+06    -371.547E+03     7.55504E+06    -68.2683E+03    -66.1366E+03         84.1495
             857     8.57956E-03     38.9079E-03     358.242E-03    -101.444E-03    -108.048E-03    -101.580E-03     356.691E-03    -106.360E-03     8.10818E-03     662.762E-03    -330.462E-03    -331.978E-03    -324.301E-03     655.085E-03    -330.462E-03     173.919E-03     9.82036E+06    -212.776E+03    -3.12737E+06    -501.667E+03     7.71470E+06    -732.822E+03     277.930E+03         83.0011
             858     7.86699E-03     38.6961E-03     360.942E-03    -100.060E-03    -110.015E-03    -100.634E-03     358.049E-03    -106.547E-03    -12.3745E-03     658.029E-03    -328.194E-03    -331.202E-03    -323.069E-03     651.688E-03    -329.986E-03     157.553E-03     10.5645E+06    -844.557E+03    -3.59481E+06    -518.505E+03     8.10147E+06    -1.45780E+06    -383.449E+03         81.9908
             859     7.15068E-03     38.5088E-03     361.282E-03    -100.324E-03    -112.388E-03    -104.134E-03     359.324E-03    -106.619E-03    -46.5424E-03     653.532E-03    -325.163E-03    -330.449E-03    -320.157E-03     648.527E-03    -330.449E-03     139.330E-03     11.2540E+06    -451.736E+03    -2.66600E+06    -226.003E+03     8.90719E+06    -544.936E+03    -813.314E+03         81.0898
             860     6.43261E-03     38.3520E-03     358.568E-03    -96.7068E-03    -109.397E-03    -98.8714E-03     358.275E-03    -106.939E-03     7.65281E-03     652.233E-03    -323.723E-03    -331.796E-03    -319.966E-03     648.477E-03    -331.796E-03     120.484E-03     9.43675E+06     383.548E+03    -1.56096E+06    -185.200E+03     8.41702E+06     27.5177E+03    -467.812E+03         80.4023
             861     5.71597E-03     38.2274E-03     362.297E-03    -99.8511E-03    -111.976E-03    -102.173E-03     360.267E-03    -107.624E-03    -29.2534E-03     655.325E-03    -324.388E-03    -334.256E-03    -321.794E-03     652.731E-03    -334.256E-03     100.029E-03     9.06868E+06     1.65353E+06    -1.22461E+06     284.815E+03     8.54273E+06     670.060E+03    -184.668E+03         79.8760
             862     5.00040E-03     38.1583E-03     368.931E-03    -105.580E-03    -116.585E-03    -108.947E-03     363.559E-03    -107.845E-03     17.1316E-03     661.657E-03    -326.053E-03    -333.685E-03    -324.503E-03     660.107E-03    -333.685E-03     77.2240E-03     8.12472E+06     1.27241E+06    -1.37279E+06    -14.9240E+03     6.44661E+06     1.59264E+06     12.2422E+03         79.2665
             863     4.26646E-03     38.1207E-03     374.645E-03    -107.205E-03    -118.331E-03    -105.203E-03     362.278E-03    -107.967E-03    -31.2941E-03     664.728E-03    -329.667E-03    -332.134E-03    -329.006E-03     663.942E-03    -332.008E-03     54.8490E-03     8.31226E+06     1.10951E+06    -505.752E+03     256.518E+03     6.97452E+06     1.68498E+06     288.765E+03         78.5955
             864     3.55417E-03     38.1433E-03     372.743E-03    -102.889E-03    -120.074E-03    -99.9493E-03     358.913E-03    -109.184E-03    -21.2910E-03     665.036E-03    -332.423E-03    -333.214E-03    -332.872E-03     664.694E-03    -332.423E-03     35.9987E-03     5.97633E+06     1.12926E+06    -603.664E+03     261.914E+03     4.90581E+06     1.33420E+06    -82.9089E+03         78.0248
             865     2.84388E-03     38.1998E-03     372.341E-03    -105.780E-03    -118.438E-03    -103.757E-03     363.193E-03    -111.313E-03     5.82127E-03     668.099E-03    -334.236E-03    -335.283E-03    -335.161E-03     667.978E-03    -334.236E-03     20.9991E-03     1.40685E+06     23.1339E+03    -2.23133E+06    -645.750E+03    -892.897E+03     737.303E+03    -1.20843E+06         77.5495
             866     2.13381E-03     38.2731E-03     380.516E-03    -109.086E-03    -121.194E-03    -106.668E-03     370.769E-03    -113.865E-03     11.8386E-03     672.825E-03    -336.431E-03    -337.098E-03    -336.784E-03     672.796E-03    -336.716E-03     9.46273E-03     3.26748E+06     255.728E+03    -1.56549E+06    -126.773E+03     1.99343E+06     91.0556E+03    -933.271E+03         77.1578
             867     1.42297E-03     38.3811E-03     390.793E-03    -112.983E-03    -127.558E-03    -104.008E-03     373.306E-03    -119.047E-03    -32.0788E-03     675.479E-03    -337.800E-03    -338.439E-03    -337.796E-03     675.475E-03    -338.439E-03     2.96539E-03     2.55463E+06     -871.03E+03    -2.67278E+06    -547.784E+03     731.331E+03    -1.17273E+06    -119.923E+03         76.8668
             868     709.210E-06     38.4145E-03     432.037E-03    -127.937E-03    -166.530E-03    -112.898E-03     379.690E-03    -129.222E-03     112.122E-03     677.312E-03    -337.942E-03    -339.483E-03    -338.401E-03     677.310E-03    -339.023E-03     426.211E-06    -807.893E+03    -2.94126E+06    -7.01042E+06    -2.39182E+06    -6.28379E+06    -2.08397E+06     303.607E+03         76.7029
             869     12.1897E-03     38.7519E-03     363.298E-03    -102.714E-03    -107.937E-03    -104.358E-03     362.654E-03    -105.649E-03     11.7652E-03     681.284E-03    -332.078E-03    -354.370E-03    -339.096E-03     666.010E-03    -332.078E-03     238.722E-03     7.52426E+06    -576.375E+03    -2.40147E+06    -535.755E+03     5.83934E+06    -757.168E+03    -64.8418E+03         93.2963
             870     11.4792E-03     38.1760E-03     360.348E-03    -102.419E-03    -109.781E-03    -105.809E-03     360.183E-03    -106.226E-03    -8.99542E-03     678.268E-03    -333.211E-03    -352.011E-03    -335.038E-03     661.296E-03    -333.211E-03     256.890E-03     7.40507E+06    -533.072E+03    -1.76718E+06    -993.870E+03     7.24423E+06    -1.14555E+06    -190.659E+03         90.4917
             871     10.7529E-03     37.8476E-03     363.943E-03    -105.058E-03    -111.264E-03    -109.564E-03     363.733E-03    -106.548E-03    -13.2327E-03     667.321E-03    -333.068E-03    -339.596E-03    -328.203E-03     655.928E-03    -333.068E-03     212.574E-03     7.53352E+06    -1.18445E+06    -2.87564E+06    -1.21965E+06     6.30922E+06    -1.61613E+06    -750.296E+03         87.7982
             872     10.0475E-03     37.4665E-03     367.527E-03    -106.384E-03    -114.250E-03    -114.023E-03     367.299E-03    -106.384E-03    -7.51993E-03     667.244E-03    -332.605E-03    -338.580E-03    -327.628E-03     656.292E-03    -332.605E-03     208.008E-03     9.10694E+06    -594.735E+03    -2.35875E+06     37.5468E+03     6.71064E+06    -594.735E+03    -892.852E+03         85.6917
             873     9.29525E-03     37.1874E-03     368.373E-03    -105.946E-03    -113.670E-03    -113.096E-03     367.799E-03    -105.946E-03    -15.1684E-03     664.392E-03    -331.359E-03    -334.310E-03    -325.697E-03     655.778E-03    -331.359E-03     184.629E-03     10.1704E+06     249.239E+03    -2.47411E+06     492.053E+03     7.82935E+06    -375.895E+03     48.3401E+03         84.1698
             874     8.58401E-03     36.9266E-03     368.022E-03    -104.387E-03    -111.405E-03    -108.627E-03     366.485E-03    -105.627E-03     10.1097E-03     662.260E-03    -330.273E-03    -331.838E-03    -324.261E-03     654.684E-03    -330.273E-03     172.783E-03     11.0924E+06     293.042E+03    -2.72266E+06     328.485E+03     9.18646E+06    -852.137E+03     9.80562E+03         83.0112
             875     7.86776E-03     36.7110E-03     366.200E-03    -104.021E-03    -113.252E-03    -110.008E-03     364.308E-03    -105.372E-03     6.72589E-03     656.937E-03    -327.906E-03    -330.726E-03    -322.592E-03     650.609E-03    -329.712E-03     157.261E-03     11.2825E+06    -556.206E+03    -2.24740E+06     187.421E+03     9.46095E+06    -1.16945E+06    -140.284E+03         81.9913
             876     7.15272E-03     36.5350E-03     364.207E-03    -100.511E-03    -109.376E-03    -103.559E-03     363.226E-03    -105.346E-03    -33.4593E-03     653.499E-03    -325.359E-03    -330.312E-03    -320.249E-03     648.390E-03    -330.312E-03     140.863E-03     11.1989E+06    -53.7840E+03    -989.804E+03     924.865E+03     9.41653E+06    -186.103E+03    -599.503E+03         81.0830
             877     6.43594E-03     36.3747E-03     363.772E-03    -95.6145E-03    -110.715E-03    -99.7106E-03     363.000E-03    -105.847E-03     15.7581E-03     651.795E-03    -323.598E-03    -331.608E-03    -319.748E-03     647.945E-03    -331.608E-03     121.802E-03     8.95452E+06     2.46043E+06    -9.89612E+03     1.61382E+06     7.70323E+06     2.08800E+06    -924.071E+03         80.3761
             878     5.71483E-03     36.2563E-03     369.115E-03    -100.625E-03    -114.741E-03    -106.455E-03     366.337E-03    -106.133E-03    -19.8860E-03     654.248E-03    -323.443E-03    -333.962E-03    -320.903E-03     651.708E-03    -333.962E-03     98.7621E-03     8.19798E+06     3.19839E+06    -551.198E+03     752.706E+03     7.51973E+06     2.57274E+06    -611.374E+03         79.8294
             879     4.99813E-03     36.1790E-03     378.704E-03    -105.657E-03    -117.738E-03    -110.720E-03     371.686E-03    -105.657E-03     24.8387E-03     661.637E-03    -325.808E-03    -333.730E-03    -324.327E-03     660.157E-03    -333.730E-03     75.3355E-03     7.40127E+06     2.44618E+06     53.1705E+03     612.699E+03     5.75281E+06     3.53512E+06    -413.562E+03         79.2258
             880     4.26572E-03     36.1469E-03     391.245E-03    -104.343E-03    -130.011E-03    -115.209E-03     376.444E-03    -104.343E-03    -30.1087E-03     665.377E-03    -330.074E-03    -332.615E-03    -329.599E-03     664.627E-03    -332.341E-03     53.5465E-03     6.94286E+06     1.65807E+06     432.898E+03     969.890E+03     5.39679E+06     2.66715E+06    -445.941E+03         78.5624
             881     3.55605E-03     36.1711E-03     393.636E-03    -101.558E-03    -136.460E-03    -121.129E-03     378.304E-03    -101.558E-03    -25.4624E-03     663.897E-03    -331.828E-03    -332.832E-03    -332.215E-03     663.564E-03    -332.113E-03     35.5504E-03     7.07213E+06     1.46788E+06     360.127E+03     1.20749E+06     6.59697E+06     1.09567E+06     25.9775E+03         77.9674
             882     2.84488E-03     36.2206E-03     382.073E-03    -98.3716E-03    -123.132E-03    -110.730E-03     369.672E-03    -98.3716E-03    -6.14210E-03     663.982E-03    -331.878E-03    -333.291E-03    -332.453E-03     663.854E-03    -332.588E-03     21.7489E-03     3.20722E+06     1.25022E+06    -780.320E+03     437.579E+03     1.73306E+06     1.50648E+06    -305.113E+03         77.4613
             883     2.13188E-03     36.3106E-03     378.031E-03    -93.5695E-03    -114.209E-03    -93.4832E-03     362.085E-03    -98.3485E-03     9.62760E-03     670.883E-03    -335.224E-03    -336.318E-03    -335.773E-03     670.843E-03    -335.730E-03     11.8606E-03     631.972E+03     101.073E+03    -2.24364E+06    -507.851E+03    -1.45968E+06     456.935E+03    -470.085E+03         77.0759
             884     1.42065E-03     36.4040E-03     396.636E-03    -98.2111E-03    -130.284E-03    -88.0124E-03     360.429E-03    -104.275E-03    -71.4455E-03     676.345E-03    -338.369E-03    -338.881E-03    -338.761E-03     676.337E-03    -338.481E-03     4.97665E-03     1.11612E+06    -146.519E+03    -2.92415E+06    -327.137E+03    -1.58050E+06    -46.9160E+03     49.5695E+03         76.8191
             885     712.695E-06     36.4418E-03     505.893E-03    -126.828E-03    -224.962E-03    -93.2982E-03     375.514E-03    -128.113E-03     204.695E-03     676.903E-03    -337.891E-03    -339.229E-03    -338.471E-03     676.902E-03    -338.648E-03     218.843E-06     2.73463E+06    -1.05855E+06    -4.81509E+06     638.594E+03    -3.57635E+06    -201.255E+03     461.354E+03         76.6786
             886     12.1895E-03     36.7825E-03     352.420E-03    -97.8937E-03    -107.003E-03    -97.2026E-03     351.729E-03    -107.003E-03     6.24196E-03     680.345E-03    -332.166E-03    -352.938E-03    -337.700E-03     665.107E-03    -332.166E-03     238.550E-03     8.48115E+06     32.8361E+03    -1.88132E+06     645.600E+03     5.01863E+06     968.429E+03     838.637E+03         93.3193
             887     11.4756E-03     36.2119E-03     359.711E-03    -99.7196E-03    -110.756E-03    -102.530E-03     359.315E-03    -107.549E-03    -2.08348E-03     679.203E-03    -333.228E-03    -353.179E-03    -336.394E-03     662.418E-03    -333.228E-03     255.488E-03     10.6259E+06     510.839E+03    -810.932E+03     508.817E+03     10.0063E+06    -189.297E+03     489.868E+03         90.5400
             888     10.7554E-03     35.8663E-03     368.311E-03    -105.195E-03    -115.710E-03    -112.839E-03     367.877E-03    -107.632E-03    -3.68968E-03     669.625E-03    -332.958E-03    -341.183E-03    -330.061E-03     658.502E-03    -332.958E-03     210.485E-03     11.4717E+06     1.12025E+06    -1.22110E+06     922.886E+03     9.90805E+06     539.891E+03    -131.326E+03         87.8637
             889     10.0487E-03     35.4969E-03     369.623E-03    -103.077E-03    -117.195E-03    -112.566E-03     369.341E-03    -107.422E-03    -10.7697E-03     668.276E-03    -332.471E-03    -339.140E-03    -328.299E-03     657.435E-03    -332.471E-03     207.301E-03     10.5680E+06     1.02771E+06    -3.62514E+06     323.174E+03     6.61968E+06     1.02771E+06    -626.620E+03         85.7396
             890     9.29847E-03     35.2209E-03     369.455E-03    -101.495E-03    -113.473E-03    -107.355E-03     369.328E-03    -107.486E-03    -3.57298E-03     663.347E-03    -331.232E-03    -334.452E-03    -325.643E-03     654.537E-03    -331.232E-03     186.645E-03     9.58658E+06     1.11102E+06    -3.69167E+06     490.751E+03     6.02929E+06     485.886E+03    -750.867E+03         84.1829
             891     8.58455E-03     34.9647E-03     370.355E-03    -104.884E-03    -113.272E-03    -109.701E-03     369.673E-03    -107.774E-03     13.8985E-03     660.264E-03    -330.117E-03    -330.851E-03    -322.914E-03     652.459E-03    -330.248E-03     175.065E-03     11.5318E+06     971.393E+03    -1.30694E+06     1.42243E+06     9.42754E+06     346.260E+03    -409.545E+03         83.0034
             892     7.86795E-03     34.7581E-03     369.695E-03    -104.846E-03    -112.523E-03    -108.615E-03     369.053E-03    -108.111E-03     20.8167E-03     656.184E-03    -328.061E-03    -329.878E-03    -321.631E-03     649.618E-03    -329.742E-03     160.073E-03     11.9195E+06     1.37256E+06    -213.110E+03     1.84066E+06     9.86577E+06     1.37256E+06    -541.015E+03         81.9795
             893     7.15066E-03     34.5768E-03     376.719E-03    -106.217E-03    -115.945E-03    -113.830E-03     376.624E-03    -108.238E-03    -6.78761E-03     654.344E-03    -326.232E-03    -330.281E-03    -320.958E-03     649.071E-03    -330.281E-03     143.082E-03     11.4634E+06     1.31128E+06    -128.345E+03     1.17216E+06     10.2021E+06     1.27216E+06    -4.51025E+03         81.0747
             894     6.43284E-03     34.4140E-03     383.788E-03    -107.375E-03    -124.299E-03    -123.569E-03     383.059E-03    -107.375E-03     20.2198E-03     652.878E-03    -325.034E-03    -331.492E-03    -321.125E-03     648.970E-03    -331.492E-03     122.942E-03     9.12184E+06     1.99699E+06    -717.713E+03     552.975E+03     8.28819E+06     1.55995E+06     35.9003E+03         80.3714
             895     5.71766E-03     34.2893E-03     379.928E-03    -106.095E-03    -117.301E-03    -114.885E-03     377.511E-03    -106.095E-03    -13.8317E-03     655.161E-03    -324.498E-03    -333.701E-03    -321.950E-03     652.613E-03    -333.701E-03     98.8075E-03     6.89504E+06     1.61769E+06    -1.20196E+06     165.135E+03     6.21821E+06     927.430E+03    -148.821E+03         79.8181
             896     5.00374E-03     34.2127E-03     377.247E-03    -105.596E-03    -113.476E-03    -106.050E-03     369.820E-03    -105.596E-03     34.3408E-03     661.180E-03    -325.449E-03    -333.388E-03    -324.052E-03     659.783E-03    -333.388E-03     73.1420E-03     6.16095E+06     912.074E+03    -625.090E+03     246.501E+03     5.90407E+06     297.356E+03    -18.2367E+03         79.1959
             897     4.26837E-03     34.1746E-03     380.272E-03    -103.914E-03    -123.086E-03    -110.654E-03     369.053E-03    -105.127E-03     436.736E-06     663.489E-03    -328.629E-03    -332.062E-03    -328.100E-03     662.785E-03    -331.886E-03     52.0520E-03     5.98903E+06     735.970E+03    -1.05260E+06    -511.696E+03     5.77049E+06     413.598E+03    -494.548E+03         78.5164
             898     3.55662E-03     34.1985E-03     388.478E-03    -102.092E-03    -130.329E-03    -115.625E-03     374.987E-03    -103.305E-03     15.9705E-03     662.252E-03    -330.750E-03    -332.105E-03    -330.597E-03     661.923E-03    -331.929E-03     35.2941E-03     6.11242E+06     935.594E+03    -2.06249E+06    -1.34476E+06     5.27176E+06     1.05853E+06    -774.364E+03         77.9116
             899     2.84217E-03     34.2611E-03     390.906E-03    -100.317E-03    -125.647E-03    -111.005E-03     376.263E-03    -100.317E-03     9.89597E-03     663.618E-03    -331.709E-03    -332.849E-03    -331.585E-03     663.494E-03    -332.849E-03     21.0820E-03     3.98516E+06     2.00660E+06    -1.75282E+06    -28.8324E+03     2.01900E+06     2.24877E+06    -293.397E+03         77.3899
             900     2.12945E-03     34.3323E-03     393.589E-03    -96.4525E-03    -130.810E-03    -107.717E-03     370.496E-03    -96.4525E-03     49.0030E-03     669.083E-03    -334.304E-03    -335.162E-03    -334.605E-03     669.050E-03    -334.828E-03     9.93518E-03     1.34274E+06     790.279E+03    -2.77888E+06    -630.725E+03    -1.07768E+06     1.06255E+06    -128.706E+03         76.9907
             901     1.42118E-03     34.4210E-03     415.498E-03    -91.0893E-03    -161.984E-03    -102.657E-03     356.171E-03    -91.0893E-03    -83.6960E-03     674.369E-03    -337.262E-03    -337.953E-03    -337.662E-03     674.364E-03    -337.549E-03     2.90911E-03    -213.093E+03    -784.167E+03    -5.07120E+06    -2.26185E+06    -3.17547E+06    -631.135E+03    -500.752E+03         76.7455
             902     709.339E-06     34.4715E-03     565.229E-03    -91.9944E-03    -308.038E-03    -85.1409E-03     342.332E-03    -91.9944E-03     315.102E-03     677.360E-03    -337.448E-03    -340.185E-03    -339.898E-03     677.359E-03    -337.735E-03     225.911E-06     1.26431E+06    -1.59255E+06    -6.62559E+06    -1.36940E+06    -4.48282E+06    -1.10162E+06    -445.889E+03         76.6370
             903     12.1850E-03     34.8163E-03     365.643E-03    -101.292E-03    -109.853E-03    -102.948E-03     365.027E-03    -107.583E-03     9.55698E-03     681.242E-03    -332.244E-03    -354.153E-03    -339.284E-03     666.373E-03    -332.244E-03     236.019E-03     6.86885E+06     1.28296E+06    -2.43456E+06    -675.381E+03     4.00444E+06     2.38820E+06    -802.544E+03         93.3768
             904     11.4796E-03     34.2397E-03     368.182E-03    -100.929E-03    -110.284E-03    -102.684E-03     367.667E-03    -108.013E-03     8.39512E-03     680.147E-03    -333.161E-03    -354.127E-03    -337.788E-03     663.808E-03    -333.161E-03     252.345E-03     9.84929E+06     2.06989E+06    -1.62372E+06     359.242E+03     8.39682E+06     1.53940E+06    -268.167E+03         90.5860
             905     10.7555E-03     33.9000E-03     369.620E-03    -101.864E-03    -111.874E-03    -104.706E-03     369.051E-03    -108.463E-03     9.23754E-03     668.652E-03    -332.795E-03    -340.577E-03    -329.638E-03     657.713E-03    -332.795E-03     208.509E-03     12.0762E+06     1.81126E+06    -1.02482E+06     963.444E+03     11.1286E+06     770.609E+03     61.8744E+03         87.8842
             906     10.0467E-03     33.5348E-03     368.846E-03    -100.916E-03    -112.442E-03    -104.121E-03     368.640E-03    -109.031E-03    -13.6207E-03     666.480E-03    -332.340E-03    -338.162E-03    -327.218E-03     655.536E-03    -332.340E-03     208.105E-03     11.3669E+06     1.95023E+06    -3.18699E+06     557.027E+03     8.08323E+06     1.48993E+06    -358.812E+03         85.7347
             907     9.29959E-03     33.2591E-03     366.414E-03    -102.561E-03    -112.007E-03    -104.749E-03     366.326E-03    -109.731E-03    -42.9178E-06     662.542E-03    -331.201E-03    -333.791E-03    -324.705E-03     653.467E-03    -331.212E-03     189.262E-03     9.75207E+06     2.74869E+06    -4.36730E+06    -29.8284E+03     5.41460E+06     2.74869E+06    -1.31471E+06         84.1669
             908     8.58180E-03     33.0024E-03     367.782E-03    -106.098E-03    -112.527E-03    -108.238E-03     367.647E-03    -110.251E-03     7.32725E-03     660.975E-03    -330.220E-03    -331.008E-03    -322.958E-03     653.067E-03    -330.362E-03     176.196E-03     10.1695E+06     1.91132E+06    -2.93698E+06     66.6949E+03     7.16585E+06     1.91132E+06    -822.623E+03         82.9912
             909     7.86384E-03     32.7976E-03     372.173E-03    -106.147E-03    -112.230E-03    -107.682E-03     372.043E-03    -110.565E-03     10.7202E-03     657.665E-03    -328.757E-03    -330.442E-03    -322.839E-03     651.107E-03    -329.802E-03     160.202E-03     10.8180E+06     350.409E+03    -2.21735E+06    -619.729E+03     9.22042E+06     350.409E+03    -137.825E+03         81.9727
             910     7.14943E-03     32.6082E-03     375.406E-03    -106.706E-03    -119.275E-03    -115.335E-03     375.225E-03    -110.465E-03    -1.90454E-03     654.643E-03    -326.695E-03    -330.112E-03    -321.478E-03     649.426E-03    -330.112E-03     142.303E-03     10.4050E+06    -309.726E+03    -2.44315E+06    -1.43855E+06     9.86552E+06    -774.795E+03    -141.045E+03         81.0683
             911     6.43600E-03     32.4593E-03     373.987E-03    -102.210E-03    -122.141E-03    -113.759E-03     373.481E-03    -110.085E-03     9.98773E-03     652.841E-03    -325.088E-03    -331.204E-03    -321.239E-03     648.992E-03    -331.204E-03     122.097E-03     9.04993E+06    -566.104E+03    -2.54429E+06    -1.39604E+06     8.78740E+06    -1.45182E+06    -123.982E+03         80.3719
             912     5.71835E-03     32.3284E-03     376.002E-03    -104.046E-03    -117.400E-03    -110.380E-03     375.008E-03    -110.072E-03    -4.03083E-03     654.727E-03    -324.623E-03    -333.310E-03    -322.047E-03     652.152E-03    -333.310E-03     99.3774E-03     7.71630E+06    -12.6034E+03    -1.42887E+06    -689.461E+03     7.39753E+06    -433.246E+03    -563.278E+03         79.8263
             913     5.00381E-03     32.2598E-03     377.469E-03    -109.187E-03    -114.704E-03    -109.732E-03     373.653E-03    -110.343E-03     23.7601E-03     660.333E-03    -325.357E-03    -332.899E-03    -323.901E-03     658.877E-03    -332.899E-03     74.8093E-03     6.33923E+06     711.346E+03    -783.129E+03    -253.485E+03     5.48625E+06     1.03468E+06    -622.407E+03         79.1908
             914     4.26881E-03     32.2239E-03     370.320E-03    -102.865E-03    -113.468E-03    -99.4543E-03     364.966E-03    -111.525E-03     7.83792E-03     662.773E-03    -328.430E-03    -331.653E-03    -327.883E-03     662.033E-03    -331.460E-03     53.1374E-03     6.86377E+06     469.122E+03    -2.06434E+06    -927.699E+03     6.10325E+06     93.0093E+03    -228.703E+03         78.4941
             915     3.55467E-03     32.2403E-03     379.728E-03    -106.315E-03    -116.873E-03    -99.8389E-03     370.240E-03    -113.861E-03     45.8241E-03     662.145E-03    -330.727E-03    -332.254E-03    -331.057E-03     661.842E-03    -331.621E-03     33.3610E-03     6.40020E+06     87.3749E+03    -3.11498E+06    -1.64328E+06     5.66496E+06    -649.084E+03    -765.933E+03         77.8897
             916     2.84388E-03     32.2940E-03     394.682E-03    -115.480E-03    -126.185E-03    -111.082E-03     379.620E-03    -115.522E-03    -2.25316E-03     664.153E-03    -332.163E-03    -333.111E-03    -332.512E-03     664.062E-03    -332.672E-03     17.9073E-03     2.85277E+06     146.124E+03    -3.84649E+06    -1.71368E+06     756.979E+03     109.111E+03    -806.327E+03         77.3655
             917     2.13413E-03     32.3667E-03     405.287E-03    -114.575E-03    -143.771E-03    -120.280E-03     381.796E-03    -114.575E-03     42.0615E-03     667.842E-03    -333.945E-03    -334.330E-03    -333.930E-03     667.822E-03    -334.325E-03     7.72224E-03     400.406E+03    -727.106E+03    -4.78525E+06    -1.87588E+06    -2.55188E+06    -684.186E+03    -361.079E+03         76.9416
             918     1.42144E-03     32.4474E-03     445.587E-03    -110.460E-03    -185.045E-03    -119.806E-03     380.349E-03    -110.460E-03    -112.841E-03     672.848E-03    -336.545E-03    -337.130E-03    -336.547E-03     672.846E-03    -337.126E-03     1.64252E-03     303.325E+03    -1.34828E+06    -4.96378E+06    -1.62341E+06    -3.07997E+06    -1.30536E+06    -413.451E+03         76.6744
             919     711.651E-06     32.4964E-03     618.993E-03    -103.563E-03    -354.010E-03    -108.935E-03     373.918E-03    -103.563E-03     339.222E-03     677.170E-03    -336.907E-03    -340.486E-03    -338.775E-03     677.168E-03    -338.617E-03     763.466E-06     464.255E+03    -2.09260E+06    -8.01206E+06    -2.13583E+06    -5.90291E+06    -1.60166E+06    -1.40742E+06         76.5692
             920     12.1950E-03     32.8508E-03     378.048E-03    -105.766E-03    -113.083E-03    -109.363E-03     377.224E-03    -108.663E-03     10.9892E-03     682.715E-03    -332.100E-03    -356.348E-03    -341.331E-03     667.698E-03    -332.100E-03     236.656E-03     6.56058E+06     1.57513E+06    -1.24858E+06     163.071E+03     4.97928E+06     1.74478E+06    -862.736E+03         93.3971
             921     11.4830E-03     32.2723E-03     371.501E-03    -102.832E-03    -111.433E-03    -104.654E-03     371.052E-03    -109.162E-03     543.361E-06     679.463E-03    -333.055E-03    -353.839E-03    -336.987E-03     662.611E-03    -333.055E-03     256.451E-03     9.19313E+06     1.82807E+06    -1.85813E+06    -745.093E+03     7.91045E+06     1.99771E+06    -2.07602E+06         90.5737
             922     10.7582E-03     31.9468E-03     366.755E-03    -97.6555E-03    -110.131E-03    -97.2813E-03     366.381E-03    -110.131E-03     20.9534E-03     668.081E-03    -332.775E-03    -340.564E-03    -329.055E-03     656.573E-03    -332.775E-03     213.706E-03     9.79805E+06     1.48675E+06    -2.26080E+06    -980.268E+03     8.97781E+06     1.02646E+06    -1.20461E+06         87.8409
             923     10.0473E-03     31.5833E-03     370.452E-03    -101.093E-03    -114.508E-03    -104.066E-03     370.115E-03    -111.199E-03    -6.36622E-03     666.249E-03    -332.328E-03    -338.347E-03    -327.122E-03     655.023E-03    -332.328E-03     210.506E-03     9.74444E+06     1.20112E+06    -2.86531E+06    -860.476E+03     8.19990E+06     740.821E+03    -924.803E+03         85.6883
             924     9.29491E-03     31.3031E-03     377.416E-03    -110.231E-03    -121.010E-03    -119.477E-03     377.062E-03    -111.410E-03    -1.39542E-03     662.781E-03    -331.145E-03    -333.722E-03    -324.877E-03     653.946E-03    -331.156E-03     186.669E-03     8.99469E+06     985.721E+03    -3.76355E+06    -711.991E+03     5.94313E+06     985.721E+03    -737.490E+03         84.1342
             925     8.57851E-03     31.0460E-03     378.940E-03    -109.584E-03    -120.518E-03    -118.825E-03     378.510E-03    -110.847E-03    -1.95256E-03     662.145E-03    -330.274E-03    -331.450E-03    -323.896E-03     654.602E-03    -330.285E-03     172.225E-03     8.16249E+06     277.635E+03    -5.53649E+06    -2.70203E+06     5.32802E+06     277.635E+03    -723.983E+03         82.9664
             926     7.86712E-03     30.8339E-03     372.185E-03    -107.168E-03    -115.471E-03    -111.697E-03     371.669E-03    -110.426E-03    -263.522E-06     658.522E-03    -329.010E-03    -330.783E-03    -323.807E-03     652.227E-03    -329.691E-03     157.131E-03     9.48252E+06    -531.720E+03    -4.11696E+06    -2.96694E+06     8.33250E+06    -531.720E+03    -534.101E+03         81.9451
             927     7.15195E-03     30.6549E-03     368.381E-03    -103.491E-03    -112.312E-03    -104.795E-03     368.021E-03    -110.647E-03     7.92684E-03     654.438E-03    -326.710E-03    -329.954E-03    -321.576E-03     649.303E-03    -329.954E-03     141.321E-03     9.36890E+06     336.767E+03    -2.87321E+06    -1.96081E+06     8.92158E+06    -128.302E+03    -490.749E+03         81.0351
             928     6.43453E-03     30.4899E-03     369.325E-03    -100.388E-03    -112.402E-03    -100.883E-03     368.993E-03    -111.576E-03    -3.20136E-03     651.996E-03    -324.344E-03    -330.990E-03    -320.478E-03     648.130E-03    -330.990E-03     122.213E-03     9.32512E+06     790.865E+03    -2.35377E+06    -1.74552E+06     9.18194E+06     325.796E+03    -811.969E+03         80.3340
             929     5.72003E-03     30.3776E-03     371.753E-03    -106.313E-03    -113.863E-03    -107.365E-03     371.445E-03    -112.503E-03    -2.44899E-03     653.617E-03    -323.864E-03    -333.014E-03    -321.297E-03     651.051E-03    -333.014E-03     99.1716E-03     7.75862E+06     166.395E+03    -2.17318E+06    -2.02976E+06     7.61520E+06     166.395E+03    -798.925E+03         79.7927
             930     5.00240E-03     30.3050E-03     377.647E-03    -110.173E-03    -113.523E-03    -110.134E-03     377.074E-03    -112.989E-03    -8.41893E-03     660.557E-03    -325.770E-03    -332.822E-03    -324.325E-03     659.112E-03    -332.822E-03     74.3998E-03     5.40118E+06    -1.44857E+06    -3.42470E+06    -3.12742E+06     4.48240E+06    -827.075E+03    -804.632E+03         79.1751
             931     4.26839E-03     30.2674E-03     379.666E-03    -102.542E-03    -114.220E-03    -101.672E-03     378.796E-03    -114.220E-03    -23.0845E-03     663.759E-03    -329.275E-03    -331.611E-03    -328.903E-03     663.036E-03    -331.260E-03     52.6671E-03     5.95197E+06    -1.93244E+06    -3.57774E+06    -2.62300E+06     5.07518E+06    -2.01039E+06    -620.700E+03         78.4870
             932     3.56039E-03     30.2907E-03     380.519E-03    -105.408E-03    -116.859E-03    -101.286E-03     376.397E-03    -116.859E-03     39.4515E-03     662.566E-03    -331.220E-03    -332.169E-03    -331.836E-03     662.233E-03    -331.220E-03     35.3248E-03     7.06547E+06    -2.07214E+06    -3.15354E+06    -2.17466E+06     6.94598E+06    -2.93153E+06    -227.209E+03         77.8800
             933     2.84940E-03     30.3385E-03     384.633E-03    -116.949E-03    -124.052E-03    -110.105E-03     373.441E-03    -119.704E-03    -25.3228E-03     663.904E-03    -332.402E-03    -333.102E-03    -332.873E-03     663.777E-03    -332.505E-03     20.8570E-03     2.90161E+06    -3.05877E+06    -5.25656E+06    -3.06868E+06     873.670E+03    -3.21871E+06    -412.258E+03         77.3562
             934     2.13331E-03     30.4114E-03     401.920E-03    -121.148E-03    -141.628E-03    -118.830E-03     379.451E-03    -121.477E-03     41.9811E-03     666.642E-03    -333.588E-03    -334.036E-03    -333.559E-03     666.614E-03    -334.036E-03     9.74654E-03     13.2309E+03    -2.37545E+06    -6.94306E+06    -2.98851E+06    -3.94132E+06    -2.37545E+06    -1.02130E+06         76.9183
             935     1.42270E-03     30.4822E-03     460.574E-03    -121.968E-03    -194.109E-03    -122.483E-03     388.949E-03    -121.968E-03    -139.561E-03     671.894E-03    -336.084E-03    -336.768E-03    -336.079E-03     671.890E-03    -336.768E-03     3.46244E-03     91.6175E+03    -2.85063E+06    -7.28746E+06    -2.82235E+06    -4.37349E+06    -2.85063E+06    -666.721E+03         76.6240
             936     710.547E-06     30.5317E-03     639.595E-03    -123.245E-03    -368.989E-03    -120.917E-03     391.523E-03    -123.245E-03     319.612E-03     676.708E-03    -337.578E-03    -339.375E-03    -337.574E-03     676.705E-03    -339.375E-03     451.511E-06    -1.33296E+06    -4.24603E+06    -11.1871E+06    -4.52605E+06    -8.11609E+06    -4.12396E+06     486.634E+03         76.5031
             937     12.1891E-03     30.8852E-03     366.189E-03    -105.254E-03    -111.701E-03    -106.158E-03     364.943E-03    -109.551E-03    -3.94965E-03     681.185E-03    -331.993E-03    -354.264E-03    -338.799E-03     665.720E-03    -331.993E-03     240.063E-03     8.65286E+06     1.77829E+06    -1.80597E+06    -713.997E+03     7.56089E+06     1.77829E+06    -418.627E+03         93.3446
             938     11.4758E-03     30.3169E-03     360.085E-03    -99.6373E-03    -110.023E-03    -98.8299E-03     359.278E-03    -110.023E-03    -20.3086E-03     679.279E-03    -333.133E-03    -353.580E-03    -336.328E-03     662.027E-03    -333.133E-03     259.309E-03     9.38045E+06     1.70882E+06    -1.07588E+06    -467.882E+03     8.77245E+06     1.70882E+06    -69.0776E+03         90.5180
             939     10.7484E-03     29.9805E-03     360.436E-03    -97.4186E-03    -111.065E-03    -97.6077E-03     360.270E-03    -110.710E-03     14.0462E-03     668.907E-03    -332.877E-03    -341.125E-03    -329.662E-03     657.445E-03    -332.877E-03     213.554E-03     9.96149E+06     2.14495E+06    -2.63926E+06    -1.28507E+06     8.60730E+06     2.14495E+06    -1.20426E+06         87.8008
             940     10.0425E-03     29.6230E-03     367.585E-03    -103.277E-03    -114.657E-03    -106.432E-03     367.074E-03    -110.992E-03    -10.1114E-03     668.041E-03    -332.341E-03    -339.150E-03    -328.161E-03     657.053E-03    -332.341E-03     208.538E-03     10.6322E+06     2.83819E+06    -2.81726E+06    -694.952E+03     8.50990E+06     2.83819E+06    -1.11800E+06         85.6607
             941     9.29722E-03     29.3485E-03     374.472E-03    -104.957E-03    -118.049E-03    -111.572E-03     373.763E-03    -110.725E-03    -1.97320E-03     664.385E-03    -331.118E-03    -334.919E-03    -326.259E-03     655.725E-03    -331.118E-03     185.125E-03     8.71732E+06     1.60489E+06    -4.15316E+06    -1.76801E+06     5.50131E+06     2.43576E+06     24.1489E+03         84.1005
             942     8.58476E-03     29.0964E-03     376.319E-03    -105.958E-03    -118.596E-03    -112.818E-03     374.931E-03    -110.348E-03    -14.0000E-03     661.904E-03    -330.045E-03    -331.715E-03    -324.227E-03     654.416E-03    -330.045E-03     171.693E-03     8.64761E+06     1.42763E+06    -3.37977E+06    -1.37059E+06     5.80757E+06     2.25850E+06    -508.453E+03         82.9102
             943     7.86716E-03     28.8834E-03     373.544E-03    -107.723E-03    -114.399E-03    -110.597E-03     372.184E-03    -110.166E-03    -14.5268E-03     657.373E-03    -328.442E-03    -330.268E-03    -322.988E-03     651.064E-03    -329.413E-03     157.136E-03     10.0241E+06     1.11350E+06    -3.08212E+06    -1.73748E+06     8.67943E+06     1.11350E+06    -1.19825E+06         81.8679
             944     7.15120E-03     28.6966E-03     375.054E-03    -104.656E-03    -110.559E-03    -104.479E-03     374.729E-03    -110.411E-03     15.7647E-03     654.319E-03    -326.540E-03    -329.726E-03    -321.450E-03     649.229E-03    -329.726E-03     140.660E-03     9.18722E+06     85.6635E+03    -3.79447E+06    -3.02916E+06     8.57806E+06    -70.4896E+03    -1.03279E+06         80.9526
             945     6.43737E-03     28.5400E-03     377.898E-03    -107.439E-03    -111.773E-03    -108.105E-03     377.542E-03    -110.751E-03    -17.8203E-03     651.844E-03    -324.182E-03    -330.734E-03    -320.426E-03     648.088E-03    -330.734E-03     120.345E-03     8.36758E+06    -191.807E+03    -3.59961E+06    -3.35862E+06     8.28274E+06    -347.960E+03    -372.885E+03         80.2507
             946     5.71808E-03     28.4177E-03     376.998E-03    -110.597E-03    -111.699E-03    -110.795E-03     376.258E-03    -110.761E-03    -816.292E-06     653.180E-03    -323.414E-03    -332.786E-03    -320.940E-03     650.706E-03    -332.786E-03     97.4136E-03     7.74699E+06    -685.143E+03    -3.91291E+06    -3.69165E+06     7.52573E+06    -685.143E+03    -627.227E+03         79.7110
             947     5.00504E-03     28.3458E-03     376.985E-03    -107.457E-03    -111.035E-03    -106.773E-03     376.236E-03    -110.971E-03    -121.254E-06     659.872E-03    -325.204E-03    -332.677E-03    -323.765E-03     658.434E-03    -332.677E-03     74.2817E-03     5.63585E+06    -1.98392E+06    -4.42110E+06    -3.90016E+06     4.51670E+06    -1.38569E+06    -891.698E+03         79.1054
             948     4.27086E-03     28.3082E-03     375.762E-03    -103.065E-03    -112.050E-03    -102.489E-03     375.186E-03    -112.050E-03    -27.5757E-03     663.066E-03    -328.528E-03    -331.416E-03    -327.924E-03     662.304E-03    -331.258E-03     54.2101E-03     5.05864E+06    -3.18452E+06    -4.87885E+06    -4.31854E+06     3.90011E+06    -2.58630E+06    -919.392E+03         78.4257
             949     3.55579E-03     28.3258E-03     373.369E-03    -103.630E-03    -114.139E-03    -101.489E-03     371.227E-03    -114.139E-03     31.0482E-03     662.185E-03    -331.053E-03    -331.701E-03    -331.033E-03     661.808E-03    -331.345E-03     37.8182E-03     5.74044E+06    -3.77456E+06    -4.89985E+06    -4.27123E+06     5.11181E+06    -3.77456E+06    -192.816E+03         77.8284
             950     2.84360E-03     28.3770E-03     375.792E-03    -109.717E-03    -117.177E-03    -103.308E-03     369.383E-03    -117.177E-03    -23.4583E-03     665.141E-03    -333.175E-03    -333.492E-03    -333.227E-03     664.995E-03    -333.293E-03     22.8692E-03     3.69473E+06    -4.19840E+06    -6.29432E+06    -4.42279E+06     1.82320E+06    -4.19840E+06     291.406E+03         77.3352
             951     2.13491E-03     28.4613E-03     399.736E-03    -118.480E-03    -135.936E-03    -107.998E-03     374.384E-03    -121.066E-03     82.7566E-03     669.009E-03    -334.763E-03    -335.172E-03    -334.872E-03     668.970E-03    -335.023E-03     11.9271E-03     1.14857E+06    -4.37139E+06    -9.35676E+06    -4.40202E+06    -3.80616E+06    -4.37139E+06    -97.8077E+03         76.9234
             952     1.42148E-03     28.5201E-03     458.501E-03    -125.283E-03    -187.586E-03    -116.342E-03     387.257E-03    -125.283E-03    -99.3856E-03     672.665E-03    -336.514E-03    -337.194E-03    -336.653E-03     672.655E-03    -337.045E-03     5.27786E-03    -1.14513E+06    -4.82861E+06    -11.2725E+06    -5.54965E+06    -6.86797E+06    -4.82861E+06     396.276E+03         76.6218
             953     711.098E-06     28.5712E-03     648.557E-03    -131.215E-03    -369.126E-03    -122.414E-03     401.846E-03    -131.215E-03     354.289E-03     676.988E-03    -337.988E-03    -339.238E-03    -338.719E-03     676.984E-03    -338.503E-03     999.132E-06    -1.24812E+06    -4.85471E+06    -11.8642E+06    -5.58040E+06    -7.65399E+06    -4.73265E+06     616.921E+03         76.4779
             954     12.1859E-03     28.9345E-03     360.418E-03    -102.597E-03    -109.990E-03    -102.207E-03     359.261E-03    -109.224E-03    -14.0042E-03     680.541E-03    -331.960E-03    -353.778E-03    -338.598E-03     665.361E-03    -331.960E-03     238.873E-03     11.0721E+06     3.74981E+06    -2.84722E+06    -217.880E+03     8.44276E+06     3.74981E+06     146.479E+03         93.3154
             955     11.4746E-03     28.3640E-03     363.990E-03    -103.667E-03    -112.386E-03    -105.870E-03     363.101E-03    -109.295E-03    -28.6590E-03     679.828E-03    -333.048E-03    -354.067E-03    -337.440E-03     663.200E-03    -333.048E-03     254.667E-03     10.2386E+06     2.73216E+06    -2.26964E+06    -836.955E+03     9.15473E+06     2.38339E+06    -527.544E+03         90.5118
             956     10.7542E-03     28.0262E-03     368.127E-03    -103.971E-03    -117.499E-03    -111.970E-03     367.575E-03    -108.948E-03     17.5184E-03     669.280E-03    -332.696E-03    -341.557E-03    -330.806E-03     658.528E-03    -332.696E-03     207.159E-03     10.3089E+06     2.38449E+06    -2.77025E+06    -177.614E+03     8.06504E+06     2.03572E+06    -532.588E+03         87.7978
             957     10.0492E-03     27.6630E-03     369.846E-03    -103.916E-03    -114.643E-03    -109.186E-03     368.889E-03    -108.417E-03    -1.50897E-03     667.879E-03    -332.101E-03    -338.789E-03    -328.363E-03     657.453E-03    -332.101E-03     203.436E-03     10.2440E+06     2.60405E+06    -4.05189E+06    -1.51756E+06     7.70971E+06     2.60405E+06    -305.187E+03         85.6283
             958     9.29662E-03     27.3801E-03     367.249E-03    -98.8796E-03    -108.487E-03    -97.7130E-03     366.083E-03    -108.487E-03     6.38794E-03     663.687E-03    -330.718E-03    -334.608E-03    -325.779E-03     655.057E-03    -330.917E-03     184.731E-03     8.59346E+06     2.46154E+06    -3.82759E+06    -1.73642E+06     5.67142E+06     3.29241E+06    -880.401E+03         84.0252
             959     8.58282E-03     27.1290E-03     369.024E-03    -101.117E-03    -109.921E-03    -99.7060E-03     366.760E-03    -109.068E-03    -11.8514E-03     660.541E-03    -329.578E-03    -331.784E-03    -324.008E-03     652.965E-03    -329.778E-03     172.598E-03     8.48864E+06     1.34623E+06    -3.89193E+06    -2.54352E+06     6.30936E+06     2.17710E+06    -839.495E+03         82.7988
             960     7.87084E-03     26.9224E-03     375.226E-03    -105.377E-03    -110.392E-03    -103.970E-03     372.966E-03    -109.540E-03    -13.0982E-03     656.514E-03    -328.158E-03    -330.412E-03    -323.078E-03     650.171E-03    -329.149E-03     157.458E-03     9.78221E+06     1.12121E+06    -4.13646E+06    -2.94241E+06     8.58815E+06     1.12121E+06    -653.018E+03         81.7340
             961     7.15373E-03     26.7218E-03     376.455E-03    -108.299E-03    -113.202E-03    -111.111E-03     375.682E-03    -109.617E-03     23.4231E-03     653.828E-03    -326.462E-03    -329.473E-03    -321.436E-03     648.802E-03    -329.473E-03     139.717E-03     9.34603E+06     813.049E+03    -3.60568E+06    -2.66886E+06     8.56536E+06     656.896E+03    -641.619E+03         80.8069
             962     6.43855E-03     26.5755E-03     372.517E-03    -107.183E-03    -113.076E-03    -110.385E-03     372.087E-03    -109.445E-03    -20.7552E-03     651.523E-03    -324.344E-03    -330.347E-03    -320.654E-03     647.834E-03    -330.347E-03     119.289E-03     8.22730E+06    -807.418E+03    -3.95668E+06    -3.54962E+06     7.97640E+06    -963.571E+03    -578.413E+03         80.1036
             963     5.72345E-03     26.4564E-03     374.709E-03    -104.786E-03    -109.925E-03    -102.998E-03     372.810E-03    -109.813E-03     17.3090E-03     652.003E-03    -322.663E-03    -332.433E-03    -320.219E-03     649.559E-03    -332.433E-03     96.7845E-03     8.07059E+06    -1.59356E+06    -4.24916E+06    -3.72257E+06     7.54400E+06    -1.59356E+06    -567.377E+03         79.5683
             964     5.00395E-03     26.3808E-03     378.379E-03    -105.952E-03    -113.780E-03    -106.334E-03     375.552E-03    -110.571E-03     7.19072E-03     657.640E-03    -323.443E-03    -332.353E-03    -322.013E-03     656.210E-03    -332.353E-03     73.9173E-03     7.23011E+06    -1.37685E+06    -4.44900E+06    -3.55792E+06     5.63422E+06    -672.041E+03    -1.07462E+06         78.9689
             965     4.26559E-03     26.3493E-03     376.660E-03    -105.669E-03    -122.270E-03    -116.167E-03     375.310E-03    -110.422E-03    -27.6106E-03     662.194E-03    -327.851E-03    -331.391E-03    -327.231E-03     661.449E-03    -331.266E-03     53.4182E-03     4.12738E+06    -2.16206E+06    -6.13990E+06    -4.48335E+06     1.45124E+06    -1.14247E+06    -950.334E+03         78.3063
             966     3.55503E-03     26.3614E-03     377.643E-03    -103.700E-03    -124.649E-03    -118.337E-03     376.721E-03    -109.091E-03     15.2488E-03     661.606E-03    -330.799E-03    -331.410E-03    -330.633E-03     661.274E-03    -331.244E-03     35.0657E-03     4.04689E+06    -3.36780E+06    -6.94676E+06    -5.53256E+06     2.31792E+06    -3.05303E+06     579.127E+03         77.7312
             967     2.84419E-03     26.4037E-03     379.215E-03    -103.561E-03    -119.647E-03    -109.535E-03     373.850E-03    -108.308E-03    -52.1756E-03     664.386E-03    -332.718E-03    -333.159E-03    -332.804E-03     664.278E-03    -332.966E-03     19.7462E-03     4.00750E+06    -4.12790E+06    -6.77419E+06    -5.59261E+06     2.98953E+06    -4.29151E+06     556.188E+03         77.2680
             968     2.12880E-03     26.4741E-03     389.267E-03    -107.413E-03    -127.485E-03    -104.544E-03     368.582E-03    -109.669E-03     59.9746E-03     671.986E-03    -336.024E-03    -336.722E-03    -336.598E-03     671.956E-03    -336.118E-03     9.72054E-03     285.264E+03    -5.23947E+06    -11.0286E+06    -7.23305E+06    -3.47290E+06    -5.27691E+06     426.338E+03         76.9016
             969     1.42126E-03     26.5366E-03     430.328E-03    -113.208E-03    -165.849E-03    -106.340E-03     370.818E-03    -113.208E-03    -95.5517E-03     675.358E-03    -337.724E-03    -338.534E-03    -338.169E-03     675.351E-03    -338.082E-03     3.75435E-03    -1.81860E+06    -5.80237E+06    -12.7811E+06    -7.38142E+06    -6.61416E+06    -6.40647E+06     541.130E+03         76.6196
             970     711.106E-06     26.5867E-03     632.758E-03    -121.237E-03    -355.175E-03    -111.794E-03     389.377E-03    -121.237E-03     385.670E-03     676.604E-03    -337.275E-03    -339.731E-03    -338.008E-03     676.602E-03    -338.996E-03     2.33494E-03    -1.42298E+06    -5.73972E+06    -12.1544E+06    -6.12189E+06    -6.77480E+06    -6.42037E+06    -255.620E+03         76.4564
             971     12.1887E-03     26.9715E-03     371.294E-03    -100.299E-03    -112.369E-03    -104.020E-03     371.011E-03    -108.365E-03    -9.69502E-03     682.831E-03    -331.927E-03    -356.322E-03    -341.016E-03     667.525E-03    -331.927E-03     240.239E-03     10.9913E+06     5.10521E+06    -4.52835E+06    -963.046E+03     8.51291E+06     4.01834E+06    -523.198E+03         93.3456
             972     11.4830E-03     26.4000E-03     377.010E-03    -105.205E-03    -115.212E-03    -111.919E-03     376.673E-03    -108.160E-03    -19.9484E-03     682.053E-03    -332.875E-03    -356.434E-03    -339.488E-03     665.108E-03    -332.875E-03     257.946E-03     11.0386E+06     5.44621E+06    -2.01832E+06     425.093E+03     10.0309E+06     4.01057E+06    -861.908E+03         90.5297
             973     10.7575E-03     26.0559E-03     379.104E-03    -105.969E-03    -119.750E-03    -116.949E-03     377.927E-03    -107.592E-03     25.1771E-03     670.747E-03    -332.456E-03    -343.340E-03    -332.094E-03     659.501E-03    -332.456E-03     212.061E-03     10.6562E+06     4.02696E+06    -2.99907E+06    -1.21991E+06     9.22581E+06     3.67819E+06     570.121E+03         87.7649
             974     10.0534E-03     25.7017E-03     376.568E-03    -102.454E-03    -115.781E-03    -108.871E-03     374.405E-03    -107.200E-03     2.40989E-03     668.867E-03    -331.912E-03    -340.526E-03    -329.709E-03     658.050E-03    -331.912E-03     207.293E-03     10.5191E+06     2.34799E+06    -4.06953E+06    -2.30676E+06     8.75630E+06     2.34799E+06     829.100E+03         85.5339
             975     9.30269E-03     25.4196E-03     374.212E-03    -103.371E-03    -110.894E-03    -104.739E-03     371.896E-03    -107.211E-03     4.04404E-03     663.652E-03    -330.370E-03    -335.221E-03    -326.427E-03     655.058E-03    -330.570E-03     184.349E-03     8.00596E+06     802.263E+03    -4.84863E+06    -2.99961E+06     5.42094E+06     1.53825E+06    -588.919E+03         83.8763
             976     8.58517E-03     25.1751E-03     373.742E-03    -100.858E-03    -108.529E-03    -98.8928E-03     370.802E-03    -107.555E-03    -5.07932E-03     660.082E-03    -329.115E-03    -331.811E-03    -324.300E-03     652.771E-03    -329.315E-03     169.510E-03     8.02757E+06     431.934E+03    -3.95593E+06    -2.81528E+06     6.35701E+06     961.844E+03    -951.031E+03         82.6037
             977     7.87012E-03     24.9519E-03     367.818E-03    -99.3553E-03    -108.290E-03    -96.9191E-03     365.382E-03    -108.290E-03    -15.2678E-03     656.493E-03    -328.171E-03    -330.398E-03    -323.847E-03     650.431E-03    -328.660E-03     153.936E-03     9.51389E+06     318.885E+03    -3.93363E+06    -2.91783E+06     8.70417E+06     112.806E+03    -171.072E+03         81.5019
             978     7.15598E-03     24.7706E-03     362.102E-03    -102.817E-03    -112.313E-03    -105.499E-03     361.347E-03    -108.877E-03     27.0616E-03     653.023E-03    -326.259E-03    -328.876E-03    -321.470E-03     648.234E-03    -328.876E-03     136.275E-03     7.88375E+06     189.777E+03    -3.99627E+06    -3.26684E+06     7.29479E+06     49.3108E+03    -404.246E+03         80.5534
             979     6.43950E-03     24.6120E-03     366.638E-03    -103.753E-03    -112.726E-03    -106.979E-03     366.257E-03    -109.119E-03    -15.9474E-03     649.949E-03    -323.647E-03    -329.595E-03    -320.150E-03     646.452E-03    -329.595E-03     115.918E-03     7.90300E+06    -74.5348E+03    -3.95508E+06    -3.41487E+06     7.50325E+06    -215.001E+03    -666.024E+03         79.8516
             980     5.72153E-03     24.5025E-03     374.720E-03    -104.575E-03    -110.980E-03    -103.336E-03     372.103E-03    -109.602E-03     27.7506E-03     650.911E-03    -322.634E-03    -331.709E-03    -320.359E-03     648.636E-03    -331.709E-03     93.1149E-03     8.26483E+06    -1.29460E+06    -4.75518E+06    -4.15815E+06     7.66779E+06    -1.29460E+06    -268.689E+03         79.3348
             981     5.00487E-03     24.4310E-03     381.458E-03    -107.074E-03    -118.010E-03    -111.178E-03     377.391E-03    -109.839E-03     4.61564E-03     657.059E-03    -323.785E-03    -331.772E-03    -322.517E-03     655.791E-03    -331.772E-03     69.2517E-03     7.64771E+06    -2.92693E+06    -6.42920E+06    -5.21489E+06      6.4334E+06    -2.92693E+06    -239.866E+03         78.7545
             982     4.26899E-03     24.3952E-03     384.580E-03    -108.125E-03    -128.847E-03    -126.654E-03     382.387E-03    -108.125E-03    -25.7752E-03     661.255E-03    -327.677E-03    -330.893E-03    -327.207E-03     660.659E-03    -330.768E-03     47.3434E-03     3.42569E+06    -2.43518E+06    -8.79312E+06    -6.20231E+06     520.109E+03    -2.12041E+06    -559.440E+03         78.1102
             983     3.55659E-03     24.4045E-03     381.350E-03    -103.798E-03    -132.053E-03    -131.471E-03     380.768E-03    -103.798E-03     17.6735E-03     660.298E-03    -330.033E-03    -330.855E-03    -329.916E-03     660.056E-03    -330.730E-03     29.7142E-03     2.15331E+06    -2.11967E+06    -7.59856E+06    -5.88078E+06     120.750E+03    -1.80489E+06    -672.500E+03         77.5503
             984     2.84254E-03     24.4488E-03     377.821E-03    -98.0215E-03    -125.919E-03    -122.742E-03     374.645E-03    -98.0215E-03    -51.6474E-03     662.903E-03    -331.864E-03    -332.631E-03    -332.215E-03     662.826E-03    -332.202E-03     16.3941E-03     3.87156E+06    -4.60250E+06    -7.71443E+06    -6.97785E+06     3.29859E+06    -4.76611E+06     83.0356E+03         77.0915
             985     2.13451E-03     24.5028E-03     376.483E-03    -92.6154E-03    -121.296E-03    -107.730E-03     362.918E-03    -92.6154E-03     46.8761E-03     670.611E-03    -335.110E-03    -336.036E-03    -336.020E-03     670.595E-03    -335.110E-03     6.69076E-03     2.18450E+06    -4.82160E+06    -10.7974E+06    -6.79500E+06    -1.78051E+06    -4.85904E+06    -161.954E+03         76.7295
             986     1.42200E-03     24.5711E-03     392.028E-03    -88.7458E-03    -142.613E-03    -95.3423E-03     344.757E-03    -88.7458E-03    -89.7471E-03     674.475E-03    -336.989E-03    -337.881E-03    -337.664E-03     674.474E-03    -337.206E-03     1.46093E-03    -322.029E+03    -4.92661E+06    -12.9768E+06    -7.11238E+06    -5.58234E+06    -5.53070E+06    -876.560E+03         76.4558
             987     711.066E-06     24.6219E-03     573.384E-03    -87.1972E-03    -333.917E-03    -88.7530E-03     328.220E-03    -87.1972E-03     395.715E-03     675.205E-03    -336.489E-03    -339.067E-03    -337.486E-03     675.204E-03    -338.068E-03    -641.016E-06    -330.936E+03    -6.52345E+06    -15.1260E+06    -6.59422E+06    -8.18211E+06    -7.20410E+06    -302.996E+03         76.2981
             988     12.1841E-03     24.9994E-03     379.524E-03    -102.771E-03    -112.350E-03    -107.498E-03     379.396E-03    -107.497E-03    -4.74633E-03     683.922E-03    -331.986E-03    -356.447E-03    -341.196E-03     668.671E-03    -331.986E-03     240.955E-03     12.1796E+06     6.06169E+06    -4.16147E+06     587.588E+03     8.51740E+06     4.97482E+06     366.239E+03         93.3598
             989     11.4748E-03     24.4165E-03     378.930E-03    -103.084E-03    -112.836E-03    -108.055E-03     378.323E-03    -107.259E-03    -18.8918E-03     682.561E-03    -332.891E-03    -356.350E-03    -339.822E-03     666.034E-03    -332.891E-03     254.593E-03     9.81602E+06     6.21096E+06    -2.11152E+06    -773.961E+03     9.56534E+06     5.12409E+06     1.15597E+06         90.4897
             990     10.7542E-03     24.0975E-03     377.805E-03    -103.404E-03    -111.097E-03    -105.132E-03     375.572E-03    -107.136E-03     17.6974E-03     670.704E-03    -332.361E-03    -343.435E-03    -332.378E-03     659.647E-03    -332.361E-03     210.134E-03     10.3267E+06     4.11998E+06    -2.30567E+06    -2.03783E+06     10.0588E+06     4.11998E+06     438.664E+03         87.6616
             991     10.0493E-03     23.7237E-03     377.764E-03    -104.617E-03    -112.958E-03    -106.940E-03     374.259E-03    -107.130E-03    -3.39314E-03     669.511E-03    -331.711E-03    -341.922E-03    -331.450E-03     659.040E-03    -331.711E-03     203.741E-03     11.5624E+06     2.28631E+06    -3.13419E+06    -2.09814E+06     10.5264E+06     2.28631E+06        -67.5469         85.3706
             992     9.30036E-03     23.4620E-03     379.155E-03    -105.579E-03    -113.906E-03    -107.718E-03     374.492E-03    -107.104E-03     7.76513E-03     665.528E-03    -330.095E-03    -337.340E-03    -329.282E-03     657.471E-03    -330.095E-03     178.779E-03     9.44227E+06     1.17395E+06    -3.69937E+06    -1.82688E+06     6.83379E+06     1.90994E+06     345.852E+03         83.6509
             993     8.59047E-03     23.2107E-03     378.967E-03    -102.672E-03    -113.139E-03    -102.890E-03     373.378E-03    -107.332E-03    -867.460E-06     662.156E-03    -328.514E-03    -333.628E-03    -326.808E-03     655.336E-03    -328.514E-03     163.940E-03     8.64621E+06     838.459E+03    -3.94108E+06    -2.61893E+06     6.79415E+06     1.36837E+06     271.687E+03         82.3119
             994     7.87774E-03     22.9984E-03     372.966E-03    -102.289E-03    -116.987E-03    -108.619E-03     369.819E-03    -107.509E-03    -32.6241E-03     656.733E-03    -327.500E-03    -330.261E-03    -324.638E-03     651.303E-03    -327.693E-03     145.649E-03     8.58270E+06    -368.575E+03    -4.40526E+06    -3.75520E+06     8.13872E+06    -574.654E+03     29.9093E+03         81.1531
             995     7.16229E-03     22.8117E-03     368.586E-03    -102.087E-03    -114.400E-03    -108.804E-03     368.179E-03    -107.276E-03     23.5256E-03     651.789E-03    -325.928E-03    -327.818E-03    -321.849E-03     647.710E-03    -327.818E-03     125.412E-03     7.31217E+06    -1.51249E+06    -4.77815E+06    -4.28170E+06     6.95619E+06    -1.65296E+06    -306.694E+03         80.1764
             996     6.44520E-03     22.6656E-03     369.736E-03    -103.862E-03    -110.573E-03    -107.011E-03     369.278E-03    -106.966E-03    -15.3103E-03     648.242E-03    -323.611E-03    -328.225E-03    -320.807E-03     645.438E-03    -328.225E-03     103.336E-03     7.69839E+06    -1.41538E+06    -5.39471E+06    -4.59111E+06     7.40831E+06    -1.92890E+06    -89.8061E+03         79.4586
             997     5.72656E-03     22.5431E-03     373.828E-03    -106.361E-03    -114.150E-03    -111.850E-03     371.528E-03    -106.361E-03     22.4048E-03     649.370E-03    -323.143E-03    -330.036E-03    -321.427E-03     647.654E-03    -330.036E-03     80.3389E-03     7.51775E+06    -1.16331E+06    -5.64496E+06    -4.76843E+06     7.01427E+06    -1.53636E+06    -111.331E+03         78.9316
             998     5.01242E-03     22.4789E-03     374.549E-03    -104.038E-03    -115.912E-03    -110.654E-03     370.686E-03    -105.433E-03     668.533E-06     654.584E-03    -323.554E-03    -330.131E-03    -322.627E-03     653.657E-03    -330.131E-03     59.1186E-03     7.08041E+06    -1.88070E+06    -6.41500E+06    -5.34716E+06     6.01257E+06    -1.88070E+06     19.9834E+03         78.3521
             999     4.27537E-03     22.4346E-03     367.445E-03    -97.9027E-03    -113.864E-03    -104.389E-03     365.058E-03    -104.990E-03    -32.5805E-03     657.659E-03    -325.921E-03    -329.264E-03    -325.484E-03     657.222E-03    -329.264E-03     40.1340E-03     5.18163E+06    -2.24254E+06    -7.55181E+06    -5.45839E+06     3.08821E+06    -2.24254E+06    -87.0873E+03         77.7096
            1000     3.56186E-03     22.4540E-03     362.819E-03    -94.4700E-03    -117.484E-03    -106.609E-03     362.261E-03    -104.786E-03     21.2516E-03     658.256E-03    -328.679E-03    -329.929E-03    -328.847E-03     658.100E-03    -329.606E-03     23.7561E-03     1.14872E+06    -3.44994E+06    -9.07338E+06    -7.31136E+06    -613.301E+03    -3.44994E+06    -1.20953E+06         77.1637
            1001     2.84975E-03     22.4819E-03     368.110E-03    -95.2436E-03    -120.094E-03    -110.300E-03     366.608E-03    -103.536E-03    -23.0744E-03     661.812E-03    -331.276E-03    -332.120E-03    -331.892E-03     661.769E-03    -331.461E-03     11.1089E-03     1.81237E+06    -4.23221E+06    -9.90629E+06    -7.73845E+06     937.662E+03    -5.52534E+06    -954.900E+03         76.7080
            1002     2.13355E-03     22.5373E-03     378.004E-03    -94.3970E-03    -118.053E-03    -100.432E-03     368.433E-03    -102.447E-03     51.0201E-03     667.217E-03    -333.425E-03    -334.237E-03    -334.228E-03     667.208E-03    -333.425E-03     2.30521E-03     3.28274E+06    -6.80010E+06    -13.2182E+06    -8.23357E+06    -408.716E+03    -8.09323E+06    -563.564E+03         76.3198
            1003     1.42333E-03     22.5950E-03     398.676E-03    -100.002E-03    -131.584E-03    -94.0224E-03     365.494E-03    -104.382E-03    -73.7010E-03     670.463E-03    -334.943E-03    -335.707E-03    -335.595E-03     670.460E-03    -335.051E-03    -1.23953E-03     1.98435E+06    -7.84876E+06    -15.4672E+06    -7.82058E+06    -5.66224E+06    -7.84876E+06    -1.05982E+06         76.0311
            1004     713.849E-06     22.6520E-03     551.831E-03    -103.544E-03    -301.261E-03    -105.902E-03     356.472E-03    -103.544E-03     357.191E-03     672.352E-03    -335.428E-03    -337.104E-03    -336.993E-03     672.349E-03    -335.536E-03    -1.21427E-03     612.399E+03    -7.22582E+06    -17.7970E+06    -7.44263E+06    -9.90176E+06    -7.06602E+06    -710.315E+03         75.8871
            1005     12.1901E-03     23.0279E-03     384.352E-03    -105.600E-03    -117.722E-03    -114.554E-03     382.953E-03    -107.370E-03    -1.82577E-03     686.996E-03    -331.910E-03    -359.886E-03    -345.045E-03     672.155E-03    -331.910E-03     240.234E-03     13.6627E+06     5.36278E+06    -2.38901E+06     1.31897E+06     7.97217E+06     7.34529E+06     1.53449E+06         93.4466
            1006     11.4855E-03     22.4609E-03     381.425E-03    -105.886E-03    -117.419E-03    -113.601E-03     378.826E-03    -107.105E-03    -19.2980E-03     683.201E-03    -332.650E-03    -357.706E-03    -342.269E-03     667.765E-03    -332.650E-03     246.209E-03     10.7813E+06     4.57837E+06    -1.97694E+06    -1.53871E+06     10.5570E+06     4.36437E+06     1.34937E+06         90.5447
            1007     10.7630E-03     22.1262E-03     379.676E-03    -104.909E-03    -113.985E-03    -106.843E-03     374.642E-03    -107.017E-03     13.0486E-03     671.029E-03    -331.825E-03    -345.056E-03    -335.250E-03     661.223E-03    -331.825E-03     198.357E-03     10.3908E+06     3.12579E+06    -1.68116E+06    -1.43349E+06     10.1431E+06     3.12579E+06     252.340E+03         87.6379
            1008     10.0625E-03     21.7671E-03     378.212E-03    -101.331E-03    -115.793E-03    -103.614E-03     371.917E-03    -107.215E-03     1.13654E-03     668.815E-03    -330.682E-03    -342.470E-03    -333.573E-03     659.917E-03    -330.682E-03     187.800E-03     10.8772E+06     2.42865E+06    -2.31159E+06    -1.35485E+06     9.92042E+06     2.42865E+06    -327.594E+03         85.2388
            1009     9.31003E-03     21.4923E-03     378.238E-03    -101.268E-03    -112.564E-03    -98.7579E-03     370.951E-03    -107.787E-03     9.18586E-03     664.074E-03    -328.665E-03    -337.572E-03    -330.961E-03     657.463E-03    -328.665E-03     161.841E-03     10.1122E+06     915.277E+03    -4.28605E+06    -3.11390E+06     8.94005E+06     915.277E+03     892.028E+03         83.4124
            1010     8.60086E-03     21.2479E-03     380.072E-03    -106.621E-03    -119.692E-03    -110.644E-03     372.550E-03    -108.146E-03     4.39817E-03     661.509E-03    -326.912E-03    -334.454E-03    -328.930E-03     655.985E-03    -326.912E-03     147.285E-03     7.94152E+06     40.9464E+03    -5.32756E+06    -4.14083E+06     7.26597E+06    -470.232E+03     552.169E+03         81.9867
            1011     7.88964E-03     21.0383E-03     384.832E-03    -107.549E-03    -124.473E-03    -119.954E-03     380.314E-03    -107.549E-03    -25.9970E-03     656.176E-03    -325.822E-03    -330.354E-03    -325.986E-03     651.872E-03    -325.887E-03     129.173E-03     7.50601E+06    -531.695E+03    -4.99283E+06    -3.97805E+06     7.00240E+06    -1.04287E+06     100.986E+03         80.7566
            1012     7.17606E-03     20.8590E-03     389.218E-03    -106.482E-03    -118.823E-03    -117.672E-03     388.067E-03    -106.482E-03     37.9800E-03     649.594E-03    -325.157E-03    -326.552E-03    -322.665E-03     646.488E-03    -325.938E-03     109.043E-03     8.51076E+06    -906.238E+03    -4.49826E+06    -3.97342E+06      8.3334E+06    -1.25372E+06     708.876E+03         79.7059
            1013     6.46212E-03     20.7123E-03     384.737E-03    -105.350E-03    -117.170E-03    -116.699E-03     384.266E-03    -105.350E-03    -15.2638E-03     645.756E-03    -323.770E-03    -325.811E-03    -321.691E-03     643.677E-03    -325.811E-03     88.9544E-03     8.46363E+06    -822.044E+03    -5.26423E+06    -4.27529E+06     8.19523E+06    -1.54258E+06     609.215E+03         78.8850
            1014     5.74610E-03     20.6048E-03     377.235E-03    -103.920E-03    -120.258E-03    -117.149E-03     374.126E-03    -103.920E-03     28.9788E-03     645.571E-03    -322.259E-03    -326.871E-03    -321.041E-03     644.353E-03    -326.871E-03     67.4617E-03     7.26696E+06    -2.10708E+06    -6.64557E+06    -5.55508E+06     6.77607E+06    -2.70669E+06     383.089E+03         78.2609
            1015     5.02340E-03     20.5325E-03     369.250E-03    -101.164E-03    -117.052E-03    -110.070E-03     363.662E-03    -102.558E-03    -2.33907E-03     648.203E-03    -321.109E-03    -326.964E-03    -320.529E-03     647.623E-03    -326.964E-03     45.6721E-03     6.47211E+06    -3.64577E+06    -7.29219E+06    -5.99116E+06     5.39763E+06    -3.87232E+06     325.409E+03         77.6386
            1016     4.28587E-03     20.5042E-03     359.403E-03    -94.9498E-03    -107.222E-03    -96.2282E-03     356.009E-03    -102.549E-03    -41.9011E-03     651.224E-03    -322.991E-03    -326.095E-03    -322.763E-03     650.996E-03    -326.095E-03     27.0466E-03     5.66475E+06    -5.56989E+06    -7.98379E+06    -6.54499E+06     4.22595E+06    -5.56989E+06     745.473E+03         76.9746
            1017     3.57053E-03     20.5116E-03     355.495E-03    -87.2546E-03    -104.931E-03    -86.7019E-03     354.943E-03    -104.931E-03     9.73257E-03     654.244E-03    -326.439E-03    -327.431E-03    -326.825E-03     654.174E-03    -326.975E-03     13.1844E-03     2.93129E+06    -5.81750E+06    -10.2485E+06    -7.12511E+06     1.01363E+06    -7.02323E+06     555.008E+03         76.4198
            1018     2.85679E-03     20.5420E-03     361.112E-03    -88.6743E-03    -109.488E-03    -88.0727E-03     360.510E-03    -109.488E-03    -22.2852E-03     657.323E-03    -328.871E-03    -329.505E-03    -329.489E-03     657.307E-03    -328.871E-03     3.42298E-03    -586.035E+03    -5.58104E+06    -12.7391E+06    -8.41254E+06    -2.41378E+06    -8.07991E+06     21.9657E+03         75.9665
            1019     2.14387E-03     20.6011E-03     380.332E-03    -100.759E-03    -118.918E-03    -100.993E-03     376.131E-03    -114.483E-03     38.1611E-03     660.304E-03    -330.171E-03    -330.645E-03    -330.642E-03     660.302E-03    -330.171E-03    -2.19616E-03     1.81692E+06    -7.26120E+06    -13.9360E+06    -9.05025E+06    -916.700E+03    -9.41336E+06     608.488E+03         75.5737
            1020     1.42858E-03     20.6544E-03     417.187E-03    -114.065E-03    -140.553E-03    -112.442E-03     393.456E-03    -118.445E-03    -88.2720E-03     663.874E-03    -331.762E-03    -332.359E-03    -332.053E-03     663.868E-03    -332.062E-03    -4.28403E-03     2.86215E+06    -8.56343E+06    -15.8701E+06    -8.52887E+06    -3.62008E+06    -9.42246E+06     854.578E+03         75.2934
            1021     712.366E-06     20.7135E-03     550.828E-03    -123.444E-03    -264.004E-03    -118.204E-03     405.028E-03    -123.444E-03     294.997E-03     667.367E-03    -332.716E-03    -334.915E-03    -333.279E-03     667.363E-03    -334.347E-03    -2.29547E-03    -2.14664E+06    -11.8053E+06    -20.4347E+06    -10.7262E+06    -12.0150E+06    -11.6455E+06     481.661E+03         75.1742
            1022     12.1919E-03     21.0464E-03     381.188E-03    -107.578E-03    -121.543E-03    -115.278E-03     375.757E-03    -108.412E-03     2.60416E-03     693.698E-03    -331.828E-03    -366.757E-03    -351.939E-03     678.880E-03    -331.828E-03     242.919E-03     12.3206E+06     5.75131E+06    -4.02824E+06    -1.71205E+06     7.22257E+06     8.53319E+06     45.9311E+03         93.7399
            1023     11.4897E-03     20.4893E-03     384.650E-03    -107.413E-03    -126.164E-03    -118.857E-03     378.177E-03    -108.247E-03    -9.37636E-03     689.681E-03    -332.079E-03    -365.407E-03    -350.448E-03     674.722E-03    -332.079E-03     243.977E-03     11.7521E+06     5.03701E+06    -2.08735E+06    -1.39023E+06     11.2689E+06     4.82300E+06     701.913E+03         90.8381
            1024     10.7785E-03     20.1522E-03     388.091E-03    -107.920E-03    -125.356E-03    -117.442E-03     380.177E-03    -107.920E-03     5.42043E-03     676.924E-03    -330.637E-03    -351.981E-03    -343.038E-03     667.980E-03    -330.637E-03     190.922E-03     10.3963E+06     4.11709E+06    -930.035E+03    -71.4611E+03     9.53775E+06     4.11709E+06     751.939E+03         87.8508
            1025     10.0709E-03     19.8013E-03     386.825E-03    -103.075E-03    -115.583E-03    -101.922E-03     378.158E-03    -108.070E-03     1.36236E-03     671.844E-03    -328.816E-03    -346.503E-03    -338.792E-03     664.133E-03    -328.816E-03     175.627E-03     10.2299E+06     3.72873E+06    -1.85942E+06    -1.09955E+06     9.47007E+06     3.72873E+06     1.75216E+06         85.3200
            1026     9.33437E-03     19.5316E-03     385.449E-03    -103.658E-03    -117.495E-03    -104.049E-03     376.998E-03    -108.653E-03    -182.305E-06     664.027E-03    -326.223E-03    -339.780E-03    -334.284E-03     658.531E-03    -326.223E-03     147.773E-03     10.0938E+06     3.49395E+06    -1.91654E+06    -1.38907E+06     9.73301E+06     3.32730E+06     1.35664E+06         83.3578
            1027     8.62645E-03     19.2921E-03     384.335E-03    -108.602E-03    -122.698E-03    -116.014E-03     377.651E-03    -108.602E-03     13.7812E-03     659.311E-03    -324.176E-03    -335.247E-03    -330.980E-03     655.044E-03    -324.176E-03     129.590E-03     7.49261E+06     2.99552E+06    -2.92172E+06    -1.75187E+06     7.00059E+06     2.31769E+06     927.270E+03         81.8024
            1028     7.91747E-03     19.0828E-03     384.834E-03    -108.135E-03    -117.007E-03    -112.613E-03     380.440E-03    -108.135E-03    -8.02258E-03     653.343E-03    -322.604E-03    -330.420E-03    -327.264E-03     650.187E-03    -322.604E-03     110.654E-03     8.40743E+06     1.58374E+06    -4.09207E+06    -2.17249E+06     7.41029E+06     661.309E+03     1.64242E+06         80.4393
            1029     7.20517E-03     18.9111E-03     385.524E-03    -105.387E-03    -113.635E-03    -109.043E-03     383.541E-03    -107.996E-03     53.0338E-03     646.019E-03    -322.274E-03    -325.877E-03    -323.557E-03     643.823E-03    -322.397E-03     91.5775E-03     10.5568E+06     175.376E+03    -4.05076E+06    -2.44671E+06     9.71149E+06    -583.363E+03     2.22763E+06         79.2282
            1030     6.48758E-03     18.7681E-03     385.007E-03    -102.006E-03    -116.464E-03    -109.516E-03     384.132E-03    -108.079E-03    -15.3997E-03     641.488E-03    -321.191E-03    -323.044E-03    -321.170E-03     640.113E-03    -321.691E-03     70.7508E-03     8.87925E+06    -156.421E+03    -5.99300E+06    -3.68124E+06     8.40205E+06    -1.99098E+06     1.95612E+06         78.1862
            1031     5.76795E-03     18.6682E-03     381.815E-03    -104.110E-03    -118.038E-03    -110.994E-03     378.772E-03    -108.111E-03     18.5935E-03     638.962E-03    -319.750E-03    -322.006E-03    -319.321E-03     638.264E-03    -321.737E-03     49.0233E-03     9.17177E+06    -1.66142E+06    -6.48360E+06    -3.65004E+06     8.05184E+06    -3.37505E+06     1.85285E+06         77.3451
            1032     5.03336E-03     18.6062E-03     375.905E-03    -107.134E-03    -119.648E-03    -115.012E-03     371.806E-03    -107.671E-03     5.62720E-03     639.250E-03    -318.713E-03    -321.977E-03    -318.442E-03     638.979E-03    -321.977E-03     28.9050E-03     8.42779E+06    -4.99496E+06    -7.22733E+06    -4.95465E+06     6.93156E+06    -5.77140E+06     2.17161E+06         76.6216
            1033     4.30922E-03     18.5835E-03     379.508E-03    -105.738E-03    -121.730E-03    -118.541E-03     376.831E-03    -106.250E-03    -8.65098E-03     641.989E-03    -319.400E-03    -321.384E-03    -319.343E-03     641.932E-03    -321.384E-03     11.6943E-03     6.44910E+06    -6.55531E+06    -9.87043E+06    -5.75581E+06     2.88438E+06    -7.10521E+06     2.61802E+06         75.9053
            1034     3.59171E-03     18.5872E-03     384.200E-03    -97.4773E-03    -117.164E-03    -108.842E-03     383.238E-03    -104.837E-03     27.4855E-03     643.799E-03    -321.192E-03    -321.768E-03    -321.423E-03     643.785E-03    -321.522E-03    -445.889E-06     6.54959E+06    -7.41529E+06    -11.7691E+06    -6.61725E+06     2.60346E+06    -8.62102E+06     3.09751E+06         75.2730
            1035     2.87166E-03     18.6217E-03     381.388E-03    -92.2323E-03    -115.535E-03    -102.769E-03     381.145E-03    -104.754E-03    -14.2309E-03     645.891E-03    -322.662E-03    -323.282E-03    -323.251E-03     645.859E-03    -322.662E-03    -8.11367E-03     4.23031E+06    -7.23532E+06    -13.2133E+06    -7.59168E+06    -185.586E+03    -8.44105E+06     2.52124E+06         74.7830
            1036     2.14888E-03     18.6717E-03     378.249E-03    -97.8536E-03    -122.690E-03    -114.309E-03     375.542E-03    -103.527E-03     38.7185E-03     649.414E-03    -324.510E-03    -325.055E-03    -325.002E-03     649.361E-03    -324.510E-03    -11.0871E-03     4.45709E+06    -6.74852E+06    -14.1904E+06    -7.67882E+06    -1.19544E+06    -7.60754E+06     2.03808E+06         74.4160
            1037     1.43171E-03     18.7244E-03     390.168E-03    -96.4701E-03    -137.649E-03    -119.962E-03     372.481E-03    -96.4701E-03    -75.5821E-03     654.931E-03    -327.329E-03    -327.722E-03    -327.488E-03     654.888E-03    -327.520E-03    -10.5975E-03     3.67118E+06    -7.91047E+06    -15.5327E+06    -8.78940E+06    -2.21308E+06    -8.76950E+06     1.59555E+06         74.1955
            1038     717.943E-06     18.7783E-03     492.643E-03    -85.1593E-03    -224.023E-03    -99.0134E-03     367.633E-03    -85.1593E-03     255.714E-03     660.055E-03    -328.869E-03    -331.354E-03    -329.812E-03     660.037E-03    -330.392E-03    -7.68158E-03     1.03132E+06    -8.40199E+06    -17.9116E+06    -8.70993E+06    -8.41180E+06    -8.16057E+06     1.48262E+06         74.1409
            1039     12.1910E-03     19.0572E-03     377.423E-03    -108.379E-03    -119.652E-03    -108.750E-03     367.355E-03    -109.213E-03     6.62530E-03     701.225E-03    -331.535E-03    -373.974E-03    -359.795E-03     687.046E-03    -331.535E-03     239.997E-03     10.6728E+06     4.03240E+06    -5.63453E+06    -228.666E+03     6.68457E+06     2.61481E+06    -262.348E+03         94.2615
            1040     11.5013E-03     18.4998E-03     384.162E-03    -108.264E-03    -124.425E-03    -113.806E-03     374.377E-03    -109.098E-03     6.96556E-03     696.635E-03    -331.142E-03    -373.590E-03    -359.564E-03     682.610E-03    -331.142E-03     237.866E-03     10.5386E+06     3.81669E+06    -3.84778E+06     132.222E+03     8.77555E+06     1.59972E+06    -316.019E+03         91.3698
            1041     10.7949E-03     18.1735E-03     390.632E-03    -107.437E-03    -120.481E-03    -110.029E-03     381.723E-03    -108.980E-03     1.48753E-03     682.735E-03    -328.873E-03    -359.541E-03    -351.227E-03     674.421E-03    -328.873E-03     185.362E-03     8.98056E+06     2.15686E+06    -1.41708E+06    -446.422E+03     8.00990E+06     2.15686E+06     1.82867E+06         88.3315
            1042     10.0821E-03     17.8376E-03     393.765E-03    -107.697E-03    -116.523E-03    -104.864E-03     383.650E-03    -109.241E-03    -6.58726E-03     677.171E-03    -326.483E-03    -353.320E-03    -346.153E-03     670.004E-03    -326.483E-03     170.436E-03     9.18963E+06     2.27250E+06    -1.21426E+06    -757.427E+03     8.73279E+06     2.27250E+06     1.86128E+06         85.7206
            1043     9.36389E-03     17.5788E-03     395.054E-03    -109.333E-03    -124.243E-03    -114.245E-03     385.056E-03    -109.333E-03    -6.09895E-03     668.051E-03    -323.299E-03    -346.028E-03    -340.990E-03     663.013E-03    -323.299E-03     142.309E-03     9.69050E+06     1.18060E+06    -888.115E+03    -387.437E+03     9.35648E+06     1.01395E+06     1.65307E+06         83.6580
            1044     8.66139E-03     17.3419E-03     390.850E-03    -109.135E-03    -119.064E-03    -111.542E-03     383.329E-03    -109.135E-03     14.4430E-03     659.827E-03    -320.988E-03    -339.555E-03    -335.868E-03     656.140E-03    -320.988E-03     120.619E-03     9.58707E+06     1.58274E+06    -2.86386E+06    -257.986E+03     7.14785E+06     1.41608E+06     2.60946E+06         81.9553
            1045     7.95171E-03     17.1501E-03     382.740E-03    -109.225E-03    -112.453E-03    -107.501E-03     377.787E-03    -109.225E-03    -9.99624E-03     651.269E-03    -318.440E-03    -333.203E-03    -330.742E-03     648.809E-03    -318.440E-03     97.4879E-03     10.1308E+06     1.31374E+06    -4.14146E+06    -923.905E+03     7.32454E+06     902.485E+03     2.96907E+06         80.3996
            1046     7.23958E-03     16.9777E-03     374.023E-03    -104.274E-03    -111.865E-03    -104.229E-03     371.803E-03    -109.690E-03     44.8595E-03     642.249E-03    -316.899E-03    -327.291E-03    -325.798E-03     640.755E-03    -316.899E-03     74.7340E-03     10.7265E+06     347.289E+03    -6.23019E+06    -2.12622E+06     9.73329E+06    -2.76349E+06     2.79963E+06         78.9633
            1047     6.52838E-03     16.8464E-03     369.300E-03    -96.0498E-03    -110.906E-03    -95.2765E-03     368.526E-03    -110.906E-03    -17.1697E-03     635.953E-03    -315.688E-03    -322.353E-03    -321.620E-03     635.221E-03    -315.688E-03     50.8747E-03     10.2022E+06    -893.792E+03    -8.01379E+06    -2.21067E+06     8.58570E+06    -5.08039E+06     3.49444E+06         77.6254
            1048     5.80970E-03     16.7526E-03     375.925E-03    -100.721E-03    -112.631E-03    -99.8437E-03     375.048E-03    -112.631E-03    -5.69698E-03     631.315E-03    -314.658E-03    -318.539E-03    -318.102E-03     631.064E-03    -314.845E-03     28.1822E-03     10.2600E+06    -3.09207E+06    -8.37572E+06    -2.90430E+06     8.03232E+06    -6.33580E+06     4.74599E+06         76.4319
            1049     5.05597E-03     16.6956E-03     381.837E-03    -109.727E-03    -116.575E-03    -111.603E-03     380.777E-03    -113.639E-03    -13.0513E-03     627.313E-03    -313.532E-03    -315.877E-03    -314.582E-03     627.243E-03    -314.757E-03     9.27112E-03     11.2808E+06    -4.12191E+06    -9.12257E+06    -3.57381E+06     8.03860E+06    -6.42846E+06     5.31689E+06         75.4429
            1050     4.33633E-03     16.6782E-03     390.579E-03    -111.626E-03    -125.476E-03    -122.049E-03     388.594E-03    -113.068E-03     10.9521E-03     627.345E-03    -313.253E-03    -314.469E-03    -313.212E-03     627.303E-03    -314.469E-03    -4.63824E-03     9.88316E+06    -5.08437E+06    -10.8618E+06    -5.01569E+06     4.58696E+06    -5.63426E+06     5.90645E+06         74.5927
            1051     3.61464E-03     16.6963E-03     399.029E-03    -110.682E-03    -127.897E-03    -126.569E-03     397.701E-03    -110.682E-03     40.4757E-03     628.692E-03    -313.885E-03    -314.735E-03    -314.476E-03     628.610E-03    -314.063E-03    -14.4189E-03     10.3231E+06    -5.77369E+06    -10.6442E+06    -5.93000E+06     5.60882E+06    -5.77369E+06     5.62436E+06         73.8673
            1052     2.89216E-03     16.7318E-03     400.233E-03    -106.605E-03    -125.299E-03    -125.235E-03     400.168E-03    -106.605E-03     6.33555E-03     631.231E-03    -314.790E-03    -316.135E-03    -316.000E-03     631.096E-03    -314.790E-03    -21.4198E-03     11.5557E+06    -5.85165E+06    -11.2946E+06    -6.17284E+06     6.43392E+06    -5.85165E+06     4.16166E+06         73.3200
            1053     2.16995E-03     16.7771E-03     389.725E-03    -100.777E-03    -121.377E-03    -120.105E-03     388.453E-03    -100.777E-03     27.2093E-03     634.724E-03    -316.716E-03    -317.682E-03    -317.542E-03     634.584E-03    -316.716E-03    -22.7115E-03     8.70131E+06    -5.79492E+06    -13.9615E+06    -7.02236E+06     1.76214E+06    -5.79492E+06     2.41978E+06         72.9656
            1054     1.44667E-03     16.8283E-03     378.912E-03    -91.9197E-03    -121.906E-03    -112.957E-03     369.962E-03    -91.9197E-03    -43.4295E-03     640.554E-03    -320.023E-03    -320.510E-03    -320.260E-03     640.466E-03    -320.185E-03    -17.8332E-03     7.93745E+06    -6.92702E+06    -15.0591E+06    -7.81559E+06     693.948E+03    -6.92702E+06     1.60949E+06         72.8047
            1055     721.951E-06     16.8680E-03     399.469E-03    -66.4727E-03    -163.163E-03    -105.746E-03     342.052E-03    -66.4727E-03     136.576E-03     647.292E-03    -323.054E-03    -324.287E-03    -324.093E-03     647.260E-03    -323.217E-03    -9.85181E-03     5.51869E+06    -7.73256E+06    -17.6272E+06    -7.99978E+06    -3.55711E+06    -8.28413E+06     1.56453E+06         72.8208
            1056     12.2017E-03     17.0543E-03     393.675E-03    -109.580E-03    -123.636E-03    -110.903E-03     380.941E-03    -109.580E-03     6.44443E-03     708.909E-03    -331.056E-03    -382.264E-03    -368.519E-03     695.164E-03    -331.056E-03     237.269E-03     10.7088E+06     2.50480E+06    -4.54140E+06     2.32013E+06     6.44232E+06    -90.2988E+03     1.64853E+06         94.9382
            1057     11.5141E-03     16.4982E-03     391.085E-03    -107.695E-03    -122.862E-03    -110.452E-03     380.685E-03    -109.706E-03     23.6984E-03     700.783E-03    -330.052E-03    -378.882E-03    -364.867E-03     686.768E-03    -330.052E-03     239.321E-03     9.82256E+06     1.84083E+06    -5.30137E+06     79.3468E+03     7.23909E+06    -956.408E+03     975.681E+03         92.0807
            1058     10.8136E-03     16.1755E-03     389.275E-03    -106.564E-03    -116.531E-03    -104.284E-03     380.583E-03    -110.118E-03     11.2373E-03     686.751E-03    -327.188E-03    -365.479E-03    -356.860E-03     678.133E-03    -327.188E-03     189.535E-03     7.55795E+06    -480.649E+03    -4.13995E+06    -816.546E+03     6.77769E+06    -3.02379E+06     821.910E+03         89.0584
            1059     10.0905E-03     15.8482E-03     391.586E-03    -108.930E-03    -124.392E-03    -112.582E-03     381.319E-03    -110.473E-03    -1.52762E-03     683.224E-03    -324.250E-03    -361.037E-03    -353.450E-03     675.637E-03    -324.250E-03     176.548E-03     8.73572E+06    -849.538E+03    -4.96797E+06    -265.435E+03     8.10834E+06    -4.92469E+06     2.28713E+06         86.4535
            1060     9.38848E-03     15.5926E-03     394.983E-03    -110.558E-03    -123.019E-03    -111.937E-03     383.902E-03    -110.558E-03     4.15129E-03     674.616E-03    -320.372E-03    -355.070E-03    -349.735E-03     669.281E-03    -320.372E-03     147.381E-03     10.5325E+06    -1.51990E+06    -5.64944E+06    -416.871E+03     8.57788E+06    -4.79781E+06     3.31531E+06         84.3609
            1061     8.69097E-03     15.3842E-03     391.992E-03    -110.957E-03    -115.890E-03    -105.464E-03     381.566E-03    -110.957E-03     9.61907E-03     664.292E-03    -317.518E-03    -348.293E-03    -344.524E-03     660.522E-03    -317.518E-03     122.717E-03     11.4156E+06    -3.16891E+06    -5.64114E+06    -559.549E+03     7.49958E+06    -4.33452E+06     3.98338E+06         82.5586
            1062     7.99182E-03     15.2029E-03     385.291E-03    -111.490E-03    -117.591E-03    -110.253E-03     377.953E-03    -111.490E-03    -14.8847E-03     654.830E-03    -313.520E-03    -341.596E-03    -339.241E-03     652.475E-03    -313.520E-03     95.6894E-03     11.5504E+06    -2.97307E+06    -8.37289E+06    -956.399E+03     7.46315E+06    -6.30227E+06     3.59164E+06         80.8180
            1063     7.28907E-03     15.0515E-03     378.455E-03    -108.845E-03    -119.792E-03    -113.888E-03     375.358E-03    -111.653E-03     34.0574E-03     643.338E-03    -310.015E-03    -333.594E-03    -332.449E-03     642.193E-03    -310.015E-03     64.9302E-03     10.5987E+06    -1.98400E+06    -10.9151E+06    -1.04592E+06     6.75824E+06    -8.01271E+06     4.64242E+06         79.1413
            1064     6.57324E-03     14.9373E-03     372.743E-03    -102.968E-03    -119.251E-03    -109.977E-03     372.252E-03    -111.751E-03    -13.8726E-03     631.385E-03    -308.059E-03    -325.228E-03    -324.832E-03     630.989E-03    -308.059E-03     36.3503E-03     11.8461E+06    -3.56438E+06    -10.3578E+06    -1.90645E+06     7.81908E+06    -7.98875E+06     7.08629E+06         77.5014
            1065     5.85422E-03     14.8550E-03     374.806E-03    -99.0029E-03    -116.880E-03    -103.297E-03     374.652E-03    -112.432E-03     2.90400E-03     622.192E-03    -306.351E-03    -317.681E-03    -317.580E-03     622.091E-03    -306.351E-03     11.2205E-03     12.8641E+06    -3.88978E+06    -10.8381E+06    -3.40602E+06     8.91352E+06    -7.37128E+06     7.77624E+06         75.9026
            1066     5.09895E-03     14.8182E-03     377.866E-03    -95.7792E-03    -114.338E-03    -95.4166E-03     377.504E-03    -114.338E-03    -12.8207E-03     614.235E-03    -304.718E-03    -311.497E-03    -310.966E-03     614.162E-03    -305.176E-03    -10.2038E-03     12.6593E+06    -3.86385E+06    -10.6476E+06    -4.43594E+06     8.20437E+06    -5.62050E+06     7.88040E+06         74.4846
            1067     4.37241E-03     14.8087E-03     384.699E-03    -105.439E-03    -119.176E-03    -105.928E-03     382.557E-03    -116.545E-03     30.9539E-03     610.266E-03    -303.918E-03    -307.731E-03    -307.068E-03     610.060E-03    -304.376E-03    -24.8012E-03     13.1322E+06    -3.38763E+06     -8.7782E+06    -4.58796E+06     8.94201E+06    -3.38763E+06     7.28359E+06         73.3218
            1068     3.64621E-03     14.8261E-03     387.987E-03    -116.581E-03    -126.401E-03    -124.557E-03     386.143E-03    -116.581E-03     39.6629E-03     609.490E-03    -304.085E-03    -305.950E-03    -305.637E-03     609.177E-03    -304.085E-03    -32.3095E-03     16.1762E+06    -1.04317E+06    -6.16884E+06    -2.64188E+06     12.6493E+06    -1.04317E+06     5.34727E+06         72.4202
            1069     2.92137E-03     14.8622E-03     393.095E-03    -113.576E-03    -126.217E-03    -124.763E-03     392.467E-03    -114.402E-03     18.0651E-03     610.995E-03    -304.992E-03    -306.116E-03    -305.818E-03     610.697E-03    -304.992E-03    -32.4529E-03     17.2156E+06    -107.593E+03    -6.01599E+06    -1.74742E+06     14.0895E+06    -1.25008E+06     3.46088E+06         71.7752
            1070     2.18929E-03     14.9157E-03     400.887E-03    -101.218E-03    -120.434E-03    -104.391E-03     398.187E-03    -114.561E-03    -10.3571E-03     614.773E-03    -306.909E-03    -307.680E-03    -307.461E-03     614.554E-03    -306.909E-03    -28.0573E-03     11.8492E+06    -1.01151E+06    -8.97913E+06    -2.89929E+06     6.91181E+06    -2.15400E+06     2.39981E+06         71.3680
            1071     1.45911E-03     14.9667E-03     398.506E-03    -96.5939E-03    -125.946E-03    -99.1557E-03     396.267E-03    -121.146E-03    -35.7946E-03     621.058E-03    -309.921E-03    -311.056E-03    -310.763E-03     620.928E-03    -310.084E-03    -21.4333E-03     11.3471E+06    -1.80436E+06    -10.3216E+06    -2.56252E+06     3.58805E+06    -1.80436E+06     1.67402E+06         71.1929
            1072     730.416E-06     15.0078E-03     389.979E-03    -108.029E-03    -147.193E-03    -129.114E-03     383.934E-03    -120.065E-03    -7.12222E-03     627.598E-03    -312.464E-03    -315.123E-03    -313.187E-03     627.538E-03    -314.341E-03    -13.3155E-03     11.1678E+06    -3.37299E+06    -13.9976E+06    -3.70991E+06     573.930E+03    -3.06683E+06     2.12088E+06         71.2352
            1073     12.2052E-03     15.0394E-03     395.521E-03    -106.359E-03    -125.951E-03    -110.224E-03     383.676E-03    -110.241E-03    -335.529E-06     711.628E-03    -330.672E-03    -385.590E-03    -371.311E-03     697.349E-03    -330.672E-03     239.151E-03     8.71422E+06    -1.75170E+06    -9.84439E+06    -1.99440E+06     3.78033E+06    -4.66779E+06    -103.096E+03         95.6085
            1074     11.5173E-03     14.4919E-03     389.157E-03    -104.436E-03    -117.737E-03    -101.146E-03     378.819E-03    -110.689E-03     12.8829E-03     703.153E-03    -329.396E-03    -381.319E-03    -365.603E-03     687.437E-03    -329.396E-03     254.376E-03     9.51328E+06    -1.59696E+06    -9.40404E+06     236.827E+03     4.44522E+06    -6.16977E+06     1.16343E+06         92.8515
            1075     10.8178E-03     14.1701E-03     382.215E-03    -108.786E-03    -120.396E-03    -109.283E-03     373.474E-03    -111.157E-03     1.63213E-03     691.834E-03    -326.446E-03    -370.839E-03    -360.621E-03     681.616E-03    -326.446E-03     207.074E-03     9.47931E+06    -3.30203E+06    -7.52749E+06     342.506E+03     5.83478E+06    -7.52749E+06     3.54862E+06         89.9847
            1076     10.0965E-03     13.8595E-03     380.181E-03    -108.467E-03    -123.791E-03    -111.480E-03     370.645E-03    -111.242E-03    -3.92891E-03     691.979E-03    -322.930E-03    -370.160E-03    -361.057E-03     682.876E-03    -322.930E-03     194.737E-03     9.02904E+06    -2.01257E+06    -8.33525E+06    -322.229E+03     7.33870E+06    -8.33525E+06     3.84694E+06         87.5197
            1077     9.40070E-03     13.6037E-03     382.726E-03    -107.040E-03    -116.389E-03    -100.605E-03     371.557E-03    -111.655E-03     6.44787E-03     685.065E-03    -318.328E-03    -366.917E-03    -360.563E-03     678.711E-03    -318.328E-03     162.290E-03     9.62426E+06    -1.21152E+06    -10.2249E+06     919.152E+03     7.49359E+06    -10.2249E+06     3.30932E+06         85.4847
            1078     8.71450E-03     13.4132E-03     385.341E-03    -108.892E-03    -115.033E-03    -99.1608E-03     373.222E-03    -112.646E-03    -470.858E-06     674.579E-03    -314.198E-03    -361.929E-03    -357.599E-03     670.249E-03    -314.198E-03     132.867E-03     12.6075E+06    -5.29898E+06    -13.0896E+06     343.438E+03     6.76352E+06    -12.8880E+06     5.42966E+06         83.6248
            1079     8.02161E-03     13.2376E-03     387.466E-03    -110.631E-03    -117.917E-03    -105.417E-03     377.955E-03    -113.619E-03    -18.3011E-03     662.483E-03    -309.036E-03    -354.356E-03    -351.905E-03     660.033E-03    -309.036E-03     97.7583E-03     14.3295E+06    -7.13069E+06    -14.9242E+06    -405.943E+03     5.84816E+06    -13.1676E+06     8.45047E+06         81.7173
            1080     7.32447E-03     13.1092E-03     386.390E-03    -112.851E-03    -122.919E-03    -117.257E-03     381.801E-03    -113.925E-03     25.6608E-03     646.492E-03    -304.055E-03    -342.760E-03    -341.753E-03     645.485E-03    -304.055E-03     60.8664E-03     14.0984E+06    -6.45222E+06    -13.2832E+06    -1.71092E+06     6.47750E+06    -10.4036E+06     10.3193E+06         79.8159
            1081     6.62426E-03     13.0260E-03     384.185E-03    -113.372E-03    -124.459E-03    -122.658E-03     382.384E-03    -113.372E-03    -9.12712E-03     629.483E-03    -300.354E-03    -330.158E-03    -329.852E-03     629.176E-03    -300.354E-03     32.1396E-03     14.6122E+06    -3.78879E+06    -10.2409E+06    -2.16795E+06     8.88633E+06    -6.13583E+06     9.75192E+06         77.9239
            1082     5.90653E-03     12.9762E-03     383.618E-03    -105.175E-03    -118.581E-03    -109.986E-03     383.002E-03    -113.154E-03     21.6560E-03     614.628E-03    -297.183E-03    -319.236E-03    -319.158E-03     614.551E-03    -297.183E-03     4.15754E-03     16.4221E+06    -624.583E+03    -8.34078E+06    -2.24218E+06     12.0483E+06    -2.34943E+06     8.27505E+06         75.9961
            1083     5.14453E-03     12.9636E-03     383.487E-03    -96.2330E-03    -114.734E-03    -96.2191E-03     383.473E-03    -114.734E-03     785.340E-06     602.639E-03    -294.216E-03    -309.958E-03    -309.821E-03     602.502E-03    -294.216E-03    -20.4909E-03     17.3621E+06     1.15590E+06    -5.02959E+06    -1.77396E+06     14.1064E+06     1.15590E+06     6.85942E+06         74.1529
            1084     4.42142E-03     12.9662E-03     386.462E-03    -106.380E-03    -118.848E-03    -107.336E-03     385.473E-03    -116.903E-03     28.9605E-03     594.031E-03    -292.329E-03    -302.289E-03    -301.947E-03     593.688E-03    -292.329E-03    -34.5165E-03     19.7480E+06     3.56543E+06    -2.37630E+06     952.720E+03     16.4189E+06     3.56543E+06     4.18518E+06         72.5423
            1085     3.68932E-03     13.0033E-03     381.807E-03    -116.129E-03    -123.260E-03    -120.898E-03     380.729E-03    -117.413E-03     16.5128E-03     587.932E-03    -291.391E-03    -296.717E-03    -296.226E-03     587.440E-03    -291.391E-03    -41.5969E-03     20.9571E+06     3.93607E+06    -1.69120E+06     2.38392E+06     17.7007E+06     3.11732E+06     2.35382E+06         71.2632
            1086     2.94750E-03     13.0434E-03     380.576E-03    -111.128E-03    -121.588E-03    -112.849E-03     378.396E-03    -117.687E-03     33.7004E-03     585.917E-03    -291.444E-03    -294.627E-03    -294.087E-03     585.377E-03    -291.444E-03    -42.9325E-03     20.9421E+06     4.95373E+06    -1.22935E+06     3.44468E+06     18.2293E+06     2.99249E+06     1.75179E+06         70.3455
            1087     2.21062E-03     13.0926E-03     391.637E-03    -99.8569E-03    -122.968E-03    -94.5315E-03     386.311E-03    -122.968E-03    -11.6713E-03     588.145E-03    -292.867E-03    -295.357E-03    -294.883E-03     587.671E-03    -292.867E-03    -39.5987E-03     18.7137E+06     5.86613E+06    -2.74084E+06     4.57059E+06     12.5447E+06     4.72364E+06     965.705E+03         69.7406
            1088     1.47495E-03     13.1436E-03     405.956E-03    -105.536E-03    -136.306E-03    -101.920E-03     402.340E-03    -136.306E-03    -38.7003E-03     592.715E-03    -295.203E-03    -297.442E-03    -296.700E-03     592.441E-03    -295.671E-03    -29.6171E-03     15.2693E+06     6.07115E+06    -4.82610E+06     4.10494E+06     6.33827E+06     6.07115E+06     585.102E+03         69.4408
            1089     740.207E-06     13.1782E-03     429.738E-03    -139.242E-03    -165.121E-03    -138.605E-03     416.157E-03    -152.176E-03    -102.741E-03     601.351E-03    -298.523E-03    -302.795E-03    -300.518E-03     601.256E-03    -300.705E-03    -17.1957E-03     17.4809E+06     4.07554E+06    -8.25261E+06     3.80815E+06     4.32098E+06     5.17469E+06    -1.76038E+06         69.4535
            1090     12.1995E-03     13.0358E-03     381.910E-03    -106.053E-03    -118.509E-03    -104.559E-03     372.716E-03    -110.809E-03     1.34461E-03     708.710E-03    -330.761E-03    -381.874E-03    -365.922E-03     692.758E-03    -330.761E-03     249.946E-03     12.6323E+06    -7.85685E+06    -14.6488E+06    -805.022E+03     1.32650E+06    -10.3948E+06     2.24620E+06         96.3065
            1091     11.5094E-03     12.4886E-03     382.200E-03    -106.651E-03    -120.234E-03    -106.587E-03     373.127E-03    -111.226E-03     2.98750E-03     707.256E-03    -329.697E-03    -383.355E-03    -365.091E-03     688.993E-03    -329.697E-03     274.956E-03     13.2722E+06    -6.83416E+06    -12.9600E+06    -1.75295E+06     6.09823E+06    -10.8673E+06     4.76489E+06         93.7408
            1092     10.8092E-03     12.1799E-03     380.598E-03    -110.654E-03    -124.102E-03    -115.951E-03     373.028E-03    -111.235E-03    -7.65099E-03     700.085E-03    -326.705E-03    -377.028E-03    -365.146E-03     688.203E-03    -326.705E-03     224.904E-03     10.7960E+06    -9.32617E+06    -11.3259E+06    -1.00595E+06     2.47580E+06    -11.3259E+06     1.79124E+06         91.0987
            1093     10.0902E-03     11.8492E-03     380.451E-03    -108.079E-03    -120.745E-03    -109.754E-03     372.457E-03    -111.075E-03    -9.31538E-03     701.841E-03    -322.629E-03    -379.818E-03    -369.565E-03     691.589E-03    -322.629E-03     208.552E-03     12.5578E+06    -6.79517E+06    -14.0895E+06     2.66283E+06     3.09983E+06    -14.0895E+06     3.96678E+06         88.7885
            1094     9.40295E-03     11.6072E-03     380.187E-03    -106.620E-03    -119.424E-03    -105.714E-03     371.091E-03    -111.234E-03    -1.44578E-03     694.900E-03    -317.325E-03    -378.011E-03    -371.072E-03     687.960E-03    -317.325E-03     171.324E-03     13.9263E+06    -6.57701E+06    -18.3796E+06     1.33781E+06     4.71447E+06    -17.0826E+06     9.54462E+06         86.7886
            1095     8.72552E-03     11.4080E-03     380.480E-03    -105.785E-03    -114.173E-03    -98.6938E-03     371.010E-03    -111.794E-03    -3.37037E-03     682.191E-03    -312.454E-03    -372.171E-03    -367.368E-03     677.388E-03    -312.454E-03     141.307E-03     16.2377E+06    -7.37976E+06    -20.0972E+06    -679.444E+03     3.24335E+06    -13.8032E+06     12.6031E+06         84.8277
            1096     8.05086E-03     11.2661E-03     384.744E-03    -106.462E-03    -112.731E-03    -98.5648E-03     376.847E-03    -112.731E-03    -15.6083E-03     666.663E-03    -306.833E-03    -363.077E-03    -360.065E-03     663.651E-03    -306.833E-03     108.912E-03     18.6707E+06    -4.03799E+06    -14.1797E+06    -1.29634E+06     8.49509E+06    -6.74571E+06     12.6402E+06         82.7582
            1097     7.35935E-03     11.1793E-03     385.986E-03    -107.148E-03    -116.200E-03    -105.431E-03     381.659E-03    -113.591E-03     14.2562E-03     648.437E-03    -300.894E-03    -349.361E-03    -347.804E-03     646.880E-03    -300.894E-03     75.5782E-03     19.0050E+06     164.552E+03    -6.07245E+06    -576.621E+03     14.1314E+06    -457.647E+03     9.31348E+06         80.6914
            1098     6.65347E-03     11.1272E-03     388.454E-03    -108.996E-03    -117.713E-03    -110.302E-03     386.173E-03    -114.125E-03    -10.5020E-03     629.076E-03    -295.293E-03    -334.498E-03    -333.764E-03     628.342E-03    -295.293E-03     49.9149E-03     20.5129E+06     4.91491E+06    -2.72296E+06     1.39835E+06     17.0138E+06     4.29271E+06     6.34939E+06         78.6694
            1099     5.94273E-03     11.1100E-03     395.122E-03    -110.938E-03    -120.962E-03    -116.845E-03     394.250E-03    -114.182E-03     18.8887E-03     613.186E-03    -290.566E-03    -323.416E-03    -323.146E-03     612.916E-03    -290.566E-03     22.2430E-03     22.2271E+06     7.29171E+06     2.02840E+06     4.02264E+06     20.2329E+06     7.29171E+06     3.97201E+06         76.6041
            1100     5.18770E-03     11.1298E-03     397.034E-03    -110.205E-03    -125.179E-03    -121.641E-03     396.813E-03    -113.522E-03    -15.6537E-03     598.632E-03    -286.324E-03    -312.315E-03    -312.204E-03     598.521E-03    -286.324E-03    -4.81300E-03     23.4009E+06     8.33533E+06     4.34885E+06     6.28351E+06     21.4662E+06     8.33533E+06     1.88573E+06         74.5152
            1101     4.45882E-03     11.1661E-03     387.381E-03    -105.567E-03    -119.922E-03    -112.179E-03     387.220E-03    -113.150E-03    -3.08798E-03     584.892E-03    -283.094E-03    -301.592E-03    -301.367E-03     584.667E-03    -283.094E-03    -24.0092E-03     24.9256E+06     9.18893E+06     3.90893E+06     7.53867E+06     22.2045E+06     8.28026E+06     329.218E+03         72.5556
            1102     3.72125E-03     11.2201E-03     377.927E-03    -98.9716E-03    -115.735E-03    -99.7837E-03     377.824E-03    -114.820E-03     2.33677E-03     574.597E-03    -280.742E-03    -294.184E-03    -293.750E-03     574.162E-03    -280.742E-03    -38.2561E-03     21.3176E+06     9.83713E+06     3.65625E+06     8.06617E+06     18.6352E+06     8.10970E+06    -126.247E+03         70.8734
            1103     2.98651E-03     11.2694E-03     379.981E-03    -104.007E-03    -123.215E-03    -107.760E-03     378.099E-03    -117.580E-03     37.3959E-03     566.951E-03    -278.873E-03    -288.307E-03    -287.707E-03     566.351E-03    -278.873E-03    -45.0972E-03     21.5256E+06     8.56069E+06     2.29565E+06     7.66545E+06     17.3974E+06     7.31912E+06     968.902E+03         69.5379
            1104     2.24379E-03     11.3225E-03     380.470E-03    -109.096E-03    -134.337E-03    -119.559E-03     375.461E-03    -118.865E-03    -17.0170E-03     562.334E-03    -278.615E-03    -283.802E-03    -283.250E-03     561.781E-03    -278.615E-03    -42.7873E-03     21.5870E+06     8.27273E+06    -114.768E+03     7.64604E+06     14.2490E+06     7.84992E+06     440.738E+03         68.5713
            1105     1.49831E-03     11.3747E-03     386.896E-03    -111.658E-03    -135.479E-03    -123.516E-03     381.151E-03    -117.876E-03    -8.77467E-03     562.814E-03    -280.155E-03    -282.688E-03    -281.891E-03     562.486E-03    -280.624E-03    -32.5025E-03     20.3866E+06     9.78145E+06    -2.86717E+06     9.08080E+06     8.43867E+06     9.78145E+06     58.6557E+03         68.0335
            1106     745.261E-06     11.4256E-03     419.820E-03    -117.535E-03    -142.816E-03    -117.096E-03     394.999E-03    -118.434E-03    -109.576E-03     573.191E-03    -284.553E-03    -288.631E-03    -288.048E-03     573.076E-03    -285.022E-03    -17.8532E-03     19.2755E+06     5.18237E+06    -10.7980E+06     4.72668E+06     3.75087E+06     5.18237E+06     18.9026E+03         67.9478
            1107     12.1839E-03     11.0278E-03     379.173E-03    -102.303E-03    -113.901E-03    -99.9105E-03     374.109E-03    -111.230E-03     7.62229E-03     704.845E-03    -331.562E-03    -376.785E-03    -359.301E-03     687.361E-03    -331.562E-03     262.307E-03     13.9607E+06    -13.7229E+06    -22.4716E+06     3.43204E+06    -10.4156E+06    -15.2503E+06     613.693E+03         97.3667
            1108     11.4857E-03     10.4705E-03     382.436E-03    -104.989E-03    -123.330E-03    -111.752E-03     377.519E-03    -111.651E-03     5.26696E-03     713.824E-03    -330.586E-03    -387.879E-03    -368.353E-03     694.298E-03    -330.586E-03     285.195E-03     23.7796E+06    -14.5984E+06    -22.2825E+06     8.00036E+06    -5.82159E+06    -15.2801E+06     4.21474E+06         94.9567
            1109     10.7950E-03     10.1276E-03     385.680E-03    -104.248E-03    -120.949E-03    -108.646E-03     381.069E-03    -111.941E-03     4.79648E-03     709.675E-03    -327.081E-03    -384.710E-03    -372.772E-03     697.737E-03    -327.081E-03     227.261E-03     30.3502E+06    -15.6382E+06    -17.0724E+06     11.3384E+06     2.89780E+06    -16.5967E+06     13.1710E+06         92.3214
            1110     10.0895E-03     9.80645E-03     389.653E-03    -110.896E-03    -121.244E-03    -115.618E-03     385.390E-03    -112.260E-03     10.0936E-03     707.886E-03    -322.515E-03    -385.801E-03    -376.067E-03     698.151E-03    -322.515E-03     204.100E-03     27.4312E+06    -12.8508E+06    -26.3880E+06     3.42515E+06     2.66493E+06    -17.8977E+06     19.1953E+06         89.8240
            1111     9.39925E-03     9.55033E-03     394.991E-03    -111.900E-03    -131.827E-03    -127.506E-03     390.670E-03    -111.900E-03     11.6105E-03     695.861E-03    -316.788E-03    -379.570E-03    -373.050E-03     689.341E-03    -316.788E-03     166.390E-03     23.8231E+06    -2.10078E+06    -23.2936E+06    -1.95756E+06     7.25716E+06    -6.87083E+06     18.5539E+06         87.5608
            1112     8.72911E-03     9.39230E-03     396.299E-03    -108.736E-03    -130.690E-03    -123.797E-03     391.662E-03    -110.991E-03     7.03065E-03     680.518E-03    -311.983E-03    -369.797E-03    -364.979E-03     675.701E-03    -311.983E-03     141.667E-03     27.9017E+06     5.76848E+06    -10.7482E+06    -609.075E+03     17.7625E+06     5.76848E+06     11.6176E+06         85.3702
            1113     8.03944E-03     9.27190E-03     393.561E-03    -106.286E-03    -119.216E-03    -111.154E-03     389.673E-03    -110.460E-03    -1.77924E-03     665.278E-03    -306.148E-03    -360.710E-03    -357.278E-03     661.846E-03    -306.148E-03     117.728E-03     25.8630E+06     11.0403E+06    -645.435E+03     3.31114E+06     20.3979E+06     12.5489E+06     4.76307E+06         83.1800
            1114     7.34925E-03     9.22647E-03     391.881E-03    -99.6138E-03    -111.045E-03    -97.0227E-03     389.290E-03    -111.045E-03     15.9743E-03     649.738E-03    -300.247E-03    -351.214E-03    -349.021E-03     647.545E-03    -300.247E-03     92.9906E-03     24.3508E+06     13.0224E+06     5.67157E+06     6.76909E+06     21.7447E+06     14.5310E+06     1.92309E+06         81.0863
            1115     6.65402E-03     9.21851E-03     392.531E-03    -101.924E-03    -112.310E-03    -100.541E-03     391.148E-03    -112.310E-03    -910.183E-06     631.509E-03    -294.692E-03    -338.985E-03    -337.617E-03     630.140E-03    -294.692E-03     71.9735E-03     26.9074E+06     13.7856E+06     8.94107E+06     9.78151E+06     26.0806E+06     13.7720E+06    -83.4776E+03         79.0993
            1116     5.94329E-03     9.22988E-03     389.691E-03    -111.461E-03    -123.303E-03    -121.647E-03     388.908E-03    -112.334E-03     12.9866E-03     615.238E-03    -289.319E-03    -327.184E-03    -326.549E-03     614.604E-03    -289.319E-03     45.5958E-03     25.9494E+06     13.6193E+06     10.7765E+06     12.4043E+06     25.4701E+06     12.4708E+06    -850.644E+03         77.1126
            1117     5.18648E-03     9.28704E-03     385.330E-03    -110.507E-03    -128.186E-03    -127.887E-03     385.031E-03    -110.507E-03    -16.1957E-03     599.866E-03    -284.324E-03    -316.462E-03    -316.301E-03     599.705E-03    -284.324E-03     20.8482E-03     24.0540E+06     12.4117E+06     8.62625E+06     12.4160E+06     22.9203E+06     9.75560E+06    -886.335E+03         75.0852
            1118     4.47167E-03     9.36701E-03     385.794E-03    -97.1299E-03    -116.507E-03    -103.601E-03     385.554E-03    -109.796E-03    -11.0640E-03     585.291E-03    -279.602E-03    -306.891E-03    -306.777E-03     585.177E-03    -279.602E-03     3.19173E-03     22.0154E+06     9.58641E+06     6.30940E+06     10.4399E+06     20.3147E+06     7.15656E+06    -775.367E+03         73.0907
            1119     3.74897E-03     9.43523E-03     389.002E-03    -86.2068E-03    -113.027E-03    -85.4700E-03     388.265E-03    -113.027E-03     13.4515E-03     571.444E-03    -275.281E-03    -296.624E-03    -296.425E-03     571.244E-03    -275.281E-03    -13.1858E-03     20.6217E+06     9.86634E+06     5.03986E+06     9.70326E+06     17.7868E+06     8.03782E+06     605.256E+03         71.2282
            1120     3.00832E-03     9.50832E-03     389.772E-03    -101.735E-03    -129.829E-03    -114.770E-03     388.866E-03    -115.888E-03     31.7655E-03     558.327E-03    -271.899E-03    -286.080E-03    -285.811E-03     558.058E-03    -271.899E-03    -23.9384E-03     22.3238E+06     9.62317E+06     4.07616E+06     10.0760E+06     17.6665E+06     8.28051E+06     635.483E+03         69.5968
            1121     2.26130E-03     9.58438E-03     380.918E-03    -108.099E-03    -160.352E-03    -157.071E-03     377.637E-03    -108.099E-03    -44.7182E-03     549.231E-03    -270.308E-03    -278.823E-03    -278.558E-03     548.967E-03    -270.308E-03    -27.8048E-03     24.6234E+06     9.57084E+06     1.34116E+06     11.5405E+06     14.8468E+06     9.14803E+06     1.16167E+06         68.3218
            1122     1.50819E-03     9.64875E-03     364.984E-03    -86.5028E-03    -148.788E-03    -143.428E-03     359.624E-03    -86.5028E-03    -14.8374E-03     545.923E-03    -270.652E-03    -275.332E-03    -275.128E-03     545.719E-03    -270.652E-03    -25.3946E-03     21.8462E+06     9.15230E+06    -5.66950E+06     8.47975E+06     7.69691E+06     9.15230E+06     1.74479E+06         67.5609
            1123     759.341E-06     9.69387E-03     375.638E-03    -68.4385E-03    -100.174E-03    -79.7132E-03     355.177E-03    -68.4385E-03    -84.8610E-03     552.584E-03    -274.406E-03    -278.152E-03    -277.736E-03     552.492E-03    -274.730E-03    -14.7920E-03     24.0638E+06     10.5294E+06    -9.62848E+06     8.39415E+06     6.04115E+06     10.5294E+06     1.04087E+06         67.3646
            1124     12.1631E-03     9.01819E-03     383.456E-03    -101.130E-03    -126.407E-03    -113.270E-03     380.738E-03    -111.549E-03     7.66238E-03     706.961E-03    -332.089E-03    -378.145E-03    -360.867E-03     689.683E-03    -332.089E-03     264.396E-03     14.2153E+06    -16.7296E+06    -25.6227E+06     2.51808E+06    -12.3981E+06    -18.2570E+06    -195.143E+03         99.0182
            1125     11.4799E-03     8.42883E-03     381.596E-03    -93.1090E-03    -114.758E-03    -92.9026E-03     378.719E-03    -112.087E-03    -166.394E-06     719.923E-03    -330.449E-03    -392.891E-03    -374.737E-03     701.770E-03    -330.449E-03     276.108E-03     9.39345E+06    -29.4176E+06    -41.6615E+06    -2.41823E+06    -29.2088E+06    -30.0587E+06     5.68990E+06         96.4040
            1126     10.7965E-03     8.06192E-03     385.036E-03    -95.2494E-03    -113.427E-03    -92.8498E-03     382.636E-03    -113.427E-03     25.4233E-03     712.942E-03    -326.245E-03    -387.671E-03    -377.324E-03     702.595E-03    -326.245E-03     211.996E-03     13.2327E+06    -26.4740E+06    -46.9942E+06    -15.2949E+06    -18.9020E+06    -26.0387E+06     17.2449E+06         93.1715
            1127     10.0879E-03     7.74007E-03     389.907E-03    -112.609E-03    -119.649E-03    -116.898E-03     388.720E-03    -114.174E-03     10.3572E-03     705.353E-03    -321.753E-03    -384.482E-03    -376.587E-03     697.458E-03    -321.753E-03     183.218E-03     40.0336E+06     5.06047E+06    -29.3722E+06    -11.9989E+06     21.5840E+06     6.13681E+06     14.8405E+06         89.8783
            1128     9.40126E-03     7.52281E-03     394.605E-03    -113.380E-03    -137.185E-03    -135.860E-03     393.281E-03    -113.380E-03     20.8346E-03     689.140E-03    -316.201E-03    -374.379E-03    -369.240E-03     684.001E-03    -316.201E-03     146.087E-03     43.4038E+06     20.4242E+06    -11.4121E+06    -313.454E+03     32.3052E+06     20.4242E+06     2.29163E+06         86.9198
            1129     8.71481E-03     7.37358E-03     400.407E-03    -111.428E-03    -143.718E-03    -141.597E-03     398.286E-03    -111.428E-03    -995.853E-06     672.924E-03    -311.774E-03    -361.793E-03    -358.236E-03     669.367E-03    -311.774E-03     119.263E-03     36.9644E+06     21.8474E+06     1.56546E+06     9.13904E+06     29.3908E+06     21.8474E+06    -5.63750E+06         84.3692
            1130     8.03201E-03     7.29837E-03     400.344E-03    -105.623E-03    -123.918E-03    -117.125E-03     397.886E-03    -109.958E-03     3.40843E-03     657.948E-03    -306.805E-03    -350.433E-03    -347.962E-03     655.477E-03    -306.805E-03     98.3449E-03     29.8736E+06     19.8104E+06     6.10953E+06     13.0641E+06     24.2364E+06     18.4929E+06    -5.54319E+06         82.1257
            1131     7.33272E-03     7.27113E-03     395.268E-03    -94.0048E-03    -110.521E-03    -92.2928E-03     393.556E-03    -110.521E-03     20.0012E-03     642.357E-03    -301.888E-03    -341.011E-03    -339.118E-03     640.464E-03    -301.888E-03     85.9699E-03     27.6898E+06     16.1337E+06     9.77445E+06     14.4921E+06     24.5318E+06     14.5741E+06    -3.12835E+06         80.1560
            1132     6.62679E-03     7.29501E-03     385.815E-03    -99.6089E-03    -115.293E-03    -102.119E-03     384.910E-03    -111.878E-03     6.84838E-03     627.362E-03    -297.255E-03    -331.779E-03    -330.051E-03     625.633E-03    -297.255E-03     81.0846E-03     24.7155E+06     12.6688E+06     10.5296E+06     14.2179E+06     22.5707E+06     11.1253E+06    -2.05964E+06         78.4065
            1133     5.92270E-03     7.34312E-03     379.008E-03    -111.167E-03    -129.724E-03    -128.690E-03     378.062E-03    -111.254E-03     6.07038E-03     613.774E-03    -292.878E-03    -321.827E-03    -320.356E-03     612.303E-03    -292.878E-03     70.8519E-03     21.7272E+06     11.9154E+06     8.44857E+06     12.6397E+06     21.0029E+06     8.44857E+06    -120.673E+03         76.7419
            1134     5.16976E-03     7.43844E-03     380.045E-03    -108.931E-03    -126.680E-03    -125.920E-03     379.285E-03    -108.931E-03    -384.487E-06     600.533E-03    -288.574E-03    -313.639E-03    -312.452E-03     599.347E-03    -288.574E-03     58.8729E-03     22.1808E+06     13.0258E+06     9.31917E+06     13.5208E+06     21.6659E+06     9.33912E+06       821.5E+03         75.1139
            1135     4.45302E-03     7.53537E-03     389.259E-03    -93.5683E-03    -111.538E-03    -95.6239E-03     388.620E-03    -108.844E-03     2.73434E-03     589.170E-03    -284.208E-03    -306.461E-03    -305.471E-03     588.180E-03    -284.208E-03     50.7302E-03     22.1060E+06     12.7584E+06     8.98846E+06     13.4703E+06     19.1453E+06     11.2372E+06     1.53969E+06         73.5061
            1136     3.72944E-03     7.65509E-03     395.603E-03    -86.4277E-03    -112.704E-03    -84.8485E-03     394.024E-03    -112.704E-03     21.2317E-03     577.785E-03    -279.931E-03    -297.679E-03    -296.931E-03     577.036E-03    -279.931E-03     40.0327E-03     22.3436E+06     10.7685E+06     7.30710E+06     12.5500E+06     18.0206E+06     9.84871E+06     987.166E+03         71.9087
            1137     2.99812E-03     7.75627E-03     391.043E-03    -104.228E-03    -129.764E-03    -116.748E-03     389.028E-03    -115.229E-03     16.8980E-03     567.295E-03    -276.508E-03    -289.591E-03    -289.059E-03     566.763E-03    -276.508E-03     26.5490E-03     24.2236E+06     10.6999E+06     5.70279E+06     12.6008E+06     18.2454E+06     9.78006E+06     455.841E+03         70.4181
            1138     2.25995E-03     7.85025E-03     383.828E-03    -106.514E-03    -158.723E-03    -157.031E-03     382.137E-03    -106.514E-03    -48.9744E-03     557.415E-03    -273.895E-03    -283.457E-03    -283.090E-03     557.047E-03    -273.895E-03     13.6664E-03     25.7899E+06     14.0865E+06     1.90616E+06     12.9662E+06     14.7298E+06     14.0865E+06     1.56021E+06         69.2028
            1139     1.51651E-03     7.92619E-03     371.522E-03    -82.2108E-03    -144.949E-03    -143.698E-03     370.271E-03    -82.2108E-03    -14.9954E-03     550.653E-03    -272.961E-03    -278.071E-03    -277.845E-03     550.427E-03    -272.961E-03     5.29833E-03     26.5897E+06     16.6169E+06    -1.70770E+06     12.6386E+06     12.2433E+06     16.6169E+06     777.895E+03         68.4606
            1140     758.198E-06     7.99377E-03     360.869E-03    -55.5146E-03    -82.9750E-03    -73.6331E-03     353.447E-03    -57.4342E-03    -14.6533E-03     557.284E-03    -277.605E-03    -279.729E-03    -279.328E-03     557.207E-03    -277.930E-03     2.54120E-03     27.2419E+06     13.6967E+06    -7.54693E+06     10.7752E+06     8.91980E+06     13.6967E+06    -974.699E+03         68.2711
            1141     12.1683E-03     7.00646E-03     407.430E-03    -110.000E-03    -154.872E-03    -130.647E-03     385.571E-03    -112.366E-03     7.62383E-03     725.410E-03    -331.842E-03    -395.432E-03    -376.980E-03     706.958E-03    -331.842E-03     282.461E-03     9.47172E+06    -21.3097E+06    -42.2038E+06    -13.9600E+06    -17.5679E+06    -22.5138E+06     15.3716E+06         100.536
            1142     11.4893E-03     6.39181E-03     401.399E-03    -99.9072E-03    -129.003E-03    -99.1925E-03     384.238E-03    -112.557E-03    -17.8711E-03     736.850E-03    -328.719E-03    -409.687E-03    -394.197E-03     721.360E-03    -328.719E-03     252.870E-03    -11.0954E+06    -32.6510E+06    -48.4375E+06    -27.5636E+06    -30.7651E+06    -33.8551E+06     9.09895E+06         97.3155
            1143     10.8110E-03     6.02227E-03     396.537E-03    -99.8715E-03    -117.041E-03    -95.8792E-03     389.072E-03    -113.569E-03     57.6311E-03     716.086E-03    -323.458E-03    -393.797E-03    -387.687E-03     709.975E-03    -323.458E-03     155.889E-03     25.5450E+06     1.54045E+06    -40.8942E+06    -13.0682E+06    -3.35735E+06     2.61679E+06    -11.1159E+06         93.0365
            1144     10.0886E-03     5.70991E-03     392.847E-03    -110.430E-03    -121.897E-03    -117.795E-03     392.157E-03    -113.843E-03    -16.7199E-03     695.651E-03    -319.009E-03    -378.820E-03    -375.025E-03     691.857E-03    -319.009E-03     113.090E-03     58.9038E+06     20.6558E+06    -21.2858E+06     7.48729E+06     29.0543E+06     21.7321E+06    -24.7032E+06         88.5921
            1145     9.40254E-03     5.51040E-03     385.918E-03    -112.627E-03    -137.800E-03    -137.522E-03     385.640E-03    -112.627E-03     15.8273E-03     670.509E-03    -313.795E-03    -360.398E-03    -358.199E-03     668.310E-03    -313.795E-03     82.5518E-03     50.1069E+06     16.4276E+06    -3.01790E+06     18.9777E+06     28.1114E+06     16.4276E+06    -18.0560E+06         84.6937
            1146     8.72627E-03     5.40297E-03     383.346E-03    -107.647E-03    -133.203E-03    -129.132E-03     382.510E-03    -110.881E-03    -4.80482E-03     648.921E-03    -310.434E-03    -341.357E-03    -339.804E-03     647.368E-03    -310.434E-03     73.8670E-03     33.9438E+06     12.8766E+06    -1.82197E+06     18.2314E+06     16.6519E+06     10.1152E+06    -9.28873E+06         81.5962
            1147     8.02162E-03     5.35586E-03     384.010E-03    -94.0440E-03    -115.915E-03    -97.8450E-03     382.607E-03    -110.711E-03     5.39956E-03     633.141E-03    -305.441E-03    -327.183E-03    -323.234E-03     631.559E-03    -307.809E-03     77.1719E-03     26.3323E+06     13.1487E+06    -460.641E+03     16.7213E+06     14.7378E+06     7.56135E+06    -2.89759E+06         79.2294
            1148     7.31027E-03     5.37022E-03     383.976E-03    -91.9162E-03    -112.366E-03    -90.7029E-03     382.762E-03    -112.366E-03     6.86176E-03     620.114E-03    -299.284E-03    -319.606E-03    -311.060E-03     617.919E-03    -305.635E-03     88.7021E-03     25.1306E+06     10.2633E+06     2.99851E+06     15.3127E+06     15.8845E+06     7.19517E+06    -499.391E+03         77.4948
            1149     6.58903E-03     5.40445E-03     383.483E-03    -106.169E-03    -125.002E-03    -117.343E-03     382.840E-03    -113.185E-03    -3.13448E-03     609.252E-03    -294.337E-03    -315.747E-03    -302.871E-03     606.296E-03    -304.258E-03     101.493E-03     22.8007E+06     9.15434E+06     5.98426E+06     11.8089E+06     18.5059E+06     7.62447E+06     2.07642E+06         76.2716
            1150     5.85656E-03     5.48636E-03     386.330E-03    -111.196E-03    -139.179E-03    -138.586E-03     385.737E-03    -111.196E-03    -54.8144E-06     603.241E-03    -291.776E-03    -313.262E-03    -298.064E-03     599.743E-03    -303.476E-03     109.609E-03     20.0440E+06     11.7693E+06     7.48944E+06     10.6414E+06     19.2104E+06     9.45099E+06     1.60124E+06         75.3403
            1151     5.09344E-03     5.59255E-03     389.762E-03    -108.164E-03    -127.265E-03    -125.693E-03     388.190E-03    -108.164E-03     19.1648E-03     601.571E-03    -292.443E-03    -311.433E-03    -296.873E-03     597.624E-03    -303.057E-03     115.470E-03     21.1874E+06     12.2308E+06     8.94908E+06     10.4261E+06     20.7410E+06     11.2002E+06     1.73183E+06         74.5627
            1152     4.37447E-03     5.71258E-03     389.765E-03    -98.2231E-03    -111.844E-03    -99.8044E-03     387.058E-03    -107.556E-03     753.133E-06     601.227E-03    -293.260E-03    -309.255E-03    -296.119E-03     597.229E-03    -302.397E-03     115.108E-03     23.7204E+06     12.8858E+06     9.94941E+06     12.5484E+06     21.1215E+06     12.8858E+06     1.09648E+06         73.8470
            1153     3.65283E-03     5.83977E-03     380.969E-03    -88.7046E-03    -112.079E-03    -87.0655E-03     377.977E-03    -110.726E-03     3.59409E-03     600.568E-03    -293.852E-03    -307.044E-03    -296.160E-03     597.050E-03    -301.218E-03     107.088E-03     23.8539E+06     12.5554E+06     8.82850E+06     12.3047E+06     20.3778E+06     12.5554E+06     963.356E+03         73.1308
            1154     2.92951E-03     5.96595E-03     378.274E-03    -98.2093E-03    -121.271E-03    -101.124E-03     374.960E-03    -115.043E-03    -4.34289E-03     600.620E-03    -294.972E-03    -305.466E-03    -297.522E-03     597.868E-03    -300.165E-03     93.9608E-03     22.5769E+06     14.4934E+06     7.08027E+06     12.1191E+06     17.5380E+06     14.4934E+06     923.361E+03         72.4452
            1155     2.20365E-03     6.07987E-03     384.385E-03    -106.269E-03    -131.497E-03    -119.674E-03     382.362E-03    -116.069E-03    -39.0064E-03     599.206E-03    -296.078E-03    -303.360E-03    -298.230E-03     597.396E-03    -299.397E-03     75.4387E-03     20.1896E+06     15.5291E+06     2.35563E+06     10.2189E+06     13.9062E+06     13.9492E+06     699.953E+03         71.8654
            1156     1.46950E-03     6.17652E-03     397.123E-03    -101.194E-03    -131.324E-03    -118.572E-03     396.445E-03    -113.268E-03    -4.22385E-03     599.508E-03    -298.403E-03    -301.604E-03    -299.059E-03     598.607E-03    -300.046E-03     52.5246E-03     25.3539E+06     15.6453E+06     2.12687E+06     13.6085E+06     15.4522E+06     14.0655E+06     375.667E+03         71.5270
            1157     736.896E-06     6.24805E-03     423.478E-03    -101.887E-03    -121.030E-03    -107.251E-03     419.986E-03    -112.174E-03     49.6909E-03     610.441E-03    -303.790E-03    -306.792E-03    -306.048E-03     610.134E-03    -304.227E-03     29.2188E-03     25.0290E+06     13.3943E+06    -2.87571E+06     9.95111E+06     12.2022E+06     13.3943E+06     474.777E+03         71.5269
            1158     12.1495E-03     4.90903E-03     472.683E-03    -112.823E-03    -212.884E-03    -114.973E-03     374.772E-03    -112.823E-03     69.6547E-03     772.058E-03    -330.374E-03    -442.817E-03    -425.415E-03     754.656E-03    -330.374E-03     259.707E-03     19.2043E+06    -20.0945E+06    -55.5907E+06    -3.85405E+06    -31.3282E+06    -21.2987E+06     10.5007E+06         100.764
            1159     11.5082E-03     4.29141E-03     442.164E-03    -112.356E-03    -167.596E-03    -119.708E-03     394.276E-03    -112.356E-03    -66.1961E-03     762.815E-03    -324.503E-03    -440.042E-03    -432.778E-03     755.550E-03    -324.503E-03     130.745E-03     61.5527E+06     12.5971E+06    -21.7962E+06     36.9376E+06     4.02306E+06     11.3930E+06    -9.23600E+06         97.1239
            1160     10.8703E-03     3.95193E-03     411.666E-03    -108.939E-03    -131.333E-03    -112.143E-03     395.467E-03    -111.930E-03     84.9253E-03     713.077E-03    -317.595E-03    -397.731E-03    -396.262E-03     711.608E-03    -317.595E-03     49.9528E-03     99.9602E+06     27.3778E+06    -18.2468E+06     53.1929E+06     28.5205E+06     27.3778E+06    -16.1677E+06         92.1742
            1161     10.1565E-03     3.70698E-03     392.044E-03    -108.398E-03    -123.342E-03    -118.655E-03     390.347E-03    -111.389E-03    -41.8601E-03     671.381E-03    -313.066E-03    -360.542E-03    -360.076E-03     670.915E-03    -313.066E-03     32.1156E-03     70.2503E+06     3.86292E+06    -22.5264E+06     42.9120E+06     4.81191E+06     3.86292E+06    -5.83606E+06         86.8883
            1162     9.46839E-03     3.56419E-03     386.720E-03    -109.148E-03    -128.144E-03    -126.840E-03     386.579E-03    -110.311E-03    -4.85839E-03     630.696E-03    -302.864E-03    -331.028E-03    -324.201E-03     630.424E-03    -309.419E-03     31.1909E-03     40.4888E+06    -6.57685E+06    -14.7188E+06     23.7830E+06     1.98693E+06    -6.57685E+06     627.354E+03         82.2350
            1163     8.73375E-03     3.50120E-03     380.925E-03    -102.518E-03    -116.984E-03    -109.659E-03     380.714E-03    -109.630E-03    -12.3150E-03     603.330E-03    -290.281E-03    -316.215E-03    -297.085E-03     602.619E-03    -308.699E-03     48.6777E-03     31.1144E+06    -2.51922E+06    -11.8024E+06     13.8553E+06     8.21800E+06    -5.28061E+06     7.04457E+06         78.5387
            1164     7.99015E-03     3.49879E-03     376.802E-03    -94.2633E-03    -114.009E-03    -97.8802E-03     376.615E-03    -110.205E-03    -6.25885E-03     592.875E-03    -281.562E-03    -311.173E-03    -280.956E-03     591.236E-03    -310.141E-03     74.0329E-03     22.0076E+06     4.86182E+06    -6.70800E+06     9.68601E+06     8.37496E+06     2.10042E+06     4.33891E+06         75.8778
            1165     7.23933E-03     3.52757E-03     378.514E-03    -100.903E-03    -119.616E-03    -109.075E-03     377.967E-03    -110.898E-03    -18.6789E-03     590.001E-03    -276.135E-03    -313.165E-03    -273.210E-03     587.076E-03    -313.165E-03     99.4706E-03     25.4087E+06     7.08795E+06    -4.38163E+06     7.28569E+06     13.7414E+06     7.08795E+06     4.47334E+06         74.2831
            1166     6.48945E-03     3.57913E-03     383.536E-03    -107.334E-03    -123.884E-03    -120.174E-03     383.059E-03    -110.567E-03    -15.8981E-03     590.998E-03    -274.864E-03    -317.570E-03    -270.757E-03     586.891E-03    -317.570E-03     118.766E-03     25.2744E+06      9.5177E+06     3.66271E+06     8.36209E+06     20.5750E+06      9.5177E+06     3.21477E+06         73.6608
            1167     5.74152E-03     3.66584E-03     387.053E-03    -102.882E-03    -124.358E-03    -117.409E-03     386.900E-03    -109.678E-03    -4.65515E-03     598.675E-03    -278.912E-03    -322.281E-03    -273.885E-03     593.648E-03    -322.281E-03     132.338E-03     23.7670E+06     11.2761E+06     6.43571E+06     8.48608E+06     21.7166E+06     11.2761E+06     1.95795E+06         73.7647
            1168     4.99546E-03     3.76169E-03     386.566E-03    -105.402E-03    -116.399E-03    -111.166E-03     384.956E-03    -109.026E-03     28.6434E-03     612.830E-03    -287.855E-03    -327.140E-03    -282.128E-03     607.103E-03    -327.140E-03     143.143E-03     24.8515E+06     11.6313E+06     7.90263E+06     9.01213E+06     23.7420E+06     11.6313E+06     1.53021E+06         74.2323
            1169     4.23565E-03     3.87203E-03     388.452E-03    -108.032E-03    -119.517E-03    -115.638E-03     384.631E-03    -108.090E-03    -10.5970E-03     629.406E-03    -298.740E-03    -331.986E-03    -292.834E-03     623.501E-03    -331.986E-03     147.514E-03     21.5158E+06     10.5293E+06     6.30841E+06     6.98410E+06     20.8401E+06     10.5293E+06     774.715E+03         74.8053
            1170     3.51569E-03     3.99099E-03     379.920E-03    -99.1507E-03    -121.473E-03    -109.789E-03     376.238E-03    -107.152E-03    -13.7429E-03     645.360E-03    -310.057E-03    -335.860E-03    -304.662E-03     639.966E-03    -335.860E-03     142.926E-03     22.0703E+06     9.94748E+06     6.01126E+06     7.07167E+06     21.2281E+06     9.72931E+06     483.151E+03         75.4307
            1171     2.80422E-03     4.10559E-03     374.903E-03    -93.7069E-03    -113.078E-03    -93.9837E-03     371.191E-03    -109.089E-03    -12.1371E-03     661.477E-03    -321.959E-03    -340.153E-03    -317.660E-03     657.179E-03    -340.153E-03     129.127E-03     19.4246E+06     10.8178E+06     4.07525E+06     6.88804E+06     18.4573E+06     8.97235E+06     847.870E+03         76.0563
            1172     2.09673E-03     4.21318E-03     386.494E-03    -95.2198E-03    -115.388E-03    -92.3203E-03     383.594E-03    -115.388E-03    -24.7584E-03     676.230E-03    -332.735E-03    -343.929E-03    -329.845E-03     673.339E-03    -343.929E-03     106.727E-03     18.0577E+06     12.3130E+06     2.75302E+06     8.46650E+06     15.5514E+06     9.10589E+06    -422.660E+03         76.5763
            1173     1.39857E-03     4.30102E-03     401.727E-03    -105.404E-03    -124.909E-03    -104.433E-03     400.756E-03    -124.909E-03     15.3360E-03     690.500E-03    -342.625E-03    -347.951E-03    -341.117E-03     688.993E-03    -347.951E-03     76.8427E-03     16.3322E+06     8.01922E+06    -647.629E+03     4.84006E+06     12.4244E+06     6.43933E+06     218.462E+03         76.9823
            1174     697.947E-06     4.36210E-03     431.081E-03    -127.435E-03    -143.852E-03    -125.343E-03     421.239E-03    -136.101E-03     92.2511E-03     707.491E-03    -351.593E-03    -355.937E-03    -353.051E-03     706.955E-03    -353.943E-03     44.8389E-03     23.0465E+06     6.40994E+06    -603.149E+03     7.98675E+06     14.4566E+06     6.40994E+06     2.49987E+06         77.3354
            1175     12.2158E-03     2.57429E-03     506.266E-03    -103.746E-03    -216.854E-03    -79.0441E-03     375.522E-03    -110.812E-03     165.123E-03     911.959E-03    -327.659E-03    -583.402E-03    -568.194E-03     896.750E-03    -327.659E-03     241.060E-03     40.0997E+06    -8.27795E+06    -36.4409E+06     12.0815E+06    -7.05664E+06    -9.64402E+06    -9.55069E+06         100.238
            1176     11.6431E-03     2.16595E-03     439.118E-03    -103.936E-03    -159.725E-03    -108.003E-03     394.462E-03    -111.001E-03    -83.3214E-03     787.709E-03    -317.396E-03    -470.135E-03    -469.881E-03     787.455E-03    -317.396E-03     21.6694E-03     38.4425E+06    -12.9764E+06    -58.0599E+06     22.2125E+06    -40.4638E+06    -14.3425E+06    -10.0237E+06         96.8755
            1177     10.9996E-03     1.92305E-03     406.102E-03    -109.980E-03    -147.817E-03    -135.954E-03     394.238E-03    -109.980E-03     69.9124E-03     691.094E-03    -309.863E-03    -381.654E-03    -381.633E-03     691.072E-03    -309.863E-03    -3.49450E-03     43.4481E+06    -12.7255E+06    -64.3523E+06     8.86940E+06    -30.5625E+06    -11.9365E+06    -3.35770E+06         91.8923
            1178     10.2307E-03     1.77997E-03     384.445E-03    -107.199E-03    -126.582E-03    -124.111E-03     383.177E-03    -108.402E-03    -36.6928E-03     624.752E-03    -296.901E-03    -328.818E-03    -319.164E-03     624.724E-03    -306.527E-03     4.93694E-03     43.5680E+06    -9.40404E+06    -50.2762E+06    -1.81703E+06    -5.68009E+06    -8.61508E+06     30.1625E+06         86.3184
            1179     9.48124E-03     1.72768E-03     387.418E-03    -91.9721E-03    -112.914E-03    -96.5810E-03     387.298E-03    -108.185E-03    -9.08763E-03     582.071E-03    -273.892E-03    -309.368E-03    -276.833E-03     581.885E-03    -306.241E-03     22.6591E-03     44.7154E+06    -2.04836E+06    -36.2477E+06    -4.02191E+06     12.4896E+06    -2.04836E+06     21.8343E+06         81.3300
            1180     8.71121E-03     1.71958E-03     388.025E-03    -90.9413E-03    -109.463E-03    -90.7212E-03     387.805E-03    -109.463E-03    -6.60171E-03     563.319E-03    -255.161E-03    -309.703E-03    -254.588E-03     562.746E-03    -309.703E-03     41.5168E-03     36.7548E+06     1.44722E+06    -20.8784E+06    -3.06414E+06     18.9405E+06     1.44722E+06     11.4087E+06         77.3117
            1181     7.92492E-03     1.72656E-03     388.527E-03    -106.134E-03    -126.585E-03    -122.811E-03     388.264E-03    -109.646E-03     4.45503E-03     562.864E-03    -247.613E-03    -315.560E-03    -246.400E-03     561.651E-03    -315.560E-03     59.4512E-03     30.0935E+06     3.77772E+06    -13.6549E+06    -2.40522E+06     18.8439E+06     3.77772E+06     7.70792E+06         74.4085
            1182     7.14989E-03     1.74881E-03     387.485E-03    -107.493E-03    -136.330E-03    -135.974E-03     387.129E-03    -107.493E-03    -901.636E-06     570.028E-03    -247.815E-03    -322.782E-03    -245.926E-03     568.139E-03    -322.782E-03     73.8614E-03     28.3578E+06     4.84702E+06    -7.59801E+06    -1.07630E+06     21.8361E+06     4.84702E+06     2.53151E+06         72.7637
            1183     6.38057E-03     1.79156E-03     383.835E-03    -95.3721E-03    -117.874E-03    -107.044E-03     383.609E-03    -105.975E-03    -1.82161E-03     584.985E-03    -254.420E-03    -331.534E-03    -251.940E-03     582.505E-03    -331.534E-03     84.8273E-03     26.9544E+06     3.82252E+06    -3.58896E+06     509.086E+03     22.8564E+06     3.82252E+06     1.11447E+06         72.4368
            1184     5.61584E-03     1.83854E-03     382.767E-03    -84.1476E-03    -107.603E-03    -84.0188E-03     382.638E-03    -107.603E-03    -2.09715E-03     608.359E-03    -267.935E-03    -341.115E-03    -264.900E-03     605.324E-03    -341.115E-03     95.0337E-03     26.8427E+06     3.31093E+06    -1.47725E+06     1.88489E+06     23.4805E+06     3.31093E+06     1.68723E+06         73.2925
            1185     4.86522E-03     1.90068E-03     381.005E-03    -97.3142E-03    -111.100E-03    -97.4676E-03     380.282E-03    -110.224E-03     13.3772E-03     635.577E-03    -284.917E-03    -350.455E-03    -281.611E-03     632.271E-03    -350.455E-03     100.982E-03     26.1563E+06     3.08383E+06     -5.0505E+03     2.61645E+06     23.5348E+06     3.08383E+06     883.337E+03         74.8450
            1186     4.10065E-03     1.96445E-03     383.620E-03    -109.658E-03    -128.189E-03    -126.246E-03     381.735E-03    -109.716E-03    -15.5781E-03     664.257E-03    -304.327E-03    -359.752E-03    -301.059E-03     660.988E-03    -359.752E-03     102.260E-03     24.0803E+06     4.00033E+06    -313.594E+03     3.01214E+06     20.7546E+06     4.00033E+06     2.85105E+06         76.6238
            1187     3.38520E-03     2.03229E-03     388.215E-03    -105.736E-03    -130.974E-03    -129.121E-03     386.363E-03    -105.736E-03    -13.1965E-03     694.329E-03    -325.379E-03    -368.678E-03    -322.381E-03     691.332E-03    -368.678E-03     100.190E-03     25.1081E+06     4.14829E+06    -1.10667E+06     3.13422E+06     21.0853E+06     3.93012E+06    -417.852E+03         78.4560
            1188     2.68550E-03     2.10049E-03     386.967E-03    -94.6548E-03    -111.425E-03    -100.394E-03     385.065E-03    -103.784E-03     2.79652E-03     724.082E-03    -346.671E-03    -377.515E-03    -344.282E-03     721.693E-03    -377.515E-03     91.6913E-03     24.3067E+06     5.19465E+06    -2.70156E+06     4.28130E+06     19.1693E+06     3.34922E+06     755.714E+03         80.2423
            1189     1.99961E-03     2.17160E-03     386.864E-03    -84.8412E-03    -109.154E-03    -82.0623E-03     384.085E-03    -109.154E-03     16.9917E-03     752.611E-03    -366.884E-03    -385.730E-03    -365.264E-03     750.991E-03    -385.730E-03     77.0069E-03     19.7723E+06     6.40088E+06    -2.95600E+06     3.31826E+06     15.1253E+06     4.77363E+06     1.76271E+06         81.8231
            1190     1.32402E-03     2.23082E-03     382.579E-03    -99.1550E-03    -119.707E-03    -97.5944E-03     381.018E-03    -119.707E-03     39.5137E-03     777.934E-03    -384.357E-03    -393.291E-03    -383.476E-03     777.053E-03    -393.291E-03     56.5249E-03     17.2751E+06     4.67134E+06    -3.03597E+06     1.73536E+06     12.5037E+06     4.67134E+06    -608.578E+03         83.0505
            1191     660.652E-06     2.27293E-03     376.145E-03    -120.396E-03    -138.773E-03    -124.918E-03     367.658E-03    -125.765E-03     89.7192E-03     800.783E-03    -397.036E-03    -403.656E-03    -396.718E-03     800.465E-03    -403.656E-03     33.4322E-03     25.4976E+06     2.00283E+06    -6.07403E+06     2.53944E+06     16.8841E+06     2.00283E+06     1.74319E+06         83.8506
            1192     715.503E-06     110.064E-03     273.799E-03    -72.2685E-03    -99.8010E-03    -79.9752E-03     261.218E-03    -79.5140E-03     35.7144E-03     670.567E-03    -334.750E-03    -336.015E-03    -335.799E-03     670.567E-03    -334.965E-03    -86.2009E-06    -678.558E+03    -3.00437E+06     -7.4551E+06    -3.03250E+06    -5.57217E+06    -2.53336E+06     312.766E+03         76.4927
            1193     1.42995E-03     110.094E-03     247.658E-03    -66.4020E-03    -77.5246E-03    -64.0680E-03     244.291E-03    -76.4910E-03    -7.62706E-03     667.189E-03    -333.267E-03    -334.109E-03    -333.400E-03     667.185E-03    -333.972E-03     3.41614E-03     1.23124E+06    -971.666E+03    -6.10434E+06    -2.27315E+06    -3.19737E+06    -374.255E+03     797.232E+03         76.6327
            1194     2.14290E-03     110.094E-03     238.761E-03    -65.2343E-03    -72.9134E-03    -62.8491E-03     235.371E-03    -71.9086E-03    -15.1448E-03     662.642E-03    -330.718E-03    -333.125E-03    -330.698E-03     662.610E-03    -333.112E-03     10.2583E-03     1.84253E+06     86.2311E+03    -3.77796E+06    -1.60080E+06    -1.79107E+06     1.54267E+06     685.044E+03         76.9894
            1195     2.86062E-03     110.069E-03     241.666E-03    -69.2595E-03    -76.2341E-03    -66.6567E-03     232.849E-03    -70.0207E-03     25.2771E-03     659.160E-03    -328.519E-03    -332.350E-03    -328.401E-03     659.042E-03    -332.350E-03     20.7786E-03     3.84863E+06     419.319E+03    -2.70534E+06    -1.03404E+06     847.282E+03     1.74936E+06     498.129E+03         77.5164
            1196     3.57785E-03     110.069E-03     246.451E-03    -68.8547E-03    -84.5348E-03    -69.6347E-03     232.312E-03    -69.6158E-03    -7.78114E-03     658.854E-03    -327.945E-03    -331.473E-03    -327.621E-03     658.530E-03    -331.473E-03     34.7812E-03     4.43792E+06     1.32352E+06    -2.17157E+06    -172.073E+03     1.42329E+06     2.33865E+06     179.079E+03         78.1503
            1197     4.29270E-03     110.081E-03     246.515E-03    -69.5667E-03    -83.5139E-03    -73.4875E-03     236.884E-03    -69.9615E-03    -37.3831E-03     658.109E-03    -326.681E-03    -331.148E-03    -325.914E-03     657.342E-03    -331.148E-03     53.8124E-03     4.72276E+06     581.258E+03    -1.99474E+06     165.613E+03     1.22519E+06     1.91847E+06    -122.389E+03         78.8721
            1198     5.01219E-03     110.154E-03     240.395E-03    -68.4989E-03    -74.2734E-03    -70.4777E-03     238.532E-03    -70.4314E-03     39.8234E-03     654.980E-03    -325.121E-03    -331.551E-03    -323.664E-03     653.523E-03    -331.551E-03     74.7927E-03     4.55641E+06     224.498E+03    -2.40262E+06     229.123E+03     909.900E+03     1.23926E+06    -59.2249E+03         79.6853
            1199     5.72780E-03     110.275E-03     239.146E-03    -65.8079E-03    -70.4582E-03    -63.6428E-03     236.779E-03    -70.2559E-03    -28.4557E-03     654.084E-03    -323.437E-03    -331.551E-03    -320.996E-03     651.643E-03    -331.551E-03     96.8252E-03     7.74175E+06     1.39576E+06    -1.84049E+06     723.834E+03     5.45752E+06     1.11566E+06    -265.641E+03         80.5797
            1200     6.44872E-03     110.359E-03     239.436E-03    -64.8486E-03    -71.8111E-03    -62.6536E-03     235.052E-03    -69.6223E-03     359.830E-06     652.591E-03    -324.414E-03    -330.506E-03    -320.686E-03     648.863E-03    -330.506E-03     119.933E-03     7.33310E+06     1.89523E+06    -967.547E+03     855.025E+03     6.79855E+06     607.200E+03    -467.587E+03         81.4736
            1201     7.17539E-03     110.435E-03     243.497E-03    -67.5404E-03    -77.4133E-03    -71.0130E-03     238.964E-03    -69.4080E-03    -376.580E-06     655.141E-03    -327.960E-03    -330.113E-03    -322.923E-03     650.104E-03    -330.113E-03     140.139E-03     4.78810E+06     1.17750E+06    -371.065E+03     884.246E+03     4.45728E+06     253.011E+03    -495.920E+03         82.2498
            1202     7.87488E-03     110.760E-03     243.377E-03    -69.7293E-03    -78.5365E-03    -74.4983E-03     239.343E-03    -69.7334E-03    -7.82315E-03     662.040E-03    -329.546E-03    -330.493E-03    -323.354E-03     655.780E-03    -330.425E-03     156.900E-03     6.94457E+06    -146.635E+03    -3.11612E+06    -63.4543E+03     4.50116E+06    -755.886E+03    -7.97234E+03         82.9280
            1203     8.60225E-03     110.964E-03     232.543E-03    -65.0611E-03    -72.4620E-03    -65.5125E-03     230.210E-03    -69.6778E-03     18.4540E-03     662.675E-03    -330.687E-03    -332.026E-03    -323.281E-03     655.024E-03    -331.782E-03     173.468E-03     6.91364E+06    -87.4720E+03    -3.47777E+06    -46.8323E+03     3.47281E+06    -77.5786E+03     669.918E+03         83.6159
            1204     9.31060E-03     111.235E-03     227.371E-03    -61.0205E-03    -69.3021E-03    -60.0451E-03     226.021E-03    -68.9281E-03    -30.4494E-03     662.978E-03    -331.426E-03    -334.281E-03    -324.489E-03     654.013E-03    -332.252E-03     188.105E-03     8.94996E+06     908.908E+03    -1.24327E+06    -90.0672E+03     7.78687E+06     918.802E+03     523.879E+03         84.4764
            1205     10.0543E-03     111.478E-03     232.774E-03    -64.2702E-03    -70.3144E-03    -58.8910E-03     225.001E-03    -67.9208E-03     44.2321E-03     666.197E-03    -331.372E-03    -337.187E-03    -325.810E-03     654.819E-03    -331.372E-03     211.755E-03     8.85629E+06     3.00067E+06    -1.88378E+06    -156.236E+03     7.12875E+06     3.00067E+06     516.702E+03         85.8331
            1206     10.7725E-03     111.888E-03     245.566E-03    -66.6973E-03    -80.6915E-03    -63.1521E-03     228.386E-03    -67.0570E-03    -16.1370E-03     668.647E-03    -331.724E-03    -339.349E-03    -327.676E-03     656.973E-03    -331.724E-03     215.167E-03     11.4419E+06     3.94907E+06    -3.99171E+06     201.244E+03     7.24893E+06     3.94907E+06     135.472E+03         87.9465
            1207     11.4770E-03     112.229E-03     251.439E-03    -66.6802E-03    -87.9168E-03    -71.6417E-03     235.164E-03    -66.6802E-03    -18.2148E-03     684.076E-03    -331.261E-03    -354.051E-03    -337.181E-03     667.205E-03    -331.261E-03     257.484E-03     15.8025E+06     2.38428E+06    -6.73146E+06    -877.123E+03     9.94818E+06     2.38428E+06     95.2738E+03         90.7960
            1208     12.2067E-03     112.806E-03     244.031E-03    -66.6343E-03    -79.5908E-03    -70.5888E-03     235.029E-03    -66.6343E-03     21.3304E-03     686.550E-03    -331.669E-03    -355.738E-03    -340.814E-03     671.626E-03    -331.669E-03     236.245E-03     13.4932E+06     914.746E+03    -9.62548E+06    -1.12860E+06     4.99630E+06     914.746E+03     559.056E+03         93.7678
            1209     713.757E-06     112.028E-03     248.226E-03    -50.9755E-03    -94.4548E-03    -57.7394E-03     229.282E-03    -68.7469E-03     38.2584E-03     671.582E-03    -334.918E-03    -336.804E-03    -336.247E-03     671.581E-03    -335.474E-03     1.03266E-03    -1.46865E+06    -3.58176E+06    -7.91485E+06    -3.22078E+06    -6.49988E+06    -3.24461E+06     339.113E+03         76.4970
            1210     1.42932E-03     112.056E-03     240.589E-03    -59.4951E-03    -81.0750E-03    -68.7910E-03     232.913E-03    -64.1030E-03    -14.7762E-03     666.610E-03    -332.467E-03    -334.242E-03    -332.459E-03     666.603E-03    -334.242E-03     4.64788E-03    -1.08187E+06    -3.08070E+06    -7.64331E+06    -3.42052E+06    -5.64182E+06    -2.74355E+06     540.604E+03         76.6043
            1211     2.14616E-03     112.070E-03     244.780E-03    -61.5687E-03    -83.3627E-03    -72.7073E-03     238.733E-03    -66.1767E-03    -4.66612E-03     662.628E-03    -330.523E-03    -333.181E-03    -330.488E-03     662.593E-03    -333.181E-03     11.2512E-03     29.6101E+03    -1.68788E+06    -5.19230E+06    -2.52230E+06    -2.69356E+06    -1.63471E+06     420.203E+03         76.9505
            1212     2.85942E-03     112.055E-03     248.932E-03    -68.2099E-03    -83.6904E-03    -76.0361E-03     241.278E-03    -68.2099E-03     8.29223E-03     660.660E-03    -329.836E-03    -332.626E-03    -329.704E-03     660.528E-03    -332.626E-03     21.8084E-03     2.95714E+06    -618.556E+03    -3.36592E+06    -1.39847E+06     936.530E+03    -565.394E+03     245.385E+03         77.5186
            1213     3.57409E-03     112.064E-03     251.713E-03    -70.0030E-03    -86.7851E-03    -77.8678E-03     242.795E-03    -70.0030E-03    -1.88590E-03     659.936E-03    -328.525E-03    -331.941E-03    -328.167E-03     659.579E-03    -331.941E-03     36.6240E-03     3.87176E+06    -570.275E+03    -3.27378E+06    -1.66039E+06     2.24511E+06    -557.015E+03     484.552E+03         78.2135
            1214     4.29134E-03     112.089E-03     254.966E-03    -71.4463E-03    -86.1010E-03    -79.1573E-03     248.023E-03    -71.4463E-03    -14.0039E-03     658.050E-03    -326.148E-03    -331.583E-03    -325.364E-03     657.266E-03    -331.583E-03     54.6004E-03     5.49303E+06        -646.719     -2.7611E+06    -1.20408E+06     3.40297E+06     532.396E+03    -475.089E+03         78.9819
            1215     5.01249E-03     112.156E-03     249.302E-03    -69.2665E-03    -78.8057E-03    -73.1041E-03     246.455E-03    -72.1211E-03     38.9591E-03     655.953E-03    -325.389E-03    -331.925E-03    -323.915E-03     654.479E-03    -331.925E-03     75.2269E-03     5.21177E+06     140.399E+03    -2.33306E+06    -388.543E+03     1.45487E+06     1.95279E+06    -989.641E+03         79.8273
            1216     5.72360E-03     112.277E-03     240.875E-03    -65.6589E-03    -71.6278E-03    -63.8158E-03     239.032E-03    -71.6278E-03    -21.2519E-03     656.274E-03    -324.952E-03    -331.950E-03    -322.510E-03     653.833E-03    -331.950E-03     97.1342E-03     6.62297E+06     282.330E+03    -2.37036E+06    -361.375E+03     4.29005E+06     606.262E+03    -346.427E+03         80.7469
            1217     6.44638E-03     112.356E-03     236.569E-03    -63.8261E-03    -70.5519E-03    -61.2024E-03     233.946E-03    -70.5519E-03     3.95744E-03     654.178E-03    -325.459E-03    -330.999E-03    -321.637E-03     650.356E-03    -330.999E-03     121.387E-03     8.56175E+06     1.49671E+06    -1.88535E+06    -440.974E+03     8.08604E+06     528.039E+03    -202.767E+03         81.6518
            1218     7.17257E-03     112.436E-03     230.155E-03    -62.6446E-03    -69.5076E-03    -60.9752E-03     228.485E-03    -69.5076E-03     18.6372E-03     656.468E-03    -328.455E-03    -330.538E-03    -323.251E-03     651.264E-03    -330.538E-03     142.623E-03     6.34477E+06     1.43360E+06    -2.17046E+06    -1.08788E+06     4.80724E+06     1.88856E+06     393.473E+03         82.4336
            1219     7.87349E-03     112.735E-03     225.065E-03    -60.7706E-03    -68.9040E-03    -60.1610E-03     224.045E-03    -68.4935E-03    -8.30883E-03     662.572E-03    -329.719E-03    -330.657E-03    -323.264E-03     656.117E-03    -330.657E-03     159.285E-03     7.18035E+06     1.84137E+06    -4.44260E+06    -1.13070E+06     3.41349E+06     2.29633E+06     418.955E+03         83.1126
            1220     8.59979E-03     112.938E-03     224.124E-03    -59.5685E-03    -68.4135E-03    -59.1322E-03     222.719E-03    -67.4453E-03     15.3267E-03     661.155E-03    -329.578E-03    -331.926E-03    -321.804E-03     653.381E-03    -331.926E-03     174.652E-03     7.70004E+06     880.741E+03    -4.96393E+06    -1.57472E+06     3.66239E+06     1.52919E+06    -523.331E+03         83.7829
            1221     9.31545E-03     113.209E-03     229.807E-03    -63.1909E-03    -69.1718E-03    -62.6425E-03     226.683E-03    -66.5963E-03    -15.9142E-03     661.813E-03    -330.457E-03    -333.957E-03    -323.337E-03     652.979E-03    -332.244E-03     186.509E-03     7.17165E+06    -439.541E+03    -2.71517E+06    -1.34063E+06     5.14866E+06     208.908E+03     543.572E+03         84.6055
            1222     10.0624E-03     113.466E-03     234.817E-03    -65.6851E-03    -71.1388E-03    -62.3885E-03     226.426E-03    -66.0447E-03     24.4554E-03     666.473E-03    -331.199E-03    -336.492E-03    -325.557E-03     655.538E-03    -331.199E-03     207.666E-03     9.03444E+06     389.036E+03    -2.75208E+06    -989.207E+03     7.27156E+06     389.036E+03     1.27838E+06         85.9066
            1223     10.7746E-03     113.875E-03     240.011E-03    -65.4165E-03    -77.3393E-03    -65.6448E-03     228.676E-03    -65.7762E-03     3.54258E-03     668.628E-03    -331.604E-03    -338.762E-03    -327.549E-03     657.414E-03    -331.604E-03     210.923E-03     12.0809E+06     1.52525E+06    -5.69869E+06    -1.38241E+06     8.30980E+06     980.028E+03     442.102E+03         87.9529
            1224     11.4861E-03     114.237E-03     242.874E-03    -64.0285E-03    -80.6473E-03    -71.2082E-03     235.344E-03    -65.9369E-03    -21.5119E-03     684.377E-03    -331.232E-03    -354.259E-03    -337.754E-03     667.872E-03    -331.232E-03     254.750E-03     13.6510E+06     1.19563E+06    -7.44875E+06    -1.45926E+06     8.20676E+06     650.417E+03    -288.361E+03         90.7032
            1225     12.1983E-03     114.835E-03     238.476E-03    -62.9254E-03    -75.0431E-03    -67.9166E-03     234.639E-03    -66.2150E-03     3.95038E-03     686.881E-03    -331.649E-03    -355.894E-03    -341.182E-03     672.169E-03    -331.649E-03     235.110E-03     12.9503E+06     884.385E+03    -9.95664E+06    -1.59987E+06     4.59356E+06     884.385E+03    -976.948E+03         93.5698
            1226     715.589E-06     113.995E-03     222.069E-03    -44.9685E-03    -78.8682E-03    -49.1685E-03     214.419E-03    -67.0181E-03    -21.5870E-03     670.678E-03    -334.727E-03    -336.101E-03    -335.760E-03     670.677E-03    -335.067E-03     1.20696E-03    -3.54519E+06    -5.17545E+06    -9.77312E+06    -5.70590E+06    -8.24178E+06    -4.54608E+06     98.9860E+03         76.5070
            1227     1.43116E-03     114.013E-03     229.746E-03    -55.7728E-03    -78.5733E-03    -66.6867E-03     222.138E-03    -60.0511E-03     10.8467E-03     668.076E-03    -333.526E-03    -334.700E-03    -333.573E-03     668.070E-03    -334.646E-03     4.20397E-03    -2.59136E+06    -3.96161E+06    -8.87030E+06    -5.07896E+06    -6.81792E+06    -3.52639E+06     234.003E+03         76.6426
            1228     2.14533E-03     114.038E-03     250.352E-03    -65.0673E-03    -90.3557E-03    -83.8936E-03     243.890E-03    -65.0673E-03     13.6051E-03     664.466E-03    -331.759E-03    -333.881E-03    -331.728E-03     664.436E-03    -333.881E-03     10.2482E-03     48.2749E+03    -2.35428E+06    -6.67030E+06    -4.45682E+06    -1.56616E+06    -2.95333E+06     7.07496E+03         76.9663
            1229     2.86129E-03     114.038E-03     250.186E-03    -67.6599E-03    -85.2929E-03    -79.3665E-03     246.102E-03    -69.5025E-03    -5.25432E-03     661.201E-03    -330.277E-03    -332.784E-03    -330.151E-03     661.075E-03    -332.784E-03     21.1252E-03     1.73138E+06    -2.94822E+06    -6.81781E+06    -4.86522E+06     229.486E+03    -3.39892E+06     64.3212E+03         77.4923
            1230     3.57443E-03     114.070E-03     241.473E-03    -67.7246E-03    -75.0183E-03    -67.9624E-03     237.150E-03    -70.4568E-03    -2.66225E-03     660.689E-03    -328.789E-03    -332.201E-03    -328.417E-03     660.317E-03    -332.201E-03     37.2210E-03     3.90884E+06    -3.26092E+06    -5.61700E+06    -3.93292E+06     2.19990E+06    -3.23606E+06     345.233E+03         78.1649
            1231     4.28873E-03     114.109E-03     243.178E-03    -69.1757E-03    -76.2289E-03    -69.1406E-03     236.980E-03    -70.0653E-03     11.7578E-03     658.498E-03    -326.288E-03    -331.978E-03    -325.494E-03     657.703E-03    -331.978E-03     55.1569E-03     6.79127E+06    -2.92112E+06    -4.25930E+06    -3.55695E+06     6.40299E+06    -3.23518E+06    -129.026E+03         78.9277
            1232     5.00753E-03     114.183E-03     240.042E-03    -67.5138E-03    -75.4225E-03    -66.8501E-03     233.621E-03    -69.6651E-03     13.1575E-03     656.629E-03    -325.764E-03    -332.379E-03    -324.262E-03     655.127E-03    -332.379E-03     75.8413E-03     6.32706E+06    -3.19505E+06    -4.80944E+06    -3.61097E+06     3.92852E+06    -1.99497E+06    -1.41771E+06         79.7801
            1233     5.72179E-03     114.294E-03     232.843E-03    -66.6955E-03    -71.0894E-03    -65.0597E-03     229.168E-03    -69.0508E-03    -16.4445E-03     657.665E-03    -326.206E-03    -332.278E-03    -323.687E-03     655.146E-03    -332.278E-03     98.7930E-03     5.67473E+06    -3.22999E+06    -5.46676E+06    -3.34234E+06     1.59007E+06    -1.26976E+06    -1.73608E+06         80.7189
            1234     6.44074E-03     114.369E-03     233.355E-03    -66.6466E-03    -72.5758E-03    -67.4270E-03     230.158E-03    -68.5986E-03    -446.489E-06     655.505E-03    -326.722E-03    -331.359E-03    -322.790E-03     651.572E-03    -331.359E-03     123.288E-03     6.90737E+06    -2.63678E+06    -4.94629E+06    -3.35378E+06     4.77970E+06    -2.10162E+06     467.354E+03         81.6540
            1235     7.16810E-03     114.457E-03     226.729E-03    -60.1271E-03    -70.4728E-03    -59.6080E-03     223.720E-03    -67.9822E-03     667.693E-06     657.539E-03    -328.191E-03    -330.888E-03    -322.834E-03     652.182E-03    -330.888E-03     144.752E-03     7.03902E+06    -938.595E+03    -4.26745E+06    -3.08849E+06     5.16248E+06    -241.016E+03     997.690E+03         82.4714
            1236     7.87096E-03     114.778E-03     223.985E-03    -56.3561E-03    -68.7828E-03    -56.0332E-03     221.814E-03    -66.9345E-03    -7.74202E-03     662.922E-03    -328.950E-03    -331.055E-03    -322.409E-03     656.381E-03    -331.055E-03     160.354E-03     7.40207E+06     1.45015E+06    -4.06793E+06    -2.55651E+06     5.75375E+06     1.58705E+06    -489.049E+03         83.1913
            1237     8.60099E-03     114.966E-03     229.649E-03    -60.6038E-03    -68.5657E-03    -59.9720E-03     226.611E-03    -66.1596E-03     4.09575E-03     661.482E-03    -329.892E-03    -332.264E-03    -322.157E-03     653.748E-03    -332.264E-03     174.288E-03     7.01971E+06     2.22049E+06    -3.84414E+06     -1.7854E+06     4.01683E+06     3.16463E+06    -734.929E+03         83.9033
            1238     9.31080E-03     115.241E-03     236.334E-03    -64.8759E-03    -70.7629E-03    -64.3028E-03     230.958E-03    -65.9603E-03    -16.2585E-03     662.901E-03    -331.081E-03    -334.158E-03    -324.158E-03     654.128E-03    -332.308E-03     186.043E-03     5.27538E+06     1.78209E+06    -3.29316E+06    -1.61203E+06     1.21028E+06     4.16605E+06     541.713E+03         84.7323
            1239     10.0518E-03     115.514E-03     236.561E-03    -64.5724E-03    -73.4265E-03    -65.7562E-03     230.423E-03    -66.1053E-03    -12.3657E-03     667.552E-03    -331.246E-03    -337.194E-03    -326.337E-03     656.695E-03    -331.246E-03     207.150E-03     9.24656E+06     2.34092E+06    -2.79867E+06    -856.976E+03     7.82961E+06     1.81617E+06     1.27892E+06         85.9816
            1240     10.7694E-03     115.928E-03     232.605E-03    -64.5071E-03    -71.8808E-03    -66.3017E-03     228.880E-03    -66.3611E-03     16.3477E-03     669.663E-03    -331.703E-03    -339.623E-03    -328.456E-03     658.497E-03    -331.703E-03     210.730E-03     14.0237E+06     2.08883E+06    -3.88137E+06     641.703E+03     11.3173E+06     272.187E+03     570.724E+03         87.9264
            1241     11.4731E-03     116.285E-03     230.924E-03    -64.3710E-03    -70.3242E-03    -66.2586E-03     229.088E-03    -66.6005E-03    -22.7310E-03     684.919E-03    -331.536E-03    -354.012E-03    -337.326E-03     668.233E-03    -331.536E-03     255.957E-03     15.3695E+06     2.08357E+06    -8.30316E+06     1.03432E+06     6.57727E+06     1.53835E+06     209.304E+03         90.5338
            1242     12.2015E-03     116.857E-03     222.793E-03    -60.4199E-03    -67.8626E-03    -60.4218E-03     221.515E-03    -66.5824E-03    -10.4093E-03     686.878E-03    -331.881E-03    -355.370E-03    -340.462E-03     671.970E-03    -331.881E-03     236.430E-03     14.7897E+06     989.137E+03    -13.2344E+06    -2.04330E+06     3.59852E+06     989.137E+03    -429.628E+03         93.2717
            1243     716.454E-06     115.957E-03     250.184E-03    -62.1564E-03    -87.7835E-03    -78.5199E-03     245.199E-03    -66.4346E-03    -51.6856E-03     671.139E-03    -335.321E-03    -335.984E-03    -335.984E-03     671.139E-03    -335.321E-03    -137.004E-06    -4.08961E+06    -5.86614E+06    -9.98883E+06    -5.78969E+06    -8.58095E+06    -5.57393E+06     26.1044E+03         76.5358
            1244     1.43093E-03     115.989E-03     246.220E-03    -67.5912E-03    -81.4134E-03    -71.9869E-03     241.658E-03    -72.4562E-03     36.3081E-03     670.541E-03    -335.081E-03    -335.638E-03    -335.135E-03     670.537E-03    -335.581E-03     2.95952E-03    -3.34138E+06    -4.83979E+06    -9.62460E+06    -5.75543E+06    -7.32972E+06    -4.72063E+06    -47.2563E+03         76.6516
            1245     2.14459E-03     116.033E-03     235.773E-03    -63.8874E-03    -80.1632E-03    -67.6270E-03     231.075E-03    -71.7263E-03     19.0215E-03     664.872E-03    -332.012E-03    -334.178E-03    -331.977E-03     664.837E-03    -334.178E-03     10.4689E-03     1.38038E+06    -976.274E+03    -6.01526E+06    -3.68136E+06    -1.67303E+06    -256.758E+03     200.591E+03         76.8821
            1246     2.85728E-03     116.049E-03     228.271E-03    -60.4685E-03    -76.1732E-03    -64.4327E-03     226.383E-03    -70.3201E-03    -16.9806E-03     660.781E-03    -329.636E-03    -332.995E-03    -329.500E-03     660.645E-03    -332.995E-03     22.0845E-03     3.51626E+06     921.741E+03    -4.73289E+06    -2.31206E+06     138.050E+03     1.87912E+06     297.631E+03         77.3060
            1247     3.57389E-03     116.086E-03     230.570E-03    -65.4939E-03    -69.1054E-03    -64.5117E-03     229.588E-03    -69.1054E-03    -4.03356E-03     660.364E-03    -328.341E-03    -332.238E-03    -327.956E-03     659.979E-03    -332.238E-03     37.8606E-03     5.02251E+06    -223.073E+03    -4.35199E+06    -2.31584E+06     2.85087E+06    -87.5942E+03    -172.027E+03         77.9249
            1248     4.28886E-03     116.131E-03     232.002E-03    -62.8013E-03    -70.4814E-03    -62.0653E-03     228.903E-03    -68.1185E-03     8.83298E-03     659.135E-03    -326.971E-03    -332.120E-03    -326.139E-03     658.302E-03    -332.120E-03     56.4685E-03     7.14934E+06    -1.85376E+06    -3.08127E+06    -2.44381E+06     6.82595E+06    -2.16783E+06    -450.993E+03         78.6951
            1249     5.00658E-03     116.195E-03     226.288E-03    -61.4475E-03    -69.8412E-03    -58.2564E-03     220.182E-03    -66.9263E-03    -20.8015E-03     657.780E-03    -326.516E-03    -332.697E-03    -324.980E-03     656.244E-03    -332.697E-03     76.9131E-03     6.66960E+06    -787.331E+03    -4.16042E+06    -1.90360E+06     4.41851E+06    -793.060E+03    -291.393E+03         79.5900
            1250     5.71913E-03     116.318E-03     229.500E-03    -65.0783E-03    -75.4523E-03    -66.9701E-03     222.191E-03    -66.2520E-03     4.57171E-03     658.113E-03    -326.729E-03    -332.535E-03    -324.205E-03     655.589E-03    -332.535E-03     98.9635E-03     5.83350E+06    -74.9179E+03    -3.89918E+06    -1.90661E+06     1.18811E+06     2.57791E+06     111.477E+03         80.5564
            1251     6.44145E-03     116.392E-03     237.341E-03    -66.6070E-03    -82.4441E-03    -73.4086E-03     228.306E-03    -66.6070E-03    -8.61996E-03     656.664E-03    -327.787E-03    -331.708E-03    -323.938E-03     652.815E-03    -331.708E-03     122.221E-03     6.29208E+06     237.700E+03    -3.47955E+06    -2.25995E+06     1.99268E+06     3.31750E+06    -241.595E+03         81.5065
            1252     7.16454E-03     116.483E-03     233.301E-03    -64.0817E-03    -75.9264E-03    -66.2384E-03     226.472E-03    -66.9414E-03    -25.5248E-03     658.890E-03    -328.629E-03    -331.219E-03    -323.432E-03     653.693E-03    -331.219E-03     142.654E-03     9.87777E+06     717.109E+03    -2.96926E+06    -1.00697E+06     7.40170E+06     1.23089E+06     55.3289E+03         82.3413
            1253     7.86946E-03     116.805E-03     231.362E-03    -61.6346E-03    -70.3919E-03    -62.3793E-03     228.462E-03    -66.7474E-03     4.49844E-03     662.532E-03    -328.169E-03    -331.502E-03    -321.820E-03     656.183E-03    -331.502E-03     157.919E-03     8.31364E+06     1.10583E+06    -1.19372E+06      300.94E+03     6.92019E+06     1.00461E+06     389.243E+03         83.0715
            1254     8.59442E-03     117.000E-03     233.336E-03    -63.0378E-03    -68.2613E-03    -61.9019E-03     230.315E-03    -66.3753E-03     5.82438E-03     661.370E-03    -329.637E-03    -332.620E-03    -321.980E-03     653.713E-03    -332.620E-03     173.339E-03     4.42203E+06     1.76089E+06    -1.76614E+06     200.369E+03     1.57220E+06     2.64422E+06     753.872E+03         83.8042
            1255     9.30724E-03     117.278E-03     235.984E-03    -65.0996E-03    -72.6040E-03    -67.9186E-03     232.383E-03    -66.1840E-03     10.1658E-03     663.516E-03    -331.432E-03    -334.426E-03    -324.703E-03     654.683E-03    -332.321E-03     186.803E-03     5.73705E+06     2.30103E+06    -2.75207E+06     113.443E+03     2.39471E+06     2.77785E+06     408.226E+03         84.6622
            1256     10.0523E-03     117.559E-03     234.089E-03    -64.7958E-03    -76.8178E-03    -72.7955E-03     231.600E-03    -66.3287E-03    -22.2094E-03     668.579E-03    -331.367E-03    -338.600E-03    -327.732E-03     657.711E-03    -331.367E-03     207.544E-03     8.80927E+06     3.55971E+06    -2.42659E+06     666.213E+03     7.49560E+06     1.78056E+06    -535.282E+03         85.9032
            1257     10.7644E-03     117.980E-03     226.155E-03    -64.4897E-03    -71.7628E-03    -66.6986E-03     222.945E-03    -66.3437E-03     27.6100E-03     670.700E-03    -331.935E-03    -340.827E-03    -329.761E-03     659.634E-03    -331.935E-03     209.965E-03     11.7880E+06     2.52246E+06    -3.33117E+06     259.700E+03     9.89510E+06     824.473E+03     162.324E+03         87.7751
            1258     11.4747E-03     118.314E-03     223.275E-03    -63.5720E-03    -68.4039E-03    -62.6531E-03     219.763E-03    -65.8115E-03     4.63565E-03     684.287E-03    -331.959E-03    -352.908E-03    -336.583E-03     667.962E-03    -331.959E-03     252.971E-03     15.4171E+06     1.77758E+06    -8.68239E+06    -204.237E+03     7.36552E+06     1.35101E+06     265.741E+03         90.2709
            1259     12.1985E-03     118.882E-03     223.654E-03    -60.1596E-03    -68.3969E-03    -61.6025E-03     221.650E-03    -64.9508E-03    -416.095E-06     684.732E-03    -332.182E-03    -352.855E-03    -338.232E-03     670.110E-03    -332.182E-03     233.967E-03     15.8019E+06     1.40533E+06    -11.5197E+06    -294.643E+03     4.57682E+06     1.40533E+06     1.13110E+06         92.9349
            1260     714.202E-06     117.939E-03     248.028E-03    -47.2724E-03    -89.8279E-03    -70.4495E-03     228.650E-03    -47.2724E-03     54.0826E-03     672.501E-03    -335.193E-03    -337.184E-03    -336.868E-03     672.499E-03    -335.507E-03     1.30652E-03    -3.64611E+06    -5.87796E+06    -9.74340E+06    -5.08321E+06    -8.30630E+06    -5.87796E+06    -508.557E+03         76.5212
            1261     1.42899E-03     117.969E-03     246.698E-03    -62.7372E-03    -88.8401E-03    -84.5156E-03     242.961E-03    -63.3238E-03     29.6922E-03     670.503E-03    -334.590E-03    -336.082E-03    -334.587E-03     670.496E-03    -336.078E-03     4.06700E-03    -2.39112E+06    -3.89441E+06    -8.16787E+06    -4.59769E+06    -6.06437E+06    -3.79135E+06    -763.242E+03         76.5860
            1262     2.14474E-03     118.018E-03     227.795E-03    -60.8089E-03    -81.6806E-03    -71.1869E-03     225.140E-03    -68.6479E-03    -2.11506E-03     664.033E-03    -331.132E-03    -334.237E-03    -331.093E-03     663.994E-03    -334.237E-03     11.2837E-03     297.619E+03    -3.18497E+06    -6.15128E+06    -4.19387E+06    -2.36322E+06    -2.48155E+06    -822.047E+03         76.7523
            1263     2.86142E-03     118.040E-03     219.452E-03    -59.7310E-03    -73.7912E-03    -64.7677E-03     219.152E-03    -68.4548E-03    -2.68014E-03     660.223E-03    -329.361E-03    -332.779E-03    -329.221E-03     660.083E-03    -332.779E-03     22.6039E-03     3.00196E+06    -2.83894E+06    -5.85793E+06    -3.96417E+06     781.309E+03    -2.51205E+06    -738.462E+03         77.1411
            1264     3.57556E-03     118.072E-03     225.740E-03    -64.0908E-03    -67.5290E-03    -63.4575E-03     225.107E-03    -67.5290E-03     12.4539E-03     660.551E-03    -328.625E-03    -332.118E-03    -328.246E-03     660.172E-03    -332.118E-03     37.6742E-03     5.44083E+06    -1.81373E+06    -4.70520E+06    -3.55137E+06     4.56047E+06    -2.08720E+06    -757.379E+03         77.7632
            1265     4.29055E-03     118.140E-03     225.510E-03    -58.9699E-03    -66.3414E-03    -57.9167E-03     224.457E-03    -66.3414E-03    -7.22699E-03     659.736E-03    -327.513E-03    -332.323E-03    -326.691E-03     658.914E-03    -332.323E-03     56.0926E-03     7.71572E+06    -480.361E+03    -2.72414E+06    -2.27945E+06      5.7549E+06     1.03577E+06    -410.830E+03         78.5602
            1266     5.00743E-03     118.206E-03     220.124E-03    -56.5723E-03    -64.8199E-03    -54.6523E-03     218.204E-03    -64.8199E-03    -43.0286E-03     659.106E-03    -327.251E-03    -332.954E-03    -325.738E-03     657.593E-03    -332.954E-03     76.4718E-03     5.41240E+06     1.08668E+06    -3.83737E+06    -2.00545E+06     1.14151E+06     3.52565E+06     759.337E+03         79.4726
            1267     5.71839E-03     118.322E-03     228.462E-03    -61.1398E-03    -74.7962E-03    -63.7737E-03     220.282E-03    -63.9826E-03     38.4226E-03     658.994E-03    -327.265E-03    -332.650E-03    -324.763E-03     656.491E-03    -332.650E-03     98.5560E-03     5.07408E+06     1.24052E+06    -2.93211E+06    -1.43953E+06     1.72894E+06     3.09308E+06     937.543E+03         80.4417
            1268     6.43890E-03     118.394E-03     241.400E-03    -64.5076E-03    -88.0554E-03    -76.0961E-03     229.441E-03    -64.5076E-03     7.38169E-03     656.950E-03    -328.070E-03    -331.949E-03    -324.205E-03     653.086E-03    -331.949E-03     122.470E-03     7.32477E+06     1.74805E+06    -2.59606E+06    -68.0464E+03     4.26648E+06     2.27833E+06    -284.611E+03         81.4005
            1269     7.16310E-03     118.485E-03     238.897E-03    -65.4786E-03    -82.6520E-03    -75.8945E-03     232.140E-03    -65.4786E-03    -26.0753E-03     659.279E-03    -328.734E-03    -331.466E-03    -323.524E-03     654.069E-03    -331.466E-03     142.876E-03     9.32044E+06     2.51452E+06    -4.60442E+06     219.087E+03     4.89639E+06     2.11507E+06    -746.433E+03         82.2408
            1270     7.86358E-03     118.813E-03     231.889E-03    -63.5200E-03    -71.4142E-03    -67.2564E-03     229.984E-03    -65.7731E-03     21.6627E-03     662.555E-03    -328.103E-03    -331.631E-03    -321.662E-03     656.114E-03    -331.631E-03     158.993E-03     8.49042E+06     924.291E+03    -3.42737E+06    -472.265E+03     4.94340E+06     1.51621E+06     704.913E+03         82.9816
            1271     8.59664E-03     118.998E-03     225.968E-03    -60.4323E-03    -66.6009E-03    -60.2190E-03     224.515E-03    -65.3613E-03    -1.41356E-03     661.382E-03    -329.885E-03    -332.856E-03    -322.388E-03     653.727E-03    -332.698E-03     173.435E-03     4.67640E+06    -618.226E+03    -2.93859E+06    -1.41355E+06     2.55944E+06    -26.3076E+03     1.42391E+06         83.7455
            1272     9.30919E-03     119.285E-03     222.295E-03    -59.8359E-03    -68.5720E-03    -61.1588E-03     219.799E-03    -64.7532E-03     28.5031E-03     663.649E-03    -331.734E-03    -334.978E-03    -325.758E-03     655.051E-03    -332.356E-03     184.401E-03     5.51018E+06    -69.5570E+03    -3.32930E+06    -840.028E+03     4.27530E+06    -1.32396E+06    -80.6302E+03         84.6375
            1273     10.0447E-03     119.581E-03     224.899E-03    -62.0631E-03    -74.0506E-03    -67.2471E-03     220.337E-03    -64.3044E-03    -18.1845E-03     668.824E-03    -331.452E-03    -338.958E-03    -328.319E-03     658.185E-03    -331.452E-03     205.394E-03     8.15848E+06     393.425E+03    -4.47793E+06    -1.00952E+06     7.15487E+06    -2.07138E+06    -978.832E+03         85.8749
            1274     10.7623E-03     120.000E-03     225.051E-03    -63.8156E-03    -72.3676E-03    -63.7227E-03     216.406E-03    -63.8156E-03     16.6345E-03     670.778E-03    -331.992E-03    -340.585E-03    -329.690E-03     659.883E-03    -331.992E-03     208.360E-03     9.82826E+06    -1.10092E+06    -5.85014E+06    -1.90984E+06     7.52492E+06    -2.73789E+06    -476.053E+03         87.6975
            1275     11.4662E-03     120.300E-03     221.804E-03    -61.0930E-03    -66.9766E-03    -57.2670E-03     214.013E-03    -63.0114E-03     20.0291E-03     684.249E-03    -331.829E-03    -352.919E-03    -336.618E-03     667.947E-03    -331.829E-03     252.550E-03     14.4143E+06    -2.12410E+06    -7.98022E+06    -812.961E+03     7.67359E+06    -2.55066E+06    -95.4042E+03         90.1412
            1276     12.1900E-03     120.801E-03     223.738E-03    -60.3383E-03    -65.9371E-03    -59.6375E-03     219.357E-03    -62.2567E-03    -1.11943E-03     683.291E-03    -332.184E-03    -351.446E-03    -336.746E-03     668.591E-03    -332.184E-03     234.384E-03     14.9483E+06    -345.109E+03    -8.99788E+06     1.05777E+06     4.89263E+06    -345.109E+03     559.618E+03         92.7959
            1277     715.261E-06     119.905E-03     267.820E-03    -26.1496E-03    -132.805E-03    -62.9994E-03     198.014E-03    -26.1496E-03     219.767E-03     673.122E-03    -334.900E-03    -337.954E-03    -337.254E-03     673.121E-03    -335.598E-03     1.22457E-03    -1.23206E+06    -3.08698E+06    -6.36220E+06    -2.40247E+06    -5.19179E+06    -3.08698E+06    -515.226E+03         76.4662
            1278     1.43096E-03     119.944E-03     215.323E-03    -49.9060E-03    -74.6356E-03    -71.0746E-03     211.762E-03    -49.9060E-03    -22.9715E-03     670.905E-03    -334.642E-03    -336.515E-03    -334.635E-03     670.897E-03    -336.515E-03     4.69698E-03    -1.37495E+06    -3.30169E+06    -6.10475E+06    -2.80118E+06    -4.76049E+06    -3.21972E+06    -1.25771E+06         76.5295
            1279     2.14565E-03     119.996E-03     215.332E-03    -58.1026E-03    -77.2289E-03    -76.0320E-03     214.135E-03    -58.1026E-03    -16.5217E-03     665.624E-03    -332.237E-03    -334.651E-03    -332.202E-03     665.589E-03    -334.651E-03     11.1347E-03     1.98000E+06    -3.08684E+06    -4.57798E+06    -2.94550E+06    -1.19435E+06    -1.54497E+06    -1.31163E+06         76.7095
            1280     2.85941E-03     120.032E-03     217.943E-03    -61.6650E-03    -74.9573E-03    -73.9406E-03     217.641E-03    -62.3798E-03     5.94287E-03     661.592E-03    -330.650E-03    -332.655E-03    -330.521E-03     661.462E-03    -332.655E-03     21.6636E-03     5.47315E+06    -1.38079E+06    -4.08928E+06    -2.71284E+06     2.75678E+06    -40.8525E+03    -1.42381E+06         77.0879
            1281     3.57452E-03     120.079E-03     212.703E-03    -57.1486E-03    -65.5110E-03    -58.3912E-03     211.596E-03    -63.1610E-03     21.8349E-03     662.355E-03    -329.869E-03    -332.436E-03    -329.517E-03     662.004E-03    -332.436E-03     36.4031E-03     6.04367E+06     125.610E+03    -2.94049E+06    -1.39854E+06     3.74710E+06     880.235E+03    -882.751E+03         77.6780
            1282     4.28766E-03     120.151E-03     215.626E-03    -55.4537E-03    -62.1729E-03    -54.4412E-03     214.291E-03    -61.8511E-03     10.2737E-03     660.487E-03    -327.817E-03    -332.865E-03    -327.021E-03     659.691E-03    -332.865E-03     55.0738E-03     5.05235E+06    -162.788E+03    -2.64758E+06    -1.28913E+06     1.30317E+06     2.22794E+06     652.816E+03         78.4263
            1283     5.00529E-03     120.216E-03     228.887E-03    -58.6483E-03    -70.3786E-03    -66.7895E-03     228.067E-03    -61.4171E-03    -24.9447E-03     658.732E-03    -326.792E-03    -333.241E-03    -325.267E-03     657.207E-03    -333.241E-03     76.6542E-03     4.73654E+06     788.670E+03    -2.92200E+06    -934.001E+03     1.34455E+06     2.19267E+06     548.668E+03         79.2919
            1284     5.71735E-03     120.328E-03     231.279E-03    -60.4298E-03    -74.8780E-03    -68.8426E-03     226.912E-03    -62.0989E-03     23.1290E-03     658.753E-03    -326.893E-03    -332.661E-03    -324.282E-03     656.141E-03    -332.661E-03     100.512E-03     4.56954E+06    -30.4201E+03    -2.21505E+06    -562.414E+03     3.02904E+06    -142.558E+03    -238.866E+03         80.2724
            1285     6.43989E-03     120.403E-03     222.269E-03    -57.7181E-03    -74.7106E-03    -63.8684E-03     216.243E-03    -62.5351E-03     9.43733E-03     655.952E-03    -327.283E-03    -331.938E-03    -323.229E-03     651.899E-03    -331.938E-03     125.374E-03     6.92285E+06    -612.884E+03    -3.34234E+06    -594.686E+03     5.22088E+06    -1.65857E+06    -254.758E+03         81.3033
            1286     7.16490E-03     120.503E-03     223.749E-03    -57.8944E-03    -76.4029E-03    -68.8483E-03     221.012E-03    -62.7115E-03    -10.0548E-03     658.830E-03    -328.441E-03    -331.501E-03    -323.060E-03     653.450E-03    -331.501E-03     145.205E-03     8.41861E+06     346.119E+03    -8.23951E+06    -1.43450E+06     2.65930E+06    -699.571E+03     669.351E+03         82.2291
            1287     7.86853E-03     120.835E-03     228.235E-03    -63.1012E-03    -73.8863E-03    -73.0871E-03     227.435E-03    -63.1012E-03     22.2252E-03     664.368E-03    -329.727E-03    -332.300E-03    -323.925E-03     657.914E-03    -331.648E-03     159.584E-03     8.42008E+06    -1.31898E+06    -8.79504E+06    -3.18068E+06     2.80572E+06    -1.31898E+06     1.03137E+06         83.0496
            1288     8.59274E-03     121.006E-03     223.225E-03    -60.6139E-03    -70.8975E-03    -64.7150E-03     219.718E-03    -63.2898E-03    -33.1694E-03     663.376E-03    -331.784E-03    -333.772E-03    -325.320E-03     655.873E-03    -332.734E-03     172.144E-03     7.69331E+06    -1.16112E+06    -3.65332E+06    -1.82866E+06     5.86865E+06    -1.16112E+06     371.367E+03         83.8760
            1289     9.30275E-03     121.289E-03     220.428E-03    -57.8232E-03    -70.1979E-03    -54.4737E-03     209.621E-03    -62.7405E-03     22.5195E-03     664.227E-03    -332.507E-03    -335.059E-03    -326.464E-03     655.632E-03    -332.507E-03     184.443E-03     7.23449E+06     164.739E+03    -1.92011E+06    -407.559E+03     6.08315E+06    -196.476E+03    -133.354E+03         84.8000
            1290     10.0412E-03     121.552E-03     226.219E-03    -59.7084E-03    -74.4453E-03    -57.0199E-03     211.035E-03    -61.9498E-03    -6.39534E-03     669.123E-03    -331.612E-03    -338.455E-03    -327.444E-03     658.112E-03    -331.612E-03     208.784E-03     8.47133E+06     1.62685E+06    -2.66472E+06     300.546E+03     6.96435E+06     168.572E+03    -515.464E+03         86.0375
            1291     10.7650E-03     121.897E-03     227.447E-03    -61.5184E-03    -74.2518E-03    -60.5719E-03     213.767E-03    -61.5184E-03    -9.08200E-03     670.808E-03    -331.936E-03    -339.807E-03    -328.440E-03     659.441E-03    -331.936E-03     212.701E-03     11.5951E+06     1.44078E+06    -3.69921E+06     1.74395E+06     7.24898E+06     343.711E+03    -624.515E+03         87.8375
            1292     11.4713E-03     122.203E-03     223.908E-03    -61.4478E-03    -72.0475E-03    -62.9194E-03     214.780E-03    -61.4478E-03     14.7617E-03     683.707E-03    -331.640E-03    -352.835E-03    -335.955E-03     666.827E-03    -331.640E-03     256.978E-03     14.3083E+06     470.280E+03    -7.17718E+06     1.18418E+06     5.94691E+06     470.280E+03    -331.526E+03         90.2711
            1293     12.1981E-03     122.783E-03     218.324E-03    -61.6047E-03    -69.1301E-03    -64.2188E-03     213.413E-03    -61.6047E-03    -13.1356E-03     685.276E-03    -332.288E-03    -353.984E-03    -338.945E-03     670.237E-03    -332.288E-03     236.685E-03     12.5381E+06     1.29768E+06    -8.50601E+06    -62.1561E+03     4.09425E+06     1.29768E+06     577.339E+03         92.9361
            1294     714.848E-06     121.881E-03     362.442E-03    -49.9003E-03    -211.631E-03    -63.1817E-03     213.993E-03    -49.9003E-03     315.513E-03     671.337E-03    -334.367E-03    -336.899E-03    -335.547E-03     671.336E-03    -335.719E-03     80.9370E-06    -517.803E+03    -1.24827E+06    -4.25539E+06    -1.72498E+06    -3.55014E+06    -746.339E+03    -110.899E+03         76.3365
            1295     1.43153E-03     121.923E-03     211.272E-03    -50.3941E-03    -67.6450E-03    -50.3233E-03     199.351E-03    -55.7941E-03    -80.2028E-03     668.442E-03    -333.755E-03    -335.055E-03    -333.789E-03     668.435E-03    -335.013E-03     4.39793E-03     1.76835E+06    -1.39361E+06    -3.09833E+06    -1.41010E+06    -2.13688E+06     823.388E+03    -152.308E+03         76.4124
            1296     2.14591E-03     121.992E-03     199.236E-03    -49.6371E-03    -65.2607E-03    -58.1741E-03     197.550E-03    -55.0371E-03     21.1134E-03     665.716E-03    -332.855E-03    -334.147E-03    -332.820E-03     665.681E-03    -334.147E-03     11.1704E-03     3.92861E+06    -474.804E+03    -1.68986E+06    -277.245E+03    -683.970E+03     2.72516E+06    -583.490E+03         76.6293
            1297     2.86096E-03     122.032E-03     215.345E-03    -57.4030E-03    -74.9360E-03    -72.3535E-03     212.763E-03    -57.4030E-03     3.57043E-03     663.599E-03    -331.999E-03    -333.150E-03    -331.863E-03     663.463E-03    -333.150E-03     22.1296E-03     6.03032E+06     3.26229E+06    -1.59418E+06     1.07036E+06     1.05539E+06     5.57268E+06     182.945E+03         76.9855
            1298     3.57290E-03     122.090E-03     213.386E-03    -56.3118E-03    -69.7897E-03    -64.7790E-03     211.829E-03    -59.7654E-03    -19.0829E-03     661.749E-03    -329.559E-03    -332.361E-03    -329.182E-03     661.372E-03    -332.361E-03     37.6778E-03     6.35064E+06     3.90713E+06    -1.57440E+06     967.866E+03     1.36486E+06     6.35064E+06     861.512E+03         77.4891
            1299     4.28619E-03     122.161E-03     206.768E-03    -52.7708E-03    -61.6582E-03    -53.8357E-03     205.998E-03    -59.8239E-03     9.10101E-03     659.430E-03    -327.072E-03    -332.426E-03    -326.216E-03     658.575E-03    -332.426E-03     56.9629E-03     3.56897E+06     1.02937E+06    -1.15308E+06     986.677E+03    -163.811E+03     2.62240E+06     533.139E+03         78.1441
            1300     5.00387E-03     122.220E-03     219.921E-03    -56.1457E-03    -69.6480E-03    -65.0095E-03     218.882E-03    -59.7452E-03     16.9595E-03     656.835E-03    -325.841E-03    -332.464E-03    -324.260E-03     655.254E-03    -332.464E-03     78.0669E-03     5.54877E+06     777.093E+03    -2.65988E+06     1.23278E+06     3.90750E+06    -1.47429E+06     185.062E+03         78.9706
            1301     5.71997E-03     122.322E-03     228.405E-03    -60.7410E-03    -76.6608E-03    -71.5055E-03     223.249E-03    -60.7410E-03    -22.7555E-03     656.567E-03    -325.805E-03    -332.028E-03    -323.236E-03     653.998E-03    -332.028E-03     99.6458E-03     6.26896E+06     1.18663E+06    -2.08362E+06     1.29041E+06     4.47213E+06    -390.565E+03    -203.240E+03         79.9987
            1302     6.44228E-03     122.388E-03     216.608E-03    -56.4350E-03    -72.0581E-03    -60.6111E-03     209.978E-03    -61.2521E-03    -8.55857E-03     656.421E-03    -327.181E-03    -331.865E-03    -323.405E-03     652.645E-03    -331.865E-03     121.112E-03     7.11291E+06     452.857E+03    -4.99116E+06    -419.317E+03     1.86688E+06     1.12704E+06     1.02808E+06         81.1369
            1303     7.16753E-03     122.477E-03     211.399E-03    -56.3467E-03    -69.8729E-03    -61.9697E-03     208.312E-03    -61.1637E-03     13.7790E-03     661.054E-03    -329.367E-03    -332.031E-03    -324.310E-03     655.997E-03    -332.031E-03     140.818E-03     11.7553E+06     1.62999E+06    -8.87789E+06     165.285E+03     2.71216E+06     1.62999E+06     1.50506E+06         82.1835
            1304     7.86596E-03     122.777E-03     211.562E-03    -57.7804E-03    -69.4310E-03    -63.9199E-03     209.531E-03    -61.2613E-03     11.1671E-03     665.221E-03    -329.997E-03    -332.607E-03    -324.249E-03     658.821E-03    -331.955E-03     158.891E-03     12.4902E+06     2.62106E+06    -6.00062E+06     1.46979E+06     6.30883E+06     1.33200E+06    -518.781E+03         83.0825
            1305     8.59554E-03     122.914E-03     219.078E-03    -57.6915E-03    -74.0527E-03    -60.4177E-03     208.924E-03    -61.1724E-03    -48.9059E-03     663.840E-03    -331.534E-03    -333.543E-03    -324.689E-03     656.076E-03    -332.624E-03     175.021E-03     7.80164E+06     2.07822E+06    -1.67704E+06     1.39573E+06     5.92994E+06     877.142E+03    -631.357E+03         83.9309
            1306     9.29616E-03     123.286E-03     231.535E-03    -60.8218E-03    -80.5358E-03    -59.9401E-03     210.939E-03    -60.8218E-03     11.8848E-03     666.084E-03    -332.503E-03    -335.452E-03    -326.546E-03     657.178E-03    -332.503E-03     187.978E-03     7.35821E+06     675.019E+03    -1.03399E+06     1.40862E+06     5.18882E+06     401.791E+03     627.244E+03         84.8692
            1307     10.0284E-03     123.574E-03     235.230E-03    -60.6278E-03    -82.2895E-03    -61.8756E-03     214.816E-03    -60.6278E-03     10.7101E-03     670.598E-03    -331.828E-03    -339.013E-03    -327.772E-03     659.357E-03    -331.828E-03     211.151E-03     9.74877E+06     926.049E+03    -1.64591E+06     767.077E+03     7.65019E+06     611.633E+03     329.282E+03         86.1623
            1308     10.7736E-03     123.784E-03     229.402E-03    -60.7389E-03    -79.1073E-03    -65.8426E-03     216.137E-03    -60.7389E-03    -21.4309E-03     670.363E-03    -331.991E-03    -339.001E-03    -327.441E-03     658.803E-03    -331.991E-03     214.329E-03     11.7998E+06     1.61326E+06    -4.75310E+06    -429.111E+03     7.42898E+06     1.66006E+06    -566.023E+03         88.0159
            1309     11.4630E-03     124.193E-03     217.947E-03    -60.9812E-03    -74.2706E-03    -67.9289E-03     211.606E-03    -60.9812E-03     20.7270E-03     683.392E-03    -331.873E-03    -352.594E-03    -335.777E-03     666.575E-03    -331.873E-03     256.789E-03     13.3566E+06     2.67497E+06    -10.2363E+06    -1.41911E+06     4.53936E+06     2.67497E+06    -140.796E+03         90.4569
            1310     12.1938E-03     124.775E-03     208.785E-03    -61.1763E-03    -69.6941E-03    -67.3394E-03     206.430E-03    -61.1763E-03    -15.7678E-03     686.567E-03    -332.700E-03    -355.302E-03    -340.353E-03     671.618E-03    -332.700E-03     236.586E-03     12.7833E+06     3.72839E+06    -8.73803E+06     45.9329E+03     3.99936E+06     3.72839E+06     435.782E+03         93.1147
            1311     718.060E-06     123.799E-03     408.216E-03    -69.6371E-03    -250.287E-03    -65.2754E-03     223.205E-03    -69.6371E-03     318.185E-03     670.802E-03    -334.510E-03    -336.306E-03    -334.656E-03     670.801E-03    -336.160E-03    -280.201E-06    -1.42809E+06    -2.22796E+06    -5.79877E+06    -2.90057E+06    -4.84948E+06    -1.70477E+06     202.652E+03         76.3566
            1312     1.43368E-03     123.828E-03     235.921E-03    -59.2537E-03    -84.7457E-03    -53.6868E-03     210.262E-03    -64.6537E-03    -130.729E-03     667.111E-03    -333.310E-03    -334.269E-03    -333.452E-03     667.106E-03    -334.123E-03     3.09344E-03     2.20495E+06    -590.014E+03    -2.38555E+06    -755.285E+03    -1.64232E+06     1.62699E+06     739.595E+03         76.4212
            1313     2.15008E-03     123.853E-03     205.350E-03    -51.1770E-03    -65.2446E-03    -53.5316E-03     203.306E-03    -60.8451E-03     28.8960E-03     664.767E-03    -332.228E-03    -333.777E-03    -332.196E-03     664.734E-03    -333.777E-03     10.2618E-03     1.81287E+06    -728.423E+03    -2.91611E+06    -748.130E+03    -2.13748E+06     1.05395E+06      872.19E+03         76.6425
            1314     2.86557E-03     123.869E-03     211.885E-03    -55.8411E-03    -70.4819E-03    -63.0267E-03     208.698E-03    -60.1092E-03     24.0428E-03     662.770E-03    -330.844E-03    -333.255E-03    -330.716E-03     662.642E-03    -333.255E-03     21.4998E-03     1.24321E+06    -345.161E+03    -4.24693E+06    -1.05771E+06    -2.57468E+06     283.516E+03     1.38859E+06         76.9921
            1315     3.58398E-03     123.898E-03     219.771E-03    -61.4987E-03    -73.9995E-03    -70.8639E-03     216.635E-03    -61.4987E-03    -37.7466E-03     658.681E-03    -327.803E-03    -331.624E-03    -327.434E-03     658.312E-03    -331.624E-03     37.0378E-03     5.33545E+06     1.22335E+06    -2.65056E+06    -23.4990E+03     2.04476E+06     1.88698E+06     1.64684E+06         77.4517
            1316     4.30164E-03     123.970E-03     207.678E-03    -54.8473E-03    -68.4913E-03    -58.7813E-03     205.354E-03    -62.2332E-03    -17.3261E-03     657.327E-03    -326.268E-03    -331.170E-03    -325.452E-03     656.511E-03    -331.170E-03     55.6504E-03     6.21318E+06     1.34041E+06    -1.12462E+06     662.105E+03     3.05085E+06     2.71601E+06     369.620E+03         78.0683
            1317     5.02379E-03     124.003E-03     199.643E-03    -52.7101E-03    -62.1087E-03    -49.3743E-03     195.366E-03    -61.1673E-03     55.3686E-03     654.492E-03    -325.020E-03    -330.817E-03    -323.476E-03     652.948E-03    -330.817E-03     76.7563E-03     7.04635E+06     707.011E+03    -2.65306E+06    -264.933E+03     2.79807E+06     2.56716E+06    -429.659E+03         78.8713
            1318     5.74293E-03     124.041E-03     216.553E-03    -58.9337E-03    -70.3798E-03    -54.2260E-03     201.471E-03    -60.0049E-03    -36.5092E-03     653.974E-03    -324.278E-03    -330.737E-03    -321.704E-03     651.399E-03    -330.737E-03     99.5409E-03     6.79547E+06     249.236E+03    -4.72616E+06    -939.932E+03     1.77324E+06     1.48523E+06     1.01560E+06         79.8630
            1319     6.45091E-03     124.242E-03     228.558E-03    -59.7458E-03    -81.2520E-03    -62.3330E-03     209.639E-03    -59.7458E-03    -12.3105E-03     657.085E-03    -326.997E-03    -331.828E-03    -323.188E-03     653.276E-03    -331.828E-03     121.648E-03     9.20989E+06     614.777E+03    -6.13927E+06     448.464E+03     1.94797E+06     1.28896E+06     1.68171E+06         80.9548
            1320     7.13336E-03     124.602E-03     220.127E-03    -59.9036E-03    -75.2316E-03    -63.3008E-03     208.196E-03    -59.9036E-03     22.0725E-03     662.608E-03    -329.956E-03    -332.874E-03    -324.773E-03     657.424E-03    -332.874E-03     142.623E-03     12.5458E+06    -464.298E+03    -7.57495E+06     375.677E+03     4.59519E+06    -464.298E+03    -300.132E+03         81.9820
            1321     7.86413E-03     124.712E-03     208.852E-03    -56.2678E-03    -68.5699E-03    -56.0997E-03     199.863E-03    -59.7487E-03     4.40928E-03     663.890E-03    -328.474E-03    -332.010E-03    -321.788E-03     657.204E-03    -332.010E-03     162.035E-03     9.70903E+06    -745.013E+03    -5.39228E+06    -42.9741E+03     5.71495E+06    -2.10024E+06    -542.694E+03         82.8772
            1322     8.60845E-03     124.815E-03     221.288E-03    -56.1437E-03    -80.2286E-03    -63.2917E-03     207.832E-03    -59.6246E-03    -22.8845E-03     662.437E-03    -330.093E-03    -332.473E-03    -322.451E-03     654.448E-03    -332.126E-03     177.317E-03     4.15200E+06     15.1997E+03    -3.37453E+06    -95.4744E+03     2.14018E+06    -1.25205E+06     336.821E+03         83.6910
            1323     9.29515E-03     125.321E-03     230.461E-03    -59.9794E-03    -82.1004E-03    -66.4212E-03     214.782E-03    -59.9794E-03    -11.3935E-03     666.561E-03    -332.391E-03    -335.711E-03    -326.902E-03     657.752E-03    -332.391E-03     187.069E-03     6.57684E+06    -639.947E+03    -3.04245E+06    -515.158E+03     3.96156E+06    -551.960E+03     459.176E+03         84.6260
            1324     10.0293E-03     125.592E-03     219.114E-03    -56.5376E-03    -72.4380E-03    -57.1022E-03     207.354E-03    -60.1127E-03     12.0628E-03     670.838E-03    -331.947E-03    -339.433E-03    -328.399E-03     659.804E-03    -331.947E-03     209.194E-03     11.5623E+06    -1.36356E+06    -3.72857E+06    -1.05550E+06     8.95576E+06    -1.43010E+06     1.36240E+06         85.9951
            1325     10.7658E-03     125.814E-03     212.289E-03    -56.2612E-03    -68.6528E-03    -58.4304E-03     205.641E-03    -59.8362E-03    -17.1862E-03     671.029E-03    -332.144E-03    -340.387E-03    -328.850E-03     659.491E-03    -332.144E-03     214.406E-03     12.4590E+06     533.041E+03    -6.46354E+06    -1.60480E+06     8.88316E+06    -749.887E+03     1.58204E+06         87.9361
            1326     11.4640E-03     126.162E-03     207.371E-03    -59.5815E-03    -66.4284E-03    -64.1524E-03     205.095E-03    -59.5815E-03     20.2576E-03     685.458E-03    -332.070E-03    -354.672E-03    -337.751E-03     668.537E-03    -332.070E-03     258.158E-03     13.7107E+06     2.22813E+06    -10.2727E+06    -1.45259E+06     6.10691E+06     1.01175E+06     1.03086E+06         90.4171
            1327     12.1890E-03     126.687E-03     200.578E-03    -59.4021E-03    -64.3220E-03    -63.1485E-03     199.405E-03    -59.4021E-03    -23.7463E-03     687.342E-03    -332.878E-03    -355.678E-03    -340.651E-03     672.316E-03    -332.878E-03     237.490E-03     15.3260E+06     3.34699E+06    -9.27431E+06     1.71388E+06     4.33787E+06     3.34699E+06     64.5646E+03         93.0849
            1328     715.018E-06     125.740E-03     339.778E-03    -75.3892E-03    -193.264E-03    -53.1649E-03     199.680E-03    -75.3892E-03     262.712E-03     672.326E-03    -335.164E-03    -337.172E-03    -336.228E-03     672.325E-03    -336.108E-03     32.2300E-06    -2.40546E+06    -3.96843E+06    -6.76029E+06    -2.99160E+06    -6.19541E+06    -3.94717E+06     689.995E+03         76.8413
            1329     1.43161E-03     125.778E-03     229.042E-03    -65.3185E-03    -85.0611E-03    -69.0020E-03     212.983E-03    -65.3185E-03    -93.0169E-03     667.746E-03    -333.300E-03    -334.803E-03    -333.401E-03     667.742E-03    -334.698E-03     2.71388E-03    -1.92016E+06    -3.73750E+06    -6.40841E+06    -3.82872E+06    -5.49243E+06    -2.74491E+06     954.058E+03         76.9066
            1330     2.14824E-03     125.807E-03     214.811E-03    -55.9018E-03    -69.1384E-03    -59.2018E-03     214.215E-03    -65.2423E-03     5.85625E-03     663.229E-03    -330.831E-03    -333.359E-03    -330.798E-03     663.196E-03    -333.359E-03     10.1191E-03    -184.773E+03    -3.51547E+06    -7.20614E+06    -4.18328E+06    -3.24145E+06    -3.48166E+06     1.52393E+06         77.0897
            1331     2.86779E-03     125.826E-03     203.892E-03    -52.6081E-03    -62.6277E-03    -48.9798E-03     200.183E-03    -62.5469E-03     48.8083E-03     660.945E-03    -329.389E-03    -332.703E-03    -329.267E-03     660.823E-03    -332.703E-03     21.2026E-03     840.894E+03    -3.06989E+06    -5.97161E+06    -3.38970E+06    -2.15413E+06    -2.65677E+06     703.471E+03         77.3925
            1332     3.58427E-03     125.854E-03     208.481E-03    -60.1626E-03    -67.5924E-03    -60.4381E-03     201.925E-03    -60.7609E-03    -7.49731E-03     657.703E-03    -327.521E-03    -331.646E-03    -327.173E-03     657.355E-03    -331.646E-03     35.8957E-03     4.16837E+06    -1.58266E+06    -4.21628E+06    -2.88512E+06     2.10648E+06    -851.932E+03     413.033E+03         77.8122
            1333     4.29996E-03     125.898E-03     208.354E-03    -57.3560E-03    -74.5429E-03    -67.2247E-03     204.822E-03    -61.1424E-03    -35.5728E-03     655.213E-03    -325.296E-03    -330.825E-03    -324.469E-03     654.386E-03    -330.825E-03     55.6508E-03     6.41895E+06    -767.539E+03    -3.57167E+06    -2.67324E+06     5.02098E+06    -268.004E+03     579.722E+03         78.4072
            1334     5.02054E-03     125.921E-03     204.966E-03    -56.5816E-03    -68.8731E-03    -59.1388E-03     200.089E-03    -61.4393E-03     56.0289E-03     652.034E-03    -322.778E-03    -329.790E-03    -321.097E-03     650.353E-03    -329.790E-03     79.5647E-03     5.05222E+06    -292.855E+03    -2.80561E+06    -1.81863E+06     1.05951E+06     2.71287E+06     363.776E+03         79.1744
            1335     5.74672E-03     125.969E-03     212.952E-03    -59.5507E-03    -67.0240E-03    -48.9571E-03     195.957E-03    -60.6220E-03    -32.5919E-03     652.277E-03    -322.098E-03    -329.749E-03    -319.280E-03     649.459E-03    -329.749E-03     103.996E-03     4.48046E+06     294.266E+03    -4.71735E+06    -1.61489E+06    -1.25574E+06     2.92801E+06     1.14898E+06         80.0465
            1336     6.43950E-03     126.341E-03     221.310E-03    -57.8145E-03    -72.5214E-03    -46.3108E-03     196.583E-03    -59.2979E-03     293.057E-06     656.111E-03    -325.467E-03    -331.777E-03    -321.448E-03     652.092E-03    -331.777E-03     124.997E-03     9.47808E+06    -735.094E+03    -6.95893E+06    -2.19459E+06     3.94502E+06     33.6283E+03     1.19153E+06         80.9816
            1337     7.14260E-03     126.560E-03     220.965E-03    -56.7164E-03    -73.8487E-03    -50.5789E-03     199.179E-03    -58.1998E-03     10.0745E-03     661.548E-03    -329.004E-03    -332.985E-03    -323.751E-03     656.296E-03    -332.985E-03     143.567E-03     11.3938E+06    -1.15404E+06    -7.21056E+06    -2.16436E+06     6.34762E+06    -1.15404E+06     425.798E+03         81.9245
            1338     7.87678E-03     126.665E-03     221.031E-03    -57.8968E-03    -79.1513E-03    -61.2596E-03     203.140E-03    -57.8968E-03    -827.683E-06     664.113E-03    -328.967E-03    -331.759E-03    -322.574E-03     657.506E-03    -331.546E-03     161.181E-03     7.43026E+06     14.3829E+03    -4.51089E+06    -1.00181E+06     3.69711E+06     238.452E+03     447.132E+03         82.7929
            1339     8.61000E-03     126.786E-03     224.593E-03    -58.5452E-03    -86.1256E-03    -73.8334E-03     212.300E-03    -58.5452E-03     23.9482E-03     662.488E-03    -330.778E-03    -332.363E-03    -323.515E-03     654.582E-03    -331.721E-03     176.455E-03     3.94205E+06     189.202E+03    -3.40923E+06    -1.07087E+06     623.183E+03     1.16970E+06     334.749E+03         83.5829
            1340     9.29353E-03     127.266E-03     214.838E-03    -58.9198E-03    -74.9690E-03    -69.2471E-03     209.495E-03    -59.2988E-03    -33.4837E-03     665.204E-03    -332.384E-03    -335.240E-03    -326.583E-03     656.547E-03    -332.384E-03     185.315E-03     6.52433E+06    -373.656E+03    -4.79737E+06    -2.36302E+06     3.33355E+06     382.776E+03     711.294E+03         84.5031
            1341     10.0324E-03     127.488E-03     200.356E-03    -55.2775E-03    -60.8085E-03    -54.0706E-03     197.572E-03    -59.2315E-03     6.97769E-03     670.107E-03    -331.906E-03    -338.792E-03    -328.139E-03     659.455E-03    -331.906E-03     205.488E-03     13.9559E+06     652.973E+03    -4.95182E+06    -1.01351E+06     10.0176E+06     652.973E+03     94.4367E+03         85.8537
            1342     10.7607E-03     127.731E-03     198.067E-03    -53.5380E-03    -58.9389E-03    -51.4378E-03     195.642E-03    -58.6142E-03    -10.1494E-03     671.360E-03    -332.146E-03    -340.929E-03    -329.778E-03     660.210E-03    -332.146E-03     210.914E-03     13.4971E+06     900.634E+03    -6.70271E+06    -548.960E+03     8.55969E+06    -315.756E+03     104.761E+03         87.7931
            1343     11.4568E-03     128.073E-03     196.570E-03    -51.8466E-03    -59.4254E-03    -51.0150E-03     194.234E-03    -57.9211E-03     9.97336E-03     685.394E-03    -332.002E-03    -354.894E-03    -338.238E-03     668.737E-03    -332.002E-03     255.904E-03     14.0171E+06     396.100E+03    -7.80196E+06    -79.5212E+03     7.51108E+06    -820.289E+03     80.8155E+03         90.2928
            1344     12.1923E-03     128.530E-03     199.951E-03    -52.7236E-03    -62.3529E-03    -54.1055E-03     196.277E-03    -57.2968E-03    -22.0300E-03     687.029E-03    -332.800E-03    -355.547E-03    -340.686E-03     672.168E-03    -332.800E-03     236.050E-03     14.4179E+06     158.192E+03    -10.3971E+06    -1.04685E+06     5.06767E+06     158.192E+03    -1.28681E+06         92.9719
            1345     714.853E-06     127.696E-03     251.113E-03    -75.0782E-03    -120.391E-03    -57.8648E-03     195.576E-03    -82.0681E-03     178.949E-03     672.628E-03    -333.947E-03    -338.449E-03    -337.893E-03     672.626E-03    -334.501E-03     2.08011E-03    -5.10938E+06    -7.40433E+06    -9.43518E+06    -6.44509E+06    -9.12939E+06    -6.37441E+06    -162.888E+03         77.4195
            1346     1.42989E-03     127.714E-03     206.727E-03    -58.2317E-03    -74.0297E-03    -61.0001E-03     203.580E-03    -68.1149E-03    -22.0145E-03     668.300E-03    -333.254E-03    -335.230E-03    -333.247E-03     668.292E-03    -335.230E-03     5.13210E-03    -3.19261E+06    -6.62147E+06    -8.54293E+06    -6.30932E+06    -7.37781E+06    -4.66989E+06     1.85514E+03         77.5626
            1347     2.14876E-03     127.710E-03     213.832E-03    -56.4902E-03    -68.5453E-03    -56.7335E-03     210.449E-03    -64.9187E-03    -44.3978E-03     663.540E-03    -330.700E-03    -333.625E-03    -330.662E-03     663.502E-03    -333.625E-03     11.4679E-03     1.43764E+06    -4.74696E+06    -7.42459E+06    -4.78198E+06    -3.16348E+06    -2.78845E+06     466.331E+03         77.7801
            1348     2.86665E-03     127.706E-03     204.731E-03    -51.4378E-03    -61.4696E-03    -45.4103E-03     198.703E-03    -61.4696E-03     21.6343E-03     659.791E-03    -328.541E-03    -332.276E-03    -328.398E-03     659.648E-03    -332.276E-03     22.6176E-03     2.50552E+06    -3.30219E+06    -5.67210E+06    -4.16784E+06    -1.81085E+06    -490.076E+03     846.261E+03         78.0579
            1349     3.58376E-03     127.726E-03     202.790E-03    -54.2394E-03    -63.8221E-03    -51.9249E-03     195.389E-03    -58.7360E-03     437.047E-06     656.543E-03    -326.672E-03    -331.749E-03    -326.268E-03     656.138E-03    -331.749E-03     38.6743E-03     3.69271E+06    -1.67106E+06    -4.09393E+06    -3.76666E+06     1.51925E+06     175.138E+03     298.955E+03         78.4475
            1350     4.30299E-03     127.775E-03     207.015E-03    -58.8777E-03    -72.4917E-03    -68.8273E-03     203.351E-03    -58.8777E-03    -33.0392E-03     652.876E-03    -323.848E-03    -330.758E-03    -322.923E-03     651.951E-03    -330.758E-03     58.9632E-03     4.38019E+06    -1.17917E+06    -4.44682E+06    -3.51045E+06     3.60146E+06    -1.33681E+06     750.197E+03         79.0216
            1351     5.03098E-03     127.802E-03     205.363E-03    -59.8674E-03    -69.5062E-03    -67.2411E-03     203.425E-03    -60.1944E-03     35.2357E-03     650.749E-03    -321.658E-03    -329.406E-03    -319.887E-03     648.978E-03    -329.406E-03     81.9966E-03     2.27562E+06    -1.72778E+06    -4.88854E+06    -3.23412E+06     778.837E+03    -1.88542E+06     1.71888E+06         79.7601
            1352     5.75327E-03     127.848E-03     204.901E-03    -59.3236E-03    -63.0185E-03    -54.0814E-03     196.840E-03    -60.1989E-03    -27.6539E-03     652.156E-03    -321.893E-03    -329.397E-03    -319.078E-03     649.341E-03    -329.397E-03     104.065E-03     2.00705E+06    -1.54077E+06    -5.79770E+06    -3.46786E+06    -1.09151E+06    -772.049E+03     1.27035E+06         80.5918
            1353     6.44876E-03     128.116E-03     214.834E-03    -57.1349E-03    -68.2415E-03    -49.9536E-03     198.578E-03    -59.1666E-03     17.0112E-03     655.828E-03    -324.981E-03    -331.757E-03    -321.151E-03     651.998E-03    -331.757E-03     122.114E-03     8.72204E+06    -488.795E+03    -6.75839E+06    -2.77089E+06     3.96582E+06     279.927E+03     539.724E+03         81.5009
            1354     7.14823E-03     128.371E-03     219.944E-03    -56.9196E-03    -74.7579E-03    -52.8899E-03     199.560E-03    -58.4030E-03    -5.45667E-03     661.234E-03    -328.651E-03    -332.852E-03    -323.712E-03     656.294E-03    -332.852E-03     139.235E-03     13.2324E+06     2.20104E+06    -5.41509E+06    -1.06824E+06     8.88553E+06     2.20104E+06    -313.087E+03         82.4286
            1355     7.87803E-03     128.480E-03     212.540E-03    -56.9075E-03    -75.1023E-03    -55.8426E-03     194.514E-03    -58.1414E-03    -13.3224E-03     664.393E-03    -329.683E-03    -331.453E-03    -323.551E-03     658.047E-03    -331.239E-03     158.054E-03     7.72349E+06     2.34201E+06    -3.58767E+06    -600.970E+03     2.76203E+06     4.31678E+06    -258.299E+03         83.2790
            1356     8.61590E-03     128.609E-03     198.111E-03    -53.1058E-03    -71.4975E-03    -58.1379E-03     189.692E-03    -58.0467E-03     43.2893E-03     662.760E-03    -331.230E-03    -332.208E-03    -324.163E-03     655.028E-03    -331.542E-03     174.563E-03     4.80034E+06     1.20681E+06    -4.28110E+06    -1.64004E+06    -1.43425E+06     4.80034E+06     1.24076E+06         84.0588
            1357     9.30591E-03     129.039E-03     190.041E-03    -53.8053E-03    -64.4984E-03    -58.0235E-03     187.652E-03    -57.8912E-03    -43.8512E-03     665.537E-03    -332.378E-03    -335.138E-03    -326.669E-03     657.069E-03    -332.378E-03     183.309E-03     10.0768E+06     2.17996E+06    -4.38616E+06    -1.43746E+06     5.50933E+06     3.79872E+06     1.01798E+06         84.9363
            1358     10.0369E-03     129.297E-03     194.826E-03    -57.2537E-03    -61.0185E-03    -56.3198E-03     190.507E-03    -57.6326E-03     9.63354E-03     670.379E-03    -331.819E-03    -338.566E-03    -328.055E-03     659.868E-03    -331.819E-03     204.022E-03     16.0933E+06     2.52491E+06    -4.63169E+06    -282.248E+03     11.7439E+06     2.52491E+06    -227.107E+03         86.1882
            1359     10.7708E-03     129.509E-03     199.529E-03    -55.6987E-03    -60.9462E-03    -52.4068E-03     192.490E-03    -57.1999E-03    -9.07513E-03     671.391E-03    -332.013E-03    -340.785E-03    -329.539E-03     660.145E-03    -332.013E-03     211.847E-03     14.3783E+06     3.16753E+06    -7.37049E+06    -473.254E+03     7.48101E+06     3.16753E+06    -238.858E+03         88.0117
            1360     11.4633E-03     129.864E-03     195.507E-03    -49.8042E-03    -57.4001E-03    -42.1237E-03     186.665E-03    -56.2381E-03     1.13223E-03     685.472E-03    -331.952E-03    -354.976E-03    -337.995E-03     668.491E-03    -331.952E-03     258.395E-03     16.6378E+06     3.94465E+06    -8.84904E+06    -230.184E+03     8.01895E+06     3.94465E+06     347.869E+03         90.4092
            1361     12.1950E-03     130.346E-03     195.887E-03    -49.5165E-03    -57.6958E-03    -45.3094E-03     189.036E-03    -55.0526E-03     12.0773E-03     686.878E-03    -332.769E-03    -355.549E-03    -340.335E-03     671.665E-03    -332.769E-03     239.192E-03     18.6979E+06     4.37651E+06    -11.2814E+06     1.69833E+06     5.71808E+06     4.37651E+06     457.544E+03         93.0137
            1362     714.065E-06     129.644E-03     260.541E-03    -82.0990E-03    -126.479E-03    -71.1187E-03     231.174E-03    -108.093E-03    -20.9624E-03     671.620E-03    -333.863E-03    -337.820E-03    -336.847E-03     671.617E-03    -334.832E-03     887.222E-06    -5.54243E+06    -8.19177E+06    -9.74003E+06    -7.76288E+06    -9.44067E+06    -6.27068E+06    -159.562E+03         77.5151
            1363     1.43117E-03     129.654E-03     202.708E-03    -48.4587E-03    -80.5581E-03    -44.2894E-03     198.538E-03    -80.5581E-03     21.1620E-03     667.953E-03    -333.235E-03    -334.833E-03    -333.221E-03     667.940E-03    -334.833E-03     6.60190E-03    -3.17497E+06    -7.39336E+06    -8.56213E+06    -6.34276E+06    -7.65399E+06    -5.13371E+06    -292.463E+03         77.7395
            1364     2.14599E-03     129.661E-03     208.429E-03    -50.1649E-03    -67.8761E-03    -45.9810E-03     204.245E-03    -67.8761E-03    -53.7501E-03     664.068E-03    -331.118E-03    -333.782E-03    -331.059E-03     664.008E-03    -333.782E-03     14.3786E-03    -388.483E+03    -5.89118E+06    -7.18864E+06    -4.91733E+06    -5.92745E+06    -2.62352E+06     371.123E+03         78.0689
            1365     2.86545E-03     129.642E-03     209.677E-03    -52.4368E-03    -62.3697E-03    -47.2836E-03     204.524E-03    -62.3697E-03    -3.95396E-03     659.326E-03    -328.121E-03    -332.263E-03    -327.941E-03     659.146E-03    -332.263E-03     25.7087E-03     659.396E+03    -4.43627E+06    -5.57332E+06    -4.33982E+06     -3.0154E+06    -1.99498E+06     903.052E+03         78.4413
            1366     3.58760E-03     129.643E-03     203.131E-03    -53.7349E-03    -62.7705E-03    -51.4093E-03     197.724E-03    -59.6896E-03    -5.89408E-03     655.072E-03    -325.715E-03    -331.193E-03    -325.290E-03     654.647E-03    -331.193E-03     40.0394E-03     3.01242E+06    -3.74527E+06    -4.61347E+06    -4.24999E+06     2.20784E+06    -3.30418E+06     827.653E+03         78.8870
            1367     4.30742E-03     129.676E-03     198.782E-03    -56.8366E-03    -64.7133E-03    -58.4067E-03     194.487E-03    -58.8485E-03    -16.6280E-03     653.168E-03    -324.463E-03    -330.407E-03    -323.577E-03     652.282E-03    -330.407E-03     57.9103E-03     3.75686E+06    -2.24912E+06    -4.77112E+06    -3.53887E+06     1.21612E+06    -940.628E+03     1.09257E+06         79.4706
            1368     5.02837E-03     129.704E-03     194.183E-03    -58.5432E-03    -62.2300E-03    -59.7589E-03     192.039E-03    -58.8701E-03     13.4827E-03     651.365E-03    -322.772E-03    -329.317E-03    -321.092E-03     649.685E-03    -329.317E-03     79.9256E-03     3.24515E+06    -674.003E+03    -4.13827E+06    -2.61383E+06    -376.758E+03     1.42346E+06     1.26248E+06         80.1918
            1369     5.74767E-03     129.784E-03     196.191E-03    -58.0347E-03    -60.9299E-03    -58.0761E-03     194.213E-03    -58.9099E-03    -22.5001E-03     652.419E-03    -322.328E-03    -329.680E-03    -319.646E-03     649.736E-03    -329.680E-03     101.666E-03     5.02262E+06    -87.8496E+03    -4.13404E+06    -2.17939E+06     2.31220E+06     667.920E+03     852.745E+03         81.0318
            1370     6.43411E-03     130.129E-03     206.585E-03    -56.3924E-03    -67.5082E-03    -60.4341E-03     202.144E-03    -59.0251E-03     28.5906E-03     657.541E-03    -326.029E-03    -332.137E-03    -322.294E-03     653.807E-03    -332.137E-03     120.683E-03     9.23099E+06     273.061E+03    -5.08690E+06    -1.62689E+06     5.77098E+06     273.061E+03    -535.211E+03         81.9695
            1371     7.14468E-03     130.273E-03     210.542E-03    -55.8840E-03    -69.3269E-03    -56.1329E-03     200.454E-03    -58.9897E-03    -16.5274E-03     662.931E-03    -329.997E-03    -333.037E-03    -325.065E-03     658.000E-03    -333.037E-03     139.305E-03     10.2170E+06    -487.454E+03    -5.24187E+06    -1.94119E+06     5.94927E+06     479.591E+03     99.3729E+03         82.9075
            1372     7.87675E-03     130.389E-03     198.830E-03    -55.0327E-03    -61.6274E-03    -48.7101E-03     189.209E-03    -58.3293E-03    -24.0790E-03     664.111E-03    -329.595E-03    -331.324E-03    -323.253E-03     657.769E-03    -331.324E-03     157.961E-03     6.62817E+06     513.693E+03    -4.45833E+06    -1.93733E+06     1.33589E+06     3.28496E+06     1.53112E+06         83.7509
            1373     8.61277E-03     130.512E-03     184.710E-03    -51.0046E-03    -57.2529E-03    -46.8411E-03     180.546E-03    -57.2529E-03     46.7222E-03     662.041E-03    -330.433E-03    -331.842E-03    -323.049E-03     654.326E-03    -331.511E-03     174.205E-03     5.36838E+06     2.33045E+06    -4.66212E+06    -1.15825E+06    -802.036E+03     4.99701E+06     1.26862E+06         84.4928
            1374     9.28707E-03     131.016E-03     185.670E-03    -52.3474E-03    -59.6393E-03    -50.9686E-03     180.972E-03    -56.3204E-03    -28.2632E-03     665.694E-03    -332.057E-03    -334.849E-03    -325.977E-03     657.061E-03    -332.296E-03     184.971E-03     9.97288E+06     2.60965E+06    -3.70668E+06    -247.784E+03     5.65165E+06     3.47198E+06     153.919E+03         85.3152
            1375     10.0328E-03     131.174E-03     194.234E-03    -55.7634E-03    -65.1489E-03    -53.3109E-03     182.396E-03    -55.7634E-03     21.7006E-03     670.617E-03    -331.755E-03    -338.730E-03    -327.809E-03     659.697E-03    -331.755E-03     207.931E-03     15.0704E+06     2.22912E+06    -4.16925E+06    -413.346E+03     11.3145E+06     2.22912E+06    -126.459E+03         86.5251
            1376     10.7702E-03     131.395E-03     199.625E-03    -55.1493E-03    -65.5627E-03    -48.3485E-03     182.411E-03    -55.1493E-03    -2.76440E-03     671.528E-03    -331.935E-03    -341.183E-03    -329.495E-03     659.840E-03    -331.935E-03     216.024E-03     13.4563E+06     3.46503E+06    -7.29888E+06    -529.533E+03     6.68696E+06     3.46503E+06     530.215E+03         88.2726
            1377     11.4661E-03     131.731E-03     196.317E-03    -53.8973E-03    -60.1395E-03    -45.1558E-03     181.693E-03    -54.2568E-03    -13.9867E-03     685.479E-03    -331.937E-03    -354.763E-03    -337.533E-03     668.249E-03    -331.937E-03     260.671E-03     17.3217E+06     5.48606E+06    -8.37728E+06     1.22072E+06     7.72368E+06     5.48606E+06     701.133E+03         90.5688
            1378     12.2009E-03     132.177E-03     188.571E-03    -52.5302E-03    -55.8614E-03    -46.3240E-03     179.997E-03    -53.4932E-03     17.7328E-03     686.727E-03    -332.735E-03    -355.356E-03    -340.156E-03     671.526E-03    -332.735E-03     238.692E-03     20.6306E+06     6.79529E+06    -12.3506E+06     1.27078E+06     7.00930E+06     6.79529E+06     759.489E+03         93.0885
            1379     716.889E-06     131.560E-03     275.980E-03    -70.8812E-03    -139.778E-03    -45.4568E-03     200.662E-03    -89.8848E-03    -164.779E-03     669.529E-03    -333.817E-03    -336.292E-03    -333.814E-03     669.526E-03    -336.292E-03     806.442E-06    -4.87807E+06    -7.98500E+06    -10.6546E+06    -7.58460E+06    -9.47776E+06    -6.45526E+06     1.05319E+06         77.2310
            1380     1.43147E-03     131.571E-03     197.776E-03    -42.1751E-03    -80.0280E-03    -50.8274E-03     190.791E-03    -64.3913E-03     71.2656E-03     665.679E-03    -332.416E-03    -333.471E-03    -332.405E-03     665.668E-03    -333.471E-03     5.91637E-03    -2.84584E+06    -5.63892E+06    -8.85759E+06    -6.41702E+06    -7.22563E+06    -3.69969E+06     1.27520E+06         77.4644
            1381     2.15047E-03     131.565E-03     198.349E-03    -45.0175E-03    -65.2617E-03    -49.0012E-03     196.444E-03    -59.3725E-03    -8.35484E-03     661.863E-03    -330.328E-03    -332.663E-03    -330.273E-03     661.808E-03    -332.663E-03     13.6713E-03    -4.04481E+06    -6.57745E+06    -9.56492E+06    -6.80367E+06    -8.10671E+06    -5.27680E+06     190.422E+03         77.8755
            1382     2.87040E-03     131.521E-03     200.345E-03    -51.1241E-03    -59.8883E-03    -51.1794E-03     197.584E-03    -57.0722E-03     3.18835E-03     659.051E-03    -328.650E-03    -331.863E-03    -328.488E-03     658.889E-03    -331.863E-03     24.3721E-03    -1.97880E+06    -5.05152E+06    -7.54941E+06    -5.38730E+06    -4.45742E+06    -4.73500E+06     33.0160E+03         78.3724
            1383     3.58912E-03     131.516E-03     197.166E-03    -53.8385E-03    -60.9627E-03    -55.1233E-03     193.760E-03    -56.2714E-03    -2.61798E-03     656.216E-03    -327.029E-03    -330.826E-03    -326.644E-03     655.831E-03    -330.826E-03     38.1214E-03     2.72301E+06    -3.31008E+06    -4.69397E+06    -4.00961E+06     376.427E+03    -1.64785E+06     797.838E+03         78.9024
            1384     4.30726E-03     131.542E-03     199.200E-03    -54.8320E-03    -71.2116E-03    -65.5365E-03     195.537E-03    -56.8439E-03     1.78305E-03     654.618E-03    -325.606E-03    -330.184E-03    -324.745E-03     653.757E-03    -330.184E-03     56.9922E-03     4.90588E+06    -2.92453E+06    -4.67296E+06    -3.31932E+06     1.41943E+06    -791.721E+03     603.133E+03         79.4998
            1385     5.02982E-03     131.574E-03     200.289E-03    -58.2134E-03    -71.7990E-03    -67.4031E-03     195.893E-03    -58.2134E-03    -4.61990E-03     651.764E-03    -323.446E-03    -329.318E-03    -321.790E-03     650.108E-03    -329.318E-03     79.4590E-03     3.87560E+06    -1.77542E+06    -3.99852E+06    -2.55111E+06    -246.260E+03     899.036E+03     378.810E+03         80.2014
            1386     5.75050E-03     131.638E-03     197.577E-03    -58.8903E-03    -64.4015E-03    -59.3587E-03     192.534E-03    -58.8903E-03    -8.97545E-03     652.765E-03    -322.596E-03    -330.076E-03    -319.978E-03     650.146E-03    -330.076E-03     100.487E-03     6.71634E+06    -35.0525E+03    -2.92125E+06    -1.91628E+06     3.82401E+06     1.85231E+06    -175.276E+03         81.0128
            1387     6.42789E-03     132.009E-03     188.419E-03    -48.7868E-03    -59.7955E-03    -47.3106E-03     185.341E-03    -58.1934E-03     35.7295E-03     659.304E-03    -326.593E-03    -332.689E-03    -322.865E-03     655.576E-03    -332.689E-03     120.633E-03     9.87228E+06     933.992E+03    -3.59903E+06    -1.78577E+06     6.72874E+06     2.26426E+06     470.183E+03         81.9151
            1388     7.14311E-03     132.146E-03     183.390E-03    -43.6233E-03    -56.5434E-03    -40.6634E-03     180.431E-03    -56.5434E-03    -5.96285E-03     664.297E-03    -330.318E-03    -333.386E-03    -325.305E-03     659.284E-03    -333.386E-03     140.549E-03     7.48150E+06     1.98447E+06    -4.46678E+06    -1.57953E+06     1.84119E+06     4.73751E+06     1.45802E+06         82.8303
            1389     7.87184E-03     132.246E-03     190.748E-03    -50.5931E-03    -56.1768E-03    -48.6841E-03     187.810E-03    -55.1480E-03    -12.9142E-03     664.317E-03    -329.607E-03    -331.536E-03    -323.004E-03     657.714E-03    -331.536E-03     161.020E-03     7.07832E+06     2.32205E+06    -3.68967E+06    -576.341E+03     2.45795E+06     3.82910E+06     601.824E+03         83.6602
            1390     8.60761E-03     132.380E-03     192.143E-03    -52.9603E-03    -57.0847E-03    -52.0686E-03     188.434E-03    -54.2676E-03     39.8027E-03     661.857E-03    -330.434E-03    -331.607E-03    -322.389E-03     653.812E-03    -331.607E-03     177.834E-03     5.24243E+06     1.17361E+06    -4.54900E+06    -1.19860E+06     1.44381E+06     1.62183E+06     74.1769E+03         84.3761
            1391     9.28907E-03     132.847E-03     192.126E-03    -53.2613E-03    -61.7166E-03    -53.6643E-03     184.340E-03    -53.5274E-03    -10.1428E-03     665.205E-03    -331.828E-03    -334.302E-03    -325.076E-03     656.387E-03    -332.236E-03     186.855E-03     7.55907E+06     922.519E+03    -4.11435E+06    -1.58595E+06     4.66673E+06     1.28647E+06     658.773E+03         85.1795
            1392     10.0403E-03     133.002E-03     196.865E-03    -53.1237E-03    -68.7763E-03    -54.7787E-03     182.868E-03    -53.1237E-03     19.4717E-03     670.847E-03    -331.721E-03    -338.729E-03    -327.849E-03     659.967E-03    -331.721E-03     207.735E-03     14.0463E+06     1.61006E+06    -4.03618E+06    -845.699E+03     10.8558E+06     1.61006E+06     520.869E+03         86.4103
            1393     10.7653E-03     133.212E-03     200.126E-03    -52.9668E-03    -73.4010E-03    -55.1142E-03     181.840E-03    -52.9668E-03     566.801E-06     671.758E-03    -331.984E-03    -341.261E-03    -329.766E-03     660.263E-03    -331.984E-03     214.286E-03     14.0359E+06     2.69579E+06    -8.31248E+06    -599.530E+03     6.32292E+06     2.69579E+06    -707.352E+03         88.2012
            1394     11.4647E-03     133.584E-03     197.679E-03    -52.9990E-03    -70.7957E-03    -57.9434E-03     184.826E-03    -52.9990E-03    -23.1695E-03     685.543E-03    -332.008E-03    -354.516E-03    -337.686E-03     668.713E-03    -332.008E-03     257.799E-03     16.3528E+06     2.83706E+06    -11.2407E+06    -561.137E+03     5.67323E+06     2.83706E+06    -345.495E+03         90.5302
            1395     12.1968E-03     133.982E-03     192.117E-03    -53.2380E-03    -64.7908E-03    -57.9543E-03     185.281E-03    -53.2380E-03     8.40296E-03     686.975E-03    -332.775E-03    -355.384E-03    -340.693E-03     672.284E-03    -332.775E-03     234.242E-03     15.9386E+06     1.85852E+06    -12.8636E+06    -3.72743E+06     6.80251E+06     1.85852E+06     956.945E+03         93.0574
            1396     715.373E-06     133.447E-03     217.197E-03    -19.0366E-03    -125.716E-03    -48.0131E-03     139.494E-03    -19.0366E-03    -130.934E-03     668.112E-03    -332.158E-03    -336.387E-03    -334.524E-03     668.111E-03    -334.020E-03     1.70347E-03    -4.71772E+06    -8.45477E+06    -12.8970E+06    -7.74356E+06    -10.7320E+06    -7.59396E+06    -486.317E+03         76.9566
            1397     1.43260E-03     133.448E-03     184.654E-03    -37.6791E-03    -67.4878E-03    -57.8022E-03     174.969E-03    -37.6791E-03     64.6470E-03     664.902E-03    -332.339E-03    -332.867E-03    -332.333E-03     664.896E-03    -332.867E-03     4.32136E-03    -2.96356E+06    -5.88314E+06    -10.0097E+06    -5.85064E+06    -7.76120E+06    -5.24457E+06    -436.480E+03         77.1971
            1398     2.14918E-03     133.428E-03     181.515E-03    -44.4596E-03    -56.9149E-03    -55.1455E-03     179.746E-03    -44.4596E-03    -11.1286E-03     661.830E-03    -330.703E-03    -332.452E-03    -330.671E-03     661.797E-03    -332.452E-03     10.6225E-03    -2.19461E+06    -3.11979E+06    -7.56785E+06    -4.53165E+06    -5.80045E+06    -2.55016E+06     84.2154E+03         77.6604
            1399     2.86835E-03     133.401E-03     184.601E-03    -47.1141E-03    -57.9222E-03    -56.8035E-03     183.859E-03    -47.4907E-03    -2.46862E-03     659.814E-03    -329.224E-03    -332.113E-03    -329.093E-03     659.683E-03    -332.113E-03     21.6129E-03    -1.61546E+06    -3.35350E+06    -7.43128E+06    -5.06862E+06    -5.61432E+06    -1.71729E+06     59.6555E+03         78.2155
            1400     3.58921E-03     133.382E-03     189.439E-03    -49.5309E-03    -63.4842E-03    -61.9387E-03     188.270E-03    -49.9075E-03    -10.7301E-03     657.597E-03    -327.859E-03    -331.237E-03    -327.472E-03     657.210E-03    -331.237E-03     37.8713E-03     1.39850E+06    -3.52698E+06    -5.81487E+06    -4.17887E+06    -1.89954E+06    -1.86493E+06    -196.029E+03         78.7713
            1401     4.30759E-03     133.392E-03     197.963E-03    -52.3649E-03    -72.2947E-03    -67.7774E-03     193.446E-03    -52.3649E-03     23.0053E-03     654.418E-03    -325.305E-03    -330.096E-03    -324.418E-03     653.531E-03    -330.096E-03     57.8820E-03     4.41260E+06    -3.18514E+06    -5.76443E+06    -4.07678E+06     1.36721E+06    -1.82741E+06     266.242E+03         79.3675
            1402     5.02943E-03     133.422E-03     200.152E-03    -54.2306E-03    -72.1918E-03    -64.6973E-03     192.658E-03    -54.2306E-03    -942.992E-06     651.329E-03    -323.490E-03    -329.379E-03    -321.788E-03     649.626E-03    -329.379E-03     80.4566E-03     4.11806E+06    -3.20181E+06    -5.21621E+06    -3.88768E+06     1.30177E+06    -1.71405E+06     944.610E+03         80.0592
            1403     5.74703E-03     133.486E-03     195.190E-03    -54.3341E-03    -66.3344E-03    -55.7050E-03     184.560E-03    -54.3341E-03     13.7772E-03     653.556E-03    -324.044E-03    -330.226E-03    -321.317E-03     650.830E-03    -330.226E-03     102.592E-03     6.41017E+06    -1.89660E+06    -3.54046E+06    -2.44312E+06     2.97940E+06     436.837E+03     831.199E+03         80.8518
            1404     6.42845E-03     133.853E-03     184.743E-03    -45.6181E-03    -63.9388E-03    -47.3258E-03     175.452E-03    -52.9403E-03     30.1918E-03     659.662E-03    -327.149E-03    -332.807E-03    -323.270E-03     655.783E-03    -332.807E-03     123.097E-03     8.24620E+06    -952.801E+03    -4.32194E+06    -2.74971E+06     3.73576E+06     1.98541E+06     1.13736E+06         81.7257
            1405     7.14391E-03     133.980E-03     179.246E-03    -41.7808E-03    -61.5827E-03    -45.8262E-03     173.303E-03    -51.5953E-03     8.94605E-03     663.283E-03    -329.338E-03    -333.526E-03    -324.227E-03     658.173E-03    -333.526E-03     141.822E-03     7.10319E+06     26.8309E+03    -5.55604E+06    -2.82396E+06     3.07818E+06     1.31977E+06     829.246E+03         82.5992
            1406     7.87719E-03     134.088E-03     187.044E-03    -48.6595E-03    -61.3820E-03    -53.4860E-03     181.641E-03    -51.1517E-03     8.41268E-03     663.661E-03    -328.917E-03    -331.619E-03    -322.263E-03     657.007E-03    -331.619E-03     161.541E-03     6.39801E+06     556.232E+03    -6.06980E+06    -2.93889E+06     3.33987E+06     483.464E+03     560.850E+03         83.3913
            1407     8.61405E-03     134.199E-03     185.411E-03    -49.9380E-03    -58.3172E-03    -52.5567E-03     180.796E-03    -51.0835E-03     6.41516E-03     662.409E-03    -330.554E-03    -331.994E-03    -322.952E-03     654.428E-03    -331.615E-03     177.270E-03     5.89079E+06     1.45559E+06    -4.72109E+06    -1.86905E+06     1.87767E+06     2.61667E+06     1.13171E+06         84.1067
            1408     9.29100E-03     134.664E-03     186.887E-03    -49.7803E-03    -59.1680E-03    -52.3045E-03     181.169E-03    -50.9258E-03    -2.23770E-03     666.623E-03    -332.107E-03    -335.174E-03    -326.443E-03     658.061E-03    -332.276E-03     184.404E-03     7.84374E+06     1.35894E+06    -2.73513E+06    -991.230E+03     4.90332E+06     2.55546E+06     757.316E+03         84.9338
            1409     10.0338E-03     134.815E-03     192.365E-03    -51.0104E-03    -63.4042E-03    -56.8012E-03     185.762E-03    -51.0104E-03    -1.92133E-03     671.293E-03    -331.838E-03    -338.847E-03    -328.322E-03     660.767E-03    -331.838E-03     204.422E-03     13.0144E+06     446.301E+03    -4.01673E+06    -1.43619E+06     10.4339E+06     446.301E+03     278.239E+03         86.1965
            1410     10.7667E-03     135.024E-03     192.324E-03    -51.3087E-03    -66.3327E-03    -59.2834E-03     185.275E-03    -51.3087E-03     3.49061E-03     671.624E-03    -332.144E-03    -341.078E-03    -329.906E-03     660.453E-03    -332.144E-03     211.265E-03     15.5152E+06     2.60038E+06    -9.29564E+06    -2.03806E+06     8.25765E+06     2.60038E+06    -224.494E+03         88.0365
            1411     11.4638E-03     135.363E-03     193.270E-03    -51.6935E-03    -71.4832E-03    -66.2974E-03     188.084E-03    -51.6935E-03    -5.99520E-03     685.951E-03    -332.162E-03    -354.617E-03    -338.036E-03     669.370E-03    -332.162E-03     255.799E-03     16.1276E+06     5.35044E+06    -14.9599E+06    -3.79485E+06     4.96249E+06     5.35044E+06    -312.895E+03         90.4187
            1412     12.1985E-03     135.734E-03     185.164E-03    -49.2294E-03    -66.8051E-03    -61.4547E-03     182.578E-03    -51.9932E-03     5.55797E-03     686.473E-03    -332.910E-03    -354.495E-03    -339.821E-03     671.799E-03    -332.910E-03     234.641E-03     14.6430E+06     5.76503E+06    -10.1557E+06    -596.565E+03     5.08393E+06     5.76503E+06    -278.735E+03         92.9836
            1413     716.634E-06     135.351E-03     209.469E-03    -24.0839E-03    -104.250E-03    -50.6521E-03     179.251E-03    -47.4636E-03    -43.1193E-03     668.630E-03    -332.977E-03    -335.791E-03    -335.697E-03     668.628E-03    -333.069E-03     57.8035E-06    -1.70176E+06    -6.50687E+06    -10.2397E+06    -5.38438E+06    -8.16610E+06    -4.89781E+06    -763.501E+03         76.7458
            1414     1.43116E-03     135.337E-03     176.009E-03    -38.2057E-03    -61.6394E-03    -42.8420E-03     166.474E-03    -47.4674E-03     23.8714E-03     665.505E-03    -332.631E-03    -333.196E-03    -332.623E-03     665.497E-03    -333.196E-03     4.84316E-03    -1.47727E+06    -6.38916E+06    -9.82215E+06    -6.42976E+06    -7.62615E+06    -3.63267E+06    -1.14529E+06         77.0136
            1415     2.14847E-03     135.296E-03     165.172E-03    -38.5964E-03    -52.1190E-03    -41.2046E-03     161.066E-03    -45.4053E-03    -18.9155E-03     663.399E-03    -331.561E-03    -333.220E-03    -331.519E-03     663.357E-03    -333.220E-03     12.1203E-03    -2.25552E+06    -5.98366E+06    -8.50925E+06    -5.45473E+06    -7.19360E+06    -4.10011E+06    -149.109E+03         77.5042
            1416     2.86686E-03     135.251E-03     173.321E-03    -45.2937E-03    -53.1381E-03    -51.7059E-03     171.970E-03    -45.3751E-03     7.21532E-03     661.256E-03    -330.088E-03    -332.851E-03    -329.942E-03     661.111E-03    -332.851E-03     23.0751E-03    -758.813E+03    -4.88635E+06    -7.75481E+06    -4.27956E+06    -4.70473E+06    -4.41569E+06     100.283E+03         78.0562
            1417     3.58831E-03     135.215E-03     175.911E-03    -43.0522E-03    -55.5178E-03    -51.4900E-03     175.463E-03    -46.6323E-03    -16.8695E-03     657.197E-03    -327.595E-03    -331.403E-03    -327.187E-03     656.789E-03    -331.403E-03     38.9098E-03     2.10620E+06    -4.63394E+06    -7.38099E+06    -5.40419E+06    -1.40691E+06    -3.09763E+06    -107.323E+03         78.5945
            1418     4.30845E-03     135.217E-03     173.244E-03    -40.7036E-03    -53.2616E-03    -43.2673E-03     169.340E-03    -46.7938E-03     27.5153E-03     653.599E-03    -324.596E-03    -330.128E-03    -323.718E-03     652.721E-03    -330.128E-03     57.7716E-03     3.75202E+06    -2.62871E+06    -5.55672E+06    -4.02054E+06    -901.454E+03     488.583E+03     189.862E+03         79.1823
            1419     5.03031E-03     135.248E-03     175.706E-03    -43.5922E-03    -54.1552E-03    -44.1946E-03     168.336E-03    -46.1836E-03    -2.95385E-03     651.114E-03    -323.001E-03    -329.527E-03    -321.290E-03     649.403E-03    -329.527E-03     80.4550E-03     4.86205E+06    -998.947E+03    -4.20755E+06    -2.88343E+06     532.473E+03     2.00650E+06     482.974E+03         79.8781
            1420     5.74829E-03     135.354E-03     185.026E-03    -46.1068E-03    -64.9329E-03    -55.6707E-03     175.764E-03    -46.1068E-03     8.76821E-03     653.660E-03    -324.338E-03    -330.403E-03    -321.576E-03     650.898E-03    -330.403E-03     103.368E-03     4.93283E+06    -2.26136E+06    -6.15159E+06    -4.20150E+06    -92.8891E+03     814.268E+03     1.55381E+06         80.6764
            1421     6.42766E-03     135.708E-03     190.364E-03    -46.9138E-03    -74.4275E-03    -63.2062E-03     179.142E-03    -46.9138E-03    -3.57328E-03     659.992E-03    -328.245E-03    -332.833E-03    -324.374E-03     656.121E-03    -332.833E-03     123.083E-03     5.77596E+06    -2.87614E+06    -5.85580E+06    -3.80319E+06     2.11541E+06    -1.26820E+06     2.38569E+06         81.5496
            1422     7.14483E-03     135.824E-03     189.422E-03    -48.2132E-03    -74.2614E-03    -62.7964E-03     177.957E-03    -48.2132E-03     139.972E-06     663.561E-03    -330.134E-03    -333.615E-03    -325.073E-03     658.501E-03    -333.615E-03     141.224E-03     7.56755E+06    -537.422E+03    -5.87204E+06    -2.86792E+06     5.05650E+06    -1.03049E+06     2.16664E+06         82.4168
            1423     7.87478E-03     135.911E-03     186.674E-03    -49.3508E-03    -69.5748E-03    -59.1381E-03     176.238E-03    -49.3508E-03     6.93220E-03     663.618E-03    -328.910E-03    -331.737E-03    -322.470E-03     657.178E-03    -331.737E-03     159.059E-03     7.19218E+06     2.30483E+06    -6.60031E+06    -2.65531E+06     3.74025E+06     1.81176E+06     1.24771E+06         83.2010
            1424     8.61107E-03     136.022E-03     179.469E-03    -48.6286E-03    -58.1189E-03    -50.3548E-03     172.851E-03    -49.7741E-03    -17.8224E-03     662.951E-03    -330.570E-03    -332.462E-03    -323.624E-03     655.206E-03    -331.663E-03     174.734E-03     4.93974E+06     1.19044E+06    -4.61087E+06    -2.38851E+06     1.53160E+06     2.37622E+06    -406.960E+03         83.9171
            1425     9.28441E-03     136.460E-03     181.272E-03    -48.5528E-03    -53.8294E-03    -49.7161E-03     178.305E-03    -49.6983E-03     28.2307E-03     667.975E-03    -332.397E-03    -336.119E-03    -327.659E-03     659.514E-03    -332.397E-03     183.548E-03     6.67569E+06     375.442E+03    -2.62534E+06    -1.64702E+06     4.51159E+06     1.56122E+06    -485.110E+03         84.7600
            1426     10.0348E-03     136.577E-03     183.531E-03    -49.6422E-03    -54.0552E-03    -51.9411E-03     181.417E-03    -49.6422E-03    -11.6328E-03     672.090E-03    -332.043E-03    -339.559E-03    -328.956E-03     661.487E-03    -332.043E-03     205.169E-03     11.8722E+06     2.49145E+06    -5.27314E+06    -1.91419E+06     8.38050E+06     2.62419E+06     870.330E+03         86.0429
            1427     10.7635E-03     136.757E-03     177.822E-03    -49.4852E-03    -53.8449E-03    -50.7014E-03     174.679E-03    -49.4852E-03     9.74395E-03     671.797E-03    -332.279E-03    -341.183E-03    -329.722E-03     660.336E-03    -332.279E-03     213.985E-03     13.2361E+06     4.36279E+06    -6.96928E+06    -2.54429E+06     8.79158E+06     4.38230E+06     2.29535E+06         87.8947
            1428     11.4584E-03     137.140E-03     175.549E-03    -48.8479E-03    -58.3972E-03    -55.7904E-03     173.282E-03    -49.1878E-03     18.7714E-03     685.163E-03    -332.215E-03    -353.601E-03    -336.543E-03     668.105E-03    -332.215E-03     259.142E-03     16.7677E+06     7.03978E+06    -7.51641E+06    -224.243E+03     9.58877E+06     6.92654E+06     1.04788E+06         90.2901
            1429     12.1946E-03     137.603E-03     171.834E-03    -45.7450E-03    -57.9085E-03    -54.3298E-03     171.359E-03    -48.8487E-03    -9.20835E-03     685.290E-03    -332.958E-03    -353.187E-03    -338.088E-03     670.191E-03    -332.958E-03     237.807E-03     15.6824E+06     9.90011E+06    -8.04304E+06     2.22035E+06     5.41901E+06     9.90011E+06    -1.28107E+06         92.8794
            1430     715.699E-06     137.224E-03     186.286E-03    -23.2540E-03    -75.2705E-03    -41.6313E-03     176.026E-03    -46.6338E-03     41.7078E-03     668.392E-03    -333.910E-03    -334.548E-03    -334.404E-03     668.388E-03    -334.051E-03     1.63358E-03    -3.83935E+06    -8.21181E+06    -10.6189E+06    -8.04371E+06    -9.14760E+06    -5.47873E+06     1.31486E+06         76.5572
            1431     1.43199E-03     137.193E-03     191.645E-03    -37.7413E-03    -74.0611E-03    -50.3585E-03     177.204E-03    -47.0029E-03     12.7372E-03     666.037E-03    -332.768E-03    -333.585E-03    -332.758E-03     666.027E-03    -333.585E-03     5.72262E-03    -2.73911E+06    -6.58909E+06    -9.52166E+06    -7.10988E+06    -7.90737E+06    -3.83260E+06     1.38612E+06         76.8195
            1432     2.14966E-03     137.139E-03     174.905E-03    -40.7187E-03    -61.4902E-03    -43.1978E-03     163.422E-03    -47.5276E-03    -6.54164E-03     664.662E-03    -332.023E-03    -333.943E-03    -331.975E-03     664.614E-03    -333.943E-03     12.9843E-03    -3.13428E+06    -7.62383E+06    -9.22411E+06    -6.18830E+06    -8.32028E+06    -5.47364E+06     88.4691E+03         77.2821
            1433     2.86851E-03     137.088E-03     163.653E-03    -43.1042E-03    -48.8228E-03    -39.3382E-03     157.163E-03    -46.0991E-03     27.1593E-03     661.362E-03    -330.460E-03    -332.795E-03    -330.295E-03     661.197E-03    -332.795E-03     24.5797E-03    -369.131E+03    -5.68774E+06    -8.48560E+06    -5.71746E+06    -4.79901E+06    -4.02600E+06    -338.233E+03         77.8052
            1434     3.58777E-03     137.042E-03     159.571E-03    -38.1362E-03    -45.6580E-03    -38.0465E-03     158.453E-03    -44.6299E-03    -20.2941E-03     657.075E-03    -327.801E-03    -331.112E-03    -327.379E-03     656.653E-03    -331.112E-03     39.8681E-03     3.93426E+06    -3.29416E+06    -6.96382E+06    -5.26829E+06    -123.616E+03    -931.810E+03     3.93641E+03         78.3512
            1435     4.30737E-03     137.028E-03     163.004E-03    -37.5205E-03    -46.1840E-03    -39.1756E-03     162.086E-03    -43.6107E-03     6.76613E-03     654.174E-03    -324.883E-03    -330.235E-03    -324.011E-03     653.302E-03    -330.235E-03     57.6244E-03     3.08412E+06    -3.11301E+06    -6.93969E+06    -5.30561E+06    -1.82141E+06     158.442E+03     181.908E+03         78.9628
            1436     5.02989E-03     137.062E-03     167.243E-03    -40.6108E-03    -48.1126E-03    -41.8693E-03     163.591E-03    -43.2022E-03    -25.8676E-03     651.839E-03    -323.474E-03    -329.693E-03    -321.855E-03     650.221E-03    -329.693E-03     78.5164E-03     2.90192E+06    -2.37145E+06    -6.88908E+06    -4.38351E+06    -3.26774E+06     1.29264E+06     998.416E+03         79.6624
            1437     5.74541E-03     137.163E-03     177.509E-03    -43.7749E-03    -59.4792E-03    -52.2107E-03     170.240E-03    -43.7749E-03     10.4610E-03     653.578E-03    -323.415E-03    -330.637E-03    -320.861E-03     651.025E-03    -330.637E-03     99.3420E-03     4.33150E+06    -1.15717E+06    -7.02952E+06    -2.89626E+06    -2.41814E+06     1.45920E+06     1.47649E+06         80.4510
            1438     6.42902E-03     137.485E-03     189.798E-03    -45.3742E-03    -74.6124E-03    -62.2648E-03     177.450E-03    -45.3742E-03    -18.7165E-03     659.348E-03    -326.507E-03    -333.038E-03    -322.859E-03     655.699E-03    -333.038E-03     119.293E-03     5.74249E+06     239.187E+03    -5.93406E+06    -2.73714E+06     943.424E+03     1.84133E+06     1.40523E+06         81.3259
            1439     7.14498E-03     137.594E-03     189.025E-03    -47.1444E-03    -77.2744E-03    -63.1687E-03     174.919E-03    -47.1444E-03    -8.49484E-03     664.109E-03    -330.082E-03    -333.666E-03    -325.067E-03     659.094E-03    -333.666E-03     140.489E-03     8.11912E+06     2.07338E+06    -4.71097E+06    -2.11051E+06     4.88169E+06     2.71034E+06     2.06789E+06         82.2204
            1440     7.87483E-03     137.678E-03     183.557E-03    -48.3607E-03    -69.1835E-03    -58.5751E-03     172.949E-03    -48.3607E-03     10.3275E-03     665.213E-03    -330.095E-03    -332.071E-03    -323.858E-03     658.629E-03    -331.724E-03     161.052E-03     9.74689E+06     1.20302E+06    -4.78469E+06    -1.53607E+06     6.72087E+06     980.415E+03     1.56427E+06         83.0314
            1441     8.60975E-03     137.776E-03     175.286E-03    -45.4853E-03    -56.7144E-03    -47.9596E-03     169.673E-03    -48.6269E-03    -26.1754E-03     664.334E-03    -331.360E-03    -333.012E-03    -324.673E-03     656.433E-03    -331.799E-03     176.708E-03     7.57100E+06    -440.519E+03    -3.90260E+06    -1.83934E+06     3.49205E+06     1.57517E+06       445.9E+03         83.7479
            1442     9.28477E-03     138.220E-03     171.714E-03    -44.4939E-03    -49.5760E-03    -40.7841E-03     166.443E-03    -48.0153E-03     55.7808E-03     667.442E-03    -332.589E-03    -335.363E-03    -326.825E-03     658.904E-03    -332.589E-03     184.257E-03     8.51957E+06     1.43100E+06    -4.11137E+06    -2.05440E+06     2.83685E+06     5.05675E+06     1.03894E+06         84.5829
            1443     10.0331E-03     138.368E-03     177.041E-03    -46.8790E-03    -53.3685E-03    -43.3273E-03     167.380E-03    -47.2588E-03    -9.94019E-03     671.041E-03    -332.071E-03    -338.561E-03    -327.693E-03     660.173E-03    -332.071E-03     207.305E-03     12.6531E+06     4.74863E+06    -5.77246E+06    -1.65365E+06     6.79146E+06     6.49143E+06     2.12896E+06         85.8655
            1444     10.7646E-03     138.627E-03     178.302E-03    -46.7040E-03    -60.8809E-03    -48.2001E-03     165.622E-03    -46.7040E-03     8.64586E-03     671.439E-03    -332.229E-03    -340.618E-03    -328.725E-03     659.546E-03    -332.229E-03     217.856E-03     13.0527E+06     6.42464E+06    -3.75227E+06    -126.746E+03     9.40763E+06     6.44414E+06     1.49675E+06         87.7274
            1445     11.4651E-03     139.097E-03     173.779E-03    -45.8360E-03    -58.1328E-03    -48.6746E-03     164.660E-03    -46.1759E-03     29.6411E-03     684.446E-03    -332.108E-03    -352.729E-03    -335.483E-03     667.201E-03    -332.108E-03     260.754E-03     16.3498E+06     6.24687E+06    -3.08484E+06     784.080E+03     12.5941E+06     6.13363E+06    -12.4522E+03         90.1421
            1446     12.2021E-03     139.601E-03     172.516E-03    -45.2254E-03    -51.9690E-03    -48.4697E-03     169.503E-03    -45.7119E-03    -11.9543E-03     685.672E-03    -332.814E-03    -353.704E-03    -338.707E-03     670.675E-03    -332.814E-03     236.481E-03     14.7957E+06     8.02485E+06    -7.81181E+06     68.6352E+03     6.49321E+06     8.44688E+06    -225.297E+03         92.7524
            1447     717.649E-06     139.083E-03     157.458E-03    -13.9678E-03    -60.8594E-03    -37.1877E-03     142.756E-03    -22.9373E-03     73.9846E-03     668.373E-03    -333.634E-03    -334.858E-03    -333.773E-03     668.370E-03    -334.716E-03     1.04544E-03    -8.51197E+06    -12.1070E+06    -13.2222E+06    -10.6400E+06    -12.4404E+06    -10.7607E+06     97.9901E+03         76.4798
            1448     1.43315E-03     139.037E-03     193.269E-03    -33.8018E-03    -84.6356E-03    -55.2453E-03     163.879E-03    -33.8018E-03    -3.63113E-03     665.677E-03    -332.430E-03    -333.504E-03    -332.422E-03     665.669E-03    -333.504E-03     4.98544E-03    -6.29181E+06    -9.34460E+06    -11.2298E+06    -8.70301E+06    -8.29172E+06    -9.87149E+06     263.490E+03         76.6960
            1449     2.14991E-03     138.957E-03     186.654E-03    -41.2895E-03    -74.9985E-03    -53.6519E-03     165.307E-03    -41.2895E-03    -32.8466E-03     664.268E-03    -331.719E-03    -333.685E-03    -331.672E-03     664.222E-03    -333.685E-03     12.5797E-03    -5.09431E+06    -8.95761E+06    -10.8795E+06    -8.33588E+06    -7.73904E+06    -8.85649E+06     768.766E+03         77.1036
            1450     2.86984E-03     138.876E-03     166.248E-03    -40.7623E-03    -56.4704E-03    -45.0052E-03     157.696E-03    -43.6758E-03     22.4126E-03     661.247E-03    -330.260E-03    -332.636E-03    -330.101E-03     661.088E-03    -332.636E-03     24.1889E-03    -3.45167E+06    -6.73510E+06    -11.1226E+06    -8.76511E+06    -8.11167E+06    -4.43260E+06     1.69159E+06         77.6066
            1451     3.59057E-03     138.822E-03     167.238E-03    -41.3750E-03    -55.7732E-03    -48.3140E-03     162.693E-03    -44.2886E-03    -3.80761E-03     657.474E-03    -328.157E-03    -331.154E-03    -327.755E-03     657.072E-03    -331.154E-03     38.9118E-03     2.45219E+06    -2.33048E+06    -9.95434E+06    -7.74006E+06    -554.751E+03    -1.53783E+06     1.35292E+06         78.1906
            1452     4.30894E-03     138.784E-03     175.786E-03    -45.3597E-03    -56.5147E-03    -53.3331E-03     172.605E-03    -45.3597E-03     9.13151E-03     655.508E-03    -326.250E-03    -330.401E-03    -325.346E-03     654.605E-03    -330.401E-03     58.4355E-03     2.18885E+06    -2.53098E+06    -8.55042E+06    -7.14155E+06     92.4036E+03    -1.84341E+06     404.068E+03         78.8567
            1453     5.02855E-03     138.829E-03     173.416E-03    -44.4966E-03    -51.9705E-03    -48.0074E-03     171.191E-03    -46.2343E-03    -40.2091E-03     652.737E-03    -324.562E-03    -329.830E-03    -322.868E-03     651.043E-03    -329.830E-03     80.5221E-03     639.562E+03    -4.21116E+06    -9.25911E+06    -6.43286E+06    -5.32748E+06    -1.07037E+06     250.193E+03         79.5648
            1454     5.74453E-03     138.909E-03     172.440E-03    -44.6712E-03    -51.8043E-03    -43.3777E-03     165.759E-03    -46.4169E-03     24.1206E-03     653.754E-03    -323.595E-03    -330.749E-03    -320.917E-03     651.076E-03    -330.749E-03     101.616E-03     2.94857E+06    -1.00321E+06    -8.99963E+06    -4.67103E+06    -3.69400E+06     1.31075E+06     556.078E+03         80.3332
            1455     6.42517E-03     139.262E-03     178.540E-03    -46.5471E-03    -60.5765E-03    -46.7152E-03     164.687E-03    -46.5551E-03    -15.4423E-03     659.048E-03    -326.021E-03    -333.115E-03    -322.279E-03     655.307E-03    -333.115E-03     120.834E-03     4.63624E+06     350.355E+03    -7.08732E+06    -4.16417E+06     181.567E+03     1.88187E+06     1.18842E+06         81.2045
            1456     7.14571E-03     139.406E-03     176.875E-03    -44.1068E-03    -62.2165E-03    -46.3739E-03     163.616E-03    -46.6909E-03    -19.7946E-03     663.620E-03    -329.426E-03    -333.580E-03    -324.494E-03     658.688E-03    -333.580E-03     139.295E-03     6.44693E+06    -1.30823E+06    -5.69156E+06    -3.92192E+06     4.11096E+06    -741.901E+03     1.15598E+06         82.1057
            1457     7.87619E-03     139.512E-03     171.429E-03    -41.9529E-03    -56.3742E-03    -45.7360E-03     165.411E-03    -46.5739E-03     24.6609E-03     665.034E-03    -329.717E-03    -332.044E-03    -323.554E-03     658.525E-03    -331.698E-03     160.007E-03     8.58262E+06    -2.64837E+03    -4.13888E+06    -2.23375E+06     6.90009E+06    -225.249E+03     1.39059E+06         82.9126
            1458     8.60929E-03     139.642E-03     170.767E-03    -40.9930E-03    -53.8173E-03    -45.4933E-03     167.621E-03    -46.1716E-03    -36.6032E-03     663.427E-03    -331.241E-03    -332.681E-03    -323.930E-03     655.322E-03    -331.887E-03     178.743E-03     8.57911E+06     1.76869E+06    -3.63584E+06    -1.35822E+06     3.83594E+06     4.23425E+06     2.54809E+06         83.6218
            1459     9.28679E-03     140.183E-03     169.762E-03    -41.8357E-03    -52.3943E-03    -39.1282E-03     160.017E-03    -45.3571E-03     39.0670E-03     666.311E-03    -332.618E-03    -334.845E-03    -325.907E-03     657.393E-03    -332.638E-03     188.108E-03     8.88534E+06     2.48381E+06    -4.81621E+06    -1.97739E+06     1.97091E+06     6.55943E+06     2.23971E+06         84.4648
            1460     10.0364E-03     140.347E-03     173.330E-03    -44.2479E-03    -59.0729E-03    -41.7379E-03     156.375E-03    -44.6277E-03    -6.65334E-03     670.580E-03    -331.933E-03    -338.441E-03    -327.364E-03     659.503E-03    -331.933E-03     209.404E-03     13.0452E+06     4.16175E+06    -4.32606E+06    -1.50516E+06     8.61427E+06     5.77181E+06     722.425E+03         85.7535
            1461     10.7710E-03     140.601E-03     179.330E-03    -44.4172E-03    -66.0255E-03    -47.6971E-03     161.001E-03    -44.4172E-03     1.62091E-03     671.260E-03    -332.076E-03    -340.718E-03    -328.983E-03     659.524E-03    -332.076E-03     216.304E-03     13.9765E+06     5.60008E+06    -3.11399E+06    -995.316E+03     11.8578E+06     5.60008E+06    -3.74719E+03         87.6150
            1462     11.4661E-03     141.068E-03     177.850E-03    -44.4988E-03    -62.1583E-03    -48.2131E-03     163.904E-03    -44.4988E-03     20.0227E-03     684.926E-03    -332.004E-03    -353.509E-03    -336.719E-03     668.137E-03    -332.004E-03     257.420E-03     16.4112E+06     7.01256E+06    -5.15575E+06    -1.23671E+06     12.4922E+06     7.01256E+06     97.4657E+03         90.0338
            1463     12.1946E-03     141.586E-03     174.885E-03    -44.5897E-03    -55.6754E-03    -48.3554E-03     167.711E-03    -44.7363E-03    -11.7211E-03     686.348E-03    -332.738E-03    -354.485E-03    -339.796E-03     671.660E-03    -332.738E-03     234.468E-03     15.3616E+06     8.78469E+06    -9.28809E+06    -825.839E+03     6.47734E+06     9.20672E+06     101.177E+03         92.6465
            1464     714.820E-06     141.021E-03     194.581E-03    -54.9979E-03    -87.7711E-03    -49.4985E-03     178.053E-03    -76.7428E-03     14.0097E-03     669.807E-03    -333.860E-03    -336.254E-03    -333.856E-03     669.803E-03    -336.254E-03     1.01364E-03    -8.41515E+06    -12.3492E+06    -14.2010E+06    -12.1045E+06    -12.6676E+06    -10.1933E+06    -313.577E+03         76.5176
            1465     1.43208E-03     140.964E-03     178.129E-03    -35.7095E-03    -79.0961E-03    -35.0050E-03     153.649E-03    -55.3204E-03    -8.84237E-03     666.144E-03    -332.579E-03    -333.803E-03    -332.574E-03     666.139E-03    -333.803E-03     3.85308E-03    -5.83490E+06    -9.71858E+06    -12.3605E+06    -10.8734E+06    -8.71949E+06    -8.32109E+06     145.332E+03         76.6933
            1466     2.15149E-03     140.856E-03     179.438E-03    -41.0874E-03    -68.4545E-03    -45.5174E-03     163.974E-03    -48.5606E-03    -53.3856E-03     663.928E-03    -331.505E-03    -333.517E-03    -331.467E-03     663.890E-03    -333.517E-03     10.9619E-03    -5.83587E+06    -10.3435E+06    -12.8330E+06    -10.0418E+06    -9.07178E+06    -9.89888E+06     424.873E+03         77.0521
            1467     2.86886E-03     140.769E-03     172.703E-03    -44.1038E-03    -57.8464E-03    -49.8527E-03     168.233E-03    -47.6279E-03    -11.9828E-03     661.230E-03    -329.962E-03    -332.840E-03    -329.825E-03     661.093E-03    -332.840E-03     22.3889E-03    -7.19359E+06    -9.01136E+06    -12.9625E+06    -9.46058E+06    -10.4873E+06    -9.21962E+06     722.937E+03         77.5359
            1468     3.58968E-03     140.690E-03     172.662E-03    -44.2015E-03    -58.1187E-03    -48.3842E-03     166.388E-03    -47.6622E-03     10.2278E-03     656.767E-03    -327.549E-03    -331.286E-03    -327.150E-03     656.368E-03    -331.286E-03     38.3520E-03     528.601E+03    -3.40824E+06    -10.2929E+06    -7.99701E+06    -1.55283E+06    -3.62273E+06     1.75675E+06         78.1357
            1469     4.30919E-03     140.660E-03     169.752E-03    -45.0333E-03    -56.2344E-03    -47.8381E-03     163.975E-03    -47.6526E-03     14.5612E-03     654.675E-03    -325.735E-03    -330.466E-03    -324.806E-03     653.746E-03    -330.466E-03     59.2386E-03     4.81147E+06    -2.03998E+06    -7.56836E+06    -6.32222E+06     786.051E+03     739.298E+03     1.75786E+06         78.8311
            1470     5.03043E-03     140.693E-03     165.494E-03    -43.8284E-03    -53.3564E-03    -47.2867E-03     163.207E-03    -47.6110E-03    -29.9451E-03     651.978E-03    -323.870E-03    -329.782E-03    -322.099E-03     650.208E-03    -329.782E-03     82.1829E-03     2.92010E+06    -2.31269E+06    -8.70562E+06    -6.74976E+06    -4.16789E+06     2.81944E+06     547.072E+03         79.5563
            1471     5.74834E-03     140.792E-03     164.059E-03    -45.6796E-03    -50.2369E-03    -46.0393E-03     161.607E-03    -47.4253E-03     22.3499E-03     654.014E-03    -323.878E-03    -330.620E-03    -321.092E-03     651.228E-03    -330.620E-03     103.781E-03     1.69437E+06    -960.630E+03      -10.37E+06    -6.76675E+06    -4.53534E+06     1.66583E+06     311.127E+03         80.3258
            1472     6.43261E-03     141.221E-03     162.533E-03    -44.3934E-03    -48.2789E-03    -39.7027E-03     156.380E-03    -46.8162E-03    -8.54487E-03     660.265E-03    -327.114E-03    -333.003E-03    -323.271E-03     656.423E-03    -333.003E-03     122.622E-03     3.87056E+06    -834.144E+03    -6.77249E+06    -4.25705E+06    -595.214E+03     1.11619E+06     231.183E+03         81.1913
            1473     7.14183E-03     141.378E-03     158.660E-03    -37.3861E-03    -47.1359E-03    -33.7148E-03     153.532E-03    -45.6795E-03    -19.3593E-03     664.594E-03    -330.124E-03    -333.631E-03    -324.991E-03     659.461E-03    -333.631E-03     142.094E-03     7.16618E+06    -470.496E+03    -4.10298E+06    -2.98228E+06     3.00347E+06     2.57152E+06     404.151E+03         82.0824
            1474     7.87305E-03     141.493E-03     157.159E-03    -36.4681E-03    -44.4792E-03    -32.4952E-03     153.091E-03    -44.3837E-03     37.6767E-03     664.465E-03    -329.345E-03    -331.819E-03    -322.686E-03     657.806E-03    -331.819E-03     161.763E-03     7.14757E+06     2.63035E+06    -5.54639E+06    -3.42644E+06     3.26689E+06     4.39109E+06     1.54097E+06         82.8777
            1475     8.61327E-03     141.623E-03     170.055E-03    -41.5498E-03    -54.0171E-03    -43.4603E-03     161.535E-03    -43.5867E-03    -25.8266E-03     661.071E-03    -329.984E-03    -331.881E-03    -321.990E-03     653.077E-03    -331.881E-03     177.142E-03     5.96918E+06     2.82968E+06    -4.96438E+06    -2.75977E+06     1.51272E+06     5.08153E+06     2.22651E+06         83.5862
            1476     9.29413E-03     142.166E-03     172.476E-03    -43.5725E-03    -60.5682E-03    -50.3104E-03     162.219E-03    -43.5725E-03    -9.48415E-03     665.252E-03    -331.920E-03    -334.934E-03    -325.648E-03     656.618E-03    -332.571E-03     184.914E-03     7.57119E+06     2.05507E+06    -2.99936E+06    -1.28984E+06     3.79078E+06     4.12597E+06     1.36713E+06         84.4402
            1477     10.0399E-03     142.334E-03     170.048E-03    -44.0229E-03    -60.4341E-03    -50.4934E-03     160.108E-03    -44.0229E-03    -4.47534E-03     671.256E-03    -331.847E-03    -339.304E-03    -328.579E-03     660.531E-03    -331.847E-03     206.166E-03     12.5634E+06     3.97099E+06    -2.28086E+06    -566.657E+03     10.8492E+06     3.97099E+06     482.625E+03         85.7286
            1478     10.7722E-03     142.585E-03     172.770E-03    -44.7262E-03    -60.8917E-03    -51.4464E-03     163.325E-03    -44.7262E-03    -14.7768E-03     671.783E-03    -332.043E-03    -341.326E-03    -329.828E-03     660.284E-03    -332.043E-03     214.322E-03     14.0594E+06     5.75399E+06    -3.26196E+06    -1.12810E+06     11.9255E+06     5.75399E+06     946.042E+03         87.5734
            1479     11.4661E-03     143.058E-03     167.944E-03    -41.6380E-03    -55.9247E-03    -45.1324E-03     160.902E-03    -45.3889E-03     5.48799E-03     685.427E-03    -332.035E-03    -354.139E-03    -337.228E-03     668.517E-03    -332.035E-03     258.189E-03     16.0448E+06     7.45550E+06     -5.9325E+06    -1.27768E+06     11.3900E+06     7.45550E+06     1.24570E+06         89.9759
            1480     12.1994E-03     143.570E-03     164.322E-03    -41.8777E-03    -53.9224E-03    -45.6783E-03     160.008E-03    -45.8081E-03    -5.01905E-03     686.959E-03    -332.735E-03    -355.154E-03    -340.189E-03     671.994E-03    -332.735E-03     237.045E-03     16.3300E+06     8.81074E+06    -9.78041E+06    -1.20464E+06     7.75425E+06     8.81074E+06     497.189E+03         92.5803
            1481     716.682E-06     143.003E-03     214.678E-03    -72.8332E-03    -105.146E-03    -71.6956E-03     195.401E-03    -87.0062E-03    -94.6459E-03     671.423E-03    -334.167E-03    -337.488E-03    -335.986E-03     671.420E-03    -335.667E-03     1.68668E-03    -7.88061E+06    -12.8720E+06    -14.8717E+06    -11.4940E+06    -13.1212E+06    -11.0091E+06     727.677E+03         76.5581
            1482     1.43190E-03     142.940E-03     177.690E-03    -47.0955E-03    -72.4705E-03    -40.1447E-03     170.740E-03    -72.4705E-03     6.44207E-03     668.306E-03    -333.769E-03    -334.798E-03    -333.760E-03     668.297E-03    -334.798E-03     4.53975E-03    -6.18350E+06    -9.23842E+06    -11.7835E+06    -10.2712E+06    -10.4000E+06    -6.53426E+06     828.076E+03         76.7146
            1483     2.14620E-03     142.846E-03     173.254E-03    -38.6003E-03    -60.1170E-03    -34.6408E-03     169.294E-03    -60.1170E-03    -97.5679E-06     664.150E-03    -331.395E-03    -333.800E-03    -331.352E-03     664.106E-03    -333.800E-03     11.9805E-03    -4.18592E+06    -8.52865E+06    -12.2039E+06    -10.0856E+06    -9.72324E+06    -5.10964E+06     601.722E+03         77.0374
            1484     2.86685E-03     142.756E-03     170.334E-03    -34.3073E-03    -53.2828E-03    -33.1326E-03     169.159E-03    -53.2828E-03    -13.3277E-03     660.508E-03    -328.941E-03    -332.830E-03    -328.794E-03     660.362E-03    -332.830E-03     23.0531E-03    -4.51087E+06    -8.37880E+06    -12.1423E+06    -10.0028E+06    -9.47320E+06    -5.55598E+06    -9.92853E+03         77.5023
            1485     3.58922E-03     142.680E-03     161.658E-03    -33.6797E-03    -48.9626E-03    -30.8295E-03     158.808E-03    -48.9626E-03     8.39340E-03     656.164E-03    -326.659E-03    -331.498E-03    -326.247E-03     655.752E-03    -331.498E-03     39.0587E-03    -1.25597E+06    -6.66702E+06    -10.1002E+06    -8.60917E+06    -5.07102E+06    -4.34296E+06     566.226E+03         78.0928
            1486     4.31008E-03     142.651E-03     151.408E-03    -36.7007E-03    -46.1313E-03    -33.7575E-03     148.465E-03    -46.1313E-03     6.10917E-03     653.020E-03    -324.275E-03    -330.491E-03    -323.379E-03     652.124E-03    -330.491E-03     58.2834E-03     4.17774E+06    -5.16165E+06    -9.68082E+06    -7.06448E+06    -887.497E+03    -2.71275E+06     2.00723E+06         78.7732
            1487     5.03444E-03     142.680E-03     152.507E-03    -42.2641E-03    -50.7282E-03    -45.8196E-03     150.407E-03    -45.0727E-03     675.231E-06     651.187E-03    -322.627E-03    -329.631E-03    -320.934E-03     649.494E-03    -329.631E-03     80.1744E-03     4.52705E+06    -2.37528E+06    -9.05161E+06    -5.37582E+06    -2.12617E+06     602.148E+03     1.59485E+06         79.4955
            1488     5.74930E-03     142.788E-03     153.837E-03    -44.0136E-03    -50.6297E-03    -48.0069E-03     152.169E-03    -44.9679E-03     13.3503E-03     654.021E-03    -323.561E-03    -330.470E-03    -320.847E-03     651.307E-03    -330.470E-03     102.394E-03     3.50710E+06     333.000E+03    -7.79653E+06    -4.34412E+06    -3.11941E+06     3.50710E+06    -20.0104E+03         80.2786
            1489     6.42796E-03     143.217E-03     151.504E-03    -41.0442E-03    -45.4855E-03    -40.7806E-03     150.168E-03    -44.4133E-03     541.355E-06     660.243E-03    -326.925E-03    -332.903E-03    -323.102E-03     656.420E-03    -332.903E-03     122.259E-03     5.97859E+06     729.493E+03    -6.32739E+06    -4.33731E+06    -1.26059E+06     5.97859E+06    -492.983E+03         81.1555
            1490     7.14952E-03     143.366E-03     157.898E-03    -38.0223E-03    -48.4618E-03    -40.8742E-03     156.020E-03    -43.7317E-03    -11.1758E-03     664.368E-03    -329.804E-03    -333.530E-03    -324.579E-03     659.142E-03    -333.530E-03     143.310E-03     7.13118E+06     1.58062E+06     -5.4331E+06    -3.78184E+06    -70.6358E+03     7.13118E+06     732.582E+03         82.0632
            1491     7.87856E-03     143.485E-03     163.047E-03    -40.1617E-03    -50.2357E-03    -41.6726E-03     157.779E-03    -43.4563E-03     21.6236E-03     664.585E-03    -329.758E-03    -331.665E-03    -323.025E-03     657.853E-03    -331.665E-03     162.815E-03     5.77409E+06     2.84237E+06    -6.98306E+06    -3.44109E+06    -699.599E+03     5.77409E+06     2.10146E+06         82.8815
            1492     8.61171E-03     143.605E-03     168.590E-03    -43.8432E-03    -58.8375E-03    -48.6000E-03     158.353E-03    -43.8432E-03    -14.9380E-03     662.802E-03    -330.548E-03    -332.561E-03    -323.385E-03     654.881E-03    -331.803E-03     176.659E-03     6.77203E+06     2.66993E+06    -5.07028E+06    -2.78667E+06     2.27524E+06     4.88310E+06     1.96095E+06         83.5952
            1493     9.28739E-03     144.153E-03     166.738E-03    -44.9402E-03    -60.8949E-03    -54.2295E-03     160.072E-03    -44.9402E-03    -45.5599E-03     666.333E-03    -331.987E-03    -335.462E-03    -326.226E-03     657.729E-03    -332.619E-03     184.746E-03     9.96929E+06     3.49171E+06    -2.99631E+06    -2.15616E+06     7.86132E+06     4.75953E+06     905.763E+03         84.4393
            1494     10.0357E-03     144.321E-03     162.099E-03    -45.9770E-03    -53.7346E-03    -52.3374E-03     160.702E-03    -45.9770E-03     1.88065E-03     671.401E-03    -331.908E-03    -339.317E-03    -328.426E-03     660.510E-03    -331.908E-03     207.681E-03     11.8222E+06     4.43582E+06    -3.59679E+06    -1.85572E+06     10.0811E+06     4.43582E+06     444.455E+03         85.7252
            1495     10.7728E-03     144.566E-03     164.473E-03    -43.5624E-03    -52.5730E-03    -47.9882E-03     162.879E-03    -46.5534E-03    -17.7746E-03     671.889E-03    -332.090E-03    -341.453E-03    -329.813E-03     660.248E-03    -332.090E-03     215.596E-03     12.7388E+06     4.54068E+06    -3.94980E+06    -1.20222E+06     9.99123E+06     4.54068E+06     973.931E+03         87.5680
            1496     11.4686E-03     145.036E-03     159.562E-03    -39.8811E-03    -49.6488E-03    -41.7870E-03     158.442E-03    -46.6231E-03    -1.32560E-03     685.085E-03    -332.066E-03    -353.650E-03    -336.763E-03     668.198E-03    -332.066E-03     257.970E-03     16.0266E+06     6.20910E+06    -5.59537E+06    -275.747E+03     10.7070E+06     6.20910E+06     1.48836E+06         89.9599
            1497     12.2021E-03     145.549E-03     148.952E-03    -39.0006E-03    -46.8956E-03    -38.5769E-03     147.840E-03    -46.2076E-03     373.076E-06     687.087E-03    -332.723E-03    -355.214E-03    -340.364E-03     672.237E-03    -332.723E-03     235.791E-03     15.6808E+06     7.64581E+06    -7.23687E+06    -1.74360E+06     9.74047E+06     8.09287E+06     1.60316E+06         92.5541
            1498     714.769E-06     144.980E-03     169.904E-03    -41.7151E-03    -81.0964E-03    -48.7371E-03     152.136E-03    -56.3072E-03    -115.774E-03     671.088E-03    -334.253E-03    -336.655E-03    -336.073E-03     671.086E-03    -334.834E-03     239.545E-06    -9.91147E+06    -14.1870E+06    -16.9813E+06    -12.8686E+06    -15.1712E+06    -13.0399E+06     106.202E+03         76.5247
            1499     1.43083E-03     144.920E-03     171.460E-03    -47.6316E-03    -66.5956E-03    -50.3555E-03     160.984E-03    -53.3957E-03     5.73698E-03     667.368E-03    -332.993E-03    -334.645E-03    -332.980E-03     667.355E-03    -334.645E-03     5.86328E-03    -9.58857E+06    -11.0343E+06    -13.7271E+06    -11.6641E+06    -12.4691E+06    -10.2168E+06     762.230E+03         76.6730
            1500     2.14977E-03     144.815E-03     168.570E-03    -36.8524E-03    -56.2538E-03    -33.9179E-03     160.277E-03    -50.8959E-03     30.1576E-03     663.471E-03    -330.819E-03    -333.595E-03    -330.766E-03     663.418E-03    -333.595E-03     13.8039E-03    -6.33632E+06    -10.1246E+06    -13.5098E+06    -11.0075E+06    -11.0779E+06    -7.88539E+06     1.10634E+06         77.0023
            1501     2.86923E-03     144.727E-03     158.569E-03    -27.4121E-03    -46.7206E-03    -25.1864E-03     155.793E-03    -46.1702E-03    -14.1422E-03     661.009E-03    -329.274E-03    -332.714E-03    -329.104E-03     660.838E-03    -332.714E-03     25.0290E-03    -2.34437E+06    -8.10197E+06    -11.4350E+06    -9.41607E+06    -8.84930E+06    -3.61593E+06     1.08428E+06         77.4901
            1502     3.58969E-03     144.659E-03     153.495E-03    -27.5816E-03    -46.4491E-03    -30.4979E-03     152.673E-03    -42.7103E-03    -44.0402E-06     656.765E-03    -327.014E-03    -331.713E-03    -326.605E-03     656.356E-03    -331.713E-03     39.3966E-03    -880.158E+03    -6.46598E+06    -10.2856E+06    -9.29809E+06    -7.45345E+06    -880.158E+03     762.408E+03         78.0844
            1503     4.30963E-03     144.628E-03     151.453E-03    -34.8065E-03    -49.1067E-03    -41.5258E-03     150.684E-03    -41.6177E-03    -7.33281E-03     652.701E-03    -324.154E-03    -330.646E-03    -323.287E-03     651.834E-03    -330.646E-03     57.2030E-03     1.36891E+06    -5.65602E+06    -10.6894E+06    -8.28802E+06    -4.13251E+06    -2.55598E+06     857.959E+03         78.7378
            1504     5.03169E-03     144.660E-03     151.167E-03    -41.3839E-03    -51.4639E-03    -49.7772E-03     150.244E-03    -42.1474E-03     12.8453E-03     650.595E-03    -321.899E-03    -329.476E-03    -320.198E-03     648.893E-03    -329.476E-03     80.2350E-03     4.89496E+06    -3.40572E+06    -9.79806E+06    -6.60457E+06     238.432E+03    -1.94268E+06     1.16953E+06         79.4323
            1505     5.75103E-03     144.761E-03     152.745E-03    -42.0733E-03    -52.1423E-03    -47.9705E-03     149.527E-03    -43.0277E-03    -13.4538E-03     652.918E-03    -322.618E-03    -330.127E-03    -319.865E-03     650.165E-03    -330.127E-03     103.020E-03     3.83842E+06    -2.14603E+06    -8.61795E+06    -6.63497E+06    -1.21627E+06     925.681E+03     1.32905E+06         80.2093
            1506     6.43783E-03     145.178E-03     157.735E-03    -42.5778E-03    -49.6770E-03    -44.0920E-03     153.105E-03    -43.5322E-03    -68.7260E-06     659.468E-03    -327.018E-03    -332.640E-03    -323.185E-03     655.636E-03    -332.640E-03     122.425E-03     3.39170E+06    -2.96009E+06    -9.43096E+06    -8.09356E+06    -2.12653E+06     1.22074E+06     1.68527E+06         81.1004
            1507     7.14655E-03     145.342E-03     167.658E-03    -44.0632E-03    -54.5155E-03    -49.7287E-03     162.871E-03    -44.0632E-03    -4.16050E-03     664.577E-03    -330.530E-03    -333.361E-03    -325.491E-03     659.537E-03    -333.361E-03     140.981E-03     4.23367E+06    -1.58578E+06    -10.1602E+06    -7.73949E+06    -1.83553E+06     2.06271E+06     1.52400E+06         82.0366
            1508     7.87962E-03     145.460E-03     166.988E-03    -44.9404E-03    -58.2373E-03    -53.9080E-03     162.659E-03    -44.9404E-03    -5.93830E-03     665.037E-03    -330.356E-03    -331.597E-03    -323.891E-03     658.572E-03    -331.597E-03     159.615E-03     3.93870E+06     976.518E+03    -8.80232E+06    -5.49610E+06    -2.32970E+06     3.93870E+06     1.22267E+06         82.8771
            1509     8.61478E-03     145.599E-03     161.907E-03    -45.8759E-03    -59.1188E-03    -54.6272E-03     157.415E-03    -45.8759E-03    -831.689E-06     663.086E-03    -330.785E-03    -332.558E-03    -323.720E-03     655.264E-03    -331.800E-03     175.576E-03     7.37054E+06     1.76472E+06    -6.65596E+06    -4.72506E+06     4.09461E+06     3.10975E+06     261.367E+03         83.5908
            1510     9.29344E-03     146.133E-03     159.385E-03    -46.6581E-03    -57.4953E-03    -54.8039E-03     156.694E-03    -46.6581E-03    -29.7168E-03     665.979E-03    -331.929E-03    -335.236E-03    -325.838E-03     657.278E-03    -332.626E-03     185.727E-03     11.0339E+06     2.65416E+06    -5.29813E+06    -4.23809E+06     9.97381E+06     2.65416E+06    -6.23787E+03         84.4321
            1511     10.0402E-03     146.304E-03     157.024E-03    -46.1909E-03    -50.0874E-03    -47.1837E-03     154.869E-03    -46.9399E-03     25.1871E-03     671.024E-03    -331.895E-03    -339.208E-03    -328.230E-03     660.047E-03    -331.895E-03     208.605E-03     11.6832E+06     3.78824E+06    -5.84636E+06    -3.76627E+06     9.60313E+06     3.78824E+06     80.8668E+03         85.7238
            1512     10.7717E-03     146.564E-03     154.836E-03    -41.4084E-03    -46.5155E-03    -38.0443E-03     151.360E-03    -46.4033E-03     3.86397E-03     672.012E-03    -332.106E-03    -341.996E-03    -330.422E-03     660.439E-03    -332.106E-03     215.018E-03     11.1210E+06     3.12531E+06    -6.20897E+06    -3.45759E+06     5.98806E+06     5.50690E+06    -714.973E+03         87.5692
            1513     11.4653E-03     147.020E-03     153.669E-03    -41.0779E-03    -46.0662E-03    -37.5894E-03     149.438E-03    -45.3239E-03     8.92840E-03     686.210E-03    -332.143E-03    -354.805E-03    -338.072E-03     669.478E-03    -332.143E-03     257.099E-03     13.8685E+06     5.26779E+06    -6.33706E+06    -2.64002E+06     7.78992E+06     7.64938E+06     428.342E+03         89.9566
            1514     12.1955E-03     147.538E-03     154.184E-03    -41.0460E-03    -51.9348E-03    -41.6249E-03     147.150E-03    -44.3226E-03    -7.10352E-03     687.445E-03    -332.805E-03    -355.184E-03    -340.456E-03     672.717E-03    -332.805E-03     235.003E-03     16.6980E+06     10.4286E+06    -4.33692E+06     3.55287E+03     11.9104E+06     10.8757E+06     1.72320E+06         92.5438
            1515     716.556E-06     146.960E-03     125.490E-03    -9.78789E-03    -51.8686E-03    -27.0800E-03     113.896E-03    -22.9824E-03    -49.4448E-03     668.737E-03    -333.294E-03    -335.284E-03    -333.373E-03     668.734E-03    -335.202E-03     2.09699E-03    -12.2086E+06    -17.1443E+06    -21.5111E+06    -17.3058E+06    -18.4539E+06    -15.1042E+06     1.22494E+06         76.4407
            1516     1.43303E-03     146.889E-03     150.622E-03    -29.5421E-03    -52.7055E-03    -42.3593E-03     140.276E-03    -29.5421E-03     26.5235E-03     665.537E-03    -332.131E-03    -333.701E-03    -332.201E-03     665.526E-03    -333.619E-03     6.24593E-03    -12.0805E+06    -13.7547E+06    -17.8735E+06    -15.9001E+06    -15.4507E+06    -12.3580E+06     1.18585E+06         76.6054
            1517     2.15102E-03     146.788E-03     151.742E-03    -34.1395E-03    -48.4811E-03    -38.5794E-03     141.840E-03    -34.1395E-03    -5.21170E-03     663.047E-03    -330.829E-03    -333.129E-03    -330.778E-03     662.995E-03    -333.129E-03     13.4772E-03    -9.89231E+06    -12.2629E+06    -15.7260E+06    -13.1157E+06    -13.2616E+06    -11.5039E+06     1.39809E+06         76.9616
            1518     2.87061E-03     146.712E-03     147.141E-03    -32.2317E-03    -48.1059E-03    -37.4939E-03     139.835E-03    -35.5383E-03    -20.0588E-03     660.762E-03    -329.502E-03    -332.420E-03    -329.328E-03     660.588E-03    -332.420E-03     25.2615E-03    -5.65847E+06    -11.2722E+06    -13.9187E+06    -11.9027E+06    -9.31707E+06    -9.62962E+06     1.68069E+06         77.4812
            1519     3.59074E-03     146.647E-03     153.553E-03    -33.9321E-03    -57.0762E-03    -50.2343E-03     150.017E-03    -37.2387E-03    -2.56187E-03     656.760E-03    -327.350E-03    -331.623E-03    -326.913E-03     656.323E-03    -331.623E-03     40.5676E-03    -1.85187E+06    -8.54283E+06    -11.6280E+06    -10.9185E+06    -6.61535E+06    -4.48892E+06     1.25824E+06         78.0989
            1520     4.31062E-03     146.614E-03     157.429E-03    -39.9873E-03    -58.6298E-03    -56.9232E-03     155.722E-03    -39.9873E-03    -23.6328E-03     653.574E-03    -324.917E-03    -330.701E-03    -323.999E-03     652.655E-03    -330.701E-03     59.0000E-03     353.883E+03    -5.65296E+06    -11.5284E+06    -10.6340E+06    -6.54740E+06     353.883E+03     1.06976E+06         78.7580
            1521     5.03433E-03     146.637E-03     156.709E-03    -42.2569E-03    -53.7998E-03    -53.7053E-03     156.614E-03    -42.2569E-03     6.11786E-03     650.941E-03    -322.500E-03    -329.403E-03    -320.798E-03     649.240E-03    -329.403E-03     80.4574E-03     5.45880E+06    -4.18450E+06    -11.0005E+06    -9.83103E+06    -2.44122E+06     2.54606E+06     2.39233E+06         79.4408
            1522     5.75555E-03     146.727E-03     162.886E-03    -43.6218E-03    -53.2122E-03    -51.3701E-03     161.044E-03    -43.6218E-03    -14.0874E-03     652.383E-03    -321.922E-03    -329.914E-03    -319.321E-03     649.782E-03    -329.914E-03     100.167E-03     5.19154E+06    -2.98539E+06    -10.6686E+06    -8.64564E+06    -2.09563E+06     2.27879E+06     3.50296E+06         80.1964
            1523     6.43581E-03     147.151E-03     165.353E-03    -44.3094E-03    -51.3512E-03    -47.6618E-03     161.663E-03    -44.3094E-03     7.46694E-03     658.208E-03    -325.723E-03    -332.519E-03    -322.046E-03     654.531E-03    -332.519E-03     119.615E-03     5.52362E+06    -1.07748E+06    -8.36136E+06    -6.53139E+06    -736.483E+03     3.35267E+06     2.96417E+06         81.0779
            1524     7.15252E-03     147.329E-03     160.144E-03    -44.5563E-03    -51.0508E-03    -47.2047E-03     156.298E-03    -44.5563E-03     19.8036E-03     664.398E-03    -330.591E-03    -333.303E-03    -325.520E-03     659.327E-03    -333.303E-03     141.341E-03     6.36242E+06     316.602E+03    -7.51591E+06    -5.36297E+06     334.616E+03     4.19147E+06     1.74686E+06         82.0195
            1525     7.87723E-03     147.442E-03     157.429E-03    -44.9291E-03    -56.1242E-03    -53.1093E-03     154.414E-03    -44.9291E-03     2.53304E-03     665.673E-03    -330.842E-03    -331.659E-03    -324.297E-03     658.993E-03    -331.524E-03     162.244E-03     3.58690E+06     660.181E+03    -9.59694E+06    -6.25968E+06    -2.67707E+06     3.58690E+06     780.027E+03         82.8736
            1526     8.61279E-03     147.581E-03     151.707E-03    -44.2422E-03    -54.2778E-03    -51.7332E-03     150.180E-03    -45.2606E-03     10.7742E-03     662.926E-03    -330.761E-03    -332.898E-03    -323.948E-03     654.987E-03    -331.771E-03     176.940E-03     7.21813E+06     1.61790E+06    -8.12886E+06    -5.98338E+06     3.71984E+06     2.97072E+06       62.34E+03         83.6074
            1527     9.29499E-03     148.105E-03     149.304E-03    -44.1483E-03    -50.1794E-03    -48.5240E-03     148.667E-03    -45.1667E-03    -2.22920E-03     666.838E-03    -331.921E-03    -336.496E-03    -327.335E-03     658.374E-03    -332.618E-03     183.438E-03     11.8121E+06     3.44533E+06    -5.85387E+06    -4.86105E+06     10.8192E+06     3.44533E+06     346.317E+03         84.4567
            1528     10.0364E-03     148.298E-03     150.048E-03    -43.5078E-03    -47.0476E-03    -43.1287E-03     147.428E-03    -44.8064E-03     23.6185E-03     671.506E-03    -331.925E-03    -339.650E-03    -329.096E-03     660.952E-03    -331.925E-03     204.634E-03     13.6974E+06     5.45897E+06    -6.84165E+06    -4.39552E+06     11.2513E+06     5.45897E+06     1.28534E+06         85.7292
            1529     10.7703E-03     148.546E-03     146.165E-03    -41.1800E-03    -44.0909E-03    -36.0699E-03     141.054E-03    -44.0909E-03    -1.04839E-03     671.734E-03    -332.178E-03    -341.291E-03    -330.004E-03     660.447E-03    -332.178E-03     212.339E-03     14.3876E+06     5.54717E+06    -6.93066E+06    -4.08439E+06     6.81999E+06     10.2685E+06     775.942E+03         87.5499
            1530     11.4623E-03     149.027E-03     146.801E-03    -41.6403E-03    -44.6165E-03    -36.3123E-03     140.109E-03    -43.2526E-03     8.64132E-03     686.244E-03    -332.247E-03    -354.724E-03    -338.005E-03     669.525E-03    -332.247E-03     256.789E-03     15.9407E+06     7.71312E+06    -5.70085E+06    -2.77836E+06     5.39547E+06     15.3358E+06    -338.795E+03         89.9314
            1531     12.1949E-03     149.505E-03     158.492E-03    -42.8750E-03    -54.1316E-03    -42.1012E-03     146.461E-03    -42.8750E-03    -19.6510E-03     686.692E-03    -332.861E-03    -354.472E-03    -339.608E-03     671.828E-03    -332.861E-03     236.315E-03     19.1339E+06     13.0612E+06    -3.96522E+06     524.974E+03     10.6170E+06     17.0879E+06    -319.529E+03         92.5290
            1532     717.503E-06     148.918E-03     178.819E-03    -20.8171E-03    -55.7201E-03    -27.2719E-03     150.371E-03    -20.8171E-03    -56.4408E-03     667.125E-03    -332.141E-03    -334.828E-03    -333.261E-03     667.123E-03    -333.706E-03     2.16983E-03    -15.2460E+06    -19.7407E+06    -23.9292E+06    -19.2371E+06    -20.5381E+06    -19.1406E+06     432.377E+03         76.3767
            1533     1.43452E-03     148.862E-03     148.110E-03    -24.7771E-03    -40.5525E-03    -31.1751E-03     138.733E-03    -24.7771E-03     30.3672E-03     665.602E-03    -332.582E-03    -333.401E-03    -332.655E-03     665.594E-03    -333.319E-03     5.17513E-03    -14.3976E+06    -16.8497E+06    -20.1280E+06    -18.2341E+06    -17.6505E+06    -15.4907E+06     1.01024E+06         76.5671
            1534     2.15231E-03     148.759E-03     139.956E-03    -28.4236E-03    -48.7673E-03    -41.3351E-03     132.524E-03    -28.4236E-03    -48.4266E-03     662.904E-03    -331.151E-03    -332.793E-03    -331.104E-03     662.857E-03    -332.793E-03     12.6729E-03    -12.6063E+06    -15.3022E+06    -18.9655E+06    -17.7169E+06    -16.0342E+06    -13.1229E+06     1.14295E+06         76.9276
            1535     2.87224E-03     148.683E-03     144.126E-03    -33.2645E-03    -61.4437E-03    -55.2529E-03     137.935E-03    -33.2645E-03    -1.84272E-03     659.378E-03    -328.554E-03    -331.937E-03    -328.402E-03     659.226E-03    -331.937E-03     23.6716E-03    -7.78844E+06    -13.4079E+06    -17.1270E+06    -16.4860E+06    -11.3494E+06    -10.4880E+06     1.66357E+06         77.4483
            1536     3.59424E-03     148.621E-03     150.303E-03    -38.2884E-03    -65.7211E-03    -61.6663E-03     146.248E-03    -38.2884E-03     8.16276E-03     656.106E-03    -326.879E-03    -331.426E-03    -326.473E-03     655.700E-03    -331.426E-03     38.7858E-03    -4.88858E+06    -10.0964E+06    -16.8489E+06    -14.8692E+06    -9.39518E+06    -7.56949E+06     3.00375E+06         78.0840
            1537     4.31632E-03     148.599E-03     149.912E-03    -40.2823E-03    -55.7857E-03    -52.9544E-03     148.340E-03    -41.5415E-03    -19.2400E-03     653.984E-03    -325.715E-03    -330.478E-03    -324.825E-03     653.094E-03    -330.478E-03     58.0792E-03    -1.67613E+06    -5.70200E+06    -14.9691E+06    -12.8176E+06    -6.40409E+06    -3.12559E+06     3.35720E+06         78.7685
            1538     5.03354E-03     148.626E-03     153.620E-03    -41.4565E-03    -49.3932E-03    -46.3171E-03     151.803E-03    -42.7157E-03     23.5533E-03     651.975E-03    -323.424E-03    -329.286E-03    -321.720E-03     650.271E-03    -329.286E-03     80.4386E-03     1.29027E+06    -5.92491E+06    -13.1882E+06    -12.2170E+06    -5.49045E+06    -115.335E+03     2.34194E+06         79.4672
            1539     5.75017E-03     148.713E-03     160.004E-03    -43.0709E-03    -49.4718E-03    -47.6627E-03     158.195E-03    -43.0709E-03     17.7126E-03     653.276E-03    -322.432E-03    -329.877E-03    -319.726E-03     650.570E-03    -329.877E-03     102.100E-03     3.17564E+06    -4.57666E+06    -11.8971E+06    -10.5602E+06    -5.91356E+06     3.17564E+06     2.58104E+06         80.2269
            1540     6.43731E-03     149.134E-03     155.073E-03    -43.2083E-03    -49.4846E-03    -46.3517E-03     151.940E-03    -43.2083E-03    -19.3226E-03     658.283E-03    -326.015E-03    -332.546E-03    -322.237E-03     654.505E-03    -332.546E-03     121.319E-03     7.52666E+06    -256.111E+03    -8.71394E+06    -7.38427E+06     404.116E+03     5.53677E+06     3.05120E+06         81.1101
            1541     7.14982E-03     149.308E-03     152.852E-03    -43.2684E-03    -52.1267E-03    -44.9434E-03     145.668E-03    -43.2684E-03     20.1208E-03     662.972E-03    -329.626E-03    -333.235E-03    -324.599E-03     657.944E-03    -333.235E-03     140.617E-03     7.20536E+06     626.034E+03    -8.04534E+06    -6.81412E+06     1.38471E+06     5.21547E+06     2.61272E+06         82.0412
            1542     7.88701E-03     149.434E-03     159.672E-03    -43.5141E-03    -57.9547E-03    -47.9965E-03     149.714E-03    -43.5141E-03    -1.81081E-03     664.492E-03    -329.851E-03    -331.456E-03    -323.513E-03     658.020E-03    -331.322E-03     159.535E-03     6.09295E+06     897.690E+03    -9.44281E+06    -7.04095E+06     630.422E+03     3.95836E+06     1.81773E+06         82.8842
            1543     8.62004E-03     149.564E-03     151.478E-03    -39.7741E-03    -51.9925E-03    -41.3087E-03     144.576E-03    -43.5562E-03    -21.6086E-03     664.035E-03    -331.409E-03    -333.316E-03    -325.270E-03     656.268E-03    -331.688E-03     175.112E-03     8.64273E+06     1.89838E+06    -8.00879E+06    -6.11374E+06     4.01348E+06     4.63258E+06     1.68817E+06         83.6224
            1544     9.29296E-03     150.122E-03     144.330E-03    -38.3415E-03    -43.2632E-03    -37.2788E-03     143.096E-03    -43.0915E-03     12.8602E-03     668.459E-03    -332.689E-03    -337.295E-03    -328.801E-03     659.965E-03    -332.689E-03     184.031E-03     11.3179E+06     5.07574E+06    -7.13462E+06    -6.33617E+06     8.35477E+06     7.24046E+06     1.88891E+06         84.4703
            1545     10.0333E-03     150.279E-03     145.324E-03    -41.1267E-03    -43.1583E-03    -40.4767E-03     144.159E-03    -42.6441E-03    -5.35398E-03     672.164E-03    -332.031E-03    -340.022E-03    -329.249E-03     661.391E-03    -332.031E-03     206.741E-03     15.6961E+06     10.8534E+06    -7.69074E+06    -5.62793E+06     13.4306E+06     11.0561E+06     1.62342E+06         85.7300
            1546     10.7665E-03     150.518E-03     146.516E-03    -41.6173E-03    -48.3065E-03    -44.3065E-03     143.423E-03    -42.5243E-03    -12.2521E-03     672.276E-03    -332.252E-03    -341.410E-03    -329.791E-03     660.656E-03    -332.252E-03     215.480E-03     17.8254E+06     10.3814E+06    -5.12347E+06    -2.62175E+06     10.3178E+06     15.3873E+06     912.596E+03         87.5377
            1547     11.4622E-03     150.976E-03     150.248E-03    -42.3731E-03    -52.0890E-03    -48.0022E-03     146.519E-03    -42.7305E-03     3.75186E-03     685.439E-03    -332.204E-03    -353.756E-03    -336.772E-03     668.455E-03    -332.204E-03     258.772E-03     18.3740E+06     10.0099E+06    -4.27479E+06    -1.55084E+06     7.74272E+06     17.9172E+06    -608.361E+03         89.9203
            1548     12.2009E-03     151.463E-03     156.086E-03    -42.9719E-03    -51.1067E-03    -44.3662E-03     149.346E-03    -42.9719E-03    -2.02150E-03     685.530E-03    -332.690E-03    -353.541E-03    -338.556E-03     670.546E-03    -332.690E-03     236.931E-03     21.5207E+06     12.4943E+06    -6.21947E+06    -2.43088E+06     9.16243E+06     21.0640E+06    -1.71220E+06         92.5341
            1549     716.716E-06     150.888E-03     192.948E-03    -39.9481E-03    -66.0916E-03    -33.2720E-03     160.129E-03    -39.9481E-03    -79.7135E-03     667.642E-03    -332.697E-03    -334.534E-03    -334.070E-03     667.641E-03    -333.161E-03    -63.6048E-06    -18.5565E+06    -21.5420E+06    -26.0056E+06    -22.4546E+06    -22.9094E+06    -20.7401E+06      93.621E+03         76.3648
            1550     1.43427E-03     150.835E-03     161.958E-03    -37.7710E-03    -55.0894E-03    -44.5663E-03     151.435E-03    -37.7710E-03    -12.1204E-03     665.421E-03    -332.271E-03    -333.594E-03    -332.263E-03     665.414E-03    -333.594E-03     4.42454E-03    -18.4079E+06    -20.5382E+06    -22.6607E+06    -21.2381E+06    -20.8678E+06    -19.5010E+06     887.818E+03         76.5462
            1551     2.15194E-03     150.737E-03     155.396E-03    -41.0547E-03    -63.4366E-03    -56.3464E-03     148.306E-03    -41.0547E-03    -66.8352E-03     662.402E-03    -330.752E-03    -332.737E-03    -330.711E-03     662.361E-03    -332.737E-03     11.9083E-03    -15.2944E+06    -17.7851E+06    -21.7720E+06    -20.3598E+06    -18.7432E+06    -15.7484E+06     1.79284E+06         76.9014
            1552     2.87156E-03     150.660E-03     148.948E-03    -40.0392E-03    -65.6283E-03    -57.3498E-03     145.043E-03    -44.4127E-03    -23.5364E-03     659.733E-03    -328.713E-03    -331.939E-03    -328.571E-03     659.591E-03    -331.939E-03     22.7804E-03    -11.0684E+06    -14.7581E+06    -21.3882E+06    -19.5111E+06    -16.6353E+06    -11.0684E+06     2.48278E+06         77.4300
            1553     3.59279E-03     150.608E-03     141.893E-03    -36.2682E-03    -56.7463E-03    -43.3401E-03     137.631E-03    -45.4122E-03    -2.46258E-03     656.408E-03    -326.901E-03    -331.417E-03    -326.509E-03     656.016E-03    -331.417E-03     38.1147E-03    -7.61655E+06    -11.4447E+06    -20.7113E+06    -17.8650E+06    -14.2471E+06    -7.66041E+06     3.68340E+06         78.0654
            1554     4.31230E-03     150.582E-03     145.177E-03    -38.6773E-03    -48.8840E-03    -40.1019E-03     142.425E-03    -44.7070E-03    -11.2611E-03     652.919E-03    -324.810E-03    -330.318E-03    -323.919E-03     652.029E-03    -330.318E-03     57.9300E-03    -2.08737E+06    -7.17579E+06    -17.9293E+06    -15.9411E+06    -5.97156E+06    -5.27985E+06     3.72695E+06         78.7491
            1555     5.03708E-03     150.612E-03     145.774E-03    -36.1293E-03    -46.4551E-03    -35.3636E-03     142.321E-03    -43.7680E-03     8.02078E-03     651.146E-03    -322.524E-03    -329.065E-03    -320.817E-03     649.440E-03    -329.065E-03     80.4903E-03     1.33759E+06    -5.36205E+06    -14.5173E+06    -13.3922E+06    -3.33846E+06    -1.81103E+06     2.79572E+06         79.4706
            1556     5.75839E-03     150.704E-03     140.997E-03    -35.9066E-03    -46.0096E-03    -36.7967E-03     138.812E-03    -42.9348E-03     26.9749E-03     654.042E-03    -323.129E-03    -329.725E-03    -320.402E-03     651.315E-03    -329.725E-03     102.526E-03     517.573E+03    -6.89435E+06    -13.5918E+06    -12.4900E+06    -7.99617E+06     517.573E+03     2.01529E+06         80.2641
            1557     6.43739E-03     151.136E-03     149.467E-03    -42.3890E-03    -53.4244E-03    -48.1005E-03     144.792E-03    -43.0377E-03    -38.4287E-03     660.323E-03    -327.900E-03    -332.564E-03    -324.164E-03     656.587E-03    -332.564E-03     121.004E-03     1.90707E+06    -5.10287E+06    -14.0514E+06    -13.2924E+06    -2.71276E+06    -1.24197E+06     1.92750E+06         81.1638
            1558     7.15026E-03     151.300E-03     158.154E-03    -43.8072E-03    -61.2016E-03    -50.0142E-03     146.967E-03    -43.8072E-03     10.8379E-03     664.552E-03    -330.820E-03    -333.388E-03    -325.957E-03     659.688E-03    -333.388E-03     138.492E-03     5.30241E+06    -1.67604E+06    -12.1019E+06    -11.3890E+06     2.66442E+06     249.105E+03     2.02468E+06         82.0833
            1559     7.87853E-03     151.407E-03     159.163E-03    -43.2805E-03    -57.0825E-03    -38.8410E-03     141.630E-03    -43.9891E-03    -10.9756E-03     664.995E-03    -330.078E-03    -331.534E-03    -323.792E-03     658.709E-03    -331.534E-03     157.308E-03     9.28135E+06     164.588E+03    -9.92836E+06    -8.63222E+06     2.90732E+06     5.24248E+06     1.52244E+06         82.8899
            1560     8.61505E-03     151.553E-03     153.651E-03    -38.3601E-03    -47.8232E-03    -29.8816E-03     140.560E-03    -43.2113E-03    -35.5672E-03     662.752E-03    -330.589E-03    -332.331E-03    -323.505E-03     655.166E-03    -331.829E-03     172.827E-03     12.1392E+06     2.09960E+06    -8.86153E+06    -7.32810E+06     2.70076E+06     10.0046E+06     2.12599E+06         83.5875
            1561     9.29156E-03     152.081E-03     145.642E-03    -35.6474E-03    -42.2492E-03    -33.1886E-03     143.183E-03    -42.2492E-03     23.8094E-03     665.796E-03    -331.919E-03    -335.176E-03    -325.784E-03     657.240E-03    -332.755E-03     184.153E-03     13.5028E+06     7.90576E+06    -7.61335E+06    -6.50574E+06     7.44015E+06     12.8608E+06     1.93535E+06         84.4274
            1562     10.0393E-03     152.232E-03     145.084E-03    -39.3518E-03    -44.2077E-03    -41.1618E-03     144.498E-03    -41.8110E-03    -15.9424E-03     671.195E-03    -332.001E-03    -339.078E-03    -328.070E-03     660.187E-03    -332.001E-03     208.895E-03     16.2293E+06     14.1711E+06    -6.41655E+06    -4.93808E+06     14.2627E+06     14.6593E+06     73.9588E+03         85.7080
            1563     10.7710E-03     152.489E-03     149.143E-03    -42.0183E-03    -52.0948E-03    -51.2223E-03     148.270E-03    -42.0183E-03     1.31549E-03     672.173E-03    -332.192E-03    -341.350E-03    -329.586E-03     660.409E-03    -332.192E-03     216.800E-03     19.0439E+06     11.5211E+06    -4.28720E+06    -3.32205E+06     11.4840E+06     18.1158E+06    -196.296E+03         87.5289
            1564     11.4639E-03     152.967E-03     148.248E-03    -40.6623E-03    -52.6911E-03    -49.8729E-03     147.170E-03    -42.4021E-03     1.37289E-03     685.062E-03    -332.093E-03    -353.150E-03    -335.972E-03     667.883E-03    -332.093E-03     260.126E-03     23.5053E+06     11.8578E+06    -4.67132E+06    -2.55301E+06     10.1962E+06     23.0486E+06     321.184E+03         89.9233
            1565     12.1979E-03     153.451E-03     146.383E-03    -40.4939E-03    -46.1670E-03    -41.2547E-03     143.341E-03    -42.3647E-03     17.1364E-03     686.186E-03    -332.485E-03    -353.936E-03    -338.727E-03     670.977E-03    -332.485E-03     238.980E-03     28.9590E+06     13.9739E+06    -5.58734E+06    -1.18366E+06     10.0269E+06     28.5022E+06     360.060E+03         92.5554
            1566     715.778E-06     152.854E-03     173.941E-03    -49.6503E-03    -81.8680E-03    -50.9602E-03     149.096E-03    -55.7133E-03    -103.885E-03     668.265E-03    -333.223E-03    -334.493E-03    -333.879E-03     668.262E-03    -333.834E-03     1.38499E-03    -23.5542E+06    -26.8834E+06    -30.4898E+06    -27.1615E+06    -27.6844E+06    -26.0815E+06     1.25352E+06         76.3736
            1567     1.43283E-03     152.800E-03     147.379E-03    -45.5678E-03    -64.2421E-03    -53.6400E-03     143.945E-03    -52.7354E-03    -21.5295E-03     664.541E-03    -331.436E-03    -333.546E-03    -331.425E-03     664.529E-03    -333.546E-03     5.85418E-03    -22.3823E+06    -24.3933E+06    -28.1385E+06    -26.8618E+06    -25.4042E+06    -22.6481E+06     1.81250E+06         76.5347
            1568     2.15277E-03     152.703E-03     158.071E-03    -52.6584E-03    -65.9851E-03    -59.6504E-03     152.841E-03    -53.7630E-03    -11.6555E-03     661.165E-03    -329.774E-03    -332.526E-03    -329.726E-03     661.117E-03    -332.526E-03     13.2105E-03    -19.7731E+06    -21.3835E+06    -27.3210E+06    -25.0024E+06    -23.4161E+06    -20.0591E+06     2.97122E+06         76.8894
            1569     2.87341E-03     152.635E-03     160.926E-03    -49.6715E-03    -62.6840E-03    -48.8567E-03     151.472E-03    -54.0450E-03    -34.5483E-03     659.872E-03    -328.971E-03    -331.807E-03    -328.806E-03     659.706E-03    -331.807E-03     24.5336E-03    -15.8231E+06    -17.5396E+06    -25.5800E+06    -22.5914E+06    -20.2422E+06    -16.1091E+06     3.86822E+06         77.4295
            1570     3.59360E-03     152.592E-03     161.083E-03    -42.1742E-03    -58.5542E-03    -30.7599E-03     142.433E-03    -51.3183E-03     8.19572E-03     656.633E-03    -327.201E-03    -331.242E-03    -326.783E-03     656.214E-03    -331.242E-03     39.7274E-03    -10.5260E+06    -14.3963E+06    -22.2959E+06    -20.5054E+06    -16.1868E+06    -10.5260E+06     2.91397E+06         78.0625
            1571     4.31583E-03     152.566E-03     161.365E-03    -39.9294E-03    -53.8148E-03    -31.5191E-03     147.018E-03    -47.8778E-03     26.8878E-03     652.825E-03    -324.432E-03    -330.332E-03    -323.553E-03     651.946E-03    -330.332E-03     57.6578E-03    -4.63249E+06    -10.2069E+06    -20.3219E+06    -19.3935E+06    -8.38181E+06    -7.38601E+06     3.14079E+06         78.7404
            1572     5.03764E-03     152.594E-03     147.205E-03    -35.6440E-03    -46.7304E-03    -33.5259E-03     144.001E-03    -45.6442E-03    -22.6858E-03     651.388E-03    -322.970E-03    -329.099E-03    -321.356E-03     649.773E-03    -329.099E-03     78.4774E-03     321.575E+03    -6.69236E+06    -19.2884E+06    -17.6796E+06    -3.71286E+06    -4.26672E+06     4.30474E+06         79.4680
            1573     5.75230E-03     152.694E-03     136.498E-03    -36.2385E-03    -44.1959E-03    -34.0243E-03     134.283E-03    -44.1959E-03     33.9581E-03     654.903E-03    -324.451E-03    -329.926E-03    -321.882E-03     652.334E-03    -329.926E-03     99.6805E-03     1.57071E+06    -4.85374E+06    -17.4421E+06    -16.2057E+06    -4.25532E+06    -264.065E+03     3.06777E+06         80.2727
            1574     6.43322E-03     153.132E-03     140.789E-03    -42.5557E-03    -49.7649E-03    -44.7943E-03     136.955E-03    -43.6914E-03    -4.07813E-03     661.047E-03    -328.042E-03    -332.838E-03    -324.414E-03     657.419E-03    -332.838E-03     119.249E-03     5.43116E+06    -1.89498E+06    -13.8155E+06    -13.4457E+06    -1.10563E+06     4.27202E+06     1.18122E+06         81.1694
            1575     7.14747E-03     153.284E-03     145.077E-03    -42.0994E-03    -53.0541E-03    -44.5625E-03     138.231E-03    -43.7457E-03     14.3372E-03     665.069E-03    -330.600E-03    -333.541E-03    -325.637E-03     660.107E-03    -333.541E-03     139.762E-03     10.4256E+06    -795.173E+03    -11.6465E+06    -11.1510E+06     1.77281E+06     7.36214E+06     829.685E+03         82.0766
            1576     7.87964E-03     153.382E-03     147.836E-03    -40.8387E-03    -46.5559E-03    -33.7152E-03     137.349E-03    -43.1930E-03     2.08686E-03     664.886E-03    -329.791E-03    -331.626E-03    -323.056E-03     658.151E-03    -331.626E-03     162.654E-03     10.8364E+06     446.140E+03    -11.7147E+06    -10.1281E+06     763.837E+03     8.93218E+06     1.35276E+06         82.8694
            1577     8.61483E-03     153.503E-03     150.852E-03    -40.0584E-03    -43.1945E-03    -33.3549E-03     143.100E-03    -42.1459E-03    -12.4247E-03     662.065E-03    -330.128E-03    -332.133E-03    -322.286E-03     653.956E-03    -331.866E-03     178.628E-03     11.0859E+06     3.21331E+06    -9.99179E+06    -8.34807E+06     2.32021E+06     10.3353E+06     1.63746E+06         83.5557
            1578     9.29572E-03     154.053E-03     146.961E-03    -38.2911E-03    -42.2559E-03    -36.9210E-03     144.670E-03    -41.3352E-03     20.4051E-03     665.477E-03    -331.940E-03    -335.126E-03    -325.576E-03     656.764E-03    -332.775E-03     185.834E-03     13.3739E+06     9.17455E+06    -6.72715E+06    -5.71166E+06     9.56812E+06     11.9648E+06     1.16386E+06         84.4021
            1579     10.0398E-03     154.224E-03     144.371E-03    -39.4267E-03    -45.5983E-03    -43.7432E-03     144.181E-03    -41.0919E-03    -7.09567E-03     670.556E-03    -331.965E-03    -338.503E-03    -327.590E-03     659.643E-03    -331.965E-03     207.858E-03     16.0005E+06     14.9668E+06    -5.47378E+06    -4.41462E+06     14.5661E+06     15.3420E+06     766.197E+03         85.6928
            1580     10.7669E-03     154.492E-03     144.604E-03    -41.2725E-03    -48.7546E-03    -48.3702E-03     144.220E-03    -41.2725E-03     10.6911E-03     671.019E-03    -332.124E-03    -339.803E-03    -328.179E-03     659.394E-03    -332.124E-03     215.219E-03     21.3998E+06     12.5299E+06    -5.28556E+06    -4.31124E+06     11.5556E+06     21.3998E+06     1.68876E+06         87.5177
            1581     11.4681E-03     154.947E-03     140.827E-03    -39.5625E-03    -46.7249E-03    -43.3423E-03     139.185E-03    -41.3023E-03    -10.5460E-03     684.721E-03    -332.019E-03    -352.450E-03    -335.423E-03     667.694E-03    -332.019E-03     258.786E-03     27.8904E+06     13.4130E+06    -4.71807E+06    -2.94764E+06     11.6426E+06     27.8904E+06     1.65037E+06         89.9255
            1582     12.2073E-03     155.443E-03     139.664E-03    -39.1025E-03    -46.5079E-03    -38.6548E-03     133.682E-03    -40.9733E-03     19.0502E-03     686.772E-03    -332.260E-03    -354.422E-03    -339.387E-03     671.737E-03    -332.260E-03     237.294E-03     29.9527E+06     14.8165E+06    -6.15061E+06    -2.54798E+06     11.2139E+06     29.9527E+06     564.442E+03         92.5750
            1583     717.905E-06     154.822E-03     174.360E-03    -55.6539E-03    -81.7765E-03    -38.2581E-03     137.390E-03    -62.2023E-03    -135.974E-03     666.950E-03    -332.707E-03    -333.649E-03    -333.287E-03     666.947E-03    -333.066E-03     1.74075E-03    -30.5806E+06    -32.3331E+06    -35.9643E+06    -32.9766E+06    -33.5683E+06    -32.3331E+06     1.04575E+06         76.3840
            1584     1.43544E-03     154.777E-03     131.862E-03    -41.4566E-03    -49.5310E-03    -41.4102E-03     131.394E-03    -49.1095E-03     3.54275E-03     664.433E-03    -331.712E-03    -333.077E-03    -331.702E-03     664.423E-03    -333.077E-03     5.51993E-03    -28.5560E+06    -30.7508E+06    -34.3909E+06    -32.3103E+06    -31.3446E+06    -30.0427E+06     2.45771E+06         76.5636
            1585     2.15483E-03     154.679E-03     146.311E-03    -46.6382E-03    -53.0797E-03    -47.5855E-03     141.922E-03    -47.7428E-03     46.2292E-03     661.676E-03    -330.354E-03    -332.415E-03    -330.311E-03     661.634E-03    -332.415E-03     12.1330E-03    -22.8965E+06    -26.2441E+06    -31.7073E+06    -29.7125E+06    -27.1124E+06    -24.0230E+06     2.63694E+06         76.9274
            1586     2.87528E-03     154.613E-03     168.684E-03    -48.0782E-03    -63.2245E-03    -47.4442E-03     152.904E-03    -48.0782E-03    -32.1596E-03     659.812E-03    -328.969E-03    -331.750E-03    -328.820E-03     659.663E-03    -331.750E-03     23.1965E-03    -18.2234E+06    -21.1890E+06    -28.2966E+06    -26.5310E+06    -22.6686E+06    -18.5094E+06     2.77442E+06         77.4634
            1587     3.59644E-03     154.563E-03     178.875E-03    -47.3063E-03    -66.3397E-03    -37.9459E-03     150.481E-03    -47.3063E-03     10.0049E-03     656.716E-03    -327.440E-03    -331.207E-03    -327.050E-03     656.326E-03    -331.207E-03     38.2232E-03    -13.0343E+06    -16.3706E+06    -25.4214E+06    -23.5077E+06    -18.2843E+06    -13.0343E+06     3.66539E+06         78.0988
            1588     4.31514E-03     154.538E-03     161.699E-03    -41.5386E-03    -54.0557E-03    -30.8990E-03     142.257E-03    -45.2531E-03     50.9634E-03     654.315E-03    -325.998E-03    -330.473E-03    -325.146E-03     653.463E-03    -330.473E-03     56.8343E-03    -5.94475E+06    -11.1110E+06    -22.3262E+06    -20.7869E+06    -11.6398E+06    -6.95525E+06     3.84228E+06         78.7766
            1589     5.03523E-03     154.567E-03     145.111E-03    -39.4627E-03    -45.7354E-03    -38.5213E-03     142.055E-03    -43.6201E-03    -25.3531E-03     652.924E-03    -324.214E-03    -329.489E-03    -322.566E-03     651.276E-03    -329.489E-03     79.2471E-03     126.026E+03    -8.09496E+06    -20.3227E+06    -19.1600E+06    -6.41246E+06    -2.71925E+06     3.82317E+06         79.4734
            1590     5.75285E-03     154.682E-03     141.357E-03    -42.1408E-03    -46.4751E-03    -43.7233E-03     139.534E-03    -43.0701E-03     23.3491E-03     655.006E-03    -323.724E-03    -330.329E-03    -321.035E-03     652.317E-03    -330.329E-03     101.942E-03     4.72834E+06    -1.65458E+06    -17.3844E+06    -16.5855E+06    -78.7824E+03     2.35366E+06     3.17841E+06         80.2388
            1591     6.43180E-03     155.094E-03     134.569E-03    -39.7801E-03    -43.9069E-03    -38.9395E-03     132.439E-03    -42.6172E-03     7.74644E-03     659.899E-03    -326.477E-03    -333.021E-03    -322.594E-03     656.016E-03    -333.021E-03     123.092E-03     8.30418E+06     2.72112E+06    -15.0161E+06    -14.7099E+06     2.95479E+06     7.76428E+06     1.85798E+06         81.1269
            1592     7.15155E-03     155.233E-03     132.891E-03    -35.6908E-03    -41.8099E-03    -33.6743E-03     130.875E-03    -41.8099E-03     8.06975E-03     663.401E-03    -329.315E-03    -333.376E-03    -324.082E-03     658.167E-03    -333.376E-03     143.437E-03     11.7381E+06     414.687E+03    -13.7034E+06    -13.2038E+06    -84.9120E+03     11.7381E+06     1.14968E+06         82.0498
            1593     7.88490E-03     155.335E-03     136.419E-03    -36.3336E-03    -41.1158E-03    -34.3596E-03     134.317E-03    -40.9878E-03     9.75905E-03     663.547E-03    -329.057E-03    -331.336E-03    -322.344E-03     656.834E-03    -331.336E-03     162.382E-03     13.1598E+06     1.06288E+06    -12.0022E+06    -10.6355E+06    -303.812E+03     13.1598E+06     1.25454E+06         82.8598
            1594     8.62450E-03     155.481E-03     139.946E-03    -39.6326E-03    -41.9699E-03    -39.9527E-03     138.814E-03    -40.5183E-03    -418.384E-06     661.868E-03    -330.671E-03    -332.029E-03    -323.000E-03     653.930E-03    -331.762E-03     176.733E-03     13.3811E+06     3.19124E+06    -9.80433E+06    -8.71142E+06     2.84895E+06     12.6304E+06     848.876E+03         83.5559
            1595     9.29460E-03     156.057E-03     139.311E-03    -40.2271E-03    -43.0191E-03    -42.1847E-03     138.650E-03    -40.4010E-03     8.56766E-03     665.217E-03    -332.702E-03    -334.845E-03    -326.117E-03     656.581E-03    -332.794E-03     185.022E-03     15.8078E+06     7.16717E+06    -6.92056E+06    -6.39236E+06     7.40602E+06     15.0407E+06     1.24546E+06         84.4087
            1596     10.0382E-03     156.199E-03     136.238E-03    -36.8873E-03    -44.0944E-03    -39.9085E-03     135.512E-03    -40.3476E-03    -6.00336E-03     669.725E-03    -331.924E-03    -338.181E-03    -327.028E-03     658.572E-03    -331.924E-03     209.762E-03     20.0147E+06     14.8243E+06    -6.59884E+06    -5.22495E+06     13.4668E+06     19.9983E+06     2.76609E+06         85.7104
            1597     10.7715E-03     156.474E-03     135.631E-03    -35.4359E-03    -43.2154E-03    -36.3181E-03     133.325E-03    -40.0276E-03     12.5184E-03     671.444E-03    -331.987E-03    -340.686E-03    -328.802E-03     659.561E-03    -331.987E-03     217.563E-03     23.6390E+06     13.4995E+06    -7.06508E+06    -5.41488E+06     11.8493E+06     23.6390E+06     2.52512E+06         87.5482
            1598     11.4717E-03     156.916E-03     138.134E-03    -37.3113E-03    -42.5680E-03    -36.8626E-03     134.503E-03    -39.3856E-03    -5.78807E-03     686.239E-03    -331.919E-03    -354.117E-03    -337.254E-03     669.376E-03    -331.919E-03     258.116E-03     25.1408E+06     15.0426E+06    -5.76235E+06    -4.02054E+06     13.3008E+06     25.1408E+06     974.517E+03         89.9581
            1599     12.2044E-03     157.402E-03     140.242E-03    -37.1756E-03    -44.1239E-03    -35.6332E-03     133.165E-03    -38.5892E-03     16.3708E-03     687.158E-03    -332.142E-03    -354.663E-03    -339.846E-03     672.341E-03    -332.142E-03     235.728E-03     27.2768E+06     16.6628E+06    -5.95581E+06    -3.00334E+06     13.7104E+06     27.2768E+06     635.057E+03         92.5938
            1600     717.632E-06     156.773E-03     190.551E-03    -32.1667E-03    -107.744E-03    -32.6192E-03     115.912E-03    -32.6521E-03    -140.316E-03     666.466E-03    -332.707E-03    -333.411E-03    -332.964E-03     666.465E-03    -333.152E-03    -173.399E-06    -37.6080E+06    -38.9292E+06    -42.8367E+06    -40.3358E+06    -40.1088E+06    -38.9292E+06     1.52356E+06         76.4305
            1601     1.43544E-03     156.733E-03     151.745E-03    -35.9063E-03    -57.4976E-03    -47.6441E-03     142.377E-03    -36.3917E-03     35.9584E-03     665.415E-03    -332.560E-03    -333.125E-03    -332.556E-03     665.411E-03    -333.125E-03     3.37556E-03    -31.8685E+06    -34.2525E+06    -37.6106E+06    -36.2953E+06    -34.3313E+06    -33.1050E+06     1.45703E+06         76.6238
            1602     2.15306E-03     156.637E-03     145.746E-03    -35.0793E-03    -49.0126E-03    -40.0667E-03     141.175E-03    -39.4543E-03     26.1129E-03     662.914E-03    -331.190E-03    -332.606E-03    -331.155E-03     662.880E-03    -332.606E-03     10.5052E-03    -26.3853E+06    -29.9755E+06    -34.6351E+06    -33.6277E+06    -30.0532E+06    -27.3150E+06     1.46985E+06         76.9894
            1603     2.87300E-03     156.562E-03     146.181E-03    -35.1501E-03    -53.7873E-03    -38.1788E-03     134.947E-03    -39.5251E-03    -21.3984E-03     660.021E-03    -328.734E-03    -331.953E-03    -328.598E-03     659.885E-03    -331.953E-03     22.1331E-03    -20.2626E+06    -24.9371E+06    -32.9024E+06    -31.7735E+06    -25.9768E+06    -20.3518E+06     2.38751E+06         77.5215
            1604     3.59468E-03     156.517E-03     152.580E-03    -40.0124E-03    -59.5229E-03    -45.3055E-03     138.362E-03    -40.0124E-03    -13.6453E-03     656.673E-03    -327.020E-03    -331.456E-03    -326.629E-03     656.282E-03    -331.456E-03     38.0583E-03    -11.8294E+06    -18.9362E+06    -29.2695E+06    -27.9301E+06    -20.2756E+06    -11.8294E+06     2.31047E+06         78.1456
            1605     4.31612E-03     156.493E-03     140.637E-03    -40.3155E-03    -52.1276E-03    -43.8356E-03     132.882E-03    -40.8522E-03     20.7476E-03     654.658E-03    -325.947E-03    -330.696E-03    -325.040E-03     653.751E-03    -330.696E-03     58.5367E-03    -4.80665E+06    -13.7395E+06    -25.3769E+06    -24.1608E+06    -14.9556E+06    -4.80665E+06     2.53009E+06         78.7985
            1606     5.03588E-03     156.520E-03     135.086E-03    -40.7893E-03    -46.4331E-03    -44.2477E-03     133.437E-03    -41.3260E-03    -16.2688E-03     652.865E-03    -323.534E-03    -329.671E-03    -321.778E-03     651.109E-03    -329.671E-03     81.7813E-03     1.21047E+06    -7.68494E+06    -21.8868E+06    -20.9272E+06    -8.03716E+06     603.137E+03     3.13148E+06         79.4513
            1607     5.75094E-03     156.645E-03     136.399E-03    -38.7126E-03    -45.6458E-03    -42.4078E-03     136.009E-03    -41.5608E-03    -3.91450E-03     653.907E-03    -322.018E-03    -330.317E-03    -319.210E-03     651.099E-03    -330.317E-03     104.057E-03     4.94735E+06    -260.831E+03    -19.4080E+06    -18.6861E+06     164.502E+03     3.80011E+06     3.26032E+06         80.1711
            1608     6.43765E-03     157.067E-03     136.398E-03    -35.2290E-03    -42.5131E-03    -35.7393E-03     135.619E-03    -41.2234E-03     1.27318E-03     658.316E-03    -325.222E-03    -332.872E-03    -321.269E-03     654.363E-03    -332.872E-03     124.088E-03     5.12137E+06     3.38316E+06    -18.7188E+06    -18.0075E+06     3.31716E+06     4.47604E+06     3.34305E+06         81.0592
            1609     7.15562E-03     157.221E-03     136.436E-03    -35.2867E-03    -41.1450E-03    -34.9537E-03     135.514E-03    -40.5556E-03     873.054E-06     662.739E-03    -329.447E-03    -333.144E-03    -324.244E-03     657.536E-03    -333.144E-03     143.044E-03     6.61064E+06     2.70412E+06    -17.0465E+06    -16.3514E+06     2.11441E+06     6.50522E+06     2.66402E+06         82.0260
            1610     7.88888E-03     157.325E-03     133.649E-03    -37.1075E-03    -41.8317E-03    -37.4075E-03     132.233E-03    -40.1160E-03     7.51918E-03     664.336E-03    -330.108E-03    -331.154E-03    -323.468E-03     657.672E-03    -331.130E-03     161.918E-03     10.0798E+06     2.45220E+06    -14.9089E+06    -14.0990E+06     1.87130E+06     9.85080E+06     1.05452E+06         82.8593
            1611     8.61781E-03     157.466E-03     132.654E-03    -39.1912E-03    -44.0727E-03    -41.5628E-03     131.030E-03    -40.0769E-03     1.62250E-03     662.046E-03    -330.946E-03    -331.748E-03    -322.889E-03     653.965E-03    -331.724E-03     178.226E-03     14.5068E+06     2.58376E+06    -12.9843E+06    -12.1772E+06     2.00568E+06     14.2778E+06    -286.469E+03         83.5402
            1612     9.29643E-03     158.043E-03     127.867E-03    -34.6041E-03    -44.2603E-03    -37.9307E-03     127.030E-03    -40.0962E-03    -6.90144E-03     664.154E-03    -332.200E-03    -334.104E-03    -324.694E-03     655.300E-03    -332.756E-03     187.085E-03     19.1134E+06     3.28755E+06    -11.7700E+06    -10.8648E+06     2.38234E+06     19.1134E+06     1.15754E+06         84.3901
            1613     10.0474E-03     158.178E-03     124.759E-03    -28.8108E-03    -40.8818E-03    -29.3587E-03     124.012E-03    -39.5872E-03    -1.95679E-03     669.837E-03    -331.862E-03    -338.597E-03    -327.578E-03     658.819E-03    -331.862E-03     208.782E-03     20.5875E+06     10.8323E+06    -11.1503E+06    -9.68061E+06     9.36265E+06     20.5875E+06     3.60994E+06         85.7199
            1614     10.7752E-03     158.461E-03     127.540E-03    -28.3903E-03    -38.6000E-03    -25.8810E-03     125.031E-03    -38.6000E-03     14.0192E-03     672.054E-03    -331.892E-03    -341.860E-03    -330.264E-03     660.458E-03    -331.892E-03     215.148E-03     21.7598E+06     15.1658E+06    -8.33197E+06    -7.17725E+06     14.0111E+06     21.7598E+06     2.43574E+06         87.5744
            1615     11.4728E-03     158.887E-03     129.120E-03    -31.2295E-03    -37.6091E-03    -27.4277E-03     125.318E-03    -37.6091E-03    -1.57830E-03     685.994E-03    -331.852E-03    -354.287E-03    -337.315E-03     669.022E-03    -331.852E-03     258.527E-03     26.4848E+06     17.8508E+06    -6.00636E+06    -5.26014E+06     17.1045E+06     26.4848E+06     872.678E+03         89.9632
            1616     12.2043E-03     159.393E-03     129.370E-03    -34.9616E-03    -39.8056E-03    -33.4158E-03     125.079E-03    -37.0605E-03    -11.5569E-03     685.943E-03    -332.028E-03    -353.479E-03    -338.219E-03     670.683E-03    -332.028E-03     239.841E-03     33.1247E+06     17.5679E+06    -4.73278E+06    -2.46616E+06     15.3013E+06     33.1247E+06     499.482E+03         92.5679
            1617     716.840E-06     158.717E-03     245.400E-03    -36.3296E-03    -153.539E-03    -40.1863E-03     132.047E-03    -36.3296E-03    -124.571E-03     667.549E-03    -333.254E-03    -334.138E-03    -333.510E-03     667.548E-03    -333.881E-03     871.217E-06    -40.3877E+06    -42.1466E+06    -44.8182E+06    -43.4788E+06    -42.0115E+06    -41.8622E+06     118.831E+03         76.4543
            1618     1.43322E-03     158.680E-03     174.803E-03    -38.0637E-03    -83.5794E-03    -41.5097E-03     132.734E-03    -38.0637E-03     51.9735E-03     665.538E-03    -332.378E-03    -333.610E-03    -332.368E-03     665.529E-03    -333.610E-03     4.95044E-03    -35.4084E+06    -37.3195E+06    -41.5979E+06    -40.8220E+06    -37.3317E+06    -36.1720E+06     619.498E+03         76.6362
            1619     2.15121E-03     158.606E-03     131.389E-03    -26.9847E-03    -49.9664E-03    -24.4192E-03     115.674E-03    -36.8179E-03    -44.0841E-03     662.476E-03    -330.699E-03    -332.710E-03    -330.646E-03     662.423E-03    -332.710E-03     13.2300E-03    -28.7168E+06    -32.6478E+06    -39.3528E+06    -38.6633E+06    -33.0629E+06    -28.9912E+06     1.24016E+06         76.9995
            1620     2.87339E-03     158.534E-03     116.666E-03    -24.4949E-03    -43.1899E-03    -30.0178E-03     113.327E-03    -34.3282E-03     14.5158E-03     660.314E-03    -328.781E-03    -331.936E-03    -328.607E-03     660.140E-03    -331.936E-03     25.2425E-03    -20.8142E+06    -26.9018E+06    -35.7719E+06    -35.1779E+06    -27.4066E+06    -20.9035E+06     1.52223E+06         77.5338
            1621     3.59404E-03     158.495E-03     132.016E-03    -35.7377E-03    -56.3906E-03    -54.2480E-03     129.873E-03    -35.7377E-03    -2.53514E-03     656.864E-03    -326.812E-03    -331.521E-03    -326.371E-03     656.422E-03    -331.521E-03     40.7018E-03    -13.1881E+06    -21.1221E+06    -32.3109E+06    -31.1843E+06    -22.2487E+06    -13.1881E+06     2.02402E+06         78.1384
            1622     4.31502E-03     158.480E-03     132.565E-03    -38.7856E-03    -53.2353E-03    -52.8179E-03     132.147E-03    -38.7856E-03    -2.72990E-03     653.259E-03    -324.610E-03    -330.693E-03    -323.667E-03     652.317E-03    -330.693E-03     59.7574E-03    -6.51657E+06    -16.4304E+06    -29.0934E+06    -27.7145E+06    -17.8093E+06    -6.51657E+06     2.41783E+06         78.7625
            1623     5.04060E-03     158.513E-03     132.321E-03    -40.1385E-03    -44.4340E-03    -43.4822E-03     131.369E-03    -40.1385E-03     11.9989E-03     651.136E-03    -322.125E-03    -329.395E-03    -320.365E-03     649.376E-03    -329.395E-03     81.8234E-03    -1.85865E+06    -10.6555E+06    -25.8157E+06    -24.8622E+06    -11.0016E+06    -2.46599E+06     2.90048E+06         79.3904
            1624     5.75830E-03     158.637E-03     137.809E-03    -37.2148E-03    -43.1880E-03    -38.9630E-03     136.432E-03    -40.0631E-03     2.11608E-03     653.685E-03    -322.310E-03    -330.014E-03    -319.518E-03     650.893E-03    -330.014E-03     103.772E-03     2.09103E+06    -2.02321E+06    -22.6076E+06    -21.7215E+06    -2.18671E+06     1.36846E+06     3.65594E+06         80.0882
            1625     6.43770E-03     159.052E-03     138.601E-03    -35.8205E-03    -41.8313E-03    -36.6371E-03     137.051E-03    -39.4649E-03     6.12622E-03     658.406E-03    -326.451E-03    -332.705E-03    -322.598E-03     654.552E-03    -332.705E-03     122.695E-03     6.28433E+06     2.18034E+06    -19.4718E+06    -18.6572E+06     1.58645E+06     6.06366E+06     3.95133E+06         80.9790
            1626     7.15700E-03     159.201E-03     137.622E-03    -38.2869E-03    -42.2587E-03    -39.5885E-03     135.748E-03    -39.0830E-03     1.90997E-03     661.787E-03    -329.415E-03    -333.109E-03    -324.270E-03     656.641E-03    -333.109E-03     142.070E-03     9.61782E+06     5.11083E+06    -17.2612E+06    -16.2846E+06     4.23966E+06     9.51239E+06     4.01892E+06         81.9678
            1627     7.88788E-03     159.317E-03     137.207E-03    -39.2186E-03    -46.4571E-03    -44.1268E-03     134.876E-03    -39.2186E-03     6.16786E-03     662.724E-03    -328.654E-03    -331.146E-03    -321.870E-03     655.915E-03    -331.122E-03     163.366E-03     12.5989E+06     6.04980E+06    -15.1791E+06    -14.5539E+06     5.65366E+06     12.3698E+06     3.10022E+06         82.8119
            1628     8.62653E-03     159.462E-03     133.523E-03    -38.1015E-03    -46.7701E-03    -42.6845E-03     130.698E-03    -39.3621E-03     2.22887E-03     661.366E-03    -330.080E-03    -331.939E-03    -322.146E-03     653.151E-03    -331.658E-03     179.642E-03     15.1110E+06     2.45530E+06    -15.0031E+06    -13.9983E+06     1.67949E+06     14.8820E+06     2.28053E+06         83.4944
            1629     9.30337E-03     159.993E-03     125.826E-03    -31.5045E-03    -41.3367E-03    -32.4830E-03     124.338E-03    -38.8699E-03    -14.1308E-03     665.917E-03    -332.196E-03    -336.006E-03    -326.658E-03     657.032E-03    -332.660E-03     187.761E-03     15.8883E+06     1.72708E+06    -15.2669E+06    -13.7331E+06     193.241E+03     15.8883E+06     2.34445E+06         84.3498
            1630     10.0457E-03     160.153E-03     122.616E-03    -27.4030E-03    -37.8868E-03    -27.1046E-03     122.318E-03    -37.8868E-03     12.1060E-03     671.543E-03    -331.853E-03    -340.153E-03    -329.179E-03     660.570E-03    -331.853E-03     208.727E-03     18.1067E+06     8.60562E+06    -11.9062E+06    -10.9747E+06     7.67413E+06     18.1067E+06     2.16651E+06         85.6753
            1631     10.7674E-03     160.438E-03     123.821E-03    -28.9994E-03    -39.3282E-03    -30.8028E-03     123.294E-03    -36.9983E-03     15.6402E-03     671.628E-03    -331.697E-03    -340.676E-03    -328.904E-03     659.856E-03    -331.697E-03     216.726E-03     24.2285E+06     17.5197E+06    -7.55889E+06    -7.19921E+06     17.1600E+06     24.2285E+06     1.51306E+06         87.5102
            1632     11.4766E-03     160.881E-03     126.303E-03    -32.3793E-03    -45.9031E-03    -40.6140E-03     125.320E-03    -36.6845E-03     2.45298E-03     683.559E-03    -331.585E-03    -351.907E-03    -334.403E-03     666.054E-03    -331.585E-03     262.019E-03     32.6742E+06     19.7819E+06    -4.93513E+06    -4.42984E+06     19.2766E+06     32.6742E+06     959.635E+03         89.8956
            1633     12.2152E-03     161.373E-03     129.387E-03    -36.3403E-03    -49.2629E-03    -47.6286E-03     128.437E-03    -37.0255E-03    -8.74993E-03     682.960E-03    -331.683E-03    -351.653E-03    -336.080E-03     667.388E-03    -331.683E-03     241.297E-03     41.6756E+06     17.3129E+06    -2.21420E+06    -559.415E+03     15.6581E+06     41.6756E+06     709.141E+03         92.5265
            1634     716.269E-06     160.707E-03     223.330E-03    -47.9280E-03    -128.505E-03    -39.3264E-03     134.152E-03    -47.9280E-03    -105.562E-03     665.492E-03    -331.937E-03    -333.625E-03    -333.390E-03     665.488E-03    -332.169E-03     3.11143E-03    -41.0274E+06    -43.6043E+06    -46.5259E+06    -44.1628E+06    -43.0381E+06    -43.9567E+06     126.171E+03         76.3452
            1635     1.43381E-03     160.684E-03     159.479E-03    -40.6838E-03    -68.7540E-03    -27.3230E-03     118.048E-03    -40.6838E-03     24.8734E-03     663.714E-03    -331.561E-03    -332.656E-03    -331.701E-03     663.699E-03    -332.500E-03     7.36515E-03    -39.6160E+06    -41.5473E+06    -46.2551E+06    -45.4690E+06    -41.0653E+06    -40.8841E+06     976.713E+03         76.5425
            1636     2.15553E-03     160.593E-03     135.801E-03    -31.6522E-03    -58.3868E-03    -35.7199E-03     118.592E-03    -37.1105E-03    -66.1830E-03     661.764E-03    -330.512E-03    -331.857E-03    -330.544E-03     661.705E-03    -331.766E-03     14.4944E-03    -31.5584E+06    -35.8365E+06    -42.2320E+06    -41.7191E+06    -35.2436E+06    -32.6641E+06     1.36206E+06         76.9281
            1637     2.87561E-03     160.535E-03     130.649E-03    -30.7021E-03    -54.6406E-03    -46.3189E-03     129.349E-03    -37.7243E-03     26.6572E-03     659.898E-03    -328.374E-03    -331.338E-03    -328.277E-03     659.711E-03    -331.247E-03     26.1778E-03    -23.5253E+06    -30.4497E+06    -38.1332E+06    -37.5056E+06    -30.1567E+06    -24.4459E+06     1.66473E+06         77.4733
            1638     3.59610E-03     160.486E-03     135.678E-03    -34.7971E-03    -51.7572E-03    -41.5106E-03     129.451E-03    -38.8174E-03    -12.0589E-03     655.776E-03    -325.792E-03    -331.070E-03    -325.295E-03     655.279E-03    -331.070E-03     43.0374E-03    -18.3670E+06    -24.3656E+06    -36.6533E+06    -35.3473E+06    -25.6716E+06    -18.3670E+06     2.57675E+06         78.0753
            1639     4.31853E-03     160.472E-03     133.432E-03    -35.7780E-03    -45.9716E-03    -37.0503E-03     127.579E-03    -38.8455E-03    -20.3942E-03     652.208E-03    -324.247E-03    -330.238E-03    -323.225E-03     651.185E-03    -330.238E-03     62.3748E-03    -11.6237E+06    -16.9523E+06    -32.5947E+06    -31.4023E+06    -18.1447E+06    -11.6237E+06     2.63801E+06         78.7012
            1640     5.03948E-03     160.499E-03     131.406E-03    -35.0165E-03    -39.6987E-03    -34.6719E-03     129.757E-03    -38.3950E-03     21.4263E-03     651.132E-03    -322.778E-03    -328.966E-03    -320.983E-03     649.337E-03    -328.966E-03     82.7982E-03    -4.49428E+06    -12.6543E+06    -27.8631E+06    -27.1723E+06    -13.3451E+06    -4.49428E+06     2.09098E+06         79.3252
            1641     5.75799E-03     160.625E-03     132.114E-03    -33.9985E-03    -40.2755E-03    -35.3563E-03     131.027E-03    -37.8306E-03     6.67428E-03     654.215E-03    -323.061E-03    -329.898E-03    -320.272E-03     651.427E-03    -329.898E-03     103.780E-03     1.67621E+06    -4.88175E+06    -24.2909E+06    -23.5156E+06    -5.54179E+06     1.56097E+06     2.85965E+06         79.9948
            1642     6.44088E-03     161.036E-03     130.920E-03    -36.4401E-03    -40.8331E-03    -38.3341E-03     129.486E-03    -37.5048E-03    -2.36499E-03     657.762E-03    -326.758E-03    -332.578E-03    -322.812E-03     653.816E-03    -332.578E-03     124.010E-03     7.91602E+06     255.270E+03    -21.2275E+06    -20.3926E+06    -464.381E+03     7.80077E+06     3.88247E+06         80.8618
            1643     7.15670E-03     161.173E-03     128.494E-03    -37.5686E-03    -42.0249E-03    -40.4115E-03     126.880E-03    -37.5686E-03    -5.20698E-03     660.833E-03    -329.349E-03    -332.892E-03    -323.995E-03     655.479E-03    -332.892E-03     144.833E-03     12.8664E+06     4.23251E+06    -18.6150E+06    -17.5731E+06      3.1906E+06     12.8664E+06     4.32887E+06         81.8531
            1644     7.89363E-03     161.274E-03     124.372E-03    -33.6030E-03    -44.1148E-03    -38.7251E-03     123.063E-03    -37.6838E-03    -1.13067E-03     662.136E-03    -328.551E-03    -331.087E-03    -321.768E-03     655.353E-03    -331.087E-03     163.172E-03     15.2389E+06     6.42113E+06    -16.2889E+06    -14.7994E+06     4.93164E+06     15.2389E+06     5.07700E+06         82.7240
            1645     8.62983E-03     161.417E-03     120.932E-03    -28.3922E-03    -40.9440E-03    -30.3566E-03     119.081E-03    -37.1288E-03     92.5176E-06     661.401E-03    -330.538E-03    -331.993E-03    -322.968E-03     653.574E-03    -331.736E-03     175.500E-03     16.5477E+06     5.15718E+06    -15.1841E+06    -13.3286E+06     3.30169E+06     16.5477E+06     5.65945E+06         83.4171
            1646     9.30418E-03     161.984E-03     124.381E-03    -30.8621E-03    -37.7334E-03    -31.4285E-03     123.344E-03    -36.1309E-03    -759.010E-06     664.929E-03    -332.704E-03    -335.465E-03    -326.647E-03     656.184E-03    -332.778E-03     186.160E-03     20.7826E+06     6.83432E+06    -12.3887E+06    -11.0465E+06     5.49219E+06     20.7826E+06     3.81294E+06         84.2341
            1647     10.0506E-03     162.133E-03     126.635E-03    -32.6140E-03    -39.6073E-03    -36.3506E-03     126.372E-03    -35.6078E-03     5.55435E-03     668.450E-03    -331.861E-03    -338.258E-03    -326.830E-03     657.022E-03    -331.861E-03     212.320E-03     27.3540E+06     9.75910E+06    -8.72126E+06    -7.82682E+06     8.86466E+06     27.3540E+06     1.28251E+06         85.5346
            1648     10.7801E-03     162.415E-03     124.284E-03    -33.2155E-03    -42.8923E-03    -40.1007E-03     123.873E-03    -35.5965E-03     10.9743E-03     669.878E-03    -331.343E-03    -339.318E-03    -326.967E-03     657.526E-03    -331.343E-03     221.634E-03     33.5999E+06     18.6492E+06    -5.66978E+06    -5.12444E+06     18.1039E+06     33.5999E+06     1.04081E+06         87.3974
            1649     11.4851E-03     162.855E-03     122.102E-03    -31.2479E-03    -47.5265E-03    -42.6925E-03     121.759E-03    -35.7389E-03     7.19986E-03     683.197E-03    -331.211E-03    -351.819E-03    -334.199E-03     665.577E-03    -331.211E-03     263.450E-03     40.5359E+06     19.1116E+06    -3.44098E+06    -3.00154E+06     18.6722E+06     40.5359E+06     1.68197E+06         89.8534
            1650     12.2220E-03     163.335E-03     118.461E-03    -25.5954E-03    -45.0275E-03    -34.4772E-03     117.851E-03    -35.5354E-03     9.66868E-03     683.404E-03    -331.449E-03    -352.698E-03    -337.391E-03     668.097E-03    -331.449E-03     238.871E-03     45.5138E+06     17.6838E+06    -4.85732E+06    -3.24835E+06     16.0748E+06     45.5138E+06     1.90318E+06         92.5701
            1651     719.054E-06     162.663E-03     165.713E-03    -33.1959E-03    -76.9368E-03    -36.3915E-03     125.168E-03    -33.1959E-03    -90.0468E-03     661.629E-03    -329.886E-03    -331.682E-03    -331.582E-03     661.626E-03    -329.983E-03     1.59173E-03    -47.2061E+06    -49.2098E+06    -53.6282E+06    -51.2213E+06    -49.0424E+06    -49.7804E+06     1.01130E+06         76.1611
            1652     1.43861E-03     162.624E-03     142.170E-03    -37.0923E-03    -54.7059E-03    -45.6591E-03     133.123E-03    -37.0923E-03     4.49098E-03     661.285E-03    -330.425E-03    -331.073E-03    -330.885E-03     661.270E-03    -330.598E-03     6.15942E-03    -42.1268E+06    -44.9119E+06    -48.9776E+06    -48.3925E+06    -43.3751E+06    -44.2487E+06     1.47435E+06         76.3945
            1653     2.15443E-03     162.557E-03     155.769E-03    -41.9083E-03    -64.7362E-03    -58.8645E-03     149.898E-03    -41.9083E-03    -9.61584E-03     660.669E-03    -329.910E-03    -330.667E-03    -330.260E-03     660.610E-03    -330.259E-03     14.4395E-03    -37.4930E+06    -41.1930E+06    -47.3830E+06    -46.6392E+06    -39.6222E+06    -39.8077E+06     2.12181E+06         76.8185
            1654     2.87609E-03     162.494E-03     152.208E-03    -41.7974E-03    -58.2155E-03    -51.0535E-03     148.552E-03    -45.3035E-03     16.6454E-03     658.782E-03    -327.783E-03    -330.197E-03    -327.690E-03     658.599E-03    -330.107E-03     25.9755E-03    -28.8183E+06    -34.3823E+06    -45.2774E+06    -44.5449E+06    -32.8653E+06    -31.0677E+06     2.31796E+06         77.3993
            1655     3.60188E-03     162.439E-03     132.832E-03    -31.5385E-03    -44.0179E-03    -24.7674E-03     126.061E-03    -44.0179E-03    -33.5250E-03     654.992E-03    -325.083E-03    -330.114E-03    -324.629E-03     654.538E-03    -330.114E-03     41.1393E-03    -18.8380E+06    -26.4377E+06    -41.3060E+06    -40.7792E+06    -25.6356E+06    -20.1669E+06     1.89881E+06         78.0193
            1656     4.32499E-03     162.432E-03     130.172E-03    -29.2505E-03    -40.5102E-03    -21.8622E-03     122.783E-03    -40.5102E-03     116.697E-06     651.607E-03    -324.000E-03    -329.615E-03    -323.032E-03     650.639E-03    -329.615E-03     60.3484E-03    -12.6230E+06    -19.3964E+06    -37.4199E+06    -36.9900E+06    -19.8263E+06    -12.6230E+06     2.02591E+06         78.6373
            1657     5.04733E-03     162.462E-03     128.809E-03    -33.3366E-03    -39.4016E-03    -30.1828E-03     124.644E-03    -38.3904E-03     8.91554E-03     651.059E-03    -323.361E-03    -328.622E-03    -321.515E-03     649.213E-03    -328.622E-03     83.7851E-03    -4.89363E+06    -13.0218E+06    -33.5502E+06    -33.1716E+06    -13.4003E+06    -4.89363E+06     2.19623E+06         79.2448
            1658     5.75927E-03     162.598E-03     120.181E-03    -33.7606E-03    -39.0282E-03    -32.3644E-03     117.349E-03    -37.5927E-03    -3.33795E-03     653.803E-03    -323.082E-03    -329.801E-03    -320.158E-03     650.879E-03    -329.801E-03     106.285E-03     2.00973E+06    -8.70397E+06    -30.3888E+06    -30.1065E+06    -8.98625E+06     2.00973E+06     1.91693E+06         79.8840
            1659     6.44490E-03     162.991E-03     116.830E-03    -36.3279E-03    -40.5452E-03    -36.5450E-03     113.894E-03    -37.3925E-03    -7.89429E-03     656.722E-03    -326.108E-03    -332.127E-03    -322.087E-03     652.701E-03    -332.127E-03     125.156E-03     6.15204E+06    -3.70469E+06    -27.4437E+06    -26.8484E+06    -4.30004E+06     6.15204E+06     2.22444E+06         80.7129
            1660     7.16772E-03     163.145E-03     114.675E-03    -33.5166E-03    -40.9480E-03    -34.8353E-03     112.357E-03    -37.3114E-03    -13.2476E-03     660.212E-03    -329.377E-03    -332.333E-03    -324.072E-03     654.906E-03    -332.333E-03     144.179E-03     7.92702E+06     1.04980E+06    -24.6262E+06    -23.8991E+06     322.643E+03     7.92702E+06     2.99880E+06         81.6915
            1661     7.89570E-03     163.250E-03     112.972E-03    -26.0219E-03    -37.5108E-03    -24.4052E-03     110.447E-03    -36.6026E-03    -11.3830E-03     661.870E-03    -329.899E-03    -331.012E-03    -323.003E-03     654.974E-03    -331.012E-03     164.423E-03     10.8028E+06     1.21543E+06    -21.3585E+06    -20.1404E+06    -2.66737E+03     10.8028E+06     3.80691E+06         82.5678
            1662     8.62879E-03     163.398E-03     119.263E-03    -25.2557E-03    -36.9797E-03    -22.2425E-03     114.707E-03    -35.4370E-03     3.93081E-03     661.080E-03    -331.229E-03    -331.663E-03    -322.801E-03     652.652E-03    -331.663E-03     181.841E-03     16.3815E+06     6.51335E+06    -16.8156E+06    -15.4378E+06     5.13561E+06     16.3815E+06     4.42205E+06         83.2364
            1663     9.30426E-03     163.961E-03     125.934E-03    -30.0536E-03    -37.7624E-03    -28.1688E-03     120.904E-03    -34.6173E-03     6.12425E-03     661.985E-03    -332.422E-03    -333.598E-03    -323.831E-03     652.569E-03    -332.773E-03     192.547E-03     23.2411E+06     11.9476E+06    -14.1714E+06    -13.3015E+06     11.0777E+06     23.2411E+06     3.17586E+06         84.0137
            1664     10.0593E-03     164.108E-03     125.019E-03    -33.1601E-03    -38.9976E-03    -34.1942E-03     121.384E-03    -34.3283E-03    -8.92194E-03     665.586E-03    -331.593E-03    -336.291E-03    -324.637E-03     653.932E-03    -331.593E-03     214.139E-03     31.4278E+06     12.7961E+06    -11.3896E+06    -10.6995E+06     12.1061E+06     31.4278E+06     534.661E+03         85.3487
            1665     10.7854E-03     164.379E-03     123.897E-03    -34.3497E-03    -42.0311E-03    -40.6671E-03     122.533E-03    -34.3497E-03     18.7685E-03     669.498E-03    -330.930E-03    -339.432E-03    -327.236E-03     657.301E-03    -330.930E-03     220.139E-03     37.1291E+06     15.1856E+06    -8.88868E+06    -8.54225E+06     14.8392E+06     37.1291E+06     499.274E+03         87.3309
            1666     11.4939E-03     164.812E-03     118.375E-03    -29.6545E-03    -39.9189E-03    -33.4521E-03     116.399E-03    -34.1455E-03    -10.7312E-03     683.743E-03    -331.039E-03    -353.183E-03    -335.854E-03     666.414E-03    -331.039E-03     261.421E-03     42.0966E+06     17.3525E+06    -8.11204E+06    -7.73157E+06     16.9720E+06     42.0966E+06     1.89943E+06         89.9313
            1667     12.2239E-03     165.294E-03     111.012E-03    -23.5565E-03    -38.7149E-03    -25.7152E-03     107.952E-03    -33.4965E-03    -242.834E-06     682.666E-03    -331.065E-03    -352.363E-03    -336.946E-03     667.248E-03    -331.065E-03     240.986E-03     49.1002E+06     20.9999E+06    -6.66373E+06    -4.72194E+06     19.0581E+06     49.1002E+06     1.33827E+06         92.7699
            1668     718.183E-06     164.602E-03     126.610E-03    -25.3229E-03    -49.9570E-03    -31.6033E-03     108.256E-03    -25.3229E-03     9.12984E-03     659.772E-03    -328.930E-03    -330.609E-03    -329.427E-03     659.770E-03    -330.110E-03     518.898E-06    -53.9341E+06    -56.0912E+06    -61.9521E+06    -59.3549E+06    -54.7564E+06    -57.8661E+06     1.73929E+06         76.0175
            1669     1.43565E-03     164.576E-03     134.425E-03    -31.5202E-03    -56.8153E-03    -51.2102E-03     130.529E-03    -33.2295E-03     21.9488E-03     659.005E-03    -329.206E-03    -329.984E-03    -329.511E-03     658.991E-03    -329.665E-03     6.04736E-03    -47.2349E+06    -51.2788E+06    -57.4870E+06    -56.9081E+06    -48.4496E+06    -50.6430E+06     1.79923E+06         76.2912
            1670     2.15935E-03     164.500E-03     125.622E-03    -33.0157E-03    -47.3703E-03    -37.9852E-03     121.313E-03    -38.0918E-03     21.0915E-03     658.533E-03    -328.645E-03    -330.045E-03    -329.357E-03     658.476E-03    -329.276E-03     14.1519E-03    -41.1399E+06    -44.2277E+06    -55.3096E+06    -54.7432E+06    -43.0642E+06    -42.8697E+06     2.26337E+06         76.7630
            1671     2.88262E-03     164.429E-03     119.344E-03    -31.7363E-03    -39.6104E-03    -28.6246E-03     114.076E-03    -37.4543E-03     16.6362E-03     658.610E-03    -328.253E-03    -329.616E-03    -328.600E-03     658.437E-03    -329.096E-03     25.2264E-03    -29.7099E+06    -34.2911E+06    -50.0408E+06    -49.2683E+06    -33.3990E+06    -31.3745E+06     2.99360E+06         77.3944
            1672     3.60069E-03     164.397E-03     124.508E-03    -27.6725E-03    -45.4545E-03    -34.9782E-03     122.900E-03    -36.5405E-03    -9.89487E-03     656.092E-03    -326.065E-03    -329.327E-03    -325.720E-03     655.678E-03    -329.258E-03     39.5093E-03    -18.3806E+06    -27.4481E+06      -45.58E+06    -44.7759E+06    -26.9233E+06    -19.7095E+06     3.14726E+06         78.0388
            1673     4.32256E-03     164.384E-03     128.956E-03    -28.3530E-03    -47.8453E-03    -37.3395E-03     126.642E-03    -36.5452E-03     30.4826E-03     651.118E-03    -323.395E-03    -329.305E-03    -322.482E-03     650.205E-03    -329.305E-03     58.4726E-03    -8.44417E+06    -21.5868E+06    -41.0440E+06    -40.3222E+06    -22.3086E+06    -8.44417E+06     3.08453E+06         78.6170
            1674     5.04774E-03     164.424E-03     123.622E-03    -34.7037E-03    -40.1317E-03    -34.6366E-03     119.802E-03    -36.3790E-03     4.13666E-03     648.380E-03    -321.309E-03    -328.627E-03    -319.557E-03     646.628E-03    -328.627E-03     81.4627E-03     78.2791E+03    -13.7021E+06    -36.0241E+06    -35.2939E+06    -14.4323E+06     78.2791E+03     3.44984E+06         79.1637
            1675     5.76749E-03     164.546E-03     119.477E-03    -35.9295E-03    -41.0296E-03    -37.4519E-03     115.899E-03    -35.9295E-03     3.76635E-03     651.003E-03    -321.746E-03    -329.399E-03    -318.868E-03     648.124E-03    -329.399E-03     105.034E-03     5.95268E+06    -6.42936E+06    -33.2651E+06    -31.8873E+06    -7.80723E+06     5.95268E+06     4.90859E+06         79.7767
            1676     6.45073E-03     164.962E-03     117.404E-03    -34.2949E-03    -40.9145E-03    -36.7201E-03     114.329E-03    -35.4146E-03     7.44596E-03     656.266E-03    -326.604E-03    -331.358E-03    -322.473E-03     652.135E-03    -331.358E-03     126.789E-03     10.9089E+06    -3.02580E+06    -31.0506E+06    -29.7066E+06    -4.36974E+06     10.9089E+06     4.08308E+06         80.5954
            1677     7.16396E-03     165.123E-03     116.904E-03    -29.8768E-03    -39.4851E-03    -31.6023E-03     113.936E-03    -34.7913E-03     5.73951E-03     658.927E-03    -329.335E-03    -331.577E-03    -323.812E-03     653.404E-03    -331.577E-03     146.874E-03     15.0528E+06    -1.25100E+06    -26.2973E+06    -25.8284E+06    -1.71992E+06     15.0528E+06     2.09549E+06         81.5403
            1678     7.89954E-03     165.232E-03     122.606E-03    -27.7351E-03    -42.0660E-03    -32.0933E-03     119.134E-03    -34.2351E-03     9.79264E-03     658.088E-03    -328.115E-03    -330.570E-03    -320.839E-03     650.812E-03    -330.570E-03     168.315E-03     18.7525E+06    -492.234E+03    -21.7324E+06    -21.4030E+06    -821.618E+03     18.7525E+06     1.49143E+06         82.3452
            1679     8.63937E-03     165.376E-03     128.448E-03    -31.1804E-03    -43.8694E-03    -35.5751E-03     122.859E-03    -33.8856E-03     23.1501E-03     657.438E-03    -328.875E-03    -331.215E-03    -319.895E-03     648.458E-03    -331.215E-03     187.217E-03     21.7697E+06     2.94918E+06    -18.4849E+06    -18.1416E+06     2.60589E+06     21.7697E+06     2.02815E+06         82.9640
            1680     9.32004E-03     165.921E-03     123.550E-03    -32.4496E-03    -43.3503E-03    -34.6073E-03     115.975E-03    -33.6178E-03     2.53102E-03     661.277E-03    -331.068E-03    -334.389E-03    -323.693E-03     651.576E-03    -332.063E-03     195.474E-03     25.2758E+06     11.4721E+06    -15.3354E+06    -14.6230E+06     10.7597E+06     25.2758E+06     2.91747E+06         83.7762
            1681     10.0662E-03     166.062E-03     114.068E-03    -32.2220E-03    -40.0276E-03    -32.5579E-03     107.766E-03    -33.3902E-03    -6.05024E-03     666.642E-03    -330.855E-03    -338.397E-03    -326.792E-03     655.036E-03    -330.855E-03     214.018E-03     30.0812E+06     16.9082E+06    -13.7055E+06    -12.9604E+06     16.1632E+06     30.0812E+06     3.08837E+06         85.1975
            1682     10.7941E-03     166.329E-03     107.004E-03    -27.2531E-03    -37.0713E-03    -28.5934E-03     104.313E-03    -33.0405E-03     27.3534E-03     668.329E-03    -330.507E-03    -339.846E-03    -327.503E-03     655.986E-03    -330.507E-03     221.444E-03     37.2052E+06     14.5688E+06    -11.9235E+06    -11.3300E+06     13.9752E+06     37.2052E+06     3.16876E+06         87.2807
            1683     11.4983E-03     166.754E-03     106.724E-03    -24.0452E-03    -35.5599E-03    -24.5005E-03     103.975E-03    -32.3554E-03    -25.9705E-03     682.046E-03    -330.880E-03    -352.066E-03    -333.798E-03     663.778E-03    -330.880E-03     267.466E-03     45.3136E+06     15.9269E+06    -8.66373E+06    -8.14218E+06     15.4053E+06     45.3136E+06     2.84066E+06         90.0022
            1684     12.2174E-03     167.223E-03     120.537E-03    -29.1497E-03    -40.3768E-03    -27.9962E-03     110.680E-03    -31.6725E-03     17.6886E-03     680.161E-03    -330.209E-03    -350.355E-03    -333.786E-03     663.592E-03    -330.209E-03     249.828E-03     54.5041E+06     24.1183E+06    -3.06188E+06    -1.09149E+06     22.1479E+06     54.5041E+06     2.36002E+06         92.9376
            1685     718.613E-06     166.553E-03     126.419E-03    -22.8543E-03    -56.4242E-03    -35.4405E-03     115.326E-03    -32.7448E-03     71.1996E-03     657.873E-03    -327.953E-03    -329.744E-03    -328.630E-03     657.870E-03    -329.064E-03     2.89253E-03    -60.2946E+06    -64.9640E+06    -70.7112E+06    -68.5492E+06    -60.6155E+06    -66.8051E+06     731.871E+03         75.9455
            1686     1.43941E-03     166.526E-03     108.090E-03    -19.2889E-03    -42.1086E-03    -19.5091E-03     97.0907E-03    -30.8886E-03    -13.9911E-03     657.514E-03    -328.398E-03    -329.372E-03    -328.972E-03     657.503E-03    -328.788E-03     6.17016E-03    -52.3763E+06    -58.5300E+06    -66.4115E+06    -65.8253E+06    -53.5982E+06    -57.8942E+06     2.32250E+06         76.2754
            1687     2.15957E-03     166.453E-03     95.8005E-03    -21.5425E-03    -31.3145E-03    -16.2994E-03     85.8616E-03    -26.6186E-03    -16.6331E-03     657.832E-03    -328.231E-03    -329.747E-03    -329.336E-03     657.781E-03    -328.590E-03     13.2047E-03    -42.4277E+06    -46.5815E+06    -60.3249E+06    -59.7131E+06    -44.8173E+06    -44.8036E+06     2.85482E+06         76.7844
            1688     2.87904E-03     166.413E-03     98.7898E-03    -21.7705E-03    -35.4267E-03    -28.8585E-03     95.9974E-03    -25.5464E-03     24.7179E-03     657.063E-03    -327.457E-03    -329.121E-03    -327.919E-03     656.884E-03    -328.480E-03     25.4952E-03    -33.2491E+06    -38.4684E+06    -56.2856E+06    -55.4216E+06    -38.9967E+06    -33.5848E+06     3.50830E+06         77.4235
            1689     3.60350E-03     166.369E-03     115.193E-03    -27.1503E-03    -45.7732E-03    -42.7490E-03     112.578E-03    -27.5593E-03     1.24918E-03     654.556E-03    -325.347E-03    -328.562E-03    -324.928E-03     654.068E-03    -328.493E-03     42.5194E-03    -20.6590E+06    -29.9265E+06    -51.5748E+06    -50.1636E+06    -31.3378E+06    -20.6590E+06     4.64794E+06         78.0779
            1690     4.32509E-03     166.360E-03     115.889E-03    -29.0517E-03    -43.3297E-03    -40.0792E-03     113.510E-03    -29.9231E-03    -1.47834E-03     650.926E-03    -323.012E-03    -328.499E-03    -321.967E-03     649.881E-03    -328.499E-03     62.8162E-03    -9.85027E+06    -21.1542E+06    -46.5663E+06    -45.1233E+06    -22.5972E+06    -9.85027E+06     5.25228E+06         78.6645
            1691     5.04760E-03     166.393E-03     113.062E-03    -30.0344E-03    -36.1674E-03    -34.6925E-03     112.458E-03    -30.9057E-03     6.83375E-03     647.267E-03    -321.025E-03    -328.135E-03    -319.158E-03     645.399E-03    -328.135E-03     84.1512E-03    -732.580E+03    -15.6873E+06    -41.8003E+06    -40.5178E+06    -16.9699E+06    -732.580E+03     5.19740E+06         79.1890
            1692     5.76882E-03     166.502E-03     117.931E-03    -30.6864E-03    -37.1721E-03    -35.7076E-03     116.767E-03    -30.9873E-03     6.00174E-03     648.065E-03    -321.348E-03    -328.623E-03    -318.365E-03     645.082E-03    -328.623E-03     106.713E-03     9.74064E+06    -8.68811E+06    -35.9469E+06    -34.1175E+06    -10.5175E+06     9.74064E+06     4.92737E+06         79.7348
            1693     6.45428E-03     166.933E-03     118.388E-03    -29.1141E-03    -33.9165E-03    -31.3662E-03     117.331E-03    -30.6073E-03     107.994E-06     652.276E-03    -324.934E-03    -330.356E-03    -320.659E-03     648.001E-03    -330.356E-03     128.604E-03     20.1093E+06    -1.92070E+06    -29.1054E+06    -26.7795E+06    -4.24656E+06     20.1093E+06     5.76475E+06         80.4482
            1694     7.17799E-03     167.093E-03     121.841E-03    -29.1444E-03    -36.0175E-03    -33.4749E-03     120.491E-03    -30.3368E-03     8.47421E-03     656.478E-03    -327.947E-03    -330.581E-03    -322.238E-03     650.769E-03    -330.581E-03     149.130E-03     28.0433E+06     995.314E+03    -24.1113E+06    -22.0358E+06    -1.08022E+06     28.0433E+06     5.90567E+06         81.3040
            1695     7.90874E-03     167.188E-03     122.267E-03    -30.7124E-03    -41.7591E-03    -40.1141E-03     120.622E-03    -30.7124E-03     10.2217E-03     657.566E-03    -327.351E-03    -330.026E-03    -320.830E-03     650.383E-03    -329.365E-03     167.390E-03     30.3900E+06     2.57361E+06    -23.0806E+06    -20.9397E+06     432.699E+03     30.3900E+06     5.43628E+06         82.0945
            1696     8.64767E-03     167.323E-03     112.743E-03    -31.1031E-03    -40.7800E-03    -38.8254E-03     110.788E-03    -31.1031E-03     12.4055E-03     655.774E-03    -327.385E-03    -330.700E-03    -319.493E-03     647.221E-03    -330.039E-03     182.475E-03     31.4866E+06     4.19656E+06    -20.0778E+06    -18.6665E+06     2.78519E+06     31.4866E+06     4.35481E+06         82.7632
            1697     9.33179E-03     167.854E-03     108.141E-03    -31.2653E-03    -43.5978E-03    -40.2051E-03     104.749E-03    -31.2653E-03    -7.08842E-03     658.955E-03    -329.098E-03    -333.201E-03    -322.277E-03     649.413E-03    -330.480E-03     193.460E-03     34.7512E+06     9.04852E+06    -15.2928E+06    -14.4823E+06     8.23796E+06     34.7512E+06     4.14309E+06         83.6209
            1698     10.0823E-03     167.945E-03     109.525E-03    -31.5333E-03    -43.3042E-03    -39.8497E-03     106.070E-03    -31.5333E-03    -4.19520E-03     663.941E-03    -329.748E-03    -337.143E-03    -325.295E-03     652.093E-03    -329.748E-03     215.703E-03     38.0493E+06     16.3325E+06    -13.9355E+06    -12.7672E+06     15.1642E+06     38.0493E+06     5.74020E+06         85.0422
            1699     10.7946E-03     168.265E-03     106.917E-03    -25.6689E-03    -37.8825E-03    -30.0741E-03     104.897E-03    -31.4563E-03     23.9221E-03     664.563E-03    -329.982E-03    -337.963E-03    -325.258E-03     651.858E-03    -329.982E-03     224.048E-03     43.1719E+06     16.9021E+06    -10.8462E+06    -9.91989E+06     15.9758E+06     43.1719E+06     4.96611E+06         87.0953
            1700     11.4966E-03     168.658E-03     107.926E-03    -22.5504E-03    -35.3843E-03    -24.3837E-03     105.236E-03    -30.8606E-03    -20.2069E-03     677.422E-03    -330.240E-03    -348.463E-03    -329.622E-03     658.581E-03    -330.240E-03     270.574E-03     50.8797E+06     17.2953E+06    -6.03169E+06    -5.55945E+06     16.8231E+06     50.8797E+06     2.45329E+06         89.7680
            1701     12.2113E-03     169.264E-03     112.367E-03    -27.1314E-03    -35.5545E-03    -23.5051E-03     103.408E-03    -30.2219E-03     13.0496E-03     678.679E-03    -329.531E-03    -349.207E-03    -332.396E-03     661.867E-03    -329.531E-03     250.086E-03     57.1390E+06     25.5845E+06    -5.66126E+06    -5.19839E+06     25.1216E+06     57.1390E+06     346.577E+03         92.6386
            1702     720.810E-06     168.482E-03     159.039E-03    -22.1221E-03    -83.9912E-03    -35.3007E-03     120.239E-03    -32.0126E-03     82.3469E-03     654.982E-03    -326.513E-03    -328.434E-03    -328.404E-03     654.980E-03    -326.540E-03     2.21931E-03    -64.5526E+06    -73.4286E+06    -77.9218E+06    -75.9103E+06    -65.6006E+06    -74.3922E+06     1.51705E+06         75.8825
            1703     1.43983E-03     168.458E-03     123.335E-03    -22.2437E-03    -47.3302E-03    -25.0149E-03     110.910E-03    -32.1342E-03    -73.6344E-03     656.381E-03    -327.765E-03    -328.773E-03    -328.727E-03     656.363E-03    -327.793E-03     7.04485E-03    -58.1661E+06    -65.8529E+06    -72.6861E+06    -72.3215E+06    -58.5306E+06    -65.8529E+06     1.85926E+06         76.2505
            1704     2.15921E-03     168.420E-03     118.843E-03    -29.9323E-03    -38.7951E-03    -29.3044E-03     109.352E-03    -29.9323E-03    -29.5120E-03     656.826E-03    -327.935E-03    -329.037E-03    -328.749E-03     656.756E-03    -328.153E-03     15.7082E-03    -49.4233E+06    -54.8044E+06    -69.0414E+06    -68.1555E+06    -51.4514E+06    -53.6623E+06     3.77160E+06         76.7873
            1705     2.88381E-03     168.364E-03     110.994E-03    -23.2114E-03    -40.8193E-03    -32.4380E-03     109.235E-03    -29.8333E-03     16.1172E-03     654.983E-03    -326.707E-03    -328.407E-03    -326.631E-03     654.784E-03    -328.285E-03     27.1213E-03    -39.2857E+06    -44.3769E+06    -66.0740E+06    -64.7829E+06    -44.4436E+06    -40.5101E+06     4.95870E+06         77.4407
            1706     3.60812E-03     168.328E-03     100.095E-03    -17.8698E-03    -38.7679E-03    -24.3383E-03     97.2641E-03    -29.4681E-03    -12.8284E-03     652.992E-03    -324.499E-03    -328.220E-03    -324.005E-03     652.499E-03    -328.220E-03     42.8480E-03    -26.3885E+06    -34.4307E+06    -60.5839E+06    -59.0285E+06    -35.9862E+06    -26.3885E+06     5.21999E+06         78.1310
            1707     4.33096E-03     168.333E-03     95.7848E-03    -22.6259E-03    -30.8714E-03    -23.2507E-03     94.0119E-03    -28.4737E-03    -18.1886E-03     650.267E-03    -322.549E-03    -328.053E-03    -321.515E-03     649.233E-03    -328.053E-03     62.4528E-03    -12.7191E+06    -24.1661E+06    -54.1431E+06    -52.3842E+06    -25.9250E+06    -12.7191E+06     6.05781E+06         78.8115
            1708     5.05605E-03     168.350E-03     105.993E-03    -27.4768E-03    -35.3837E-03    -32.5649E-03     104.046E-03    -28.3482E-03     19.0054E-03     648.035E-03    -322.296E-03    -327.581E-03    -320.350E-03     646.088E-03    -327.581E-03     85.8295E-03     361.285E+03    -17.6331E+06    -47.1128E+06    -45.4462E+06    -19.2997E+06     361.285E+03     6.28492E+06         79.4217
            1709     5.77383E-03     168.461E-03     117.129E-03    -28.5102E-03    -39.5164E-03    -30.7122E-03     108.626E-03    -28.8112E-03    -14.5941E-03     648.259E-03    -322.289E-03    -327.839E-03    -319.163E-03     645.133E-03    -327.839E-03     109.455E-03     12.0919E+06    -12.0119E+06    -40.9947E+06    -39.7469E+06    -13.2596E+06     12.0919E+06     4.28896E+06         79.8937
            1710     6.47074E-03     168.796E-03     117.566E-03    -28.5091E-03    -37.4856E-03    -26.6345E-03     107.089E-03    -28.8827E-03    -14.1774E-03     649.594E-03    -323.170E-03    -328.810E-03    -318.867E-03     645.292E-03    -328.810E-03     128.819E-03     19.5830E+06    -6.62609E+06    -37.6231E+06    -36.1472E+06    -8.10194E+06     19.5830E+06     4.16007E+06         80.3540
            1711     7.19040E-03     168.917E-03     115.022E-03    -28.9141E-03    -37.5958E-03    -32.1381E-03     109.637E-03    -28.9867E-03     7.01815E-03     651.888E-03    -325.413E-03    -328.844E-03    -319.806E-03     646.281E-03    -328.844E-03     147.303E-03     23.4376E+06    -2.35913E+06    -34.9690E+06    -32.5953E+06    -4.73281E+06     23.4376E+06     7.38531E+06         80.9935
            1712     7.92159E-03     168.989E-03     105.775E-03    -28.1532E-03    -33.6471E-03    -30.6674E-03     103.860E-03    -29.2178E-03    -24.1994E-03     655.753E-03    -326.821E-03    -328.792E-03    -320.509E-03     648.670E-03    -328.021E-03     166.057E-03     28.5386E+06     4.07267E+06    -30.1068E+06    -27.3818E+06     1.34762E+06     28.5386E+06     8.16237E+06         81.7781
            1713     8.62765E-03     169.242E-03     99.7552E-03    -28.2971E-03    -33.9999E-03    -32.3548E-03     99.1748E-03    -29.3617E-03    -4.82169E-03     657.397E-03    -328.003E-03    -329.647E-03    -320.119E-03     648.742E-03    -328.876E-03     183.689E-03     35.1329E+06     5.54270E+06    -23.0651E+06    -21.3401E+06     3.81778E+06     35.1329E+06     5.47203E+06         82.5497
            1714     9.36033E-03     169.444E-03     104.794E-03    -29.3551E-03    -37.1926E-03    -35.3309E-03     103.225E-03    -29.6474E-03    -14.7855E-03     656.560E-03    -328.306E-03    -330.817E-03    -319.976E-03     646.593E-03    -329.179E-03     197.228E-03     39.7443E+06     8.92360E+06    -20.1976E+06    -19.2588E+06     7.98477E+06     39.7443E+06     4.95761E+06         83.4053
            1715     10.0888E-03     169.741E-03     108.113E-03    -27.2813E-03    -35.5399E-03    -30.5141E-03     105.543E-03    -29.7366E-03    -3.98956E-03     659.104E-03    -328.872E-03    -333.079E-03    -321.064E-03     647.089E-03    -328.872E-03     216.576E-03     45.4885E+06     16.7115E+06    -17.5626E+06    -16.6790E+06     15.8279E+06     45.4885E+06     5.33618E+06         84.6808
            1716     10.7966E-03     170.227E-03     110.729E-03    -25.4323E-03    -34.5258E-03    -29.0439E-03     109.230E-03    -29.4149E-03     24.9466E-03     661.922E-03    -329.401E-03    -334.916E-03    -322.717E-03     649.722E-03    -329.401E-03     218.768E-03     51.6722E+06     17.3159E+06    -11.9465E+06    -11.2041E+06     16.5735E+06     51.6722E+06     4.50554E+06         86.5912
            1717     11.5088E-03     170.566E-03     115.716E-03    -27.3545E-03    -39.7869E-03    -35.7720E-03     113.521E-03    -29.1741E-03    -14.4585E-03     675.498E-03    -329.539E-03    -347.514E-03    -329.991E-03     657.976E-03    -329.539E-03     260.756E-03     59.7077E+06     24.2803E+06    -8.35083E+06    -7.48219E+06     23.4116E+06     59.7077E+06     4.29908E+06         89.1718
            1718     12.2326E-03     171.153E-03     110.651E-03    -28.7771E-03    -43.5584E-03    -40.6223E-03     108.283E-03    -29.3449E-03    -11.8948E-03     678.848E-03    -328.953E-03    -350.366E-03    -335.050E-03     663.531E-03    -328.953E-03     237.600E-03     69.3414E+06     32.7432E+06    -3.74032E+06    -2.71176E+06     31.7147E+06     69.3414E+06     2.43878E+06         91.9975
            1719     720.796E-06     170.317E-03     174.112E-03    -14.6132E-03    -120.105E-03    -31.7120E-03     85.7193E-03    -14.6132E-03     159.198E-03     653.076E-03    -325.399E-03    -327.772E-03    -326.610E-03     653.074E-03    -326.559E-03     1.48819E-03    -72.6401E+06    -84.4135E+06    -90.9134E+06    -86.0146E+06    -78.0290E+06    -83.9234E+06     5.08325E+06         75.8391
            1720     1.44048E-03     170.337E-03     126.963E-03    -27.8295E-03    -52.9472E-03    -46.1924E-03     120.208E-03    -27.8295E-03    -54.6992E-03     653.143E-03    -325.886E-03    -327.509E-03    -326.261E-03     653.122E-03    -327.113E-03     7.91455E-03    -64.2540E+06    -75.3117E+06    -88.8960E+06    -85.8244E+06    -67.3256E+06    -75.3117E+06     6.97343E+06         76.1899
            1721     2.16119E-03     170.325E-03     126.104E-03    -31.3880E-03    -42.6703E-03    -38.8157E-03     124.111E-03    -33.2494E-03    -804.081E-06     653.110E-03    -326.346E-03    -327.709E-03    -326.546E-03     653.029E-03    -327.429E-03     17.0151E-03    -56.6327E+06    -62.0302E+06    -85.1131E+06    -82.5588E+06    -59.5331E+06    -61.6840E+06     7.69318E+06         76.7240
            1722     2.88065E-03     170.299E-03     109.453E-03    -23.8037E-03    -33.9709E-03    -23.7660E-03     108.309E-03    -32.8652E-03     6.63520E-03     654.227E-03    -327.117E-03    -327.832E-03    -327.053E-03     654.003E-03    -327.672E-03     28.7749E-03    -42.3548E+06    -47.1726E+06    -76.7828E+06    -74.6166E+06    -48.1144E+06    -43.5792E+06     7.54215E+06         77.3846
            1723     3.59952E-03     170.289E-03     101.036E-03    -18.5163E-03    -34.2545E-03    -21.0618E-03     100.020E-03    -30.6928E-03    -14.9939E-03     654.095E-03    -325.599E-03    -328.164E-03    -325.161E-03     653.599E-03    -328.107E-03     43.3049E-03    -27.3119E+06    -37.1659E+06    -69.9171E+06    -68.0220E+06    -39.0611E+06    -27.3119E+06     6.76887E+06         78.0805
            1724     4.32181E-03     170.294E-03     100.128E-03    -24.3032E-03    -33.4331E-03    -27.5722E-03     99.5438E-03    -29.5803E-03    -13.3782E-03     652.197E-03    -324.108E-03    -328.698E-03    -323.105E-03     651.194E-03    -328.698E-03     61.6393E-03    -12.1485E+06    -29.4760E+06    -62.4529E+06    -60.6136E+06    -31.3153E+06    -12.1485E+06     6.27898E+06         78.7898
            1725     5.04205E-03     170.327E-03     104.080E-03    -29.1753E-03    -35.8698E-03    -29.8516E-03     98.3628E-03    -29.4759E-03     35.5485E-03     651.354E-03    -323.587E-03    -328.388E-03    -321.741E-03     649.508E-03    -328.388E-03     83.9227E-03     1.07359E+06    -21.9441E+06    -55.4577E+06    -53.2903E+06    -24.1115E+06     1.07359E+06     7.21738E+06         79.4807
            1726     5.76707E-03     170.395E-03     113.811E-03    -29.5532E-03    -47.2313E-03    -29.2080E-03     95.7880E-03    -29.5532E-03    -21.3162E-03     649.468E-03    -322.689E-03    -328.089E-03    -319.648E-03     646.427E-03    -328.089E-03     107.840E-03     12.5090E+06    -10.0586E+06    -49.2776E+06    -47.0497E+06    -12.2865E+06     12.5090E+06     8.61812E+06         80.0228
            1727     6.48730E-03     170.523E-03     118.962E-03    -29.4169E-03    -50.6870E-03    -25.8495E-03     94.1247E-03    -29.4169E-03    -1.60955E-03     649.207E-03    -322.945E-03    -327.712E-03    -318.436E-03     644.698E-03    -327.712E-03     131.583E-03     20.5574E+06    -6.51594E+06    -45.7710E+06    -43.2496E+06    -9.03739E+06     20.5574E+06     8.08995E+06         80.4241
            1728     7.21403E-03     170.655E-03     114.044E-03    -28.9587E-03    -42.5650E-03    -23.7428E-03     95.2215E-03    -28.9587E-03     19.1675E-03     648.309E-03    -323.613E-03    -326.339E-03    -317.646E-03     642.228E-03    -326.225E-03     152.874E-03     25.9757E+06    -4.89218E+06    -40.6522E+06    -38.4012E+06    -7.14315E+06     25.9757E+06     6.76068E+06         80.9033
            1729     7.94175E-03     170.789E-03     102.112E-03    -27.3362E-03    -33.5093E-03    -25.4613E-03     95.1282E-03    -28.4009E-03    -33.8477E-03     649.922E-03    -324.450E-03    -326.161E-03    -317.177E-03     642.426E-03    -325.938E-03     170.126E-03     30.4583E+06     4.32547E+06    -33.7651E+06    -31.5274E+06     2.08771E+06     30.4583E+06     7.40332E+06         81.5732
            1730     8.61958E-03     171.296E-03     100.800E-03    -26.3833E-03    -32.6071E-03    -28.7259E-03     98.5427E-03    -28.0077E-03     23.2653E-03     655.973E-03    -326.614E-03    -327.930E-03    -318.269E-03     647.145E-03    -327.447E-03     185.316E-03     33.4595E+06     6.71441E+06    -30.3678E+06    -27.9619E+06     4.30843E+06     33.4595E+06     7.97503E+06         82.3333
            1731     9.36674E-03     171.443E-03     106.898E-03    -27.0400E-03    -35.3328E-03    -31.8443E-03     104.262E-03    -27.8921E-03     2.08977E-03     656.487E-03    -327.601E-03    -330.308E-03    -320.189E-03     646.577E-03    -327.810E-03     196.695E-03     39.5680E+06     8.93687E+06    -23.5388E+06    -22.3852E+06     7.78332E+06     39.5680E+06     5.84946E+06         83.1809
            1732     10.0962E-03     171.652E-03     109.976E-03    -25.4615E-03    -39.2784E-03    -33.9406E-03     107.093E-03    -27.9167E-03     7.44992E-03     658.351E-03    -327.300E-03    -332.776E-03    -321.112E-03     646.687E-03    -327.300E-03     213.406E-03     47.9785E+06     16.9024E+06    -18.0364E+06    -17.3155E+06     16.1815E+06     47.9785E+06     4.87997E+06         84.3911
            1733     10.8047E-03     172.129E-03     103.737E-03    -23.8793E-03    -37.6185E-03    -30.1385E-03     100.240E-03    -27.8619E-03     10.7781E-03     662.476E-03    -327.771E-03    -335.694E-03    -324.174E-03     650.956E-03    -327.771E-03     212.718E-03     56.0266E+06     20.3794E+06    -15.1895E+06    -14.5377E+06     19.7276E+06     56.0266E+06     4.48089E+06         86.2832
            1734     11.5155E-03     172.519E-03     99.8462E-03    -25.8394E-03    -36.9223E-03    -28.4507E-03     93.1943E-03    -27.6591E-03     288.839E-06     677.561E-03    -329.011E-03    -350.289E-03    -333.823E-03     661.095E-03    -329.011E-03     253.367E-03     65.6611E+06     25.5014E+06    -10.9661E+06    -10.0520E+06     24.5873E+06     65.6611E+06     2.77392E+06         88.9594
            1735     12.2438E-03     173.061E-03     105.932E-03    -25.8607E-03    -40.5479E-03    -31.3397E-03     98.3030E-03    -27.4402E-03     1.61292E-03     678.365E-03    -328.351E-03    -350.509E-03    -335.706E-03     663.563E-03    -328.351E-03     235.188E-03     74.8372E+06     34.6885E+06    -7.27115E+06    -6.31627E+06     33.7336E+06     74.8372E+06     1.35719E+06         91.9402
            1736     721.118E-06     172.131E-03     169.467E-03    -24.6521E-03    -112.379E-03    -29.8015E-03     92.8680E-03    -30.6305E-03     150.526E-03     649.148E-03    -323.739E-03    -325.597E-03    -323.729E-03     649.138E-03    -325.597E-03     4.68517E-03    -88.5196E+06    -95.0570E+06    -113.816E+06    -97.0578E+06    -107.135E+06    -93.1996E+06     6.89664E+06         75.8544
            1737     1.44312E-03     172.167E-03     91.3754E-03    -19.2714E-03    -39.8757E-03    -20.3531E-03     80.5265E-03    -27.9451E-03    -24.8597E-03     648.730E-03    -323.804E-03    -325.305E-03    -323.793E-03     648.706E-03    -325.292E-03     9.10976E-03    -74.2708E+06    -84.0342E+06    -108.994E+06    -94.1079E+06    -89.5612E+06    -83.6304E+06     13.1929E+06         76.1923
            1738     2.16681E-03     172.186E-03     96.1858E-03    -21.2298E-03    -35.5169E-03    -23.6369E-03     88.8625E-03    -25.7864E-03    -8.13301E-03     649.156E-03    -324.379E-03    -325.797E-03    -324.406E-03     649.068E-03    -325.682E-03     17.5084E-03    -59.2601E+06    -67.3524E+06    -98.5142E+06    -90.3472E+06    -67.7733E+06    -67.0062E+06     14.6425E+06         76.6781
            1739     2.88530E-03     172.232E-03     101.359E-03    -22.8521E-03    -33.2179E-03    -24.1925E-03     94.7729E-03    -25.2917E-03    -8.69406E-03     650.575E-03    -325.583E-03    -326.289E-03    -325.496E-03     650.328E-03    -326.130E-03     30.3106E-03    -44.5633E+06    -49.9928E+06    -90.2258E+06    -84.8744E+06    -52.7275E+06    -47.1800E+06     13.3987E+06         77.2452
            1740     3.60370E-03     172.249E-03     105.138E-03    -25.2940E-03    -35.9374E-03    -33.4195E-03     103.198E-03    -25.8722E-03     8.66012E-03     653.456E-03    -325.916E-03    -327.507E-03    -326.129E-03     652.887E-03    -326.725E-03     46.2824E-03    -27.5319E+06    -37.7440E+06    -80.8877E+06    -76.5931E+06    -42.0386E+06    -27.5319E+06     12.0657E+06         77.8406
            1741     4.31840E-03     172.292E-03     108.426E-03    -27.1499E-03    -39.2699E-03    -38.2281E-03     107.685E-03    -27.4506E-03    -4.47883E-03     655.142E-03    -326.178E-03    -328.791E-03    -325.795E-03     654.034E-03    -328.067E-03     65.1693E-03    -12.8481E+06    -30.8111E+06    -74.4992E+06    -70.4708E+06    -34.8394E+06    -12.8481E+06     11.4419E+06         78.4823
            1742     5.03806E-03     172.341E-03     103.439E-03    -28.1854E-03    -36.0822E-03    -31.6572E-03     99.3143E-03    -28.4860E-03     27.4857E-03     653.969E-03    -324.768E-03    -328.772E-03    -322.830E-03     652.032E-03    -328.772E-03     86.1909E-03    -543.490E+03    -24.6053E+06    -68.5681E+06    -64.6704E+06    -28.5030E+06    -543.490E+03     11.0109E+06         79.2111
            1743     5.76006E-03     172.421E-03     103.880E-03    -26.4522E-03    -38.4341E-03    -25.6168E-03     93.0380E-03    -28.4275E-03    -14.3464E-03     649.448E-03    -322.701E-03    -328.315E-03    -319.615E-03     646.362E-03    -328.315E-03     108.710E-03     12.6313E+06    -14.2230E+06    -59.4453E+06    -56.7101E+06    -16.9581E+06     12.6313E+06     10.3506E+06         79.9618
            1744     6.49034E-03     172.514E-03     108.338E-03    -25.8225E-03    -41.4026E-03    -22.5908E-03     91.5012E-03    -27.7979E-03     6.84691E-03     647.293E-03    -321.745E-03    -327.119E-03    -317.181E-03     642.728E-03    -327.119E-03     132.131E-03     24.5245E+06    -4.93801E+06    -50.7388E+06    -47.7816E+06    -7.89522E+06     24.5245E+06     9.79336E+06         80.6126
            1745     7.22451E-03     172.602E-03     101.876E-03    -24.6895E-03    -35.5764E-03    -18.5549E-03     87.0529E-03    -26.8881E-03     21.7282E-03     646.303E-03    -321.792E-03    -324.616E-03    -315.720E-03     640.118E-03    -324.503E-03     153.926E-03     32.4500E+06    -1.67773E+06    -43.0935E+06    -40.3225E+06    -4.44869E+06     32.4500E+06     8.41268E+06         81.1919
            1746     7.96092E-03     172.685E-03     96.1156E-03    -23.8054E-03    -31.1834E-03    -23.4207E-03     90.5515E-03    -26.0040E-03    -12.6594E-03     647.419E-03    -323.387E-03    -324.475E-03    -316.225E-03     639.929E-03    -324.147E-03     169.809E-03     35.8359E+06    -209.619E+03     -38.494E+06    -35.9216E+06    -2.78199E+06     35.8359E+06     7.57378E+06         81.8457
            1747     8.64342E-03     173.122E-03     97.0603E-03    -24.9426E-03    -30.8848E-03    -27.6845E-03     94.4197E-03    -25.5024E-03     33.5400E-03     653.358E-03    -325.335E-03    -326.983E-03    -317.681E-03     644.680E-03    -325.959E-03     183.453E-03     39.4292E+06     6.81975E+06    -33.0994E+06    -30.7239E+06     4.44428E+06     39.4292E+06     7.87364E+06         82.6269
            1748     9.38884E-03     173.247E-03     98.4658E-03    -24.9153E-03    -33.8001E-03    -30.4340E-03     95.6595E-03    -25.4751E-03     6.69417E-03     654.191E-03    -326.255E-03    -329.508E-03    -319.654E-03     644.337E-03    -326.255E-03     195.826E-03     44.2333E+06     12.8184E+06    -26.3859E+06    -25.3027E+06     11.7352E+06     44.2333E+06     6.19428E+06         83.5619
            1749     10.1392E-03     173.420E-03     103.062E-03    -25.8262E-03    -42.5079E-03    -38.3419E-03     98.8960E-03    -25.8262E-03     15.4232E-03     659.115E-03    -325.484E-03    -334.463E-03    -322.496E-03     647.147E-03    -325.484E-03     216.317E-03     51.2430E+06     17.0390E+06    -21.6073E+06    -20.8112E+06     16.2428E+06     51.2430E+06     5.37788E+06         84.8823
            1750     10.8261E-03     173.962E-03     104.963E-03    -26.2502E-03    -47.8446E-03    -40.1128E-03     97.2309E-03    -26.2502E-03    -5.74866E-03     666.893E-03    -325.992E-03    -340.375E-03    -328.105E-03     654.622E-03    -325.992E-03     220.493E-03     59.3711E+06     24.1454E+06    -16.3394E+06    -15.7379E+06     23.5439E+06     59.3711E+06     4.20013E+06         86.8658
            1751     11.5381E-03     174.374E-03     97.4872E-03    -26.0155E-03    -37.3735E-03    -27.9401E-03     88.3343E-03    -26.2960E-03    -8.73798E-03     680.138E-03    -328.158E-03    -353.032E-03    -334.943E-03     662.049E-03    -328.158E-03     265.565E-03     66.8677E+06     26.6074E+06    -12.1517E+06    -11.9729E+06     26.4285E+06     66.8677E+06     164.176E+03         89.6266
            1752     12.2529E-03     174.933E-03     91.3309E-03    -24.0212E-03    -28.0712E-03    -18.9887E-03     84.1084E-03    -25.8812E-03     8.18059E-03     674.565E-03    -327.639E-03    -346.713E-03    -330.106E-03     657.958E-03    -327.639E-03     249.443E-03     76.9533E+06     33.7200E+06    -4.42320E+06    -3.92778E+06     33.2246E+06     76.9533E+06    -361.411E+03         92.6712
            1753     725.004E-06     174.158E-03     135.145E-03    -32.6601E-03    -66.3014E-03    -26.8651E-03     101.687E-03    -38.6385E-03     59.7144E-03     644.656E-03    -321.346E-03    -323.511E-03    -322.805E-03     644.647E-03    -322.044E-03     4.61647E-03    -101.607E+06    -103.262E+06    -146.546E+06    -104.193E+06    -144.678E+06    -102.544E+06     8.21087E+06         75.5764
            1754     1.44843E-03     174.191E-03     92.6035E-03    -15.7880E-03    -37.1914E-03    -13.7349E-03     82.3490E-03    -28.9900E-03    -32.3316E-03     646.156E-03    -322.924E-03    -323.637E-03    -323.348E-03     646.128E-03    -323.185E-03     9.50654E-03    -89.3236E+06    -93.7842E+06    -130.408E+06    -100.084E+06    -121.831E+06    -91.6006E+06     13.5839E+06         75.9597
            1755     2.16619E-03     174.207E-03     91.8169E-03    -16.7161E-03    -36.0052E-03    -16.7932E-03     79.8285E-03    -23.9397E-03     7.86910E-03     647.120E-03    -323.445E-03    -324.397E-03    -323.681E-03     647.035E-03    -324.076E-03     17.5892E-03    -70.4921E+06    -77.1370E+06    -115.877E+06    -95.5632E+06    -92.2712E+06    -75.6712E+06     19.6376E+06         76.4876
            1756     2.88885E-03     174.193E-03     104.482E-03    -23.3346E-03    -43.5505E-03    -27.5432E-03     88.4751E-03    -23.3346E-03    -11.7022E-03     647.257E-03    -323.963E-03    -324.950E-03    -323.982E-03     647.029E-03    -324.703E-03     29.0062E-03    -49.6121E+06    -54.3234E+06    -104.872E+06    -89.8327E+06    -65.0488E+06    -53.9264E+06     22.8870E+06         77.0793
            1757     3.61179E-03     174.185E-03     92.0372E-03    -19.0185E-03    -35.0422E-03    -23.5481E-03     85.3628E-03    -23.8382E-03    -6.46458E-03     650.741E-03    -324.660E-03    -326.029E-03    -325.078E-03     650.187E-03    -325.057E-03     45.4624E-03    -30.8910E+06    -37.4434E+06    -95.3114E+06    -84.6792E+06    -46.6633E+06    -32.3034E+06     22.1241E+06         77.7015
            1758     4.33167E-03     174.195E-03     90.6038E-03    -19.3069E-03    -33.9087E-03    -28.6744E-03     90.1892E-03    -24.1266E-03     11.7048E-03     653.408E-03    -324.839E-03    -327.090E-03    -324.429E-03     652.273E-03    -326.366E-03     65.7144E-03    -13.1569E+06    -29.0241E+06    -86.2649E+06    -78.1398E+06    -37.1492E+06    -13.1569E+06     19.1374E+06         78.3863
            1759     5.05131E-03     174.216E-03     95.7295E-03    -23.8182E-03    -31.9491E-03    -28.8948E-03     93.5641E-03    -24.7071E-03    -5.26251E-03     651.737E-03    -324.067E-03    -327.738E-03    -321.986E-03     649.656E-03    -327.738E-03     89.0862E-03     4.04921E+06    -22.3232E+06    -75.3043E+06    -69.5677E+06    -28.0598E+06     4.04921E+06     15.7121E+06         79.1772
            1760     5.77715E-03     174.273E-03     92.4311E-03    -21.6761E-03    -27.3963E-03    -19.7172E-03     87.6164E-03    -24.5404E-03    -6.16831E-03     648.504E-03    -323.300E-03    -327.211E-03    -319.983E-03     645.187E-03    -327.211E-03     112.769E-03     16.9332E+06    -13.7080E+06    -67.1098E+06    -63.0962E+06    -17.7215E+06     16.9332E+06     13.4258E+06         80.0475
            1761     6.49908E-03     174.382E-03     93.0785E-03    -22.0087E-03    -30.0725E-03    -23.6703E-03     88.6516E-03    -23.9840E-03     10.1356E-03     646.467E-03    -322.153E-03    -325.804E-03    -317.373E-03     641.686E-03    -325.804E-03     135.168E-03     27.4690E+06    -4.82395E+06    -59.5007E+06    -56.1100E+06    -8.21464E+06     27.4690E+06     12.1395E+06         80.8665
            1762     7.22990E-03     174.548E-03     89.4507E-03    -21.6680E-03    -30.0363E-03    -26.1562E-03     87.7692E-03    -23.8666E-03     7.69537E-03     645.434E-03    -321.672E-03    -324.477E-03    -315.810E-03     639.077E-03    -323.981E-03     155.989E-03     35.8600E+06     616.551E+03    -50.9282E+06    -47.9562E+06    -2.35548E+06     35.8600E+06     10.3453E+06         81.5780
            1763     7.96489E-03     174.691E-03     88.5730E-03    -21.7776E-03    -28.8653E-03    -26.3151E-03     88.2214E-03    -23.9762E-03     908.219E-06     648.462E-03    -323.961E-03    -325.227E-03    -317.364E-03     640.734E-03    -324.096E-03     172.616E-03     40.8389E+06     3.00039E+06    -42.9940E+06    -40.5921E+06     598.505E+03     40.8389E+06     8.57986E+06         82.2998
            1764     8.64251E-03     175.148E-03     92.6942E-03    -24.2820E-03    -31.3916E-03    -29.5512E-03     90.8538E-03    -24.2820E-03     18.3534E-03     653.583E-03    -325.598E-03    -327.408E-03    -318.324E-03     644.499E-03    -325.598E-03     187.741E-03     45.0472E+06     7.28515E+06    -35.3765E+06    -33.6865E+06     5.59514E+06     45.0472E+06     6.49130E+06         83.1409
            1765     9.38906E-03     175.273E-03     92.3582E-03    -24.6934E-03    -33.4650E-03    -29.2070E-03     88.1003E-03    -24.6934E-03    -5.71409E-03     652.831E-03    -325.641E-03    -329.429E-03    -319.011E-03     642.414E-03    -325.641E-03     201.142E-03     50.3452E+06     13.0325E+06    -29.0380E+06    -27.2703E+06     11.2647E+06     50.3452E+06     6.67892E+06         84.1542
            1766     10.1321E-03     175.492E-03     89.7280E-03    -24.8867E-03    -33.0094E-03    -25.3891E-03     82.1078E-03    -24.8867E-03     8.30198E-03     659.473E-03    -324.906E-03    -335.357E-03    -322.525E-03     646.641E-03    -324.906E-03     223.980E-03     57.8453E+06     19.2611E+06    -22.1400E+06    -20.4957E+06     17.6168E+06     57.8453E+06     5.88026E+06         85.4967
            1767     10.8236E-03     176.047E-03     92.5479E-03    -23.5454E-03    -36.8197E-03    -27.2287E-03     84.3327E-03    -24.9212E-03     4.61160E-03     667.415E-03    -325.381E-03    -340.311E-03    -326.697E-03     653.801E-03    -325.381E-03     232.433E-03     64.0361E+06     25.5623E+06    -15.5171E+06    -14.6566E+06     24.7019E+06     64.0361E+06     4.13788E+06         87.3904
            1768     11.5328E-03     176.486E-03     92.1147E-03    -23.3035E-03    -36.0858E-03    -29.6111E-03     87.2963E-03    -24.9599E-03    -35.7873E-03     676.833E-03    -327.231E-03    -349.367E-03    -329.477E-03     656.944E-03    -327.231E-03     278.204E-03     73.2551E+06     34.7504E+06    -8.41963E+06    -7.82510E+06     34.1559E+06     73.2551E+06     2.99959E+06         90.0189
            1769     12.2539E-03     177.062E-03     93.2168E-03    -24.5912E-03    -33.7547E-03    -25.5608E-03     85.3034E-03    -24.8717E-03     18.8504E-03     672.903E-03    -326.676E-03    -345.161E-03    -327.566E-03     655.308E-03    -326.676E-03     254.915E-03     81.9725E+06     40.3931E+06    -5.49351E+06    -5.16990E+06     40.0695E+06     81.9725E+06     1.21000E+06         92.9405
            1770     724.268E-06     176.133E-03     111.553E-03    -19.3686E-03    -34.3264E-03    -11.8167E-03     89.0435E-03    -19.3686E-03     62.5503E-03     644.107E-03    -320.789E-03    -323.196E-03    -322.864E-03     644.103E-03    -321.117E-03     2.54378E-03    -113.675E+06    -115.761E+06    -184.050E+06    -116.077E+06    -182.762E+06    -114.648E+06      8.0545E+06         74.6878
            1771     1.44591E-03     176.186E-03     120.962E-03    -14.5824E-03    -51.4181E-03    -33.5028E-03     107.575E-03    -19.1107E-03    -49.8834E-03     644.223E-03    -321.553E-03    -323.073E-03    -321.961E-03     644.193E-03    -322.635E-03     9.62856E-03    -104.309E+06    -108.193E+06    -161.123E+06    -112.978E+06    -156.339E+06    -104.309E+06     13.6999E+06         75.0599
            1772     2.16909E-03     176.233E-03     125.301E-03    -19.0642E-03    -57.9425E-03    -29.4499E-03     101.337E-03    -23.5925E-03     11.8067E-03     644.295E-03    -321.853E-03    -323.335E-03    -322.063E-03     644.197E-03    -323.027E-03     18.7741E-03    -84.0016E+06    -92.5072E+06    -140.978E+06    -105.037E+06    -128.162E+06    -84.2870E+06     19.9098E+06         75.6392
            1773     2.88984E-03     176.215E-03     122.084E-03    -25.0241E-03    -56.9883E-03    -28.8047E-03     93.9008E-03    -25.0241E-03    -1.47351E-03     645.360E-03    -323.025E-03    -324.234E-03    -323.528E-03     645.074E-03    -323.445E-03     31.9837E-03    -60.1919E+06    -68.1126E+06    -122.481E+06    -96.7508E+06    -92.1455E+06    -61.8897E+06     25.8832E+06         76.3857
            1774     3.61014E-03     176.230E-03     100.575E-03    -20.1169E-03    -41.7591E-03    -19.6384E-03     83.2739E-03    -24.9367E-03    -43.3589E-03     648.215E-03    -323.512E-03    -324.851E-03    -323.944E-03     647.596E-03    -323.801E-03     48.2283E-03    -37.4622E+06    -40.9718E+06    -107.038E+06    -88.5667E+06    -58.0306E+06    -38.8746E+06     29.1770E+06         77.2243
            1775     4.33444E-03     176.240E-03     77.3478E-03    -13.8344E-03    -25.7331E-03    -11.7370E-03     72.9224E-03    -23.4051E-03     31.7321E-03     650.139E-03    -323.126E-03    -324.929E-03    -322.239E-03     648.991E-03    -324.667E-03     66.0223E-03    -14.1949E+06    -23.1810E+06    -93.7684E+06    -79.6990E+06    -37.2504E+06    -14.1949E+06     27.5200E+06         78.0973
            1776     5.05997E-03     176.272E-03     79.9707E-03    -16.2211E-03    -28.3593E-03    -14.3189E-03     71.5702E-03    -21.8610E-03    -26.6212E-03     648.518E-03    -322.851E-03    -326.003E-03    -320.789E-03     646.457E-03    -326.003E-03     88.4940E-03     5.33056E+06    -16.0215E+06    -82.8701E+06    -72.1787E+06    -26.7129E+06     5.33056E+06     23.7458E+06         78.9717
            1777     5.78331E-03     176.326E-03     87.1091E-03    -20.4715E-03    -34.6500E-03    -22.6856E-03     76.0336E-03    -21.3604E-03    -5.31092E-03     646.384E-03    -322.507E-03    -325.816E-03    -319.117E-03     642.995E-03    -325.816E-03     113.678E-03     21.2987E+06    -9.14347E+06    -72.7470E+06    -64.8255E+06    -17.0650E+06     21.2987E+06     20.4407E+06         79.8476
            1778     6.51261E-03     176.427E-03     91.9690E-03    -22.0643E-03    -38.4459E-03    -33.2206E-03     86.7436E-03    -22.0643E-03     14.3618E-03     645.416E-03    -322.030E-03    -324.284E-03    -316.996E-03     640.383E-03    -324.284E-03     138.640E-03     36.3643E+06    -370.429E+03    -61.7836E+06    -55.9377E+06    -6.21634E+06     36.3643E+06     16.8218E+06         80.6687
            1779     7.24087E-03     176.565E-03     93.0334E-03    -23.3461E-03    -35.8115E-03    -34.6222E-03     91.8442E-03    -23.3461E-03    -17.8833E-03     644.837E-03    -322.141E-03    -324.220E-03    -316.619E-03     638.081E-03    -322.986E-03     160.886E-03     47.2872E+06     7.26893E+06    -52.2192E+06     -47.273E+06     2.32268E+06     47.2872E+06     14.6117E+06         81.3948
            1780     7.96931E-03     176.749E-03     91.5229E-03    -24.4790E-03    -32.6686E-03    -32.3550E-03     91.2092E-03    -24.4790E-03    -3.22563E-03     647.947E-03    -323.624E-03    -325.305E-03    -317.024E-03     639.666E-03    -323.624E-03     178.620E-03     52.4492E+06     10.2328E+06    -44.0467E+06    -39.9896E+06     6.17574E+06     52.4492E+06     11.3062E+06         82.1262
            1781     8.65416E-03     177.172E-03     89.1841E-03    -20.3729E-03    -30.5734E-03    -24.5115E-03     87.7894E-03    -25.0402E-03     5.80053E-03     653.894E-03    -324.864E-03    -328.142E-03    -318.422E-03     644.174E-03    -324.864E-03     194.272E-03     54.6053E+06     11.1504E+06    -36.0751E+06    -33.4628E+06     8.53808E+06     54.6053E+06     7.96521E+06         82.9613
            1782     9.39831E-03     177.276E-03     87.1553E-03    -18.9571E-03    -29.3877E-03    -19.7643E-03     83.4777E-03    -24.9028E-03    -14.5145E-03     655.196E-03    -324.920E-03    -331.591E-03    -320.533E-03     644.137E-03    -324.920E-03     207.649E-03     57.2499E+06     15.3537E+06    -29.4097E+06    -26.8766E+06     12.8206E+06     57.2499E+06     6.45495E+06         83.9439
            1783     10.1360E-03     177.513E-03     86.6877E-03    -22.9175E-03    -27.2802E-03    -20.3799E-03     81.3473E-03    -24.4775E-03    -596.677E-06     659.576E-03    -324.448E-03    -334.948E-03    -321.435E-03     646.062E-03    -324.448E-03     229.768E-03     61.9142E+06     21.1779E+06    -22.8695E+06    -21.2341E+06     19.5425E+06     61.9142E+06     4.53775E+06         85.1715
            1784     10.8401E-03     178.008E-03     83.9946E-03    -22.2911E-03    -26.2337E-03    -19.9829E-03     79.4010E-03    -23.9483E-03     26.8424E-03     662.209E-03    -324.834E-03    -335.362E-03    -321.593E-03     648.439E-03    -324.834E-03     232.344E-03     66.7405E+06     28.0237E+06    -17.1670E+06    -16.0479E+06     26.9046E+06     66.7405E+06     2.86661E+06         86.8734
            1785     11.5543E-03     178.476E-03     87.4198E-03    -22.1248E-03    -34.5788E-03    -26.6420E-03     80.8589E-03    -23.5006E-03    -28.6209E-03     670.106E-03    -326.262E-03    -343.842E-03    -325.068E-03     651.332E-03    -326.262E-03     269.177E-03     75.1768E+06     38.7808E+06    -12.5350E+06    -11.8406E+06     38.0865E+06     75.1768E+06     1.34844E+06         89.3189
            1786     12.2768E-03     178.972E-03     92.3073E-03    -23.1988E-03    -37.1212E-03    -22.5364E-03     77.7224E-03    -23.1988E-03     11.9681E-03     670.840E-03    -325.728E-03    -344.993E-03    -328.654E-03     654.501E-03    -325.728E-03     244.957E-03     81.6276E+06     42.7724E+06    -9.56792E+06    -9.49638E+06     42.7009E+06     81.6276E+06    -210.147E+03         92.1161
            1787     723.854E-06     178.080E-03     114.547E-03    -15.9006E-03    -34.9785E-03    -17.8596E-03     98.8487E-03    -17.3209E-03     68.7157E-03     640.762E-03    -319.233E-03    -321.356E-03    -319.832E-03     640.749E-03    -320.744E-03     5.58796E-03    -123.711E+06    -126.365E+06    -213.798E+06    -125.847E+06    -213.247E+06    -124.780E+06     4.27161E+06         73.6278
            1788     1.44985E-03     178.135E-03     124.894E-03    -17.0551E-03    -55.3839E-03    -21.3035E-03     92.2344E-03    -18.4754E-03    -53.8473E-03     639.815E-03    -319.403E-03    -320.797E-03    -319.352E-03     639.765E-03    -320.797E-03     13.2081E-03    -114.051E+06    -120.283E+06    -190.585E+06    -121.955E+06    -188.330E+06    -114.634E+06     9.99175E+06         73.9268
            1789     2.17343E-03     178.164E-03     133.228E-03    -19.9650E-03    -70.6170E-03    -24.3136E-03     86.9246E-03    -19.9650E-03    -16.9189E-03     640.106E-03    -319.882E-03    -321.115E-03    -319.974E-03     639.973E-03    -320.889E-03     22.1014E-03    -96.4600E+06    -109.346E+06    -165.426E+06    -115.580E+06    -159.192E+06    -96.4600E+06     15.4064E+06         74.4589
            1790     2.89855E-03     178.176E-03     118.909E-03    -20.7505E-03    -58.5551E-03    -21.8223E-03     82.1764E-03    -20.7505E-03     7.23599E-03     641.654E-03    -320.962E-03    -322.108E-03    -321.420E-03     641.345E-03    -321.341E-03     33.6903E-03    -74.3017E+06    -90.2031E+06    -139.988E+06    -106.235E+06    -123.956E+06    -74.3017E+06     21.4356E+06         75.2342
            1791     3.62043E-03     178.207E-03     103.494E-03    -21.0293E-03    -42.4982E-03    -23.2598E-03     84.2559E-03    -21.0293E-03    -52.4059E-03     643.385E-03    -321.730E-03    -322.811E-03    -322.011E-03     642.737E-03    -321.882E-03     49.1519E-03    -49.3256E+06    -58.1797E+06    -118.589E+06    -94.8012E+06    -81.9677E+06    -49.3256E+06     28.0158E+06         76.1937
            1792     4.34079E-03     178.226E-03     86.8042E-03    -16.3564E-03    -28.8427E-03    -19.7763E-03     82.4888E-03    -21.1074E-03     28.4445E-03     646.281E-03    -322.165E-03    -323.163E-03    -321.548E-03     645.045E-03    -322.544E-03     68.3478E-03    -23.6552E+06    -26.8897E+06    -103.113E+06    -84.0501E+06    -45.9522E+06    -23.6552E+06     32.3320E+06         77.2275
            1793     5.06244E-03     178.253E-03     91.3604E-03    -16.5478E-03    -38.3357E-03    -25.2514E-03     83.0272E-03    -21.2988E-03    -26.9465E-03     646.739E-03    -322.456E-03    -324.287E-03    -320.537E-03     644.588E-03    -324.055E-03     90.3937E-03     1.57746E+06    -11.5696E+06    -90.0732E+06    -74.3300E+06    -27.3128E+06     1.57746E+06     31.0127E+06         78.2127
            1794     5.79205E-03     178.300E-03     98.2879E-03    -22.3825E-03    -45.5101E-03    -33.7326E-03     86.5104E-03    -22.3825E-03    -3.63071E-03     644.891E-03    -321.536E-03    -324.695E-03    -318.190E-03     641.545E-03    -324.695E-03     112.963E-03     24.5383E+06    -1.39741E+06    -75.1828E+06    -63.6475E+06    -12.9327E+06     24.5383E+06     25.8753E+06         79.1482
            1795     6.52008E-03     178.381E-03     91.5919E-03    -23.8917E-03    -41.6289E-03    -35.4940E-03     85.4570E-03    -23.8917E-03     19.1941E-03     642.896E-03    -320.315E-03    -323.168E-03    -315.395E-03     637.976E-03    -323.168E-03     136.697E-03     42.2965E+06     7.27350E+06    -63.9145E+06    -55.1128E+06    -1.52824E+06     42.2965E+06     21.8266E+06         80.0125
            1796     7.25373E-03     178.509E-03     83.0553E-03    -22.5332E-03    -33.9352E-03    -30.2313E-03     81.7570E-03    -24.9388E-03    -21.8746E-03     641.679E-03    -320.765E-03    -322.542E-03    -314.942E-03     634.993E-03    -321.680E-03     159.628E-03     54.9729E+06     10.5830E+06    -54.8145E+06    -47.2588E+06     3.02734E+06     54.9729E+06     18.8361E+06         80.7562
            1797     7.98422E-03     178.691E-03     84.9620E-03    -22.7344E-03    -30.9996E-03    -24.6285E-03     80.9965E-03    -25.1401E-03     16.8305E-03     645.695E-03    -322.331E-03    -323.973E-03    -315.860E-03     637.582E-03    -322.331E-03     176.498E-03     64.3661E+06     19.9490E+06    -46.2746E+06    -39.1980E+06     12.8724E+06     64.3661E+06     17.3572E+06         81.5096
            1798     8.67296E-03     179.122E-03     85.4402E-03    -20.1104E-03    -31.2699E-03    -21.7988E-03     80.6364E-03    -24.7776E-03     8.96589E-03     652.900E-03    -323.725E-03    -328.242E-03    -318.803E-03     643.461E-03    -323.725E-03     191.312E-03     67.0126E+06     24.9680E+06    -39.3380E+06    -33.8030E+06     19.4331E+06     67.0126E+06     14.1786E+06         82.3658
            1799     9.41685E-03     179.220E-03     80.9742E-03    -17.7811E-03    -26.8286E-03    -17.7412E-03     78.3256E-03    -24.2199E-03    -8.93155E-03     654.959E-03    -323.881E-03    -331.218E-03    -320.377E-03     644.118E-03    -323.881E-03     205.483E-03     65.5053E+06     23.5570E+06    -32.5135E+06    -29.4806E+06     20.5242E+06     65.5053E+06     8.98487E+06         83.3023
            1800     10.1422E-03     179.473E-03     81.0988E-03    -21.4450E-03    -24.9159E-03    -14.4592E-03     72.6952E-03    -23.4981E-03    -12.3542E-03     657.047E-03    -323.633E-03    -333.352E-03    -320.053E-03     643.749E-03    -323.633E-03     227.470E-03     69.3332E+06     26.8466E+06    -24.9630E+06    -22.7795E+06     24.6631E+06     69.3332E+06     4.66161E+06         84.4134
            1801     10.8523E-03     179.925E-03     84.9541E-03    -22.3900E-03    -32.8152E-03    -13.7625E-03     66.1829E-03    -22.6715E-03     27.6889E-03     659.877E-03    -324.406E-03    -334.918E-03    -321.890E-03     646.849E-03    -324.406E-03     225.444E-03     74.2717E+06     32.8446E+06    -18.1609E+06    -15.9311E+06     30.6149E+06     74.2717E+06     3.33861E+06         85.9877
            1802     11.5565E-03     180.421E-03     93.4178E-03    -22.1161E-03    -43.2262E-03    -21.0805E-03     71.2721E-03    -22.1161E-03    -5.42973E-03     669.028E-03    -325.523E-03    -343.516E-03    -325.854E-03     651.366E-03    -325.523E-03     260.406E-03     81.7244E+06     42.7762E+06    -9.28278E+06    -7.52144E+06     41.0148E+06     81.7244E+06     2.15031E+06         88.3068
            1803     12.2912E-03     180.852E-03     90.9749E-03    -21.9708E-03    -41.7336E-03    -24.8022E-03     74.0434E-03    -21.9708E-03    -11.3225E-03     666.192E-03    -324.699E-03    -341.524E-03    -325.443E-03     650.111E-03    -324.699E-03     243.808E-03     86.7413E+06     44.4787E+06    -2.06609E+06    -1.88357E+06     44.2961E+06     86.7413E+06    -190.380E+03         91.0064
            1804     730.185E-06     179.937E-03     91.9773E-03    -18.2588E-03    -39.1777E-03    -29.4691E-03     85.1483E-03    -21.1385E-03     42.2648E-03     632.528E-03    -315.437E-03    -317.146E-03    -315.513E-03     632.515E-03    -317.057E-03     6.38328E-03    -130.416E+06    -134.736E+06    -228.991E+06    -133.018E+06    -228.567E+06    -132.558E+06     1.68498E+06         72.9987
            1805     1.45850E-03     179.929E-03     115.224E-03    -22.2943E-03    -64.5017E-03    -16.5406E-03     68.6829E-03    -23.7147E-03    -77.2749E-03     633.332E-03    -316.437E-03    -317.315E-03    -316.943E-03     633.273E-03    -316.750E-03     14.2172E-03    -123.872E+06    -130.742E+06    -209.456E+06    -130.671E+06    -208.943E+06    -124.455E+06     3.84487E+06         73.3361
            1806     2.18672E-03     179.932E-03     123.663E-03    -21.1073E-03    -78.6722E-03    -15.9486E-03     60.9395E-03    -21.1073E-03    -34.6909E-03     635.071E-03    -317.287E-03    -318.478E-03    -318.274E-03     634.892E-03    -317.313E-03     25.1818E-03    -109.259E+06    -122.510E+06    -185.832E+06    -124.990E+06    -183.351E+06    -109.259E+06     9.23113E+06         73.8897
            1807     2.90999E-03     179.943E-03     112.298E-03    -20.8005E-03    -64.7356E-03    -24.8266E-03     72.3894E-03    -20.8005E-03     3.25290E-03     636.573E-03    -318.038E-03    -319.260E-03    -318.722E-03     636.187E-03    -318.189E-03     37.4067E-03     -87.429E+06    -108.198E+06    -159.746E+06    -115.616E+06    -152.328E+06     -87.429E+06     15.5853E+06         74.6485
            1808     3.63421E-03     179.962E-03     99.5356E-03    -19.8039E-03    -44.7529E-03    -24.5282E-03     81.2283E-03    -21.7214E-03    -76.7590E-03     637.181E-03    -318.829E-03    -319.879E-03    -318.983E-03     636.436E-03    -318.980E-03     52.1967E-03    -62.9842E+06    -84.3084E+06    -132.642E+06    -105.291E+06    -111.660E+06    -62.9842E+06     22.0199E+06         75.6035
            1809     4.35902E-03     180.036E-03     88.3610E-03    -20.7007E-03    -29.7925E-03    -26.9286E-03     87.4145E-03    -22.6182E-03     8.05556E-03     640.231E-03    -319.663E-03    -321.343E-03    -319.986E-03     638.874E-03    -319.663E-03     71.3931E-03    -38.0641E+06    -48.8921E+06    -112.026E+06    -94.6813E+06    -66.2366E+06    -38.0641E+06     27.1836E+06         76.6889
            1810     5.07843E-03     180.158E-03     100.720E-03    -23.6427E-03    -37.8002E-03    -29.3091E-03     92.2293E-03    -23.6427E-03    -29.3325E-03     644.022E-03    -320.846E-03    -322.721E-03    -320.088E-03     641.802E-03    -321.259E-03     91.9476E-03    -11.0834E+06    -19.4347E+06    -96.5893E+06    -82.3719E+06    -33.6521E+06    -11.0834E+06     29.3852E+06         77.7755
            1811     5.80079E-03     180.227E-03     95.3111E-03    -22.4714E-03    -38.2160E-03    -24.6480E-03     83.4557E-03    -24.1839E-03    -12.1693E-03     644.734E-03    -321.971E-03    -323.412E-03    -318.896E-03     641.359E-03    -323.113E-03     113.471E-03     14.6933E+06     637.562E+03    -83.3768E+06    -70.8824E+06    -11.8568E+06     14.6933E+06     28.8795E+06         78.8380
            1812     6.52956E-03     180.308E-03     81.1900E-03    -21.9444E-03    -30.5744E-03    -22.5272E-03     75.2665E-03    -24.0680E-03     34.8076E-03     642.457E-03    -321.115E-03    -322.849E-03    -316.696E-03     637.721E-03    -322.533E-03     134.347E-03     36.6097E+06     11.7389E+06    -71.4006E+06    -60.9858E+06     1.32407E+06     36.6097E+06     26.2383E+06         79.8084
            1813     7.26622E-03     180.405E-03     77.7173E-03    -20.9533E-03    -28.9601E-03    -23.4705E-03     75.0446E-03    -23.7701E-03    -7.53060E-03     640.467E-03    -320.248E-03    -321.437E-03    -314.589E-03     634.368E-03    -320.997E-03     152.257E-03     54.8214E+06     15.0125E+06    -61.0135E+06    -52.0551E+06     6.05405E+06     54.8214E+06     22.7535E+06         80.5732
            1814     7.99755E-03     180.606E-03     78.4747E-03    -20.8572E-03    -31.1057E-03    -20.3580E-03     70.1327E-03    -23.2629E-03     25.3508E-03     643.996E-03    -321.431E-03    -323.247E-03    -315.927E-03     636.734E-03    -321.489E-03     166.781E-03     67.5681E+06     23.9027E+06    -51.5174E+06    -43.5206E+06     15.9060E+06     67.5681E+06     18.8633E+06         81.2975
            1815     8.67787E-03     181.039E-03     76.4958E-03    -21.4697E-03    -29.5949E-03    -18.7254E-03     66.7270E-03    -22.5704E-03     17.4370E-03     650.432E-03    -322.983E-03    -327.500E-03    -318.915E-03     641.847E-03    -322.983E-03     182.227E-03     74.1039E+06     31.4264E+06    -42.2216E+06    -34.2896E+06     23.4944E+06     74.1039E+06     17.0023E+06         82.1474
            1816     9.42090E-03     181.164E-03     74.5454E-03    -20.5381E-03    -28.3482E-03    -21.8218E-03     69.6127E-03    -22.1318E-03     2.05743E-03     651.201E-03    -323.004E-03    -328.090E-03    -318.077E-03     641.188E-03    -323.004E-03     196.921E-03     78.0685E+06     36.3504E+06    -29.7474E+06    -24.3376E+06     30.9405E+06     78.0685E+06     13.4562E+06         83.0392
            1817     10.1725E-03     181.290E-03     84.3840E-03    -21.4349E-03    -37.1191E-03    -23.6019E-03     71.3598E-03    -21.9280E-03    -25.1029E-03     652.580E-03    -322.837E-03    -330.919E-03    -318.430E-03     640.091E-03    -322.837E-03     219.640E-03     81.0945E+06     41.1958E+06    -22.1909E+06    -18.4086E+06     37.4135E+06     81.0945E+06     9.26150E+06         83.9866
            1818     10.8578E-03     181.869E-03     94.6586E-03    -21.5488E-03    -45.2101E-03    -17.9692E-03     67.4177E-03    -21.5488E-03     11.4484E-03     657.631E-03    -324.028E-03    -334.628E-03    -322.036E-03     645.040E-03    -324.028E-03     221.536E-03     81.0994E+06     39.9063E+06    -18.0766E+06    -13.4580E+06     35.2877E+06     81.0994E+06     4.99426E+06         85.3467
            1819     11.5671E-03     182.355E-03     91.1741E-03    -21.0187E-03    -40.3729E-03    -16.6143E-03     67.4155E-03    -21.0187E-03     24.6629E-03     664.813E-03    -324.420E-03    -339.993E-03    -321.777E-03     646.597E-03    -324.420E-03     262.345E-03     84.4445E+06     44.6348E+06    -12.0021E+06    -8.69903E+06     41.3317E+06     84.4445E+06     3.16364E+06         87.5118
            1820     12.3164E-03     182.654E-03     84.4247E-03    -19.8351E-03    -34.4370E-03    -21.9065E-03     72.6984E-03    -20.6392E-03    -2.98384E-03     656.706E-03    -321.561E-03    -334.909E-03    -315.422E-03     638.959E-03    -323.300E-03     256.022E-03     91.0441E+06     50.2135E+06    -6.64514E+06    -5.71532E+06     49.2837E+06     91.0441E+06     3.60147E+06         90.1283
            1821     730.951E-06     181.848E-03     54.7520E-03    -6.15269E-03    -24.5172E-03    -7.30604E-03     41.0992E-03    -9.71108E-03     39.6785E-03     625.999E-03    -312.280E-03    -313.879E-03    -313.427E-03     625.984E-03    -312.716E-03     6.75538E-03    -140.528E+06    -144.273E+06    -233.487E+06    -143.168E+06    -233.034E+06    -142.087E+06     478.772E+03         72.5714
            1822     1.46245E-03     181.837E-03     97.3483E-03    -12.6904E-03    -68.0647E-03    -28.9848E-03     58.2684E-03    -12.6904E-03    -51.6537E-03     627.702E-03    -313.577E-03    -314.654E-03    -314.583E-03     627.631E-03    -313.577E-03     15.3540E-03    -133.216E+06    -140.094E+06    -217.836E+06    -140.578E+06    -217.352E+06    -133.216E+06     1.04411E+06         72.9836
            1823     2.19039E-03     181.840E-03     124.624E-03    -20.3093E-03    -89.5640E-03    -41.6484E-03     76.7087E-03    -20.3093E-03    -780.897E-06     628.990E-03    -314.198E-03    -315.450E-03    -315.231E-03     628.774E-03    -314.200E-03     27.6968E-03    -118.318E+06    -133.735E+06    -200.871E+06    -134.277E+06    -200.329E+06    -118.318E+06     3.33173E+06         73.6112
            1824     2.92160E-03     181.853E-03     111.084E-03    -24.3562E-03    -67.0779E-03    -31.4813E-03     75.8384E-03    -24.7068E-03     23.3048E-03     630.818E-03    -315.053E-03    -316.413E-03    -315.921E-03     630.329E-03    -315.056E-03     42.3342E-03    -99.0275E+06    -122.677E+06    -177.502E+06    -125.710E+06    -174.470E+06    -99.0275E+06     7.91750E+06         74.4337
            1825     3.64841E-03     181.881E-03     91.0334E-03    -23.0845E-03    -42.5856E-03    -23.9085E-03     74.6245E-03    -25.3526E-03    -45.2609E-03     634.254E-03    -316.166E-03    -318.920E-03    -318.012E-03     633.347E-03    -316.166E-03     58.2335E-03    -76.1788E+06    -105.371E+06    -144.584E+06    -114.694E+06    -135.261E+06    -76.1788E+06     12.7288E+06         75.4423
            1826     4.36994E-03     181.933E-03     85.0955E-03    -22.8853E-03    -31.8472E-03    -21.3794E-03     76.5452E-03    -24.8028E-03     46.5383E-03     637.670E-03    -317.335E-03    -321.698E-03    -320.201E-03     636.173E-03    -317.335E-03     75.2174E-03    -50.9422E+06    -76.2837E+06    -117.599E+06    -102.539E+06    -91.3439E+06    -50.9422E+06     18.5374E+06         76.5940
            1827     5.08747E-03     182.051E-03     90.7259E-03    -23.8715E-03    -35.0030E-03    -17.7696E-03     73.4925E-03    -23.8715E-03    -16.0035E-03     641.894E-03    -318.767E-03    -322.981E-03    -320.766E-03     639.678E-03    -318.767E-03     92.0187E-03    -26.4517E+06    -39.1898E+06    -103.734E+06    -92.0710E+06    -50.8532E+06    -26.4517E+06     24.2816E+06         77.7991
            1828     5.80706E-03     182.197E-03     83.7409E-03    -20.9967E-03    -30.8431E-03    -15.0272E-03     69.6374E-03    -22.7092E-03    -25.8053E-03     645.755E-03    -321.228E-03    -323.865E-03    -320.640E-03     642.541E-03    -321.240E-03     110.876E-03    -1.58839E+06    -8.14058E+06     -91.019E+06    -80.7982E+06    -18.3614E+06    -1.58839E+06     26.2941E+06         79.0036
            1829     6.53414E-03     182.276E-03     73.3441E-03    -17.7647E-03    -22.1366E-03    -13.8595E-03     68.9404E-03    -21.6382E-03     34.6749E-03     645.594E-03    -322.012E-03    -324.356E-03    -319.928E-03     641.178E-03    -322.024E-03     130.238E-03     23.1439E+06     8.69350E+06    -78.1879E+06    -68.5919E+06    -902.518E+03     23.1439E+06     25.8527E+06         80.0936
            1830     7.26086E-03     182.367E-03     74.6686E-03    -18.8138E-03    -24.9556E-03    -18.7824E-03     70.6564E-03    -20.9749E-03    -11.1646E-03     643.769E-03    -320.878E-03    -323.290E-03    -317.458E-03     637.996E-03    -320.937E-03     148.601E-03     45.5988E+06     19.1770E+06    -65.6916E+06    -57.1529E+06     10.6384E+06     45.5988E+06     23.3856E+06         80.8824
            1831     7.99410E-03     182.525E-03     78.1002E-03    -20.7376E-03    -29.9672E-03    -22.9507E-03     71.0838E-03    -20.7376E-03     4.93185E-03     643.803E-03    -321.291E-03    -323.296E-03    -316.137E-03     636.702E-03    -321.350E-03     164.949E-03     63.8005E+06     26.9104E+06    -55.1083E+06    -47.7424E+06     19.5445E+06     63.8005E+06     18.7016E+06         81.4855
            1832     8.68598E-03     182.964E-03     74.9276E-03    -19.3605E-03    -26.6173E-03    -18.3959E-03     67.8069E-03    -20.4611E-03     5.84603E-03     647.399E-03    -322.758E-03    -325.252E-03    -316.784E-03     638.931E-03    -322.758E-03     180.502E-03     76.9013E+06     30.8408E+06    -45.0213E+06    -37.7877E+06     23.6072E+06     76.9013E+06     14.7705E+06         82.1735
            1833     9.41960E-03     183.134E-03     72.3408E-03    -18.9850E-03    -24.6665E-03    -17.4292E-03     66.2042E-03    -20.0856E-03     3.15051E-03     648.389E-03    -322.649E-03    -326.055E-03    -316.098E-03     638.433E-03    -322.649E-03     195.842E-03     83.5476E+06     41.6660E+06    -35.3959E+06    -29.4277E+06     35.6978E+06     83.5476E+06     14.1093E+06         82.9514
            1834     10.1727E-03     183.224E-03     82.5155E-03    -18.1136E-03    -33.6609E-03    -23.8923E-03     74.4550E-03    -19.8217E-03    -7.35441E-03     648.917E-03    -322.150E-03    -328.140E-03    -315.343E-03     636.120E-03    -322.150E-03     221.284E-03     83.2270E+06     49.4190E+06    -27.5904E+06    -23.1194E+06     44.9481E+06     83.2270E+06     11.6991E+06         83.7090
            1835     10.8605E-03     183.823E-03     91.4977E-03    -17.7864E-03    -37.6173E-03    -24.9784E-03     80.5669E-03    -19.4945E-03     125.867E-06     649.251E-03    -321.729E-03    -328.690E-03    -313.896E-03     635.686E-03    -322.957E-03     228.083E-03     80.0663E+06     50.4512E+06    -23.7700E+06    -18.8105E+06     45.4916E+06     80.0663E+06     7.34871E+06         84.7298
            1836     11.5814E-03     184.273E-03     84.4094E-03    -19.0999E-03    -28.3404E-03    -21.6644E-03     77.7334E-03    -19.0999E-03     27.9360E-03     652.564E-03    -321.374E-03    -331.119E-03    -309.671E-03     632.345E-03    -322.602E-03     272.926E-03     84.2555E+06     48.8149E+06    -17.8860E+06    -14.1131E+06     45.0420E+06     84.2555E+06     5.33930E+06         86.6126
            1837     12.3453E-03     184.561E-03     78.1540E-03    -18.1042E-03    -25.5369E-03    -22.4946E-03     75.9158E-03    -18.9083E-03    -1.82056E-03     642.272E-03    -314.267E-03    -327.498E-03    -300.766E-03     621.920E-03    -320.648E-03     271.882E-03     94.2550E+06     50.6383E+06    -6.47775E+06    -5.45087E+06     49.6115E+06     94.2550E+06     2.60461E+06         89.1027
            1838     734.511E-06     183.726E-03     57.4851E-03    -10.2684E-03    -21.7570E-03    -5.60244E-03     43.4296E-03    -12.3675E-03     7.37006E-03     619.627E-03    -308.601E-03    -311.113E-03    -311.085E-03     619.599E-03    -308.601E-03     9.02782E-03    -150.796E+06    -153.346E+06    -234.807E+06    -153.880E+06    -234.273E+06    -150.796E+06    -204.527E+03         71.9143
            1839     1.46551E-03     183.726E-03     71.0762E-03    -4.56806E-03    -38.7537E-03    -18.0035E-03     56.4296E-03    -10.6717E-03    -3.33640E-03     621.443E-03    -310.368E-03    -311.598E-03    -311.495E-03     621.340E-03    -310.368E-03     18.7873E-03    -141.418E+06    -149.748E+06    -220.224E+06    -150.244E+06    -219.727E+06    -141.418E+06      59.638E+03         72.3442
            1840     2.19775E-03     183.740E-03     86.0027E-03    -7.93288E-03    -50.4526E-03    -29.5091E-03     71.9979E-03    -14.8717E-03     13.2787E-03     623.054E-03    -311.106E-03    -312.766E-03    -312.519E-03     622.810E-03    -311.109E-03     29.6673E-03    -126.225E+06    -143.966E+06    -206.174E+06    -144.778E+06    -205.363E+06    -126.225E+06    -394.543E+03         73.0477
            1841     2.92849E-03     183.733E-03     82.1848E-03    -16.8666E-03    -40.1893E-03    -24.8421E-03     68.0234E-03    -18.0524E-03     17.7715E-03     626.413E-03    -312.000E-03    -315.053E-03    -314.556E-03     625.918E-03    -312.003E-03     42.5544E-03    -108.195E+06    -135.604E+06    -184.544E+06    -136.202E+06    -183.946E+06    -108.195E+06    -504.991E+03         73.9829
            1842     3.65673E-03     183.782E-03     72.3094E-03    -18.7361E-03    -30.1791E-03    -23.1462E-03     65.6271E-03    -19.0868E-03    -15.0710E-03     632.699E-03    -313.747E-03    -318.862E-03    -317.954E-03     631.791E-03    -313.747E-03     58.2108E-03    -89.2237E+06    -122.309E+06    -154.581E+06    -125.989E+06    -150.902E+06    -89.2237E+06     2.67586E+06         75.0682
            1843     4.37985E-03     183.855E-03     75.7369E-03    -19.5078E-03    -35.3070E-03    -23.3071E-03     63.7370E-03    -19.5078E-03     47.9176E-03     637.743E-03    -316.142E-03    -322.676E-03    -321.176E-03     636.243E-03    -316.142E-03     75.3365E-03    -66.4964E+06    -101.039E+06    -127.134E+06    -114.393E+06    -113.780E+06    -66.4964E+06     7.66704E+06         76.2620
            1844     5.09694E-03     183.972E-03     84.9190E-03    -19.7157E-03    -43.8560E-03    -22.5426E-03     63.6056E-03    -19.7157E-03    -12.0513E-03     642.771E-03    -317.935E-03    -325.114E-03    -322.873E-03     640.531E-03    -317.935E-03     92.6366E-03    -41.4268E+06    -67.5275E+06    -107.169E+06    -100.912E+06    -73.7847E+06    -41.4268E+06     12.6243E+06         77.5393
            1845     5.80506E-03     184.153E-03     88.3224E-03    -19.8629E-03    -40.3528E-03    -22.7000E-03     70.6697E-03    -19.8629E-03    -21.0459E-03     646.789E-03    -320.310E-03    -325.553E-03    -322.357E-03     643.592E-03    -320.310E-03     110.857E-03    -16.7421E+06    -27.6198E+06    -94.6432E+06    -88.2122E+06    -33.9079E+06    -16.8850E+06     17.8281E+06         78.8283
            1846     6.52750E-03     184.252E-03     76.8833E-03    -18.2748E-03    -29.2778E-03    -21.7260E-03     71.0814E-03    -20.0246E-03     23.4238E-03     646.526E-03    -321.603E-03    -325.129E-03    -320.533E-03     641.930E-03    -321.603E-03     132.654E-03     6.39618E+06    -512.113E+03    -83.1083E+06    -76.2598E+06    -7.21779E+06     6.25334E+06     19.7606E+06         79.9872
            1847     7.26199E-03     184.352E-03     68.5372E-03    -15.2716E-03    -23.0506E-03    -15.6979E-03     65.7837E-03    -19.8708E-03    -18.1567E-03     644.678E-03    -320.586E-03    -324.495E-03    -318.275E-03     638.458E-03    -320.586E-03     154.393E-03     29.0809E+06     16.4811E+06    -71.7472E+06    -65.3989E+06     10.1328E+06     29.0809E+06     19.1470E+06         80.8138
            1848     7.99701E-03     184.495E-03     70.4512E-03    -16.3985E-03    -22.0717E-03    -15.6424E-03     67.0341E-03    -19.4106E-03     7.39547E-03     643.303E-03    -320.733E-03    -323.398E-03    -315.640E-03     635.545E-03    -320.733E-03     172.244E-03     51.8213E+06     30.2952E+06    -60.6910E+06    -54.6418E+06     24.2460E+06     51.8213E+06     19.0473E+06         81.3084
            1849     8.69219E-03     184.876E-03     74.4836E-03    -18.9782E-03    -24.1702E-03    -20.4755E-03     70.9516E-03    -19.1410E-03    -3.45965E-03     645.313E-03    -322.335E-03    -323.298E-03    -314.048E-03     636.063E-03    -322.335E-03     188.139E-03     69.2533E+06     35.6240E+06    -53.2417E+06    -47.0910E+06     29.4732E+06     69.2533E+06     16.6086E+06         81.7533
            1850     9.42104E-03     185.112E-03     72.9378E-03    -17.1660E-03    -21.9456E-03    -16.0104E-03     68.7945E-03    -18.9580E-03    -5.11040E-03     645.039E-03    -321.344E-03    -323.589E-03    -311.763E-03     634.051E-03    -322.182E-03     204.650E-03     82.0968E+06     42.7495E+06    -43.3291E+06    -38.3027E+06     37.7231E+06     82.0968E+06     12.3766E+06         82.3325
            1851     10.1771E-03     185.200E-03     68.8509E-03    -14.4864E-03    -18.6218E-03    -11.8439E-03     66.1428E-03    -18.5561E-03     9.74106E-03     642.028E-03    -318.887E-03    -323.428E-03    -306.706E-03     627.259E-03    -320.840E-03     235.356E-03     86.4455E+06     49.6866E+06    -33.0499E+06    -28.0068E+06     44.6434E+06     86.4455E+06     10.7115E+06         82.9331
            1852     10.8858E-03     185.723E-03     69.6916E-03    -14.6819E-03    -20.6346E-03    -15.2418E-03     67.8708E-03    -18.2541E-03    -8.05146E-03     636.948E-03    -315.242E-03    -321.948E-03    -300.530E-03     620.767E-03    -320.479E-03     245.762E-03     86.0744E+06     60.6030E+06    -23.7776E+06    -19.1135E+06     55.9389E+06     86.0744E+06     10.0850E+06         83.6974
            1853     11.6162E-03     186.100E-03     67.9708E-03    -13.5239E-03    -21.3165E-03    -15.3717E-03     66.6779E-03    -18.1758E-03     914.795E-06     636.772E-03    -314.737E-03    -321.802E-03    -293.436E-03     613.105E-03    -319.436E-03     290.933E-03     90.9866E+06     60.5742E+06    -14.0084E+06    -11.6982E+06     58.2640E+06     90.9866E+06     4.06092E+06         85.2940
            1854     12.3942E-03     186.475E-03     66.4531E-03    -12.3540E-03    -24.2434E-03    -17.8599E-03     65.8537E-03    -18.1381E-03    -4.19558E-03     623.121E-03    -303.617E-03    -318.966E-03    -281.918E-03     599.056E-03    -316.600E-03     290.573E-03     95.1776E+06     51.6066E+06    -5.74013E+06    -5.43738E+06     51.3039E+06     95.1776E+06    -84.2510E+03         87.6487
            1855     735.959E-06     185.582E-03     99.0840E-03    -18.9662E-03    -64.7971E-03    -46.1071E-03     81.2428E-03    -19.8149E-03     44.9014E-03     611.184E-03    -304.755E-03    -306.553E-03    -306.511E-03     611.142E-03    -304.755E-03     11.1190E-03    -148.513E+06    -151.989E+06    -233.666E+06    -151.495E+06    -233.057E+06    -149.615E+06    -949.653E+03         71.3785
            1856     1.47339E-03     185.577E-03     72.5091E-03    -13.8649E-03    -29.7630E-03    -13.1364E-03     71.0885E-03    -29.0708E-03    -9.70732E-03     613.675E-03    -306.066E-03    -308.008E-03    -307.879E-03     613.546E-03    -306.066E-03     21.2999E-03    -138.460E+06    -146.117E+06    -219.550E+06    -146.740E+06    -218.928E+06    -138.460E+06    -1.00512E+06         71.8604
            1857     2.20710E-03     185.562E-03     52.8631E-03     3.47626E-03    -20.6890E-03     6.12555E-03     50.2138E-03    -20.6890E-03    -18.4228E-03     617.698E-03    -307.226E-03    -311.310E-03    -311.029E-03     617.416E-03    -307.226E-03     31.8315E-03    -123.898E+06    -140.168E+06    -202.149E+06    -141.046E+06    -201.272E+06    -123.898E+06    -1.88880E+06         72.6463
            1858     2.93797E-03     185.580E-03     53.5112E-03    -1.29792E-03    -20.5737E-03    -4.52978E-03     51.1722E-03    -15.0028E-03    -11.2909E-03     623.199E-03    -308.808E-03    -315.310E-03    -314.745E-03     622.634E-03    -308.808E-03     45.3860E-03    -106.741E+06    -133.318E+06    -183.533E+06    -134.319E+06    -182.532E+06    -106.741E+06    -3.31203E+06         73.6258
            1859     3.66420E-03     185.627E-03     63.3284E-03    -10.3912E-03    -28.9429E-03    -19.7052E-03     57.9876E-03    -14.2881E-03    -28.4237E-03     629.926E-03    -311.142E-03    -318.732E-03    -317.703E-03     628.898E-03    -311.142E-03     61.7943E-03    -89.3212E+06    -125.188E+06    -160.367E+06    -126.371E+06    -159.184E+06    -89.3212E+06    -2.93655E+06         74.6711
            1860     4.38667E-03     185.731E-03     77.6049E-03    -15.5584E-03    -42.6154E-03    -24.7455E-03     59.7351E-03    -15.5584E-03     26.3549E-03     635.537E-03    -314.346E-03    -322.161E-03    -320.480E-03     633.856E-03    -314.346E-03     79.4641E-03    -71.7134E+06    -110.495E+06    -132.736E+06    -117.682E+06    -125.549E+06    -71.7134E+06    -1.07941E+06         75.7593
            1861     5.09988E-03     185.896E-03     92.4427E-03    -16.7485E-03    -56.7239E-03    -24.6858E-03     60.4046E-03    -16.7485E-03    -13.0015E-03     641.284E-03    -316.795E-03    -324.869E-03    -322.218E-03     638.633E-03    -316.795E-03     100.077E-03    -52.6049E+06    -84.8288E+06    -111.272E+06    -107.662E+06    -88.4384E+06    -52.6049E+06     1.65221E+06         76.9158
            1862     5.80808E-03     186.106E-03     100.011E-03    -17.3253E-03    -59.4664E-03    -20.9697E-03     61.5147E-03    -17.3253E-03    -1.84293E-03     645.410E-03    -319.243E-03    -325.810E-03    -321.966E-03     641.567E-03    -319.243E-03     121.277E-03    -32.6000E+06    -52.2052E+06    -100.504E+06    -97.0367E+06    -55.5296E+06    -32.7429E+06     5.40166E+06         78.0975
            1863     6.53301E-03     186.220E-03     91.7475E-03    -17.4583E-03    -44.4138E-03    -19.9282E-03     67.2619E-03    -17.4583E-03     36.5030E-03     645.190E-03    -320.601E-03    -325.229E-03    -319.922E-03     639.882E-03    -320.601E-03     142.548E-03    -8.22559E+06    -18.1759E+06    -91.1408E+06    -86.0173E+06    -20.7281E+06    -10.7969E+06     11.0459E+06         79.1861
            1864     7.26322E-03     186.327E-03     72.8055E-03    -14.7703E-03    -30.3886E-03    -22.5060E-03     67.7723E-03    -17.6197E-03    -19.6556E-03     641.235E-03    -319.251E-03    -322.554E-03    -315.584E-03     634.265E-03    -319.251E-03     162.898E-03     14.8872E+06     8.05272E+06    -79.1236E+06    -74.8087E+06     6.16620E+06     12.4588E+06     14.0740E+06         79.9988
            1865     8.00025E-03     186.436E-03     62.6110E-03    -14.8754E-03    -27.3491E-03    -23.0839E-03     61.3579E-03    -17.8875E-03     19.1471E-03     638.277E-03    -318.290E-03    -320.613E-03    -311.205E-03     629.459E-03    -318.879E-03     182.460E-03     33.7943E+06     23.6857E+06    -67.6835E+06    -63.6031E+06     20.3676E+06     33.0320E+06     13.7737E+06         80.4059
            1866     8.70851E-03     186.846E-03     62.8576E-03    -17.9716E-03    -25.2221E-03    -23.0022E-03     60.8004E-03    -18.1343E-03     7.03592E-03     638.841E-03    -318.433E-03    -320.703E-03    -307.889E-03     627.710E-03    -320.114E-03     204.589E-03     54.5039E+06     36.4140E+06    -55.4970E+06    -50.6530E+06     32.3322E+06     53.7416E+06     11.8192E+06         80.6479
            1867     9.43604E-03     187.062E-03     65.4092E-03    -16.5476E-03    -25.8040E-03    -21.2766E-03     62.6738E-03    -18.3396E-03    -12.8521E-03     634.022E-03    -315.343E-03    -319.430E-03    -301.819E-03     620.455E-03    -319.386E-03     224.507E-03     75.5595E+06     45.1381E+06    -44.8347E+06    -40.2234E+06     40.5268E+06     75.5595E+06     8.52413E+06         81.0263
            1868     10.2031E-03     187.122E-03     67.7409E-03    -16.1020E-03    -26.8037E-03    -18.6953E-03     61.9941E-03    -18.4636E-03     12.6078E-03     628.386E-03    -311.532E-03    -317.039E-03    -293.217E-03     610.071E-03    -317.039E-03     257.874E-03     91.7385E+06     51.4939E+06    -33.7672E+06    -28.5240E+06     46.2506E+06     91.7385E+06     6.57488E+06         81.5010
            1869     10.9319E-03     187.536E-03     69.4716E-03    -16.6708E-03    -27.2759E-03    -18.8069E-03     62.8666E-03    -18.5349E-03     2.00587E-03     621.844E-03    -305.847E-03    -315.852E-03    -285.457E-03     601.454E-03    -315.852E-03     271.148E-03     96.5736E+06     64.8147E+06    -21.2122E+06    -16.8554E+06     60.4579E+06     96.5736E+06     4.17536E+06         82.2328
            1870     11.6760E-03     187.954E-03     60.2115E-03    -12.8735E-03    -22.6771E-03    -13.3536E-03     56.4046E-03    -18.3901E-03    -8.83973E-03     618.096E-03    -304.231E-03    -314.210E-03    -275.439E-03     589.304E-03    -314.210E-03     314.987E-03     94.0305E+06     64.7531E+06    -7.73660E+06    -6.94656E+06     63.9631E+06     94.0305E+06     3.16330E+06         83.8434
            1871     12.4680E-03     188.207E-03     51.8973E-03    -9.32932E-03    -17.8713E-03    -7.84741E-03     50.4154E-03    -17.8713E-03     11.0900E-03     604.029E-03    -293.242E-03    -310.613E-03    -264.613E-03     575.401E-03    -310.613E-03     310.571E-03     95.1755E+06     53.4526E+06    -2.92913E+06    -2.71134E+06     53.2348E+06     95.1755E+06     3.41064E+06         86.3063
            1872     740.188E-06     187.422E-03     136.095E-03    -15.1213E-03    -107.054E-03    -30.6584E-03     60.5473E-03    -15.9700E-03     115.356E-03     605.950E-03    -302.268E-03    -303.701E-03    -303.023E-03     605.906E-03    -302.903E-03     11.5950E-03    -140.662E+06    -143.801E+06    -229.870E+06    -143.523E+06    -229.046E+06    -141.764E+06    -1.29279E+06         71.0625
            1873     1.47815E-03     187.403E-03     78.9667E-03    -13.6117E-03    -48.7328E-03    -20.0047E-03     59.3409E-03    -22.7140E-03    -17.6506E-03     608.959E-03    -303.459E-03    -305.813E-03    -305.666E-03     608.812E-03    -303.459E-03     22.3882E-03    -132.881E+06    -138.715E+06    -215.419E+06    -139.383E+06    -214.751E+06    -132.881E+06    -2.40033E+06         71.5821
            1874     2.21350E-03     187.420E-03     67.5535E-03    -3.55925E-03    -36.7473E-03    -13.5881E-03     61.6208E-03    -20.7857E-03     8.09998E-03     613.490E-03    -304.727E-03    -309.386E-03    -309.017E-03     613.121E-03    -304.727E-03     35.9594E-03    -123.108E+06    -134.858E+06    -198.227E+06    -135.845E+06    -197.239E+06    -123.108E+06    -3.06313E+06         72.3772
            1875     2.94385E-03     187.447E-03     63.1959E-03    -5.28839E-03    -23.2027E-03    -7.02421E-03     59.8872E-03    -18.1582E-03     1.68006E-03     618.600E-03    -306.312E-03    -313.221E-03    -312.447E-03     617.826E-03    -306.312E-03     52.6158E-03    -108.375E+06    -130.432E+06    -179.713E+06    -131.743E+06    -178.403E+06    -108.375E+06    -3.39337E+06         73.3302
            1876     3.67249E-03     187.499E-03     68.2173E-03    -12.5064E-03    -27.1574E-03    -12.1176E-03     57.0744E-03    -16.4033E-03    -26.3775E-03     623.867E-03    -308.002E-03    -316.333E-03    -314.921E-03     622.456E-03    -308.002E-03     71.7475E-03    -89.1543E+06    -123.001E+06    -160.716E+06    -125.516E+06    -158.201E+06    -89.1543E+06    -4.49343E+06         74.2959
            1877     4.39703E-03     187.594E-03     88.2764E-03    -16.0873E-03    -46.4393E-03    -16.4576E-03     58.2947E-03    -16.0873E-03     26.5934E-03     629.179E-03    -310.701E-03    -318.761E-03    -316.424E-03     626.842E-03    -310.701E-03     92.9785E-03    -70.7224E+06    -110.575E+06    -134.590E+06    -117.015E+06    -128.150E+06    -70.7224E+06    -4.41981E+06         75.2386
            1878     5.11961E-03     187.759E-03     108.552E-03    -16.3032E-03    -66.2275E-03    -18.2863E-03     60.6104E-03    -16.3032E-03    -18.9420E-03     633.662E-03    -313.498E-03    -320.548E-03    -317.062E-03     630.176E-03    -313.498E-03     114.455E-03    -52.3499E+06    -89.2255E+06    -113.909E+06    -108.020E+06    -95.1150E+06    -52.3499E+06    -3.44816E+06         76.1814
            1879     5.83679E-03     187.980E-03     109.894E-03    -16.4930E-03    -67.8210E-03    -15.8996E-03     57.9728E-03    -16.4930E-03    -13.6660E-03     638.669E-03    -315.625E-03    -323.432E-03    -318.478E-03     633.716E-03    -315.625E-03     136.909E-03    -33.1515E+06    -61.6352E+06    -103.863E+06    -98.4407E+06    -67.0576E+06    -33.1515E+06    -803.157E+03         77.1320
            1880     6.55250E-03     188.128E-03     91.3285E-03    -16.3209E-03    -47.9363E-03    -11.1503E-03     54.5425E-03    -16.3209E-03     27.3269E-03     639.908E-03    -316.579E-03    -323.693E-03    -316.999E-03     633.215E-03    -316.579E-03     159.161E-03    -12.7812E+06    -33.2986E+06    -93.5211E+06    -87.7616E+06    -36.6296E+06    -15.2097E+06     3.59041E+06         78.0639
            1881     7.28797E-03     188.206E-03     69.7115E-03    -14.1394E-03    -32.6459E-03    -17.8965E-03     57.0466E-03    -16.2240E-03    -44.3645E-03     633.991E-03    -315.544E-03    -318.409E-03    -309.589E-03     625.172E-03    -315.544E-03     181.326E-03     9.36131E+06    -4.42631E+06    -80.6593E+06    -75.7251E+06    -2.97006E+06     2.97076E+06     7.25432E+06         78.8126
            1882     8.03467E-03     188.293E-03     59.9341E-03    -14.6180E-03    -28.5064E-03    -25.6518E-03     59.1640E-03    -16.7026E-03     8.49567E-03     628.287E-03    -313.210E-03    -314.830E-03    -301.809E-03     616.748E-03    -314.693E-03     205.872E-03     29.2653E+06     21.9328E+06    -66.7329E+06    -62.5092E+06     23.3099E+06     23.6646E+06     6.34417E+06         79.1435
            1883     8.75352E-03     188.572E-03     60.7394E-03    -17.3198E-03    -25.7829E-03    -24.9429E-03     59.8994E-03    -17.3198E-03     8.87322E-03     624.390E-03    -309.825E-03    -314.606E-03    -294.824E-03     609.389E-03    -314.606E-03     233.149E-03     44.6891E+06     38.8367E+06    -58.3427E+06    -54.2110E+06     36.3437E+06     43.0504E+06     3.28296E+06         79.2336
            1884     9.49647E-03     188.919E-03     62.1461E-03    -16.4463E-03    -24.1530E-03    -20.9228E-03     60.1252E-03    -17.6555E-03    -9.30380E-03     617.505E-03    -305.221E-03    -313.064E-03    -287.101E-03     599.386E-03    -313.064E-03     254.902E-03     62.6783E+06     48.2632E+06    -49.9255E+06    -45.3129E+06     43.6506E+06     62.6783E+06     762.949E+03         79.4845
            1885     10.2645E-03     189.022E-03     67.2770E-03    -16.1286E-03    -25.8359E-03    -14.9500E-03     57.7583E-03    -17.4958E-03     24.2938E-03     611.901E-03    -302.177E-03    -310.334E-03    -278.469E-03     588.193E-03    -310.334E-03     288.368E-03     83.0950E+06     58.1209E+06    -38.9655E+06    -34.0714E+06     53.2268E+06     83.0950E+06    -2.23683E+06         80.0009
            1886     11.0158E-03     189.356E-03     66.5931E-03    -16.7783E-03    -27.1321E-03    -17.4815E-03     57.1004E-03    -16.9363E-03     23.5620E-03     605.247E-03    -296.707E-03    -308.516E-03    -270.261E-03     578.801E-03    -308.516E-03     303.391E-03     96.3390E+06     64.9508E+06    -29.7935E+06    -25.4201E+06     60.5774E+06     96.3390E+06    -4.60228E+06         81.0237
            1887     11.7763E-03     189.672E-03     62.3723E-03    -15.7652E-03    -29.3996E-03    -25.7008E-03     59.5381E-03    -16.6298E-03    -1.11635E-03     604.224E-03    -296.208E-03    -308.049E-03    -263.350E-03     569.677E-03    -306.360E-03     342.251E-03     88.3535E+06     49.4427E+06    -19.7004E+06    -16.7775E+06     46.5198E+06     88.3535E+06    -1.96681E+06         83.1233
            1888     12.5739E-03     189.940E-03     56.6917E-03    -13.8812E-03    -25.9494E-03    -21.6939E-03     55.1940E-03    -16.6390E-03     13.3408E-03     595.033E-03    -290.423E-03    -304.340E-03    -260.153E-03     563.074E-03    -302.652E-03     324.548E-03     88.7715E+06     49.5692E+06    -5.61403E+06    -5.26539E+06     49.2206E+06     88.7715E+06     4.21380E+06         86.0567
            1889     738.913E-06     189.257E-03     159.946E-03    -5.87472E-03    -119.016E-03    -168.397E-06     41.0986E-03    -5.87472E-03     140.413E-03     600.385E-03    -299.498E-03    -300.904E-03    -300.178E-03     600.295E-03    -300.133E-03     15.6899E-03    -132.464E+06    -137.073E+06    -225.850E+06    -135.958E+06    -224.843E+06    -134.586E+06     -330.93E+03         70.3569
            1890     1.47888E-03     189.267E-03     81.0422E-03    -6.31728E-03    -45.3401E-03    -18.7699E-03     54.4720E-03    -6.31728E-03    -31.7910E-03     602.394E-03    -300.438E-03    -302.356E-03    -302.064E-03     602.102E-03    -300.438E-03     30.5515E-03    -129.613E+06    -134.228E+06    -209.654E+06    -135.237E+06    -208.646E+06    -129.613E+06    -1.85125E+06         70.8408
            1891     2.21778E-03     189.291E-03     69.8630E-03    -11.7423E-03    -32.3419E-03    -25.4171E-03     62.9382E-03    -11.7423E-03     15.7157E-03     605.529E-03    -301.369E-03    -304.833E-03    -304.174E-03     604.871E-03    -301.369E-03     47.3519E-03    -119.846E+06    -130.666E+06    -192.965E+06    -131.762E+06    -191.869E+06    -119.846E+06    -3.77230E+06         71.5766
            1892     2.95509E-03     189.329E-03     73.4838E-03    -15.6236E-03    -32.4185E-03    -28.9224E-03     69.9877E-03    -15.6236E-03     5.55720E-03     609.045E-03    -302.350E-03    -307.737E-03    -306.479E-03     607.787E-03    -302.350E-03     66.5068E-03    -105.124E+06    -125.042E+06    -176.142E+06    -126.685E+06    -174.500E+06    -105.124E+06    -4.68321E+06         72.4887
            1893     3.68809E-03     189.379E-03     83.8604E-03    -17.9584E-03    -39.2214E-03    -24.9926E-03     69.6316E-03    -17.9584E-03    -30.3737E-03     613.744E-03    -303.155E-03    -311.192E-03    -309.082E-03     611.634E-03    -303.155E-03     87.1616E-03    -87.9698E+06    -117.438E+06    -155.960E+06    -120.709E+06    -152.688E+06    -87.9698E+06    -4.77883E+06         73.4235
            1894     4.42070E-03     189.453E-03     87.1679E-03    -18.6802E-03    -46.5088E-03    -17.1556E-03     57.8148E-03    -18.6802E-03     5.84395E-03     619.256E-03    -305.330E-03    -313.379E-03    -310.125E-03     616.003E-03    -305.330E-03     109.035E-03    -68.7920E+06    -106.152E+06    -133.160E+06    -113.721E+06    -125.591E+06    -68.7920E+06    -5.61151E+06         74.2857
            1895     5.14622E-03     189.599E-03     95.6630E-03    -18.4506E-03    -51.6121E-03    -12.4784E-03     56.5294E-03    -18.4506E-03    -14.1937E-03     622.596E-03    -307.940E-03    -314.510E-03    -309.750E-03     617.836E-03    -307.940E-03     132.050E-03    -48.7555E+06    -88.2111E+06    -114.783E+06    -104.283E+06    -98.7104E+06    -48.7555E+06    -5.29397E+06         75.0479
            1896     5.86687E-03     189.796E-03     90.5403E-03    -18.0638E-03    -45.9356E-03    -13.6824E-03     58.2871E-03    -18.0638E-03    -29.8932E-03     623.632E-03    -309.194E-03    -315.131E-03    -307.994E-03     616.648E-03    -309.348E-03     159.496E-03    -29.9570E+06    -65.0361E+06    -104.085E+06    -95.8484E+06    -73.2731E+06    -29.9570E+06    -2.70503E+06         75.7651
            1897     6.59709E-03     190.038E-03     71.3034E-03    -17.4187E-03    -32.9071E-03    -13.1838E-03     51.8418E-03    -17.6805E-03     22.1123E-03     622.533E-03    -309.257E-03    -313.707E-03    -303.836E-03     612.816E-03    -309.410E-03     188.014E-03    -12.0435E+06    -35.4230E+06    -93.6233E+06    -86.5140E+06    -42.5323E+06    -12.0435E+06    -1.06725E+06         76.5209
            1898     7.33769E-03     190.129E-03     65.9911E-03    -14.8994E-03    -24.8830E-03    -13.2397E-03     56.6941E-03    -17.2458E-03    -21.0088E-03     618.609E-03    -307.986E-03    -310.302E-03    -297.318E-03     605.625E-03    -307.986E-03     215.911E-03     9.90688E+06    -3.48635E+06    -83.0334E+06    -76.7392E+06    -4.32122E+06     4.44754E+06    -2.24032E+06         77.1937
            1899     8.08896E-03     190.231E-03     62.6401E-03    -10.8751E-03    -20.5986E-03    -13.5546E-03     61.6191E-03    -16.8981E-03     8.41441E-03     612.059E-03    -304.344E-03    -306.984E-03    -288.200E-03     595.333E-03    -306.402E-03     243.538E-03     32.1966E+06     20.2895E+06    -75.2329E+06    -69.3418E+06     26.3054E+06     20.2895E+06    -1.59148E+06         77.5342
            1900     8.83852E-03     190.439E-03     60.0863E-03    -8.86783E-03    -19.8158E-03    -10.3195E-03     58.1482E-03    -16.4260E-03    -986.292E-06     605.555E-03    -300.046E-03    -305.174E-03    -279.045E-03     584.554E-03    -305.174E-03     270.958E-03     47.8283E+06     37.3785E+06    -64.1512E+06    -59.0165E+06     42.3985E+06     37.6737E+06     -2.4168E+06         77.6589
            1901     9.58712E-03     190.709E-03     63.0066E-03    -10.9665E-03    -21.4297E-03    -11.0633E-03     57.4692E-03    -15.7954E-03     8.65362E-03     600.142E-03    -296.910E-03    -303.238E-03    -271.995E-03     575.227E-03    -303.238E-03     293.476E-03     59.9536E+06     49.7291E+06     -53.494E+06    -48.0422E+06     52.5378E+06     51.6933E+06    -5.89493E+06         78.0161
            1902     10.3680E-03     190.780E-03     69.2704E-03    -13.9064E-03    -27.3684E-03    -12.8974E-03     56.1666E-03    -15.2736E-03     12.2872E-03     595.755E-03    -295.127E-03    -301.407E-03    -265.257E-03     565.033E-03    -300.555E-03     323.477E-03     71.1117E+06     61.3147E+06    -44.8095E+06    -39.5661E+06     60.6248E+06     66.5583E+06    -7.28831E+06         78.8697
            1903     11.1367E-03     191.144E-03     57.9047E-03    -11.4569E-03    -23.7647E-03    -9.11412E-03     46.5992E-03    -14.8018E-03     1.72612E-03     593.863E-03    -292.502E-03    -301.868E-03    -264.149E-03     561.958E-03    -298.316E-03     330.224E-03     86.1966E+06     62.8236E+06    -36.8879E+06    -31.1448E+06     57.0805E+06     86.1966E+06    -7.66008E+06         80.5475
            1904     11.9007E-03     191.554E-03     50.3452E-03    -9.51306E-03    -23.0391E-03    -15.4306E-03     47.7800E-03    -14.5564E-03     10.4045E-03     603.947E-03    -292.741E-03    -310.955E-03    -270.808E-03     567.443E-03    -296.384E-03     355.523E-03     85.3092E+06     43.0539E+06     -31.681E+06    -22.9538E+06     34.3268E+06     85.3092E+06    -9.77469E+06         83.5161
            1905     12.6876E-03     191.754E-03     53.0006E-03    -12.7211E-03    -24.2771E-03    -20.2372E-03     50.8171E-03    -14.5774E-03    -7.28363E-03     605.045E-03    -291.293E-03    -313.929E-03    -280.190E-03     574.505E-03    -294.491E-03     319.368E-03     88.7629E+06     44.6388E+06    -17.8867E+06    -11.2332E+06     37.9854E+06     88.7629E+06    -8.27494E+06         87.1016
            1906     745.281E-06     191.083E-03     149.290E-03    -2.49196E-03    -107.821E-03    -17.3628E-03     63.2181E-03    -6.87853E-03     147.662E-03     587.178E-03    -293.040E-03    -294.336E-03    -294.178E-03     587.020E-03    -293.040E-03     21.6320E-03    -115.493E+06    -121.936E+06    -222.834E+06    -117.807E+06    -221.770E+06    -120.686E+06    -887.370E+03         68.9248
            1907     1.49098E-03     191.113E-03     75.5245E-03    -8.61306E-03    -30.6502E-03    -16.2561E-03     65.5170E-03    -12.9996E-03    -28.8898E-03     587.937E-03    -293.545E-03    -294.852E-03    -294.346E-03     587.430E-03    -293.545E-03     40.9307E-03    -111.416E+06    -118.803E+06    -205.468E+06    -117.099E+06    -204.102E+06    -114.487E+06    -968.111E+03         69.3247
            1908     2.23385E-03     191.156E-03     62.9625E-03    -15.0887E-03    -25.2921E-03    -21.4098E-03     59.0803E-03    -15.0887E-03    -8.11095E-03     589.975E-03    -293.945E-03    -296.681E-03    -295.549E-03     588.843E-03    -293.945E-03     61.8967E-03    -102.376E+06    -114.075E+06    -186.151E+06    -115.282E+06    -184.944E+06    -102.376E+06    -2.06037E+06         69.9210
            1909     2.97496E-03     191.216E-03     54.3024E-03    -12.1445E-03    -29.5169E-03    -20.7158E-03     50.2043E-03    -16.8476E-03    -6.05572E-03     593.196E-03    -294.692E-03    -299.233E-03    -297.173E-03     591.136E-03    -294.692E-03     84.2497E-03    -88.0594E+06    -109.326E+06    -170.197E+06    -110.947E+06    -168.575E+06    -88.0594E+06    -3.81981E+06         70.6561
            1910     3.71690E-03     191.289E-03     63.2349E-03    -13.3282E-03    -37.3850E-03    -24.1793E-03     54.7323E-03    -18.0313E-03    -22.9752E-03     596.968E-03    -295.356E-03    -302.168E-03    -298.788E-03     593.588E-03    -295.356E-03     108.300E-03    -72.8455E+06    -101.226E+06    -152.189E+06    -104.378E+06    -149.038E+06    -72.8455E+06    -5.28187E+06         71.4563
            1911     4.45195E-03     191.385E-03     76.8955E-03    -18.6753E-03    -37.6707E-03    -20.8689E-03     60.0937E-03    -18.6753E-03     4.52758E-03     601.110E-03    -296.451E-03    -304.350E-03    -299.014E-03     595.774E-03    -296.451E-03     135.984E-03    -54.6388E+06    -88.4843E+06    -129.814E+06    -95.1363E+06    -123.162E+06    -54.6388E+06    -3.79786E+06         72.2366
            1912     5.18702E-03     191.516E-03     72.7074E-03    -18.1886E-03    -29.0064E-03    -13.0912E-03     56.7922E-03    -18.1886E-03     13.1001E-03     602.707E-03    -297.893E-03    -304.500E-03    -296.442E-03     594.649E-03    -297.893E-03     167.092E-03    -36.0641E+06    -75.8023E+06    -110.559E+06    -88.3852E+06    -97.9762E+06    -36.0641E+06    -2.60698E+06         72.8953
            1913     5.92934E-03     191.644E-03     63.0264E-03    -13.8864E-03    -22.5510E-03    -10.8721E-03     54.5517E-03    -17.0905E-03    -13.6103E-03     599.529E-03    -298.220E-03    -302.133E-03    -290.696E-03     588.246E-03    -298.373E-03     197.757E-03    -16.9936E+06    -58.5359E+06    -93.9431E+06    -80.0390E+06    -72.4401E+06    -16.9936E+06    -4.26084E+06         73.4826
            1914     6.67589E-03     191.807E-03     56.6357E-03    -12.6958E-03    -19.8168E-03    -12.4328E-03     52.7176E-03    -16.1617E-03     29.5823E-03     595.745E-03    -297.223E-03    -299.416E-03    -284.287E-03     580.769E-03    -297.376E-03     227.283E-03     3.43837E+06    -27.9745E+06    -80.2759E+06    -68.9462E+06    -39.3042E+06     3.43837E+06    -4.56739E+06         74.1397
            1915     7.43650E-03     191.926E-03     56.5679E-03    -15.4829E-03    -18.9507E-03    -17.0456E-03     54.9246E-03    -15.7447E-03     17.5331E-03     593.101E-03    -295.202E-03    -297.757E-03    -278.590E-03     573.934E-03    -295.202E-03     256.634E-03     23.3760E+06     8.29011E+06    -72.9091E+06    -59.7843E+06    -3.33738E+06     21.8787E+06    -1.60089E+06         74.7923
            1916     8.20046E-03     192.035E-03     56.3604E-03    -11.4216E-03    -18.5875E-03    -11.6977E-03     53.4092E-03    -15.3601E-03     20.4265E-03     590.195E-03    -292.026E-03    -297.208E-03    -272.370E-03     566.522E-03    -293.191E-03     284.258E-03     45.4843E+06     29.7759E+06    -59.2533E+06    -49.6116E+06     27.2029E+06     38.4157E+06     1.20921E+06         75.2948
            1917     8.95603E-03     192.309E-03     57.6075E-03    -6.96068E-03    -19.1574E-03    -6.05115E-03     52.0594E-03    -14.5188E-03    -1.07006E-03     587.588E-03    -289.736E-03    -297.434E-03    -267.235E-03     559.418E-03    -291.765E-03     309.194E-03     68.0355E+06     48.4152E+06    -50.8893E+06    -42.3277E+06     53.0943E+06     54.7948E+06     3.07406E+06         75.8151
            1918     9.72991E-03     192.493E-03     57.3663E-03    -9.58577E-03    -21.1202E-03    -8.59211E-03     49.0118E-03    -13.7594E-03     8.14570E-03     585.765E-03    -288.394E-03    -297.692E-03    -264.962E-03     554.725E-03    -290.083E-03     324.652E-03     80.6835E+06     61.5643E+06    -47.1745E+06    -37.3047E+06     63.9173E+06     68.4607E+06    -2.55112E+06         76.7156
            1919     10.5082E-03     192.671E-03     60.7001E-03    -13.0851E-03    -29.6215E-03    -17.8872E-03     49.5198E-03    -13.6391E-03    -2.35209E-03     589.487E-03    -287.164E-03    -302.632E-03    -267.290E-03     554.970E-03    -287.989E-03     343.640E-03     83.7507E+06     62.5056E+06    -36.6592E+06    -28.7189E+06     59.1187E+06     79.1972E+06    -8.16286E+06         78.2970
            1920     11.2769E-03     192.904E-03     62.6998E-03    -10.6604E-03    -30.0722E-03    -17.9783E-03     53.7929E-03    -13.8473E-03    -10.7285E-03     597.640E-03    -286.875E-03    -311.216E-03    -278.424E-03     564.848E-03    -286.875E-03     337.865E-03     97.6371E+06     68.7206E+06    -24.1872E+06    -17.4636E+06     61.9971E+06     97.6371E+06    -6.50546E+06         80.9422
            1921     12.0126E-03     193.470E-03     51.4610E-03    -5.34469E-03    -18.4622E-03    -6.19784E-03     47.4850E-03    -13.6331E-03     13.6691E-03     619.557E-03    -287.064E-03    -333.073E-03    -299.943E-03     586.428E-03    -287.064E-03     347.852E-03     104.051E+06     57.7840E+06    -18.8061E+06    -9.75477E+06     48.7326E+06     104.051E+06    -12.0655E+06         84.8415
            1922     12.7780E-03     193.673E-03     49.8833E-03    -7.97897E-03    -14.4454E-03    -6.44559E-03     46.9849E-03    -13.0804E-03    -20.4733E-03     637.216E-03    -288.137E-03    -349.432E-03    -324.591E-03     612.375E-03    -288.137E-03     295.292E-03     111.291E+06     37.1117E+06    -23.8742E+06    -6.62385E+06     19.8614E+06     111.291E+06    -9.37357E+06         88.9328
            1923     752.817E-06     192.864E-03     107.535E-03    -14.2115E-03    -78.9955E-03    -11.9612E-03     67.4684E-03    -41.1789E-03     67.3617E-03     564.006E-03    -281.468E-03    -282.670E-03    -282.169E-03     563.743E-03    -281.705E-03     26.8550E-03    -90.9815E+06    -102.903E+06    -217.016E+06    -96.9552E+06    -215.742E+06    -98.2029E+06    -2.95227E+06         66.5836
            1924     1.50430E-03     192.890E-03     64.4351E-03    -19.2647E-03    -33.2670E-03    -11.9675E-03     47.5222E-03    -23.6513E-03    -10.0230E-03     563.890E-03    -281.622E-03    -282.589E-03    -281.649E-03     563.018E-03    -281.692E-03     51.7468E-03    -89.0150E+06    -98.7132E+06    -203.881E+06    -96.9448E+06    -202.542E+06    -92.1219E+06    -2.15865E+06         66.8474
            1925     2.25917E-03     192.936E-03     68.4749E-03    -20.2147E-03    -33.4739E-03    -16.7921E-03     51.7930E-03    -20.2147E-03    -12.6051E-03     564.497E-03    -281.478E-03    -283.527E-03    -281.612E-03     562.583E-03    -281.478E-03     78.3868E-03    -81.4871E+06    -89.6492E+06    -182.057E+06    -91.0879E+06    -180.582E+06    -81.5233E+06    -1.66695E+06         67.2251
            1926     3.01329E-03     192.980E-03     61.9216E-03    -13.5237E-03    -30.1931E-03    -7.44610E-03     43.8777E-03    -18.2268E-03    -6.60220E-03     566.226E-03    -281.539E-03    -284.867E-03    -281.359E-03     562.718E-03    -281.539E-03     106.707E-03    -67.1777E+06    -84.5720E+06    -162.709E+06    -86.3202E+06    -160.961E+06    -67.1777E+06    -3.13710E+06         67.6922
            1927     3.76383E-03     193.055E-03     55.4555E-03    -8.23004E-03    -22.8339E-03    -5.32541E-03     45.3929E-03    -15.6759E-03     18.3636E-03     567.448E-03    -281.679E-03    -285.986E-03    -280.114E-03     561.576E-03    -281.679E-03     138.265E-03    -49.8485E+06    -76.6444E+06    -147.517E+06    -79.8217E+06    -144.340E+06    -49.8485E+06    -4.61095E+06         68.2489
            1928     4.52130E-03     193.158E-03     52.7994E-03    -8.68531E-03    -17.2908E-03    -8.02519E-03     48.6798E-03    -13.8313E-03     2.64416E-03     568.386E-03    -281.422E-03    -286.939E-03    -277.843E-03     559.290E-03    -281.422E-03     172.792E-03    -32.6818E+06    -66.4939E+06    -130.470E+06    -72.8642E+06    -124.099E+06    -32.6818E+06    -4.59324E+06         68.8631
            1929     5.27687E-03     193.322E-03     51.6998E-03    -10.2913E-03    -17.6427E-03    -10.2561E-03     46.7165E-03    -12.6946E-03     18.9044E-03     569.002E-03    -281.255E-03    -287.558E-03    -274.381E-03     555.825E-03    -281.255E-03     208.440E-03    -12.2681E+06    -53.3915E+06    -102.404E+06    -61.4060E+06    -94.3890E+06    -12.2681E+06    -3.54893E+06         69.4710
            1930     6.03846E-03     193.458E-03     56.7881E-03    -9.24206E-03    -23.9724E-03    -18.6069E-03     54.6267E-03    -12.4462E-03     3.00617E-03     568.364E-03    -280.832E-03    -288.201E-03    -270.500E-03     550.663E-03    -280.832E-03     241.529E-03     9.04157E+06    -37.5237E+06    -77.1795E+06    -49.8574E+06    -64.8458E+06     9.04157E+06    -3.06195E+06         70.1598
            1931     6.80121E-03     193.577E-03     54.8525E-03    -8.82541E-03    -22.9216E-03    -17.0773E-03     52.9575E-03    -12.7747E-03     14.2671E-03     566.900E-03    -279.301E-03    -288.702E-03    -266.291E-03     544.490E-03    -279.301E-03     271.267E-03     26.4088E+06    -15.3195E+06    -67.4130E+06    -45.0186E+06    -37.7139E+06     26.4088E+06    -747.199E+03         71.0382
            1932     7.57380E-03     193.704E-03     46.7055E-03    -11.9627E-03    -16.2676E-03    -10.4392E-03     41.6222E-03    -12.7079E-03     2.33840E-03     566.219E-03    -277.280E-03    -289.293E-03    -262.891E-03     539.818E-03    -277.280E-03     294.700E-03     46.0119E+06     13.2631E+06    -57.9967E+06    -37.6023E+06    -7.13137E+06     46.0119E+06     1.99209E+06         72.0016
            1933     8.34906E-03     193.898E-03     51.1895E-03    -12.2668E-03    -23.8214E-03    -10.0010E-03     37.3691E-03    -12.2668E-03     24.4922E-03     568.976E-03    -275.730E-03    -292.781E-03    -263.337E-03     539.532E-03    -275.730E-03     312.627E-03     65.7158E+06     42.9807E+06    -48.2162E+06    -30.4838E+06     25.2483E+06     65.7158E+06     8.76844E+06         72.9769
            1934     9.12377E-03     194.026E-03     63.7585E-03    -12.2389E-03    -34.0580E-03    -19.6884E-03     49.3888E-03    -12.2389E-03     9.94366E-03     574.213E-03    -274.989E-03    -299.219E-03    -267.095E-03     542.089E-03    -274.989E-03     328.723E-03     89.9662E+06     71.9042E+06    -38.1686E+06    -24.9329E+06     62.6309E+06     86.0038E+06     11.6720E+06         74.1974
            1935     9.89386E-03     194.172E-03     52.6582E-03    -11.0532E-03    -24.5799E-03    -17.8425E-03     47.4664E-03    -12.5988E-03    -18.4750E-03     582.315E-03    -274.678E-03    -307.657E-03    -275.119E-03     549.778E-03    -274.678E-03     333.943E-03     107.249E+06     89.6585E+06    -34.6878E+06    -18.9170E+06     77.8501E+06     103.286E+06     9.52824E+06         76.0030
            1936     10.6524E-03     194.536E-03     45.1455E-03    -11.1217E-03    -20.0354E-03    -12.0513E-03     38.7069E-03    -12.6673E-03     18.2226E-03     600.269E-03    -275.320E-03    -324.719E-03    -292.792E-03     568.342E-03    -275.320E-03     337.038E-03     108.845E+06     84.2230E+06    -31.7969E+06    -18.1520E+06     70.5781E+06     108.845E+06     3.44451E+06         78.6388
            1937     11.3970E-03     194.832E-03     56.9953E-03    -12.6263E-03    -27.6086E-03    -18.9146E-03     48.3012E-03    -12.6263E-03     6.77943E-03     620.148E-03    -276.974E-03    -343.230E-03    -315.378E-03     592.297E-03    -276.974E-03     320.351E-03     115.186E+06     74.7899E+06    -24.2395E+06    -17.9061E+06     68.4566E+06     115.186E+06    -5.93916E+06         82.3582
            1938     12.1377E-03     194.997E-03     51.0454E-03    -9.36158E-03    -23.9655E-03    -15.3036E-03     45.6286E-03    -12.6066E-03    -16.1430E-03     649.227E-03    -279.625E-03    -369.921E-03    -342.570E-03     621.877E-03    -279.625E-03     327.983E-03     127.785E+06     75.6617E+06    -20.3018E+06    -16.4832E+06     71.8432E+06     127.785E+06    -412.214E+03         86.9804
            1939     12.8289E-03     195.596E-03     50.8029E-03    -9.18031E-03    -21.9409E-03    -10.1845E-03     42.2916E-03    -12.4254E-03     3.26735E-03     674.888E-03    -283.935E-03    -391.203E-03    -371.621E-03     655.307E-03    -283.935E-03     270.842E-03     126.554E+06     41.8922E+06    -45.4965E+06    -10.7384E+06     7.13402E+06     126.554E+06    -6.27117E+06         91.2358
            1940     765.762E-06     194.572E-03     81.4374E-03    -8.04652E-03    -64.5902E-03    -19.0708E-03     58.4987E-03    -30.6273E-03    -4.76244E-03     528.049E-03    -263.546E-03    -264.533E-03    -263.813E-03     527.566E-03    -263.784E-03     35.9662E-03    -65.9010E+06    -83.5891E+06    -209.986E+06    -77.7160E+06    -208.355E+06    -73.4057E+06    -1.69153E+06         62.9980
            1941     1.53517E-03     194.623E-03     69.2697E-03    -21.5227E-03    -37.5939E-03    -8.46845E-03     40.1442E-03    -21.5227E-03    -8.07580E-03     527.503E-03    -263.359E-03    -264.292E-03    -262.745E-03     526.026E-03    -263.428E-03     65.8353E-03    -65.1992E+06    -75.1104E+06    -198.213E+06    -72.8156E+06    -197.117E+06    -68.5893E+06    -3.31619E+06         63.1102
            1942     2.30230E-03     194.669E-03     61.0729E-03    -15.9525E-03    -28.2640E-03    -3.60258E-03     36.4115E-03    -15.9525E-03     9.19487E-03     525.736E-03    -262.477E-03    -263.500E-03    -260.159E-03     522.463E-03    -262.546E-03     98.7372E-03    -62.8505E+06    -68.4540E+06    -179.389E+06    -70.1120E+06    -177.695E+06    -62.8867E+06    -4.59774E+06         63.3008
            1943     3.07184E-03     194.728E-03     65.8006E-03    -11.5239E-03    -25.4948E-03    -7.40910E-03     49.1592E-03    -12.9682E-03    -2.89582E-03     524.130E-03    -261.319E-03    -262.913E-03    -256.873E-03     518.158E-03    -261.388E-03     133.756E-03    -50.4840E+06    -62.8250E+06    -157.840E+06    -65.1949E+06    -155.470E+06    -50.4840E+06    -4.28142E+06         63.6102
            1944     3.84985E-03     194.788E-03     58.6049E-03    -6.79284E-03    -18.7574E-03    -299.357E-06     44.3340E-03    -10.9799E-03     11.3688E-03     523.741E-03    -260.181E-03    -263.455E-03    -253.861E-03     514.147E-03    -260.181E-03     170.153E-03    -31.6237E+06    -55.4676E+06    -143.047E+06    -58.8025E+06    -139.712E+06    -31.6237E+06    -4.86983E+06         64.0839
            1945     4.62461E-03     194.871E-03     45.1652E-03    -3.85973E-03    -14.2908E-03    -770.915E-06     36.7914E-03    -9.00575E-03    -6.09279E-03     524.406E-03    -259.081E-03    -265.247E-03    -251.270E-03     510.429E-03    -259.081E-03     205.962E-03    -12.7172E+06    -46.1388E+06    -124.828E+06    -51.9123E+06    -119.054E+06    -12.7172E+06    -5.28748E+06         64.7270
            1946     5.40596E-03     195.000E-03     43.9208E-03    -5.90652E-03    -17.6264E-03    -10.8586E-03     39.5563E-03    -8.30977E-03     18.1081E-03     526.833E-03    -258.052E-03    -268.789E-03    -249.757E-03     507.800E-03    -258.052E-03     241.171E-03     4.02940E+06    -39.7690E+06    -99.4522E+06    -47.2689E+06    -91.9523E+06     4.02940E+06    -4.30965E+06         65.5082
            1947     6.18543E-03     195.141E-03     45.0777E-03    -9.20847E-03    -24.6639E-03    -22.7572E-03     43.1710E-03    -9.20847E-03     4.43698E-03     531.850E-03    -257.161E-03    -274.750E-03    -250.434E-03     507.533E-03    -257.161E-03     274.531E-03     22.5625E+06    -25.4918E+06    -88.3692E+06    -46.3945E+06    -67.4665E+06     22.5625E+06     4.83875E+06         66.5324
            1948     6.96711E-03     195.280E-03     44.2207E-03    -9.65977E-03    -21.5402E-03    -18.6811E-03     42.1068E-03    -10.4049E-03    -2.03458E-03     539.275E-03    -256.375E-03    -283.421E-03    -254.294E-03     510.148E-03    -256.375E-03     303.406E-03     43.1494E+06    -10.3721E+06    -72.7391E+06    -44.0206E+06    -39.0906E+06     43.1494E+06     11.9674E+06         67.9114
            1949     7.75032E-03     195.357E-03     49.0534E-03    -10.0944E-03    -18.8284E-03    -12.7324E-03     43.7026E-03    -10.8395E-03    -11.8544E-03     548.748E-03    -255.998E-03    -293.322E-03    -261.030E-03     516.456E-03    -255.998E-03     323.218E-03     60.5785E+06     13.9379E+06    -67.9435E+06    -44.1159E+06    -9.88964E+06     60.5785E+06     14.1486E+06         69.6249
            1950     8.52627E-03     195.542E-03     57.8955E-03    -11.1058E-03    -29.4308E-03    -15.9778E-03     44.4425E-03    -11.1058E-03     26.3031E-03     559.444E-03    -256.229E-03    -303.205E-03    -270.307E-03     526.545E-03    -256.229E-03     330.359E-03     79.4726E+06     52.6709E+06    -66.3437E+06    -42.1037E+06     28.4309E+06     79.4726E+06     14.9558E+06         71.5705
            1951     9.28766E-03     195.845E-03     63.4938E-03    -11.6647E-03    -36.8114E-03    -17.2585E-03     43.9409E-03    -11.6647E-03     1.30989E-03     575.822E-03    -257.522E-03    -318.595E-03    -287.363E-03     544.591E-03    -257.522E-03     327.785E-03     101.131E+06     81.3959E+06    -49.6340E+06    -34.7322E+06     68.9728E+06     98.6528E+06     12.1734E+06         73.7619
            1952     10.0423E-03     196.067E-03     55.8105E-03    -11.0878E-03    -25.6251E-03    -13.5172E-03     44.6941E-03    -12.0793E-03    -45.5016E-03     597.734E-03    -260.106E-03    -337.757E-03    -309.550E-03     569.526E-03    -260.106E-03     318.418E-03     111.781E+06     97.6099E+06    -41.4796E+06    -27.4359E+06     86.0448E+06     109.303E+06     16.0898E+06         76.5084
            1953     10.7918E-03     196.122E-03     48.4374E-03    -11.0478E-03    -19.2537E-03    -9.09401E-03     39.2693E-03    -12.0393E-03     20.3224E-03     625.106E-03    -264.426E-03    -360.687E-03    -334.678E-03     599.097E-03    -264.426E-03     314.656E-03     112.293E+06     96.6935E+06    -37.0597E+06    -22.2213E+06     81.8551E+06     112.293E+06     14.7936E+06         80.0551
            1954     11.4704E-03     196.753E-03     48.1941E-03    -11.9364E-03    -29.3309E-03    -12.4872E-03     31.3504E-03    -11.9364E-03    -3.74357E-03     654.363E-03    -269.725E-03    -384.842E-03    -363.392E-03     632.913E-03    -269.725E-03     292.716E-03     121.760E+06     97.9012E+06    -26.7245E+06    -18.2150E+06     89.3918E+06     121.760E+06     14.1096E+06         84.4855
            1955     12.1743E-03     197.059E-03     39.0463E-03    -11.5157E-03    -26.6955E-03    -13.5667E-03     26.3727E-03    -11.9709E-03    -34.2502E-03     686.349E-03    -275.194E-03    -410.929E-03    -389.872E-03     665.291E-03    -275.194E-03     298.852E-03     138.733E+06     93.5986E+06    -12.7585E+06    -8.60558E+06     89.4457E+06     138.733E+06     7.51935E+06         89.4039
            1956     12.8523E-03     197.538E-03     34.9803E-03    -10.4069E-03    -20.3113E-03    -7.03631E-03     23.0700E-03    -11.7715E-03     25.3552E-03     704.026E-03    -281.817E-03    -421.993E-03    -406.742E-03     688.775E-03    -281.817E-03     244.717E-03     132.793E+06     56.5659E+06    -42.3317E+06     1.74424E+06     12.4900E+06     132.793E+06    -2.32711E+06         93.5597
            1957     788.822E-06     196.218E-03     86.3820E-03    -10.1903E-03    -50.2354E-03    -8.61658E-03     50.4271E-03    -15.8542E-03    -69.7006E-03     477.318E-03    -237.899E-03    -239.424E-03    -238.404E-03     476.618E-03    -238.218E-03     41.0003E-03    -57.4083E+06    -79.3837E+06    -202.252E+06    -68.2134E+06    -200.539E+06    -70.2913E+06    -2.05344E+06         58.0924
            1958     1.57315E-03     196.250E-03     64.4118E-03    -10.1339E-03    -28.2300E-03    -4.80728E-03     40.9891E-03    -10.1339E-03    -31.8399E-03     475.020E-03    -237.007E-03    -238.026E-03    -235.186E-03     472.715E-03    -237.542E-03     77.5537E-03    -62.9944E+06    -72.3545E+06    -191.776E+06    -70.2477E+06    -189.953E+06    -66.9244E+06    -5.37581E+06         58.1255
            1959     2.36539E-03     196.286E-03     56.4093E-03    -8.32900E-03    -23.9761E-03    -7.04873E-03     39.4820E-03    -8.32900E-03     20.7828E-03     471.768E-03    -235.565E-03    -236.257E-03    -230.918E-03     466.714E-03    -235.850E-03     116.468E-03    -56.9420E+06    -64.9994E+06    -172.764E+06    -66.7918E+06    -170.395E+06    -57.5182E+06    -6.92665E+06         58.2734
            1960     3.16368E-03     196.321E-03     46.4257E-03    -7.18181E-03    -22.9367E-03    -14.1270E-03     39.0604E-03    -8.62613E-03     6.36040E-03     469.829E-03    -233.909E-03    -236.015E-03    -226.975E-03     460.858E-03    -233.978E-03     155.740E-03    -44.3777E+06    -59.2780E+06    -156.765E+06    -61.6857E+06    -154.357E+06    -44.3777E+06    -5.02986E+06         58.6464
            1961     3.96040E-03     196.370E-03     44.9216E-03    -7.86984E-03    -20.7408E-03    -9.61471E-03     35.2398E-03    -9.31416E-03    -34.5440E-03     470.865E-03    -232.134E-03    -238.621E-03    -224.704E-03     456.947E-03    -232.134E-03     194.654E-03    -30.4278E+06    -53.0380E+06    -145.171E+06    -59.1585E+06    -139.050E+06    -30.4278E+06    -1.98595E+06         59.3219
            1962     4.76532E-03     196.421E-03     45.1473E-03    -8.48212E-03    -18.0943E-03    -5.27985E-03     33.0656E-03    -9.21485E-03    -11.6109E-03     476.007E-03    -230.741E-03    -245.129E-03    -225.523E-03     456.402E-03    -230.741E-03     232.723E-03    -12.8452E+06    -51.6140E+06    -127.309E+06    -58.0503E+06    -120.873E+06    -12.8452E+06     4.16025E+06         60.3488
            1963     5.56467E-03     196.498E-03     43.3155E-03    -8.57574E-03    -19.3488E-03    -11.0569E-03     35.7563E-03    -9.30846E-03    -1.40675E-03     484.888E-03    -230.033E-03    -254.964E-03    -229.604E-03     459.528E-03    -230.033E-03     267.967E-03     4.56534E+06    -43.3158E+06    -119.873E+06    -63.3258E+06    -99.8630E+06     4.56534E+06     12.2874E+06         61.7184
            1964     6.36695E-03     196.601E-03     36.4667E-03    -8.59250E-03    -17.6613E-03    -11.1643E-03     31.1632E-03    -9.78600E-03    -12.5581E-03     498.073E-03    -229.958E-03    -268.192E-03    -238.119E-03     468.000E-03    -229.958E-03     297.009E-03     24.5001E+06    -29.3373E+06    -109.020E+06    -63.5721E+06    -74.7854E+06     24.5001E+06     17.1806E+06         63.4487
            1965     7.15443E-03     196.956E-03     37.7452E-03    -8.99636E-03    -16.0599E-03    -11.9503E-03     34.8291E-03    -10.1899E-03    -8.94149E-03     517.832E-03    -231.027E-03    -286.741E-03    -253.802E-03     484.892E-03    -231.027E-03     318.713E-03     47.2176E+06    -6.83102E+06    -96.9623E+06    -59.9361E+06    -43.8572E+06     47.2176E+06     27.9385E+06         65.5864
            1966     7.92980E-03     197.201E-03     47.4688E-03    -10.7186E-03    -20.1024E-03    -17.0819E-03     44.5166E-03    -10.7869E-03    -7.37149E-03     542.948E-03    -233.620E-03    -309.163E-03    -275.900E-03     509.684E-03    -233.620E-03     329.777E-03     66.1386E+06     22.5455E+06    -87.8926E+06    -56.5431E+06    -8.80401E+06     66.1386E+06     30.0124E+06         68.2519
            1967     8.69706E-03     197.359E-03     44.2226E-03    -11.4754E-03    -21.5710E-03    -18.5649E-03     41.2847E-03    -11.5436E-03     20.8103E-03     569.337E-03    -237.370E-03    -331.572E-03    -300.218E-03     537.982E-03    -237.370E-03     329.278E-03     86.7823E+06     54.4670E+06    -69.1148E+06    -48.3768E+06     35.4258E+06     85.0855E+06     16.7096E+06         71.4240
            1968     9.45263E-03     197.414E-03     45.9161E-03    -12.0146E-03    -24.5165E-03    -15.2084E-03     36.6080E-03    -12.0146E-03    -11.4910E-03     597.935E-03    -242.355E-03    -355.822E-03    -328.248E-03     570.362E-03    -242.355E-03     318.234E-03     102.475E+06     83.0687E+06    -52.9441E+06    -41.2457E+06     75.5458E+06     98.2991E+06     21.0299E+06         74.7946
            1969     10.1480E-03     197.915E-03     46.7277E-03    -12.0402E-03    -21.3350E-03    -10.7228E-03     36.1154E-03    -12.0402E-03    -42.6846E-03     628.940E-03    -248.685E-03    -380.395E-03    -357.604E-03     606.150E-03    -248.685E-03     298.712E-03     103.329E+06     90.1135E+06    -41.2531E+06    -32.1918E+06     83.5309E+06     100.850E+06     20.2190E+06         78.3474
            1970     10.8653E-03     198.059E-03     42.2185E-03    -11.7469E-03    -20.4910E-03    -8.01660E-03     29.7441E-03    -11.7469E-03     9.55503E-03     660.647E-03    -256.723E-03    -404.007E-03    -384.017E-03     640.657E-03    -256.723E-03     287.754E-03     114.803E+06     102.487E+06    -31.9089E+06    -22.1686E+06     97.8163E+06     109.734E+06     19.3954E+06         82.3186
            1971     11.5245E-03     198.712E-03     43.6433E-03    -10.1934E-03    -25.6345E-03    -7.71014E-03     26.8290E-03    -11.3034E-03     581.408E-06     691.072E-03    -265.473E-03    -425.974E-03    -409.910E-03     675.007E-03    -265.473E-03     262.586E-03     123.070E+06     98.4342E+06    -17.6088E+06    -11.4855E+06     97.3803E+06     118.001E+06     18.0809E+06         86.8101
            1972     12.1898E-03     198.996E-03     42.1034E-03    -9.24504E-03    -21.2656E-03    -10.0521E-03     32.4551E-03    -10.8102E-03    -21.1563E-03     717.675E-03    -273.619E-03    -443.743E-03    -427.398E-03     701.330E-03    -273.619E-03     271.386E-03     131.517E+06     93.5632E+06    -11.1727E+06    -5.46468E+06     88.7524E+06     130.620E+06     8.44654E+06         91.5318
            1973     12.8481E-03     199.537E-03     35.3090E-03    -8.89255E-03    -13.1882E-03    -7.58502E-03     31.0704E-03    -10.2572E-03     11.7547E-03     720.875E-03    -281.565E-03    -439.034E-03    -426.427E-03     708.268E-03    -281.565E-03     228.887E-03     134.132E+06     64.9124E+06    -34.7113E+06    -6.98077E+06     38.0791E+06     133.235E+06     7.96664E+06         95.4863
            1974     808.982E-06     197.647E-03     77.4452E-03    -4.00325E-03    -51.7366E-03    -655.818E-06     32.0283E-03    -9.66715E-03    -89.9150E-03     412.117E-03    -205.007E-03    -207.116E-03    -204.415E-03     411.068E-03    -206.659E-03     46.1155E-03    -64.2840E+06    -86.9786E+06    -191.595E+06    -77.0528E+06    -189.231E+06    -76.5737E+06    -3.23994E+06         52.5834
            1975     1.62909E-03     197.648E-03     58.1975E-03    -6.46217E-03    -27.5033E-03    -8.83861E-03     39.5328E-03    -6.46217E-03    -42.1997E-03     409.247E-03    -204.137E-03    -205.098E-03    -201.245E-03     406.007E-03    -204.749E-03     85.8753E-03    -67.1459E+06    -75.7062E+06    -183.358E+06    -74.7055E+06    -181.022E+06    -70.4825E+06    -5.78738E+06         52.7435
            1976     2.44952E-03     197.692E-03     49.4072E-03    -5.85398E-03    -26.3106E-03    -5.43637E-03     29.6236E-03    -6.94464E-03    -12.5448E-03     407.839E-03    -202.640E-03    -205.246E-03    -198.069E-03     400.878E-03    -202.856E-03     127.355E-03    -66.8433E+06    -73.7205E+06    -169.816E+06    -74.8256E+06    -167.868E+06    -67.6860E+06    -3.81892E+06         53.1011
            1977     3.26904E-03     197.781E-03     32.6168E-03    -6.14366E-03    -22.0065E-03    -11.1225E-03     22.8234E-03    -7.23433E-03     12.1073E-03     410.108E-03    -201.269E-03    -208.915E-03    -196.822E-03     398.015E-03    -201.269E-03     169.207E-03    -60.1487E+06    -73.6363E+06    -164.097E+06    -78.7607E+06    -158.706E+06    -60.4152E+06     2.26894E+06         53.8048
            1978     4.09582E-03     197.910E-03     40.4628E-03    -9.07755E-03    -28.2843E-03    -23.7090E-03     35.8875E-03    -9.07755E-03    -23.6407E-03     417.497E-03    -200.324E-03    -217.105E-03    -199.020E-03     399.412E-03    -200.324E-03     209.757E-03    -47.9125E+06    -76.5070E+06    -163.594E+06    -84.9253E+06    -155.176E+06    -47.9125E+06     11.5226E+06         54.9190
            1979     4.91501E-03     198.116E-03     46.7768E-03    -10.3742E-03    -29.9368E-03    -19.9496E-03     37.5224E-03    -11.1069E-03     13.1465E-03     430.894E-03    -200.140E-03    -230.761E-03    -206.503E-03     406.636E-03    -200.140E-03     247.910E-03    -27.0115E+06    -67.3656E+06    -156.416E+06    -90.8535E+06    -132.929E+06    -27.0115E+06     24.4459E+06         56.5085
            1980     5.73462E-03     198.275E-03     45.9730E-03    -10.4239E-03    -21.5788E-03    -9.39722E-03     34.9403E-03    -11.5728E-03     3.07408E-03     450.821E-03    -201.045E-03    -249.756E-03    -220.465E-03     421.530E-03    -201.045E-03     280.267E-03    -2.23463E+06    -51.1508E+06    -148.129E+06    -87.5825E+06    -111.698E+06    -2.23463E+06     27.0424E+06         58.6364
            1981     6.53884E-03     198.416E-03     44.9196E-03    -9.53552E-03    -17.6363E-03    -7.33206E-03     36.2249E-03    -11.1452E-03    -3.44652E-03     477.479E-03    -203.576E-03    -273.980E-03    -241.703E-03     445.202E-03    -203.576E-03     304.676E-03     19.9998E+06    -30.3927E+06    -132.370E+06    -81.9550E+06    -80.8079E+06     19.9998E+06     28.5378E+06         61.2825
            1982     7.33293E-03     198.503E-03     46.4882E-03    -9.96668E-03    -21.4383E-03    -15.6119E-03     41.8553E-03    -11.1602E-03     15.7162E-03     509.994E-03    -207.612E-03    -302.274E-03    -269.360E-03     477.080E-03    -207.612E-03     320.079E-03     43.0743E+06     536.431E+03    -112.446E+06    -73.9719E+06    -37.9373E+06     43.0743E+06     35.6963E+06         64.3889
            1983     8.10831E-03     198.669E-03     46.7220E-03    -11.5719E-03    -19.4065E-03    -15.7180E-03     43.1017E-03    -11.6401E-03    -6.77049E-03     548.893E-03    -213.452E-03    -334.243E-03    -303.573E-03     518.223E-03    -213.452E-03     322.679E-03     65.2423E+06     26.3269E+06    -87.6535E+06    -59.8217E+06    -820.230E+03     64.5576E+06     28.1594E+06         68.0382
            1984     8.82618E-03     199.207E-03     36.0453E-03    -8.46199E-03    -14.0658E-03    -6.95978E-03     32.1389E-03    -11.6616E-03     2.94486E-03     592.070E-03    -221.499E-03    -369.297E-03    -342.525E-03     565.298E-03    -221.499E-03     315.407E-03     87.2324E+06     64.4764E+06    -64.7171E+06    -49.4909E+06     51.6317E+06     84.8508E+06     23.1599E+06         72.2250
            1985     9.54932E-03     199.365E-03     32.2627E-03    -6.62280E-03    -15.7074E-03    -7.94632E-03     29.0505E-03    -11.1716E-03    -3.79942E-03     629.928E-03    -230.762E-03    -399.040E-03    -376.218E-03     607.106E-03    -230.762E-03     301.866E-03     94.1178E+06     83.3941E+06    -44.1149E+06    -38.4700E+06     80.3171E+06     91.5499E+06     20.8925E+06         76.5522
            1986     10.2500E-03     199.730E-03     37.7957E-03    -9.23998E-03    -16.3854E-03    -11.5581E-03     34.3858E-03    -10.6574E-03    -17.8926E-03     665.382E-03    -240.638E-03    -424.456E-03    -405.959E-03     646.885E-03    -240.638E-03     279.436E-03     100.020E+06     86.5195E+06    -35.9410E+06    -30.4423E+06     88.7463E+06     92.2949E+06     23.6841E+06         80.7180
            1987     10.9084E-03     200.092E-03     45.3487E-03    -10.0754E-03    -18.2516E-03    -9.44832E-03     36.5454E-03    -10.0754E-03    -1.78439E-03     701.167E-03    -252.116E-03    -448.868E-03    -433.326E-03     685.625E-03    -252.116E-03     264.544E-03     109.635E+06     90.0834E+06     -29.126E+06    -24.6231E+06     97.5043E+06     97.7117E+06     17.7627E+06         84.7786
            1988     11.5324E-03     200.670E-03     44.8112E-03    -6.96308E-03    -14.8280E-03    -2.98914E-03     35.2411E-03    -9.23185E-03     6.27625E-03     723.733E-03    -263.537E-03    -460.585E-03    -447.768E-03     710.916E-03    -263.537E-03     243.897E-03     117.105E+06     78.6632E+06    -20.5765E+06    -18.1259E+06     90.0385E+06     103.279E+06     9.50080E+06         88.9732
            1989     12.1904E-03     201.031E-03     41.0597E-03    -4.10418E-03    -10.5755E-03    -3.98906E-03     38.6841E-03    -8.31500E-03    -2.21258E-03     734.119E-03    -273.243E-03    -460.815E-03    -446.115E-03     719.418E-03    -273.243E-03     260.846E-03     126.937E+06     83.4276E+06    -19.1815E+06    -13.9936E+06     87.8934E+06     117.283E+06     16.4174E+06         93.3457
            1990     12.8441E-03     201.538E-03     50.6336E-03    -5.83642E-03    -18.9029E-03    -14.5844E-03     48.2571E-03    -7.77846E-03     12.6295E-03     725.002E-03    -281.719E-03    -443.148E-03    -431.056E-03     712.910E-03    -281.719E-03     227.140E-03     132.573E+06     72.8077E+06    -23.3211E+06    -3.74292E+06     54.1267E+06     131.675E+06     13.0116E+06         97.1164
            1991     846.962E-06     199.169E-03     42.4656E-03     8.03738E-03    -45.4875E-03    -20.0165E-03     16.9946E-03     8.03738E-03    -34.8645E-03     336.230E-03    -166.668E-03    -169.593E-03    -166.331E-03     334.727E-03    -168.427E-03     51.0192E-03    -73.7115E+06    -99.4812E+06    -177.915E+06    -84.4902E+06    -174.114E+06    -92.5033E+06    -6.24977E+06         47.9353
            1992     1.68900E-03     199.211E-03     57.2080E-03    -9.11699E-03    -41.6586E-03    -21.6180E-03     37.1674E-03    -9.11699E-03    -41.7016E-03     339.030E-03    -167.462E-03    -171.539E-03    -166.996E-03     334.564E-03    -167.539E-03     91.7546E-03    -93.2997E+06     -103.42E+06    -183.875E+06    -96.4936E+06    -182.477E+06    -101.623E+06    -450.653E+03         48.3860
            1993     2.53675E-03     199.274E-03     55.1978E-03    -10.9417E-03    -34.4766E-03    -9.82882E-03     31.6408E-03    -12.0324E-03    -38.3995E-03     343.758E-03    -167.147E-03    -176.640E-03    -167.471E-03     334.589E-03    -167.147E-03     134.503E-03     -95.656E+06    -106.068E+06    -191.117E+06    -108.456E+06    -180.115E+06    -104.271E+06     12.3456E+06         49.1488
            1994     3.38795E-03     199.340E-03     41.1979E-03    -10.2513E-03    -21.2557E-03    -5.60976E-03     26.6427E-03    -11.3419E-03    -11.0043E-03     354.188E-03    -167.291E-03    -186.981E-03    -172.048E-03     339.255E-03    -167.291E-03     176.014E-03    -89.7703E+06    -108.656E+06    -194.710E+06    -120.009E+06    -179.008E+06    -94.1195E+06     22.5048E+06         50.3433
            1995     4.22942E-03     199.442E-03     39.5224E-03    -7.75479E-03    -27.8328E-03    -12.0153E-03     27.0684E-03    -11.1183E-03    -32.1357E-03     371.661E-03    -168.489E-03    -203.007E-03    -182.166E-03     350.820E-03    -168.489E-03     214.323E-03    -70.9070E+06    -102.675E+06    -195.495E+06    -127.238E+06    -170.933E+06    -70.9070E+06     28.5618E+06         52.0186
            1996     5.06967E-03     199.516E-03     44.6062E-03    -8.30359E-03    -27.2969E-03    -14.5239E-03     35.1966E-03    -11.6671E-03     10.7114E-03     395.626E-03    -170.948E-03    -224.667E-03    -198.814E-03     369.773E-03    -170.948E-03     247.831E-03    -41.3108E+06    -79.0158E+06    -184.883E+06    -118.512E+06    -145.387E+06    -41.3108E+06     32.4289E+06         54.2254
            1997     5.89312E-03     199.613E-03     55.7754E-03    -11.6233E-03    -25.9502E-03    -10.6066E-03     40.8479E-03    -12.0395E-03    -17.4294E-03     427.709E-03    -174.809E-03    -252.950E-03    -223.821E-03     398.580E-03    -174.809E-03     275.491E-03    -13.6666E+06    -57.3026E+06    -166.273E+06    -105.529E+06    -118.047E+06    -13.6666E+06     29.3545E+06         56.9947
            1998     6.70194E-03     199.790E-03     56.9268E-03    -11.4454E-03    -26.0832E-03    -4.75529E-03     36.0150E-03    -11.8616E-03     4.35649E-03     467.836E-03    -180.691E-03    -287.149E-03    -256.739E-03     437.426E-03    -180.691E-03     296.670E-03     12.3150E+06    -31.6218E+06    -138.749E+06    -93.9207E+06    -76.4504E+06     12.3150E+06     32.5535E+06         60.3040
            1999     7.47226E-03     200.204E-03     52.2528E-03    -11.4143E-03    -26.9435E-03    -6.47250E-03     31.7819E-03    -11.4143E-03     21.4218E-03     514.192E-03    -188.597E-03    -325.366E-03    -295.964E-03     484.789E-03    -188.597E-03     307.918E-03     34.9124E+06    -7.34925E+06    -105.720E+06    -79.5162E+06    -33.5529E+06     34.9124E+06     28.1403E+06         64.1631
            2000     8.22234E-03     200.489E-03     44.9934E-03    -10.8069E-03    -24.6815E-03    -6.22064E-03     26.5325E-03    -10.8069E-03    -8.53685E-03     564.164E-03    -198.175E-03    -364.299E-03    -337.758E-03     537.624E-03    -198.175E-03     308.280E-03     55.5493E+06     23.0281E+06    -81.8938E+06    -67.1790E+06     8.99797E+06     54.8646E+06     22.5720E+06         68.6066
            2001     8.95157E-03     200.783E-03     40.5790E-03    -6.46592E-03    -18.5371E-03    -1.33721E-03     26.5105E-03    -9.59732E-03     23.5786E-03     614.728E-03    -209.933E-03    -403.008E-03    -380.367E-03     592.086E-03    -209.933E-03     298.706E-03     77.5520E+06     58.2710E+06    -63.6874E+06    -55.2541E+06     56.3075E+06     71.0821E+06     20.0610E+06         73.4215
            2002     9.61979E-03     201.333E-03     34.3044E-03    -3.55034E-03    -15.3119E-03    -3.98101E-03     27.5224E-03    -8.09916E-03     4.00754E-03     661.264E-03    -222.962E-03    -438.142E-03    -419.682E-03     642.805E-03    -222.962E-03     280.956E-03     97.7416E+06     75.7560E+06    -51.9809E+06    -49.5080E+06     92.8063E+06     78.2184E+06     16.6242E+06         78.2050
            2003     10.2878E-03     201.698E-03     45.3624E-03    -5.65052E-03    -28.8084E-03    -11.2766E-03     29.2481E-03    -7.06794E-03     20.4604E-03     699.945E-03    -235.955E-03    -464.284E-03    -449.417E-03     685.078E-03    -235.955E-03     260.419E-03     102.557E+06     81.1535E+06    -44.0827E+06    -41.3925E+06     99.8670E+06     81.1535E+06     13.3911E+06         82.6943
            2004     10.9243E-03     202.120E-03     55.0679E-03    -6.58561E-03    -34.8669E-03    -19.3848E-03     39.5858E-03    -6.58561E-03     16.8600E-03     729.785E-03    -249.665E-03    -480.697E-03    -467.292E-03     716.379E-03    -249.665E-03     253.319E-03     95.7313E+06     75.4806E+06    -34.0370E+06    -31.8108E+06     85.9587E+06     83.0269E+06     8.51272E+06         86.7998
            2005     11.5505E-03     202.689E-03     43.4885E-03    -5.20649E-03    -24.6062E-03    -16.8920E-03     36.9330E-03    -6.36527E-03    -24.2174E-03     741.286E-03    -262.720E-03    -479.352E-03    -467.130E-03     729.064E-03    -262.720E-03     242.728E-03     107.670E+06     79.4669E+06    -30.6341E+06    -27.3045E+06     89.9325E+06     93.8745E+06     12.9980E+06         90.7903
            2006     12.1912E-03     203.027E-03     34.2932E-03    -3.08515E-03    -18.2579E-03    -7.70873E-03     26.8448E-03    -6.18597E-03     2.73817E-03     739.695E-03    -273.318E-03    -466.565E-03    -451.711E-03     724.840E-03    -273.318E-03     263.496E-03     118.056E+06     83.1893E+06    -24.0947E+06    -20.7750E+06     88.6260E+06     109.299E+06     10.2765E+06         94.8356
            2007     12.8373E-03     203.591E-03     41.8296E-03    -4.30522E-03    -27.2524E-03    -14.3618E-03     30.8810E-03    -6.24726E-03     42.0544E-03     723.646E-03    -281.901E-03    -441.809E-03    -429.388E-03     711.225E-03    -281.901E-03     231.338E-03     124.208E+06     81.8841E+06    -28.1986E+06    -13.3059E+06     66.9913E+06     124.208E+06     5.75525E+06         98.2351
            2008     879.898E-06     200.471E-03     48.3579E-03     4.01872E-03    -33.8022E-03     3.30918E-03     34.2951E-03    -19.0299E-03     8.33738E-03     258.514E-03    -127.607E-03    -130.929E-03    -128.444E-03     256.553E-03    -128.131E-03     50.9194E-03    -119.183E+06    -138.810E+06    -205.967E+06    -144.281E+06    -181.581E+06    -138.098E+06     11.7183E+06         45.2426
            2009     1.76097E-03     200.513E-03     47.1953E-03    -7.50788E-03    -28.8665E-03    -14.3252E-03     34.1389E-03    -8.99285E-03    -37.8635E-03     270.111E-03    -129.788E-03    -140.301E-03    -134.632E-03     264.443E-03    -129.788E-03     93.3509E-03    -145.324E+06    -158.178E+06    -216.595E+06    -165.821E+06    -196.098E+06    -158.178E+06     18.6762E+06         45.9169
            2010     2.63533E-03     200.552E-03     72.8744E-03    -11.3557E-03    -43.1551E-03    -18.7891E-03     48.5085E-03    -11.3557E-03     7.77107E-03     286.273E-03    -132.279E-03    -154.040E-03    -143.190E-03     275.423E-03    -132.279E-03     135.365E-03    -139.170E+06    -158.075E+06    -233.823E+06    -172.387E+06    -206.755E+06    -151.926E+06     24.2416E+06         47.0228
            2011     3.49892E-03     200.587E-03     76.4681E-03    -13.4443E-03    -46.8677E-03    -22.9002E-03     52.5006E-03    -13.4443E-03     8.77287E-03     308.369E-03    -135.839E-03    -172.526E-03    -156.102E-03     291.945E-03    -135.839E-03     174.216E-03    -117.736E+06    -137.709E+06    -227.441E+06    -162.524E+06    -198.543E+06    -121.819E+06     31.4865E+06         48.6293
            2012     4.35815E-03     200.636E-03     54.5548E-03    -10.7598E-03    -37.3396E-03    -12.3866E-03     32.9653E-03    -14.1233E-03    -25.8192E-03     337.627E-03    -140.545E-03    -196.986E-03    -175.538E-03     316.179E-03    -140.545E-03     209.728E-03    -84.6317E+06    -108.814E+06    -214.994E+06    -146.812E+06    -176.997E+06    -84.6317E+06     34.0665E+06         50.7659
            2013     5.19635E-03     200.726E-03     43.0415E-03    -9.64899E-03    -29.6767E-03    -5.03640E-03     21.7647E-03    -13.0125E-03     33.8495E-03     373.977E-03    -146.622E-03    -227.179E-03    -202.091E-03     348.888E-03    -146.622E-03     240.419E-03    -54.8975E+06    -88.0442E+06    -196.032E+06    -132.674E+06    -151.402E+06    -54.8975E+06     27.3702E+06         53.4408
            2014     6.01910E-03     200.979E-03     54.3042E-03    -12.2033E-03    -35.4520E-03    -14.7624E-03     33.6146E-03    -12.2033E-03    -19.6372E-03     417.676E-03    -154.506E-03    -263.352E-03    -236.353E-03     390.678E-03    -154.506E-03     265.578E-03    -28.4535E+06    -66.6572E+06    -166.270E+06    -119.577E+06    -113.350E+06    -28.4535E+06     26.0582E+06         56.6299
            2015     6.80517E-03     201.423E-03     60.6057E-03    -11.8135E-03    -40.7135E-03    -9.02223E-03     28.9144E-03    -11.8135E-03     13.4905E-03     468.832E-03    -164.211E-03    -305.006E-03    -278.333E-03     442.160E-03    -164.211E-03     281.504E-03    -4.75207E+06    -49.8964E+06    -132.078E+06    -103.755E+06    -78.2196E+06    -4.75207E+06     20.4404E+06         60.3166
            2016     7.57796E-03     201.675E-03     55.1409E-03    -10.2150E-03    -31.1101E-03     7.82497E-03     16.2058E-03    -10.2150E-03     16.3599E-03     523.906E-03    -175.866E-03    -348.289E-03    -324.005E-03     499.621E-03    -175.866E-03     285.716E-03     19.1383E+06    -16.1109E+06    -102.669E+06    -89.9395E+06    -28.8407E+06     19.1383E+06     16.8139E+06         64.5854
            2017     8.29998E-03     202.190E-03     40.3842E-03    -7.78354E-03    -22.4174E-03     7.85338E-03     10.1134E-03    -7.78354E-03    -6.81913E-03     580.230E-03    -189.132E-03    -390.131E-03    -369.275E-03     559.374E-03    -189.132E-03     279.639E-03     40.3930E+06     19.0152E+06    -82.8451E+06    -77.0040E+06     14.6009E+06     38.9662E+06     14.6666E+06         69.4083
            2018     8.99855E-03     202.651E-03     37.8118E-03    -5.64576E-03    -24.3864E-03     4.23007E-03     9.19538E-03    -5.64576E-03     57.4456E-03     633.865E-03    -203.892E-03    -428.548E-03    -411.412E-03     616.729E-03    -203.892E-03     265.606E-03     73.2574E+06     44.5260E+06    -72.7991E+06    -70.1324E+06     60.2421E+06     54.8747E+06     14.2716E+06         74.4294
            2019     9.65302E-03     203.229E-03     38.4915E-03    -4.20174E-03    -22.7489E-03    -1.15429E-03     16.8969E-03    -4.20174E-03     9.46729E-03     681.606E-03    -219.530E-03    -461.962E-03    -448.084E-03     667.728E-03    -219.530E-03     248.787E-03     97.8666E+06     64.0017E+06    -64.4274E+06    -61.9548E+06     95.3940E+06     64.0017E+06     13.3021E+06         79.2537
            2020     10.3062E-03     203.668E-03     38.6809E-03    -3.73536E-03    -32.4058E-03    -11.5272E-03     17.8023E-03    -3.73536E-03     20.1484E-03     716.790E-03    -234.774E-03    -482.465E-03    -470.411E-03     704.736E-03    -234.774E-03     238.526E-03     100.458E+06     70.0591E+06    -51.6426E+06    -50.5232E+06     99.3390E+06     70.0591E+06    -936.966E+03         83.6606
            2021     10.9365E-03     204.155E-03     36.5247E-03    -3.98144E-03    -36.9160E-03    -15.9002E-03     15.5089E-03    -3.98144E-03     43.1091E-03     735.081E-03    -249.607E-03    -486.434E-03    -474.257E-03     722.904E-03    -249.607E-03     242.415E-03     100.279E+06     78.1392E+06    -43.5368E+06    -41.7430E+06     94.8744E+06     81.7500E+06    -491.597E+03         87.5639
            2022     11.5423E-03     204.783E-03     36.8107E-03    -4.55928E-03    -38.2161E-03    -20.8710E-03     19.4656E-03    -4.55928E-03    -36.0638E-03     739.169E-03    -263.083E-03    -477.106E-03    -465.197E-03     727.260E-03    -263.083E-03     239.406E-03     96.0481E+06     69.6351E+06    -33.8332E+06    -31.4807E+06     72.3214E+06     91.0094E+06    -3.32751E+06         91.2339
            2023     12.1827E-03     205.225E-03     38.7461E-03    -5.15503E-03    -35.0766E-03    -15.9463E-03     19.6158E-03    -5.15503E-03    -13.5369E-03     735.292E-03    -274.150E-03    -461.707E-03    -446.872E-03     720.457E-03    -274.150E-03     262.544E-03     108.235E+06     72.9255E+06    -19.1731E+06    -16.7749E+06     70.5273E+06     108.235E+06    -4.18519E+06         94.7561
            2024     12.8222E-03     205.792E-03     34.7668E-03    -5.44829E-03    -30.9034E-03    -9.96886E-03     13.8323E-03    -5.44829E-03     60.5850E-03     716.402E-03    -282.652E-03    -434.195E-03    -421.528E-03     703.735E-03    -282.652E-03     233.900E-03     127.433E+06     88.2214E+06    -16.1705E+06    -915.542E+03     72.9664E+06     127.433E+06    -206.214E+03         97.5426
            2025     913.754E-06     201.592E-03     62.1822E-03     6.36201E-03    -39.7520E-03     2.66425E-03     42.8145E-03    -16.6866E-03    -2.88960E-03     194.985E-03    -95.2225E-03    -99.8060E-03    -97.6331E-03     192.911E-03    -95.3209E-03     46.3876E-03    -177.176E+06    -204.755E+06    -276.291E+06    -223.882E+06    -230.296E+06    -204.043E+06     39.5758E+06         44.3204
            2026     1.82012E-03     201.609E-03     40.4510E-03    -3.65318E-03    -12.5749E-03     4.21256E-03     25.1485E-03    -5.13815E-03    -23.5703E-03     214.056E-03    -99.1199E-03    -114.953E-03    -109.111E-03     208.214E-03    -99.1199E-03     85.4264E-03    -166.973E+06    -181.599E+06    -261.693E+06    -211.575E+06    -217.091E+06    -181.599E+06     39.7084E+06         45.0983
            2027     2.71205E-03     201.646E-03     49.9942E-03    -3.37281E-03    -25.5432E-03    -8.29992E-03     32.7509E-03    -3.37281E-03     38.6691E-03     241.039E-03    -104.312E-03    -136.656E-03    -125.645E-03     230.028E-03    -104.312E-03     126.491E-03    -158.945E+06    -171.723E+06    -255.648E+06    -205.512E+06    -215.229E+06    -165.574E+06     29.0770E+06         46.3966
            2028     3.59242E-03     201.691E-03     58.4394E-03    -5.62825E-03    -39.8946E-03    -23.0100E-03     41.5547E-03    -5.62825E-03     18.5642E-03     275.118E-03    -111.152E-03    -163.974E-03    -147.718E-03     258.861E-03    -111.152E-03     165.679E-03    -141.333E+06    -157.721E+06    -244.460E+06    -193.988E+06    -206.609E+06    -142.918E+06     21.0122E+06         48.2470
            2029     4.45053E-03     201.841E-03     52.4074E-03    -8.26010E-03    -40.2588E-03    -28.8658E-03     41.0144E-03    -8.26010E-03    -755.377E-06     316.198E-03    -119.533E-03    -196.868E-03    -176.277E-03     295.606E-03    -119.533E-03     201.385E-03    -110.650E+06    -130.266E+06    -228.548E+06    -172.443E+06    -184.962E+06    -112.059E+06     16.0349E+06         50.6434
            2030     5.29086E-03     202.141E-03     47.3846E-03    -9.08081E-03    -41.5459E-03    -18.2415E-03     24.0802E-03    -9.08081E-03     66.6144E-03     364.956E-03    -129.393E-03    -235.698E-03    -212.417E-03     341.676E-03    -129.393E-03     231.697E-03    -76.6322E+06    -100.689E+06    -198.836E+06    -150.676E+06    -147.441E+06    -78.0412E+06     12.8614E+06         53.5540
            2031     6.09586E-03     202.507E-03     42.7435E-03    -8.51875E-03    -35.6991E-03    -17.0214E-03     24.0657E-03    -8.51875E-03     33.2004E-03     420.364E-03    -141.104E-03    -279.389E-03    -255.787E-03     396.762E-03    -141.104E-03     251.887E-03    -47.7051E+06    -78.6883E+06    -163.328E+06    -130.764E+06    -111.253E+06    -47.7051E+06     8.81600E+06         56.9550
            2032     6.88091E-03     202.822E-03     45.8060E-03    -7.61584E-03    -31.5250E-03    -16.2206E-03     30.5016E-03    -7.61584E-03     23.4855E-03     480.210E-03    -154.764E-03    -326.081E-03    -304.571E-03     458.699E-03    -154.764E-03     258.347E-03    -21.1112E+06    -59.5214E+06    -130.013E+06    -112.658E+06    -76.8770E+06    -21.1112E+06     5.18289E+06         60.8481
            2033     7.61234E-03     203.365E-03     46.5638E-03    -5.93433E-03    -25.0554E-03    -1.38731E-03     22.8957E-03    -5.93433E-03     5.84237E-03     538.298E-03    -170.257E-03    -369.144E-03    -351.075E-03     520.229E-03    -170.257E-03     251.263E-03     2.13350E+06    -31.0865E+06    -99.7355E+06    -93.9644E+06    -36.8576E+06     2.13350E+06     3.95489E+06         65.2923
            2034     8.32981E-03     203.805E-03     38.3500E-03    -3.59703E-03    -14.1670E-03     2.08425E-03     22.4720E-03    -3.97027E-03    -15.8433E-03     593.846E-03    -186.917E-03    -407.454E-03    -393.011E-03     579.403E-03    -186.917E-03     236.024E-03     30.8729E+06     12.4356E+06    -84.7156E+06    -83.6261E+06     17.0865E+06     25.1325E+06     7.86418E+06         70.1110
            2035     8.98919E-03     204.497E-03     37.6971E-03    -2.55169E-03    -21.0988E-03    -3.13825E-03     20.1098E-03    -2.92493E-03     27.7521E-03     645.727E-03    -204.192E-03    -441.458E-03    -430.051E-03     634.320E-03    -204.192E-03     219.247E-03     64.1278E+06     43.3404E+06    -71.7075E+06    -69.9618E+06     58.5059E+06     47.2166E+06     12.7294E+06         74.8533
            2036     9.64513E-03     205.021E-03     33.2075E-03    -2.96410E-03    -23.7981E-03    -5.67026E-03     15.0796E-03    -2.96410E-03     1.72853E-03     685.127E-03    -221.503E-03    -463.407E-03    -453.808E-03     675.528E-03    -221.503E-03     207.849E-03     96.7688E+06     57.7437E+06    -54.9390E+06    -53.3327E+06     91.2862E+06     61.6199E+06     6.98826E+06         79.1202
            2037     10.2630E-03     205.771E-03     24.4808E-03    -2.38552E-03    -13.3982E-03    -5.36018E-03     17.6106E-03    -3.55344E-03    -7.74121E-03     708.896E-03    -237.678E-03    -470.946E-03    -461.606E-03     699.556E-03    -237.678E-03     208.837E-03     115.016E+06     76.3743E+06    -44.6194E+06    -43.4236E+06     113.821E+06     76.3743E+06     5.54876E+06         82.7184
            2038     10.8904E-03     206.370E-03     21.6349E-03    -2.54970E-03    -11.8626E-03    -3.46510E-03     14.7311E-03    -4.04343E-03     17.4040E-03     720.149E-03    -252.442E-03    -467.993E-03    -457.349E-03     709.504E-03    -252.442E-03     223.620E-03     114.382E+06     93.5394E+06    -31.8583E+06    -31.0506E+06     109.963E+06     97.1502E+06     367.636E+03         85.7711
            2039     11.5173E-03     207.029E-03     25.5138E-03    -2.64567E-03    -21.9979E-03    -4.71925E-03     9.77757E-03    -4.18802E-03    -14.7497E-03     722.802E-03    -265.297E-03    -458.004E-03    -446.768E-03     711.567E-03    -265.297E-03     229.225E-03     113.971E+06     91.2982E+06    -22.0714E+06    -20.6550E+06     92.4493E+06     111.403E+06    -3.72775E+06         88.7421
            2040     12.1509E-03     207.547E-03     27.4490E-03    -2.78017E-03    -22.3040E-03    -5.20242E-03     11.5640E-03    -3.99672E-03    -7.11361E-03     719.263E-03    -275.873E-03    -443.880E-03    -430.351E-03     705.735E-03    -275.873E-03     247.903E-03     118.628E+06     70.1721E+06    -21.7539E+06    -19.0321E+06     67.4502E+06     118.628E+06    -9.41658E+06         91.7206
            2041     12.8065E-03     208.039E-03     21.3727E-03    -3.65532E-03    -18.0358E-03    -3.45273E-03     6.78964E-03    -3.65532E-03     36.7826E-03     699.463E-03    -283.651E-03    -416.509E-03    -405.450E-03     688.404E-03    -283.651E-03     214.921E-03     130.346E+06     67.6205E+06    -33.8628E+06    -18.6924E+06     52.4501E+06     130.346E+06    -9.68976E+06         94.1422
            2042     931.787E-06     202.663E-03     57.3241E-03    -4.72701E-03    -42.7008E-03    -7.66330E-03     22.2866E-03    -4.72701E-03    -66.6249E-03     161.970E-03    -78.4841E-03    -83.5765E-03    -81.3673E-03     160.573E-03    -79.2959E-03     33.2774E-03    -243.845E+06    -336.783E+06    -381.492E+06    -336.401E+06    -279.899E+06    -345.820E+06     11.2050E+06         44.5906
            2043     1.85102E-03     202.686E-03     39.5893E-03    -3.97613E-03    -20.8193E-03     3.41193E-03     15.6464E-03    -4.26441E-03    -41.9035E-03     180.788E-03    -82.6689E-03    -98.1796E-03    -93.7849E-03     176.393E-03    -82.6689E-03     67.6607E-03    -198.545E+06    -253.030E+06    -327.822E+06    -287.242E+06    -230.088E+06    -262.066E+06     19.7387E+06         45.4010
            2044     2.76207E-03     202.740E-03     25.0964E-03    -876.477E-06    -9.26641E-03     8.57069E-03     7.54761E-03    -1.16475E-03     10.3719E-03     211.169E-03    -88.8460E-03    -122.228E-03    -113.296E-03     202.237E-03    -88.8460E-03     106.775E-03    -168.387E+06    -204.826E+06    -281.951E+06    -243.518E+06    -210.333E+06    -201.312E+06     14.4662E+06         46.8046
            2045     3.64703E-03     202.917E-03     29.1526E-03     279.399E-06    -16.3383E-03    -255.785E-06     13.0700E-03     279.399E-06     5.90638E-03     253.183E-03    -97.3340E-03    -155.934E-03    -142.093E-03     239.342E-03    -97.3340E-03     147.604E-03    -155.976E+06    -173.611E+06    -246.984E+06    -209.802E+06    -205.176E+06    -161.593E+06     1.21378E+06         48.7827
            2046     4.51001E-03     203.207E-03     43.6710E-03    -1.65254E-03    -41.6593E-03    -23.1480E-03     25.1597E-03    -1.65254E-03    -36.7172E-03     305.448E-03    -108.249E-03    -197.254E-03    -179.652E-03     287.846E-03    -108.249E-03     184.393E-03    -121.639E+06    -136.017E+06    -230.492E+06    -178.614E+06    -182.021E+06    -127.512E+06    -10.4661E+06         51.2809
            2047     5.33568E-03     203.555E-03     53.2873E-03    -4.27446E-03    -49.1302E-03    -13.0097E-03     17.1667E-03    -4.27446E-03     8.54389E-03     365.014E-03    -121.263E-03    -243.856E-03    -224.965E-03     346.123E-03    -121.263E-03     209.934E-03    -91.6490E+06    -107.442E+06    -196.601E+06    -148.491E+06    -153.711E+06    -93.4905E+06    -9.08385E+06         54.2433
            2048     6.13819E-03     203.875E-03     42.4550E-03    -4.32072E-03    -29.2669E-03     3.20545E-03     9.98259E-03    -4.32072E-03     31.7255E-03     429.738E-03    -136.272E-03    -293.364E-03    -275.778E-03     412.153E-03    -136.272E-03     220.495E-03    -58.7883E+06    -81.7302E+06    -156.403E+06    -124.863E+06    -113.270E+06    -58.7883E+06    -6.41170E+06         57.6529
            2049     6.88483E-03     204.404E-03     37.8974E-03    -3.07490E-03    -23.6688E-03     3.69543E-03     10.5332E-03    -3.07490E-03     10.3712E-03     494.402E-03    -153.726E-03    -340.847E-03    -326.240E-03     479.795E-03    -153.726E-03     215.365E-03    -28.6427E+06    -61.1725E+06    -126.001E+06    -106.230E+06    -80.9441E+06    -28.6427E+06    -7.36340E+06         61.4787
            2050     7.60518E-03     204.918E-03     38.3654E-03    -2.32225E-03    -26.4126E-03    -2.48158E-03     14.4344E-03    -2.32225E-03    -7.15469E-03     553.616E-03    -172.864E-03    -381.378E-03    -370.309E-03     542.547E-03    -172.864E-03     197.993E-03    -3.59723E+06     -42.784E+06    -101.267E+06    -95.8171E+06    -48.2339E+06    -3.59723E+06    -5.54124E+06         65.7137
            2051     8.27279E-03     205.597E-03     31.2348E-03    -2.08683E-03    -16.6481E-03    -4.25097E-03     19.2109E-03    -2.46007E-03    -24.1135E-03     605.558E-03    -192.240E-03    -414.222E-03    -406.006E-03     597.343E-03    -192.240E-03     178.503E-03     24.4381E+06    -4.94103E+06    -85.0698E+06    -82.3575E+06    -3.33971E+06     20.1245E+06    -2.01988E+06         70.0810
            2052     8.93539E-03     206.192E-03     26.9032E-03    -2.82413E-03    -12.7128E-03    -4.67270E-03     19.2363E-03    -3.19738E-03    -2.93578E-03     645.734E-03    -211.230E-03    -435.273E-03    -428.881E-03     639.342E-03    -211.230E-03     162.690E-03     48.6430E+06     28.0877E+06    -69.5620E+06    -66.3992E+06     32.1857E+06     41.3823E+06    -7.13500E+06         73.9413
            2053     9.55801E-03     206.995E-03     24.8552E-03    -4.05969E-03    -15.7324E-03    -8.01542E-03     17.1382E-03    -4.05969E-03    -564.830E-06     669.795E-03    -229.261E-03    -440.308E-03    -434.523E-03     664.011E-03    -229.261E-03     158.000E-03     86.0513E+06     54.4226E+06    -57.7532E+06    -55.4762E+06     75.0288E+06     63.1681E+06    -4.79974E+06         76.9320
            2054     10.1928E-03     207.719E-03     24.5688E-03    -3.33484E-03    -11.2318E-03    -6.03063E-03     20.5356E-03    -4.50275E-03     14.2929E-03     679.882E-03    -245.065E-03    -435.108E-03    -428.850E-03     673.623E-03    -245.065E-03     164.573E-03     109.929E+06     78.9041E+06    -46.3408E+06    -43.2374E+06     101.956E+06     83.7733E+06    -3.57042E+06         79.2177
            2055     10.8417E-03     208.376E-03     26.0135E-03    -2.79193E-03    -11.1558E-03    -559.563E-06     16.9110E-03    -4.28565E-03    -6.47523E-03     683.703E-03    -258.400E-03    -426.000E-03    -418.729E-03     676.433E-03    -258.400E-03     176.104E-03     119.505E+06     106.987E+06    -35.0712E+06    -33.6848E+06     114.387E+06     110.718E+06    -4.17065E+06         81.2510
            2056     11.4834E-03     209.038E-03     20.7016E-03    -1.29084E-03    -6.70415E-03     6.27154E-03     9.99675E-03    -3.56169E-03    -10.7413E-03     685.414E-03    -269.545E-03    -416.302E-03    -408.334E-03     677.446E-03    -269.545E-03     184.348E-03     130.102E+06     110.748E+06    -30.3711E+06    -27.5919E+06     110.536E+06     127.534E+06    -6.85609E+06         83.6387
            2057     12.1406E-03     209.543E-03     17.9872E-03    -993.750E-06    -6.36467E-03     1.43489E-03     12.1326E-03    -2.93879E-03    -3.14869E-03     682.823E-03    -278.268E-03    -405.014E-03    -395.340E-03     673.148E-03    -278.268E-03     201.668E-03     139.713E+06     89.1831E+06    -20.9464E+06    -15.6116E+06     83.8483E+06     139.713E+06    -5.87148E+06         86.3856
            2058     12.8078E-03     210.040E-03     17.3448E-03     674.686E-06    -7.39886E-03     972.733E-06     12.3414E-03    -2.69344E-03    -6.70519E-03     666.803E-03    -284.528E-03    -382.799E-03    -375.104E-03     659.107E-03    -284.528E-03     173.048E-03     162.327E+06     82.6759E+06    -40.5862E+06    -2.66838E+06     44.7581E+06     162.327E+06    -3.33877E+06         88.7695
            2059     922.172E-06     203.770E-03     60.7950E-03    -9.19702E-03    -35.3366E-03    -5.58195E-03     31.0403E-03    -9.19702E-03    -69.9051E-03     172.772E-03    -84.9345E-03    -87.8885E-03    -86.3995E-03     172.331E-03    -85.9823E-03     12.8218E-03    -251.478E+06    -385.206E+06    -416.390E+06    -396.154E+06    -262.677E+06    -394.243E+06    -37.4062E+06         45.9457
            2060     1.84909E-03     203.784E-03     43.9152E-03    -7.39339E-03    -27.0096E-03    -7.80976E-03     25.2804E-03    -7.95844E-03    -49.0616E-03     181.346E-03    -86.8370E-03    -94.6146E-03    -92.6831E-03     179.650E-03    -87.0730E-03     34.7827E-03    -207.925E+06    -338.271E+06    -381.153E+06    -357.017E+06    -223.024E+06    -347.308E+06    -38.3248E+06         46.7207
            2061     2.75511E-03     203.933E-03     27.0817E-03    -3.06540E-03    -8.61472E-03     14.2511E-03     6.14208E-03    -4.99157E-03    -15.1288E-03     205.540E-03    -92.4094E-03    -113.208E-03    -109.203E-03     201.535E-03    -92.4094E-03     62.8972E-03    -170.224E+06    -280.141E+06    -336.850E+06    -305.786E+06    -204.801E+06    -276.627E+06    -41.9591E+06         48.1503
            2062     3.64946E-03     204.194E-03     22.6999E-03    -595.699E-06    -13.6811E-03     4.45202E-03     5.92792E-03    -1.95683E-03     17.5507E-03     244.684E-03    -101.100E-03    -143.643E-03    -136.690E-03     237.731E-03    -101.100E-03     95.0216E-03    -146.057E+06    -230.682E+06    -299.173E+06    -257.529E+06    -191.215E+06    -227.168E+06    -53.4489E+06         50.1174
            2063     4.50045E-03     204.551E-03     40.1928E-03    -2.61227E-03    -36.7151E-03    -7.90023E-03     11.3780E-03    -2.61227E-03    -42.2562E-03     298.589E-03    -112.817E-03    -185.793E-03    -176.634E-03     289.430E-03    -112.817E-03     123.722E-03    -114.010E+06    -196.160E+06    -287.029E+06    -221.195E+06    -179.843E+06    -196.160E+06    -64.2305E+06         52.5282
            2064     5.32448E-03     204.870E-03     57.2326E-03    -3.25428E-03    -53.3043E-03    -6.36864E-03     10.2969E-03    -3.25428E-03    -3.76517E-03     364.327E-03    -127.403E-03    -236.797E-03    -227.304E-03     354.833E-03    -127.403E-03     140.511E-03    -95.1480E+06    -171.975E+06    -272.849E+06    -196.119E+06    -175.552E+06    -168.300E+06    -67.0906E+06         55.3283
            2065     6.09397E-03     205.347E-03     39.2625E-03    -2.51416E-03    -37.6600E-03    -525.625E-06     2.12816E-03    -2.51416E-03     30.9814E-03     432.406E-03    -145.233E-03    -286.917E-03    -278.850E-03     424.338E-03    -145.233E-03     139.101E-03    -75.6463E+06    -150.303E+06    -239.888E+06    -174.141E+06    -152.729E+06    -138.967E+06    -64.6693E+06         58.4608
            2066     6.82521E-03     205.874E-03     31.7434E-03    -1.80826E-03    -33.1446E-03    -1.55015E-03     149.035E-06    -1.80826E-03     11.3504E-03     494.393E-03    -165.865E-03    -328.566E-03    -322.772E-03     488.598E-03    -165.865E-03     121.215E-03    -48.1831E+06    -126.082E+06    -223.915E+06    -157.180E+06    -131.230E+06    -109.770E+06    -68.3558E+06         61.7747
            2067     7.49804E-03     206.615E-03     32.2791E-03    -1.97245E-03    -31.6512E-03    -6.42950E-03     7.05740E-03    -1.97245E-03     11.9622E-03     549.424E-03    -187.257E-03    -362.258E-03    -358.414E-03     545.580E-03    -187.257E-03     96.6493E-03    -18.3832E+06    -94.0343E+06    -196.447E+06    -138.303E+06    -96.0920E+06    -74.4697E+06    -66.8989E+06         65.1014
            2068     8.17615E-03     207.173E-03     28.7222E-03    -2.89661E-03    -28.0754E-03    -16.8824E-03     17.5292E-03    -2.89661E-03    -5.53126E-03     591.188E-03    -208.316E-03    -383.216E-03    -380.552E-03     588.525E-03    -208.316E-03     76.8194E-03     362.599E+03    -64.5052E+06    -175.137E+06    -117.144E+06    -77.9628E+06    -44.1728E+06    -67.6349E+06         68.1487
            2069     8.78920E-03     208.057E-03     33.9985E-03    -3.98033E-03    -28.4244E-03    -16.8282E-03     22.4023E-03    -3.98033E-03    -6.34908E-03     614.462E-03    -228.011E-03    -386.650E-03    -384.601E-03     612.413E-03    -228.011E-03     68.4582E-03     17.4220E+06    -17.7515E+06    -154.672E+06    -101.803E+06    -44.8649E+06    -8.33309E+06    -64.6744E+06         70.4807
            2070     9.42263E-03     208.810E-03     34.4390E-03    -4.16895E-03    -18.8734E-03    -4.06290E-03     19.6285E-03    -4.16895E-03     1.32074E-03     624.894E-03    -245.341E-03    -379.555E-03    -377.577E-03     622.916E-03    -245.341E-03     70.7260E-03     52.4462E+06     33.1368E+06    -124.048E+06    -83.2610E+06    -891.290E+03     45.6877E+06    -58.0675E+06         72.0766
            2071     10.0686E-03     209.543E-03     23.8407E-03    -3.64240E-03    -15.0510E-03    -6.23240E-03     15.0220E-03    -3.64240E-03     27.2422E-03     628.189E-03    -259.224E-03    -369.713E-03    -367.518E-03     625.994E-03    -259.224E-03     80.2914E-03     93.7646E+06     46.9173E+06    -89.2112E+06    -63.9291E+06     25.8693E+06     89.5304E+06    -45.6053E+06         73.3930
            2072     10.7172E-03     210.239E-03     19.4009E-03    -3.12948E-03    -14.2227E-03    -4.21790E-03     9.39605E-03    -3.12948E-03    -5.75383E-03     627.867E-03    -269.434E-03    -358.935E-03    -356.301E-03     625.234E-03    -269.434E-03     94.8014E-03     124.820E+06     63.7557E+06    -51.1468E+06    -41.7594E+06     58.6025E+06     120.585E+06    -22.8697E+06         74.9346
            2073     11.3886E-03     210.907E-03     27.2750E-03    -2.11193E-03    -11.7944E-03    -2.67035E-03     18.8795E-03    -2.84042E-03    -9.64817E-03     625.427E-03    -277.456E-03    -348.076E-03    -344.549E-03     621.900E-03    -277.456E-03     113.719E-03     155.963E+06     111.470E+06    -24.4847E+06    -18.5715E+06     105.556E+06     155.963E+06    -7.69974E+06         77.2131
            2074     12.0772E-03     211.468E-03     27.0470E-03    -1.25577E-03    -9.04554E-03    -2.98356E-03     22.5364E-03    -2.80709E-03    -13.3630E-03     621.143E-03    -283.084E-03    -338.153E-03    -332.400E-03     615.390E-03    -283.084E-03     145.746E-03     169.060E+06     104.224E+06    -19.5314E+06    -6.37322E+06     91.0657E+06     169.060E+06    -7.77282E+06         80.0384
            2075     12.7747E-03     211.966E-03     21.1636E-03     1.61524E-03    -7.81744E-03     3.99824E-03     13.5389E-03    -2.57572E-03    -18.9165E-03     613.037E-03    -286.498E-03    -326.478E-03    -321.079E-03     607.638E-03    -286.498E-03     139.545E-03     176.888E+06     73.4320E+06    -41.2631E+06     1.43710E+06     30.7319E+06     176.888E+06    -2.92211E+06         82.4314
            2076     895.692E-06     204.945E-03     64.2692E-03     18.5057E-03    -68.6025E-03    -6.89366E-03     2.56031E-03     18.5057E-03     27.7983E-03     244.542E-03    -120.055E-03    -124.440E-03    -119.740E-03     243.749E-03    -123.961E-03    -25.1503E-03    -173.282E+06    -298.290E+06    -323.768E+06    -311.631E+06    -185.419E+06    -298.290E+06    -33.5136E+06         48.7958
            2077     1.78813E-03     205.016E-03     43.1292E-03    -1.04643E-03    -39.4234E-03    -24.7734E-03     28.7559E-03    -1.32320E-03    -42.2054E-03     238.957E-03    -116.944E-03    -122.034E-03    -116.578E-03     237.588E-03    -121.031E-03    -25.7956E-03    -151.804E+06    -295.946E+06    -336.202E+06    -310.634E+06    -177.372E+06    -295.946E+06    -63.2622E+06         49.3961
            2078     2.68024E-03     205.226E-03     37.9801E-03    -4.49991E-03    -17.7113E-03    -1.20974E-03     23.1165E-03    -6.13781E-03    -34.0208E-03     252.990E-03    -122.489E-03    -130.513E-03    -125.685E-03     250.778E-03    -125.105E-03    -22.7900E-03    -120.968E+06    -270.340E+06    -331.586E+06    -290.417E+06    -162.137E+06    -270.340E+06    -81.0061E+06         50.6969
            2079     3.53308E-03     205.515E-03     22.5848E-03    -3.09276E-03    -13.5386E-03     2.18844E-03     8.21893E-03    -4.45389E-03     24.4067E-03     282.886E-03    -133.674E-03    -149.191E-03    -145.146E-03     278.869E-03    -133.704E-03    -25.4862E-03    -99.9083E+06    -249.000E+06    -324.607E+06    -267.193E+06    -157.322E+06    -249.000E+06    -96.0733E+06         52.4721
            2080     4.37515E-03     205.805E-03     27.9935E-03    -2.34332E-03    -18.5420E-03     4.97737E-03     4.47421E-03    -2.34332E-03     6.59020E-03     322.341E-03    -145.924E-03    -176.541E-03    -170.261E-03     316.062E-03    -145.924E-03    -32.0142E-03    -89.7305E+06    -233.321E+06    -319.182E+06    -251.023E+06    -157.889E+06    -233.321E+06    -102.838E+06         54.5954
            2081     5.17716E-03     206.220E-03     41.6719E-03    -191.329E-06    -30.7839E-03     1.71131E-03     9.17674E-03    -191.329E-06    -2.78127E-03     369.017E-03    -159.523E-03    -209.465E-03    -198.402E-03     360.580E-03    -162.149E-03    -42.1377E-03    -77.8041E+06    -213.677E+06    -317.204E+06    -230.982E+06    -164.027E+06    -213.677E+06    -112.220E+06         56.9647
            2082     5.91973E-03     206.761E-03     37.7139E-03     884.886E-06    -37.6498E-03    -9.95394E-03     10.0181E-03     884.886E-06     19.9597E-03     414.905E-03    -171.844E-03    -243.005E-03    -222.407E-03     404.718E-03    -182.255E-03    -61.2074E-03    -59.9791E+06    -190.905E+06    -313.223E+06    -203.246E+06    -169.956E+06    -190.905E+06    -121.691E+06         59.3811
            2083     6.60371E-03     207.459E-03     29.8516E-03     171.875E-06    -32.2463E-03    -24.1912E-03     21.7964E-03     171.875E-06     22.0341E-03     457.774E-03    -185.998E-03    -272.142E-03    -243.020E-03     446.759E-03    -204.105E-03    -84.2315E-03    -49.8380E+06    -161.789E+06    -285.787E+06    -178.613E+06    -157.012E+06    -161.789E+06    -114.964E+06         61.6507
            2084     7.27867E-03     208.073E-03     27.1717E-03    -1.19501E-03    -21.5498E-03    -17.8032E-03     23.4251E-03    -1.19501E-03     9.02114E-03     493.103E-03    -196.194E-03    -297.232E-03    -256.306E-03     481.825E-03    -225.842E-03    -103.460E-03    -27.8535E+06    -123.375E+06    -261.047E+06    -154.243E+06    -134.657E+06    -123.375E+06    -115.512E+06         63.5284
            2085     7.88747E-03     208.949E-03     36.1547E-03    -2.19519E-03    -23.3048E-03    -19.2083E-03     32.0582E-03    -2.19519E-03     17.2799E-03     510.024E-03    -197.070E-03    -313.169E-03    -251.877E-03     498.486E-03    -246.824E-03    -113.861E-03    -9.91052E+06    -80.9102E+06    -239.029E+06    -131.273E+06    -117.666E+06    -80.9102E+06    -114.027E+06         64.8171
            2086     8.51770E-03     209.709E-03     46.1516E-03    -2.64496E-03    -34.3445E-03    -15.7102E-03     27.5173E-03    -2.64496E-03    -6.01284E-03     514.207E-03    -196.311E-03    -317.802E-03    -239.288E-03     503.863E-03    -264.481E-03    -106.328E-03    -2.17054E+06    -36.3988E+06    -210.419E+06    -106.843E+06    -105.747E+06    -36.3988E+06    -102.962E+06         65.6702
            2087     9.16841E-03     210.482E-03     33.0197E-03    -2.23115E-03    -28.1799E-03    -8.52454E-03     13.3644E-03    -2.23115E-03    -9.43738E-03     514.924E-03    -197.086E-03    -317.944E-03    -230.472E-03     507.815E-03    -277.449E-03    -82.5526E-03     29.1372E+06     8.97884E+06    -173.326E+06    -88.0533E+06    -67.7199E+06     20.5635E+06    -92.0305E+06         66.4004
            2088     9.82799E-03     211.227E-03     17.5924E-03    -1.82978E-03    -16.6205E-03    -10.3899E-03     11.3618E-03    -1.82978E-03     11.7911E-03     516.330E-03    -200.456E-03    -316.144E-03    -226.647E-03     512.559E-03    -286.182E-03    -48.5987E-03     69.3377E+06     22.3634E+06    -138.604E+06    -70.2728E+06    -45.9679E+06     69.3377E+06    -76.3124E+06         67.2978
            2089     10.5206E-03     211.943E-03     12.0848E-03    -2.03001E-03    -12.4422E-03    -10.4887E-03     10.1313E-03    -2.03001E-03    -2.56621E-03     520.463E-03    -207.860E-03    -312.537E-03    -227.862E-03     518.928E-03    -291.000E-03    -5.09768E-03     92.4754E+06     20.1372E+06    -105.967E+06    -50.9285E+06    -34.9010E+06     92.4754E+06    -58.2257E+06         68.6264
            2090     11.2323E-03     212.566E-03     22.3585E-03    -2.36620E-03    -18.7628E-03    -9.33073E-03     12.9265E-03    -2.36620E-03     11.8728E-03     523.655E-03    -217.477E-03    -306.079E-03    -229.265E-03     522.459E-03    -293.096E-03     43.4564E-03     139.371E+06     70.9359E+06    -71.1555E+06    -34.4534E+06     34.2338E+06     139.371E+06    -36.9979E+06         70.6818
            2091     11.9738E-03     213.147E-03     21.6570E-03    -1.34876E-03    -14.3662E-03    -726.620E-06     8.84026E-03    -2.17159E-03    -808.771E-06     524.425E-03    -225.430E-03    -298.820E-03    -227.772E-03     520.761E-03    -292.814E-03     99.4470E-03     179.263E+06     96.9441E+06    -63.0436E+06    -28.8297E+06     62.7302E+06     179.263E+06    -10.7298E+06         73.2366
            2092     12.7449E-03     213.691E-03     17.2054E-03    -114.316E-06    -6.91414E-03     4.55651E-03     7.11692E-03    -1.49649E-03    -20.6336E-03     531.084E-03    -237.544E-03    -293.373E-03    -234.487E-03     525.508E-03    -290.855E-03     128.724E-03     192.974E+06     70.8952E+06    -57.9378E+06    -21.5419E+06     34.4994E+06     192.974E+06     2.83665E+06         75.4021
            2093     826.181E-06     206.488E-03     65.4108E-03     16.3319E-03    -86.5761E-03     11.9569E-03    -19.3833E-03     2.59290E-03     82.1035E-03     390.616E-03    -184.332E-03    -206.081E-03    -200.393E-03     388.600E-03    -188.003E-03    -54.9224E-03    -84.2075E+06    -185.469E+06    -202.092E+06    -193.836E+06    -92.4632E+06    -185.469E+06    -21.6371E+06         52.9799
            2094     1.66930E-03     206.476E-03     27.3413E-03     4.81661E-03    -39.9505E-03    -14.5992E-03     1.98993E-03     4.81661E-03    -22.7534E-03     404.167E-03    -193.481E-03    -210.575E-03    -197.485E-03     394.927E-03    -197.332E-03    -136.866E-03    -69.6287E+06    -184.290E+06    -216.464E+06    -195.974E+06    -90.1188E+06    -184.290E+06    -47.4425E+06         53.4185
            2095     2.49154E-03     206.616E-03     32.9629E-03     1.19659E-03    -14.2196E-03     677.658E-06     18.0657E-03     1.19659E-03    -18.1685E-03     424.791E-03    -205.018E-03    -219.384E-03    -191.457E-03     399.479E-03    -207.634E-03    -227.735E-03    -56.1312E+06    -177.837E+06    -230.225E+06    -191.539E+06    -94.8174E+06    -177.837E+06    -69.1833E+06         54.4959
            2096     3.29632E-03     206.825E-03     23.4139E-03     1.77820E-03    -13.1856E-03     1.58802E-03     7.26593E-03     3.15257E-03     5.16184E-03     442.901E-03    -216.756E-03    -225.752E-03    -176.216E-03     397.196E-03    -220.586E-03    -306.121E-03    -50.9648E+06    -163.832E+06    -232.068E+06    -184.427E+06    -98.6060E+06    -163.832E+06    -78.0949E+06         55.9739
            2097     4.06596E-03     207.105E-03     22.8907E-03     2.55307E-03    -23.2236E-03    -6.62560E-03     4.91828E-03     3.92744E-03     25.0518E-03     457.025E-03    -217.947E-03    -239.142E-03    -156.146E-03     392.081E-03    -235.998E-03    -360.689E-03    -42.5584E+06    -142.860E+06    -228.352E+06    -169.971E+06    -100.940E+06    -142.860E+06    -84.3543E+06         57.6900
            2098     4.76441E-03     207.608E-03     37.1955E-03     3.54589E-03    -20.1593E-03    -1.16846E-03     18.2047E-03     3.54589E-03     4.73881E-03     465.349E-03    -209.677E-03    -255.707E-03    -129.273E-03     383.427E-03    -254.189E-03    -395.271E-03    -28.4764E+06    -121.585E+06    -221.296E+06    -150.398E+06    -99.3745E+06    -121.585E+06    -91.1399E+06         59.4947
            2099     5.43727E-03     208.169E-03     47.7905E-03     3.24206E-03    -24.8472E-03     670.307E-06     22.2730E-03     3.24206E-03    -16.8071E-03     467.043E-03    -193.765E-03    -273.400E-03    -100.795E-03     374.073E-03    -273.400E-03    -408.759E-03    -17.3309E+06    -102.000E+06    -216.505E+06    -130.966E+06    -102.870E+06    -102.000E+06    -94.1064E+06         61.0554
            2100     6.07909E-03     208.807E-03     37.5664E-03     1.75812E-03    -27.3651E-03    -14.0757E-03     24.2770E-03     1.75812E-03     3.52007E-03     464.244E-03    -172.323E-03    -292.588E-03    -75.0083E-03     366.929E-03    -292.588E-03    -399.282E-03    -15.5967E+06    -76.0536E+06    -200.794E+06    -111.458E+06    -104.933E+06    -76.0536E+06    -88.6480E+06         62.1073
            2101     6.70609E-03     209.548E-03     32.2081E-03     2.30348E-03    -14.4513E-03    -10.0594E-03     30.3720E-03    -252.346E-06     8.24190E-03     453.702E-03    -143.284E-03    -310.627E-03    -51.1463E-03     361.564E-03    -310.627E-03    -368.780E-03    -488.546E+03    -53.0685E+06    -180.977E+06    -97.8002E+06    -96.4537E+06    -40.2797E+06    -82.5066E+06         62.6239
            2102     7.30846E-03     210.277E-03     31.0315E-03     1.73302E-03    -12.2668E-03    -4.85715E-03     26.1777E-03    -822.808E-06     20.5261E-03     434.960E-03    -109.342E-03    -325.177E-03    -31.8721E-03     357.490E-03    -325.177E-03    -327.404E-03     24.6722E+06    -31.4631E+06    -158.280E+06    -80.2772E+06    -83.0018E+06    -1.79212E+06    -76.1760E+06         62.7008
            2103     7.94605E-03     211.065E-03     26.8427E-03    -406.722E-06    -21.8676E-03    -4.83590E-03     9.81099E-03    -406.722E-06     11.5706E-03     414.383E-03    -79.5764E-03    -334.588E-03    -19.1563E-03     353.963E-03    -334.588E-03    -279.804E-03     45.0989E+06     2.07227E+06    -141.137E+06    -62.3313E+06    -65.3132E+06     33.6786E+06    -75.0784E+06         62.6667
            2104     8.62070E-03     211.834E-03     22.4726E-03     45.4628E-06    -22.4562E-03    -5.40607E-03     5.42246E-03     45.4628E-06    -11.5048E-03     394.430E-03    -56.3383E-03    -338.055E-03    -13.8345E-03     351.926E-03    -338.055E-03    -222.607E-03     60.5641E+06     3.51614E+06    -130.283E+06    -58.5992E+06    -63.4056E+06     55.8017E+06    -62.0124E+06         62.8918
            2105     9.35442E-03     212.576E-03     18.6550E-03    -270.348E-06    -19.6073E-03    -14.5405E-03     13.5883E-03    -270.348E-06    -7.42476E-03     376.642E-03    -40.1470E-03    -336.404E-03    -15.2329E-03     351.728E-03    -336.404E-03    -158.924E-03     82.9067E+06     21.9627E+06    -117.816E+06    -50.5677E+06    -45.2854E+06     82.9067E+06     -59.972E+06         63.5425
            2106     10.1197E-03     213.316E-03     12.6814E-03    -1.10336E-03    -18.6801E-03    -14.3349E-03     8.33626E-03    -1.10336E-03    -387.134E-06     363.514E-03    -32.1143E-03    -331.533E-03    -20.1949E-03     351.595E-03    -331.533E-03    -94.3663E-03     104.748E+06     22.1860E+06    -118.881E+06    -48.9811E+06    -47.7142E+06     104.748E+06    -55.4688E+06         64.5884
            2107     10.9288E-03     214.075E-03     11.8371E-03    -1.43879E-03    -20.1115E-03    -7.34619E-03    -928.181E-06    -1.43879E-03     12.3000E-03     357.434E-03    -33.8542E-03    -323.735E-03    -28.6459E-03     352.225E-03    -323.735E-03    -36.6522E-03     138.129E+06     34.0385E+06    -100.383E+06    -45.8499E+06    -20.4947E+06     138.129E+06    -50.3190E+06         65.9649
            2108     11.7775E-03     214.712E-03     16.4827E-03    -1.27102E-03    -19.4699E-03     2.56117E-03    -5.54829E-03    -1.27102E-03     1.31904E-03     367.677E-03    -53.5541E-03    -314.159E-03    -47.4844E-03     361.608E-03    -314.159E-03    -7.52280E-03     135.591E+06     66.0638E+06    -116.941E+06    -28.7438E+06    -22.1334E+06     135.591E+06    -10.4555E+06         67.5376
            2109     12.6490E-03     215.249E-03     20.9241E-03    -393.903E-06    -11.0357E-03     5.49602E-03     4.95176E-03    -953.243E-06    -15.6828E-03     356.309E-03    -53.7109E-03    -302.708E-03    -47.1964E-03     349.794E-03    -302.708E-03     30.6403E-03     156.261E+06     85.5435E+06    -93.7563E+06    -2.43718E+06     2.79238E+06     147.692E+06     8.75933E+06         69.1618


