********************************************************************************
Field Output Report, written Tue May  6 15:07:18 2025

Source 1
---------

   ODB: D:/AISI_1020/Vel_20/1020_2a_8_rd_1000_cal_0_v_20_f_025.odb
   Step: Step-1
   Frame: Increment   4892623: Step Time =   0.6639

Loc 1 : Nodal values from source 1

Output sorted by column "Node Label".

Field Output reported at nodes for region: DIE_2A_8_D0_36-1.Region_1
   Computation algorithm: EXTRAPOLATE_COMPUTE_AVERAGE
   Averaged at nodes
   Averaging regions: ODB_REGIONS

      Node Label     COORD.COOR1     COORD.COOR2
                          @Loc 1          @Loc 1
-------------------------------------------------
               1     17.3301E-03     191.484E-03


Field Output reported at nodes for region: DIE_2A_8_D0_36-1.Region_2
   Computation algorithm: EXTRAPOLATE_COMPUTE_AVERAGE
   Averaged at nodes
   Averaging regions: ODB_REGIONS

      Node Label     COORD.COOR1     COORD.COOR2
                          @Loc 1          @Loc 1
-------------------------------------------------
               1     17.3301E-03     191.484E-03


Field Output reported at nodes for part: WIRE_1-1
   Computation algorithm: EXTRAPOLATE_COMPUTE_AVERAGE
   Averaged at nodes
   Averaging regions: ODB_REGIONS

      Node Label     COORD.COOR1     COORD.COOR2    ER.Max. Prin    ER.Mid. Prin    ER.Min. Prin         ER.ER11         ER.ER22         ER.ER33         ER.ER12    PE.Max. Prin    PE.Mid. Prin    PE.Min. Prin         PE.PE11         PE.PE22         PE.PE33         PE.PE12     S.Max. Prin     S.Mid. Prin     S.Min. Prin           S.S11           S.S22           S.S33           S.S12            TEMP
                          @Loc 1          @Loc 1          @Loc 1          @Loc 1          @Loc 1          @Loc 1          @Loc 1          @Loc 1          @Loc 1          @Loc 1          @Loc 1          @Loc 1          @Loc 1          @Loc 1          @Loc 1          @Loc 1          @Loc 1          @Loc 1          @Loc 1          @Loc 1          @Loc 1          @Loc 1          @Loc 1          @Loc 1
-----------------------------------------------------------------------------------------------------------------------------------------------------------------------------------------------------------------------------------------------------------------------------------------------------------------------------------------------------------------------------------------------------------------
               1     16.2081E-03     68.0686E-03     253.338E-03     128.410E-03    -752.099E-03     252.357E-03    -751.119E-03     128.410E-03    -53.2792E-03     209.968E-03    -104.181E-03    -105.784E-03    -103.687E-03     209.474E-03    -105.784E-03     24.8977E-03     150.840E+06     146.056E+06    -4.40288E+06    -4.39754E+06     150.835E+06     146.056E+06    -908.871E+03         49.7659
               2    -129.350E-09     67.7101E-03         2.83413    -414.017E-03        -2.79158         2.80308    -382.965E-03        -2.79158     620.646E-03     211.533E-03    -105.523E-03    -106.013E-03    -105.786E-03     211.531E-03    -105.748E-03     1.40878E-03    -141.568E+06    -142.871E+06    -340.389E+06    -142.201E+06    -340.383E+06    -142.245E+06     161.962E+03         36.4164
               3     1.36873E-06     81.9564E-09     170.423E-03    -96.7901E-03    -592.644E-03    -100.928E-03    -588.506E-03     170.423E-03     90.2187E-03     287.593E-03    -143.462E-03    -144.152E-03    -144.151E-03     287.592E-03    -143.462E-03     1.23264E-03    -91.9425E+06    -96.0178E+06    -282.223E+06    -96.1108E+06    -282.130E+06    -91.9425E+06     4.16093E+06         42.3943
               4     16.1307E-03     81.9564E-09     347.186E-03     171.626E-03        -1.06790     347.169E-03        -1.06788     171.626E-03     9.92396E-03     232.638E-03    -108.435E-03    -124.167E-03    -121.805E-03     230.277E-03    -108.435E-03     57.8653E-03     138.922E+06     131.689E+06    -16.9668E+06    -15.1289E+06     129.851E+06     138.922E+06     16.4271E+06         50.9131
               5     16.2138E-03     136.213E-03     37.0972E-03    -7.45883E-03    -18.6447E-03     20.5134E-03    -2.06097E-03    -7.45883E-03    -50.9661E-03     193.156E-03    -88.2634E-03    -104.892E-03    -88.1603E-03     193.053E-03    -104.892E-03    -10.7732E-03    -1.54394E+06    -4.62749E+06    -92.1099E+06    -75.5037E+06    -18.1501E+06    -4.62749E+06     35.0455E+06         49.5947
               6     4.26935E-06     135.087E-03     123.846E-03     49.6031E-03    -200.475E-03     98.8211E-03     74.6284E-03    -200.475E-03     70.1909E-03     236.621E-03    -116.193E-03    -120.430E-03    -120.378E-03     236.569E-03    -116.193E-03    -8.63153E-03     86.7818E+06     81.2700E+06    -16.3662E+06     79.3580E+06    -14.4543E+06     86.7818E+06    -13.5286E+06         37.5922
               7     15.3071E-03     68.0389E-03     241.502E-03     124.757E-03    -735.179E-03     240.513E-03    -734.190E-03     124.757E-03     3.98242E-03     210.400E-03    -104.679E-03    -105.717E-03    -103.847E-03     209.569E-03    -105.717E-03     31.6318E-03     145.224E+06     129.635E+06    -8.12478E+06    -8.12082E+06     145.221E+06     129.635E+06    -580.772E+03         48.6080
               8     14.4058E-03     67.9936E-03     227.248E-03     117.398E-03    -710.980E-03     226.475E-03    -710.207E-03     117.398E-03     8.32571E-03     210.486E-03    -104.863E-03    -105.629E-03    -103.923E-03     209.546E-03    -105.629E-03     34.1306E-03     134.886E+06     106.227E+06    -16.0803E+06    -16.0771E+06     134.883E+06     106.227E+06    -82.9304E+03         45.9699
               9     13.5039E-03     67.9577E-03     208.797E-03     110.135E-03    -686.841E-03     208.408E-03    -686.452E-03     110.135E-03    -8.27463E-03     210.219E-03    -104.664E-03    -105.571E-03    -103.968E-03     209.523E-03    -105.571E-03     29.5726E-03     127.063E+06     90.9791E+06    -24.1203E+06    -24.1177E+06     127.060E+06     90.9791E+06    -165.544E+03         43.0857
              10     12.6033E-03     67.9225E-03     182.662E-03     103.507E-03    -655.500E-03     182.045E-03    -654.883E-03     103.507E-03    -5.37879E-03     210.586E-03    -104.999E-03    -105.549E-03    -104.397E-03     209.984E-03    -105.549E-03     27.4780E-03     95.0337E+06     66.1922E+06    -31.6011E+06    -31.5958E+06     86.8088E+06     74.4118E+06    -621.097E+03         40.6045
              11     11.7026E-03     67.8921E-03     170.532E-03     97.4180E-03    -637.246E-03     169.820E-03    -636.534E-03     97.4180E-03    -21.2912E-03     211.059E-03    -105.314E-03    -105.624E-03    -104.836E-03     210.581E-03    -105.624E-03     24.5326E-03     60.2615E+06     11.5380E+06    -38.7603E+06    -38.7397E+06     11.5173E+06     60.2615E+06    -253.623E+03         38.7949
              12     10.8025E-03     67.8641E-03     153.194E-03     91.6446E-03    -615.662E-03     152.767E-03    -615.235E-03     91.6446E-03    -3.33144E-03     211.075E-03    -105.344E-03    -105.672E-03    -104.943E-03     210.674E-03    -105.672E-03     22.4771E-03     50.5141E+06    -29.2809E+06    -45.8740E+06    -45.8428E+06    -29.3120E+06     50.5141E+06     370.512E+03         37.6971
              13     9.90234E-03     67.8375E-03     127.806E-03     86.8460E-03    -585.500E-03     127.582E-03    -585.276E-03     86.8460E-03    -3.35824E-03     210.865E-03    -105.114E-03    -105.709E-03    -104.782E-03     210.534E-03    -105.709E-03     20.4308E-03     39.9554E+06    -44.1667E+06    -63.3570E+06    -52.9382E+06    -54.5855E+06     39.9554E+06    -45.4860E+03         37.1814
              14     9.00112E-03     67.8150E-03     130.093E-03     82.2242E-03    -584.107E-03     130.084E-03    -584.098E-03     82.2242E-03    -2.98078E-03     210.619E-03    -104.866E-03    -105.767E-03    -104.601E-03     210.355E-03    -105.767E-03     18.2348E-03     26.5066E+06    -61.0971E+06    -86.6697E+06    -61.1694E+06    -86.5974E+06     26.5066E+06    -682.339E+03         36.9387
              15     8.10046E-03     67.7950E-03     134.853E-03     76.2479E-03    -584.174E-03     134.273E-03    -583.594E-03     76.2479E-03    -25.6924E-03     210.609E-03    -104.968E-03    -105.817E-03    -104.756E-03     210.397E-03    -105.817E-03     16.3309E-03     12.2354E+06    -71.2681E+06    -110.218E+06    -71.3324E+06    -110.154E+06     12.2354E+06     135.642E+03         36.8055
              16     7.20030E-03     67.7759E-03     114.324E-03     69.9786E-03    -556.183E-03     113.587E-03    -555.445E-03     69.9786E-03    -20.9506E-03     210.961E-03    -105.174E-03    -105.815E-03    -105.008E-03     210.795E-03    -105.815E-03     14.4390E-03    -3.63747E+06    -81.9289E+06    -145.893E+06    -81.9814E+06    -145.841E+06    -3.63747E+06     1.79753E+06         36.7175
              17     6.29978E-03     67.7593E-03     94.8690E-03     64.8620E-03    -529.848E-03     94.6470E-03    -529.626E-03     64.8620E-03     12.3989E-03     211.081E-03    -105.185E-03    -105.797E-03    -105.062E-03     210.959E-03    -105.797E-03     12.3813E-03    -20.0187E+06    -91.5175E+06    -177.942E+06    -91.6204E+06    -177.840E+06    -20.0187E+06     2.43112E+06         36.6319
              18     5.40021E-03     67.7456E-03     74.8672E-03     55.6725E-03    -499.864E-03     68.0549E-03    -499.385E-03     62.0057E-03    -11.0263E-03     210.995E-03    -105.175E-03    -105.803E-03    -105.087E-03     210.907E-03    -105.803E-03     10.4904E-03    -38.4483E+06    -100.228E+06    -197.394E+06    -100.316E+06    -197.306E+06    -38.4483E+06     2.22263E+06         36.5674
              19     4.49900E-03     67.7343E-03     64.3530E-03     52.7708E-03    -485.412E-03     54.4001E-03    -484.747E-03     62.0586E-03    -11.4598E-03     211.020E-03    -105.268E-03    -105.811E-03    -105.208E-03     210.960E-03    -105.811E-03     8.67304E-03    -61.4604E+06    -110.502E+06    -219.823E+06    -110.540E+06    -219.785E+06    -61.4604E+06     1.57975E+06         36.4991
              20     3.59937E-03     67.7252E-03     82.5044E-03     57.4593E-03    -507.688E-03     78.1956E-03    -506.334E-03     60.4138E-03    -28.2902E-03     211.375E-03    -105.545E-03    -105.906E-03    -105.509E-03     211.339E-03    -105.906E-03     6.64825E-03    -83.9434E+06    -120.850E+06    -256.056E+06    -120.868E+06    -256.038E+06    -83.9434E+06     340.347E+03         36.4413
              21     2.70002E-03     67.7189E-03     98.5954E-03     50.7207E-03    -517.022E-03     94.7024E-03    -513.129E-03     50.7207E-03     15.2602E-03     211.592E-03    -105.697E-03    -105.889E-03    -105.704E-03     211.573E-03    -105.864E-03     4.78886E-03    -104.297E+06    -128.918E+06    -285.908E+06    -128.925E+06    -285.901E+06    -104.297E+06     112.831E+03         36.4304
              22     1.79951E-03     67.7145E-03     90.2126E-03     32.8364E-03    -493.423E-03     74.7219E-03    -477.932E-03     32.8364E-03    -51.3929E-03     211.390E-03    -105.598E-03    -105.770E-03    -105.615E-03     211.382E-03    -105.744E-03     3.03387E-03    -123.257E+06    -135.205E+06    -300.015E+06    -135.209E+06    -300.011E+06    -123.257E+06     13.6226E+03         36.4275
              23     899.213E-06     67.7115E-03         1.45753    -195.840E-03        -1.63403         1.42930    -417.014E-03        -1.38462     207.093E-03     211.392E-03    -105.526E-03    -105.873E-03    -105.656E-03     211.389E-03    -105.741E-03     1.74348E-03    -136.673E+06    -140.358E+06    -323.725E+06    -140.024E+06    -323.721E+06    -137.011E+06    -229.097E+03         36.4182
              24    -251.817E-09     66.4749E-03         2.53854    -458.186E-03        -2.45113         2.51710    -436.743E-03        -2.45113     503.017E-03     211.530E-03    -105.466E-03    -106.065E-03    -105.463E-03     211.527E-03    -106.065E-03     1.76208E-03    -141.676E+06    -142.372E+06    -339.821E+06    -142.376E+06    -339.818E+06    -141.676E+06     485.242E+03         36.4183
              25    -411.327E-09     65.2429E-03         2.21941    -496.241E-03        -2.09780         2.20582    -482.660E-03        -2.09780     345.570E-03     212.013E-03    -105.763E-03    -106.258E-03    -105.882E-03     212.010E-03    -106.137E-03     1.23388E-03    -142.595E+06    -144.130E+06    -340.761E+06    -142.669E+06    -340.757E+06    -144.060E+06     542.550E+03         36.4185
              26     638.464E-09     64.0058E-03         1.90480    -464.604E-03        -1.81954         1.89826    -458.070E-03        -1.81954     231.661E-03     211.313E-03    -105.288E-03    -106.030E-03    -106.030E-03     211.313E-03    -105.288E-03     307.583E-06    -143.179E+06    -146.461E+06    -342.979E+06    -145.008E+06    -342.966E+06    -144.644E+06    -224.595E+03         36.4075
              27     522.375E-09     62.7746E-03         1.51470    -329.867E-03        -1.57280         1.50916    -324.328E-03        -1.57280     126.191E-03     210.946E-03    -104.997E-03    -105.943E-03    -105.940E-03     210.943E-03    -104.997E-03     1.64309E-03    -143.844E+06    -147.841E+06    -344.116E+06    -145.669E+06    -344.108E+06    -146.024E+06    -674.981E+03         36.3942
              28     36.9125E-09     61.5390E-03         1.14144    -247.661E-03        -1.28273         1.14085    -247.068E-03        -1.28273    -56.8989E-03     211.522E-03    -105.479E-03    -106.041E-03    -105.801E-03     211.519E-03    -105.717E-03     1.66877E-03    -144.874E+06    -149.978E+06    -344.919E+06    -147.799E+06    -344.918E+06    -147.054E+06      -130.4E+03         36.3868
              29    -406.737E-09     60.3046E-03     917.628E-03    -431.596E-03    -880.788E-03     910.425E-03    -424.393E-03    -880.788E-03    -168.050E-03     211.202E-03    -105.359E-03    -105.843E-03    -105.604E-03     211.200E-03    -105.596E-03     1.55916E-03    -145.445E+06    -151.232E+06    -346.396E+06    -148.376E+06    -346.389E+06    -148.308E+06    -1.09447E+06         36.3815
              30     832.569E-09     59.0720E-03     577.481E-03    -411.840E-03    -574.673E-03     555.540E-03    -516.150E-03    -448.423E-03    -293.378E-03     211.167E-03    -105.322E-03    -105.845E-03    -105.842E-03     211.164E-03    -105.322E-03     1.74857E-03    -146.576E+06    -151.127E+06    -347.627E+06    -148.289E+06    -347.603E+06    -149.439E+06     592.358E+03         36.3825
              31    -299.675E-09     57.8374E-03     301.003E-03    -131.476E-03    -567.221E-03     94.3772E-03    -360.596E-03    -131.476E-03    -602.135E-03     210.895E-03    -105.226E-03    -105.668E-03    -105.501E-03     210.894E-03    -105.393E-03     1.13157E-03    -147.187E+06    -150.376E+06    -348.158E+06    -148.922E+06    -348.111E+06    -148.687E+06    -309.823E+03         36.3911
              32     11.0611E-09     56.6061E-03     370.767E-03     10.2462E-03    -775.241E-03    -238.030E-03    -384.753E-03     228.555E-03    -916.006E-03     211.011E-03    -105.307E-03    -105.703E-03    -105.536E-03     211.010E-03    -105.473E-03     969.082E-06    -145.718E+06    -147.661E+06    -346.488E+06    -146.217E+06    -346.431E+06    -147.219E+06     34.6796E+03         36.4065
              33     421.787E-09     55.3713E-03     681.744E-03    -49.4288E-03        -1.05614    -515.649E-03    -589.916E-03     681.744E-03        -1.00025     212.150E-03    -105.877E-03    -106.270E-03    -106.268E-03     212.149E-03    -105.877E-03     1.19226E-03    -144.352E+06    -146.192E+06    -343.394E+06    -146.250E+06    -343.335E+06    -144.352E+06    -7.96675E+03         36.4253
              34    -92.5927E-09     54.1348E-03     968.851E-03    -100.838E-03        -1.29892    -836.838E-03    -562.919E-03     968.851E-03        -1.14096     211.898E-03    -105.773E-03    -106.122E-03    -106.121E-03     211.897E-03    -105.773E-03     918.054E-06    -146.764E+06    -151.092E+06    -347.169E+06    -148.206E+06    -347.124E+06    -149.694E+06    -470.267E+03         36.4331
              35     423.736E-09     52.9015E-03         1.21964    -134.668E-03        -1.53167        -1.08386    -582.478E-03         1.21964        -1.30228     211.078E-03    -105.409E-03    -105.674E-03    -105.594E-03     211.076E-03    -105.487E-03     1.08005E-03    -143.923E+06    -149.141E+06    -345.271E+06    -146.235E+06    -345.247E+06    -146.853E+06     2.18139E+06         36.4269
              36    -517.548E-09     51.6693E-03         1.54856    -277.942E-03        -1.72214        -1.24258    -757.501E-03         1.54856        -1.35998     211.273E-03    -105.598E-03    -105.688E-03    -105.608E-03     211.272E-03    -105.677E-03     873.280E-06    -136.942E+06    -140.466E+06    -337.907E+06    -139.239E+06    -337.898E+06    -138.179E+06     936.484E+03         36.4182
              37     570.194E-09     50.4331E-03         1.74901    -273.255E-03        -1.92882        -1.45255    -749.524E-03         1.74901        -1.49482     211.569E-03    -105.718E-03    -105.862E-03    -105.728E-03     211.567E-03    -105.850E-03     1.11220E-03    -137.796E+06    -139.644E+06    -338.542E+06    -138.420E+06    -338.529E+06    -139.032E+06    -1.14235E+06         36.4232
              38    -767.420E-09     49.2003E-03         1.92727    -290.895E-03        -2.08843        -1.59335    -785.974E-03         1.92727        -1.60491     212.063E-03    -105.823E-03    -106.245E-03    -105.821E-03     212.060E-03    -106.245E-03     1.26111E-03    -140.637E+06    -141.665E+06    -338.999E+06    -141.741E+06    -338.923E+06    -140.637E+06     1.34924E+06         36.4373
              39     275.558E-09     47.9640E-03         2.23056    -410.486E-03        -2.27313        -1.66685        -1.01677         2.23056        -1.74088     212.521E-03    -105.877E-03    -106.647E-03    -106.356E-03     212.520E-03    -106.167E-03     843.053E-06    -135.182E+06    -137.474E+06    -332.582E+06    -135.661E+06    -332.519E+06    -137.057E+06     2.42077E+06         36.4479
              40     601.424E-09     46.7280E-03         2.37476    -416.558E-03        -2.42668        -1.76841        -1.07483         2.37476        -1.88300     212.334E-03    -105.893E-03    -106.427E-03    -106.426E-03     212.332E-03    -105.893E-03     1.39397E-03    -133.765E+06    -138.648E+06    -331.941E+06    -136.818E+06    -331.894E+06    -135.641E+06    -2.17785E+06         36.4455
              41    -432.828E-09     45.4934E-03         2.43012    -465.361E-03        -2.43513        -1.80189        -1.09859         2.43012        -1.83761     211.370E-03    -105.620E-03    -105.739E-03    -105.674E-03     211.369E-03    -105.684E-03     455.233E-06    -137.011E+06    -143.407E+06    -340.176E+06    -140.084E+06    -340.110E+06    -140.400E+06    -3.54426E+06         36.4247
              42     306.959E-09     44.2619E-03         2.61396    -636.151E-03        -2.46464        -1.84112        -1.25967         2.61396        -1.73354     210.821E-03    -105.198E-03    -105.624E-03    -105.558E-03     210.820E-03    -105.262E-03     650.654E-06    -138.913E+06    -143.122E+06    -343.054E+06    -139.839E+06    -342.948E+06    -142.302E+06     1.50500E+06         36.4018
              43     384.595E-09     43.0262E-03         2.65640    -665.721E-03        -2.48669        -1.87838        -1.27403         2.65640        -1.71770     211.561E-03    -105.588E-03    -105.969E-03    -105.947E-03     211.558E-03    -105.608E-03     2.00987E-03    -139.562E+06    -141.289E+06    -340.601E+06    -141.414E+06    -340.476E+06    -139.562E+06     979.015E+03         36.4028
              44    -375.646E-09     41.7914E-03         2.72838    -731.471E-03        -2.50296        -1.83933        -1.39511         2.72838        -1.70600     212.054E-03    -106.004E-03    -106.060E-03    -106.039E-03     212.052E-03    -106.023E-03     1.21001E-03    -142.458E+06    -144.400E+06    -343.568E+06    -143.405E+06    -343.528E+06    -143.493E+06    -2.29026E+06         36.4165
              45     461.730E-09     40.5598E-03         2.84286    -916.218E-03        -2.45686        -1.79225        -1.58083         2.84286        -1.52598     212.246E-03    -106.043E-03    -106.219E-03    -106.217E-03     212.244E-03    -106.043E-03     1.01311E-03    -146.159E+06    -147.310E+06    -346.919E+06    -146.165E+06    -346.913E+06    -147.310E+06     394.273E+03         36.4117
              46    -187.068E-09     39.3186E-03         2.75294    -924.502E-03        -2.35020        -1.75226        -1.52243         2.75294        -1.40609     211.573E-03    -105.687E-03    -105.891E-03    -105.889E-03     211.570E-03    -105.687E-03     1.76340E-03    -144.549E+06    -145.380E+06    -344.755E+06    -145.272E+06    -344.746E+06    -144.666E+06     93.1257E+03         36.3955
              47     350.400E-09     38.0884E-03         2.73568        -1.03919        -2.22471        -1.65859        -1.60530         2.73568        -1.16429     210.745E-03    -105.319E-03    -105.431E-03    -105.427E-03     210.741E-03    -105.319E-03     2.19103E-03    -144.900E+06    -146.712E+06    -345.534E+06    -145.619E+06    -345.529E+06    -145.998E+06     -930.66E+03         36.3914
              48    -264.177E-09     36.8553E-03         2.77644        -1.20425        -2.08368        -1.55366        -1.73427         2.77644    -860.115E-03     211.166E-03    -105.396E-03    -105.777E-03    -105.440E-03     211.163E-03    -105.730E-03     1.26900E-03    -144.569E+06    -146.841E+06    -346.351E+06    -145.766E+06    -346.329E+06    -145.666E+06     1.17956E+06         36.3956
              49    -284.930E-09     35.6217E-03         2.71956        -1.30648        -1.90978        -1.49426        -1.72199         2.71956    -545.117E-03     211.755E-03    -105.673E-03    -106.079E-03    -105.742E-03     211.753E-03    -106.007E-03     1.06150E-03    -142.721E+06    -144.466E+06    -343.117E+06    -143.917E+06    -343.095E+06    -143.292E+06     1.49695E+06         36.4062
              50     449.367E-09     34.3859E-03         2.66112        -1.35727        -1.83038        -1.39802        -1.78963         2.66112    -129.802E-03     212.196E-03    -105.884E-03    -106.303E-03    -105.952E-03     212.192E-03    -106.231E-03     1.93928E-03    -143.465E+06    -144.447E+06    -342.275E+06    -143.921E+06    -342.231E+06    -144.036E+06    -2.07157E+06         36.4237
              51    -1.02061E-06     33.1501E-03         2.62822        -1.28818        -1.90048        -1.30010        -1.88856         2.62822     155.800E-03     211.842E-03    -105.674E-03    -106.166E-03    -105.817E-03     211.841E-03    -106.022E-03     966.750E-06    -145.063E+06    -146.213E+06    -345.018E+06    -145.532E+06    -344.960E+06    -145.802E+06    -917.966E+03         36.4267
              52     1.31116E-06     31.9176E-03         2.48596        -1.12873        -1.94446        -1.21486        -1.85833         2.48596     463.792E-03     211.838E-03    -105.474E-03    -106.363E-03    -106.360E-03     211.836E-03    -105.474E-03     1.45694E-03    -146.452E+06    -148.179E+06    -346.584E+06    -147.455E+06    -346.570E+06    -147.190E+06     1.24885E+06         36.4252
              53     68.5136E-09     30.6795E-03         2.33757    -897.575E-03        -2.00755        -1.07469        -1.83043         2.33757     812.925E-03     212.502E-03    -105.796E-03    -106.707E-03    -106.704E-03     212.498E-03    -105.796E-03     1.95605E-03    -143.455E+06    -146.803E+06    -344.414E+06    -144.448E+06    -344.410E+06    -145.814E+06     726.226E+03         36.4350
              54     236.114E-09     29.4463E-03         2.27362    -673.677E-03        -2.15628    -943.131E-03        -1.88682         2.27362         1.14060     212.378E-03    -105.867E-03    -106.521E-03    -106.520E-03     212.377E-03    -105.867E-03     824.876E-06    -139.897E+06    -146.161E+06    -342.475E+06    -143.810E+06    -342.467E+06    -142.256E+06     40.4268E+03         36.4354
              55     715.472E-09     28.2119E-03         2.17499    -517.211E-03        -2.20751    -782.362E-03        -1.94236         2.17499         1.21298     211.960E-03    -105.559E-03    -106.410E-03    -106.410E-03     211.960E-03    -105.559E-03     666.616E-06    -142.527E+06    -149.929E+06    -344.363E+06    -146.465E+06    -344.329E+06    -146.024E+06    -2.33004E+06         36.4149
              56    -76.5311E-09     26.9757E-03         2.04383    -369.437E-03        -2.20965    -652.034E-03        -1.92705         2.04383         1.31348     211.239E-03    -105.153E-03    -106.092E-03    -105.517E-03     211.238E-03    -105.727E-03     1.20344E-03    -146.697E+06    -151.392E+06    -347.226E+06    -147.924E+06    -347.197E+06    -150.194E+06    -1.76671E+06         36.3781
              57    -903.948E-09     25.7434E-03         1.87108    -283.486E-03        -2.12145    -649.345E-03        -1.75559         1.87108         1.46663     210.430E-03    -104.794E-03    -105.631E-03    -104.792E-03     210.428E-03    -105.631E-03     1.46892E-03    -150.122E+06    -152.382E+06    -349.788E+06    -151.328E+06    -349.779E+06    -151.184E+06     902.323E+03         36.3465
              58     462.019E-09     24.5089E-03         1.79703    -229.184E-03        -2.12499    -559.355E-03        -1.79482         1.79703         1.42759     210.286E-03    -104.884E-03    -105.391E-03    -105.126E-03     210.283E-03    -105.148E-03     1.73612E-03    -149.036E+06    -150.235E+06    -348.238E+06    -149.051E+06    -348.223E+06    -150.235E+06     1.71439E+06         36.3316
              59     19.5824E-09     23.2783E-03         1.71706    -57.4346E-03        -2.21892    -384.629E-03        -1.89173         1.71706         1.54863     210.523E-03    -104.975E-03    -105.545E-03    -105.217E-03     210.521E-03    -105.301E-03     1.47951E-03    -144.502E+06    -146.643E+06    -345.087E+06    -146.520E+06    -345.075E+06    -144.637E+06    -30.2253E+03         36.3162
              60    -529.436E-09     22.0450E-03         1.52649    -34.4382E-03        -2.05322    -365.800E-03        -1.72185         1.52649         1.49523     210.424E-03    -104.941E-03    -105.488E-03    -105.161E-03     210.423E-03    -105.267E-03     877.060E-06    -145.251E+06    -149.043E+06    -346.385E+06    -147.264E+06    -346.378E+06    -147.037E+06    -630.170E+03         36.2670
              61     955.819E-09     20.8111E-03         1.34843    -51.2448E-03        -1.85056    -306.014E-03        -1.59579         1.34843         1.24578     209.237E-03    -104.288E-03    -104.954E-03    -104.953E-03     209.237E-03    -104.288E-03     773.685E-06    -145.756E+06    -149.601E+06    -347.401E+06    -147.826E+06    -347.391E+06    -147.541E+06     1.16107E+06         36.1463
              62    -85.2007E-09     19.5825E-03         1.17857     58.4698E-03        -1.77875    -129.436E-03        -1.59084         1.17857         1.11165     206.745E-03    -103.104E-03    -103.646E-03    -103.548E-03     206.744E-03    -103.201E-03     561.807E-06    -144.847E+06    -147.381E+06    -346.304E+06    -146.933E+06    -346.277E+06    -145.321E+06    -289.423E+03         35.9496
              63    -40.9534E-09     18.3552E-03         1.03400     151.181E-03        -1.73457    -50.1968E-03        -1.53320         1.03400         1.16141     203.474E-03    -101.680E-03    -101.803E-03    -101.679E-03     203.474E-03    -101.803E-03     384.062E-06    -147.276E+06    -148.932E+06    -346.364E+06    -147.295E+06    -346.346E+06    -148.932E+06    -870.841E+03         35.6737
              64     19.0970E-09     17.1328E-03     897.688E-03     171.687E-03        -1.61876     26.6877E-03        -1.47376     897.688E-03     931.755E-03     198.849E-03    -99.3639E-03    -99.4869E-03    -99.3633E-03     198.849E-03    -99.4869E-03    -252.738E-06    -146.754E+06    -148.716E+06    -346.074E+06    -146.756E+06    -346.072E+06    -148.716E+06     500.259E+03         35.2988
              65    -144.572E-09     15.9179E-03     724.783E-03     197.378E-03        -1.46520     131.698E-03        -1.39952     724.783E-03     646.980E-03     192.381E-03    -96.0311E-03    -96.3491E-03    -96.2515E-03     192.380E-03    -96.1274E-03    -1.20679E-03    -147.041E+06    -148.295E+06    -343.898E+06    -147.051E+06    -343.888E+06    -148.295E+06     1.07459E+06         34.8309
              66     603.086E-09     14.7121E-03     564.195E-03     273.959E-03        -1.38360     205.671E-03        -1.31532     564.195E-03     658.672E-03     185.092E-03    -92.3251E-03    -92.7654E-03    -92.7628E-03     185.089E-03    -92.3251E-03    -1.66644E-03    -144.233E+06    -148.086E+06    -343.360E+06    -147.658E+06    -343.315E+06    -144.707E+06    -876.494E+03         34.2938
              67    -89.6560E-09     13.5147E-03     508.975E-03     229.430E-03        -1.29915     182.725E-03        -1.25244     508.975E-03     518.736E-03     177.005E-03    -88.3859E-03    -88.6171E-03    -88.6112E-03     176.999E-03    -88.3859E-03    -2.45806E-03    -145.350E+06    -152.440E+06    -347.946E+06    -148.774E+06    -347.901E+06    -149.061E+06    -2.85719E+06         33.7170
              68     112.499E-09     12.3286E-03     389.083E-03     143.818E-03        -1.07576     127.706E-03        -1.05965     389.083E-03     263.749E-03     168.778E-03    -84.3133E-03    -84.4799E-03    -84.4710E-03     168.769E-03    -84.3133E-03    -3.01090E-03    -145.286E+06    -151.772E+06    -347.394E+06    -148.102E+06    -347.352E+06    -148.998E+06     802.509E+03         33.1820
              69     244.725E-09     11.1515E-03     288.421E-03     154.862E-03    -989.024E-03     145.318E-03    -979.480E-03     288.421E-03     202.898E-03     162.859E-03    -81.0884E-03    -81.7832E-03    -81.7741E-03     162.850E-03    -81.0884E-03    -2.97099E-03    -144.895E+06    -149.908E+06    -345.198E+06    -147.704E+06    -345.164E+06    -147.134E+06     1.36703E+06         32.8295
              70     797.569E-09     9.97990E-03     317.748E-03     196.381E-03        -1.07963     183.617E-03        -1.06686     317.748E-03     253.173E-03     161.312E-03    -80.1537E-03    -81.1533E-03    -81.1465E-03     161.305E-03    -80.1537E-03    -2.55980E-03    -144.344E+06    -146.891E+06    -341.754E+06    -144.425E+06    -341.672E+06    -146.891E+06     2.37250E+06         32.8054
              71     121.389E-09     8.80636E-03     258.486E-03     189.551E-03    -978.973E-03     195.633E-03    -969.761E-03     243.192E-03     207.750E-03     165.571E-03    -81.9243E-03    -83.6478E-03    -82.3805E-03     165.568E-03    -83.1889E-03    -1.16095E-03    -134.918E+06    -136.307E+06    -330.421E+06    -136.082E+06    -330.337E+06    -135.227E+06     3.46582E+06         33.2053
              72    -2.31390E-06     7.62306E-03     173.370E-03     138.526E-03    -844.774E-03     157.117E-03    -828.521E-03     138.526E-03     242.805E-03     176.633E-03    -87.5980E-03    -89.0355E-03    -87.7708E-03     176.633E-03    -88.8626E-03    -231.452E-06    -129.508E+06    -130.679E+06    -323.693E+06    -130.592E+06    -323.688E+06    -129.599E+06     620.704E+03         34.0579
              73     2.67994E-06     6.42241E-03     139.496E-03     111.516E-03    -787.928E-03     114.074E-03    -770.936E-03     119.946E-03     241.665E-03     194.030E-03    -96.2914E-03    -97.7282E-03    -97.7230E-03     194.025E-03    -96.2914E-03     1.58587E-03    -122.080E+06    -124.672E+06    -318.773E+06    -124.605E+06    -318.748E+06    -122.171E+06     1.48299E+06         35.3104
              74    -323.076E-09     5.19700E-03     146.071E-03     98.5209E-03    -768.512E-03     94.2015E-03    -764.193E-03     146.071E-03     89.1887E-03     215.551E-03    -106.573E-03    -108.980E-03    -107.830E-03     215.544E-03    -107.716E-03     2.72772E-03    -108.441E+06    -116.054E+06    -308.191E+06    -110.989E+06    -308.144E+06    -113.553E+06     3.03514E+06         36.8262
              75    -1.72607E-06     3.94640E-03     174.154E-03     106.117E-03    -817.652E-03     96.9753E-03    -808.510E-03     174.154E-03     135.267E-03     240.895E-03    -119.679E-03    -121.223E-03    -119.671E-03     240.887E-03    -121.223E-03     3.19267E-03    -104.336E+06    -112.284E+06    -300.663E+06    -107.194E+06    -300.640E+06    -109.448E+06     1.45527E+06         38.4923
              76     1.12306E-06     2.65334E-03     209.808E-03     27.7566E-03    -764.650E-03     17.5887E-03    -754.482E-03     209.808E-03     166.879E-03     266.019E-03    -132.721E-03    -133.303E-03    -132.894E-03     266.009E-03    -133.121E-03     3.88940E-03    -102.670E+06    -107.429E+06    -296.242E+06    -105.513E+06    -296.234E+06    -104.593E+06     821.274E+03         40.1575
              77    -826.499E-09     1.33225E-03     205.628E-03    -81.1131E-03    -643.893E-03    -84.2193E-03    -640.787E-03     205.628E-03     81.1895E-03     282.426E-03    -140.959E-03    -141.486E-03    -141.483E-03     282.422E-03    -140.959E-03     2.25874E-03    -94.5234E+06    -98.4842E+06    -287.485E+06    -96.6153E+06    -287.431E+06    -96.4466E+06     2.95136E+06         41.6770
              78     864.668E-06     81.9564E-09     130.632E-03    -21.7089E-03    -626.418E-03    -5.04377E-03    -624.348E-03     111.897E-03     44.9137E-03     286.408E-03    -142.764E-03    -143.662E-03    -143.107E-03     286.407E-03    -143.317E-03     1.75070E-03    -90.7234E+06    -96.9812E+06    -282.864E+06    -97.0291E+06    -282.816E+06    -90.7234E+06     2.44519E+06         42.2718
              79     1.73228E-03     81.9564E-09     103.740E-03     63.4505E-03    -686.165E-03     103.665E-03    -686.090E-03     63.4505E-03    -11.3552E-03     282.086E-03    -139.660E-03    -142.436E-03    -139.656E-03     282.082E-03    -142.436E-03     2.56440E-03    -86.0368E+06    -94.6346E+06    -280.742E+06    -94.6500E+06    -280.726E+06    -86.0368E+06     1.50843E+06         41.9394
              80     2.60194E-03     81.9564E-09     99.3545E-03     77.2523E-03    -697.896E-03     99.2356E-03    -697.777E-03     77.2523E-03    -19.3437E-03     274.434E-03    -133.882E-03    -140.593E-03    -133.870E-03     274.423E-03    -140.593E-03     4.15101E-03    -79.3626E+06    -91.1079E+06    -280.125E+06    -91.1229E+06    -280.110E+06    -79.3626E+06     1.46001E+06         41.4625
              81     3.47886E-03     81.9564E-09     85.1534E-03     81.4333E-03    -682.854E-03     85.0740E-03    -682.774E-03     81.4333E-03    -774.059E-06     265.007E-03    -126.938E-03    -138.088E-03    -126.917E-03     264.985E-03    -138.088E-03     5.84135E-03    -73.4648E+06    -89.8377E+06    -277.809E+06    -89.8537E+06    -277.793E+06    -73.4648E+06     1.49250E+06         40.8936
              82     4.36277E-03     81.9564E-09     101.398E-03     83.6290E-03    -697.464E-03     101.093E-03    -697.159E-03     83.6290E-03     28.4894E-03     254.884E-03    -119.679E-03    -135.064E-03    -119.652E-03     254.856E-03    -135.064E-03     6.37848E-03    -72.1774E+06    -88.4069E+06    -257.373E+06    -88.4439E+06    -257.336E+06    -72.1774E+06     2.47585E+06         40.2682
              83     5.25346E-03     81.9564E-09     121.292E-03     88.1248E-03    -722.652E-03     120.916E-03    -722.276E-03     88.1248E-03     34.6836E-03     244.459E-03    -112.441E-03    -131.861E-03    -112.410E-03     244.429E-03    -131.861E-03     6.55372E-03    -72.1852E+06    -88.5864E+06    -231.454E+06    -88.6262E+06    -231.414E+06    -72.1852E+06     2.38531E+06         39.6265
              84     6.15058E-03     81.9564E-09     139.592E-03     94.1786E-03    -750.934E-03     139.480E-03    -750.821E-03     94.1786E-03     10.5452E-03     234.233E-03    -105.541E-03    -128.584E-03    -105.507E-03     234.199E-03    -128.584E-03     6.73600E-03    -69.2972E+06    -87.4350E+06    -205.348E+06    -87.4918E+06    -205.291E+06    -69.2972E+06    -333.670E+03         39.0417
              85     7.05346E-03     81.9564E-09     157.898E-03     101.112E-03    -782.787E-03     157.893E-03    -782.782E-03     101.112E-03    -3.10624E-03     224.533E-03    -99.3331E-03    -125.244E-03    -99.2974E-03     224.497E-03    -125.244E-03     6.79739E-03    -67.0472E+06    -83.8294E+06    -174.164E+06    -83.8684E+06    -174.125E+06    -67.0472E+06    -1.39979E+06         38.6116
              86     7.96222E-03     81.9564E-09     164.434E-03     107.956E-03    -798.575E-03     163.986E-03    -798.127E-03     107.956E-03    -29.4487E-03     216.256E-03    -94.3958E-03    -122.026E-03    -94.3552E-03     216.215E-03    -122.026E-03     7.08298E-03    -64.7263E+06    -78.7529E+06    -145.272E+06    -79.0037E+06    -145.021E+06    -64.7263E+06    -2.61458E+06         38.4417
              87     8.87390E-03     81.9564E-09     172.597E-03     114.126E-03    -807.800E-03     171.599E-03    -806.802E-03     114.126E-03    -62.4603E-03     210.235E-03    -91.2150E-03    -119.007E-03    -91.1455E-03     210.165E-03    -119.007E-03     9.00146E-03    -59.9577E+06    -68.3302E+06    -112.449E+06    -68.9522E+06    -109.660E+06    -62.1251E+06    -8.97397E+06         38.6168
              88     9.78658E-03     81.9564E-09     192.644E-03     120.430E-03    -828.123E-03     191.944E-03    -827.424E-03     120.430E-03    -50.7822E-03     206.169E-03    -89.8258E-03    -116.287E-03    -89.6838E-03     206.026E-03    -116.287E-03     12.7596E-03    -43.2717E+06    -57.3891E+06    -77.6934E+06    -53.0205E+06    -63.8448E+06    -61.4890E+06    -12.1858E+06         39.1779
              89     10.6990E-03     81.9564E-09     211.027E-03     127.345E-03    -852.721E-03     210.865E-03    -852.560E-03     127.345E-03    -22.6302E-03     201.672E-03    -87.7759E-03    -113.884E-03    -87.6218E-03     201.517E-03    -113.884E-03     13.2683E-03     2.20102E+06    -43.5859E+06    -59.6082E+06    -38.2441E+06    -3.14073E+06    -59.6082E+06    -10.3189E+06         40.1394
              90     11.6191E-03     81.9564E-09     222.309E-03     134.393E-03    -877.139E-03     222.251E-03    -877.081E-03     134.393E-03    -15.0887E-03     196.085E-03    -84.4509E-03    -111.776E-03    -84.3576E-03     195.991E-03    -111.776E-03     10.1495E-03     61.7980E+06    -23.4193E+06    -41.2077E+06    -28.5999E+06     61.1127E+06    -35.3417E+06    -6.65579E+06         41.4979
              91     12.5424E-03     81.9564E-09     242.733E-03     141.568E-03    -910.911E-03     242.684E-03    -910.862E-03     141.568E-03    -12.6725E-03     195.111E-03    -85.3833E-03    -110.010E-03    -85.2777E-03     195.005E-03    -110.010E-03     10.7259E-03     99.4504E+06     10.5274E+06    -22.6478E+06    -22.5395E+06     99.3420E+06     10.5274E+06    -909.888E+03         43.2249
              92     13.4568E-03     81.9564E-09     269.157E-03     149.334E-03    -947.073E-03     269.123E-03    -947.038E-03     149.334E-03     6.41735E-03     199.190E-03    -90.6926E-03    -108.773E-03    -90.5509E-03     199.048E-03    -108.773E-03     12.8187E-03     119.064E+06     57.1256E+06    -15.9947E+06    -15.8851E+06     118.954E+06     57.1256E+06    -1.16231E+06         45.2759
              93     14.3657E-03     81.9564E-09     295.416E-03     157.748E-03    -983.090E-03     295.335E-03    -983.009E-03     157.748E-03     20.2035E-03     206.702E-03    -98.7514E-03    -108.152E-03    -98.2833E-03     206.234E-03    -108.152E-03     22.2812E-03     134.815E+06     108.171E+06    -10.3851E+06    -9.98347E+06     134.413E+06     108.171E+06    -7.30142E+06         47.5769
              94     15.2605E-03     81.9564E-09     329.140E-03     166.861E-03        -1.03563     329.083E-03        -1.03557     166.861E-03     16.2575E-03     222.261E-03    -106.216E-03    -116.077E-03    -112.504E-03     220.683E-03    -108.211E-03     44.7558E-03     139.961E+06     134.096E+06    -12.9765E+06    -11.7404E+06     135.109E+06     137.713E+06     3.34733E+06         49.8452
              95     16.1871E-03     1.27441E-03     347.337E-03     175.187E-03        -1.05047     347.326E-03        -1.05046     175.187E-03     7.28309E-03     223.050E-03    -107.460E-03    -115.568E-03    -113.805E-03     221.287E-03    -107.460E-03     48.2111E-03     143.285E+06     135.507E+06    -5.88213E+06    -4.76850E+06     134.393E+06     143.285E+06     4.60598E+06         50.5116
              96     16.2054E-03     2.50687E-03     347.558E-03     183.161E-03        -1.03495     347.554E-03        -1.03494     183.161E-03     4.70391E-03     215.028E-03    -106.105E-03    -109.009E-03    -108.240E-03     214.259E-03    -106.105E-03     30.3276E-03     154.382E+06     142.675E+06     1.21182E+06     1.43108E+06     142.456E+06     154.382E+06    -4.96105E+06         49.9535
              97     16.2108E-03     3.74555E-03     343.088E-03     192.413E-03        -1.03807     343.077E-03        -1.03806     192.413E-03    -2.58430E-03     219.335E-03    -105.544E-03    -113.869E-03    -113.633E-03     219.098E-03    -105.544E-03     16.8832E-03     158.743E+06     145.402E+06    -1.45125E+06    -1.42172E+06     145.373E+06     158.743E+06    -757.612E+03         49.7866
              98     16.2096E-03     5.00131E-03     344.848E-03     203.400E-03        -1.06116     344.713E-03        -1.06103     203.400E-03     14.0860E-03     221.457E-03    -105.382E-03    -115.984E-03    -115.865E-03     221.338E-03    -105.382E-03     12.6537E-03     149.787E+06     141.119E+06    -5.64843E+06    -5.61249E+06     141.083E+06     149.787E+06     2.11409E+06         49.8297
              99     16.2091E-03     6.24892E-03     358.727E-03     217.457E-03        -1.10197     358.509E-03        -1.10176     217.457E-03     35.5390E-03     220.258E-03    -105.411E-03    -114.701E-03    -114.522E-03     220.079E-03    -105.411E-03     15.4027E-03     145.107E+06     140.827E+06    -5.99720E+06    -5.96405E+06     140.794E+06     145.107E+06     1.91014E+06         49.9366
             100     16.2096E-03     7.49695E-03     346.475E-03     235.101E-03        -1.10823     346.374E-03        -1.10813     235.101E-03     21.6040E-03     219.933E-03    -105.406E-03    -114.436E-03    -114.224E-03     219.722E-03    -105.406E-03     16.8127E-03     144.422E+06     142.066E+06    -4.94302E+06    -4.91726E+06     142.041E+06     144.422E+06    -934.917E+03         50.0159
             101     16.2095E-03     8.74324E-03     338.290E-03     254.883E-03        -1.12155     338.116E-03        -1.12138     254.883E-03    -17.0772E-03     220.370E-03    -105.387E-03    -114.946E-03    -114.709E-03     220.132E-03    -105.387E-03     17.7951E-03     145.579E+06     142.741E+06    -4.62173E+06    -4.57963E+06     142.699E+06     145.579E+06    -2.48637E+06         50.0412
             102     16.2093E-03     9.99264E-03     364.405E-03     276.155E-03        -1.16750     364.192E-03        -1.16729     276.155E-03    -9.87814E-03     220.324E-03    -105.387E-03    -114.989E-03    -114.692E-03     220.027E-03    -105.387E-03     19.9312E-03     146.822E+06     144.282E+06    -3.48555E+06    -3.46707E+06     144.263E+06     146.822E+06    -1.19913E+06         50.0208
             103     16.2089E-03     11.2415E-03     367.133E-03     301.161E-03        -1.21088     367.041E-03        -1.21079     301.161E-03     24.0121E-03     219.559E-03    -105.419E-03    -114.187E-03    -113.830E-03     219.202E-03    -105.419E-03     21.7887E-03     144.355E+06     142.933E+06    -5.12536E+06    -5.12532E+06     142.933E+06     144.355E+06    -79.7737E+03         49.9679
             104     16.2089E-03     12.4872E-03     365.541E-03     327.736E-03        -1.23995     365.318E-03        -1.23972     327.736E-03    -12.4778E-03     218.664E-03    -105.461E-03    -113.204E-03    -112.797E-03     218.257E-03    -105.461E-03     23.2327E-03     144.997E+06     143.770E+06    -4.15719E+06    -4.15715E+06     143.770E+06     144.997E+06    -3.62864E+03         49.8924
             105     16.2088E-03     13.7323E-03     374.071E-03     352.203E-03        -1.26696     373.804E-03        -1.26669     352.203E-03    -41.1490E-03     217.831E-03    -105.501E-03    -112.272E-03    -111.834E-03     217.394E-03    -105.501E-03     24.0186E-03     145.028E+06     144.426E+06    -4.57295E+06    -4.57284E+06     144.426E+06     145.028E+06    -44.1132E+03         49.8026
             106     16.2087E-03     14.9772E-03     381.001E-03     360.961E-03        -1.29463     365.059E-03        -1.29444     376.715E-03    -35.3612E-03     216.547E-03    -105.544E-03    -110.901E-03    -110.428E-03     216.075E-03    -105.544E-03     24.8561E-03     146.093E+06     145.055E+06    -3.70702E+06    -3.70623E+06     145.054E+06     146.093E+06     148.339E+03         49.7066
             107     16.2086E-03     16.2186E-03     403.474E-03     368.502E-03        -1.31710     368.398E-03        -1.31700     403.474E-03    -15.8106E-03     215.038E-03    -105.580E-03    -109.407E-03    -108.906E-03     214.537E-03    -105.580E-03     25.4744E-03     146.387E+06     144.886E+06    -3.57523E+06    -3.57442E+06     144.885E+06     146.387E+06     315.546E+03         49.6129
             108     16.2087E-03     17.4569E-03     430.501E-03     383.916E-03        -1.36685     383.831E-03        -1.36677     430.501E-03    -14.7218E-03     213.755E-03    -105.613E-03    -108.070E-03    -107.559E-03     213.243E-03    -105.613E-03     25.6388E-03     145.533E+06     144.677E+06    -3.88267E+06    -3.88241E+06     144.925E+06     145.285E+06    -22.4704E+03         49.5275
             109     16.2084E-03     18.6951E-03     455.396E-03     397.085E-03        -1.41997     396.769E-03        -1.41966     455.396E-03    -46.6067E-03     212.741E-03    -105.640E-03    -107.013E-03    -106.498E-03     212.226E-03    -105.640E-03     25.6511E-03     145.494E+06     145.100E+06    -3.61982E+06    -3.61637E+06     145.345E+06     145.246E+06     384.070E+03         49.4544
             110     16.2087E-03     19.9312E-03     478.537E-03     398.113E-03        -1.44173     397.427E-03        -1.44104     478.537E-03    -70.0628E-03     211.981E-03    -105.662E-03    -106.268E-03    -105.753E-03     211.467E-03    -105.662E-03     25.5742E-03     145.653E+06     145.377E+06    -4.15029E+06    -4.14700E+06     145.504E+06     145.523E+06     514.162E+03         49.3958
             111     16.2084E-03     21.1691E-03     500.339E-03     384.915E-03        -1.44519     384.451E-03        -1.44473     500.339E-03    -47.2583E-03     211.298E-03    -105.455E-03    -105.816E-03    -105.092E-03     210.791E-03    -105.672E-03     25.3419E-03     146.302E+06     144.342E+06    -4.63610E+06    -4.63555E+06     146.301E+06     144.342E+06    -180.818E+03         49.3523
             112     16.2088E-03     22.4031E-03     519.697E-03     398.051E-03        -1.47446     398.039E-03        -1.47444     519.697E-03    -7.96100E-03     210.897E-03    -105.130E-03    -105.695E-03    -104.623E-03     210.390E-03    -105.695E-03     25.2913E-03     146.315E+06     144.132E+06    -4.33415E+06    -4.33211E+06     146.313E+06     144.132E+06    -538.002E+03         49.3228
             113     16.2087E-03     23.6387E-03     536.434E-03     407.700E-03        -1.50773     407.490E-03        -1.50752     536.434E-03    -29.7416E-03     210.896E-03    -105.127E-03    -105.711E-03    -104.607E-03     210.376E-03    -105.711E-03     25.6147E-03     146.592E+06     145.964E+06    -3.87683E+06    -3.86801E+06     146.309E+06     146.238E+06     404.537E+03         49.3046
             114     16.2083E-03     24.8752E-03     550.835E-03     390.430E-03        -1.51051     389.639E-03        -1.50972     550.835E-03    -75.1659E-03     210.621E-03    -104.881E-03    -105.718E-03    -104.342E-03     210.081E-03    -105.718E-03     26.0665E-03     146.891E+06     145.990E+06    -3.44104E+06    -3.40182E+06     146.578E+06     146.264E+06     2.28873E+06         49.2940
             115     16.2084E-03     26.1085E-03     562.609E-03     405.351E-03        -1.52989     404.766E-03        -1.52931     562.609E-03    -50.6778E-03     209.998E-03    -104.289E-03    -105.726E-03    -103.734E-03     209.442E-03    -105.726E-03     26.4109E-03     146.522E+06     144.488E+06    -4.53504E+06    -4.48009E+06     146.468E+06     144.488E+06     2.87064E+06         49.2896
             116     16.2085E-03     27.3419E-03     570.996E-03     419.714E-03        -1.54872     419.557E-03        -1.54857     570.996E-03    -28.3123E-03     209.653E-03    -103.961E-03    -105.720E-03    -103.423E-03     209.115E-03    -105.720E-03     25.9474E-03     146.927E+06     144.478E+06    -4.76588E+06    -4.74226E+06     146.903E+06     144.478E+06     1.52942E+06         49.2913
             117     16.2086E-03     28.5750E-03     574.556E-03     393.124E-03        -1.52905     392.652E-03        -1.52858     574.556E-03    -59.2073E-03     209.578E-03    -103.846E-03    -105.712E-03    -103.342E-03     209.073E-03    -105.712E-03     25.1200E-03     147.162E+06     144.306E+06    -4.55026E+06    -4.54312E+06     147.155E+06     144.306E+06    -499.062E+03         49.2985
             118     16.2088E-03     29.8080E-03     574.689E-03     389.994E-03        -1.53189     389.668E-03        -1.53157     574.689E-03    -29.3734E-03     209.850E-03    -104.126E-03    -105.710E-03    -103.623E-03     209.347E-03    -105.710E-03     25.1296E-03     147.513E+06     145.451E+06    -3.79625E+06    -3.78834E+06     147.258E+06     145.698E+06    -1.02298E+06         49.3106
             119     16.2083E-03     31.0441E-03     572.702E-03     409.529E-03        -1.54350     409.453E-03        -1.54342     572.702E-03    -11.0730E-03     210.095E-03    -104.372E-03    -105.709E-03    -103.861E-03     209.584E-03    -105.709E-03     25.3391E-03     146.657E+06     145.821E+06    -3.98305E+06    -3.98152E+06     146.408E+06     146.069E+06    -433.598E+03         49.3266
             120     16.2089E-03     32.2770E-03     566.184E-03     402.246E-03        -1.52376     401.882E-03        -1.52339     566.184E-03    -49.9302E-03     210.064E-03    -104.320E-03    -105.708E-03    -103.810E-03     209.554E-03    -105.708E-03     25.3073E-03     146.693E+06     145.099E+06    -4.09586E+06    -4.09243E+06     146.690E+06     145.099E+06     378.925E+03         49.3456
             121     16.2084E-03     33.5124E-03     555.642E-03     385.105E-03        -1.48903     384.775E-03        -1.48870     555.642E-03    -22.2462E-03     210.123E-03    -104.315E-03    -105.731E-03    -103.822E-03     209.630E-03    -105.731E-03     24.8777E-03     147.048E+06     145.911E+06    -3.95702E+06    -3.95168E+06     147.043E+06     145.911E+06     98.5789E+03         49.3669
             122     16.2083E-03     34.7452E-03     542.774E-03     385.197E-03        -1.47187     385.150E-03        -1.47182     542.774E-03     4.26655E-03     210.021E-03    -104.224E-03    -105.728E-03    -103.736E-03     209.533E-03    -105.728E-03     24.7406E-03     144.690E+06     143.780E+06    -4.82082E+06    -4.81865E+06     144.688E+06     143.780E+06    -474.259E+03         49.3901
             123     16.2082E-03     35.9798E-03     526.693E-03     385.561E-03        -1.45836     385.517E-03        -1.45832     526.693E-03    -17.5719E-03     209.886E-03    -104.156E-03    -105.741E-03    -103.672E-03     209.402E-03    -105.741E-03     24.6319E-03     144.984E+06     144.160E+06    -3.66324E+06    -3.66138E+06     144.937E+06     144.204E+06    -442.134E+03         49.4149
             124     16.2082E-03     37.2137E-03     507.059E-03     366.850E-03        -1.40749     366.776E-03        -1.40742     507.059E-03    -22.8300E-03     209.904E-03    -104.142E-03    -105.756E-03    -103.667E-03     209.429E-03    -105.756E-03     24.4053E-03     145.099E+06     144.329E+06    -4.56014E+06    -4.54975E+06     145.044E+06     144.373E+06    -1.16865E+06         49.4408
             125     16.2083E-03     38.4469E-03     484.831E-03     369.232E-03        -1.37487     369.188E-03        -1.37483     484.831E-03    -13.3540E-03     209.971E-03    -104.160E-03    -105.737E-03    -103.686E-03     209.497E-03    -105.737E-03     24.3761E-03     147.097E+06     145.246E+06    -4.35427E+06    -4.33048E+06     147.073E+06     145.246E+06    -1.88074E+06         49.4676
             126     16.2086E-03     39.6825E-03     461.303E-03     373.662E-03        -1.35406     373.539E-03        -1.35394     461.303E-03    -21.5017E-03     210.126E-03    -104.325E-03    -105.740E-03    -103.843E-03     209.644E-03    -105.740E-03     24.5994E-03     148.947E+06     147.177E+06    -3.42347E+06    -3.40825E+06     148.932E+06     147.177E+06    -1.02347E+06         49.4945
             127     16.2080E-03     40.9167E-03     435.851E-03     350.962E-03        -1.30390     350.688E-03        -1.30363     435.851E-03    -42.5443E-03     210.421E-03    -104.639E-03    -105.750E-03    -104.124E-03     209.906E-03    -105.750E-03     25.4523E-03     148.587E+06     147.298E+06    -3.36302E+06    -3.34893E+06     148.573E+06     147.298E+06     1.08645E+06         49.5207
             128     16.2081E-03     42.1527E-03     407.772E-03     352.831E-03        -1.26268     352.678E-03        -1.26252     407.772E-03    -24.7103E-03     210.371E-03    -104.577E-03    -105.760E-03    -104.047E-03     209.841E-03    -105.760E-03     25.8292E-03     146.651E+06     145.024E+06    -4.99595E+06    -4.98187E+06     146.637E+06     145.024E+06     984.921E+03         49.5455
             129     16.2079E-03     43.3865E-03     378.150E-03     343.016E-03        -1.21207     343.013E-03        -1.21207     378.150E-03    -2.35733E-03     210.195E-03    -104.378E-03    -105.773E-03    -103.839E-03     209.656E-03    -105.773E-03     26.0280E-03     145.072E+06     143.528E+06    -4.43804E+06    -4.43703E+06     144.511E+06     144.088E+06     221.245E+03         49.5682
             130     16.2081E-03     44.6206E-03     348.220E-03     315.229E-03        -1.14835     315.176E-03        -1.14830     348.220E-03    -12.1707E-03     210.194E-03    -104.361E-03    -105.783E-03    -103.833E-03     209.667E-03    -105.783E-03     25.7279E-03     145.647E+06     144.523E+06    -4.04442E+06    -4.04235E+06     144.521E+06     145.647E+06     554.818E+03         49.5883
             131     16.2076E-03     45.8551E-03     335.245E-03     306.998E-03        -1.12172     323.441E-03        -1.12141     318.491E-03    -39.8195E-03     209.994E-03    -104.149E-03    -105.786E-03    -103.621E-03     209.466E-03    -105.786E-03     25.7307E-03     147.029E+06     145.736E+06    -4.30390E+06    -4.30010E+06     146.461E+06     146.300E+06     738.387E+03         49.6059
             132     16.2083E-03     47.0886E-03     326.867E-03     289.123E-03        -1.08858     326.596E-03        -1.08831     289.123E-03    -33.3978E-03     209.895E-03    -104.077E-03    -105.790E-03    -103.545E-03     209.362E-03    -105.790E-03     25.8361E-03     149.228E+06     146.398E+06    -3.83194E+06    -3.81733E+06     149.214E+06     146.398E+06     1.41327E+06         49.6217
             133     16.2076E-03     48.3225E-03     312.294E-03     260.549E-03        -1.03585     312.258E-03        -1.03582     260.549E-03    -13.7906E-03     209.832E-03    -104.043E-03    -105.798E-03    -103.528E-03     209.317E-03    -105.798E-03     25.4130E-03     149.194E+06     145.450E+06    -4.87846E+06    -4.86620E+06     149.181E+06     145.450E+06     1.12968E+06         49.6355
             134     16.2082E-03     49.5560E-03     307.146E-03     232.139E-03    -992.205E-03     306.762E-03    -991.821E-03     232.139E-03    -38.1581E-03     209.822E-03    -104.014E-03    -105.785E-03    -103.499E-03     209.307E-03    -105.785E-03     25.4072E-03     149.283E+06     147.230E+06    -4.46316E+06    -4.44781E+06     149.268E+06     147.230E+06    -906.061E+03         49.6478
             135     16.2083E-03     50.7899E-03     296.140E-03     205.096E-03    -940.015E-03     295.736E-03    -939.611E-03     205.096E-03    -20.2490E-03     210.196E-03    -104.382E-03    -105.764E-03    -103.870E-03     209.684E-03    -105.764E-03     25.3594E-03     148.669E+06     148.233E+06    -4.03407E+06    -4.01371E+06     148.649E+06     148.233E+06    -1.71302E+06         49.6588
             136     16.2082E-03     52.0256E-03     292.129E-03     180.760E-03    -901.556E-03     291.900E-03    -901.327E-03     180.760E-03    -10.9621E-03     210.176E-03    -104.351E-03    -105.760E-03    -103.829E-03     209.654E-03    -105.760E-03     25.6010E-03     147.571E+06     147.361E+06    -3.53323E+06    -3.52295E+06     147.561E+06     147.361E+06    -29.1694E+03         49.6676
             137     16.2087E-03     53.2590E-03     288.862E-03     158.250E-03    -874.712E-03     288.561E-03    -874.411E-03     158.250E-03    -37.1866E-03     209.842E-03    -104.005E-03    -105.752E-03    -103.471E-03     209.307E-03    -105.752E-03     25.8848E-03     147.987E+06     146.673E+06    -3.93606E+06    -3.91207E+06     147.963E+06     146.673E+06     1.81493E+06         49.6753
             138     16.2085E-03     54.4929E-03     276.458E-03     138.348E-03    -835.532E-03     276.017E-03    -835.090E-03     138.348E-03    -42.7822E-03     209.763E-03    -104.028E-03    -105.751E-03    -103.508E-03     209.242E-03    -105.751E-03     25.5276E-03     148.758E+06     145.673E+06    -4.63266E+06    -4.61346E+06     148.739E+06     145.673E+06     1.11364E+06         49.6830
             139     16.2089E-03     55.7260E-03     275.628E-03     121.299E-03    -798.857E-03     275.285E-03    -798.513E-03     121.299E-03    -32.6202E-03     209.480E-03    -103.795E-03    -105.737E-03    -103.308E-03     208.994E-03    -105.737E-03     24.6664E-03     149.352E+06     145.314E+06    -5.20313E+06    -5.17590E+06     149.325E+06     145.314E+06    -1.54178E+06         49.6907
             140     16.2090E-03     56.9591E-03     265.519E-03     106.388E-03    -768.715E-03     265.159E-03    -768.355E-03     106.388E-03    -32.2601E-03     209.666E-03    -103.931E-03    -105.718E-03    -103.448E-03     209.183E-03    -105.718E-03     24.6033E-03     151.738E+06     147.931E+06    -3.52949E+06    -3.49305E+06     151.701E+06     147.931E+06    -2.30047E+06         49.6988
             141     16.2087E-03     58.1936E-03     248.023E-03     94.7975E-03    -740.359E-03     247.623E-03    -739.959E-03     94.7975E-03    -36.7724E-03     210.386E-03    -104.621E-03    -105.722E-03    -104.135E-03     209.900E-03    -105.722E-03     24.7299E-03     152.372E+06     148.540E+06    -3.84603E+06    -3.83398E+06     152.360E+06     148.540E+06    -1.31467E+06         49.7072
             142     16.2085E-03     59.4296E-03     258.561E-03     87.4842E-03    -730.298E-03     258.094E-03    -729.830E-03     87.4842E-03    -39.2597E-03     210.412E-03    -104.629E-03    -105.729E-03    -104.131E-03     209.914E-03    -105.729E-03     25.0328E-03     150.518E+06     147.231E+06    -4.53425E+06    -4.52903E+06     150.513E+06     147.231E+06    -900.054E+03         49.7148
             143     16.2087E-03     60.6639E-03     264.632E-03     83.5544E-03    -729.124E-03     264.022E-03    -728.514E-03     83.5544E-03    -48.5343E-03     210.136E-03    -104.352E-03    -105.748E-03    -103.830E-03     209.614E-03    -105.748E-03     25.6054E-03     149.577E+06     147.038E+06    -3.64005E+06    -3.63513E+06     149.572E+06     147.038E+06     -5.5495E+03         49.7220
             144     16.2084E-03     61.8981E-03     242.576E-03     83.2161E-03    -712.408E-03     242.342E-03    -712.174E-03     83.2161E-03    -27.8366E-03     210.044E-03    -104.251E-03    -105.751E-03    -103.738E-03     209.532E-03    -105.751E-03     25.3611E-03     149.963E+06     144.946E+06    -5.16740E+06    -5.16407E+06     149.959E+06     144.946E+06     166.216E+03         49.7289
             145     16.2085E-03     63.1315E-03     248.453E-03     87.1072E-03    -714.816E-03     248.135E-03    -714.498E-03     87.1072E-03    -31.8354E-03     210.012E-03    -104.256E-03    -105.751E-03    -103.743E-03     209.499E-03    -105.751E-03     25.3740E-03     150.473E+06     145.117E+06    -4.40212E+06    -4.39868E+06     150.469E+06     145.117E+06    -705.476E+03         49.7357
             146     16.2084E-03     64.3665E-03     256.167E-03     93.5544E-03    -721.927E-03     253.346E-03    -719.106E-03     93.5544E-03    -93.4017E-03     210.203E-03    -104.447E-03    -105.772E-03    -103.926E-03     209.682E-03    -105.772E-03     25.5906E-03     150.781E+06     147.831E+06    -3.48410E+06    -3.47981E+06     150.777E+06     147.831E+06    -71.0803E+03         49.7427
             147     16.2082E-03     65.6015E-03     238.723E-03     102.006E-03    -710.374E-03     236.170E-03    -707.821E-03     102.006E-03    -75.2027E-03     210.030E-03    -104.257E-03    -105.763E-03    -103.731E-03     209.504E-03    -105.763E-03     25.6989E-03     151.537E+06     147.441E+06    -4.00127E+06    -3.99562E+06     151.532E+06     147.441E+06     919.713E+03         49.7497
             148     16.2086E-03     66.8342E-03     248.514E-03     113.918E-03    -726.447E-03     248.445E-03    -726.379E-03     113.918E-03    -15.8294E-03     209.762E-03    -104.022E-03    -105.764E-03    -103.510E-03     209.250E-03    -105.764E-03     25.3301E-03     151.908E+06     145.549E+06    -4.70512E+06    -4.69884E+06     151.902E+06     145.549E+06     117.798E+03         49.7574
             149     16.2085E-03     69.3022E-03     244.422E-03     144.798E-03    -759.958E-03     242.937E-03    -758.473E-03     144.798E-03    -76.5323E-03     210.103E-03    -104.334E-03    -105.778E-03    -103.819E-03     209.588E-03    -105.778E-03     25.4117E-03     150.564E+06     146.909E+06    -3.50606E+06    -3.50094E+06     150.559E+06     146.909E+06    -67.8403E+03         49.7750
             150     16.2081E-03     70.5386E-03     252.126E-03     163.989E-03    -770.741E-03     251.219E-03    -769.835E-03     163.989E-03    -60.4102E-03     209.983E-03    -104.367E-03    -105.777E-03    -103.828E-03     209.445E-03    -105.777E-03     25.9974E-03     150.432E+06     145.078E+06    -4.68352E+06    -4.68061E+06     150.429E+06     145.078E+06     166.019E+03         49.7844
             151     16.2084E-03     71.7716E-03     243.181E-03     184.990E-03    -781.505E-03     242.608E-03    -780.933E-03     184.990E-03    -48.1502E-03     209.734E-03    -104.036E-03    -105.783E-03    -103.509E-03     209.207E-03    -105.783E-03     25.7006E-03     149.683E+06     144.752E+06    -3.86146E+06    -3.86057E+06     149.682E+06     144.752E+06    -141.893E+03         49.7943
             152     16.2087E-03     73.0045E-03     234.812E-03     206.711E-03    -808.341E-03     234.228E-03    -807.757E-03     206.711E-03    -49.0642E-03     209.508E-03    -103.819E-03    -105.742E-03    -103.314E-03     209.003E-03    -105.742E-03     25.1362E-03     150.611E+06     145.246E+06    -4.18666E+06    -4.18610E+06     150.611E+06     145.246E+06    -83.3702E+03         49.8048
             153     16.2089E-03     74.2384E-03     250.998E-03     230.083E-03    -845.427E-03     250.589E-03    -845.018E-03     230.083E-03    -38.2218E-03     209.718E-03    -104.153E-03    -105.713E-03    -103.647E-03     209.212E-03    -105.713E-03     25.1838E-03     151.342E+06     145.781E+06    -4.08282E+06    -4.08186E+06     151.341E+06     145.781E+06     18.0644E+03         49.8158
             154     16.2091E-03     75.4730E-03     263.800E-03     240.372E-03    -861.976E-03     249.788E-03    -861.672E-03     254.080E-03    -34.1771E-03     210.120E-03    -104.465E-03    -105.705E-03    -103.937E-03     209.593E-03    -105.705E-03     25.7348E-03     153.093E+06     147.101E+06    -3.32767E+06    -3.31602E+06     153.081E+06     147.101E+06     1.14202E+06         49.8269
             155     16.2091E-03     76.7085E-03     276.142E-03     241.090E-03    -884.678E-03     240.834E-03    -884.421E-03     276.142E-03    -24.8366E-03     210.273E-03    -104.595E-03    -105.672E-03    -104.053E-03     209.730E-03    -105.672E-03     26.1095E-03     155.371E+06     146.913E+06    -5.11750E+06    -5.10635E+06     155.359E+06     146.913E+06     984.589E+03         49.8374
             156     16.2087E-03     77.9428E-03     297.501E-03     250.503E-03    -907.764E-03     250.373E-03    -907.634E-03     297.501E-03    -18.5185E-03     210.053E-03    -104.345E-03    -105.689E-03    -103.801E-03     209.509E-03    -105.689E-03     26.1264E-03     154.398E+06     147.586E+06    -3.04848E+06    -3.00806E+06     154.358E+06     147.586E+06     1.80126E+06         49.8470
             157     16.2090E-03     79.1772E-03     318.961E-03     245.394E-03    -908.838E-03     245.215E-03    -908.659E-03     318.961E-03    -28.0380E-03     209.675E-03    -103.939E-03    -105.703E-03    -103.394E-03     209.130E-03    -105.703E-03     26.1317E-03     153.239E+06     146.210E+06    -4.56854E+06    -4.50060E+06     153.171E+06     146.210E+06     3.25361E+06         49.8564
             158     16.2087E-03     80.4093E-03     339.125E-03     247.015E-03    -938.215E-03     246.960E-03    -938.160E-03     339.125E-03    -14.3406E-03     209.912E-03    -104.259E-03    -105.715E-03    -103.736E-03     209.389E-03    -105.715E-03     25.6148E-03     155.840E+06     146.724E+06    -5.38898E+06    -5.36023E+06     155.811E+06     146.724E+06     1.18560E+06         49.8654
             159     16.2085E-03     81.6444E-03     357.910E-03     263.082E-03    -972.216E-03     262.966E-03    -972.100E-03     357.910E-03    -20.2415E-03     210.044E-03    -104.414E-03    -105.749E-03    -103.924E-03     209.554E-03    -105.749E-03     24.7958E-03     156.990E+06     148.199E+06    -3.85627E+06    -3.84341E+06     156.977E+06     148.199E+06     659.869E+03         49.8731
             160     16.2088E-03     82.8785E-03     374.033E-03     254.941E-03    -972.067E-03     254.661E-03    -971.787E-03     374.033E-03    -36.7805E-03     209.718E-03    -104.044E-03    -105.740E-03    -103.541E-03     209.215E-03    -105.740E-03     25.0923E-03     158.095E+06     147.059E+06    -5.44095E+06    -5.42895E+06     158.083E+06     147.059E+06     1.14031E+06         49.8792
             161     16.2085E-03     84.1121E-03     386.696E-03     253.467E-03    -984.821E-03     253.247E-03    -984.601E-03     386.696E-03    -8.93218E-03     209.734E-03    -103.999E-03    -105.758E-03    -103.491E-03     209.227E-03    -105.758E-03     25.2074E-03     159.526E+06     148.529E+06    -4.14626E+06    -4.13029E+06     159.510E+06     148.529E+06    -956.273E+03         49.8849
             162     16.2088E-03     85.3462E-03     397.261E-03     256.598E-03    -998.694E-03     256.318E-03    -998.414E-03     397.261E-03    -12.5833E-03     209.918E-03    -104.118E-03    -105.776E-03    -103.610E-03     209.410E-03    -105.776E-03     25.2488E-03     159.097E+06     150.361E+06    -3.34314E+06    -3.32640E+06     159.080E+06     150.361E+06    -823.419E+03         49.8910
             163     16.2088E-03     86.5807E-03     405.297E-03     242.732E-03    -981.100E-03     242.353E-03    -980.721E-03     405.297E-03    -42.8707E-03     210.085E-03    -104.340E-03    -105.764E-03    -103.825E-03     209.569E-03    -105.764E-03     25.4383E-03     159.768E+06     149.001E+06    -4.70755E+06    -4.70640E+06     159.767E+06     149.001E+06     250.133E+03         49.8972
             164     16.2084E-03     87.8154E-03     409.944E-03     246.265E-03    -982.896E-03     246.106E-03    -982.737E-03     409.944E-03    -23.8013E-03     210.030E-03    -104.365E-03    -105.760E-03    -103.852E-03     209.517E-03    -105.760E-03     25.3874E-03     160.443E+06     148.746E+06    -4.25216E+06    -4.25198E+06     160.443E+06     148.746E+06     60.4433E+03         49.9033
             165     16.2088E-03     89.0492E-03     411.549E-03     252.715E-03    -995.499E-03     252.498E-03    -995.282E-03     411.549E-03     17.8290E-03     209.814E-03    -104.139E-03    -105.728E-03    -103.621E-03     209.295E-03    -105.728E-03     25.4849E-03     160.635E+06     149.425E+06    -3.47909E+06    -3.46355E+06     160.619E+06     149.425E+06     1.23929E+06         49.9092
             166     16.2086E-03     90.2836E-03     408.887E-03     236.145E-03    -972.946E-03     235.413E-03    -972.214E-03     408.887E-03    -12.5048E-03     209.753E-03    -104.040E-03    -105.726E-03    -103.535E-03     209.247E-03    -105.726E-03     25.1677E-03     162.331E+06     148.571E+06    -4.99868E+06    -4.98304E+06     162.316E+06     148.571E+06     980.694E+03         49.9152
             167     16.2090E-03     91.5163E-03     401.750E-03     214.166E-03    -931.013E-03     213.639E-03    -930.486E-03     401.750E-03    -32.9933E-03     209.926E-03    -104.207E-03    -105.734E-03    -103.702E-03     209.421E-03    -105.734E-03     25.1615E-03     164.473E+06     150.768E+06    -4.24949E+06    -4.24854E+06     164.472E+06     150.768E+06     95.8031E+03         49.9215
             168     16.2088E-03     92.7524E-03     392.870E-03     221.110E-03    -912.443E-03     221.108E-03    -912.441E-03     392.870E-03     2.51264E-03     209.782E-03    -104.129E-03    -105.728E-03    -103.622E-03     209.274E-03    -105.728E-03     25.2235E-03     166.033E+06     151.526E+06    -3.68650E+06    -3.68572E+06     166.032E+06     151.526E+06     327.514E+03         49.9282
             169     16.2092E-03     93.9852E-03     381.033E-03     237.047E-03    -904.528E-03     237.047E-03    -904.527E-03     381.033E-03     528.261E-06     209.409E-03    -103.706E-03    -105.726E-03    -103.215E-03     208.918E-03    -105.726E-03     24.7848E-03     166.449E+06     148.368E+06    -5.25638E+06    -5.25281E+06     166.446E+06     148.368E+06    -461.789E+03         49.9360
             170     16.2093E-03     95.2170E-03     363.519E-03     213.088E-03    -866.932E-03     213.017E-03    -866.860E-03     363.519E-03    -11.9437E-03     209.737E-03    -103.982E-03    -105.726E-03    -103.513E-03     209.268E-03    -105.726E-03     24.2405E-03     169.067E+06     150.108E+06    -4.48427E+06    -4.46356E+06     169.047E+06     150.108E+06    -1.77547E+06         49.9460
             171     16.2096E-03     96.4522E-03     343.298E-03     190.477E-03    -817.230E-03     190.306E-03    -817.059E-03     343.298E-03     1.86232E-03     210.303E-03    -104.613E-03    -105.705E-03    -104.142E-03     209.833E-03    -105.705E-03     24.3261E-03     171.461E+06     151.866E+06    -4.09327E+06    -4.06704E+06     171.435E+06     151.866E+06    -2.11803E+06         49.9566
             172     16.2090E-03     97.6891E-03     322.083E-03     196.813E-03    -782.130E-03     196.708E-03    -782.025E-03     322.083E-03     10.7978E-03     210.253E-03    -104.571E-03    -105.710E-03    -104.068E-03     209.750E-03    -105.710E-03     25.1340E-03     170.213E+06     150.920E+06    -3.98316E+06    -3.97407E+06     170.204E+06     150.920E+06    -973.798E+03         49.9664
             173     16.2096E-03     98.9226E-03     297.325E-03     192.823E-03    -744.237E-03     192.745E-03    -744.159E-03     297.325E-03     8.23736E-03     210.255E-03    -104.582E-03    -105.725E-03    -104.051E-03     209.724E-03    -105.725E-03     25.8439E-03     171.254E+06     151.557E+06    -3.19100E+06    -3.16301E+06     171.226E+06     151.557E+06     1.48478E+06         49.9758
             174     16.2089E-03     100.158E-03     268.785E-03     177.529E-03    -693.136E-03     176.778E-03    -692.384E-03     268.785E-03    -22.3507E-03     210.296E-03    -104.593E-03    -105.698E-03    -104.062E-03     209.766E-03    -105.698E-03     25.8274E-03     174.848E+06     151.524E+06    -5.42263E+06    -5.39296E+06     174.818E+06     151.524E+06     1.16613E+06         49.9846
             175     16.2100E-03     101.392E-03     238.586E-03     164.848E-03    -642.714E-03     164.166E-03    -642.032E-03     238.586E-03    -31.5480E-03     209.766E-03    -104.047E-03    -105.633E-03    -103.516E-03     209.234E-03    -105.633E-03     25.8137E-03     172.291E+06     147.885E+06    -4.34543E+06    -4.34350E+06     172.289E+06     147.885E+06    -520.765E+03         49.9930
             176     16.2096E-03     102.626E-03     208.655E-03     156.319E-03    -590.870E-03     156.245E-03    -590.796E-03     208.655E-03     12.3660E-03     209.747E-03    -104.083E-03    -105.632E-03    -103.549E-03     209.213E-03    -105.632E-03     25.8676E-03     172.164E+06     148.308E+06    -3.03065E+06     -3.0286E+06     172.161E+06     148.308E+06     295.048E+03         50.0028
             177     16.2104E-03     103.859E-03     178.695E-03     151.655E-03    -542.759E-03     151.547E-03    -542.652E-03     178.695E-03     17.0704E-03     210.083E-03    -104.470E-03    -105.636E-03    -103.952E-03     209.564E-03    -105.636E-03     25.5225E-03     176.727E+06     148.913E+06    -4.92480E+06    -4.92249E+06     176.724E+06     148.913E+06     611.150E+03         50.0158
             178     16.2108E-03     105.094E-03     146.944E-03     130.070E-03    -471.483E-03     129.578E-03    -470.991E-03     146.944E-03    -15.1482E-03     210.128E-03    -104.551E-03    -105.549E-03    -104.033E-03     209.610E-03    -105.549E-03     25.5203E-03     178.833E+06     147.877E+06    -3.87945E+06    -3.87780E+06     178.831E+06     147.877E+06     532.380E+03         50.0322
             179     16.2113E-03     106.329E-03     118.236E-03     104.850E-03    -402.821E-03     108.454E-03    -402.209E-03     114.020E-03    -9.76235E-03     210.087E-03    -104.566E-03    -105.487E-03    -104.036E-03     209.557E-03    -105.487E-03     25.7993E-03     178.247E+06     146.100E+06    -4.50647E+06    -4.50484E+06     178.246E+06     146.100E+06     527.574E+03         50.0526
             180     16.2116E-03     107.563E-03     117.489E-03     81.7754E-03    -370.508E-03     117.045E-03    -370.063E-03     81.7754E-03     29.1067E-03     210.066E-03    -104.582E-03    -105.431E-03    -104.024E-03     209.507E-03    -105.431E-03     26.4753E-03     177.034E+06     142.837E+06    -4.22056E+06    -4.22008E+06     177.034E+06     142.837E+06     276.662E+03         50.0787
             181     16.2130E-03     108.798E-03     124.705E-03     50.3683E-03    -331.245E-03     124.302E-03    -330.842E-03     50.3683E-03     26.6047E-03     210.165E-03    -104.721E-03    -105.363E-03    -104.161E-03     209.604E-03    -105.363E-03     26.5328E-03     174.735E+06     139.025E+06    -4.30361E+06    -4.30174E+06     174.733E+06     139.025E+06    -316.227E+03         50.1122
             182     16.2136E-03     110.031E-03     96.3497E-03     19.6875E-03    -268.606E-03     95.8406E-03    -268.097E-03     19.6875E-03    -5.70515E-03     210.629E-03    -105.058E-03    -105.573E-03    -104.763E-03     210.072E-03    -105.310E-03     26.5184E-03     174.397E+06     138.176E+06    -3.30971E+06    -3.30531E+06     174.393E+06     138.176E+06     80.5132E+03         50.1531
             183     16.2140E-03     111.269E-03     66.7755E-03    -9.20793E-03    -193.736E-03     66.0462E-03    -193.007E-03    -9.20793E-03    -3.58875E-03     211.129E-03    -105.298E-03    -105.871E-03    -105.312E-03     210.571E-03    -105.298E-03     26.5801E-03     170.988E+06     138.621E+06    -4.20487E+06    -4.20182E+06     170.985E+06     138.621E+06     676.650E+03         50.2007
             184     16.2141E-03     112.503E-03     79.0774E-03    -35.7549E-03    -160.152E-03     78.7239E-03    -159.799E-03    -35.7549E-03     8.79279E-03     211.194E-03    -105.270E-03    -105.925E-03    -105.379E-03     210.647E-03    -105.270E-03     26.3030E-03     162.497E+06     134.364E+06    -5.81891E+06    -5.78082E+06     162.459E+06     134.364E+06    -1.56025E+06         50.2548
             185     16.2152E-03     113.738E-03     81.8380E-03    -60.5250E-03    -134.128E-03     81.8187E-03    -134.109E-03    -60.5250E-03    -3.48829E-03     211.308E-03    -105.222E-03    -106.080E-03    -105.563E-03     210.791E-03    -105.222E-03     25.5657E-03     155.146E+06     133.114E+06    -3.25784E+06    -3.20463E+06     155.093E+06     133.114E+06    -2.84680E+06         50.3167
             186     16.2159E-03     114.975E-03     42.9434E-03    -51.3379E-03    -96.8164E-03     42.8458E-03    -65.4028E-03    -82.6539E-03     2.76119E-03     211.782E-03    -105.179E-03    -106.595E-03    -106.091E-03     211.277E-03    -105.179E-03     25.3219E-03     145.578E+06     131.960E+06    -5.15152E+06    -5.00099E+06     145.427E+06     131.960E+06    -4.25446E+06         50.3873
             187     16.2161E-03     116.211E-03     39.3827E-03    -27.5867E-03    -100.757E-03     39.2174E-03    -27.4215E-03    -100.757E-03    -303.753E-06     212.300E-03    -105.098E-03    -107.196E-03    -106.660E-03     211.763E-03    -105.098E-03     26.1695E-03     132.128E+06     124.178E+06    -3.51278E+06    -3.31023E+06     131.925E+06     124.178E+06    -5.19885E+06         50.4689
             188     16.2175E-03     117.450E-03     61.3074E-03    -25.3194E-03    -115.505E-03     55.7683E-03    -19.7802E-03    -115.505E-03    -32.5229E-03     212.868E-03    -105.000E-03    -107.867E-03    -107.296E-03     212.297E-03    -105.000E-03     27.0272E-03     117.367E+06     111.494E+06    -6.18758E+06    -5.54105E+06     113.552E+06     114.662E+06    -7.85341E+06         50.5649
             189     16.2183E-03     118.687E-03     64.8497E-03    -9.65733E-03    -128.090E-03     36.2266E-03     18.9658E-03    -128.090E-03    -54.7855E-03     214.275E-03    -104.914E-03    -109.368E-03    -108.778E-03     213.685E-03    -104.914E-03     27.5976E-03     111.644E+06     90.7635E+06    -4.93046E+06    -3.41143E+06     89.2445E+06     111.644E+06    -11.6114E+06         50.6776
             190     16.2196E-03     119.928E-03     59.8670E-03     17.4155E-03    -138.002E-03     24.6695E-03     52.6130E-03    -138.002E-03    -28.3177E-03     216.252E-03    -104.815E-03    -111.444E-03    -110.869E-03     215.678E-03    -104.815E-03     27.4090E-03     105.638E+06     58.5377E+06    -5.89719E+06    -3.62301E+06     56.2635E+06     105.638E+06    -11.7349E+06         50.8056
             191     16.2201E-03     121.169E-03     67.1124E-03     25.1592E-03    -143.036E-03     25.7798E-03     66.4919E-03    -143.036E-03     4.78257E-03     218.454E-03    -104.714E-03    -113.737E-03    -113.166E-03     217.883E-03    -104.714E-03     27.5272E-03     100.150E+06     29.8724E+06    -6.76279E+06    -1.90397E+06     25.0136E+06     100.150E+06    -10.2677E+06         50.9438
             192     16.2211E-03     122.414E-03     96.9082E-03     15.2912E-03    -144.621E-03     18.7912E-03     93.4081E-03    -144.621E-03    -16.8682E-03     220.940E-03    -104.620E-03    -116.312E-03    -115.768E-03     220.395E-03    -104.620E-03     27.0664E-03     93.7601E+06     7.42776E+06    -10.1561E+06    -2.37410E+06    -354.208E+03     93.7601E+06    -8.69940E+06         51.0835
             193     16.2204E-03     123.664E-03     108.177E-03    -1.21354E-03    -144.757E-03     2.05180E-03     104.911E-03    -144.757E-03    -16.9198E-03     223.354E-03    -104.543E-03    -118.813E-03    -118.273E-03     222.814E-03    -104.543E-03     27.1721E-03     86.3342E+06     2.56893E+06    -30.3525E+06    -2.83126E+06    -24.9522E+06     86.3342E+06    -8.96519E+06         51.2123
             194     16.2213E-03     124.915E-03     110.986E-03    -2.23321E-03    -139.725E-03    -1.43423E-03     110.187E-03    -139.725E-03     18.5106E-03     225.368E-03    -104.475E-03    -120.898E-03    -120.341E-03     224.811E-03    -104.475E-03     27.7487E-03     78.8894E+06    -695.733E+03    -52.4492E+06    -2.08014E+06    -51.0648E+06     78.8894E+06    -8.19195E+06         51.3153
             195     16.2210E-03     126.167E-03     108.184E-03     11.0745E-03    -130.379E-03     17.1722E-03     102.087E-03    -130.379E-03    -17.0769E-03     227.383E-03    -104.411E-03    -122.966E-03    -122.414E-03     226.830E-03    -104.411E-03     27.7970E-03     73.3837E+06    -1.80991E+06    -77.3518E+06    -3.11247E+06    -76.0493E+06     73.3837E+06    -9.83366E+06         51.3735
             196     16.2219E-03     127.423E-03     97.3960E-03    -2.73696E-03    -120.686E-03     3.20591E-03     91.4532E-03    -120.686E-03    -37.9193E-03     229.725E-03    -104.341E-03    -125.376E-03    -124.866E-03     229.215E-03    -104.341E-03     26.8596E-03     68.2729E+06      -92.47E+03    -109.679E+06    -1.67467E+06    -108.097E+06     68.2729E+06    -13.0254E+06         51.3637
             197     16.2219E-03     128.680E-03     97.1883E-03    -9.44633E-03    -107.525E-03    -8.91103E-03     96.6530E-03    -107.525E-03    -4.74707E-03     231.874E-03    -104.264E-03    -127.608E-03    -127.130E-03     231.396E-03    -104.264E-03     26.1971E-03     64.7910E+06     3.35103E+06    -135.256E+06     2.59263E+06    -134.497E+06     64.7910E+06    -6.61861E+06         51.2568
             198     16.2229E-03     129.944E-03     91.3928E-03    -7.12189E-03    -90.9354E-03     10.7595E-03     73.5114E-03    -90.9354E-03    -43.3085E-03     234.154E-03    -104.170E-03    -129.984E-03    -129.449E-03     233.619E-03    -104.170E-03     27.8741E-03     59.0553E+06    -4.72030E+06    -150.244E+06    -5.18835E+06    -149.776E+06     59.0553E+06    -5.46840E+06         51.0245
             199     16.2229E-03     131.206E-03     70.0521E-03    -16.1022E-03    -74.3812E-03     2.42450E-03     51.5254E-03    -74.3812E-03    -58.6727E-03     236.402E-03    -104.029E-03    -132.373E-03    -131.857E-03     235.886E-03    -104.029E-03     27.4954E-03     52.2490E+06     5.18859E+06    -164.895E+06     4.64950E+06    -164.356E+06     52.2490E+06    -2.95030E+06         50.6612
             200     16.2247E-03     132.472E-03     66.6294E-03    -17.6258E-03    -56.7453E-03    -14.3470E-03     63.3505E-03    -56.7453E-03    -31.8925E-03     236.152E-03    -103.967E-03    -132.183E-03    -131.798E-03     235.766E-03    -103.967E-03     23.7425E-03     42.0412E+06    -7.48367E+06    -181.088E+06    -8.71036E+06    -179.861E+06     42.0412E+06    -6.35887E+06         50.2248
             201     16.2240E-03     133.735E-03     67.4456E-03    -23.5362E-03    -37.9036E-03    -5.80387E-03     49.7132E-03    -37.9036E-03    -62.1096E-03     232.183E-03    -103.974E-03    -128.213E-03    -127.798E-03     231.767E-03    -103.974E-03     24.2614E-03     70.9911E+06     2.86433E+06    -169.277E+06     26.7172E+06    -164.237E+06     42.0989E+06     12.9905E+06         49.8522
             202     16.2302E-03     134.996E-03     46.9132E-03    -17.6566E-03    -23.5646E-03     11.5581E-03     12.1056E-03    -17.9717E-03    -66.0852E-03     211.279E-03    -96.1120E-03    -115.173E-03    -106.552E-03     210.971E-03    -104.426E-03     8.07571E-03     55.0031E+06     24.5691E+06    -119.247E+06     14.1392E+06    -78.3830E+06     24.5691E+06     39.5642E+06         49.6490
             203     15.2730E-03     136.165E-03     38.2419E-03    -8.55861E-03    -20.1046E-03     7.56240E-03     10.5750E-03    -8.55861E-03     1.42936E-03     193.082E-03    -87.7202E-03    -105.366E-03    -87.6143E-03     192.977E-03    -105.366E-03    -10.9021E-03     23.9663E+06     13.1083E+06    -87.9054E+06    -79.4916E+06     15.5526E+06     13.1083E+06     14.8105E+06         48.2978
             204     14.3500E-03     136.079E-03     42.3400E-03    -10.4011E-03    -25.5248E-03    -15.5659E-03     32.3811E-03    -10.4011E-03     10.6085E-03     191.965E-03    -85.6755E-03    -106.294E-03    -85.4616E-03     191.751E-03    -106.294E-03    -14.8808E-03     29.9056E+06     15.1976E+06    -80.1568E+06    -70.2369E+06     14.5940E+06     20.5894E+06    -19.3656E+06         45.4741
             205     13.4275E-03     135.970E-03     39.5502E-03    -11.8189E-03    -28.7142E-03    -20.2679E-03     31.1039E-03    -11.8189E-03     8.97689E-03     190.914E-03    -83.5583E-03    -107.360E-03    -82.9248E-03     190.280E-03    -107.360E-03    -25.4481E-03     20.5005E+06    -6.00123E+06    -60.3391E+06    -50.4745E+06    -15.8658E+06     20.5005E+06    -15.7065E+06         42.5991
             206     12.5075E-03     135.872E-03     34.7911E-03    -10.2022E-03    -21.3241E-03    -9.05418E-03     25.9185E-03    -13.5995E-03     11.8792E-03     193.375E-03    -84.7785E-03    -108.632E-03    -83.7442E-03     192.341E-03    -108.632E-03    -33.8405E-03     41.7777E+06     6.85971E+06    -44.2449E+06    -40.0196E+06     2.63446E+06     41.7777E+06    -10.3637E+06         40.1526
             207     11.5984E-03     135.767E-03     33.9350E-03    -4.92828E-03    -16.2611E-03    -2.11437E-03     31.1211E-03    -16.2611E-03    -7.56150E-03     197.885E-03    -88.0142E-03    -109.909E-03    -86.7534E-03     196.624E-03    -109.909E-03    -37.8399E-03     52.0472E+06    -1.15364E+06    -37.8289E+06    -32.9842E+06    -5.99833E+06     52.0472E+06    -12.1921E+06         38.2587
             208     10.6880E-03     135.676E-03     29.3622E-03    -11.1651E-03    -19.5233E-03    -5.62000E-03     23.8172E-03    -19.5233E-03     25.1187E-03     202.722E-03    -91.6166E-03    -111.114E-03    -90.2285E-03     201.334E-03    -111.114E-03    -40.3277E-03      64.595E+06    -4.25578E+06    -32.0380E+06    -30.4510E+06    -5.84279E+06      64.595E+06    -5.66129E+06         37.0456
             209     9.78571E-03     135.584E-03     34.5279E-03    -15.5819E-03    -23.0065E-03    -7.04428E-03     25.9902E-03    -23.0065E-03     37.2832E-03     207.430E-03    -95.1909E-03    -112.239E-03    -93.8489E-03     206.088E-03    -112.239E-03    -40.2083E-03     75.8735E+06     12.6230E+06    -33.9317E+06    -26.7979E+06     5.48929E+06     75.8735E+06    -14.2375E+06         36.5610
             210     8.88396E-03     135.501E-03     39.2505E-03    -14.1404E-03    -26.4844E-03    -10.4509E-03     35.5610E-03    -26.4844E-03     22.3847E-03     211.949E-03    -98.6747E-03    -113.314E-03    -97.3884E-03     210.662E-03    -113.314E-03    -39.8888E-03     77.0339E+06     3.97237E+06    -28.6903E+06    -17.9102E+06    -6.80772E+06     77.0339E+06    -15.3069E+06         36.5603
             211     7.98653E-03     135.423E-03     46.6109E-03    -23.9327E-03    -30.5132E-03    -24.9445E-03     46.3843E-03    -29.2749E-03     7.26499E-03     216.642E-03    -102.437E-03    -114.234E-03    -101.184E-03     215.389E-03    -114.234E-03    -39.9111E-03     82.7849E+06     4.58403E+06    -19.5211E+06    -10.3877E+06    -4.54941E+06     82.7849E+06    -11.6937E+06         36.7049
             212     7.09176E-03     135.352E-03     50.6602E-03    -29.2867E-03    -32.6156E-03    -28.4495E-03     48.5845E-03    -31.3772E-03     19.5374E-03     220.640E-03    -105.670E-03    -114.969E-03    -104.551E-03     219.522E-03    -114.969E-03    -38.0690E-03     83.0407E+06     14.7480E+06    -16.2605E+06    -4.63868E+06     3.12616E+06     83.0407E+06    -15.0097E+06         36.8594
             213     6.20060E-03     135.289E-03     28.9285E-03    -12.5840E-03    -35.0163E-03    -9.24070E-03     25.5852E-03    -35.0163E-03     12.0632E-03     224.247E-03    -108.619E-03    -115.650E-03    -107.715E-03     223.344E-03    -115.650E-03    -34.5815E-03     81.7077E+06     21.5993E+06    -19.4199E+06     5.77661E+06    -3.59729E+06     81.7077E+06    -17.5813E+06         37.0035
             214     5.31176E-03     135.232E-03     24.5622E-03    -7.45096E-03    -41.5043E-03    -2.57725E-03     19.6885E-03    -41.5043E-03     13.5594E-03     226.747E-03    -110.546E-03    -116.256E-03    -109.823E-03     226.024E-03    -116.256E-03    -31.1359E-03     78.3148E+06     22.6382E+06    -14.9432E+06     16.8828E+06    -9.18784E+06     78.3148E+06    -13.4500E+06         37.1447
             215     4.42258E-03     135.184E-03     61.7179E-03    -32.3861E-03    -61.8219E-03    -42.2915E-03     55.8991E-03    -46.0976E-03    -8.88510E-03     229.085E-03    -112.344E-03    -116.774E-03    -111.768E-03     228.509E-03    -116.774E-03    -27.9804E-03     70.5202E+06     32.9307E+06    -3.40140E+06     28.2826E+06     1.24665E+06     70.5202E+06    -12.1286E+06         37.2736
             216     3.53483E-03     135.148E-03     94.2520E-03    -42.1717E-03    -85.2666E-03    -81.1612E-03     90.1466E-03    -42.1717E-03    -53.4570E-03     231.926E-03    -114.759E-03    -117.206E-03    -114.342E-03     231.509E-03    -117.206E-03    -23.8356E-03     65.3465E+06     45.0008E+06    -6.80621E+06     40.3127E+06    -2.11811E+06     65.3465E+06    -14.5179E+06         37.3724
             217     2.65122E-03     135.116E-03     56.6006E-03    -34.5109E-03    -64.2018E-03    -53.7575E-03     46.1562E-03    -34.5109E-03    -3.09576E-03     233.692E-03    -116.209E-03    -117.520E-03    -115.955E-03     233.438E-03    -117.520E-03    -18.7351E-03     71.8918E+06     57.0904E+06    -9.64287E+06     54.4066E+06    -6.95904E+06     71.8918E+06    -12.6801E+06         37.4566
             218     1.76569E-03     135.095E-03     35.9033E-03    -35.9078E-03    -55.7737E-03    -18.7621E-03    -1.10825E-03    -35.9078E-03     89.7704E-03     234.613E-03    -116.851E-03    -117.752E-03    -116.708E-03     234.470E-03    -117.752E-03    -13.9584E-03     73.3304E+06     65.1166E+06    -3.99405E+06     64.8236E+06    -2.60371E+06     72.2330E+06    -9.76314E+06         37.5278
             219     883.327E-06     135.083E-03     91.4803E-03     4.64766E-03    -137.937E-03     40.1246E-03     38.4578E-03    -120.391E-03     101.539E-03     235.850E-03    -116.707E-03    -119.146E-03    -118.753E-03     235.777E-03    -117.028E-03    -10.0325E-03     76.6713E+06     72.8181E+06    -9.38173E+06     72.3601E+06    -7.82640E+06     75.5740E+06    -11.2705E+06         37.5752
             220    -565.650E-09     133.819E-03     119.064E-03     64.4349E-03    -204.894E-03     89.8486E-03     93.6508E-03    -204.894E-03     27.7634E-03     224.807E-03    -111.264E-03    -113.544E-03    -113.344E-03     224.768E-03    -111.426E-03    -7.12675E-03     51.4986E+06     44.6509E+06    -39.2607E+06     47.1086E+06    -37.6266E+06     47.4068E+06    -11.8744E+06         36.9994
             221     185.431E-09     132.578E-03     140.428E-03    -6.44033E-03    -157.278E-03     23.1969E-03     110.790E-03    -157.278E-03     100.343E-03     204.318E-03    -102.058E-03    -102.262E-03    -102.088E-03     204.306E-03    -102.219E-03    -2.50880E-03    -14.7028E+06    -20.7149E+06    -77.1201E+06    -17.6917E+06    -76.0514E+06    -18.7946E+06    -7.96849E+06         35.6970
             222    -119.906E-09     131.361E-03     202.559E-03    -66.1846E-03    -151.763E-03    -34.1447E-03     170.519E-03    -151.763E-03     149.472E-03     188.536E-03    -93.9439E-03    -94.5972E-03    -93.9848E-03     188.534E-03    -94.5542E-03     1.34389E-03    -71.0079E+06    -77.9762E+06    -109.811E+06    -75.0575E+06    -107.682E+06    -76.0559E+06    -7.76256E+06         34.4950
             223    -1.05353E-06     130.160E-03     257.145E-03    -100.059E-03    -185.712E-03    -70.3530E-03     227.439E-03    -185.712E-03     184.202E-03     178.092E-03    -88.6867E-03    -89.4100E-03    -88.7758E-03     178.068E-03    -89.2970E-03     4.43315E-03    -123.921E+06    -143.842E+06    -155.934E+06    -141.865E+06    -137.991E+06    -143.842E+06    -6.86667E+06         33.7354
             224     1.21446E-06     128.970E-03     245.664E-03    -103.443E-03    -180.489E-03    -76.8975E-03     219.119E-03    -180.489E-03     147.365E-03     174.526E-03    -87.1587E-03    -87.3697E-03    -87.2251E-03     174.479E-03    -87.2567E-03     6.97358E-03    -171.121E+06    -210.182E+06    -216.899E+06    -213.425E+06    -174.595E+06    -210.182E+06    -11.1529E+06         33.3809
             225    -1.43627E-06     127.779E-03     251.191E-03    -61.0960E-03    -238.605E-03    -59.7011E-03     249.796E-03    -238.605E-03    -26.1641E-03     173.647E-03    -86.7383E-03    -86.9158E-03    -86.7051E-03     173.613E-03    -86.9158E-03     5.69132E-03    -211.196E+06    -237.533E+06    -246.489E+06    -239.029E+06    -214.848E+06    -241.341E+06    -8.34153E+06         33.2877
             226     1.21136E-06     126.594E-03     411.422E-03    -108.668E-03    -350.779E-03    -107.200E-03     409.953E-03    -350.779E-03    -43.9030E-03     174.088E-03    -86.6071E-03    -87.4839E-03    -87.3843E-03     174.067E-03    -86.6865E-03     4.57948E-03    -195.284E+06    -200.505E+06    -236.179E+06    -200.090E+06    -230.636E+06    -201.242E+06     1.00773E+06         33.3336
             227     245.221E-09     125.402E-03     505.387E-03    -159.010E-03    -382.531E-03    -158.501E-03     504.878E-03    -382.531E-03     9.68184E-03     176.232E-03    -87.4984E-03    -88.7344E-03    -88.7141E-03     176.212E-03    -87.4984E-03     4.61871E-03    -151.826E+06    -156.362E+06    -234.496E+06    -154.992E+06    -234.402E+06    -153.289E+06    -1.94028E+06         33.4736
             228     527.695E-09     124.209E-03     405.289E-03    -140.992E-03    -320.961E-03    -140.051E-03     404.347E-03    -320.961E-03     376.901E-06     177.804E-03    -88.6242E-03    -89.1842E-03    -89.0374E-03     177.779E-03    -88.7456E-03     5.13936E-03    -138.100E+06    -140.298E+06    -241.938E+06    -138.197E+06    -241.841E+06    -140.298E+06    -2.65140E+06         33.6299
             229    -799.257E-09     123.014E-03     309.073E-03    -106.725E-03    -272.140E-03    -105.990E-03     308.339E-03    -272.140E-03    -10.1953E-03     179.603E-03    -89.7151E-03    -89.8880E-03    -89.6861E-03     179.574E-03    -89.8880E-03     5.56681E-03    -133.843E+06    -134.777E+06    -247.818E+06    -133.916E+06    -247.745E+06    -134.777E+06     1.42671E+06         33.8023
             230     663.168E-09     121.819E-03     359.859E-03    -157.000E-03    -262.856E-03    -156.791E-03     359.650E-03    -262.856E-03     5.92988E-03     182.212E-03    -90.7435E-03    -91.4630E-03    -91.3921E-03     182.192E-03    -90.7950E-03     4.56231E-03    -124.656E+06    -126.251E+06    -246.363E+06    -126.146E+06    -246.269E+06    -124.855E+06     705.842E+03         34.0518
             231     566.270E-09     120.617E-03     442.140E-03    -206.028E-03    -291.297E-03    -252.905E-03     435.661E-03    -237.941E-03    -104.077E-03     185.166E-03    -92.0978E-03    -93.0625E-03    -93.0371E-03     185.140E-03    -92.0978E-03     5.18263E-03    -120.594E+06    -123.016E+06    -247.587E+06    -122.067E+06    -247.509E+06    -121.621E+06    -3.08093E+06         34.3488
             232    -79.4136E-09     119.412E-03     450.567E-03    -213.795E-03    -302.004E-03    -291.825E-03     440.389E-03    -213.795E-03    -23.9164E-03     189.855E-03    -94.7064E-03    -95.1448E-03    -94.9702E-03     189.822E-03    -94.8482E-03     6.10062E-03    -124.536E+06    -126.007E+06    -253.597E+06    -124.607E+06    -253.526E+06    -126.007E+06    -672.425E+03         34.6562
             233    -207.791E-09     118.201E-03     455.756E-03    -200.915E-03    -332.643E-03    -327.180E-03     450.293E-03    -200.915E-03     127.795E-03     193.943E-03    -96.7800E-03    -97.1498E-03    -96.7636E-03     193.927E-03    -97.1498E-03     3.92757E-03    -129.082E+06    -130.186E+06    -259.651E+06    -129.813E+06    -259.581E+06    -129.526E+06    -668.372E+03         34.9409
             234    -191.109E-09     116.987E-03     309.615E-03    -79.2909E-03    -339.135E-03    -337.374E-03     307.855E-03    -79.2909E-03     58.3394E-03     196.075E-03    -97.8973E-03    -98.1622E-03    -97.8845E-03     196.062E-03    -98.1622E-03     3.56610E-03    -136.078E+06    -136.949E+06    -271.086E+06    -137.001E+06    -271.034E+06    -136.078E+06    -2.02797E+06         35.1847
             235     117.232E-09     115.769E-03     111.696E-03     21.6176E-03    -252.032E-03    -251.717E-03     91.7673E-03     41.2313E-03     16.0729E-03     199.402E-03    -99.6302E-03    -99.7693E-03    -99.7134E-03     199.383E-03    -99.6672E-03     4.73116E-03    -134.126E+06    -134.856E+06    -275.323E+06    -134.419E+06    -275.241E+06    -134.646E+06    -2.62387E+06         35.4104
             236     54.0115E-09     114.547E-03     156.777E-03     47.1980E-03    -313.023E-03    -312.348E-03     136.487E-03     66.8117E-03     34.1759E-03     202.293E-03    -101.074E-03    -101.220E-03    -101.206E-03     202.279E-03    -101.074E-03     4.12416E-03    -135.355E+06    -136.359E+06    -282.149E+06    -135.438E+06    -282.067E+06    -136.359E+06    -2.10496E+06         35.6043
             237     6.32837E-09     113.323E-03     228.818E-03     110.522E-03    -440.053E-03    -439.064E-03     227.828E-03     110.522E-03     51.0405E-03     203.272E-03    -101.516E-03    -101.752E-03    -101.744E-03     203.264E-03    -101.516E-03     3.04324E-03    -143.583E+06    -145.311E+06    -297.594E+06    -145.005E+06    -297.415E+06    -144.068E+06    -3.39351E+06         35.7413
             238     377.163E-09     112.101E-03     225.244E-03     120.902E-03    -458.085E-03    -440.618E-03     131.766E-03     196.913E-03     160.894E-03     204.211E-03    -101.783E-03    -102.423E-03    -102.421E-03     204.208E-03    -101.783E-03     1.62235E-03    -149.590E+06    -153.424E+06    -310.898E+06    -151.034E+06    -310.697E+06    -152.181E+06    -2.28599E+06         35.8435
             239     418.196E-09     110.875E-03     315.068E-03     43.3047E-03    -482.015E-03    -431.587E-03    -7.12351E-03     315.068E-03     302.131E-03     205.458E-03    -102.483E-03    -102.974E-03    -102.929E-03     205.456E-03    -102.527E-03     1.45277E-03    -147.369E+06    -152.587E+06    -310.712E+06    -150.023E+06    -310.685E+06    -149.960E+06     1.93090E+06         35.9331
             240    -466.539E-09     109.646E-03     426.573E-03    -36.7449E-03    -523.130E-03    -383.488E-03    -176.387E-03     426.573E-03     406.931E-03     207.004E-03    -103.270E-03    -103.733E-03    -103.266E-03     207.000E-03    -103.733E-03     2.28222E-03    -154.326E+06    -157.500E+06    -314.036E+06    -157.018E+06    -313.970E+06    -154.873E+06    -1.69814E+06         36.0098
             241    -301.833E-09     108.417E-03     464.358E-03    -60.4911E-03    -580.047E-03    -351.070E-03    -289.468E-03     464.358E-03     515.882E-03     208.113E-03    -103.580E-03    -104.529E-03    -104.107E-03     208.110E-03    -103.999E-03     1.17284E-03    -155.345E+06    -156.617E+06    -319.883E+06    -155.422E+06    -319.806E+06    -156.617E+06    -1.09110E+06         36.0822
             242     1.26256E-06     107.187E-03     465.582E-03     5.13221E-03    -655.465E-03    -352.838E-03    -297.495E-03     465.582E-03     657.879E-03     208.114E-03    -103.393E-03    -104.719E-03    -104.717E-03     208.112E-03    -103.393E-03     881.450E-06    -150.897E+06    -152.773E+06    -324.199E+06    -152.208E+06    -324.038E+06    -151.622E+06    -2.42360E+06         36.1413
             243     182.740E-09     105.956E-03     530.021E-03     10.1891E-03    -718.763E-03    -340.272E-03    -368.302E-03     530.021E-03     724.987E-03     208.890E-03    -103.869E-03    -105.020E-03    -104.658E-03     208.883E-03    -104.225E-03     2.78321E-03    -154.375E+06    -159.049E+06    -334.462E+06    -155.676E+06    -334.311E+06    -157.898E+06    -2.86769E+06         36.1811
             244    -863.973E-09     104.723E-03     571.069E-03     30.3435E-03    -802.292E-03    -330.490E-03    -441.459E-03     571.069E-03     825.196E-03     209.618E-03    -104.492E-03    -105.125E-03    -104.487E-03     209.612E-03    -105.125E-03     2.19046E-03    -153.430E+06    -160.797E+06    -337.361E+06    -157.284E+06    -337.350E+06    -156.954E+06     1.40593E+06         36.2194
             245     453.566E-09     103.492E-03     607.433E-03     146.572E-03    -974.439E-03    -215.430E-03    -612.437E-03     607.433E-03         1.02202     209.696E-03    -104.597E-03    -105.088E-03    -104.807E-03     209.691E-03    -104.874E-03     2.03641E-03    -153.347E+06    -159.619E+06    -341.822E+06    -157.277E+06    -341.735E+06    -155.775E+06    -2.07615E+06         36.2642
             246    -90.8476E-09     102.260E-03     725.015E-03     204.016E-03        -1.18704    -93.8347E-03    -889.188E-03     725.015E-03         1.13895     210.654E-03    -104.996E-03    -105.649E-03    -105.644E-03     210.649E-03    -104.996E-03     2.20544E-03    -153.084E+06    -156.130E+06    -348.865E+06    -153.791E+06    -348.775E+06    -155.512E+06    -1.89046E+06         36.3084
             247     911.634E-09     101.025E-03     660.107E-03     236.095E-03        -1.14765    -40.5122E-03    -871.047E-03     660.107E-03         1.10659     211.285E-03    -105.213E-03    -106.075E-03    -106.070E-03     211.280E-03    -105.213E-03     2.19033E-03    -153.696E+06    -155.901E+06    -351.393E+06    -155.957E+06    -351.337E+06    -153.696E+06    -1.24035E+06         36.3407
             248    -103.364E-09     99.7917E-03     497.421E-03     335.728E-03        -1.07243     75.1879E-03    -790.006E-03     475.541E-03         1.13826     211.066E-03    -105.145E-03    -105.924E-03    -105.565E-03     211.062E-03    -105.500E-03     1.85934E-03    -153.781E+06    -158.859E+06    -354.101E+06    -155.415E+06    -354.053E+06    -157.273E+06    -2.00402E+06         36.3530
             249    -564.941E-09     98.5599E-03     562.865E-03     391.730E-03        -1.19640     282.777E-03    -916.316E-03     391.730E-03         1.28005     210.627E-03    -105.067E-03    -105.560E-03    -105.205E-03     210.627E-03    -105.422E-03     579.754E-06    -150.089E+06    -157.637E+06    -352.080E+06    -154.153E+06    -352.072E+06    -153.581E+06     973.649E+03         36.3553
             250     898.899E-09     97.3266E-03     796.661E-03     340.363E-03        -1.37812     557.397E-03        -1.13885     340.363E-03         1.35361     210.561E-03    -105.061E-03    -105.500E-03    -105.498E-03     210.560E-03    -105.061E-03     1.23780E-03    -149.257E+06    -157.812E+06    -352.141E+06    -153.356E+06    -352.098E+06    -153.756E+06    -1.06828E+06         36.3633
             251    -399.917E-09     96.0930E-03         1.07379     203.122E-03        -1.54370     811.158E-03        -1.28106     203.122E-03         1.57131     211.023E-03    -105.348E-03    -105.678E-03    -105.649E-03     211.022E-03    -105.377E-03     1.17322E-03    -148.386E+06    -155.696E+06    -350.931E+06    -151.335E+06    -350.793E+06    -152.884E+06     1.24837E+06         36.3758
             252     403.784E-09     94.8610E-03         1.24110    -78.5207E-03        -1.44086     923.517E-03        -1.12328    -78.5207E-03         1.73060     211.574E-03    -105.743E-03    -105.831E-03    -105.802E-03     211.573E-03    -105.771E-03     750.380E-06    -148.718E+06    -152.908E+06    -346.804E+06    -151.642E+06    -346.691E+06    -150.096E+06     2.17203E+06         36.3942
             253    -290.559E-09     93.6245E-03         1.44481    -354.484E-03        -1.37456         1.09849        -1.02823    -354.484E-03         1.85007     211.763E-03    -105.494E-03    -106.261E-03    -105.551E-03     211.760E-03    -106.201E-03     1.60577E-03    -150.675E+06    -152.094E+06    -347.810E+06    -150.772E+06    -347.713E+06    -152.094E+06     1.94169E+06         36.4072
             254    -961.160E-09     92.3896E-03         1.87697    -511.377E-03        -1.66277         1.53031        -1.31610    -511.377E-03         2.09505     211.169E-03    -104.984E-03    -106.182E-03    -104.982E-03     211.167E-03    -106.182E-03     1.44895E-03    -146.604E+06    -149.004E+06    -343.830E+06    -149.052E+06    -343.742E+06    -146.645E+06     3.28116E+06         36.4096
             255     127.144E-09     91.1576E-03         2.25818    -698.463E-03        -1.86565         1.89705        -1.50452    -698.463E-03         2.33062     211.170E-03    -104.916E-03    -106.256E-03    -105.763E-03     211.168E-03    -105.407E-03     1.56146E-03    -141.895E+06    -146.179E+06    -339.541E+06    -144.289E+06    -339.506E+06    -143.820E+06    -1.46542E+06         36.4118
             256     1.39685E-06     89.9230E-03         2.47828        -1.04628        -1.73487         2.08784        -1.34443        -1.04628         2.44333     211.854E-03    -105.362E-03    -106.494E-03    -106.491E-03     211.851E-03    -105.362E-03     1.58701E-03    -143.766E+06    -146.654E+06    -341.856E+06    -144.763E+06    -341.821E+06    -145.691E+06    -1.53852E+06         36.4191
             257    -855.188E-09     88.6891E-03         2.68692        -1.40841        -1.59090         2.28746        -1.18572        -1.41413         2.48754     211.521E-03    -105.548E-03    -105.968E-03    -105.968E-03     211.520E-03    -105.548E-03     965.828E-06    -146.909E+06    -148.774E+06    -343.513E+06    -147.873E+06    -343.512E+06    -147.811E+06     578.359E+03         36.4165
             258     1.10490E-06     87.4541E-03         2.98679        -1.62254        -1.68570         2.57581        -1.21156        -1.68570         2.62639     211.268E-03    -105.374E-03    -105.887E-03    -105.884E-03     211.265E-03    -105.374E-03     1.87653E-03    -144.581E+06    -146.721E+06    -340.884E+06    -145.828E+06    -340.875E+06    -145.483E+06    -601.305E+03         36.4001
             259    -386.962E-09     86.2202E-03         3.30471        -1.78523        -1.85399         2.90367        -1.38418        -1.85399         2.73989     211.626E-03    -105.583E-03    -106.038E-03    -105.954E-03     211.623E-03    -105.663E-03     2.01800E-03    -145.687E+06    -149.840E+06    -344.521E+06    -146.959E+06    -344.487E+06    -148.602E+06     713.367E+03         36.3967
             260     202.364E-09     84.9868E-03         3.50843        -1.78306        -2.07212         3.14250        -1.41713        -2.07212         2.68409     211.613E-03    -105.737E-03    -105.870E-03    -105.736E-03     211.612E-03    -105.870E-03     1.18520E-03    -144.035E+06    -151.607E+06    -343.613E+06    -148.719E+06    -343.586E+06    -146.950E+06     2.02115E+06         36.3976
             261    -222.094E-09     83.7522E-03         3.64749        -1.57631        -2.40926         3.31454        -1.24335        -2.40926         2.55188     211.302E-03    -105.371E-03    -105.924E-03    -105.870E-03     211.300E-03    -105.424E-03     1.31879E-03    -139.222E+06    -149.269E+06    -340.213E+06    -143.896E+06    -340.196E+06    -144.613E+06    -852.252E+03         36.3958
             262     1.07416E-06     82.5182E-03         3.81174        -1.48803        -2.66164         3.49367        -1.16995        -2.66164         2.51726     211.276E-03    -105.189E-03    -106.077E-03    -106.074E-03     211.273E-03    -105.189E-03     1.94025E-03    -139.686E+06    -148.729E+06    -341.467E+06    -143.379E+06    -341.426E+06    -145.077E+06     291.626E+03         36.3980
             263    -320.206E-09     81.2846E-03         3.97464        -1.48252        -2.83963         3.67691        -1.18480        -2.83963         2.47720     211.234E-03    -105.205E-03    -106.024E-03    -105.587E-03     211.229E-03    -105.637E-03     2.44442E-03    -142.824E+06    -147.692E+06    -340.859E+06    -146.514E+06    -340.821E+06    -144.040E+06     443.207E+03         36.3984
             264    -481.186E-09     80.0490E-03         4.09884        -1.42547        -3.01772         3.83882        -1.16546        -3.01772         2.33780     211.202E-03    -105.263E-03    -105.940E-03    -105.503E-03     211.198E-03    -105.695E-03     2.34064E-03    -143.312E+06    -144.895E+06    -339.811E+06    -143.698E+06    -339.793E+06    -144.528E+06    -352.437E+03         36.4045
             265     954.633E-09     78.8183E-03         4.18528        -1.33511        -3.19257         3.93191        -1.08174        -3.19257         2.30937     211.309E-03    -105.496E-03    -105.817E-03    -105.739E-03     211.308E-03    -105.572E-03     1.18807E-03    -143.211E+06    -144.391E+06    -339.839E+06    -143.585E+06    -339.833E+06    -144.024E+06     628.401E+03         36.4176
             266    -1.09365E-06     77.5845E-03         4.21950        -1.23671        -3.33665         3.98016    -997.372E-03        -3.33665         2.23127     210.797E-03    -105.174E-03    -105.623E-03    -105.173E-03     210.797E-03    -105.623E-03    -207.257E-06    -142.089E+06    -143.919E+06    -340.589E+06    -143.111E+06    -340.584E+06    -142.901E+06    -835.308E+03         36.4151
             267     440.886E-09     76.3519E-03         4.23043        -1.13047        -3.45271         4.03028    -930.327E-03        -3.45271         2.03199     210.982E-03    -105.032E-03    -105.946E-03    -105.572E-03     210.981E-03    -105.405E-03     189.519E-06    -142.982E+06    -144.534E+06    -344.855E+06    -144.022E+06    -344.833E+06    -143.516E+06    -2.00885E+06         36.4017
             268     544.870E-09     75.1170E-03         4.16483    -953.010E-03        -3.56062         4.00433    -792.502E-03        -3.56062         1.77949     212.331E-03    -105.690E-03    -106.640E-03    -106.639E-03     212.329E-03    -105.690E-03     1.32877E-03    -144.298E+06    -146.134E+06    -346.420E+06    -144.319E+06    -346.398E+06    -146.134E+06    -2.01255E+06         36.4100
             269     189.445E-09     73.8798E-03         4.07957    -864.610E-03        -3.56243         3.95318    -738.216E-03        -3.56243         1.56015     212.319E-03    -105.885E-03    -106.431E-03    -106.430E-03     212.318E-03    -105.885E-03     1.12013E-03    -145.343E+06    -147.091E+06    -346.779E+06    -145.795E+06    -346.773E+06    -146.646E+06    -390.121E+03         36.4278
             270     71.5382E-09     72.6462E-03         3.96740    -847.425E-03        -3.47596         3.86189    -741.919E-03        -3.47596         1.40754     211.162E-03    -105.410E-03    -105.748E-03    -105.546E-03     211.161E-03    -105.611E-03     1.14210E-03    -148.838E+06    -149.526E+06    -349.654E+06    -149.295E+06    -349.643E+06    -149.080E+06     1.32818E+06         36.4260
             271    -413.486E-09     71.4132E-03         3.76944    -772.193E-03        -3.36645         3.67606    -678.814E-03        -3.36645         1.28846     211.232E-03    -105.442E-03    -105.792E-03    -105.441E-03     211.231E-03    -105.792E-03     995.505E-06    -146.309E+06    -146.944E+06    -347.153E+06    -146.740E+06    -347.115E+06    -146.552E+06     2.68827E+06         36.4182
             272     189.933E-09     70.1798E-03         3.53615    -720.164E-03        -3.18977         3.46759    -651.601E-03        -3.18977         1.05230     211.594E-03    -105.501E-03    -106.094E-03    -105.944E-03     211.594E-03    -105.650E-03     55.4258E-06    -142.286E+06    -142.719E+06    -343.248E+06    -142.748E+06    -343.218E+06    -142.286E+06     1.27723E+06         36.4259
             273     620.351E-09     68.9450E-03         3.18950    -563.509E-03        -3.00269         3.14698    -520.991E-03        -3.00269     792.790E-03     211.585E-03    -105.439E-03    -106.147E-03    -106.146E-03     211.584E-03    -105.439E-03     787.419E-06    -140.682E+06    -141.399E+06    -340.391E+06    -140.727E+06    -340.387E+06    -141.359E+06    -831.010E+03         36.4262
             274     15.3068E-03     66.8050E-03     244.975E-03     109.731E-03    -719.725E-03     244.697E-03    -719.448E-03     109.731E-03     11.9251E-03     210.341E-03    -104.652E-03    -105.705E-03    -103.825E-03     209.514E-03    -105.705E-03     31.6229E-03     145.345E+06     128.058E+06    -9.41044E+06    -9.40580E+06     145.340E+06     128.058E+06    -268.397E+03         48.6005
             275     14.4054E-03     66.7592E-03     231.159E-03     101.264E-03    -698.590E-03     230.591E-03    -698.022E-03     101.264E-03    -4.39985E-03     210.615E-03    -104.999E-03    -105.632E-03    -104.083E-03     209.699E-03    -105.632E-03     33.7088E-03     134.900E+06     105.862E+06    -16.9031E+06    -16.8812E+06     134.878E+06     105.862E+06    -973.187E+03         45.9647
             276     13.5048E-03     66.7239E-03     200.284E-03     93.2177E-03    -662.866E-03     199.845E-03    -662.428E-03     93.2177E-03    -10.6764E-03     210.270E-03    -104.721E-03    -105.570E-03    -104.038E-03     209.586E-03    -105.570E-03     29.3219E-03     127.285E+06     91.2858E+06    -23.0407E+06    -23.0197E+06     127.264E+06     91.2858E+06    -872.353E+03         43.0822
             277     12.6031E-03     66.6882E-03     170.216E-03     86.2895E-03    -629.520E-03     169.275E-03    -628.579E-03     86.2895E-03    -22.1286E-03     210.475E-03    -104.897E-03    -105.538E-03    -104.299E-03     209.878E-03    -105.538E-03     27.3581E-03     94.4869E+06     65.2546E+06    -30.1303E+06    -30.1253E+06     86.3189E+06     73.4176E+06    -599.427E+03         40.6021
             278     11.7028E-03     66.6574E-03     151.393E-03     80.2494E-03    -604.716E-03     150.432E-03    -603.756E-03     80.2494E-03    -45.4260E-03     210.986E-03    -105.255E-03    -105.614E-03    -104.781E-03     210.512E-03    -105.614E-03     24.4516E-03     59.3937E+06     10.7402E+06    -37.9742E+06    -37.9586E+06     10.7245E+06     59.3937E+06    -615.691E+03         38.7937
             279     10.8025E-03     66.6292E-03     139.910E-03     74.4867E-03    -587.359E-03     139.680E-03    -587.128E-03     74.4867E-03    -3.15166E-03     210.971E-03    -105.241E-03    -105.671E-03    -104.841E-03     210.571E-03    -105.671E-03     22.4736E-03     49.9381E+06    -29.6866E+06    -45.7632E+06    -45.7456E+06    -29.7041E+06     49.9381E+06    -442.402E+03         37.6972
             280     9.90155E-03     66.6039E-03     136.243E-03     68.3461E-03    -576.876E-03     136.145E-03    -576.778E-03     68.3461E-03     7.48465E-03     210.771E-03    -104.987E-03    -105.722E-03    -104.651E-03     210.435E-03    -105.722E-03     20.5597E-03     39.4254E+06    -45.2907E+06    -63.3958E+06    -54.1631E+06    -54.5234E+06     39.4254E+06    -279.798E+03         37.1820
             281     9.00126E-03     66.5812E-03     122.084E-03     61.9184E-03    -556.349E-03     121.904E-03    -556.169E-03     61.9184E-03    -10.0759E-03     210.829E-03    -105.063E-03    -105.779E-03    -104.797E-03     210.563E-03    -105.779E-03     18.2804E-03     25.9439E+06    -63.4325E+06    -87.0290E+06    -63.4736E+06    -86.9880E+06     25.9439E+06     235.791E+03         36.9410
             282     8.10075E-03     66.5605E-03     94.8911E-03     56.4798E-03    -524.792E-03     94.6630E-03    -524.564E-03     56.4798E-03    -11.8732E-03     210.856E-03    -105.226E-03    -105.799E-03    -105.017E-03     210.647E-03    -105.799E-03     16.2225E-03     11.8124E+06    -72.7137E+06    -111.535E+06    -72.7403E+06    -111.508E+06     11.8124E+06     1.00021E+06         36.8100
             283     7.20057E-03     66.5414E-03     77.8767E-03     52.5636E-03    -503.299E-03     77.2380E-03    -502.660E-03     52.5636E-03    -23.3415E-03     210.918E-03    -105.143E-03    -105.774E-03    -104.978E-03     210.752E-03    -105.774E-03     14.4215E-03    -3.80292E+06    -81.7038E+06    -146.814E+06    -81.7492E+06    -146.769E+06    -3.80292E+06     1.40903E+06         36.7194
             284     6.30052E-03     66.5256E-03     78.7217E-03     48.7534E-03    -500.464E-03     77.8517E-03    -499.594E-03     48.7534E-03    -6.70001E-03     210.933E-03    -105.048E-03    -105.773E-03    -104.924E-03     210.808E-03    -105.773E-03     12.5255E-03    -19.8039E+06    -91.0436E+06    -177.730E+06    -91.0913E+06    -177.682E+06    -19.8039E+06     1.41476E+06         36.6270
             285     5.39914E-03     66.5117E-03     79.7879E-03     42.4680E-03    -494.223E-03     78.2349E-03    -493.832E-03     43.6292E-03     4.76898E-03     210.975E-03    -105.190E-03    -105.792E-03    -105.101E-03     210.886E-03    -105.792E-03     10.5707E-03    -38.6158E+06    -101.720E+06    -196.940E+06    -101.762E+06    -196.897E+06    -38.6158E+06     1.48343E+06         36.5598
             286     4.49965E-03     66.5003E-03     74.0372E-03     35.8268E-03    -481.137E-03     72.7448E-03    -481.006E-03     36.9880E-03    -14.5203E-03     211.027E-03    -105.289E-03    -105.788E-03    -105.232E-03     210.969E-03    -105.788E-03     8.49361E-03    -60.4763E+06    -111.473E+06    -218.168E+06    -111.509E+06    -218.132E+06    -60.4763E+06     1.16740E+06         36.4933
             287     3.59937E-03     66.4907E-03     56.5677E-03     23.9863E-03    -453.622E-03     48.1496E-03    -452.289E-03     31.0722E-03     1.14136E-03     211.225E-03    -105.360E-03    -105.880E-03    -105.327E-03     211.192E-03    -105.880E-03     6.35302E-03    -82.1691E+06    -119.709E+06    -254.287E+06    -119.729E+06    -254.267E+06    -82.1691E+06     120.217E+03         36.4366
             288     2.69905E-03     66.4846E-03     44.8421E-03     11.0722E-03    -429.414E-03     24.5310E-03    -427.659E-03     29.6286E-03     24.3527E-03     211.463E-03    -105.530E-03    -105.911E-03    -105.538E-03     211.445E-03    -105.885E-03     4.73921E-03    -103.974E+06    -128.713E+06    -286.149E+06    -128.720E+06    -286.141E+06    -103.974E+06    -629.670E+03         36.4272
             289     1.80010E-03     66.4800E-03     57.2511E-03     14.8374E-03    -444.743E-03     27.1294E-03    -431.298E-03     31.5141E-03    -32.8136E-03     211.523E-03    -105.669E-03    -105.839E-03    -105.684E-03     211.513E-03    -105.813E-03     3.38214E-03    -123.689E+06    -136.233E+06    -300.845E+06    -136.239E+06    -300.839E+06    -123.689E+06    -441.044E+03         36.4266
             290     900.565E-06     66.4782E-03         1.30299    -217.996E-03        -1.45650         1.27406    -436.305E-03        -1.20926     199.026E-03     211.532E-03    -105.597E-03    -105.936E-03    -105.592E-03     211.527E-03    -105.936E-03     2.15743E-03    -136.900E+06    -140.630E+06    -323.571E+06    -140.634E+06    -323.567E+06    -136.900E+06     177.468E+03         36.4192
             291     15.3068E-03     65.5700E-03     237.951E-03     97.7697E-03    -703.817E-03     236.557E-03    -702.423E-03     97.7697E-03    -23.1706E-03     210.422E-03    -104.721E-03    -105.706E-03    -103.903E-03     209.604E-03    -105.706E-03     31.5432E-03     146.550E+06     130.309E+06    -8.18036E+06    -8.17687E+06     146.546E+06     130.309E+06     442.666E+03         48.5940
             292     14.4063E-03     65.5253E-03     220.661E-03     89.2852E-03    -679.210E-03     220.030E-03    -678.579E-03     89.2852E-03    -14.5994E-03     210.616E-03    -105.012E-03    -105.614E-03    -104.101E-03     209.705E-03    -105.614E-03     33.6573E-03     136.059E+06     105.604E+06    -17.3791E+06    -17.3583E+06     136.038E+06     105.604E+06    -682.023E+03         45.9603
             293     13.5047E-03     65.4895E-03     195.917E-03     81.0859E-03    -649.594E-03     195.324E-03    -649.001E-03     81.0859E-03    -18.5780E-03     210.368E-03    -104.834E-03    -105.533E-03    -104.147E-03     209.681E-03    -105.533E-03     29.3867E-03     126.158E+06     87.7331E+06    -26.2138E+06    -26.1720E+06     126.116E+06     87.7331E+06    -1.67183E+06         43.0794
             294     12.6041E-03     65.4545E-03     175.665E-03     73.3497E-03    -623.299E-03     175.038E-03    -622.672E-03     73.3497E-03    -18.4523E-03     210.385E-03    -104.833E-03    -105.511E-03    -104.234E-03     209.786E-03    -105.511E-03     27.4158E-03     92.8680E+06     63.4438E+06    -33.0578E+06    -33.0332E+06     85.5810E+06     70.7062E+06    -1.33244E+06         40.6005
             295     11.7031E-03     65.4228E-03     149.062E-03     66.2429E-03    -591.434E-03     148.461E-03    -590.833E-03     66.2429E-03    -22.4811E-03     210.647E-03    -104.932E-03    -105.608E-03    -104.449E-03     210.164E-03    -105.608E-03     24.6316E-03     58.2720E+06     10.5132E+06    -39.3189E+06    -39.2491E+06     10.4435E+06     58.2720E+06    -978.534E+03         38.7929
             296     10.8022E-03     65.3951E-03     139.335E-03     59.4412E-03    -573.607E-03     139.158E-03    -573.429E-03     59.4412E-03    -4.41012E-03     210.763E-03    -105.030E-03    -105.692E-03    -104.637E-03     210.370E-03    -105.692E-03     22.2435E-03     49.7030E+06    -30.7453E+06    -46.7769E+06    -46.7016E+06    -30.8206E+06     49.7030E+06    -703.090E+03         37.6981
             297     9.90143E-03     65.3704E-03     138.139E-03     51.9300E-03    -562.509E-03     137.304E-03    -561.674E-03     51.9300E-03     11.1227E-03     210.878E-03    -105.100E-03    -105.745E-03    -104.775E-03     210.553E-03    -105.745E-03     20.2406E-03     39.6100E+06    -46.4798E+06    -63.9178E+06    -55.4538E+06    -54.9438E+06     39.6100E+06     243.033E+03         37.1851
             298     9.00085E-03     65.3466E-03     102.142E-03     44.9547E-03    -520.155E-03     101.218E-03    -519.231E-03     44.9547E-03     15.9456E-03     210.987E-03    -105.215E-03    -105.781E-03    -104.946E-03     210.718E-03    -105.781E-03     18.4103E-03     25.4874E+06    -64.2746E+06    -87.2637E+06    -64.2917E+06    -87.2467E+06     25.4874E+06     497.048E+03         36.9445
             299     8.10122E-03     65.3259E-03     63.4723E-03     40.6455E-03    -478.366E-03     63.2321E-03    -478.126E-03     40.6455E-03    -4.44602E-03     210.925E-03    -105.278E-03    -105.789E-03    -105.061E-03     210.708E-03    -105.789E-03     16.5169E-03     11.4078E+06    -73.0380E+06    -112.316E+06    -73.0529E+06    -112.301E+06     11.4078E+06     540.102E+03         36.8125
             300     7.20064E-03     65.3078E-03     59.2263E-03     37.8898E-03    -471.924E-03     58.5276E-03    -471.226E-03     37.8898E-03    -23.8838E-03     210.935E-03    -105.167E-03    -105.755E-03    -105.003E-03     210.771E-03    -105.755E-03     14.3236E-03    -3.45467E+06    -82.2918E+06    -146.962E+06    -82.3127E+06    -146.941E+06    -3.45467E+06     759.197E+03         36.7198
             301     6.29972E-03     65.2916E-03     69.5231E-03     33.9534E-03    -478.452E-03     68.2002E-03    -477.129E-03     33.9534E-03     1.28948E-03     211.019E-03    -105.133E-03    -105.748E-03    -105.012E-03     210.898E-03    -105.748E-03     12.2940E-03    -19.1813E+06    -92.0364E+06    -177.202E+06    -92.0674E+06    -177.171E+06    -19.1813E+06     1.06489E+06         36.6228
             302     5.40043E-03     65.2777E-03     84.2694E-03     26.5588E-03    -486.634E-03     83.5756E-03    -485.940E-03     26.5588E-03     20.3990E-03     211.041E-03    -105.302E-03    -105.752E-03    -105.215E-03     210.954E-03    -105.752E-03     10.4383E-03    -37.6960E+06    -101.672E+06    -196.103E+06    -101.696E+06    -196.079E+06    -37.6960E+06     546.461E+03         36.5519
             303     4.49982E-03     65.2655E-03     74.8504E-03     15.7435E-03    -466.779E-03     74.6447E-03    -466.573E-03     15.7435E-03     1.74522E-03     210.887E-03    -105.209E-03    -105.737E-03    -105.153E-03     210.831E-03    -105.737E-03     8.36297E-03    -59.5747E+06    -111.494E+06    -217.353E+06    -111.498E+06    -217.349E+06    -59.5747E+06    -344.932E+03         36.4855
             304     3.59994E-03     65.2571E-03     31.7863E-03    -3.24755E-03    -405.006E-03     18.9172E-03    -403.806E-03     8.42075E-03     31.4058E-03     211.005E-03    -105.149E-03    -105.833E-03    -105.116E-03     210.971E-03    -105.833E-03     6.40053E-03    -82.4392E+06    -121.134E+06    -253.806E+06    -121.139E+06    -253.801E+06    -82.4392E+06    -403.819E+03         36.4302
             305     2.69988E-03     65.2504E-03     12.8148E-03    -16.3137E-03    -373.462E-03    -21.8491E-03    -367.927E-03     12.8148E-03    -5.14500E-03     211.272E-03    -105.360E-03    -105.873E-03    -105.342E-03     211.253E-03    -105.873E-03     4.72225E-03    -105.912E+06    -130.201E+06    -286.248E+06    -130.209E+06    -286.240E+06    -105.912E+06    -273.032E+03         36.4232
             306     1.79862E-03     65.2460E-03     28.1493E-03    -307.109E-06    -404.059E-03    -10.2474E-03    -394.118E-03     28.1493E-03    -43.2170E-03     211.484E-03    -105.578E-03    -105.893E-03    -105.568E-03     211.474E-03    -105.893E-03     3.32141E-03    -126.618E+06    -137.938E+06    -301.367E+06    -137.948E+06    -301.358E+06    -126.618E+06    -286.766E+03         36.4250
             307     898.864E-06     65.2426E-03         1.12857    -240.250E-03        -1.26357         1.10534    -450.556E-03        -1.03004     158.035E-03     211.821E-03    -105.729E-03    -106.102E-03    -105.785E-03     211.816E-03    -106.041E-03     1.97882E-03    -138.949E+06    -142.660E+06    -324.346E+06    -141.933E+06    -324.341E+06    -139.682E+06     103.331E+03         36.4189
             308     15.3077E-03     64.3361E-03     236.991E-03     89.1470E-03    -699.756E-03     235.052E-03    -697.818E-03     89.1470E-03    -18.2533E-03     210.409E-03    -104.725E-03    -105.707E-03    -103.906E-03     209.589E-03    -105.707E-03     31.5435E-03     145.969E+06     130.488E+06    -7.34606E+06    -7.34241E+06     145.966E+06     130.488E+06     283.155E+03         48.5883
             309     14.4055E-03     64.2914E-03     210.033E-03     80.5936E-03    -666.685E-03     209.059E-03    -665.711E-03     80.5936E-03     2.54417E-03     210.543E-03    -104.949E-03    -105.600E-03    -104.027E-03     209.621E-03    -105.600E-03     33.8735E-03     137.339E+06     106.469E+06    -15.4081E+06    -15.3996E+06     137.331E+06     106.469E+06     992.540E+03         45.9564
             310     13.5051E-03     64.2547E-03     200.378E-03     72.0688E-03    -650.246E-03     199.810E-03    -649.678E-03     72.0688E-03    -13.1867E-03     210.405E-03    -104.881E-03    -105.516E-03    -104.191E-03     209.714E-03    -105.516E-03     29.4719E-03     127.502E+06     88.8708E+06    -24.4357E+06    -24.4052E+06     127.471E+06     88.8708E+06     31.5404E+03         43.0767
             311     12.6040E-03     64.2207E-03     187.203E-03     63.1472E-03    -629.231E-03     186.848E-03    -628.876E-03     63.1472E-03     2.60807E-03     210.390E-03    -104.853E-03    -105.501E-03    -104.250E-03     209.787E-03    -105.501E-03     27.5141E-03     92.7792E+06     63.6812E+06    -33.3469E+06    -33.3043E+06     85.4055E+06     71.0124E+06    -1.47922E+06         40.5985
             312     11.7030E-03     64.1889E-03     160.475E-03     54.4097E-03    -593.978E-03     160.148E-03    -593.651E-03     54.4097E-03     1.55729E-03     210.545E-03    -104.838E-03    -105.605E-03    -104.355E-03     210.063E-03    -105.605E-03     24.5932E-03     57.9013E+06     10.0965E+06    -41.0868E+06    -40.9813E+06     9.99093E+06     57.9013E+06    -1.64463E+06         38.7917
             313     10.8020E-03     64.1614E-03     136.147E-03     46.3672E-03    -559.716E-03     135.678E-03    -559.247E-03     46.3672E-03    -10.2943E-03     210.716E-03    -104.979E-03    -105.695E-03    -104.591E-03     210.329E-03    -105.695E-03     22.1022E-03     48.4381E+06    -32.2364E+06    -48.7664E+06    -48.6221E+06    -32.3807E+06     48.4381E+06    -1.17525E+06         37.6985
             314     9.90179E-03     64.1353E-03     111.303E-03     39.2055E-03    -526.206E-03     109.795E-03    -524.698E-03     39.2055E-03     14.7861E-03     210.934E-03    -105.160E-03    -105.745E-03    -104.837E-03     210.611E-03    -105.745E-03     20.1647E-03     39.1265E+06    -47.3893E+06    -64.8081E+06    -56.1076E+06    -56.0897E+06     39.1265E+06    -486.042E+03         37.1866
             315     9.00149E-03     64.1128E-03     80.7490E-03     33.5143E-03    -490.574E-03     79.5268E-03    -489.352E-03     33.5143E-03     35.5384E-03     210.919E-03    -105.130E-03    -105.780E-03    -104.863E-03     210.652E-03    -105.780E-03     18.3505E-03     26.1663E+06    -63.9665E+06    -87.0423E+06    -63.9749E+06    -87.0339E+06     26.1663E+06     1.71234E+03         36.9438
             316     8.10028E-03     64.0913E-03     66.6411E-03     29.0024E-03    -472.861E-03     66.0817E-03    -472.302E-03     29.0024E-03    -19.1345E-03     210.883E-03    -105.182E-03    -105.788E-03    -104.967E-03     210.667E-03    -105.788E-03     16.4537E-03     11.8216E+06    -72.9226E+06    -112.492E+06    -72.9243E+06    -112.491E+06     11.8216E+06    -2.45113E+03         36.8089
             317     7.20062E-03     64.0733E-03     65.7059E-03     24.2326E-03    -468.240E-03     65.0111E-03    -467.545E-03     24.2326E-03    -33.2900E-03     211.162E-03    -105.374E-03    -105.748E-03    -105.213E-03     211.002E-03    -105.748E-03     14.1884E-03    -2.47085E+06    -82.1305E+06    -147.203E+06    -82.1422E+06    -147.191E+06    -2.47085E+06     110.950E+03         36.7163
             318     6.30119E-03     64.0579E-03     61.4262E-03     18.4870E-03    -458.337E-03     60.7899E-03    -457.701E-03     18.4870E-03    -3.49102E-03     211.266E-03    -105.410E-03    -105.716E-03    -105.289E-03     211.145E-03    -105.716E-03     12.3176E-03    -17.2579E+06    -91.4178E+06    -176.637E+06    -91.4297E+06    -176.625E+06    -17.2579E+06     46.6472E+03         36.6182
             319     5.40013E-03     64.0433E-03     51.6797E-03     5.28684E-03    -436.339E-03     43.2260E-03    -435.384E-03     12.7851E-03    -3.16100E-03     210.879E-03    -105.170E-03    -105.702E-03    -105.082E-03     210.791E-03    -105.702E-03     10.4726E-03    -36.9725E+06    -101.405E+06    -195.199E+06    -101.407E+06    -195.197E+06    -36.9725E+06    -419.331E+03         36.5439
             320     4.50034E-03     64.0321E-03     33.8489E-03    -6.39647E-03    -407.799E-03     16.5680E-03    -406.412E-03     9.49686E-03    -22.3102E-03     210.593E-03    -104.934E-03    -105.710E-03    -104.875E-03     210.534E-03    -105.710E-03     8.58237E-03    -61.3732E+06    -112.146E+06    -217.290E+06    -112.148E+06    -217.288E+06    -61.3732E+06    -287.209E+03         36.4785
             321     3.59944E-03     64.0234E-03     22.0063E-03    -4.02705E-03    -396.586E-03     8.11769E-03    -395.675E-03     8.95037E-03    -2.03432E-03     211.000E-03    -105.175E-03    -105.818E-03    -105.139E-03     210.964E-03    -105.818E-03     6.67821E-03    -84.7845E+06    -122.625E+06    -254.614E+06    -122.627E+06    -254.612E+06    -84.7845E+06    -289.639E+03         36.4272
             322     2.69909E-03     64.0167E-03     17.9850E-03    -88.4372E-06    -396.596E-03     2.35283E-03    -391.536E-03     10.4836E-03    -50.8817E-03     211.418E-03    -105.515E-03    -105.875E-03    -105.550E-03     211.399E-03    -105.821E-03     4.64774E-03    -106.267E+06    -131.380E+06    -286.558E+06    -131.386E+06    -286.552E+06    -106.267E+06    -229.743E+03         36.4222
             323     1.80022E-03     64.0119E-03     19.4309E-03     1.35505E-03    -402.167E-03    -6.30808E-03    -392.996E-03     17.9233E-03    -105.626E-03     211.412E-03    -105.519E-03    -105.885E-03    -105.672E-03     211.405E-03    -105.726E-03     2.80276E-03    -126.319E+06    -138.282E+06    -301.226E+06    -138.292E+06    -301.216E+06    -126.319E+06     73.0731E+03         36.4216
             324     900.014E-06     64.0085E-03     964.388E-03    -230.890E-03        -1.11449     946.365E-03    -429.579E-03    -897.780E-03     66.3288E-03     211.329E-03    -105.370E-03    -105.968E-03    -105.845E-03     211.327E-03    -105.491E-03     1.15654E-03    -139.445E+06    -144.008E+06    -325.384E+06    -143.289E+06    -325.371E+06    -140.178E+06    -44.2673E+03         36.4104
             325     15.3069E-03     63.1023E-03     234.754E-03     82.5622E-03    -697.368E-03     233.988E-03    -696.602E-03     82.5622E-03     16.0580E-03     210.467E-03    -104.779E-03    -105.695E-03    -103.956E-03     209.643E-03    -105.695E-03     31.5849E-03     145.020E+06     128.597E+06    -8.66579E+06    -8.66266E+06     145.017E+06     128.597E+06    -222.280E+03         48.5827
             326     14.4064E-03     63.0569E-03     213.041E-03     73.5763E-03    -667.542E-03     212.293E-03    -666.794E-03     73.5763E-03     16.4427E-03     210.606E-03    -105.003E-03    -105.601E-03    -104.075E-03     209.678E-03    -105.601E-03     33.9486E-03     136.790E+06     107.317E+06    -15.7855E+06    -15.7780E+06     136.782E+06     107.317E+06     662.255E+03         45.9530
             327     13.5049E-03     63.0206E-03     194.992E-03     64.7038E-03    -640.116E-03     194.737E-03    -639.862E-03     64.7038E-03    -4.70735E-03     210.288E-03    -104.758E-03    -105.529E-03    -104.065E-03     209.594E-03    -105.529E-03     29.5206E-03     129.175E+06     92.5913E+06    -22.4839E+06    -22.4736E+06     129.164E+06     92.5913E+06     1.08805E+06         43.0739
             328     12.6040E-03     62.9863E-03     176.259E-03     55.9097E-03    -612.859E-03     175.954E-03    -612.554E-03     55.9097E-03     2.32700E-03     210.491E-03    -104.950E-03    -105.513E-03    -104.351E-03     209.892E-03    -105.513E-03     27.4153E-03     95.3985E+06     66.4958E+06    -30.3109E+06    -30.2898E+06     87.3301E+06     74.5432E+06     31.2995E+03         40.5959
             329     11.7032E-03     62.9550E-03     158.777E-03     47.2230E-03    -586.761E-03     158.352E-03    -586.336E-03     47.2230E-03    -14.6349E-03     210.732E-03    -105.051E-03    -105.599E-03    -104.578E-03     210.260E-03    -105.599E-03     24.3664E-03     59.1114E+06     9.67644E+06    -39.3409E+06    -39.2538E+06     9.58938E+06     59.1114E+06    -1.20120E+06         38.7898
             330     10.8027E-03     62.9276E-03     127.460E-03     39.2176E-03    -545.855E-03     126.787E-03    -545.182E-03     39.2176E-03    -29.5108E-03     210.666E-03    -104.943E-03    -105.680E-03    -104.555E-03     210.278E-03    -105.680E-03     22.1023E-03     48.7517E+06    -32.5592E+06    -48.0138E+06    -47.8709E+06    -32.7021E+06     48.7517E+06    -1.43699E+06         37.6964
             331     9.90146E-03     62.9011E-03     88.3566E-03     33.0416E-03    -501.522E-03     87.4373E-03    -500.603E-03     33.0416E-03    -2.49377E-03     210.812E-03    -105.032E-03    -105.737E-03    -104.704E-03     210.485E-03    -105.737E-03     20.3134E-03     39.2754E+06    -47.1092E+06    -65.9849E+06    -55.8507E+06    -57.2434E+06     39.2754E+06    -1.40721E+06         37.1838
             332     9.00108E-03     62.8787E-03     80.9002E-03     27.9079E-03    -490.551E-03     80.2112E-03    -489.862E-03     27.9079E-03     5.56974E-03     210.980E-03    -105.210E-03    -105.778E-03    -104.944E-03     210.715E-03    -105.778E-03     18.2949E-03     27.0422E+06    -64.5736E+06    -88.3303E+06    -64.6256E+06    -88.2783E+06     27.0422E+06    -422.134E+03         36.9393
             333     8.10143E-03     62.8572E-03     88.2886E-03     21.5599E-03    -492.848E-03     87.5563E-03    -492.116E-03     21.5599E-03    -37.2956E-03     210.822E-03    -105.112E-03    -105.770E-03    -104.902E-03     210.612E-03    -105.770E-03     16.2332E-03     12.1683E+06    -74.2859E+06    -112.840E+06    -74.2958E+06    -112.830E+06     12.1683E+06     369.976E+03         36.8001
             334     7.20046E-03     62.8390E-03     72.2180E-03     14.2177E-03    -469.760E-03     71.5377E-03    -469.079E-03     14.2177E-03    -34.5925E-03     211.013E-03    -105.218E-03    -105.725E-03    -105.053E-03     210.848E-03    -105.725E-03     14.4079E-03    -4.64491E+06    -84.3425E+06    -146.171E+06    -84.3838E+06    -146.130E+06    -4.64491E+06    -803.543E+03         36.7051
             335     6.30024E-03     62.8228E-03     39.8456E-03     5.06124E-03    -426.416E-03     35.9957E-03    -426.098E-03     8.59323E-03    -8.27795E-03     211.248E-03    -105.424E-03    -105.707E-03    -105.297E-03     211.121E-03    -105.707E-03     12.6405E-03    -19.7746E+06    -93.7134E+06    -176.367E+06    -93.7791E+06    -176.302E+06    -19.7746E+06    -1.89078E+06         36.6084
             336     5.40118E-03     62.8099E-03     15.3320E-03    -12.1599E-03    -385.263E-03    -5.82958E-03    -383.986E-03     7.72513E-03     4.85208E-03     210.851E-03    -105.154E-03    -105.706E-03    -105.064E-03     210.761E-03    -105.706E-03     10.5872E-03    -38.7541E+06    -102.855E+06    -197.005E+06    -102.885E+06    -196.975E+06    -38.7541E+06    -827.699E+03         36.5375
             337     4.49955E-03     62.7988E-03     15.2086E-03    -13.6594E-03    -384.338E-03    -11.3563E-03    -382.521E-03     11.0887E-03    -12.2918E-03     210.641E-03    -105.003E-03    -105.707E-03    -104.943E-03     210.581E-03    -105.707E-03     8.65503E-03    -62.8374E+06    -112.813E+06    -217.798E+06    -112.817E+06    -217.793E+06    -62.8374E+06     358.008E+03         36.4771
             338     3.59970E-03     62.7892E-03     33.3485E-03     4.12869E-03    -419.092E-03     18.7962E-03    -412.935E-03     12.5237E-03     38.2937E-03     211.103E-03    -105.343E-03    -105.773E-03    -105.308E-03     211.068E-03    -105.773E-03     6.54569E-03    -85.6771E+06    -123.276E+06    -254.096E+06    -123.281E+06    -254.092E+06    -85.6771E+06     467.258E+03         36.4274
             339     2.70031E-03     62.7824E-03     45.8076E-03     6.28515E-03    -436.292E-03     38.6760E-03    -429.161E-03     6.28515E-03     11.1066E-03     211.377E-03    -105.577E-03    -105.784E-03    -105.612E-03     211.360E-03    -105.730E-03     4.67089E-03    -106.375E+06    -132.916E+06    -286.424E+06    -132.919E+06    -286.421E+06    -106.375E+06    -216.994E+03         36.4197
             340     1.79985E-03     62.7776E-03     36.1563E-03    -13.0617E-03    -408.039E-03     27.9901E-03    -404.662E-03    -8.27316E-03    -24.5909E-03     211.184E-03    -105.444E-03    -105.733E-03    -105.594E-03     211.174E-03    -105.574E-03     3.41794E-03    -126.324E+06    -140.230E+06    -301.522E+06    -140.241E+06    -301.512E+06    -126.324E+06    -436.608E+03         36.4152
             341     900.654E-06     62.7748E-03     770.262E-03    -178.421E-03    -977.108E-03     761.000E-03    -351.168E-03    -795.099E-03     78.5057E-03     210.986E-03    -105.154E-03    -105.828E-03    -105.728E-03     210.981E-03    -105.250E-03     2.24353E-03    -139.867E+06    -145.414E+06    -325.591E+06    -144.337E+06    -325.578E+06    -140.957E+06    -333.971E+03         36.3995
             342     15.3073E-03     61.8675E-03     237.729E-03     78.5077E-03    -701.512E-03     237.239E-03    -701.021E-03     78.5077E-03     12.2804E-03     210.500E-03    -104.788E-03    -105.696E-03    -103.964E-03     209.675E-03    -105.696E-03     31.6037E-03     145.157E+06     129.029E+06    -9.04905E+06    -9.04703E+06     145.155E+06     129.029E+06    -82.0347E+03         48.5770
             343     14.4059E-03     61.8225E-03     219.384E-03     69.0672E-03    -671.693E-03     218.945E-03    -671.255E-03     69.0672E-03     17.4469E-03     210.674E-03    -105.068E-03    -105.607E-03    -104.145E-03     209.751E-03    -105.607E-03     33.8725E-03     135.756E+06     107.274E+06    -16.9754E+06    -16.9733E+06     135.753E+06     107.274E+06    -368.979E+03         45.9492
             344     13.5050E-03     61.7871E-03     185.822E-03     60.1154E-03    -628.089E-03     185.442E-03    -627.709E-03     60.1154E-03     7.79132E-03     210.329E-03    -104.807E-03    -105.535E-03    -104.118E-03     209.640E-03    -105.535E-03     29.4349E-03     129.259E+06     92.7935E+06    -24.0079E+06    -24.0026E+06     129.253E+06     92.7935E+06    -153.355E+03         43.0710
             345     12.6039E-03     61.7511E-03     157.455E-03     52.1185E-03    -590.418E-03     156.958E-03    -589.921E-03     52.1185E-03     3.83697E-03     210.407E-03    -104.881E-03    -105.515E-03    -104.288E-03     209.815E-03    -105.515E-03     27.2572E-03     96.8973E+06     66.8035E+06    -30.4150E+06    -30.4109E+06     88.4026E+06     75.2941E+06     63.5610E+03         40.5932
             346     11.7034E-03     61.7211E-03     141.898E-03     44.6147E-03    -567.577E-03     141.027E-03    -566.706E-03     44.6147E-03    -6.12512E-03     210.733E-03    -105.062E-03    -105.602E-03    -104.585E-03     210.256E-03    -105.602E-03     24.5056E-03     60.4102E+06     9.71626E+06    -37.8593E+06    -37.7805E+06     9.63743E+06     60.4102E+06    -7.78145E+03         38.7873
             347     10.8027E-03     61.6930E-03     120.224E-03     37.4917E-03    -539.320E-03     118.794E-03    -537.890E-03     37.4917E-03     14.8174E-03     210.824E-03    -105.091E-03    -105.672E-03    -104.696E-03     210.428E-03    -105.672E-03     22.3046E-03     50.9785E+06    -31.4285E+06    -46.5374E+06    -46.4413E+06    -31.5247E+06     50.9785E+06    -338.718E+03         37.6935
             348     9.90201E-03     61.6683E-03     100.766E-03     30.9497E-03    -515.808E-03     99.6734E-03    -514.716E-03     30.9497E-03     27.7311E-03     210.847E-03    -105.078E-03    -105.715E-03    -104.748E-03     210.518E-03    -105.715E-03     20.3743E-03     39.8417E+06    -47.2983E+06    -66.8481E+06    -56.5127E+06    -57.6336E+06     39.8417E+06    -535.954E+03         37.1795
             349     9.00159E-03     61.6432E-03     96.6413E-03     24.1652E-03    -508.378E-03     96.0978E-03    -507.835E-03     24.1652E-03     14.2733E-03     210.834E-03    -105.124E-03    -105.756E-03    -104.858E-03     210.567E-03    -105.756E-03     18.2871E-03     25.8022E+06    -66.4937E+06    -90.0994E+06    -66.5665E+06    -90.0266E+06     25.8022E+06    -349.587E+03         36.9318
             350     8.10089E-03     61.6238E-03     85.1041E-03     16.7050E-03    -489.810E-03     84.8296E-03    -489.535E-03     16.7050E-03    -14.5734E-03     210.746E-03    -105.080E-03    -105.753E-03    -104.870E-03     210.537E-03    -105.753E-03     16.2563E-03     11.2426E+06    -75.6941E+06    -113.647E+06    -75.7173E+06    -113.624E+06     11.2426E+06     69.7284E+03         36.7877
             351     7.20073E-03     61.6050E-03     51.7371E-03     10.2948E-03    -450.083E-03     51.5946E-03    -449.940E-03     10.2948E-03    -14.3918E-03     210.772E-03    -104.987E-03    -105.716E-03    -104.817E-03     210.602E-03    -105.716E-03     14.6052E-03    -5.90148E+06    -85.0227E+06    -142.844E+06    -85.0656E+06    -142.802E+06    -5.90148E+06    -811.828E+03         36.6901
             352     6.30051E-03     61.5885E-03     23.1897E-03     3.28536E-03    -412.662E-03     19.3912E-03    -412.395E-03     6.81735E-03     7.53027E-03     210.925E-03    -105.096E-03    -105.731E-03    -104.969E-03     210.798E-03    -105.731E-03     12.5865E-03    -23.2733E+06    -95.2900E+06    -176.094E+06    -95.4098E+06    -175.974E+06    -23.2733E+06    -2.96100E+06         36.5967
             353     5.39939E-03     61.5758E-03     21.5727E-03    -6.68800E-03    -401.054E-03     8.33619E-03    -400.204E-03     5.69875E-03     32.2929E-03     211.085E-03    -105.365E-03    -105.782E-03    -105.303E-03     210.996E-03    -105.756E-03     10.5658E-03    -40.3696E+06    -105.652E+06    -201.185E+06    -105.740E+06    -201.097E+06    -40.3696E+06    -2.16504E+06         36.5338
             354     4.50055E-03     61.5649E-03     28.4970E-03    -4.77163E-03    -409.954E-03     17.4493E-03    -407.761E-03     4.08312E-03    -3.35081E-03     211.010E-03    -105.382E-03    -105.740E-03    -105.348E-03     210.949E-03    -105.713E-03     8.70902E-03    -62.7610E+06    -116.037E+06    -219.368E+06    -116.081E+06    -219.324E+06    -62.7610E+06     1.04314E+06         36.4793
             355     3.60022E-03     61.5550E-03     36.9099E-03    -945.763E-06    -421.978E-03     27.6827E-03    -412.751E-03    -945.763E-06     58.9419E-03     211.013E-03    -105.317E-03    -105.702E-03    -105.280E-03     210.975E-03    -105.702E-03     6.81047E-03    -88.0343E+06    -126.425E+06    -252.705E+06    -126.465E+06    -252.665E+06    -88.0343E+06     1.15802E+06         36.4267
             356     2.69967E-03     61.5486E-03     48.0984E-03    -12.5702E-03    -425.908E-03     35.0085E-03    -412.818E-03    -12.5702E-03     17.2175E-03     211.110E-03    -105.418E-03    -105.676E-03    -105.399E-03     211.090E-03    -105.676E-03     4.93894E-03    -108.604E+06    -134.951E+06    -285.031E+06    -134.974E+06    -285.009E+06    -108.604E+06    -1.14511E+06         36.4135
             357     1.80001E-03     61.5440E-03     43.8623E-03    -34.1055E-03    -399.952E-03     20.0179E-03    -376.108E-03    -34.1055E-03     37.0045E-03     211.007E-03    -105.389E-03    -105.623E-03    -105.380E-03     210.998E-03    -105.623E-03     3.24973E-03    -127.358E+06    -141.221E+06    -302.962E+06    -141.254E+06    -302.929E+06    -127.358E+06    -2.06028E+06         36.4080
             358     898.869E-06     61.5412E-03     588.690E-03    -147.660E-03    -829.126E-03     569.961E-03    -292.862E-03    -665.195E-03     73.3530E-03     211.199E-03    -105.377E-03    -105.822E-03    -105.535E-03     211.196E-03    -105.660E-03     2.05827E-03    -140.958E+06    -146.950E+06    -326.863E+06    -145.874E+06    -326.849E+06    -142.048E+06    -1.08259E+06         36.3924
             359     15.3072E-03     60.6334E-03     247.655E-03     78.6336E-03    -709.962E-03     247.118E-03    -709.425E-03     78.6336E-03    -6.01452E-03     210.505E-03    -104.798E-03    -105.693E-03    -103.980E-03     209.687E-03    -105.693E-03     31.5415E-03     144.957E+06     130.908E+06    -7.62679E+06    -7.62331E+06     144.954E+06     130.908E+06     95.2578E+03         48.5712
             360     14.4061E-03     60.5883E-03     217.299E-03     69.1387E-03    -671.410E-03     216.879E-03    -670.990E-03     69.1387E-03     4.26091E-03     210.654E-03    -105.055E-03    -105.605E-03    -104.149E-03     209.747E-03    -105.605E-03     33.5522E-03     136.567E+06     108.624E+06    -15.4737E+06    -15.4705E+06     136.564E+06     108.624E+06    -301.969E+03         45.9453
             361     13.5053E-03     60.5521E-03     193.930E-03     60.1584E-03    -638.839E-03     193.427E-03    -638.337E-03     60.1584E-03     463.885E-06     210.291E-03    -104.772E-03    -105.530E-03    -104.086E-03     209.605E-03    -105.530E-03     29.3804E-03     129.452E+06     93.0641E+06    -23.4231E+06    -23.4177E+06     129.447E+06     93.0641E+06    -892.890E+03         43.0678
             362     12.6043E-03     60.5179E-03     168.108E-03     51.6172E-03    -605.957E-03     167.790E-03    -605.640E-03     51.6172E-03     12.3690E-03     210.265E-03    -104.731E-03    -105.519E-03    -104.128E-03     209.661E-03    -105.519E-03     27.4941E-03     95.9548E+06     65.3197E+06    -31.9455E+06    -31.9384E+06     86.5381E+06     74.7293E+06    -282.038E+03         40.5901
             363     11.7028E-03     60.4867E-03     136.884E-03     43.9273E-03    -566.443E-03     136.302E-03    -565.861E-03     43.9273E-03     23.4904E-03     210.652E-03    -104.975E-03    -105.616E-03    -104.491E-03     210.168E-03    -105.616E-03     24.6712E-03     60.1885E+06     9.50831E+06    -39.7004E+06    -39.6577E+06     9.46557E+06     60.1885E+06     477.607E+03         38.7843
             364     10.8024E-03     60.4591E-03     121.958E-03     36.8694E-03    -545.945E-03     120.790E-03    -544.777E-03     36.8694E-03     39.5485E-03     211.026E-03    -105.293E-03    -105.672E-03    -104.895E-03     210.628E-03    -105.672E-03     22.4028E-03     51.2159E+06    -30.9448E+06    -47.5049E+06    -47.4484E+06    -31.0012E+06     51.2159E+06     509.842E+03         37.6918
             365     9.90232E-03     60.4333E-03     120.405E-03     29.2541E-03    -539.653E-03     119.435E-03    -538.683E-03     29.2541E-03     35.3286E-03     210.984E-03    -105.241E-03    -105.698E-03    -104.912E-03     210.655E-03    -105.698E-03     20.3416E-03     40.3087E+06    -47.2946E+06    -66.5783E+06    -56.3428E+06    -57.5302E+06     40.3087E+06     827.980E+03         37.1778
             366     9.00175E-03     60.4100E-03     96.1071E-03     21.4186E-03    -508.788E-03     95.6822E-03    -508.363E-03     21.4186E-03     23.9899E-03     210.616E-03    -104.926E-03    -105.738E-03    -104.655E-03     210.346E-03    -105.738E-03     18.4358E-03     25.3936E+06    -65.8985E+06    -89.6374E+06    -65.9484E+06    -89.5875E+06     25.3936E+06     155.090E+03         36.9258
             367     8.10100E-03     60.3891E-03     58.0774E-03     15.3406E-03    -465.957E-03     57.9176E-03    -465.797E-03     15.3406E-03    -7.48225E-03     210.634E-03    -104.965E-03    -105.754E-03    -104.747E-03     210.416E-03    -105.754E-03     16.5224E-03     10.0953E+06    -75.5835E+06    -113.726E+06    -75.6108E+06    -113.698E+06     10.0953E+06    -822.646E+03         36.7766
             368     7.20077E-03     60.3709E-03     35.9971E-03     11.5196E-03    -440.143E-03     35.3101E-03    -439.456E-03     11.5196E-03     7.00703E-03     210.765E-03    -104.985E-03    -105.745E-03    -104.816E-03     210.596E-03    -105.745E-03     14.5707E-03    -5.20442E+06    -84.3544E+06    -140.901E+06    -84.3923E+06    -140.863E+06    -5.20442E+06    -1.24263E+06         36.6785
             369     6.29968E-03     60.3552E-03     33.7270E-03     8.29136E-03    -433.868E-03     33.0864E-03    -433.228E-03     8.29136E-03     24.1284E-03     210.880E-03    -105.048E-03    -105.768E-03    -104.922E-03     210.754E-03    -105.768E-03     12.5587E-03    -21.9814E+06    -94.4116E+06    -175.018E+06    -94.4917E+06    -174.938E+06    -21.9814E+06    -2.09445E+06         36.5883
             370     5.40014E-03     60.3412E-03     40.4168E-03     3.49967E-03    -434.173E-03     39.7802E-03    -433.536E-03     3.49967E-03     27.9642E-03     211.180E-03    -105.445E-03    -105.808E-03    -105.384E-03     211.092E-03    -105.781E-03     10.4977E-03    -40.7363E+06    -106.104E+06    -204.202E+06    -106.184E+06    -204.122E+06    -40.7363E+06    -2.35140E+06         36.5297
             371     4.49970E-03     60.3299E-03     34.4634E-03    -2.90320E-03    -421.126E-03     30.7711E-03    -417.434E-03    -2.90320E-03    -30.8329E-03     211.189E-03    -105.513E-03    -105.786E-03    -105.483E-03     211.131E-03    -105.759E-03     8.44583E-03    -60.0743E+06    -116.370E+06    -223.709E+06    -116.433E+06    -223.646E+06    -60.0743E+06    -449.535E+03         36.4791
             372     3.59993E-03     60.3220E-03     20.8753E-03    -9.76533E-03    -402.804E-03     12.7940E-03    -395.496E-03    -8.99193E-03     6.17523E-03     211.003E-03    -105.282E-03    -105.713E-03    -105.246E-03     210.966E-03    -105.713E-03     6.74970E-03    -84.7776E+06    -125.605E+06    -249.860E+06    -125.657E+06    -249.809E+06    -84.7776E+06     1.02691E+06         36.4271
             373     2.70003E-03     60.3143E-03     17.1661E-03    -18.1709E-03    -394.627E-03    -12.5909E-03    -371.559E-03    -11.4815E-03    -52.2867E-03     211.005E-03    -105.328E-03    -105.657E-03    -105.306E-03     210.983E-03    -105.657E-03     5.05851E-03    -111.465E+06    -135.358E+06    -282.114E+06    -135.415E+06    -282.057E+06    -111.465E+06    -1.45123E+06         36.4124
             374     1.79974E-03     60.3105E-03     29.7982E-03    -27.3411E-03    -398.432E-03    -28.9561E-03    -361.771E-03    -5.24781E-03    -14.4326E-03     211.116E-03    -105.469E-03    -105.668E-03    -105.509E-03     211.107E-03    -105.620E-03     3.24968E-03    -131.158E+06    -142.702E+06    -306.612E+06    -142.755E+06    -306.559E+06    -131.158E+06    -2.80227E+06         36.4075
             375     900.737E-06     60.3074E-03     479.382E-03    -231.595E-03    -642.132E-03     441.827E-03    -396.158E-03    -440.014E-03     11.7950E-03     211.154E-03    -105.404E-03    -105.763E-03    -105.572E-03     211.150E-03    -105.591E-03     2.01484E-03    -142.161E+06    -148.224E+06    -329.259E+06    -146.809E+06    -329.243E+06    -143.592E+06    -1.52858E+06         36.3899
             376     15.3076E-03     59.3992E-03     242.409E-03     82.8998E-03    -712.364E-03     241.791E-03    -711.746E-03     82.8998E-03     2.94839E-03     210.571E-03    -104.875E-03    -105.674E-03    -104.072E-03     209.767E-03    -105.674E-03     31.1927E-03     145.317E+06     131.351E+06    -7.83327E+06    -7.82135E+06     145.305E+06     131.351E+06    -837.136E+03         48.5654
             377     14.4067E-03     59.3537E-03     214.488E-03     74.0548E-03    -677.915E-03     213.896E-03    -677.323E-03     74.0548E-03     5.61009E-03     210.408E-03    -104.823E-03    -105.594E-03    -103.916E-03     209.501E-03    -105.594E-03     33.5581E-03     136.785E+06     109.020E+06    -14.6629E+06    -14.6527E+06     136.775E+06     109.020E+06    -642.901E+03         45.9412
             378     13.5051E-03     59.3185E-03     198.184E-03     65.4883E-03    -654.284E-03     197.883E-03    -653.983E-03     65.4883E-03    -26.6537E-03     210.097E-03    -104.571E-03    -105.531E-03    -103.881E-03     209.408E-03    -105.531E-03     29.4238E-03     128.264E+06     92.5085E+06    -22.8345E+06    -22.8171E+06     128.247E+06     92.5085E+06     225.723E+03         43.0641
             379     12.6035E-03     59.2836E-03     181.173E-03     56.8677E-03    -630.414E-03     181.009E-03    -630.250E-03     56.8677E-03    -18.0458E-03     210.317E-03    -104.766E-03    -105.528E-03    -104.165E-03     209.716E-03    -105.528E-03     27.4341E-03     95.0438E+06     65.1745E+06    -31.8429E+06    -31.8223E+06     85.4668E+06     74.7309E+06     854.063E+03         40.5866
             380     11.7031E-03     59.2528E-03     156.386E-03     48.5282E-03    -597.481E-03     156.023E-03    -597.118E-03     48.5282E-03    -13.9042E-03     210.730E-03    -105.045E-03    -105.614E-03    -104.563E-03     210.247E-03    -105.614E-03     24.6344E-03     59.9308E+06     9.96978E+06    -40.6424E+06    -40.5816E+06     9.90893E+06     59.9308E+06     774.662E+03         38.7812
             381     10.8026E-03     59.2244E-03     138.031E-03     40.5464E-03    -571.809E-03     137.572E-03    -571.351E-03     40.5464E-03    -20.0582E-03     210.893E-03    -105.150E-03    -105.668E-03    -104.746E-03     210.489E-03    -105.668E-03     22.5730E-03     49.3666E+06    -31.7757E+06    -48.5041E+06    -48.4232E+06    -31.8566E+06     49.3666E+06     521.252E+03         37.6891
             382     9.90207E-03     59.1987E-03     116.789E-03     32.8662E-03    -543.959E-03     116.532E-03    -543.702E-03     32.8662E-03    -8.60070E-03     210.918E-03    -105.132E-03    -105.715E-03    -104.797E-03     210.583E-03    -105.715E-03     20.5288E-03     39.5852E+06    -47.9430E+06    -66.6075E+06    -56.1110E+06    -58.4394E+06     39.5852E+06     403.830E+03         37.1769
             383     9.00166E-03     59.1768E-03     83.4637E-03     26.3876E-03    -505.151E-03     83.3611E-03    -505.048E-03     26.3876E-03     2.22082E-03     210.798E-03    -105.063E-03    -105.762E-03    -104.787E-03     210.522E-03    -105.762E-03     18.6476E-03     27.4138E+06    -64.4650E+06    -87.7652E+06    -64.5213E+06    -87.7089E+06     27.4138E+06     617.517E+03         36.9267
             384     8.10079E-03     59.1550E-03     58.1027E-03     21.7726E-03    -476.371E-03     56.8621E-03    -475.130E-03     21.7726E-03    -35.4554E-03     210.633E-03    -104.955E-03    -105.779E-03    -104.734E-03     210.412E-03    -105.779E-03     16.6763E-03     12.5072E+06    -73.9607E+06    -111.848E+06    -74.0403E+06    -111.769E+06     12.5072E+06    -677.778E+03         36.7759
             385     7.20017E-03     59.1372E-03     55.7114E-03     17.7252E-03    -471.463E-03     53.7956E-03    -469.548E-03     17.7252E-03    -23.1947E-03     210.863E-03    -105.076E-03    -105.755E-03    -104.911E-03     210.698E-03    -105.755E-03     14.4149E-03    -4.69860E+06    -84.2929E+06    -140.948E+06    -84.3710E+06    -140.870E+06    -4.69860E+06    -2.03892E+06         36.6754
             386     6.30040E-03     59.1212E-03     61.4455E-03     12.1139E-03    -470.281E-03     60.5941E-03    -469.429E-03     12.1139E-03     819.394E-06     211.120E-03    -105.291E-03    -105.757E-03    -105.169E-03     210.998E-03    -105.757E-03     12.3876E-03    -20.8718E+06    -93.9326E+06    -175.348E+06    -93.9996E+06    -175.281E+06    -20.8718E+06    -2.04030E+06         36.5834
             387     5.39968E-03     59.1069E-03     50.1468E-03     5.09062E-03    -451.066E-03     48.5525E-03    -449.471E-03     5.09062E-03     28.5745E-03     210.973E-03    -105.253E-03    -105.788E-03    -105.164E-03     210.885E-03    -105.788E-03     10.5192E-03    -38.7355E+06    -104.145E+06    -205.116E+06    -104.199E+06    -205.063E+06    -38.7355E+06    -1.67687E+06         36.5229
             388     4.50005E-03     59.0959E-03     27.7830E-03    -891.337E-06    -423.022E-03     23.1313E-03    -418.371E-03    -891.337E-06    -15.7409E-03     211.001E-03    -105.291E-03    -105.804E-03    -105.232E-03     210.942E-03    -105.804E-03     8.59718E-03    -60.8549E+06    -115.855E+06    -226.442E+06    -115.885E+06    -226.411E+06    -60.8549E+06    -1.39616E+06         36.4758
             389     3.59999E-03     59.0878E-03     8.09379E-03    -7.65237E-03    -397.367E-03    -9.53196E-03    -385.046E-03    -2.34753E-03     24.4454E-03     211.218E-03    -105.452E-03    -105.765E-03    -105.416E-03     211.182E-03    -105.765E-03     6.69980E-03    -85.0910E+06    -125.680E+06    -249.981E+06    -125.716E+06    -249.944E+06    -85.0910E+06    -753.917E+03         36.4304
             390     2.69947E-03     59.0811E-03     5.26462E-03    -9.46814E-03    -395.320E-03    -34.7042E-03    -370.084E-03     5.26462E-03    -17.8405E-03     211.172E-03    -105.489E-03    -105.666E-03    -105.470E-03     211.152E-03    -105.666E-03     4.90239E-03    -109.720E+06    -133.113E+06    -279.418E+06    -133.171E+06    -279.361E+06    -109.720E+06    -384.841E+03         36.4183
             391     1.79970E-03     59.0760E-03     40.7060E-03    -2.49132E-03    -434.750E-03    -21.5283E-03    -398.121E-03     23.1138E-03     25.2082E-03     211.130E-03    -105.494E-03    -105.654E-03    -105.533E-03     211.121E-03    -105.606E-03     3.15859E-03    -131.498E+06    -141.220E+06    -308.712E+06    -141.264E+06    -308.668E+06    -131.498E+06    -1.37810E+06         36.4147
             392     899.359E-06     59.0735E-03     323.471E-03    -204.959E-03    -519.340E-03     275.831E-03    -469.585E-03    -207.073E-03    -27.1311E-03     211.149E-03    -105.401E-03    -105.762E-03    -105.707E-03     211.145E-03    -105.452E-03     2.05281E-03    -143.601E+06    -148.357E+06    -332.640E+06    -146.951E+06    -332.615E+06    -145.032E+06    -719.740E+03         36.3946
             393     15.3083E-03     58.1650E-03     237.560E-03     90.6313E-03    -724.629E-03     236.954E-03    -724.023E-03     90.6313E-03     6.13538E-03     210.469E-03    -104.791E-03    -105.663E-03    -103.979E-03     209.657E-03    -105.663E-03     31.2819E-03     146.026E+06     130.174E+06    -8.24219E+06    -8.22626E+06     146.010E+06     130.174E+06    -1.45776E+06         48.5587
             394     14.4064E-03     58.1202E-03     219.237E-03     82.3563E-03    -697.699E-03     218.741E-03    -697.203E-03     82.3563E-03     12.1651E-03     210.336E-03    -104.752E-03    -105.587E-03    -103.827E-03     209.411E-03    -105.587E-03     33.8659E-03     134.782E+06     106.237E+06    -16.7034E+06    -16.6920E+06     134.771E+06     106.237E+06    -696.756E+03         45.9359
             395     13.5049E-03     58.0846E-03     195.114E-03     74.3696E-03    -667.130E-03     194.829E-03    -666.845E-03     74.3696E-03    -11.8849E-03     210.177E-03    -104.647E-03    -105.536E-03    -103.957E-03     209.488E-03    -105.536E-03     29.4225E-03     126.084E+06     91.6553E+06    -24.5777E+06    -24.5600E+06     126.066E+06     91.6553E+06     1.07782E+06         43.0599
             396     12.6044E-03     58.0497E-03     172.588E-03     66.8696E-03    -638.465E-03     172.203E-03    -638.080E-03     66.8696E-03     2.82613E-03     210.396E-03    -104.857E-03    -105.528E-03    -104.264E-03     209.803E-03    -105.528E-03     27.2784E-03     95.2688E+06     67.0896E+06    -31.5206E+06    -31.5026E+06     86.8914E+06     75.4490E+06     1.24390E+06         40.5834
             397     11.7029E-03     58.0186E-03     168.705E-03     59.1933E-03    -627.202E-03     168.287E-03    -626.784E-03     59.1933E-03    -14.0601E-03     210.670E-03    -104.981E-03    -105.607E-03    -104.502E-03     210.191E-03    -105.607E-03     24.5571E-03     61.6124E+06     10.6594E+06    -38.3853E+06    -38.3102E+06     10.5843E+06     61.6124E+06     545.061E+03         38.7784
             398     10.8026E-03     57.9903E-03     151.383E-03     51.1186E-03    -602.537E-03     150.991E-03    -602.145E-03     51.1186E-03    -21.1091E-03     210.630E-03    -104.868E-03    -105.671E-03    -104.466E-03     210.228E-03    -105.671E-03     22.4868E-03     50.4304E+06    -32.1046E+06    -46.5207E+06    -46.3961E+06    -32.2293E+06     50.4304E+06     574.312E+03         37.6852
             399     9.90108E-03     57.9652E-03     112.373E-03     44.1464E-03    -557.079E-03     112.102E-03    -556.809E-03     44.1464E-03     1.85645E-03     210.797E-03    -104.973E-03    -105.740E-03    -104.639E-03     210.463E-03    -105.740E-03     20.5222E-03     40.2255E+06    -46.7426E+06    -66.6268E+06    -55.1663E+06    -58.2031E+06     40.2255E+06     21.6442E+03         37.1739
             400     9.00096E-03     57.9415E-03     90.9720E-03     38.7146E-03    -530.383E-03     90.7881E-03    -530.199E-03     38.7146E-03     11.8104E-03     211.014E-03    -105.234E-03    -105.798E-03    -104.963E-03     210.743E-03    -105.798E-03     18.4689E-03     29.5253E+06    -63.4467E+06    -87.9676E+06    -63.5357E+06    -87.8785E+06     29.5253E+06    -391.175E+03         36.9304
             401     8.10102E-03     57.9219E-03     85.4225E-03     33.5163E-03    -520.071E-03     84.1983E-03    -518.847E-03     33.5163E-03    -17.5469E-03     210.863E-03    -105.167E-03    -105.802E-03    -104.951E-03     210.648E-03    -105.802E-03     16.4651E-03     15.4230E+06    -72.3484E+06    -110.541E+06    -72.4898E+06    -110.400E+06     15.4230E+06    -166.101E+03         36.7831
             402     7.20046E-03     57.9025E-03     78.9695E-03     27.7516E-03    -508.092E-03     77.7029E-03    -506.825E-03     27.7516E-03    -29.4570E-03     210.940E-03    -105.134E-03    -105.752E-03    -104.966E-03     210.772E-03    -105.752E-03     14.5220E-03    -3.20971E+06    -83.6126E+06    -140.686E+06    -83.6854E+06    -140.614E+06    -3.20971E+06    -489.730E+03         36.6773
             403     6.30026E-03     57.8864E-03     70.2787E-03     21.3033E-03    -494.567E-03     69.8939E-03    -494.182E-03     21.3033E-03    -8.46527E-03     211.025E-03    -105.169E-03    -105.731E-03    -105.045E-03     210.901E-03    -105.731E-03     12.4632E-03    -22.8698E+06    -96.2673E+06    -175.068E+06    -96.3123E+06    -175.023E+06    -22.8698E+06    -1.52089E+06         36.5794
             404     5.40052E-03     57.8736E-03     52.3165E-03     14.9710E-03    -471.445E-03     51.0320E-03    -470.160E-03     14.9710E-03     26.0318E-03     210.827E-03    -105.078E-03    -105.792E-03    -104.986E-03     210.735E-03    -105.792E-03     10.7408E-03    -42.6364E+06    -107.911E+06    -206.472E+06    -107.970E+06    -206.413E+06    -42.6364E+06    -1.84143E+06         36.5182
             405     4.49899E-03     57.8621E-03     36.4254E-03     9.84737E-03    -450.674E-03     32.4659E-03    -446.714E-03     9.84737E-03    -24.5335E-03     210.929E-03    -105.210E-03    -105.823E-03    -105.146E-03     210.866E-03    -105.823E-03     8.83647E-03    -64.7290E+06    -117.671E+06    -226.784E+06    -117.710E+06    -226.745E+06    -64.7290E+06    -1.59432E+06         36.4755
             406     3.59909E-03     57.8529E-03     39.6968E-03     2.00392E-03    -444.799E-03     15.7529E-03    -425.387E-03     6.53535E-03     69.1317E-03     211.344E-03    -105.562E-03    -105.791E-03    -105.548E-03     211.310E-03    -105.770E-03     6.43868E-03    -89.2879E+06    -127.040E+06    -250.857E+06    -127.086E+06    -250.811E+06    -89.2879E+06    -2.32412E+06         36.4347
             407     2.70025E-03     57.8471E-03     57.2350E-03    -4.96146E-03    -457.063E-03     16.9569E-03    -424.828E-03     3.08184E-03     4.32359E-03     211.386E-03    -105.640E-03    -105.739E-03    -105.707E-03     211.369E-03    -105.656E-03     4.57154E-03    -110.995E+06    -135.206E+06    -281.516E+06    -135.251E+06    -281.470E+06    -110.995E+06    -1.27504E+06         36.4238
             408     1.80009E-03     57.8422E-03     83.9771E-03    -8.39425E-03    -477.370E-03     17.3888E-03    -414.293E-03    -4.88239E-03     96.8099E-03     211.101E-03    -105.470E-03    -105.653E-03    -105.579E-03     211.093E-03    -105.536E-03     2.86308E-03    -130.132E+06    -141.650E+06    -308.831E+06    -141.706E+06    -308.776E+06    -130.132E+06     774.297E+03         36.4222
             409     900.326E-06     57.8397E-03     200.541E-03    -70.9938E-03    -526.165E-03     49.9126E-03    -375.537E-03    -70.9938E-03    -87.0695E-03     210.914E-03    -105.301E-03    -105.627E-03    -105.491E-03     210.912E-03    -105.435E-03     1.47521E-03    -143.444E+06    -147.609E+06    -333.820E+06    -146.926E+06    -333.753E+06    -144.194E+06     406.639E+03         36.4038
             410     15.3069E-03     56.9309E-03     253.261E-03     102.147E-03    -754.363E-03     252.980E-03    -754.082E-03     102.147E-03    -2.08107E-03     210.276E-03    -104.600E-03    -105.675E-03    -103.781E-03     209.457E-03    -105.675E-03     31.3699E-03     145.972E+06     129.879E+06    -8.43478E+06    -8.38998E+06     145.927E+06     129.879E+06    -402.902E+03         48.5510
             411     14.4063E-03     56.8863E-03     233.024E-03     93.7725E-03    -727.886E-03     232.848E-03    -727.710E-03     93.7725E-03     3.73288E-03     210.734E-03    -105.130E-03    -105.600E-03    -104.200E-03     209.805E-03    -105.600E-03     33.9679E-03     134.208E+06     105.987E+06    -18.0022E+06    -17.9740E+06     134.180E+06     105.987E+06     1.07337E+06         45.9301
             412     13.5053E-03     56.8503E-03     211.079E-03     85.6448E-03    -700.104E-03     210.835E-03    -699.860E-03     85.6448E-03     6.83683E-03     210.349E-03    -104.820E-03    -105.531E-03    -104.134E-03     209.663E-03    -105.531E-03     29.3603E-03     125.751E+06     91.3594E+06    -25.7075E+06    -25.6946E+06     125.738E+06     91.3594E+06    -48.0605E+03         43.0561
             413     12.6039E-03     56.8154E-03     184.528E-03     78.0087E-03    -668.732E-03     184.231E-03    -668.436E-03     78.0087E-03     28.9888E-03     210.296E-03    -104.770E-03    -105.519E-03    -104.163E-03     209.690E-03    -105.519E-03     27.5786E-03     95.2476E+06     67.0478E+06    -32.4164E+06    -32.4004E+06     87.3924E+06     74.8869E+06     70.4579E+03         40.5805
             414     11.7035E-03     56.7843E-03     161.219E-03     71.0398E-03    -640.806E-03     161.072E-03    -640.658E-03     71.0398E-03     10.3502E-03     210.588E-03    -104.903E-03    -105.612E-03    -104.418E-03     210.103E-03    -105.612E-03     24.6503E-03     61.2673E+06     10.2055E+06    -40.4085E+06    -40.3221E+06     10.1190E+06     61.2673E+06     806.069E+03         38.7762
             415     10.8020E-03     56.7569E-03     140.783E-03     64.7159E-03    -615.396E-03     140.169E-03    -614.783E-03     64.7159E-03     23.7597E-03     210.639E-03    -104.882E-03    -105.682E-03    -104.489E-03     210.245E-03    -105.682E-03     22.2523E-03     51.5933E+06    -32.2979E+06    -49.5841E+06    -49.3993E+06    -32.4826E+06     51.5933E+06     1.39498E+06         37.6837
             416     9.90198E-03     56.7310E-03     124.816E-03     58.9086E-03    -593.109E-03     124.121E-03    -592.414E-03     58.9086E-03     34.6021E-03     210.736E-03    -104.931E-03    -105.732E-03    -104.600E-03     210.405E-03    -105.732E-03     20.4051E-03     40.4352E+06    -47.2921E+06    -66.1597E+06    -58.7497E+06    -54.7021E+06     40.4352E+06    -174.115E+03         37.1727
             417     9.00105E-03     56.7075E-03     118.065E-03     52.9827E-03    -579.758E-03     117.877E-03    -579.570E-03     52.9827E-03     19.2257E-03     210.867E-03    -105.096E-03    -105.804E-03    -104.831E-03     210.602E-03    -105.804E-03     18.2722E-03     27.2943E+06    -65.9967E+06    -89.5232E+06    -67.2660E+06    -88.2538E+06     27.2943E+06    -2.82452E+06         36.9310
             418     8.10052E-03     56.6869E-03     111.959E-03     46.3472E-03    -565.971E-03     111.623E-03    -565.634E-03     46.3472E-03    -753.433E-06     210.912E-03    -105.185E-03    -105.815E-03    -104.972E-03     210.699E-03    -105.815E-03     16.3918E-03     13.8768E+06    -74.7316E+06    -113.643E+06    -74.9548E+06    -113.420E+06     13.8768E+06    -1.37202E+06         36.7852
             419     7.20075E-03     56.6686E-03     87.6121E-03     39.9589E-03    -536.439E-03     87.3361E-03    -536.163E-03     39.9589E-03    -12.5461E-03     210.842E-03    -105.005E-03    -105.768E-03    -104.831E-03     210.668E-03    -105.768E-03     14.7695E-03    -3.39288E+06    -83.6920E+06    -140.425E+06    -83.7624E+06    -140.355E+06    -3.39288E+06     973.009E+03         36.6762
             420     6.30007E-03     56.6526E-03     59.0524E-03     31.8217E-03    -500.749E-03     54.8293E-03    -500.537E-03     35.8328E-03    -795.439E-06     210.932E-03    -105.055E-03    -105.765E-03    -104.925E-03     210.803E-03    -105.765E-03     12.7301E-03    -22.8008E+06    -94.3036E+06    -173.343E+06    -94.3367E+06     -173.31E+06    -22.8008E+06     642.997E+03         36.5771
             421     5.39889E-03     56.6399E-03     48.8538E-03     29.7779E-03    -488.876E-03     44.5407E-03    -488.574E-03     33.7890E-03     11.6307E-03     211.175E-03    -105.397E-03    -105.828E-03    -105.334E-03     211.087E-03    -105.803E-03     10.5122E-03    -43.3717E+06    -105.563E+06    -205.582E+06    -105.598E+06    -205.547E+06    -43.3717E+06    -1.36083E+06         36.5196
             422     4.50006E-03     56.6278E-03     59.3041E-03     30.5975E-03    -499.926E-03     55.7250E-03    -496.347E-03     30.5975E-03    -52.1664E-03     211.059E-03    -105.357E-03    -105.824E-03    -105.324E-03     211.001E-03    -105.799E-03     8.45630E-03    -64.6907E+06    -116.431E+06    -227.811E+06    -116.499E+06    -227.743E+06    -64.6907E+06    -2.57878E+06         36.4793
             423     3.60002E-03     56.6186E-03     77.8612E-03     23.3988E-03    -510.200E-03     62.3886E-03    -494.727E-03     23.3988E-03     48.9986E-03     211.052E-03    -105.287E-03    -105.775E-03    -105.274E-03     211.018E-03    -105.754E-03     6.42440E-03    -89.4391E+06    -126.554E+06    -251.625E+06    -126.608E+06    -251.571E+06    -89.4391E+06    -2.02673E+06         36.4380
             424     2.69951E-03     56.6126E-03     96.6502E-03     12.6301E-03    -518.781E-03     48.9031E-03    -471.034E-03     12.6301E-03    -86.8953E-03     211.314E-03    -105.504E-03    -105.792E-03    -105.567E-03     211.294E-03    -105.709E-03     4.92424E-03    -114.529E+06    -136.472E+06    -285.028E+06    -136.495E+06    -285.004E+06    -114.529E+06    -1.03352E+06         36.4260
             425     1.80018E-03     56.6086E-03     104.922E-03     2.31758E-03    -514.631E-03     19.9701E-03    -429.679E-03     2.31758E-03     23.8254E-03     211.366E-03    -105.612E-03    -105.775E-03    -105.717E-03     211.356E-03    -105.659E-03     3.55295E-03    -131.763E+06    -143.095E+06    -309.815E+06    -143.138E+06    -309.772E+06    -131.763E+06     431.158E+03         36.4282
             426     900.229E-06     56.6062E-03     236.449E-03     4.11376E-03    -640.088E-03    -117.162E-03    -395.631E-03     113.268E-03    -235.615E-03     211.145E-03    -105.444E-03    -105.716E-03    -105.610E-03     211.142E-03    -105.547E-03     1.82814E-03    -141.896E+06    -146.243E+06    -331.446E+06    -145.560E+06    -331.379E+06    -142.646E+06     758.325E+03         36.4164
             427     15.3071E-03     55.6973E-03     266.391E-03     117.160E-03    -789.476E-03     266.142E-03    -789.227E-03     117.160E-03    -4.26275E-03     210.169E-03    -104.505E-03    -105.698E-03    -103.692E-03     209.356E-03    -105.698E-03     31.2748E-03     144.505E+06     129.979E+06    -9.12775E+06    -9.08855E+06     144.466E+06     129.979E+06     339.541E+03         48.5436
             428     14.4056E-03     55.6511E-03     246.357E-03     109.019E-03    -764.905E-03     246.062E-03    -764.610E-03     109.019E-03    -4.93155E-03     210.717E-03    -105.094E-03    -105.621E-03    -104.161E-03     209.784E-03    -105.621E-03     34.0589E-03     136.039E+06     108.764E+06    -16.4501E+06    -16.4224E+06     136.011E+06     108.764E+06     1.47934E+06         45.9243
             429     13.5054E-03     55.6163E-03     226.975E-03     101.087E-03    -739.314E-03     226.637E-03    -738.976E-03     101.087E-03    -16.0996E-03     210.480E-03    -104.924E-03    -105.543E-03    -104.226E-03     209.782E-03    -105.543E-03     29.6402E-03     127.472E+06     92.8149E+06    -24.6227E+06    -24.6088E+06     127.458E+06     92.8149E+06     33.2471E+03         43.0518
             430     12.6042E-03     55.5820E-03     206.595E-03     93.3733E-03    -714.686E-03     206.386E-03    -714.477E-03     93.3733E-03    -5.94387E-03     210.421E-03    -104.858E-03    -105.531E-03    -104.245E-03     209.808E-03    -105.531E-03     27.7296E-03     94.4850E+06     65.4486E+06    -33.4301E+06    -33.4133E+06     85.3204E+06     74.5965E+06    -243.615E+03         40.5778
             431     11.7026E-03     55.5501E-03     173.627E-03     86.4729E-03    -676.560E-03     173.468E-03    -676.401E-03     86.4729E-03    -12.1872E-03     210.693E-03    -104.992E-03    -105.625E-03    -104.510E-03     210.211E-03    -105.625E-03     24.5785E-03     61.5948E+06     9.16605E+06    -40.9653E+06    -40.8721E+06     9.07290E+06     61.5948E+06     888.557E+03         38.7751
             432     10.8026E-03     55.5235E-03     147.229E-03     80.8113E-03    -644.075E-03     146.595E-03    -643.441E-03     80.8113E-03     17.0911E-03     210.832E-03    -105.071E-03    -105.683E-03    -104.682E-03     210.444E-03    -105.683E-03     22.1250E-03     53.8463E+06    -31.4279E+06    -47.8314E+06    -47.5359E+06    -31.7234E+06     53.8463E+06     683.624E+03         37.6850
             433     9.90168E-03     55.4965E-03     145.880E-03     75.2564E-03    -637.365E-03     145.277E-03    -636.763E-03     75.2564E-03     29.1581E-03     210.691E-03    -104.927E-03    -105.720E-03    -104.594E-03     210.357E-03    -105.720E-03     20.4748E-03     43.1244E+06    -44.7839E+06    -61.1628E+06    -54.7744E+06    -51.1724E+06     43.1244E+06    -615.326E+03         37.1748
             434     9.00121E-03     55.4736E-03     139.909E-03     68.8701E-03    -625.310E-03     139.418E-03    -624.819E-03     68.8701E-03     27.8705E-03     210.654E-03    -104.930E-03    -105.796E-03    -104.658E-03     210.382E-03    -105.796E-03     18.4908E-03     26.9606E+06    -63.9518E+06    -88.1817E+06    -65.2089E+06    -86.9247E+06     26.9606E+06    -1.60343E+06         36.9306
             435     8.10081E-03     55.4524E-03     118.771E-03     62.5694E-03    -598.150E-03     117.853E-03    -597.233E-03     62.5694E-03    -4.17073E-03     210.668E-03    -104.934E-03    -105.839E-03    -104.718E-03     210.452E-03    -105.839E-03     16.4888E-03     10.7600E+06    -77.3572E+06    -117.634E+06    -77.5105E+06    -117.481E+06     10.7600E+06    -1.68702E+06         36.7841
             436     7.19985E-03     55.4348E-03     92.9738E-03     57.6583E-03    -568.407E-03     91.8150E-03    -567.248E-03     57.6583E-03    -7.59023E-03     210.814E-03    -104.947E-03    -105.814E-03    -104.777E-03     210.645E-03    -105.814E-03     14.6070E-03    -6.50457E+06    -87.7087E+06    -142.547E+06    -87.7559E+06    -142.500E+06    -6.50457E+06     47.2379E+03         36.6770
             437     6.29913E-03     55.4191E-03     74.2743E-03     50.7371E-03    -541.516E-03     69.4848E-03    -540.738E-03     54.7482E-03     12.5178E-03     211.183E-03    -105.284E-03    -105.781E-03    -105.156E-03     211.054E-03    -105.781E-03     12.6992E-03    -24.8012E+06    -96.5495E+06    -170.901E+06    -96.5858E+06    -170.865E+06    -24.8012E+06     459.828E+03         36.5790
             438     5.40040E-03     55.4043E-03     65.5788E-03     49.3735E-03    -531.670E-03     59.7189E-03    -529.821E-03     53.3846E-03     31.0609E-03     211.288E-03    -105.503E-03    -105.817E-03    -105.441E-03     211.200E-03    -105.792E-03     10.4784E-03    -43.7954E+06    -105.726E+06    -203.220E+06    -105.770E+06    -203.177E+06    -43.7954E+06    -1.55464E+06         36.5208
             439     4.50008E-03     55.3939E-03     69.1208E-03     41.8025E-03    -528.086E-03     52.6908E-03    -522.911E-03     53.0568E-03    -25.9116E-03     210.964E-03    -105.249E-03    -105.820E-03    -105.214E-03     210.903E-03    -105.795E-03     8.72897E-03    -66.9560E+06    -115.554E+06    -228.612E+06    -115.623E+06    -228.544E+06    -66.9560E+06    -2.30148E+06         36.4810
             440     3.59935E-03     55.3854E-03     78.2992E-03     38.7195E-03    -531.028E-03     52.3541E-03    -519.763E-03     53.3994E-03     33.1254E-03     210.987E-03    -105.172E-03    -105.820E-03    -105.132E-03     210.947E-03    -105.820E-03     7.05220E-03    -90.1960E+06    -125.256E+06    -254.861E+06    -125.286E+06    -254.832E+06    -90.1960E+06    -962.269E+03         36.4411
             441     2.69922E-03     55.3787E-03     90.3763E-03     51.3025E-03    -554.369E-03     48.7938E-03    -516.212E-03     54.7281E-03    -89.5307E-03     211.364E-03    -105.479E-03    -105.870E-03    -105.459E-03     211.344E-03    -105.870E-03     4.88702E-03    -111.715E+06    -133.584E+06    -286.729E+06    -133.595E+06    -286.718E+06    -111.715E+06     668.850E+03         36.4289
             442     1.79878E-03     55.3741E-03     113.526E-03     61.6669E-03    -587.025E-03     38.6221E-03    -512.121E-03     61.6669E-03     53.7897E-03     211.565E-03    -105.640E-03    -105.935E-03    -105.631E-03     211.557E-03    -105.935E-03     3.14711E-03    -131.537E+06    -141.098E+06    -309.501E+06    -140.626E+06    -309.485E+06    -132.025E+06     294.649E+03         36.4343
             443     899.254E-06     55.3722E-03     403.739E-03     9.03937E-03    -829.764E-03    -239.559E-03    -552.052E-03     374.626E-03    -261.475E-03     211.881E-03    -105.755E-03    -106.124E-03    -105.948E-03     211.878E-03    -105.928E-03     1.84600E-03    -142.186E+06    -145.527E+06    -330.567E+06    -145.074E+06    -330.532E+06    -142.674E+06    -420.168E+03         36.4306
             444     15.3074E-03     54.4626E-03     267.377E-03     134.746E-03    -820.185E-03     266.726E-03    -819.534E-03     134.746E-03     3.76216E-03     210.224E-03    -104.536E-03    -105.697E-03    -103.704E-03     209.392E-03    -105.697E-03     31.7307E-03     142.984E+06     128.246E+06    -8.97584E+06    -8.96550E+06     142.973E+06     128.246E+06     577.975E+03         48.5371
             445     14.4057E-03     54.4179E-03     247.913E-03     127.736E-03    -791.503E-03     247.206E-03    -790.797E-03     127.736E-03     2.43120E-03     210.421E-03    -104.795E-03    -105.627E-03    -103.860E-03     209.486E-03    -105.627E-03     34.0743E-03     134.656E+06     106.730E+06    -16.8474E+06    -16.8377E+06     134.646E+06     106.730E+06    -250.152E+03         45.9195
             446     13.5036E-03     54.3813E-03     229.892E-03     121.016E-03    -767.236E-03     229.525E-03    -766.870E-03     121.016E-03    -23.6236E-03     210.421E-03    -104.821E-03    -105.581E-03    -104.125E-03     209.724E-03    -105.581E-03     29.5953E-03     128.605E+06     95.5669E+06    -24.5025E+06    -24.4489E+06     128.551E+06     95.5669E+06     1.28433E+06         43.0479
             447     12.6038E-03     54.3478E-03     214.442E-03     114.441E-03    -746.868E-03     214.266E-03    -746.692E-03     114.441E-03    -10.6193E-03     210.713E-03    -105.100E-03    -105.566E-03    -104.498E-03     210.111E-03    -105.566E-03     27.5224E-03     95.7456E+06     67.2872E+06    -34.4731E+06    -34.3423E+06     85.4640E+06     77.4380E+06     2.76155E+06         40.5754
             448     11.7035E-03     54.3162E-03     201.258E-03     107.877E-03    -728.566E-03     200.979E-03    -728.287E-03     107.877E-03    -5.90951E-03     210.754E-03    -105.051E-03    -105.626E-03    -104.559E-03     210.263E-03    -105.626E-03     24.8621E-03     59.7097E+06     12.3536E+06    -44.3447E+06    -43.9438E+06     11.9527E+06     59.7097E+06    -306.138E+03         38.7747
             449     10.8025E-03     54.2882E-03     186.991E-03     101.255E-03    -708.589E-03     186.789E-03    -708.388E-03     101.255E-03     7.19465E-03     210.787E-03    -105.041E-03    -105.673E-03    -104.635E-03     210.381E-03    -105.673E-03     22.5978E-03     49.4031E+06    -30.0729E+06    -51.2663E+06    -50.5729E+06    -30.7663E+06     49.4031E+06    -3.17516E+06         37.6867
             450     9.90219E-03     54.2635E-03     169.034E-03     94.7770E-03    -686.858E-03     168.983E-03    -686.807E-03     94.7770E-03     6.32099E-03     210.759E-03    -105.001E-03    -105.720E-03    -104.657E-03     210.416E-03    -105.720E-03     20.7968E-03     40.0060E+06    -47.4382E+06    -63.0029E+06    -57.3157E+06    -53.1254E+06     40.0060E+06    -1.03137E+06         37.1790
             451     9.00110E-03     54.2393E-03     147.009E-03     88.9476E-03    -659.967E-03     146.434E-03    -659.392E-03     88.9476E-03     29.6707E-03     210.633E-03    -104.896E-03    -105.801E-03    -104.619E-03     210.356E-03    -105.801E-03     18.6410E-03     25.8853E+06    -63.1987E+06    -88.4875E+06    -65.7608E+06    -85.9254E+06     25.8853E+06     521.120E+03         36.9364
             452     8.10022E-03     54.2194E-03     122.349E-03     84.4361E-03    -631.043E-03     121.027E-03    -629.722E-03     84.4361E-03    -6.49667E-03     210.645E-03    -104.920E-03    -105.856E-03    -104.709E-03     210.434E-03    -105.856E-03     16.2988E-03     10.8406E+06    -75.5679E+06    -117.820E+06    -75.5736E+06    -117.815E+06     10.8406E+06    -397.554E+03         36.7894
             453     7.19968E-03     54.2008E-03     109.367E-03     81.1136E-03    -614.784E-03     107.698E-03    -613.115E-03     81.1136E-03     532.784E-06     211.021E-03    -105.156E-03    -105.846E-03    -104.991E-03     210.857E-03    -105.846E-03     14.3903E-03    -4.81127E+06    -86.2096E+06    -145.553E+06    -86.2196E+06    -145.543E+06    -4.81127E+06    -90.8270E+03         36.6813
             454     6.30039E-03     54.1841E-03     109.046E-03     77.6770E-03    -609.765E-03     107.159E-03    -607.877E-03     77.6770E-03     7.44501E-03     211.097E-03    -105.187E-03    -105.775E-03    -105.060E-03     210.969E-03    -105.775E-03     12.6763E-03    -25.7079E+06    -97.2080E+06    -168.777E+06    -97.2230E+06    -168.762E+06    -25.7079E+06     269.763E+03         36.5795
             455     5.39917E-03     54.1703E-03     97.5128E-03     74.1596E-03    -593.898E-03     94.4182E-03    -590.803E-03     74.1596E-03     21.9620E-03     210.874E-03    -105.079E-03    -105.797E-03    -104.984E-03     210.780E-03    -105.797E-03     10.8879E-03    -49.5206E+06    -108.446E+06    -200.693E+06    -108.507E+06    -200.632E+06    -49.5206E+06    -1.57619E+06         36.5171
             456     4.49895E-03     54.1600E-03     81.2776E-03     62.2551E-03    -564.439E-03     65.2795E-03    -559.695E-03     73.5093E-03    -8.10800E-03     211.081E-03    -105.310E-03    -105.868E-03    -105.252E-03     211.018E-03    -105.863E-03     8.84326E-03    -72.2518E+06    -118.467E+06    -231.705E+06    -118.518E+06    -231.654E+06    -72.2518E+06    -1.63755E+06         36.4819
             457     3.59900E-03     54.1514E-03     81.5307E-03     63.3773E-03    -562.850E-03     49.4116E-03    -545.411E-03     78.0573E-03     78.5504E-03     211.353E-03    -105.521E-03    -105.859E-03    -105.489E-03     211.316E-03    -105.855E-03     6.70259E-03    -95.4948E+06    -128.283E+06    -256.625E+06    -128.292E+06    -256.616E+06    -95.4948E+06     389.556E+03         36.4491
             458     2.69925E-03     54.1438E-03     110.956E-03     79.9125E-03    -610.910E-03     73.5884E-03    -576.968E-03     83.3381E-03    -33.8565E-03     211.424E-03    -105.565E-03    -105.867E-03    -105.548E-03     211.407E-03    -105.867E-03     4.51214E-03    -116.136E+06    -136.467E+06    -287.581E+06    -136.488E+06    -287.560E+06    -116.136E+06     730.371E+03         36.4349
             459     1.79977E-03     54.1404E-03     184.691E-03     80.7559E-03    -688.318E-03     97.6293E-03    -601.256E-03     80.7559E-03     164.933E-03     211.569E-03    -105.612E-03    -105.973E-03    -105.658E-03     211.563E-03    -105.921E-03     2.69305E-03    -130.932E+06    -141.772E+06    -307.868E+06    -141.306E+06    -307.846E+06    -131.420E+06     1.04403E+06         36.4361
             460     899.262E-06     54.1370E-03     600.921E-03    -12.1555E-03        -1.01500    -369.825E-03    -579.099E-03     522.689E-03    -236.751E-03     211.798E-03    -105.708E-03    -106.088E-03    -105.933E-03     211.796E-03    -105.861E-03     1.41671E-03    -142.121E+06    -147.693E+06    -331.004E+06    -145.772E+06    -330.972E+06    -144.074E+06     455.796E+03         36.4352
             461     15.3067E-03     53.2286E-03     278.971E-03     154.947E-03    -859.717E-03     278.358E-03    -859.104E-03     154.947E-03     9.91990E-03     210.337E-03    -104.592E-03    -105.701E-03    -103.757E-03     209.502E-03    -105.701E-03     31.8432E-03     143.378E+06     129.379E+06    -7.80280E+06    -7.79022E+06     143.365E+06     129.379E+06     698.739E+03         48.5309
             462     14.4056E-03     53.1833E-03     259.217E-03     148.555E-03    -830.585E-03     258.675E-03    -830.043E-03     148.555E-03     24.5130E-03     210.526E-03    -104.897E-03    -105.629E-03    -103.978E-03     209.608E-03    -105.629E-03     33.7548E-03     135.218E+06     107.096E+06    -16.0375E+06    -16.0238E+06     135.204E+06     107.096E+06    -261.840E+03         45.9158
             463     13.5050E-03     53.1480E-03     238.429E-03     142.582E-03    -802.551E-03     238.196E-03    -802.319E-03     142.582E-03     13.0878E-03     210.220E-03    -104.618E-03    -105.593E-03    -103.927E-03     209.530E-03    -105.593E-03     29.4436E-03     123.877E+06     94.6220E+06    -24.2988E+06    -24.2428E+06     123.821E+06     94.6220E+06     1.30722E+06         43.0454
             464     12.6030E-03     53.1117E-03     222.523E-03     136.940E-03    -783.568E-03     222.359E-03    -783.405E-03     136.940E-03     19.3258E-03     210.497E-03    -104.866E-03    -105.595E-03    -104.262E-03     209.893E-03    -105.595E-03     27.5144E-03     93.7114E+06     71.6373E+06    -30.2945E+06    -30.1651E+06     85.9819E+06     79.2373E+06     2.95016E+06         40.5733
             465     11.7024E-03     53.0828E-03     216.555E-03     131.172E-03    -774.613E-03     216.388E-03    -774.446E-03     131.172E-03     18.6633E-03     210.790E-03    -105.052E-03    -105.658E-03    -104.559E-03     210.297E-03    -105.658E-03     24.9114E-03     63.0202E+06     19.6326E+06    -37.6372E+06    -36.9258E+06     18.9213E+06     63.0202E+06     592.037E+03         38.7738
             466     10.8019E-03     53.0542E-03     207.291E-03     125.009E-03    -759.847E-03     207.126E-03    -759.682E-03     125.009E-03     20.1759E-03     210.835E-03    -105.056E-03    -105.707E-03    -104.640E-03     210.420E-03    -105.707E-03     22.8712E-03     48.9037E+06    -30.2671E+06    -48.3850E+06    -47.5115E+06    -31.1406E+06     48.9037E+06    -2.08967E+06         37.6877
             467     9.90092E-03     53.0291E-03     179.993E-03     119.371E-03    -728.264E-03     179.955E-03    -728.225E-03     119.371E-03     5.76824E-03     210.972E-03    -105.148E-03    -105.748E-03    -104.802E-03     210.626E-03    -105.748E-03     20.8665E-03     38.0562E+06    -50.5995E+06    -64.1035E+06    -58.0878E+06    -56.6151E+06     38.0562E+06    -1.70303E+06         37.1838
             468     9.00105E-03     53.0052E-03     154.291E-03     115.203E-03    -698.674E-03     154.109E-03    -698.493E-03     115.203E-03     17.7803E-03     210.882E-03    -105.086E-03    -105.824E-03    -104.811E-03     210.607E-03    -105.824E-03     18.5768E-03     25.5684E+06    -63.9458E+06    -89.4670E+06    -66.5859E+06    -86.8269E+06     25.5684E+06    -285.188E+03         36.9452
             469     8.10051E-03     52.9853E-03     144.492E-03     112.009E-03    -687.467E-03     143.500E-03    -686.474E-03     112.009E-03    -20.6507E-03     210.832E-03    -105.112E-03    -105.851E-03    -104.897E-03     210.617E-03    -105.851E-03     16.4475E-03     10.2458E+06    -75.7488E+06    -117.270E+06    -75.7822E+06    -117.237E+06     10.2458E+06     695.719E+03         36.7969
             470     7.20048E-03     52.9658E-03     137.420E-03     109.010E-03    -678.318E-03     136.300E-03    -677.198E-03     109.010E-03    -16.0244E-03     210.940E-03    -105.100E-03    -105.833E-03    -104.929E-03     210.769E-03    -105.833E-03     14.6617E-03    -6.86139E+06    -86.0120E+06    -146.073E+06    -86.0337E+06    -146.051E+06    -6.86139E+06     494.655E+03         36.6840
             471     6.29951E-03     52.9502E-03     129.451E-03     106.138E-03    -664.470E-03     128.129E-03    -663.148E-03     106.138E-03    -12.6344E-03     210.779E-03    -104.884E-03    -105.802E-03    -104.755E-03     210.650E-03    -105.802E-03     12.7253E-03    -27.7646E+06    -95.6198E+06    -168.896E+06    -95.6362E+06    -168.880E+06    -27.7646E+06     742.479E+03         36.5798
             472     5.39906E-03     52.9372E-03     124.969E-03     103.299E-03    -656.184E-03     122.833E-03    -654.048E-03     103.299E-03     7.76791E-03     210.938E-03    -105.104E-03    -105.846E-03    -105.012E-03     210.847E-03    -105.846E-03     10.7143E-03    -50.8971E+06    -105.916E+06    -199.239E+06    -106.021E+06    -199.133E+06    -50.8971E+06     1.35138E+06         36.5177
             473     4.49864E-03     52.9252E-03     131.476E-03     99.0558E-03    -655.914E-03     128.195E-03    -652.633E-03     99.0558E-03    -16.6757E-03     211.386E-03    -105.594E-03    -105.889E-03    -105.541E-03     211.329E-03    -105.885E-03     8.43926E-03    -72.9389E+06    -117.844E+06    -233.475E+06    -117.940E+06    -233.378E+06    -72.9389E+06     518.951E+03         36.4854
             474     3.59956E-03     52.9160E-03     136.610E-03     93.1817E-03    -654.137E-03     118.352E-03    -635.879E-03     93.1817E-03     96.2233E-03     211.486E-03    -105.700E-03    -105.832E-03    -105.673E-03     211.455E-03    -105.827E-03     6.19925E-03    -94.8805E+06    -127.216E+06    -257.351E+06    -127.227E+06    -257.340E+06    -94.8805E+06     51.7486E+03         36.4557
             475     2.69955E-03     52.9107E-03     145.663E-03     88.7053E-03    -664.498E-03     97.0834E-03    -615.918E-03     88.7053E-03    -65.4161E-03     211.453E-03    -105.649E-03    -105.816E-03    -105.652E-03     211.437E-03    -105.798E-03     4.42428E-03    -114.966E+06    -134.261E+06    -287.420E+06    -134.288E+06    -287.393E+06    -114.966E+06     783.220E+03         36.4388
             476     1.79919E-03     52.9051E-03     204.238E-03     83.7558E-03    -722.753E-03     98.0760E-03    -616.591E-03     83.7558E-03     138.398E-03     211.522E-03    -105.694E-03    -105.846E-03    -105.778E-03     211.515E-03    -105.754E-03     2.89904E-03    -129.718E+06    -140.957E+06    -308.077E+06    -140.984E+06    -308.050E+06    -129.718E+06     1.21772E+06         36.4340
             477     900.617E-06     52.9031E-03     735.781E-03    -27.2371E-03        -1.14977    -489.626E-03    -601.515E-03     649.919E-03    -293.634E-03     211.319E-03    -105.560E-03    -105.766E-03    -105.724E-03     211.316E-03    -105.600E-03     1.57298E-03    -139.831E+06    -146.375E+06    -328.624E+06    -144.932E+06    -328.602E+06    -141.296E+06     1.79179E+06         36.4296
             478     15.3071E-03     51.9944E-03     289.237E-03     177.857E-03    -898.079E-03     289.047E-03    -897.888E-03     177.857E-03     7.74856E-03     210.409E-03    -104.669E-03    -105.712E-03    -103.840E-03     209.580E-03    -105.712E-03     31.6943E-03     143.627E+06     131.641E+06    -7.34962E+06    -7.34420E+06     143.621E+06     131.641E+06    -106.159E+03         48.5247
             479     14.4060E-03     51.9491E-03     280.961E-03     171.962E-03    -885.394E-03     280.864E-03    -885.297E-03     171.962E-03     14.5563E-03     210.412E-03    -104.790E-03    -105.632E-03    -103.865E-03     209.487E-03    -105.632E-03     33.8798E-03     136.211E+06     108.660E+06    -14.8785E+06    -14.8621E+06     136.195E+06     108.660E+06     1.00380E+06         45.9117
             480     13.5043E-03     51.9136E-03     261.050E-03     166.178E-03    -860.511E-03     260.907E-03    -860.368E-03     166.178E-03     9.53566E-03     210.173E-03    -104.582E-03    -105.589E-03    -103.872E-03     209.464E-03    -105.589E-03     29.8460E-03     121.845E+06     92.0547E+06    -22.1085E+06    -22.0758E+06     121.812E+06     92.0547E+06     423.249E+03         43.0422
             481     12.6032E-03     51.8789E-03     238.055E-03     160.989E-03    -836.066E-03     237.787E-03    -835.799E-03     160.989E-03    -856.794E-06     210.322E-03    -104.678E-03    -105.608E-03    -104.056E-03     209.701E-03    -105.608E-03     27.8850E-03     91.1063E+06     71.0740E+06    -27.9547E+06    -27.9119E+06     85.1505E+06     76.9871E+06    -1.22031E+06         40.5709
             482     11.7020E-03     51.8468E-03     222.363E-03     156.384E-03    -816.281E-03     222.178E-03    -816.096E-03     156.384E-03    -416.692E-06     210.815E-03    -105.024E-03    -105.701E-03    -104.545E-03     210.337E-03    -105.701E-03     24.5185E-03     64.9641E+06     19.3288E+06    -34.8544E+06    -34.1800E+06     18.6544E+06     64.9641E+06     1.68908E+06         38.7725
             483     10.8016E-03     51.8210E-03     206.958E-03     152.213E-03    -795.267E-03     206.907E-03    -795.215E-03     152.213E-03     8.62947E-03     211.037E-03    -105.195E-03    -105.748E-03    -104.800E-03     210.642E-03    -105.748E-03     22.3322E-03     52.7396E+06    -28.8936E+06    -44.8001E+06    -43.8274E+06    -29.8663E+06     52.7396E+06     3.41920E+06         37.6880
             484     9.90128E-03     51.7935E-03     191.366E-03     148.629E-03    -775.000E-03     191.084E-03    -774.719E-03     148.629E-03     20.2544E-03     210.928E-03    -105.070E-03    -105.767E-03    -104.735E-03     210.593E-03    -105.767E-03     20.5389E-03     38.3443E+06    -48.6867E+06    -61.7748E+06    -55.6932E+06    -54.7683E+06     38.3443E+06     404.331E+03         37.1862
             485     9.00050E-03     51.7716E-03     181.074E-03     145.523E-03    -761.636E-03     180.722E-03    -761.284E-03     145.523E-03     22.8153E-03     210.948E-03    -105.141E-03    -105.834E-03    -104.865E-03     210.671E-03    -105.834E-03     18.6729E-03     22.0986E+06    -65.9902E+06    -90.4409E+06    -66.7588E+06    -89.6724E+06     22.0986E+06    -582.358E+03         36.9504
             486     8.10030E-03     51.7503E-03     175.534E-03     142.463E-03    -755.700E-03     175.174E-03    -755.340E-03     142.463E-03    -11.2409E-03     210.933E-03    -105.200E-03    -105.863E-03    -104.971E-03     210.704E-03    -105.863E-03     16.9862E-03     7.39454E+06    -75.3230E+06    -117.522E+06    -75.3616E+06    -117.483E+06     7.39454E+06     772.568E+03         36.8027
             487     7.19980E-03     51.7326E-03     163.222E-03     139.664E-03    -741.389E-03     162.648E-03    -740.814E-03     139.664E-03     8.47436E-03     210.909E-03    -105.057E-03    -105.868E-03    -104.883E-03     210.736E-03    -105.868E-03     14.7331E-03    -8.24856E+06    -83.6417E+06    -144.726E+06    -83.6609E+06    -144.707E+06    -8.24856E+06     381.315E+03         36.6899
             488     6.29929E-03     51.7169E-03     153.395E-03     137.529E-03    -728.600E-03     152.910E-03    -728.114E-03     137.529E-03     4.81195E-03     211.051E-03    -105.125E-03    -105.856E-03    -105.002E-03     210.927E-03    -105.856E-03     12.4604E-03    -26.4402E+06    -93.3219E+06    -171.929E+06    -93.3749E+06    -171.876E+06    -26.4402E+06     1.12577E+06         36.5889
             489     5.39894E-03     51.7025E-03     156.756E-03     135.084E-03    -726.546E-03     155.397E-03    -725.186E-03     135.084E-03     27.4776E-03     211.309E-03    -105.435E-03    -105.864E-03    -105.346E-03     211.220E-03    -105.864E-03     10.5609E-03    -46.9188E+06    -103.351E+06    -199.454E+06    -103.497E+06    -199.308E+06    -46.9188E+06     3.47155E+06         36.5268
             490     4.49973E-03     51.6904E-03     170.956E-03     130.039E-03    -734.238E-03     166.501E-03    -729.783E-03     130.039E-03    -29.9403E-03     211.303E-03    -105.530E-03    -105.852E-03    -105.473E-03     211.246E-03    -105.852E-03     8.43213E-03    -68.2904E+06    -112.603E+06    -229.027E+06    -112.700E+06    -228.930E+06    -68.2904E+06     1.98667E+06         36.4890
             491     3.59916E-03     51.6819E-03     186.949E-03     120.267E-03    -740.642E-03     171.268E-03    -724.960E-03     120.267E-03     74.8135E-03     211.403E-03    -105.602E-03    -105.845E-03    -105.570E-03     211.371E-03    -105.845E-03     6.28129E-03    -87.7936E+06    -121.219E+06    -259.097E+06    -121.224E+06    -259.092E+06    -87.7936E+06    -194.873E+03         36.4555
             492     2.69955E-03     51.6760E-03     178.356E-03     111.195E-03    -725.889E-03     128.626E-03    -676.160E-03     111.195E-03    -93.0643E-03     211.632E-03    -105.752E-03    -105.891E-03    -105.809E-03     211.615E-03    -105.817E-03     4.55244E-03    -107.644E+06    -129.412E+06    -288.398E+06    -129.437E+06    -288.373E+06    -107.644E+06     1.30452E+06         36.4387
             493     1.80045E-03     51.6715E-03     183.009E-03     117.385E-03    -742.438E-03     81.6312E-03    -641.060E-03     117.385E-03     86.1505E-03     211.429E-03    -105.642E-03    -105.807E-03    -105.729E-03     211.422E-03    -105.712E-03     2.97716E-03    -127.147E+06    -136.360E+06    -306.711E+06    -136.385E+06    -306.686E+06    -127.147E+06     1.74579E+06         36.4325
             494     899.378E-06     51.6688E-03     875.075E-03    -75.7775E-03        -1.24693    -584.544E-03    -700.562E-03     837.475E-03    -351.100E-03     211.249E-03    -105.562E-03    -105.698E-03    -105.586E-03     211.247E-03    -105.672E-03     1.53063E-03    -136.437E+06    -139.952E+06    -325.819E+06    -139.341E+06    -325.812E+06    -137.056E+06     877.762E+03         36.4237
             495     15.3075E-03     50.7608E-03     288.163E-03     202.992E-03    -931.537E-03     287.920E-03    -931.293E-03     202.992E-03    -296.079E-06     210.367E-03    -104.634E-03    -105.712E-03    -103.794E-03     209.527E-03    -105.712E-03     31.8397E-03     142.973E+06     130.925E+06    -8.12590E+06    -8.11488E+06     142.962E+06     130.925E+06    -670.792E+03         48.5170
             496     14.4053E-03     50.7155E-03     280.829E-03     198.790E-03    -921.751E-03     280.669E-03    -921.591E-03     198.790E-03    -4.59802E-03     210.322E-03    -104.700E-03    -105.640E-03    -103.758E-03     209.380E-03    -105.640E-03     34.1493E-03     134.245E+06     106.864E+06    -15.3915E+06    -15.3750E+06     134.229E+06     106.864E+06     360.899E+03         45.9060
             497     13.5039E-03     50.6795E-03     280.188E-03     194.266E-03    -918.173E-03     280.060E-03    -918.045E-03     194.266E-03    -15.3092E-03     210.175E-03    -104.590E-03    -105.599E-03    -103.891E-03     209.475E-03    -105.599E-03     29.6386E-03     124.719E+06     90.7414E+06    -22.4242E+06    -22.3796E+06     124.674E+06     90.7414E+06     112.603E+03         43.0378
             498     12.6028E-03     50.6443E-03     263.129E-03     189.638E-03    -897.970E-03     262.979E-03    -897.820E-03     189.638E-03    -15.1227E-03     210.361E-03    -104.721E-03    -105.610E-03    -104.105E-03     209.745E-03    -105.610E-03     27.7928E-03     91.2078E+06     66.2421E+06    -32.6869E+06    -32.5988E+06     84.5802E+06     72.7816E+06     53.4051E+03         40.5676
             499     11.7020E-03     50.6137E-03     235.468E-03     185.916E-03    -866.407E-03     235.299E-03    -866.237E-03     185.916E-03    -6.41844E-03     210.785E-03    -104.993E-03    -105.707E-03    -104.503E-03     210.294E-03    -105.707E-03     24.8169E-03     58.8216E+06     13.5883E+06    -42.8661E+06    -42.4419E+06     13.1641E+06     58.8216E+06     1.13734E+06         38.7709
             500     10.8016E-03     50.5850E-03     221.688E-03     183.137E-03    -848.838E-03     221.653E-03    -848.803E-03     183.137E-03     4.53371E-03     211.003E-03    -105.143E-03    -105.760E-03    -104.745E-03     210.605E-03    -105.760E-03     22.3933E-03     50.4285E+06    -28.1042E+06    -48.7363E+06    -48.0163E+06    -28.8242E+06     50.4285E+06     2.72974E+06         37.6883
             501     9.90104E-03     50.5608E-03     221.268E-03     180.356E-03    -845.755E-03     220.865E-03    -845.351E-03     180.356E-03     25.5113E-03     210.922E-03    -105.038E-03    -105.786E-03    -104.703E-03     210.586E-03    -105.786E-03     20.5613E-03     39.0975E+06    -44.2586E+06    -61.1752E+06    -53.9649E+06    -51.4689E+06     39.0975E+06     2.67300E+06         37.1886
             502     9.00012E-03     50.5369E-03     218.196E-03     177.086E-03    -840.870E-03     217.749E-03    -840.424E-03     177.086E-03     29.5166E-03     210.976E-03    -105.150E-03    -105.849E-03    -104.876E-03     210.702E-03    -105.849E-03     18.5736E-03     22.0616E+06    -61.9379E+06    -89.7417E+06    -62.7256E+06    -88.9540E+06     22.0616E+06     634.197E+03         36.9543
             503     8.09969E-03     50.5165E-03     205.109E-03     173.860E-03    -824.883E-03     205.033E-03    -824.808E-03     173.860E-03    -2.43173E-03     210.928E-03    -105.172E-03    -105.881E-03    -104.959E-03     210.714E-03    -105.881E-03     16.3794E-03     7.44581E+06    -71.2303E+06    -117.379E+06    -71.3078E+06    -117.301E+06     7.44581E+06    -1.12722E+06         36.8075
             504     7.19941E-03     50.4980E-03     189.382E-03     171.518E-03    -807.340E-03     189.006E-03    -806.965E-03     171.518E-03     22.6475E-03     211.087E-03    -105.208E-03    -105.913E-03    -105.044E-03     210.922E-03    -105.913E-03     14.3944E-03    -5.46544E+06    -79.2479E+06    -146.090E+06    -79.3428E+06    -145.995E+06    -5.46544E+06    -155.011E+03         36.6975
             505     6.29963E-03     50.4820E-03     188.429E-03     169.578E-03    -802.635E-03     187.505E-03    -801.711E-03     169.578E-03    -7.22175E-03     211.478E-03    -105.527E-03    -105.899E-03    -105.401E-03     211.351E-03    -105.899E-03     12.6274E-03    -20.8374E+06    -88.9877E+06    -175.877E+06    -89.1233E+06    -175.742E+06    -20.8374E+06     2.90666E+06         36.5994
             506     5.39997E-03     50.4680E-03     192.064E-03     166.772E-03    -800.987E-03     189.647E-03    -798.570E-03     166.772E-03     25.2212E-03     211.422E-03    -105.560E-03    -105.848E-03    -105.469E-03     211.332E-03    -105.848E-03     10.6487E-03    -41.0966E+06    -99.6774E+06    -198.714E+06    -99.8541E+06    -198.537E+06    -41.0966E+06     4.05872E+06         36.5339
             507     4.49914E-03     50.4561E-03     184.692E-03     158.020E-03    -785.382E-03     171.694E-03    -778.831E-03     164.467E-03    -35.3773E-03     211.093E-03    -105.336E-03    -105.815E-03    -105.280E-03     211.037E-03    -105.815E-03     8.33197E-03    -64.1361E+06    -109.927E+06    -224.095E+06    -109.999E+06    -224.022E+06    -64.1361E+06     2.36521E+06         36.4883
             508     3.59936E-03     50.4478E-03     191.688E-03     147.825E-03    -783.463E-03     157.606E-03    -766.515E-03     164.959E-03     58.8779E-03     211.222E-03    -105.409E-03    -105.845E-03    -105.377E-03     211.190E-03    -105.845E-03     6.38165E-03    -86.7624E+06    -120.058E+06    -259.458E+06    -120.071E+06    -259.444E+06    -86.7624E+06     1.21475E+06         36.4509
             509     2.69943E-03     50.4409E-03     229.004E-03     154.211E-03    -827.810E-03     172.528E-03    -782.021E-03     164.898E-03    -112.700E-03     211.524E-03    -105.606E-03    -105.932E-03    -105.644E-03     211.505E-03    -105.876E-03     4.77301E-03    -107.372E+06    -128.391E+06    -289.104E+06    -128.404E+06    -289.091E+06    -107.372E+06     1.25531E+06         36.4365
             510     1.79932E-03     50.4374E-03     272.746E-03     159.240E-03    -877.343E-03     177.674E-03    -782.271E-03     159.240E-03     91.4033E-03     211.588E-03    -105.670E-03    -105.938E-03    -105.749E-03     211.579E-03    -105.851E-03     3.19071E-03    -123.429E+06    -133.484E+06    -304.143E+06    -133.495E+06    -304.131E+06    -123.429E+06     1.23375E+06         36.4340
             511     900.207E-06     50.4354E-03         1.01997    -59.2722E-03        -1.41040    -642.328E-03    -759.228E-03     951.860E-03    -390.812E-03     211.593E-03    -105.713E-03    -105.886E-03    -105.747E-03     211.589E-03    -105.848E-03     1.79183E-03    -134.085E+06    -137.568E+06    -325.203E+06    -136.961E+06    -325.192E+06    -134.703E+06     50.6501E+03         36.4276
             512     15.3061E-03     49.5269E-03     297.078E-03     230.629E-03    -981.072E-03     296.841E-03    -980.835E-03     230.629E-03    -8.60290E-03     210.348E-03    -104.602E-03    -105.737E-03    -103.768E-03     209.514E-03    -105.737E-03     31.7538E-03     143.596E+06     131.096E+06    -8.32362E+06    -8.29261E+06     143.565E+06     131.096E+06    -1.19950E+06         48.5072
             513     14.4054E-03     49.4815E-03     284.354E-03     227.850E-03    -966.424E-03     284.091E-03    -966.161E-03     227.850E-03    -12.8165E-03     210.613E-03    -104.968E-03    -105.652E-03    -104.035E-03     209.680E-03    -105.652E-03     34.0247E-03     132.207E+06     106.182E+06    -16.4064E+06    -16.3417E+06     132.142E+06     106.182E+06    -50.3389E+03         45.8986
             514     13.5044E-03     49.4456E-03     283.799E-03     225.075E-03    -963.504E-03     283.572E-03    -963.277E-03     225.075E-03    -18.6641E-03     210.283E-03    -104.701E-03    -105.595E-03    -104.014E-03     209.596E-03    -105.595E-03     29.3915E-03     123.248E+06     88.7727E+06    -25.7074E+06    -25.6519E+06     123.192E+06     88.7727E+06     1.62616E+06         43.0323
             515     12.6029E-03     49.4111E-03     281.446E-03     221.885E-03    -958.107E-03     281.429E-03    -958.090E-03     221.885E-03     312.023E-06     210.312E-03    -104.693E-03    -105.601E-03    -104.096E-03     209.714E-03    -105.601E-03     27.3702E-03     92.0689E+06     66.2872E+06    -33.1859E+06    -33.1249E+06     86.1496E+06     72.1455E+06     1.28195E+06         40.5634
             516     11.7019E-03     49.3790E-03     269.152E-03     218.671E-03    -941.407E-03     269.073E-03    -941.328E-03     218.671E-03     8.36640E-03     210.583E-03    -104.798E-03    -105.705E-03    -104.310E-03     210.095E-03    -105.705E-03     24.7757E-03     58.7644E+06     12.6955E+06    -38.1137E+06    -37.9822E+06     12.5640E+06     58.7644E+06    -402.337E+03         38.7680
             517     10.8010E-03     49.3513E-03     258.178E-03     215.731E-03    -925.980E-03     258.105E-03    -925.908E-03     215.731E-03     12.8273E-03     210.906E-03    -105.026E-03    -105.778E-03    -104.624E-03     210.504E-03    -105.778E-03     22.5037E-03     50.6565E+06    -29.1452E+06    -44.1111E+06    -43.8117E+06    -29.4446E+06     50.6565E+06    -1.21315E+06         37.6879
             518     9.90034E-03     49.3261E-03     252.419E-03     212.861E-03    -918.748E-03     252.062E-03    -918.392E-03     212.861E-03     28.8789E-03     211.211E-03    -105.296E-03    -105.811E-03    -104.968E-03     210.883E-03    -105.811E-03     20.3370E-03     41.5065E+06    -41.8564E+06    -60.4387E+06    -49.9719E+06    -52.3232E+06     41.5065E+06     817.001E+03         37.1912
             519     9.00061E-03     49.3025E-03     240.219E-03     210.225E-03    -905.917E-03     239.830E-03    -905.528E-03     210.225E-03     36.8559E-03     211.110E-03    -105.256E-03    -105.864E-03    -104.991E-03     210.845E-03    -105.864E-03     18.2788E-03     26.8623E+06    -57.2860E+06    -87.0321E+06    -57.6548E+06    -86.6633E+06     26.8623E+06     2.43764E+06         36.9575
             520     8.10026E-03     49.2817E-03     226.243E-03     208.352E-03    -890.182E-03     226.067E-03    -890.007E-03     208.352E-03    -8.54361E-03     210.920E-03    -105.159E-03    -105.884E-03    -104.951E-03     210.712E-03    -105.884E-03     16.1694E-03     9.91423E+06    -68.8572E+06    -115.625E+06    -69.1717E+06    -115.310E+06     9.91423E+06     968.166E+03         36.8100
             521     7.19979E-03     49.2642E-03     225.016E-03     206.806E-03    -885.637E-03     224.634E-03    -885.255E-03     206.806E-03     6.39852E-03     211.160E-03    -105.304E-03    -105.903E-03    -105.142E-03     210.997E-03    -105.903E-03     14.3089E-03    -7.14872E+06    -81.7000E+06    -149.491E+06    -81.8443E+06    -149.347E+06    -7.14872E+06     944.943E+03         36.6998
             522     6.29920E-03     49.2472E-03     225.254E-03     204.819E-03    -882.816E-03     223.980E-03    -881.543E-03     204.819E-03    -24.5247E-03     211.399E-03    -105.448E-03    -105.899E-03    -105.321E-03     211.272E-03    -105.899E-03     12.6437E-03    -22.5318E+06    -92.1601E+06    -178.790E+06    -92.2711E+06    -178.679E+06    -22.5318E+06     2.88443E+06         36.5997
             523     5.39932E-03     49.2332E-03     218.456E-03     202.827E-03    -874.277E-03     215.251E-03    -871.091E-03     202.846E-03     19.4798E-03     211.330E-03    -105.438E-03    -105.859E-03    -105.347E-03     211.239E-03    -105.859E-03     10.6249E-03    -39.7937E+06    -100.553E+06    -197.490E+06    -100.699E+06    -197.344E+06    -39.7937E+06     3.58442E+06         36.5312
             524     4.49992E-03     49.2224E-03     209.182E-03     194.711E-03    -855.946E-03     195.731E-03    -850.673E-03     202.888E-03    -10.2064E-03     211.101E-03    -105.316E-03    -105.820E-03    -105.257E-03     211.042E-03    -105.820E-03     8.57498E-03    -63.3143E+06    -109.446E+06    -221.688E+06    -109.543E+06    -221.591E+06    -63.3143E+06     3.12057E+06         36.4842
             525     3.59937E-03     49.2137E-03     213.097E-03     188.873E-03    -852.804E-03     177.035E-03    -835.588E-03     207.719E-03     93.6140E-03     211.150E-03    -105.291E-03    -105.875E-03    -105.254E-03     211.113E-03    -105.875E-03     6.70809E-03    -86.4319E+06    -118.065E+06    -257.984E+06    -118.109E+06    -257.941E+06    -86.4319E+06     2.36223E+06         36.4479
             526     2.69908E-03     49.2074E-03     262.681E-03     201.974E-03    -913.942E-03     207.104E-03    -869.052E-03     212.661E-03    -100.777E-03     211.426E-03    -105.450E-03    -105.991E-03    -105.430E-03     211.406E-03    -105.991E-03     4.93924E-03    -104.633E+06    -125.930E+06    -287.807E+06    -125.947E+06    -287.789E+06    -104.633E+06     1.42646E+06         36.4378
             527     1.79914E-03     49.2029E-03     342.179E-03     203.519E-03    -996.798E-03     244.243E-03    -898.862E-03     203.519E-03     140.388E-03     211.825E-03    -105.756E-03    -106.092E-03    -105.778E-03     211.816E-03    -106.060E-03     3.27200E-03    -121.096E+06    -132.853E+06    -303.402E+06    -132.859E+06    -303.395E+06    -121.096E+06     248.906E+03         36.4408
             528     899.267E-06     49.2002E-03         1.15435    -48.7543E-03        -1.55864    -673.106E-03    -840.275E-03         1.06033    -390.403E-03     212.076E-03    -105.880E-03    -106.198E-03    -105.909E-03     212.072E-03    -106.167E-03     1.83997E-03    -134.903E+06    -138.665E+06    -324.342E+06    -138.708E+06    -324.298E+06    -134.903E+06     577.250E+03         36.4392
             529     15.3065E-03     48.2923E-03     313.955E-03     259.382E-03        -1.03561     313.647E-03        -1.03530     259.382E-03     18.4510E-03     210.339E-03    -104.612E-03    -105.738E-03    -103.792E-03     209.519E-03    -105.738E-03     31.5229E-03     142.959E+06     127.990E+06    -9.69958E+06    -9.67071E+06     142.930E+06     127.990E+06    -449.991E+03         48.4959
             530     14.4051E-03     48.2472E-03     304.387E-03     257.230E-03        -1.02468     303.974E-03        -1.02427     257.230E-03     18.3715E-03     210.647E-03    -105.004E-03    -105.655E-03    -104.080E-03     209.723E-03    -105.655E-03     33.9035E-03     130.529E+06     104.108E+06    -18.3905E+06    -18.3281E+06     130.467E+06     104.108E+06    -241.192E+03         45.8892
             531     13.5042E-03     48.2113E-03     283.454E-03     255.675E-03        -1.00354     283.155E-03        -1.00333     255.765E-03     5.99854E-03     210.448E-03    -104.854E-03    -105.598E-03    -104.156E-03     209.750E-03    -105.598E-03     29.6361E-03     123.815E+06     89.9017E+06    -24.4220E+06    -24.3808E+06     123.774E+06     89.9017E+06     1.05008E+06         43.0248
             532     12.6036E-03     48.1765E-03     284.341E-03     254.570E-03        -1.00070     284.159E-03        -1.00060     254.659E-03     9.12292E-03     210.456E-03    -104.846E-03    -105.590E-03    -104.244E-03     209.855E-03    -105.590E-03     27.4635E-03     94.2720E+06     67.9987E+06    -29.9374E+06    -29.9187E+06     88.5698E+06     73.6822E+06    -568.299E+03         40.5577
             533     11.7022E-03     48.1458E-03     299.353E-03     252.657E-03        -1.00997     299.085E-03        -1.00970     252.657E-03     21.2978E-03     210.564E-03    -104.804E-03    -105.682E-03    -104.329E-03     210.089E-03    -105.682E-03     24.4320E-03     58.4928E+06     13.9425E+06    -37.4514E+06    -37.3532E+06     13.8442E+06     58.4928E+06    -1.63465E+06         38.7637
             534     10.8009E-03     48.1173E-03     292.403E-03     249.914E-03        -1.00012     292.040E-03    -999.752E-03     249.914E-03     14.6787E-03     210.795E-03    -104.936E-03    -105.748E-03    -104.544E-03     210.404E-03    -105.748E-03     22.2126E-03     48.3541E+06    -30.0507E+06    -46.2761E+06    -46.0173E+06    -30.3095E+06     48.3541E+06    -1.44741E+06         37.6844
             535     9.90098E-03     48.0907E-03     273.618E-03     247.756E-03    -981.479E-03     273.304E-03    -981.165E-03     247.756E-03     8.66503E-03     211.076E-03    -105.183E-03    -105.788E-03    -104.858E-03     210.751E-03    -105.788E-03     20.2112E-03     37.4689E+06    -46.9751E+06    -64.4019E+06    -55.2486E+06    -56.1285E+06     37.4689E+06    -539.054E+03         37.1879
             536     9.00061E-03     48.0686E-03     261.011E-03     246.593E-03    -969.549E-03     260.769E-03    -969.306E-03     246.593E-03     27.2234E-03     211.035E-03    -105.196E-03    -105.854E-03    -104.933E-03     210.772E-03    -105.854E-03     18.2090E-03     24.4254E+06    -62.5413E+06    -87.7027E+06    -62.7906E+06    -87.4535E+06     24.4254E+06     1.09679E+06         36.9550
             537     8.09962E-03     48.0477E-03     258.688E-03     245.824E-03    -965.493E-03     258.495E-03    -965.299E-03     245.824E-03    -11.3167E-03     211.007E-03    -105.210E-03    -105.906E-03    -104.997E-03     210.794E-03    -105.906E-03     16.3918E-03     12.4129E+06    -68.6318E+06    -115.529E+06    -68.9917E+06    -115.169E+06     12.4129E+06     3.03957E+06         36.8099
             538     7.19985E-03     48.0293E-03     260.180E-03     243.873E-03    -964.965E-03     258.834E-03    -964.564E-03     244.819E-03     4.58784E-03     211.316E-03    -105.422E-03    -105.919E-03    -105.254E-03     211.149E-03    -105.919E-03     14.5400E-03    -2.96548E+06    -78.0071E+06    -150.328E+06    -78.2447E+06    -150.090E+06    -2.96548E+06     3.84044E+06         36.6992
             539     6.30017E-03     48.0131E-03     254.794E-03     237.489E-03    -954.829E-03     246.752E-03    -953.587E-03     244.290E-03    -24.4281E-03     211.272E-03    -105.327E-03    -105.879E-03    -105.200E-03     211.146E-03    -105.879E-03     12.6125E-03    -20.9807E+06    -89.4782E+06    -177.853E+06    -89.5947E+06    -177.737E+06    -20.9807E+06     2.81464E+06         36.5953
             540     5.39948E-03     47.9992E-03     248.486E-03     235.833E-03    -947.197E-03     237.141E-03    -945.293E-03     245.275E-03    -5.43030E-03     211.042E-03    -105.140E-03    -105.875E-03    -105.051E-03     210.953E-03    -105.875E-03     10.5493E-03    -40.5914E+06    -99.3192E+06    -197.038E+06    -99.3664E+06    -196.991E+06    -40.5914E+06     1.57408E+06         36.5270
             541     4.49870E-03     47.9883E-03     259.337E-03     240.548E-03    -962.910E-03     251.116E-03    -959.987E-03     245.846E-03    -27.9292E-03     211.110E-03    -105.236E-03    -105.925E-03    -105.175E-03     211.049E-03    -105.925E-03     8.75900E-03    -60.3503E+06    -107.352E+06    -221.034E+06    -107.413E+06    -220.973E+06    -60.3503E+06     2.04888E+06         36.4850
             542     3.59893E-03     47.9796E-03     286.404E-03     240.314E-03    -985.717E-03     270.792E-03    -971.818E-03     242.027E-03     98.9446E-03     211.379E-03    -105.401E-03    -106.002E-03    -105.363E-03     211.341E-03    -106.002E-03     6.84750E-03    -80.7059E+06    -115.883E+06    -256.824E+06    -115.944E+06    -256.762E+06    -80.7059E+06     2.90936E+06         36.4536
             543     2.69886E-03     47.9735E-03     290.728E-03     236.064E-03    -983.496E-03     251.230E-03    -943.998E-03     236.064E-03    -87.3197E-03     211.638E-03    -105.591E-03    -106.063E-03    -105.571E-03     211.618E-03    -106.063E-03     5.01251E-03    -102.626E+06    -124.105E+06    -285.329E+06    -124.132E+06    -285.301E+06    -102.626E+06     1.55497E+06         36.4467
             544     1.79890E-03     47.9679E-03     317.254E-03     242.293E-03        -1.01579     207.595E-03    -906.129E-03     242.293E-03     195.137E-03     211.890E-03    -105.777E-03    -106.143E-03    -105.767E-03     211.880E-03    -106.143E-03     3.33191E-03    -118.426E+06    -130.053E+06    -303.116E+06    -130.060E+06    -303.110E+06    -118.426E+06     61.7481E+03         36.4526
             545     899.422E-06     47.9654E-03         1.29197    -79.7412E-03        -1.66587    -738.775E-03    -955.655E-03         1.24078    -418.120E-03     212.283E-03    -105.864E-03    -106.428E-03    -106.101E-03     212.280E-03    -106.188E-03     1.60734E-03    -129.294E+06    -135.051E+06    -322.623E+06    -134.150E+06    -322.587E+06    -130.232E+06     1.11629E+06         36.4512
             546     15.3066E-03     47.0584E-03     329.927E-03     288.364E-03        -1.08817     329.512E-03        -1.08776     288.364E-03     7.64678E-03     210.338E-03    -104.606E-03    -105.732E-03    -103.774E-03     209.506E-03    -105.732E-03     31.7868E-03     142.608E+06     127.465E+06    -9.08010E+06    -9.01813E+06     142.546E+06     127.465E+06     2.03854E+06         48.4831
             547     14.4052E-03     47.0132E-03     317.040E-03     287.190E-03        -1.07585     316.745E-03        -1.07556     287.190E-03     28.9976E-03     210.621E-03    -104.982E-03    -105.653E-03    -104.060E-03     209.699E-03    -105.653E-03     33.8505E-03     131.667E+06     103.366E+06    -18.4170E+06    -18.3366E+06     131.587E+06     103.366E+06      48.836E+03         45.8783
             548     13.5040E-03     46.9770E-03     298.313E-03     286.769E-03        -1.05534     298.126E-03        -1.05524     286.858E-03     14.7249E-03     210.417E-03    -104.823E-03    -105.591E-03    -104.132E-03     209.725E-03    -105.591E-03     29.4967E-03     125.186E+06     88.5777E+06    -25.0854E+06    -25.0348E+06     125.136E+06     88.5777E+06    -2.22259E+06         43.0156
             549     12.6028E-03     46.9422E-03     300.380E-03     286.809E-03        -1.05233     300.048E-03        -1.05208     286.899E-03    -6.49826E-03     210.529E-03    -104.922E-03    -105.577E-03    -104.325E-03     209.931E-03    -105.577E-03     27.3804E-03     93.0820E+06     65.5055E+06    -31.4411E+06    -31.4111E+06     87.5110E+06     71.0466E+06    -1.28998E+06         40.5502
             550     11.7024E-03     46.9116E-03     309.077E-03     286.414E-03        -1.06114     308.255E-03        -1.06032     286.414E-03     25.3569E-03     210.874E-03    -105.136E-03    -105.656E-03    -104.655E-03     210.393E-03    -105.656E-03     24.6052E-03     56.8495E+06     13.7276E+06    -39.3842E+06    -39.3314E+06     13.6748E+06     56.8495E+06    -810.738E+03         38.7578
             551     10.8024E-03     46.8835E-03     304.798E-03     283.891E-03        -1.05468     302.186E-03        -1.05385     285.678E-03     39.9706E-03     210.819E-03    -105.012E-03    -105.700E-03    -104.614E-03     210.421E-03    -105.700E-03     22.3688E-03     46.9628E+06    -30.4711E+06    -47.1367E+06    -47.0265E+06    -30.5813E+06     46.9628E+06    -666.244E+03         37.6788
             552     9.90084E-03     46.8572E-03     293.376E-03     281.647E-03        -1.04236     289.159E-03        -1.04210     285.609E-03     12.0429E-03     210.689E-03    -104.833E-03    -105.762E-03    -104.507E-03     210.363E-03    -105.762E-03     20.2504E-03     37.4007E+06    -47.1439E+06    -65.3521E+06    -54.2781E+06    -58.2179E+06     37.4007E+06    -344.091E+03         37.1804
             553     9.00012E-03     46.8340E-03     296.600E-03     283.583E-03        -1.04723     294.297E-03        -1.04710     285.758E-03     14.8920E-03     210.901E-03    -105.076E-03    -105.850E-03    -104.814E-03     210.638E-03    -105.850E-03     18.1724E-03     24.2018E+06    -63.1215E+06    -89.3035E+06    -63.1945E+06    -89.2304E+06     24.2018E+06     167.888E+03         36.9467
             554     8.10036E-03     46.8139E-03     303.418E-03     284.994E-03        -1.05475     303.173E-03        -1.05450     284.994E-03    -21.9180E-03     211.068E-03    -105.279E-03    -105.900E-03    -105.068E-03     210.856E-03    -105.900E-03     16.3450E-03     9.74346E+06    -72.7327E+06    -117.686E+06    -72.9106E+06    -117.508E+06     9.74346E+06     1.27402E+06         36.8045
             555     7.19965E-03     46.7946E-03     293.794E-03     283.140E-03        -1.04421     292.121E-03        -1.04349     284.087E-03     12.9181E-03     211.177E-03    -105.277E-03    -105.917E-03    -105.108E-03     211.008E-03    -105.917E-03     14.5743E-03    -3.68089E+06    -79.9568E+06    -150.607E+06    -80.1531E+06    -150.411E+06    -3.68089E+06     2.47397E+06         36.6968
             556     6.29935E-03     46.7785E-03     284.728E-03     276.996E-03        -1.02963     276.033E-03        -1.02866     284.728E-03     5.60104E-03     211.150E-03    -105.190E-03    -105.896E-03    -105.063E-03     211.023E-03    -105.896E-03     12.6531E-03    -18.2370E+06    -86.5323E+06    -174.504E+06    -86.6299E+06    -174.406E+06    -18.2370E+06     2.21028E+06         36.5950
             557     5.39925E-03     46.7657E-03     287.265E-03     276.383E-03        -1.03258     275.181E-03        -1.03085     286.736E-03     23.6417E-03     211.094E-03    -105.152E-03    -105.935E-03    -105.060E-03     211.002E-03    -105.935E-03     10.7628E-03    -36.7251E+06    -95.9521E+06    -196.667E+06    -96.0094E+06    -196.610E+06    -36.7251E+06     1.57759E+06         36.5303
             558     4.49891E-03     46.7540E-03     302.813E-03     283.684E-03        -1.05695     295.135E-03        -1.05284     287.252E-03    -34.2332E-03     211.192E-03    -105.261E-03    -105.995E-03    -105.202E-03     211.132E-03    -105.995E-03     8.56462E-03    -57.7127E+06    -107.254E+06    -222.152E+06    -107.319E+06    -222.086E+06    -57.7127E+06     1.97078E+06         36.4905
             559     3.59849E-03     46.7449E-03     324.699E-03     283.110E-03        -1.07778     312.332E-03        -1.06541     283.110E-03     74.7059E-03     211.527E-03    -105.510E-03    -106.043E-03    -105.476E-03     211.493E-03    -106.043E-03     6.47006E-03    -79.3356E+06    -117.262E+06    -254.965E+06    -117.298E+06    -254.930E+06    -79.3356E+06     1.77804E+06         36.4593
             560     2.69892E-03     46.7384E-03     325.997E-03     278.215E-03        -1.07322     287.467E-03        -1.03469     278.215E-03    -114.119E-03     211.780E-03    -105.725E-03    -106.067E-03    -105.706E-03     211.761E-03    -106.067E-03     4.81755E-03    -101.473E+06    -124.956E+06    -283.012E+06    -124.982E+06    -282.986E+06    -101.473E+06     1.27799E+06         36.4533
             561     1.79924E-03     46.7335E-03     355.456E-03     282.680E-03        -1.10397     259.733E-03        -1.00825     282.680E-03     147.313E-03     211.877E-03    -105.815E-03    -106.095E-03    -105.805E-03     211.867E-03    -106.095E-03     3.43805E-03    -120.389E+06    -131.747E+06    -302.370E+06    -131.763E+06    -302.354E+06    -120.389E+06     555.561E+03         36.4579
             562     899.264E-06     46.7298E-03         1.38320    -64.0120E-03        -1.78470    -755.125E-03        -1.04203         1.33165    -517.361E-03     212.153E-03    -105.876E-03    -106.280E-03    -106.140E-03     212.149E-03    -106.013E-03     2.11299E-03    -130.850E+06    -136.916E+06    -322.539E+06    -136.005E+06    -322.512E+06    -131.788E+06    -1.13083E+06         36.4517
             563     15.3062E-03     45.8245E-03     335.738E-03     308.108E-03        -1.12020     324.852E-03        -1.12001     318.797E-03    -9.07055E-03     210.427E-03    -104.661E-03    -105.741E-03    -103.830E-03     209.596E-03    -105.741E-03     31.7694E-03     142.727E+06     130.355E+06    -7.59430E+06    -7.53290E+06     142.383E+06     130.637E+06     2.22856E+06         48.4687
             564     14.4052E-03     45.7785E-03     333.426E-03     314.431E-03        -1.12378     328.443E-03        -1.12374     319.374E-03     10.5410E-03     210.678E-03    -105.024E-03    -105.652E-03    -104.102E-03     209.756E-03    -105.652E-03     33.8509E-03     134.737E+06     105.932E+06    -15.4880E+06    -15.3738E+06     134.623E+06     105.932E+06     2.05439E+06         45.8663
             565     13.5044E-03     45.7426E-03     334.059E-03     319.648E-03        -1.12869     333.969E-03        -1.12860     319.648E-03     11.3111E-03     210.387E-03    -104.811E-03    -105.571E-03    -104.124E-03     209.700E-03    -105.571E-03     29.3992E-03     126.310E+06     86.3895E+06    -25.3793E+06    -25.2943E+06     126.225E+06     86.3895E+06    -1.23507E+06         43.0056
             566     12.6034E-03     45.7078E-03     331.381E-03     316.116E-03        -1.12068     327.303E-03        -1.12032     319.834E-03    -16.0377E-03     210.525E-03    -104.930E-03    -105.562E-03    -104.334E-03     209.930E-03    -105.562E-03     27.3435E-03     91.5373E+06     62.9811E+06    -34.1675E+06    -34.1177E+06     85.7721E+06     68.6965E+06    -2.10098E+06         40.5420
             567     11.7023E-03     45.6771E-03     324.651E-03     309.969E-03        -1.11080     313.082E-03        -1.10999     320.732E-03     8.50792E-03     210.902E-03    -105.172E-03    -105.641E-03    -104.693E-03     210.423E-03    -105.641E-03     24.5458E-03      56.339E+06     13.1522E+06    -40.7048E+06    -40.6240E+06     13.0714E+06      56.339E+06    -1.22343E+06         38.7515
             568     10.8016E-03     45.6486E-03     323.501E-03     312.928E-03        -1.11408     313.579E-03        -1.11344     322.207E-03     37.6872E-03     210.848E-03    -105.056E-03    -105.687E-03    -104.660E-03     210.452E-03    -105.687E-03     22.3118E-03     47.2959E+06    -30.6036E+06    -47.6749E+06    -47.5626E+06    -30.7159E+06     47.2959E+06    -925.508E+03         37.6741
             569     9.90168E-03     45.6242E-03     324.290E-03     319.108E-03        -1.12058     319.566E-03        -1.12026     323.517E-03     25.9986E-03     210.714E-03    -104.864E-03    -105.747E-03    -104.533E-03     210.382E-03    -105.747E-03     20.4301E-03     36.9214E+06    -49.0754E+06    -66.3743E+06    -56.1242E+06    -59.3255E+06     36.9214E+06    -61.1088E+03         37.1751
             570     9.00051E-03     45.5994E-03     330.311E-03     317.644E-03        -1.12262     323.261E-03        -1.12239     324.468E-03     21.6647E-03     210.769E-03    -104.943E-03    -105.837E-03    -104.673E-03     210.500E-03    -105.837E-03     18.4054E-03     23.2678E+06    -64.8566E+06    -90.7527E+06    -64.9245E+06    -90.6848E+06     23.2678E+06     890.680E+03         36.9380
             571     8.09979E-03     45.5791E-03     335.066E-03     320.238E-03        -1.12771     330.229E-03        -1.12752     324.887E-03    -21.8422E-03     210.893E-03    -105.149E-03    -105.877E-03    -104.934E-03     210.677E-03    -105.877E-03     16.4765E-03     8.02738E+06    -73.3247E+06    -116.953E+06    -73.3862E+06    -116.891E+06     8.02738E+06     324.064E+03         36.7956
             572     7.20022E-03     45.5606E-03     336.065E-03     324.518E-03        -1.13396     335.263E-03        -1.13316     324.520E-03     23.3887E-03     210.985E-03    -105.118E-03    -105.905E-03    -104.948E-03     210.815E-03    -105.905E-03     14.6269E-03    -5.94074E+06    -81.6509E+06    -150.818E+06    -81.7050E+06    -150.764E+06    -5.94074E+06    -1.01544E+06         36.6935
             573     6.29930E-03     45.5449E-03     340.017E-03     322.368E-03        -1.13698     338.217E-03        -1.13611     323.299E-03     16.8369E-03     211.121E-03    -105.110E-03    -105.932E-03    -104.984E-03     210.995E-03    -105.932E-03     12.5831E-03    -18.5975E+06    -90.1126E+06    -175.872E+06     -90.173E+06    -175.812E+06    -18.5975E+06    -40.1983E+03         36.5976
             574     5.39865E-03     45.5310E-03     334.150E-03     320.926E-03        -1.13031     331.229E-03        -1.12832     321.856E-03     44.5800E-03     211.329E-03    -105.359E-03    -105.965E-03    -105.271E-03     211.241E-03    -105.965E-03     10.5218E-03    -35.6700E+06    -99.4042E+06    -196.597E+06    -99.4623E+06    -196.539E+06    -35.6700E+06     1.86597E+06         36.5358
             575     4.49889E-03     45.5199E-03     326.098E-03     312.927E-03        -1.11783     310.948E-03        -1.11230     322.545E-03    -33.0932E-03     211.314E-03    -105.426E-03    -105.961E-03    -105.369E-03     211.256E-03    -105.961E-03     8.44328E-03    -58.5376E+06    -108.793E+06    -221.893E+06    -108.842E+06    -221.845E+06    -58.5376E+06     1.65568E+06         36.4941
             576     3.59917E-03     45.5105E-03     329.976E-03     316.363E-03        -1.12467     300.059E-03        -1.10577     327.386E-03     103.514E-03     211.481E-03    -105.518E-03    -105.987E-03    -105.483E-03     211.446E-03    -105.987E-03     6.58038E-03    -80.9314E+06    -117.820E+06    -252.954E+06    -117.833E+06    -252.941E+06    -80.9314E+06     972.990E+03         36.4592
             577     2.69905E-03     45.5037E-03     350.497E-03     333.783E-03        -1.16047     310.309E-03        -1.12168     335.189E-03    -58.4208E-03     211.796E-03    -105.747E-03    -106.056E-03    -105.775E-03     211.777E-03    -106.010E-03     4.73270E-03    -100.102E+06    -126.752E+06    -282.391E+06    -126.777E+06    -282.366E+06    -100.102E+06     694.811E+03         36.4514
             578     1.79911E-03     45.4991E-03     416.318E-03     336.874E-03        -1.23101     347.541E-03        -1.16223     336.874E-03     119.688E-03     211.835E-03    -105.797E-03    -106.069E-03    -105.953E-03     211.826E-03    -105.905E-03     3.13595E-03    -121.911E+06    -133.855E+06    -300.253E+06    -133.893E+06    -300.214E+06    -121.911E+06     806.384E+03         36.4492
             579     899.801E-06     45.4952E-03         1.44740    -65.5304E-03        -1.85627    -713.720E-03        -1.14290         1.38221    -533.916E-03     211.579E-03    -105.688E-03    -105.898E-03    -105.830E-03     211.575E-03    -105.753E-03     1.48954E-03    -135.693E+06    -139.951E+06    -323.784E+06    -138.311E+06    -323.730E+06    -137.388E+06    -1.19776E+06         36.4340
             580     15.3070E-03     44.5897E-03     349.623E-03     317.955E-03        -1.14957     317.897E-03        -1.14951     349.623E-03     3.35460E-03     210.552E-03    -104.786E-03    -105.736E-03    -103.953E-03     209.719E-03    -105.736E-03     31.8009E-03     140.904E+06     129.595E+06    -7.50217E+06    -7.49598E+06     140.337E+06     130.157E+06     653.960E+03         48.4525
             581     14.4053E-03     44.5443E-03     357.168E-03     330.154E-03        -1.16717     335.158E-03        -1.16709     352.082E-03     348.881E-06     210.604E-03    -104.940E-03    -105.651E-03    -104.020E-03     209.684E-03    -105.651E-03     33.7824E-03     135.201E+06     108.277E+06    -13.6817E+06    -13.6405E+06     135.160E+06     108.277E+06     1.84081E+06         45.8526
             582     13.5041E-03     44.5082E-03     363.327E-03     344.420E-03        -1.18803     353.992E-03        -1.18789     353.615E-03     1.48292E-03     210.371E-03    -104.787E-03    -105.577E-03    -104.099E-03     209.684E-03    -105.577E-03     29.4051E-03     129.695E+06     90.8698E+06    -21.5014E+06    -21.4178E+06     129.612E+06     90.8698E+06     2.27211E+06         42.9941
             583     12.6031E-03     44.4742E-03     359.449E-03     343.722E-03        -1.18494     347.980E-03        -1.18457     354.822E-03    -18.3325E-03     210.643E-03    -105.049E-03    -105.560E-03    -104.442E-03     210.037E-03    -105.560E-03     27.6025E-03     94.2180E+06     64.8223E+06    -31.3033E+06    -31.2246E+06     87.3926E+06     71.5690E+06    -338.620E+03         40.5329
             584     11.7032E-03     44.4417E-03     356.959E-03     332.565E-03        -1.17395     332.008E-03        -1.17339     356.959E-03    -494.882E-06     210.774E-03    -105.050E-03    -105.635E-03    -104.573E-03     210.297E-03    -105.635E-03     24.4738E-03     57.1855E+06     12.5922E+06    -40.3763E+06    -40.2820E+06     12.4979E+06     57.1855E+06    -1.63303E+06         38.7454
             585     10.8022E-03     44.4152E-03     359.713E-03     337.587E-03        -1.18239     337.139E-03        -1.18194     359.713E-03     6.31030E-03     210.746E-03    -104.951E-03    -105.692E-03    -104.556E-03     210.351E-03    -105.692E-03     22.3029E-03     46.9099E+06    -32.5695E+06    -48.8347E+06    -48.7445E+06    -32.6597E+06     46.9099E+06    -704.382E+03         37.6718
             586     9.90088E-03     44.3889E-03     363.819E-03     355.262E-03        -1.20311     357.073E-03        -1.20276     361.656E-03     1.37068E-03     210.936E-03    -105.082E-03    -105.748E-03    -104.745E-03     210.599E-03    -105.748E-03     20.5971E-03     36.3726E+06    -50.5831E+06    -66.5352E+06    -56.7809E+06    -60.3374E+06     36.3726E+06    -215.969E+03         37.1756
             587     9.00086E-03     44.3669E-03     366.903E-03     357.982E-03        -1.20692     362.048E-03        -1.20671     362.631E-03     19.3712E-03     210.826E-03    -104.994E-03    -105.826E-03    -104.721E-03     210.554E-03    -105.826E-03     18.5110E-03     23.7862E+06    -63.9424E+06    -90.8013E+06    -63.9834E+06    -90.7603E+06     23.7862E+06    -379.773E+03         36.9364
             588     8.10027E-03     44.3439E-03     366.249E-03     356.297E-03        -1.20387     358.890E-03        -1.20379     363.578E-03    -16.4526E-03     210.620E-03    -104.863E-03    -105.877E-03    -104.646E-03     210.403E-03    -105.877E-03     16.5155E-03     10.1762E+06    -71.4936E+06    -115.786E+06    -71.5279E+06    -115.752E+06     10.1762E+06    -824.341E+03         36.7909
             589     7.19911E-03     44.3265E-03     371.220E-03     360.718E-03        -1.21500     367.250E-03        -1.21453     364.224E-03     23.7618E-03     211.005E-03    -105.111E-03    -105.924E-03    -104.945E-03     210.839E-03    -105.924E-03     14.4324E-03    -3.61092E+06    -80.8503E+06    -150.314E+06    -80.9228E+06    -150.241E+06    -3.61092E+06    -1.01274E+06         36.6916
             590     6.29904E-03     44.3106E-03     380.518E-03     358.760E-03        -1.22409     374.474E-03        -1.22308     363.799E-03    -6.81110E-03     211.341E-03    -105.339E-03    -105.931E-03    -105.216E-03     211.218E-03    -105.931E-03     12.4073E-03    -18.8750E+06    -91.9178E+06    -178.968E+06    -92.0051E+06    -178.881E+06    -18.8750E+06    -794.825E+03         36.5995
             591     5.39938E-03     44.2962E-03     374.889E-03     357.720E-03        -1.22001     368.207E-03        -1.21874     363.124E-03    -2.67548E-03     211.247E-03    -105.341E-03    -105.912E-03    -105.255E-03     211.161E-03    -105.912E-03     10.3953E-03    -38.6264E+06    -101.705E+06    -196.488E+06    -101.749E+06    -196.445E+06    -38.6264E+06    -560.236E+03         36.5381
             592     4.49916E-03     44.2850E-03     368.744E-03     353.433E-03        -1.21072     353.035E-03        -1.20587     364.288E-03    -73.3522E-03     211.300E-03    -105.421E-03    -105.945E-03    -105.362E-03     211.241E-03    -105.945E-03     8.57097E-03    -58.9433E+06    -110.361E+06    -222.678E+06    -110.375E+06    -222.663E+06    -58.9433E+06     278.690E+03         36.4961
             593     3.59889E-03     44.2762E-03     372.695E-03     357.861E-03        -1.21707     343.986E-03        -1.19938     368.885E-03     86.2202E-03     211.599E-03    -105.619E-03    -106.000E-03    -105.645E-03     211.563E-03    -105.938E-03     6.69371E-03    -82.4877E+06    -120.320E+06    -252.281E+06    -120.345E+06    -252.255E+06    -82.4877E+06     1.71565E+06         36.4589
             594     2.69926E-03     44.2694E-03     396.612E-03     373.466E-03        -1.25408     359.018E-03        -1.21789     374.872E-03    -73.6737E-03     211.791E-03    -105.737E-03    -106.061E-03    -105.955E-03     211.774E-03    -105.825E-03     4.59632E-03    -106.953E+06    -129.440E+06    -280.575E+06    -129.465E+06    -280.550E+06    -106.953E+06     356.928E+03         36.4451
             595     1.80025E-03     44.2639E-03     443.923E-03     379.438E-03        -1.30142     372.299E-03        -1.22979     379.438E-03     131.743E-03     211.510E-03    -105.594E-03    -105.949E-03    -105.879E-03     211.503E-03    -105.657E-03     2.86087E-03    -123.506E+06    -135.371E+06    -300.648E+06    -135.401E+06    -300.618E+06    -123.506E+06    -254.809E+03         36.4351
             596     900.601E-06     44.2613E-03         1.54120    -127.438E-03        -1.89399    -735.291E-03        -1.24256         1.49762    -461.532E-03     211.004E-03    -105.313E-03    -105.706E-03    -105.609E-03     211.001E-03    -105.408E-03     1.40327E-03    -134.311E+06    -140.221E+06    -323.978E+06    -138.602E+06    -323.902E+06    -136.006E+06     1.24228E+06         36.4134
             597     15.3064E-03     43.3554E-03     379.728E-03     341.826E-03        -1.21114     341.769E-03        -1.21108     379.728E-03     11.2833E-03     210.615E-03    -104.861E-03    -105.733E-03    -104.021E-03     209.775E-03    -105.733E-03     31.9793E-03     140.468E+06     129.574E+06    -7.91430E+06    -7.91230E+06     140.186E+06     129.854E+06    -176.668E+03         48.4336
             598     14.4058E-03     43.3098E-03     383.291E-03     335.913E-03        -1.20852     335.798E-03        -1.20840     383.291E-03    -116.266E-06     210.665E-03    -105.010E-03    -105.656E-03    -104.095E-03     209.750E-03    -105.656E-03     33.6803E-03     132.757E+06     109.161E+06    -15.2391E+06    -15.2333E+06     132.751E+06     109.161E+06    -112.799E+03         45.8366
             599     13.5043E-03     43.2747E-03     387.243E-03     342.493E-03        -1.21924     342.387E-03        -1.21914     387.243E-03    -5.23479E-03     210.331E-03    -104.751E-03    -105.582E-03    -104.067E-03     209.648E-03    -105.582E-03     29.3193E-03     129.165E+06     93.7067E+06    -21.1852E+06    -21.1386E+06     129.119E+06     93.7067E+06     1.53904E+06         42.9809
             600     12.6034E-03     43.2389E-03     390.655E-03     363.726E-03        -1.24609     363.485E-03        -1.24585     390.655E-03    -15.8005E-03     210.423E-03    -104.827E-03    -105.567E-03    -104.225E-03     209.821E-03    -105.567E-03     27.4736E-03     97.6713E+06     68.9789E+06    -27.5937E+06    -27.4742E+06     90.8430E+06     75.6877E+06     2.04364E+06         40.5227
             601     11.7023E-03     43.2083E-03     393.266E-03     374.807E-03        -1.26153     373.950E-03        -1.26068     393.266E-03     22.5757E-03     210.634E-03    -104.896E-03    -105.652E-03    -104.416E-03     210.154E-03    -105.652E-03     24.5638E-03     59.8137E+06     12.8453E+06    -36.7186E+06    -36.6347E+06     12.7613E+06     59.8137E+06     884.811E+03         38.7388
             602     10.8014E-03     43.1807E-03     395.773E-03     373.244E-03        -1.25957     372.451E-03        -1.25878     395.773E-03     28.6480E-03     210.899E-03    -105.074E-03    -105.715E-03    -104.667E-03     210.491E-03    -105.715E-03     22.6608E-03     49.0220E+06    -33.1717E+06    -45.9259E+06    -45.8774E+06    -33.2202E+06     49.0220E+06     163.184E+03         37.6703
             603     9.90146E-03     43.1552E-03     399.729E-03     377.988E-03        -1.26735     378.905E-03        -1.26688     398.339E-03     14.4104E-03     211.076E-03    -105.190E-03    -105.761E-03    -104.849E-03     210.735E-03    -105.761E-03     20.6913E-03     38.3632E+06    -49.0403E+06    -65.8294E+06    -54.7949E+06    -60.0747E+06     38.3632E+06    -628.549E+03         37.1792
             604     9.00082E-03     43.1314E-03     406.059E-03     392.892E-03        -1.28916     398.594E-03        -1.28875     399.951E-03     34.5076E-03     210.942E-03    -105.105E-03    -105.829E-03    -104.835E-03     210.672E-03    -105.829E-03     18.4297E-03     25.2022E+06    -64.2676E+06    -91.0771E+06    -64.3137E+06    -91.0310E+06     25.2022E+06    -780.359E+03         36.9413
             605     8.10019E-03     43.1118E-03     405.324E-03     396.511E-03        -1.29405     401.100E-03        -1.29392     400.606E-03     394.478E-06     210.726E-03    -104.974E-03    -105.857E-03    -104.761E-03     210.513E-03    -105.857E-03     16.3549E-03     9.91149E+06    -74.7812E+06    -116.299E+06    -74.8471E+06    -116.233E+06     9.91149E+06    -89.0553E+03         36.7928
             606     7.19964E-03     43.0919E-03     402.140E-03     386.444E-03        -1.28444     386.121E-03        -1.28411     402.140E-03     26.1273E-03     210.924E-03    -105.059E-03    -105.865E-03    -104.896E-03     210.762E-03    -105.865E-03     14.2840E-03    -7.28920E+06    -84.9165E+06    -149.102E+06    -85.0779E+06    -148.940E+06    -7.28920E+06    -838.728E+03         36.6898
             607     6.29992E-03     43.0756E-03     405.075E-03     385.767E-03        -1.28854     385.104E-03        -1.28787     405.075E-03     2.62697E-03     211.215E-03    -105.262E-03    -105.882E-03    -105.140E-03     211.092E-03    -105.882E-03     12.4221E-03    -22.2850E+06    -93.0483E+06    -179.414E+06    -93.2151E+06    -179.247E+06    -22.2850E+06    -2.58096E+06         36.5973
             608     5.39922E-03     43.0623E-03     408.027E-03     396.881E-03        -1.30330     395.133E-03        -1.30155     408.027E-03     31.1328E-03     211.211E-03    -105.356E-03    -105.884E-03    -105.268E-03     211.123E-03    -105.884E-03     10.4965E-03    -40.5947E+06    -102.869E+06    -199.228E+06    -102.961E+06    -199.137E+06    -40.5947E+06    -1.21002E+06         36.5372
             609     4.49874E-03     43.0508E-03     413.236E-03     403.397E-03        -1.31280     402.502E-03        -1.30893     410.263E-03    -29.4122E-03     211.264E-03    -105.480E-03    -105.888E-03    -105.422E-03     211.206E-03    -105.888E-03     8.46912E-03    -62.9697E+06    -114.928E+06    -223.613E+06    -114.971E+06    -223.570E+06    -62.9697E+06     940.572E+03         36.4943
             610     3.59944E-03     43.0414E-03     425.866E-03     407.778E-03        -1.32832     412.394E-03        -1.31827     411.206E-03     75.9356E-03     211.496E-03    -105.607E-03    -105.925E-03    -105.634E-03     211.461E-03    -105.863E-03     6.61881E-03    -84.7180E+06    -123.629E+06    -251.909E+06    -123.672E+06    -251.866E+06    -84.7180E+06     133.190E+03         36.4534
             611     2.70015E-03     43.0345E-03     452.420E-03     408.576E-03        -1.35699     424.843E-03        -1.32941     408.576E-03    -102.430E-03     211.514E-03    -105.552E-03    -105.963E-03    -105.721E-03     211.493E-03    -105.773E-03     5.05069E-03    -106.869E+06    -129.746E+06    -278.790E+06    -129.785E+06    -278.751E+06    -106.869E+06    -356.754E+03         36.4357
             612     1.80020E-03     43.0300E-03     494.237E-03     401.179E-03        -1.38899     420.438E-03        -1.31519     401.179E-03     175.434E-03     211.307E-03    -105.474E-03    -105.856E-03    -105.592E-03     211.297E-03    -105.728E-03     3.44632E-03    -125.770E+06    -136.467E+06    -301.910E+06    -136.480E+06    -301.896E+06    -125.770E+06    -858.040E+03         36.4278
             613     899.441E-06     43.0287E-03         1.58730    -134.660E-03        -1.94612    -733.830E-03        -1.28605         1.52640    -418.375E-03     211.371E-03    -105.530E-03    -105.848E-03    -105.707E-03     211.367E-03    -105.667E-03     2.25830E-03    -136.562E+06    -140.646E+06    -324.741E+06    -140.717E+06    -324.669E+06    -136.562E+06    -392.243E+03         36.4119
             614     15.3070E-03     42.1211E-03     409.650E-03     361.767E-03        -1.27091     361.617E-03        -1.27076     409.650E-03     3.06079E-03     210.616E-03    -104.875E-03    -105.725E-03    -104.054E-03     209.795E-03    -105.725E-03     31.6220E-03     140.879E+06     130.445E+06    -9.11455E+06    -9.09358E+06     140.858E+06     130.445E+06    -415.209E+03         48.4120
             615     14.4053E-03     42.0757E-03     413.598E-03     363.433E-03        -1.27473     363.348E-03        -1.27464     413.598E-03     13.5248E-03     210.642E-03    -104.998E-03    -105.647E-03    -104.094E-03     209.738E-03    -105.647E-03     33.5058E-03     131.335E+06     108.986E+06    -16.3035E+06    -16.2787E+06     131.311E+06     108.986E+06    -1.69609E+06         45.8175
             616     13.5049E-03     42.0401E-03     418.195E-03     355.022E-03        -1.27527     354.918E-03        -1.27516     418.195E-03     15.5034E-03     210.210E-03    -104.645E-03    -105.573E-03    -103.951E-03     209.517E-03    -105.573E-03     29.5212E-03     125.830E+06     92.4291E+06    -23.3852E+06    -23.3729E+06     125.817E+06     92.4291E+06    -479.260E+03         42.9651
             617     12.6035E-03     42.0048E-03     423.069E-03     368.512E-03        -1.29600     368.378E-03        -1.29587     423.069E-03     5.66070E-03     210.136E-03    -104.531E-03    -105.576E-03    -103.916E-03     209.521E-03    -105.576E-03     27.7373E-03     95.9845E+06     69.4913E+06    -30.3246E+06    -30.2569E+06     90.0953E+06     75.3129E+06     1.61873E+06         40.5106
             618     11.7021E-03     41.9746E-03     426.959E-03     397.467E-03        -1.32772     396.722E-03        -1.32698     426.959E-03     37.1760E-03     210.683E-03    -104.919E-03    -105.674E-03    -104.437E-03     210.201E-03    -105.674E-03     24.5949E-03     61.2325E+06     14.2085E+06    -37.2043E+06    -36.9532E+06     13.9574E+06     61.2325E+06     2.26337E+06         38.7311
             619     10.8017E-03     41.9466E-03     430.841E-03     413.793E-03        -1.34419     414.416E-03        -1.34346     429.491E-03     40.2233E-03     211.028E-03    -105.184E-03    -105.733E-03    -104.786E-03     210.630E-03    -105.733E-03     22.4010E-03     51.0147E+06    -31.5109E+06    -45.5550E+06    -45.2970E+06    -31.7689E+06     51.0147E+06     1.66205E+06         37.6678
             620     9.90102E-03     41.9208E-03     432.980E-03     412.474E-03        -1.34153     413.468E-03        -1.34117     431.630E-03     22.5104E-03     211.041E-03    -105.141E-03    -105.773E-03    -104.805E-03     210.704E-03    -105.773E-03     20.6049E-03     39.2291E+06    -47.9824E+06    -66.6507E+06    -55.3731E+06    -59.2601E+06     39.2291E+06     1.00300E+06         37.1810
             621     9.00056E-03     41.8975E-03     436.703E-03     411.359E-03        -1.34516     413.583E-03        -1.34477     434.094E-03     36.2235E-03     211.067E-03    -105.246E-03    -105.829E-03    -104.977E-03     210.798E-03    -105.829E-03     18.4210E-03     24.5437E+06    -66.0876E+06    -92.0073E+06    -66.1976E+06    -91.8972E+06     24.5437E+06     786.608E+03         36.9458
             622     8.10055E-03     41.8765E-03     439.412E-03     414.345E-03        -1.35389     416.882E-03        -1.35382     436.803E-03     11.3906E-03     210.989E-03    -105.284E-03    -105.840E-03    -105.073E-03     210.778E-03    -105.840E-03     16.3078E-03     9.97818E+06    -75.4870E+06    -116.301E+06    -75.5407E+06    -116.247E+06     9.97818E+06     856.691E+03         36.7974
             623     7.20049E-03     41.8583E-03     440.033E-03     415.145E-03        -1.36068     415.044E-03        -1.36058     440.033E-03     16.4771E-03     210.840E-03    -105.053E-03    -105.805E-03    -104.887E-03     210.675E-03    -105.805E-03     14.4358E-03    -8.42671E+06    -84.6891E+06    -145.292E+06    -84.8272E+06    -145.154E+06    -8.42671E+06    -942.971E+03         36.6897
             624     6.29905E-03     41.8413E-03     443.541E-03     423.719E-03        -1.37493     423.439E-03        -1.37465     443.541E-03    -9.72775E-03     210.978E-03    -105.078E-03    -105.814E-03    -104.955E-03     210.855E-03    -105.814E-03     12.4238E-03    -26.7439E+06    -96.2189E+06    -179.134E+06    -96.3808E+06    -178.972E+06    -26.7439E+06    -2.98866E+06         36.5936
             625     5.39931E-03     41.8276E-03     446.653E-03     433.213E-03        -1.38618     431.640E-03        -1.38461     446.653E-03     40.5238E-03     211.287E-03    -105.458E-03    -105.844E-03    -105.372E-03     211.201E-03    -105.844E-03     10.3899E-03    -42.9349E+06    -106.647E+06    -204.685E+06    -106.749E+06    -204.584E+06    -42.9349E+06    -1.46006E+06         36.5336
             626     4.50008E-03     41.8164E-03     454.286E-03     438.681E-03        -1.39523     440.756E-03        -1.39210     449.079E-03    -17.8534E-03     211.235E-03    -105.551E-03    -105.803E-03    -105.492E-03     211.177E-03    -105.803E-03     8.51331E-03    -62.5793E+06    -114.139E+06    -221.342E+06    -114.233E+06    -221.249E+06    -62.5793E+06    -943.105E+03         36.4871
             627     3.59977E-03     41.8069E-03     474.062E-03     444.947E-03        -1.41891     462.746E-03        -1.41102     448.375E-03     73.9191E-03     211.119E-03    -105.334E-03    -105.826E-03    -105.298E-03     211.083E-03    -105.826E-03     6.70381E-03    -82.6059E+06    -121.581E+06    -252.211E+06    -121.675E+06    -252.117E+06    -82.6059E+06    -2.95610E+06         36.4412
             628     2.69904E-03     41.8001E-03     480.447E-03     442.677E-03        -1.42791     458.199E-03        -1.40746     444.478E-03    -78.7104E-03     211.139E-03    -105.233E-03    -105.898E-03    -105.211E-03     211.118E-03    -105.898E-03     5.10953E-03    -102.659E+06    -130.077E+06    -281.721E+06    -130.124E+06    -281.674E+06    -102.659E+06    -1.67480E+06         36.4261
             629     1.79861E-03     41.7963E-03     499.349E-03     433.901E-03        -1.44462     440.901E-03        -1.39513     442.857E-03     128.980E-03     211.544E-03    -105.579E-03    -105.980E-03    -105.576E-03     211.534E-03    -105.972E-03     3.50276E-03    -125.484E+06    -136.930E+06    -300.639E+06    -136.939E+06    -300.630E+06    -125.484E+06    -151.577E+03         36.4263
             630     899.663E-06     41.7936E-03         1.62691    -151.169E-03        -1.98590    -699.271E-03        -1.39679         1.58591    -493.175E-03     211.984E-03    -105.947E-03    -106.048E-03    -105.970E-03     211.981E-03    -106.022E-03     1.91965E-03    -139.644E+06    -141.835E+06    -326.446E+06    -141.343E+06    -326.421E+06    -140.161E+06    -1.41411E+06         36.4202
             631     15.3072E-03     40.8872E-03     438.317E-03     369.034E-03        -1.32082     368.686E-03        -1.32047     438.317E-03     3.53850E-03     210.572E-03    -104.841E-03    -105.707E-03    -104.021E-03     209.752E-03    -105.707E-03     31.5376E-03     142.242E+06     130.646E+06    -7.27874E+06    -7.25790E+06     142.222E+06     130.646E+06    -352.139E+03         48.3879
             632     14.4063E-03     40.8417E-03     442.826E-03     392.641E-03        -1.34473     392.384E-03        -1.34448     442.826E-03     35.5558E-03     210.435E-03    -104.788E-03    -105.628E-03    -103.865E-03     209.512E-03    -105.628E-03     33.8535E-03     130.035E+06     106.598E+06    -15.9496E+06    -15.9256E+06     130.011E+06     106.598E+06    -1.42167E+06         45.7953
             633     13.5043E-03     40.8057E-03     447.138E-03     391.573E-03        -1.34863     391.473E-03        -1.34853     447.138E-03     16.2866E-03     210.129E-03    -104.553E-03    -105.572E-03    -103.858E-03     209.434E-03    -105.572E-03     29.5332E-03     123.283E+06     90.5995E+06    -24.6490E+06    -24.6376E+06     123.271E+06     90.5995E+06    -392.556E+03         42.9465
             634     12.6027E-03     40.7724E-03     452.260E-03     383.427E-03        -1.34631     383.285E-03        -1.34616     452.260E-03    -10.6449E-03     210.334E-03    -104.728E-03    -105.579E-03    -104.125E-03     209.730E-03    -105.579E-03     27.5120E-03     94.4237E+06     68.0039E+06    -32.7653E+06    -32.7522E+06     88.1893E+06     74.2254E+06      757.03E+03         40.4969
             635     11.7022E-03     40.7393E-03     457.868E-03     395.980E-03        -1.36342     395.597E-03        -1.36303     457.868E-03     14.6718E-03     210.749E-03    -104.989E-03    -105.667E-03    -104.512E-03     210.272E-03    -105.667E-03     24.4930E-03     60.1255E+06     13.7217E+06    -40.7868E+06    -40.5837E+06     13.5186E+06     60.1255E+06     1.70082E+06         38.7223
             636     10.8019E-03     40.7127E-03     463.760E-03     426.919E-03        -1.39871     427.951E-03        -1.39839     462.410E-03     22.1475E-03     210.914E-03    -105.080E-03    -105.727E-03    -104.689E-03     210.523E-03    -105.727E-03     22.2000E-03     49.9874E+06    -30.4691E+06    -48.6370E+06    -48.3093E+06    -30.7968E+06     49.9874E+06     2.18439E+06         37.6639
             637     9.90099E-03     40.6862E-03     466.879E-03     442.797E-03        -1.41640     444.064E-03        -1.41632     465.529E-03     5.58070E-03     211.042E-03    -105.157E-03    -105.774E-03    -104.828E-03     210.714E-03    -105.774E-03     20.3436E-03     39.1318E+06    -47.2177E+06    -67.7790E+06    -56.3019E+06    -58.6947E+06     39.1318E+06     2.00752E+06         37.1802
             638     9.00069E-03     40.6634E-03     468.974E-03     433.566E-03        -1.40949     433.431E-03        -1.40936     468.974E-03    -714.757E-06     211.041E-03    -105.233E-03    -105.824E-03    -104.968E-03     210.777E-03    -105.824E-03     18.2536E-03     25.5841E+06    -64.0067E+06    -90.8297E+06    -64.1112E+06    -90.7252E+06     25.5841E+06     1.14739E+06         36.9463
             639     8.10047E-03     40.6414E-03     473.616E-03     433.643E-03        -1.41613     433.560E-03        -1.41604     473.616E-03    -18.5359E-03     210.927E-03    -105.250E-03    -105.841E-03    -105.036E-03     210.713E-03    -105.841E-03     16.4164E-03     12.0982E+06    -72.2011E+06    -114.407E+06    -72.2508E+06    -114.357E+06     12.0982E+06    -620.172E+03         36.8003
             640     7.19997E-03     40.6240E-03     477.893E-03     454.126E-03        -1.44238     454.098E-03        -1.44235     477.893E-03     878.558E-06     211.077E-03    -105.301E-03    -105.804E-03    -105.133E-03     210.909E-03    -105.804E-03     14.5055E-03    -3.36249E+06    -81.1467E+06    -144.910E+06    -81.1880E+06    -144.869E+06    -3.36249E+06    -415.328E+03         36.6940
             641     6.30059E-03     40.6076E-03     481.266E-03     462.010E-03        -1.45467     461.783E-03        -1.45445     481.266E-03    -19.3540E-03     211.189E-03    -105.312E-03    -105.783E-03    -105.189E-03     211.066E-03    -105.783E-03     12.4275E-03    -21.3550E+06    -91.6180E+06    -177.977E+06    -91.6729E+06    -177.922E+06    -21.3550E+06     361.813E+03         36.5942
             642     5.39989E-03     40.5938E-03     486.635E-03     467.070E-03        -1.46345     468.652E-03        -1.46280     484.408E-03     15.6194E-03     211.159E-03    -105.360E-03    -105.797E-03    -105.270E-03     211.069E-03    -105.797E-03     10.6272E-03    -39.9708E+06    -103.298E+06    -204.835E+06    -103.478E+06    -204.655E+06    -39.9708E+06    -2.48225E+06         36.5297
             643     4.49938E-03     40.5811E-03     501.405E-03     480.399E-03        -1.48764     494.297E-03        -1.48530     485.169E-03    -45.8465E-03     211.003E-03    -105.291E-03    -105.782E-03    -105.231E-03     210.942E-03    -105.782E-03     8.65978E-03    -61.7768E+06    -114.364E+06    -222.182E+06    -114.549E+06    -221.997E+06    -61.7768E+06    -3.55018E+06         36.4806
             644     3.59968E-03     40.5738E-03     508.712E-03     482.149E-03        -1.49666     501.098E-03        -1.48904     482.149E-03     65.1181E-03     210.979E-03    -105.187E-03    -105.809E-03    -105.152E-03     210.944E-03    -105.809E-03     6.58908E-03    -88.8200E+06    -125.621E+06    -252.780E+06    -125.696E+06    -252.705E+06    -88.8200E+06    -2.44605E+06         36.4347
             645     2.69937E-03     40.5671E-03     493.836E-03     476.248E-03        -1.47955     473.419E-03        -1.46416     481.283E-03    -34.7824E-03     211.216E-03    -105.344E-03    -105.863E-03    -105.326E-03     211.197E-03    -105.863E-03     4.77666E-03    -111.825E+06    -134.721E+06    -285.338E+06    -134.768E+06    -285.291E+06    -111.825E+06    -2.39423E+06         36.4225
             646     1.79921E-03     40.5622E-03     501.408E-03     480.082E-03        -1.49862     454.141E-03        -1.46354     492.272E-03     132.095E-03     211.490E-03    -105.548E-03    -105.962E-03    -105.547E-03     211.481E-03    -105.954E-03     3.24104E-03    -128.349E+06    -140.655E+06    -301.976E+06    -140.678E+06    -301.953E+06    -128.349E+06    -977.675E+03         36.4222
             647     899.420E-06     40.5571E-03         1.68150    -214.331E-03        -1.99348    -668.618E-03        -1.53005         1.67236    -445.766E-03     211.934E-03    -105.827E-03    -106.126E-03    -105.919E-03     211.930E-03    -106.030E-03     1.82700E-03    -141.182E+06    -145.446E+06    -327.428E+06    -144.875E+06    -327.424E+06    -141.757E+06     325.322E+03         36.4144
             648     15.3069E-03     39.6529E-03     464.310E-03     374.986E-03        -1.35923     374.740E-03        -1.35898     464.310E-03     8.57943E-03     210.314E-03    -104.580E-03    -105.695E-03    -103.775E-03     209.509E-03    -105.695E-03     31.1313E-03     142.356E+06     129.154E+06    -7.80280E+06    -7.78502E+06     142.338E+06     129.154E+06    -153.209E+03         48.3622
             649     14.4054E-03     39.6078E-03     470.329E-03     388.259E-03        -1.37694     388.031E-03        -1.37671     470.329E-03     28.5208E-03     210.356E-03    -104.713E-03    -105.625E-03    -103.792E-03     209.435E-03    -105.625E-03     33.7859E-03     129.607E+06     105.218E+06    -16.6012E+06    -16.5908E+06     129.597E+06     105.218E+06     401.095E+03         45.7715
             650     13.5042E-03     39.5727E-03     476.005E-03     408.581E-03        -1.40127     408.528E-03        -1.40122     476.005E-03     8.09155E-03     210.364E-03    -104.786E-03    -105.574E-03    -104.097E-03     209.675E-03    -105.574E-03     29.4267E-03     122.638E+06     90.8072E+06    -24.5290E+06    -24.5278E+06     122.636E+06     90.8072E+06    -211.766E+03         42.9268
             651     12.6038E-03     39.5369E-03     481.302E-03     418.681E-03        -1.41703     418.590E-03        -1.41694     481.302E-03    -16.4365E-03     210.557E-03    -104.969E-03    -105.568E-03    -104.376E-03     209.964E-03    -105.568E-03     27.2786E-03     94.3417E+06     66.7975E+06    -31.7682E+06    -31.7525E+06     86.5397E+06     74.5838E+06     518.506E+03         40.4826
             652     11.7030E-03     39.5068E-03     486.801E-03     421.282E-03        -1.42385     421.063E-03        -1.42363     486.801E-03     7.23392E-03     210.675E-03    -104.938E-03    -105.650E-03    -104.463E-03     210.199E-03    -105.650E-03     24.4460E-03     61.0026E+06     12.6887E+06    -39.2879E+06    -39.1485E+06     12.5493E+06     61.0026E+06     1.64312E+06         38.7128
             653     10.8015E-03     39.4780E-03     492.823E-03     424.651E-03        -1.43390     424.500E-03        -1.43375     492.823E-03     23.5910E-03     210.863E-03    -105.056E-03    -105.718E-03    -104.666E-03     210.472E-03    -105.718E-03     22.1767E-03     51.5447E+06    -29.7388E+06    -46.8881E+06    -46.6839E+06    -29.9430E+06     51.5447E+06     1.54659E+06         37.6588
             654     9.90158E-03     39.4527E-03     499.087E-03     437.758E-03        -1.45607     437.621E-03        -1.45594     499.087E-03     20.6694E-03     211.010E-03    -105.154E-03    -105.765E-03    -104.828E-03     210.684E-03    -105.765E-03     20.2707E-03     41.1789E+06    -45.8287E+06    -66.0689E+06    -54.3282E+06    -57.5694E+06     41.1789E+06     1.04657E+06         37.1777
             655     9.00121E-03     39.4285E-03     504.761E-03     459.828E-03        -1.48458     459.628E-03        -1.48438     504.761E-03     13.0513E-03     210.886E-03    -105.064E-03    -105.815E-03    -104.798E-03     210.619E-03    -105.815E-03     18.3106E-03     27.5572E+06    -62.2304E+06    -89.2397E+06    -62.2551E+06    -89.2149E+06     27.5572E+06    -1.97605E+03         36.9442
             656     8.10017E-03     39.4089E-03     509.403E-03     477.109E-03        -1.50316     477.001E-03        -1.50305     509.403E-03    -17.4333E-03     210.846E-03    -105.153E-03    -105.830E-03    -104.942E-03     210.635E-03    -105.830E-03     16.3176E-03     13.2318E+06    -71.6020E+06    -112.968E+06    -71.6429E+06    -112.927E+06     13.2318E+06    -772.355E+03         36.8010
             657     7.20024E-03     39.3886E-03     513.342E-03     487.429E-03        -1.51369     487.380E-03        -1.51364     513.342E-03    -4.40229E-03     211.174E-03    -105.377E-03    -105.813E-03    -105.211E-03     211.008E-03    -105.813E-03     14.4734E-03    -1.55238E+06    -82.3729E+06    -148.620E+06    -82.4166E+06    -148.576E+06    -1.55238E+06     317.802E+03         36.6989
             658     6.29992E-03     39.3732E-03     518.465E-03     495.532E-03        -1.52698     497.148E-03        -1.52694     516.812E-03    -2.63638E-03     211.307E-03    -105.421E-03    -105.779E-03    -105.295E-03     211.181E-03    -105.779E-03     12.5916E-03    -18.8985E+06    -92.8909E+06    -176.341E+06    -92.9249E+06    -176.307E+06    -18.8985E+06     1.32045E+06         36.5973
             659     5.40015E-03     39.3594E-03     523.381E-03     509.410E-03        -1.54680     513.356E-03        -1.54641     519.050E-03     22.6777E-03     210.982E-03    -105.232E-03    -105.757E-03    -105.138E-03     210.888E-03    -105.757E-03     10.8420E-03    -41.8106E+06    -103.619E+06    -199.890E+06    -103.761E+06    -199.748E+06    -41.8106E+06    -1.03304E+06         36.5276
             660     4.50005E-03     39.3481E-03     530.956E-03     512.877E-03        -1.55620     522.847E-03        -1.55469     519.476E-03    -37.2429E-03     210.725E-03    -105.024E-03    -105.782E-03    -104.962E-03     210.664E-03    -105.782E-03     8.68666E-03    -65.6403E+06    -114.913E+06    -225.333E+06    -115.075E+06    -225.170E+06    -65.6403E+06    -2.71633E+06         36.4787
             661     3.59911E-03     39.3392E-03     531.447E-03     511.196E-03        -1.55413     517.115E-03        -1.54832     519.721E-03     66.6201E-03     211.110E-03    -105.283E-03    -105.836E-03    -105.247E-03     211.074E-03    -105.836E-03     6.67020E-03    -89.3302E+06    -124.475E+06    -253.442E+06    -124.522E+06    -253.395E+06    -89.3302E+06    -1.44610E+06         36.4368
             662     2.69950E-03     39.3325E-03     535.944E-03     515.399E-03        -1.56718     518.891E-03        -1.55529     520.558E-03    -37.0770E-03     211.552E-03    -105.684E-03    -105.865E-03    -105.719E-03     211.531E-03    -105.809E-03     5.11191E-03    -112.613E+06    -132.809E+06    -286.337E+06    -132.837E+06    -286.310E+06    -112.613E+06    -1.21410E+06         36.4261
             663     1.80012E-03     39.3272E-03     562.026E-03     513.961E-03        -1.59959     532.373E-03        -1.57317     517.194E-03     103.064E-03     211.409E-03    -105.550E-03    -105.887E-03    -105.673E-03     211.400E-03    -105.754E-03     3.32402E-03    -130.246E+06    -140.137E+06    -305.594E+06    -140.166E+06    -305.565E+06    -130.246E+06    -1.47820E+06         36.4208
             664     899.271E-06     39.3245E-03         1.66556    -205.529E-03        -1.98484    -606.226E-03        -1.55177         1.63319    -427.297E-03     211.393E-03    -105.511E-03    -105.893E-03    -105.686E-03     211.389E-03    -105.715E-03     2.06036E-03    -140.944E+06    -144.265E+06    -327.465E+06    -144.219E+06    -327.453E+06    -141.003E+06    -582.869E+03         36.4035
             665     15.3074E-03     38.4198E-03     488.616E-03     372.155E-03        -1.38512     372.129E-03        -1.38510     488.616E-03    -3.05557E-03     210.321E-03    -104.595E-03    -105.699E-03    -103.800E-03     209.526E-03    -105.699E-03     30.9280E-03     141.212E+06     129.107E+06    -9.04709E+06    -9.02042E+06     141.185E+06     129.107E+06     103.269E+03         48.3363
             666     14.4057E-03     38.3747E-03     496.104E-03     390.856E-03        -1.41225     390.824E-03        -1.41221     496.104E-03     11.2333E-03     210.521E-03    -104.901E-03    -105.623E-03    -103.994E-03     209.614E-03    -105.623E-03     33.5543E-03     131.665E+06     107.532E+06    -16.5097E+06    -16.4948E+06     131.651E+06     107.532E+06     1.06263E+06         45.7484
             667     13.5047E-03     38.3377E-03     503.065E-03     416.459E-03        -1.44446     416.428E-03        -1.44443     503.065E-03     10.6763E-03     210.373E-03    -104.807E-03    -105.562E-03    -104.114E-03     209.680E-03    -105.562E-03     29.5145E-03     122.966E+06     91.4617E+06    -24.5533E+06    -24.5488E+06     122.962E+06     91.4617E+06     197.660E+03         42.9077
             668     12.6035E-03     38.3023E-03     509.265E-03     437.037E-03        -1.47329     436.947E-03        -1.47320     509.265E-03    -13.2813E-03     210.482E-03    -104.902E-03    -105.561E-03    -104.299E-03     209.879E-03    -105.561E-03     27.4958E-03     92.8052E+06     66.2918E+06    -33.2756E+06    -33.2661E+06     84.8325E+06     74.2551E+06     279.163E+03         40.4678
             669     11.7026E-03     38.2719E-03     515.112E-03     448.676E-03        -1.49106     448.510E-03        -1.49089     515.112E-03    -5.28616E-03     210.754E-03    -105.037E-03    -105.646E-03    -104.555E-03     210.271E-03    -105.646E-03     24.6505E-03     61.7971E+06     12.8448E+06    -40.1002E+06    -39.9788E+06     12.7234E+06     61.7971E+06     621.237E+03         38.7026
             670     10.8027E-03     38.2437E-03     521.486E-03     445.977E-03        -1.49463     445.873E-03        -1.49453     521.486E-03     9.30707E-03     210.849E-03    -105.063E-03    -105.708E-03    -104.658E-03     210.443E-03    -105.708E-03     22.5911E-03     51.9787E+06    -30.1191E+06    -46.9845E+06    -46.8480E+06    -30.2555E+06     51.9787E+06     874.349E+03         37.6532
             671     9.90176E-03     38.2183E-03     528.809E-03     450.329E-03        -1.50664     450.194E-03        -1.50651     528.809E-03     11.9954E-03     210.868E-03    -105.029E-03    -105.754E-03    -104.697E-03     210.536E-03    -105.754E-03     20.4495E-03     41.4310E+06    -46.4995E+06    -64.8907E+06    -54.6413E+06    -56.7488E+06     41.4310E+06     385.623E+03         37.1758
             672     9.00076E-03     38.1950E-03     535.802E-03     478.182E-03        -1.54121     478.045E-03        -1.54107     535.802E-03     12.6501E-03     210.893E-03    -105.080E-03    -105.808E-03    -104.809E-03     210.623E-03    -105.808E-03     18.4549E-03     27.7407E+06    -64.1958E+06    -88.8653E+06    -64.2584E+06    -88.8027E+06     27.7407E+06     352.261E+03         36.9437
             673     8.10084E-03     38.1735E-03     541.197E-03     504.948E-03        -1.56995     504.885E-03        -1.56989     541.197E-03    -2.33721E-03     210.883E-03    -105.175E-03    -105.815E-03    -104.961E-03     210.668E-03    -105.815E-03     16.4228E-03     12.2312E+06    -74.9074E+06    -113.632E+06    -75.0058E+06    -113.534E+06     12.2312E+06     1.16863E+06         36.7998
             674     7.20026E-03     38.1554E-03     545.313E-03     519.024E-03        -1.58371     518.986E-03        -1.58367     545.313E-03     183.877E-06     210.987E-03    -105.200E-03    -105.796E-03    -105.033E-03     210.820E-03    -105.796E-03     14.5018E-03    -4.80205E+06    -85.6211E+06    -148.207E+06    -85.6834E+06    -148.144E+06    -4.80205E+06     534.024E+03         36.6968
             675     6.30025E-03     38.1387E-03     549.839E-03     534.936E-03        -1.60395     536.546E-03        -1.60391     548.185E-03    -11.6788E-03     211.127E-03    -105.238E-03    -105.784E-03    -105.112E-03     211.001E-03    -105.784E-03     12.5946E-03    -21.7130E+06    -94.7255E+06    -176.072E+06    -94.7788E+06    -176.019E+06    -21.7130E+06    -1.24486E+06         36.5963
             676     5.39989E-03     38.1257E-03     552.113E-03     540.254E-03        -1.61306     542.142E-03        -1.61285     550.009E-03     10.5472E-03     210.973E-03    -105.200E-03    -105.784E-03    -105.110E-03     210.882E-03    -105.784E-03     10.6649E-03    -41.4748E+06    -102.214E+06    -197.921E+06    -102.243E+06    -197.891E+06    -41.4748E+06    -784.307E+03         36.5290
             677     4.49919E-03     38.1144E-03     554.040E-03     527.964E-03        -1.60146     527.389E-03        -1.60044     553.590E-03    -35.2447E-03     210.816E-03    -105.115E-03    -105.806E-03    -105.053E-03     210.754E-03    -105.806E-03     8.79275E-03    -64.6942E+06    -111.922E+06    -224.503E+06    -111.969E+06    -224.455E+06    -64.6942E+06    -1.36594E+06         36.4818
             678     3.59941E-03     38.1055E-03     559.818E-03     536.412E-03        -1.61497     533.213E-03        -1.61177     559.818E-03     41.6980E-03     211.273E-03    -105.421E-03    -105.866E-03    -105.383E-03     211.235E-03    -105.866E-03     6.86821E-03    -85.8575E+06    -122.436E+06    -256.496E+06    -122.487E+06    -256.446E+06    -85.8575E+06    -1.82880E+06         36.4414
             679     2.69944E-03     38.0976E-03     576.289E-03     557.701E-03        -1.65150     561.199E-03        -1.64254     563.827E-03    -66.5183E-03     211.598E-03    -105.716E-03    -105.883E-03    -105.751E-03     211.577E-03    -105.827E-03     5.00685E-03    -107.248E+06    -131.189E+06    -287.094E+06    -131.198E+06    -287.085E+06    -107.248E+06     171.151E+03         36.4306
             680     1.79957E-03     38.0935E-03     596.613E-03     558.048E-03        -1.67221     579.608E-03        -1.65658     559.426E-03     34.8035E-03     211.499E-03    -105.659E-03    -105.868E-03    -105.846E-03     211.489E-03    -105.672E-03     3.37792E-03    -128.636E+06    -138.508E+06    -306.036E+06    -138.525E+06    -306.020E+06    -128.636E+06     387.484E+03         36.4240
             681     901.082E-06     38.0899E-03         1.66980    -242.355E-03        -1.95098    -536.343E-03        -1.63227         1.64508    -380.233E-03     211.096E-03    -105.454E-03    -105.650E-03    -105.645E-03     211.091E-03    -105.454E-03     2.43296E-03    -141.465E+06    -144.174E+06    -329.346E+06    -143.640E+06    -329.332E+06    -142.014E+06    -565.680E+03         36.4029
             682     15.3064E-03     37.1846E-03     511.262E-03     379.192E-03        -1.42541     379.151E-03        -1.42537     511.262E-03    -7.57602E-03     210.431E-03    -104.725E-03    -105.711E-03    -103.929E-03     209.635E-03    -105.711E-03     30.9637E-03     140.113E+06     129.357E+06    -8.29021E+06    -8.27901E+06     140.080E+06     129.379E+06    -48.8244E+03         48.3108
             683     14.4063E-03     37.1401E-03     519.445E-03     403.741E-03        -1.45762     403.693E-03        -1.45757     519.445E-03     5.80045E-03     210.673E-03    -105.061E-03    -105.620E-03    -104.136E-03     209.747E-03    -105.620E-03     33.9550E-03     131.237E+06     107.305E+06    -16.2342E+06    -16.2276E+06     131.231E+06     107.305E+06     722.902E+03         45.7259
             684     13.5047E-03     37.1041E-03     527.149E-03     425.420E-03        -1.48515     425.372E-03        -1.48510     527.149E-03    -9.84594E-06     210.318E-03    -104.759E-03    -105.556E-03    -104.055E-03     209.614E-03    -105.556E-03     29.7516E-03     124.478E+06     92.1273E+06    -23.5960E+06    -23.5879E+06     124.470E+06     92.1273E+06     933.999E+03         42.8888
             685     12.6035E-03     37.0689E-03     534.545E-03     440.849E-03        -1.50869     440.766E-03        -1.50860     534.545E-03    -13.8442E-03     210.408E-03    -104.827E-03    -105.562E-03    -104.223E-03     209.804E-03    -105.562E-03     27.5297E-03     94.7830E+06     67.6229E+06    -30.9330E+06    -30.9241E+06     86.4034E+06     75.9935E+06     581.283E+03         40.4528
             686     11.7030E-03     37.0378E-03     541.786E-03     457.068E-03        -1.53213     456.746E-03        -1.53181     541.786E-03     9.12292E-03     210.784E-03    -105.065E-03    -105.647E-03    -104.578E-03     210.296E-03    -105.647E-03     24.7712E-03     61.9551E+06     11.9900E+06    -38.9717E+06    -38.9427E+06     11.9611E+06     61.9551E+06    -20.2548E+03         38.6919
             687     10.8017E-03     37.0094E-03     548.608E-03     477.499E-03        -1.56060     477.203E-03        -1.56030     548.608E-03     24.2866E-03     210.906E-03    -105.104E-03    -105.705E-03    -104.697E-03     210.499E-03    -105.705E-03     22.6290E-03     51.5129E+06    -30.6260E+06    -47.2655E+06    -47.2008E+06    -30.6907E+06     51.5129E+06     161.437E+03         37.6475
             688     9.90148E-03     36.9837E-03     554.920E-03     493.086E-03        -1.58472     492.979E-03        -1.58462     554.920E-03     13.0355E-03     210.934E-03    -105.093E-03    -105.747E-03    -104.763E-03     210.605E-03    -105.747E-03     20.3509E-03     40.6517E+06    -47.1479E+06    -65.9449E+06    -55.9898E+06    -57.1030E+06     40.6517E+06     366.051E+03         37.1742
             689     9.00136E-03     36.9604E-03     561.082E-03     503.270E-03        -1.59896     503.161E-03        -1.59885     561.082E-03     13.4109E-03     210.847E-03    -105.068E-03    -105.800E-03    -104.803E-03     210.582E-03    -105.800E-03     18.2757E-03     27.8013E+06    -65.1443E+06    -89.3290E+06    -65.2587E+06    -89.2145E+06     27.8013E+06     1.41216E+06         36.9423
             690     8.10033E-03     36.9395E-03     566.990E-03     519.855E-03        -1.61560     519.688E-03        -1.61544     566.990E-03     23.6693E-03     210.754E-03    -105.045E-03    -105.813E-03    -104.826E-03     210.534E-03    -105.813E-03     16.6212E-03     12.5646E+06    -74.2924E+06    -113.936E+06    -74.4096E+06    -113.818E+06     12.5646E+06     1.59353E+06         36.7951
             691     7.20041E-03     36.9213E-03     571.737E-03     543.345E-03        -1.64118     543.223E-03        -1.64106     571.737E-03     15.7490E-03     210.892E-03    -105.077E-03    -105.788E-03    -104.904E-03     210.718E-03    -105.788E-03     14.7804E-03    -4.91952E+06    -82.6910E+06    -143.853E+06    -82.7752E+06    -143.768E+06    -4.91952E+06    -787.536E+03         36.6898
             692     6.29978E-03     36.9050E-03     575.373E-03     553.841E-03        -1.65612     553.757E-03        -1.65604     575.373E-03    -3.57685E-03     210.971E-03    -105.058E-03    -105.815E-03    -104.925E-03     210.838E-03    -105.815E-03     12.9340E-03    -21.2524E+06    -91.3210E+06    -175.903E+06    -91.4358E+06    -175.788E+06    -21.2524E+06    -3.10406E+06         36.5937
             693     5.39955E-03     36.8912E-03     579.810E-03     548.919E-03        -1.65540     548.586E-03        -1.65507     579.810E-03     34.3393E-03     211.052E-03    -105.219E-03    -105.869E-03    -105.123E-03     210.956E-03    -105.869E-03     10.9439E-03    -39.5048E+06    -101.504E+06    -201.967E+06    -101.570E+06    -201.901E+06    -39.5048E+06    -1.70976E+06         36.5340
             694     4.49972E-03     36.8802E-03     586.406E-03     549.981E-03        -1.66603     549.133E-03        -1.66519     586.406E-03    -17.4833E-03     211.149E-03    -105.399E-03    -105.860E-03    -105.333E-03     211.083E-03    -105.860E-03     9.02962E-03    -62.4931E+06    -112.315E+06    -222.782E+06    -112.336E+06    -222.761E+06    -62.4931E+06     346.125E+03         36.4884
             695     3.59941E-03     36.8707E-03     593.202E-03     572.481E-03        -1.69329     570.398E-03        -1.69121     593.202E-03     31.0038E-03     211.435E-03    -105.582E-03    -105.869E-03    -105.541E-03     211.394E-03    -105.869E-03     7.16432E-03    -85.8563E+06    -123.056E+06    -257.708E+06    -123.082E+06    -257.683E+06    -85.8563E+06    -329.883E+03         36.4455
             696     2.69976E-03     36.8638E-03     598.067E-03     591.195E-03        -1.70777     586.898E-03        -1.70348     598.067E-03    -29.9594E-03     211.568E-03    -105.731E-03    -105.837E-03    -105.729E-03     211.547E-03    -105.818E-03     5.01586E-03    -107.130E+06    -133.068E+06    -289.136E+06    -133.078E+06    -289.126E+06    -107.130E+06    -353.809E+03         36.4324
             697     1.79992E-03     36.8591E-03     604.990E-03     599.103E-03        -1.71781     591.127E-03        -1.70784     602.990E-03     69.1965E-03     211.396E-03    -105.629E-03    -105.793E-03    -105.702E-03     211.388E-03    -105.711E-03     3.21981E-03    -126.164E+06    -139.615E+06    -305.251E+06    -139.625E+06    -305.242E+06    -126.164E+06     720.656E+03         36.4246
             698     899.123E-06     36.8568E-03         1.69322    -299.129E-03        -1.90619    -479.011E-03        -1.72431         1.69122    -248.752E-03     211.236E-03    -105.462E-03    -105.786E-03    -105.545E-03     211.232E-03    -105.699E-03     1.89676E-03    -139.733E+06    -144.295E+06    -329.437E+06    -143.762E+06    -329.421E+06    -140.281E+06     1.06396E+06         36.4053
             699     15.3074E-03     35.9503E-03     531.073E-03     391.593E-03        -1.46624     391.564E-03        -1.46621     531.073E-03    -3.76572E-03     210.360E-03    -104.662E-03    -105.703E-03    -103.865E-03     209.563E-03    -105.703E-03     31.0060E-03     139.541E+06     128.583E+06    -7.55198E+06    -7.54918E+06     139.516E+06     128.605E+06    -406.483E+03         48.2860
             700     14.4052E-03     35.9057E-03     539.868E-03     408.709E-03        -1.48762     408.683E-03        -1.48759     539.868E-03     2.36982E-03     210.638E-03    -105.016E-03    -105.626E-03    -104.100E-03     209.722E-03    -105.626E-03     33.7564E-03     130.662E+06     107.350E+06    -15.6249E+06    -15.6189E+06     130.656E+06     107.350E+06     309.440E+03         45.7036
             701     13.5046E-03     35.8697E-03     548.432E-03     432.512E-03        -1.51648     432.488E-03        -1.51646     548.432E-03    -3.59987E-03     210.374E-03    -104.816E-03    -105.560E-03    -104.119E-03     209.677E-03    -105.560E-03     29.6036E-03     124.785E+06     92.5440E+06    -23.1498E+06    -23.1305E+06     124.766E+06     92.5440E+06     236.610E+03         42.8700
             702     12.6036E-03     35.8352E-03     556.575E-03     452.553E-03        -1.54563     452.506E-03        -1.54558     556.575E-03    -9.73160E-03     210.469E-03    -104.886E-03    -105.557E-03    -104.280E-03     209.863E-03    -105.557E-03     27.5856E-03     95.3756E+06     67.3970E+06    -29.6228E+06    -29.6024E+06     86.8521E+06     75.9001E+06     89.5089E+03         40.4380
             703     11.7024E-03     35.8033E-03     564.354E-03     472.625E-03        -1.57554     472.339E-03        -1.57526     564.354E-03     11.5285E-03     210.830E-03    -105.105E-03    -105.642E-03    -104.625E-03     210.350E-03    -105.642E-03     24.5733E-03     62.3644E+06     11.2989E+06    -36.8220E+06    -36.7918E+06     11.2687E+06     62.3644E+06     580.557E+03         38.6811
             704     10.8025E-03     35.7757E-03     571.504E-03     496.505E-03        -1.60830     496.201E-03        -1.60800     571.504E-03     22.3025E-03     210.926E-03    -105.128E-03    -105.700E-03    -104.738E-03     210.536E-03    -105.700E-03     22.1861E-03     53.0871E+06    -30.3874E+06    -45.4842E+06    -45.2856E+06    -30.5861E+06     53.0871E+06     798.776E+03         37.6409
             705     9.90202E-03     35.7496E-03     577.701E-03     520.162E-03        -1.64003     520.037E-03        -1.63990     577.701E-03     7.38237E-03     210.837E-03    -105.004E-03    -105.749E-03    -104.673E-03     210.505E-03    -105.749E-03     20.4246E-03     41.7335E+06    -45.9573E+06    -66.4660E+06    -54.8766E+06    -57.5467E+06     41.7335E+06     1.18450E+06         37.1699
             706     9.00117E-03     35.7264E-03     582.978E-03     538.030E-03        -1.66071     537.921E-03        -1.66060     582.978E-03     11.8362E-03     210.751E-03    -104.979E-03    -105.807E-03    -104.703E-03     210.476E-03    -105.807E-03     18.6254E-03     27.8793E+06    -63.6495E+06    -89.7636E+06    -63.7219E+06    -89.6911E+06     27.8793E+06     949.589E+03         36.9375
             707     8.10079E-03     35.7060E-03     588.056E-03     543.712E-03        -1.66774     543.571E-03        -1.66760     588.056E-03     19.2583E-03     210.644E-03    -104.911E-03    -105.826E-03    -104.686E-03     210.418E-03    -105.826E-03     16.8263E-03     13.6721E+06    -71.6453E+06    -112.577E+06    -71.6843E+06    -112.538E+06     13.6721E+06    -24.3522E+03         36.7893
             708     7.19966E-03     35.6866E-03     593.550E-03     550.361E-03        -1.67900     550.164E-03        -1.67880     593.550E-03    -6.44814E-03     210.691E-03    -104.816E-03    -105.829E-03    -104.639E-03     210.513E-03    -105.829E-03     14.9281E-03    -2.85792E+06    -80.7125E+06     -140.79E+06    -80.7469E+06    -140.756E+06    -2.85792E+06    -1.13251E+06         36.6851
             709     6.29953E-03     35.6713E-03     599.528E-03     558.050E-03        -1.69388     557.894E-03        -1.69372     599.528E-03    -3.67990E-03     210.985E-03    -105.008E-03    -105.888E-03    -104.872E-03     210.849E-03    -105.888E-03     13.0804E-03    -21.0944E+06    -91.9866E+06    -175.476E+06    -92.0532E+06    -175.409E+06    -21.0944E+06    -1.77927E+06         36.5949
             710     5.39875E-03     35.6573E-03     605.884E-03     568.704E-03        -1.71266     568.545E-03        -1.71250     605.884E-03     33.3299E-03     211.259E-03    -105.355E-03    -105.947E-03    -105.255E-03     211.159E-03    -105.947E-03     11.1936E-03    -41.6744E+06    -104.471E+06    -205.796E+06    -104.522E+06    -205.745E+06    -41.6744E+06    -1.51916E+06         36.5417
             711     4.49869E-03     35.6457E-03     611.590E-03     590.111E-03        -1.74012     589.897E-03        -1.73967     611.358E-03    -17.7905E-03     211.433E-03    -105.616E-03    -105.919E-03    -105.551E-03     211.367E-03    -105.918E-03     9.08099E-03    -62.7367E+06    -114.287E+06    -223.687E+06    -114.319E+06    -223.655E+06    -62.7367E+06    -136.209E+03         36.4956
             712     3.59929E-03     35.6373E-03     615.040E-03     606.753E-03        -1.75881     605.546E-03        -1.75737     614.808E-03     36.5724E-03     211.585E-03    -105.694E-03    -105.903E-03    -105.655E-03     211.546E-03    -105.902E-03     6.94286E-03    -84.7208E+06    -122.916E+06    -256.815E+06    -122.944E+06    -256.786E+06    -84.7208E+06     771.053E+03         36.4479
             713     2.69942E-03     35.6291E-03     617.824E-03     609.583E-03        -1.75986     607.238E-03        -1.75752     617.824E-03    -129.767E-06     211.484E-03    -105.609E-03    -105.877E-03    -105.607E-03     211.463E-03    -105.858E-03     5.10043E-03    -107.072E+06    -131.820E+06    -289.575E+06    -131.837E+06    -289.559E+06    -107.072E+06    -261.628E+03         36.4337
             714     1.79975E-03     35.6256E-03     630.346E-03     613.755E-03        -1.76896     619.745E-03        -1.76422     619.617E-03     50.7003E-03     211.408E-03    -105.592E-03    -105.841E-03    -105.600E-03     211.397E-03    -105.822E-03     3.58116E-03    -127.004E+06    -139.238E+06    -306.177E+06    -139.246E+06    -306.169E+06    -127.004E+06    -909.167E+03         36.4286
             715     900.444E-06     35.6220E-03         1.68031    -343.434E-03        -1.84587    -430.089E-03        -1.74849         1.66958    -149.617E-03     211.602E-03    -105.648E-03    -105.956E-03    -105.679E-03     211.597E-03    -105.920E-03     1.95048E-03    -139.314E+06    -143.509E+06    -328.160E+06    -143.237E+06    -328.147E+06    -139.600E+06     491.210E+03         36.4133
             716     15.3065E-03     34.7169E-03     547.447E-03     396.124E-03        -1.48818     396.074E-03        -1.48813     547.447E-03     11.6721E-03     210.439E-03    -104.711E-03    -105.698E-03    -103.915E-03     209.643E-03    -105.698E-03     31.0081E-03     140.187E+06     129.136E+06    -8.34019E+06    -8.33531E+06     140.182E+06     129.136E+06    -765.593E+03         48.2622
             717     14.4064E-03     34.6710E-03     556.722E-03     417.334E-03        -1.51705     417.289E-03        -1.51700     556.722E-03     17.7486E-03     210.553E-03    -104.929E-03    -105.628E-03    -104.020E-03     209.644E-03    -105.628E-03     33.6210E-03     131.541E+06     108.217E+06    -15.4323E+06    -15.4240E+06     131.533E+06     108.217E+06    -348.765E+03         45.6823
             718     13.5046E-03     34.6358E-03     565.805E-03     438.041E-03        -1.54377     438.018E-03        -1.54375     565.805E-03     8.00598E-03     210.376E-03    -104.821E-03    -105.555E-03    -104.125E-03     209.681E-03    -105.555E-03     29.5728E-03     123.673E+06     91.8975E+06    -22.9850E+06    -22.9665E+06     123.655E+06     91.8975E+06    -154.916E+03         42.8521
             719     12.6033E-03     34.6004E-03     574.592E-03     460.007E-03        -1.57644     459.956E-03        -1.57639     574.592E-03    -6.21546E-03     210.617E-03    -105.047E-03    -105.545E-03    -104.451E-03     210.020E-03    -105.545E-03     27.3545E-03     94.1306E+06     65.5819E+06    -30.9939E+06    -30.9693E+06     84.6040E+06     75.0839E+06    -339.343E+03         40.4241
             720     11.7036E-03     34.5695E-03     582.846E-03     485.586E-03        -1.61113     485.457E-03        -1.61100     582.846E-03     5.24960E-03     210.731E-03    -105.021E-03    -105.626E-03    -104.546E-03     210.255E-03    -105.626E-03     24.4570E-03     62.3336E+06     11.5346E+06    -38.9753E+06    -38.8127E+06     11.3720E+06     62.3336E+06     830.825E+03         38.6707
             721     10.8024E-03     34.5412E-03     590.460E-03     507.108E-03        -1.64197     506.995E-03        -1.64185     590.460E-03     8.53188E-03     210.676E-03    -104.879E-03    -105.699E-03    -104.476E-03     210.273E-03    -105.699E-03     22.5314E-03     52.5380E+06    -30.7104E+06    -47.0264E+06    -46.6784E+06    -31.0584E+06     52.5380E+06     1.31977E+06         37.6331
             722     9.90151E-03     34.5161E-03     597.471E-03     527.998E-03        -1.67107     527.954E-03        -1.67103     597.471E-03    -8.78078E-03     210.730E-03    -104.876E-03    -105.770E-03    -104.535E-03     210.389E-03    -105.770E-03     20.7189E-03     42.2219E+06    -46.4203E+06    -65.4484E+06    -54.2593E+06    -57.6094E+06     42.2219E+06     1.20859E+06         37.1639
             723     9.00059E-03     34.4927E-03     603.514E-03     553.139E-03        -1.70020     553.119E-03        -1.70018     603.514E-03    -5.92720E-03     210.713E-03    -104.919E-03    -105.834E-03    -104.639E-03     210.433E-03    -105.834E-03     18.7798E-03     28.4592E+06    -62.5033E+06    -87.9018E+06    -62.5759E+06    -87.8292E+06     28.4592E+06     345.123E+03         36.9339
             724     8.10024E-03     34.4713E-03     608.605E-03     568.640E-03        -1.71927     568.597E-03        -1.71922     608.605E-03     7.40044E-03     210.583E-03    -104.813E-03    -105.864E-03    -104.588E-03     210.357E-03    -105.864E-03     16.8362E-03     13.2979E+06    -72.3745E+06    -111.789E+06    -72.3898E+06    -111.774E+06     13.2979E+06    -579.876E+03         36.7890
             725     7.19972E-03     34.4543E-03     614.058E-03     567.531E-03        -1.72312     567.383E-03        -1.72297     614.058E-03    -14.3433E-03     210.687E-03    -104.754E-03    -105.879E-03    -104.575E-03     210.508E-03    -105.879E-03     14.9999E-03    -3.14931E+06    -82.4401E+06    -140.305E+06    -82.4466E+06    -140.298E+06    -3.14931E+06    -417.110E+03         36.6870
             726     6.29835E-03     34.4368E-03     620.976E-03     568.879E-03        -1.73377     568.701E-03        -1.73359     620.976E-03    -4.64471E-03     211.184E-03    -105.149E-03    -105.937E-03    -105.014E-03     211.049E-03    -105.937E-03     13.0034E-03    -21.3183E+06    -93.0145E+06    -175.642E+06    -93.0172E+06    -175.640E+06    -21.3183E+06    -410.504E+03         36.5988
             727     5.39905E-03     34.4235E-03     627.508E-03     596.789E-03        -1.76888     596.613E-03        -1.76870     627.508E-03     3.61341E-03     211.505E-03    -105.561E-03    -105.983E-03    -105.466E-03     211.410E-03    -105.983E-03     10.9187E-03    -40.7515E+06    -103.955E+06    -206.307E+06    -103.972E+06     -206.29E+06    -40.7515E+06    -522.009E+03         36.5474
             728     4.49910E-03     34.4108E-03     632.846E-03     624.801E-03        -1.80090     626.770E-03        -1.80067     630.654E-03    -36.3289E-03     211.391E-03    -105.547E-03    -105.948E-03    -105.485E-03     211.328E-03    -105.947E-03     8.84934E-03    -63.2603E+06    -115.414E+06    -225.592E+06    -115.435E+06    -225.571E+06    -63.2603E+06    -348.779E+03         36.4996
             729     3.59946E-03     34.4013E-03     635.266E-03     628.815E-03        -1.80595     632.190E-03        -1.80509     631.031E-03     35.7299E-03     211.408E-03    -105.469E-03    -105.957E-03    -105.431E-03     211.370E-03    -105.957E-03     6.88530E-03    -88.5475E+06    -125.987E+06    -256.368E+06    -126.016E+06    -256.339E+06    -88.5475E+06    -139.171E+03         36.4497
             730     2.69944E-03     34.3955E-03     635.109E-03     619.544E-03        -1.79609     620.511E-03        -1.79502     633.066E-03     19.8955E-03     211.503E-03    -105.531E-03    -105.975E-03    -105.508E-03     211.480E-03    -105.975E-03     5.35413E-03    -110.976E+06    -133.416E+06    -288.215E+06    -133.445E+06    -288.186E+06    -110.976E+06    -647.378E+03         36.4378
             731     1.79877E-03     34.3906E-03     646.695E-03     622.366E-03        -1.80697     631.480E-03        -1.80587     636.474E-03    -9.49231E-03     211.707E-03    -105.721E-03    -106.003E-03    -105.709E-03     211.695E-03    -106.003E-03     3.68395E-03    -129.148E+06    -139.330E+06    -307.801E+06    -139.338E+06    -307.792E+06    -129.148E+06    -627.653E+03         36.4376
             732     898.734E-06     34.3881E-03         1.65966    -362.561E-03        -1.82753    -373.493E-03        -1.80638         1.64944    -35.5913E-03     212.038E-03    -105.865E-03    -106.169E-03    -105.896E-03     212.034E-03    -106.133E-03     2.31453E-03    -140.473E+06    -143.389E+06    -328.695E+06    -143.129E+06    -328.670E+06    -140.759E+06    -1.13444E+06         36.4278
             733     15.3079E-03     33.4813E-03     560.559E-03     399.730E-03        -1.51139     399.543E-03        -1.51120     560.559E-03    -7.23970E-03     210.438E-03    -104.715E-03    -105.686E-03    -103.932E-03     209.655E-03    -105.686E-03     30.8272E-03     140.788E+06     128.210E+06    -8.92310E+06    -8.91471E+06     140.780E+06     128.210E+06    -595.366E+03         48.2401
             734     14.4056E-03     33.4381E-03     570.257E-03     423.868E-03        -1.54806     423.830E-03        -1.54802     570.257E-03     10.1791E-03     210.531E-03    -104.922E-03    -105.605E-03    -104.028E-03     209.638E-03    -105.605E-03     33.3443E-03     130.570E+06     105.962E+06    -16.7457E+06    -16.7322E+06     130.556E+06     105.962E+06    -1.32933E+06         45.6627
             735     13.5046E-03     33.4012E-03     579.763E-03     443.800E-03        -1.57632     443.733E-03        -1.57625     579.763E-03    -5.82892E-03     210.329E-03    -104.786E-03    -105.543E-03    -104.091E-03     209.634E-03    -105.543E-03     29.5596E-03     123.104E+06     92.5131E+06    -23.2045E+06    -23.1900E+06     123.090E+06     92.5131E+06    -761.937E+03         42.8359
             736     12.6045E-03     33.3657E-03     588.924E-03     469.848E-03        -1.60804     469.654E-03        -1.60784     588.924E-03    -25.9889E-03     210.404E-03    -104.845E-03    -105.545E-03    -104.238E-03     209.797E-03    -105.545E-03     27.5866E-03     93.9255E+06     65.1294E+06    -30.8672E+06    -30.8176E+06     83.0728E+06     75.9324E+06     455.736E+03         40.4115
             737     11.7029E-03     33.3352E-03     597.308E-03     498.779E-03        -1.64226     498.554E-03        -1.64204     597.308E-03     1.27847E-03     210.541E-03    -104.822E-03    -105.639E-03    -104.331E-03     210.050E-03    -105.639E-03     24.8505E-03     62.1700E+06     10.3705E+06    -39.1927E+06    -38.9229E+06     10.1007E+06     62.1700E+06     874.378E+03         38.6615
             738     10.8020E-03     33.3076E-03     605.017E-03     518.005E-03        -1.66990     517.910E-03        -1.66981     605.017E-03     22.3455E-03     210.612E-03    -104.808E-03    -105.720E-03    -104.398E-03     210.203E-03    -105.720E-03     22.6947E-03     52.4590E+06    -30.3216E+06    -46.6777E+06    -46.3111E+06    -30.6883E+06     52.4590E+06     630.181E+03         37.6267
             739     9.90112E-03     33.2819E-03     612.707E-03     528.980E-03        -1.68825     528.955E-03        -1.68823     612.707E-03     11.4669E-03     210.765E-03    -104.916E-03    -105.795E-03    -104.575E-03     210.424E-03    -105.795E-03     20.6967E-03     42.0171E+06    -46.7200E+06    -64.7334E+06    -54.2687E+06    -57.1847E+06     42.0171E+06     257.533E+03         37.1608
             740     9.00095E-03     33.2582E-03     620.536E-03     545.193E-03        -1.71223     545.105E-03        -1.71214     620.536E-03    -5.55891E-03     210.677E-03    -104.866E-03    -105.866E-03    -104.590E-03     210.401E-03    -105.866E-03     18.6482E-03     28.6944E+06    -63.0910E+06    -87.1286E+06    -63.2790E+06    -86.9405E+06     28.6944E+06     412.236E+03         36.9360
             741     8.09979E-03     33.2379E-03     627.588E-03     573.385E-03        -1.74798     573.268E-03        -1.74786     627.588E-03     3.22640E-03     210.646E-03    -104.827E-03    -105.901E-03    -104.607E-03     210.426E-03    -105.901E-03     16.6221E-03     13.1711E+06    -72.8929E+06    -111.262E+06    -72.9744E+06    -111.180E+06     13.1711E+06     373.284E+03         36.7965
             742     7.19892E-03     33.2191E-03     633.020E-03     598.896E-03        -1.77791     598.668E-03        -1.77769     633.020E-03    -14.4966E-03     211.044E-03    -105.069E-03    -105.896E-03    -104.899E-03     210.874E-03    -105.896E-03     14.6404E-03    -3.71754E+06    -83.3296E+06    -140.633E+06    -83.3322E+06    -140.631E+06    -3.71754E+06    -239.675E+03         36.6957
             743     6.29936E-03     33.2024E-03     637.381E-03     609.856E-03        -1.79381     609.466E-03        -1.79342     637.381E-03     2.65124E-03     211.320E-03    -105.285E-03    -105.913E-03    -105.158E-03     211.193E-03    -105.913E-03     12.6362E-03    -21.5367E+06    -93.9553E+06    -175.365E+06    -93.9609E+06    -175.360E+06    -21.5367E+06    -34.6041E+03         36.6027
             744     5.39874E-03     33.1879E-03     641.768E-03     615.087E-03        -1.80356     614.756E-03        -1.80323     641.768E-03     6.84990E-03     211.232E-03    -105.301E-03    -105.959E-03    -105.208E-03     211.139E-03    -105.959E-03     10.8159E-03    -41.9151E+06    -104.616E+06    -206.596E+06    -104.624E+06    -206.588E+06    -41.9151E+06     194.203E+03         36.5454
             745     4.49923E-03     33.1762E-03     648.119E-03     624.061E-03        -1.81631     625.808E-03        -1.81609     646.159E-03    -34.4682E-03     211.015E-03    -105.119E-03    -105.995E-03    -105.051E-03     210.947E-03    -105.995E-03     9.20119E-03    -63.8666E+06    -114.676E+06    -226.401E+06    -114.684E+06    -226.394E+06    -63.8666E+06     160.366E+03         36.4975
             746     3.59826E-03     33.1676E-03     652.982E-03     639.924E-03        -1.83506     643.621E-03        -1.83476     648.979E-03     16.3723E-03     211.416E-03    -105.341E-03    -106.105E-03    -105.297E-03     211.372E-03    -106.105E-03     7.37396E-03    -87.7866E+06    -123.835E+06    -255.408E+06    -123.853E+06    -255.390E+06    -87.7866E+06    -413.771E+03         36.4528
             747     2.69823E-03     33.1611E-03     655.356E-03     642.300E-03        -1.84076     646.939E-03        -1.84037     650.326E-03     26.0127E-03     212.028E-03    -105.824E-03    -106.208E-03    -105.875E-03     212.005E-03    -106.134E-03     5.30146E-03    -110.938E+06    -132.659E+06    -288.088E+06    -132.674E+06    -288.072E+06    -110.938E+06    -494.815E+03         36.4455
             748     1.79938E-03     33.1557E-03     656.983E-03     639.515E-03        -1.84321     641.882E-03        -1.84259     653.996E-03    -45.2733E-03     212.100E-03    -105.920E-03    -106.184E-03    -106.053E-03     212.091E-03    -106.041E-03     3.32030E-03    -128.857E+06    -139.397E+06    -308.560E+06    -139.411E+06    -308.546E+06    -128.857E+06    -541.706E+03         36.4439
             749     900.041E-06     33.1526E-03         1.64264    -322.090E-03        -1.87564    -328.502E-03        -1.86923         1.64264     34.1073E-03     211.919E-03    -105.773E-03    -106.146E-03    -105.910E-03     211.916E-03    -106.006E-03     1.65159E-03    -140.544E+06     -143.84E+06    -329.935E+06    -143.513E+06    -329.892E+06    -140.913E+06    -1.02066E+06         36.4310
             750     15.3072E-03     32.2478E-03     571.076E-03     409.756E-03        -1.53874     409.571E-03        -1.53856     571.076E-03    -26.7829E-03     210.461E-03    -104.779E-03    -105.669E-03    -103.993E-03     209.675E-03    -105.669E-03     30.9426E-03     141.983E+06     128.867E+06    -7.77347E+06    -7.76807E+06     141.978E+06     128.867E+06    -198.578E+03         48.2199
             751     14.4066E-03     32.2029E-03     580.783E-03     431.456E-03        -1.57117     431.393E-03        -1.57111     580.783E-03     10.1230E-03     210.586E-03    -105.002E-03    -105.586E-03    -104.111E-03     209.695E-03    -105.586E-03     33.3287E-03     131.200E+06     106.178E+06    -16.1265E+06    -16.1147E+06     131.188E+06     106.178E+06    -1.10082E+06         45.6451
             752     13.5058E-03     32.1667E-03     590.268E-03     453.983E-03        -1.60257     453.848E-03        -1.60243     590.268E-03     8.88769E-03     210.091E-03    -104.582E-03    -105.527E-03    -103.879E-03     209.389E-03    -105.527E-03     29.6998E-03     121.762E+06     91.2747E+06    -24.3198E+06    -24.3075E+06     121.750E+06     91.2747E+06    -1.04316E+06         42.8214
             753     12.6033E-03     32.1325E-03     599.359E-03     478.869E-03        -1.63394     478.656E-03        -1.63372     599.359E-03    -22.3145E-03     210.027E-03    -104.476E-03    -105.554E-03    -103.866E-03     209.418E-03    -105.554E-03     27.6101E-03     92.9017E+06     64.3913E+06    -31.6372E+06    -31.5660E+06     82.1043E+06     75.1174E+06    -237.655E+03         40.4003
             754     11.7024E-03     32.1014E-03     607.795E-03     506.378E-03        -1.66656     506.174E-03        -1.66636     607.795E-03    -5.51704E-03     210.486E-03    -104.752E-03    -105.667E-03    -104.266E-03     210.000E-03    -105.667E-03     24.7022E-03     61.8048E+06     9.76657E+06    -38.7729E+06    -38.5085E+06     9.50218E+06     61.8048E+06     270.561E+03         38.6543
             755     10.8020E-03     32.0736E-03     615.755E-03     523.714E-03        -1.69149     523.638E-03        -1.69141     615.755E-03     12.6538E-03     210.755E-03    -104.941E-03    -105.744E-03    -104.534E-03     210.348E-03    -105.744E-03     22.6311E-03     52.5081E+06    -30.4599E+06    -46.4234E+06    -46.0829E+06    -30.8003E+06     52.5081E+06     421.324E+03         37.6250
             756     9.90126E-03     32.0477E-03     623.710E-03     537.762E-03        -1.71061     537.734E-03        -1.71058     623.710E-03     7.54285E-03     210.726E-03    -104.871E-03    -105.814E-03    -104.530E-03     210.384E-03    -105.814E-03     20.7233E-03     41.6077E+06    -46.7682E+06    -64.7013E+06    -54.9551E+06    -56.5144E+06     41.6077E+06     499.754E+03         37.1644
             757     8.99998E-03     32.0241E-03     631.897E-03     550.060E-03        -1.73114     549.971E-03        -1.73105     631.897E-03    -5.29900E-03     210.776E-03    -104.935E-03    -105.886E-03    -104.659E-03     210.500E-03    -105.886E-03     18.6163E-03     27.8015E+06    -64.3388E+06    -87.9846E+06    -64.6503E+06    -87.6731E+06     27.8015E+06     475.152E+03         36.9434
             758     8.09975E-03     32.0044E-03     640.179E-03     567.733E-03        -1.76137     567.502E-03        -1.76113     640.179E-03     9.02012E-03     211.015E-03    -105.207E-03    -105.906E-03    -104.990E-03     210.799E-03    -105.906E-03     16.5149E-03     12.8630E+06    -74.1621E+06    -111.327E+06    -74.2973E+06    -111.192E+06     12.8630E+06     703.324E+03         36.8057
             759     7.19993E-03     31.9841E-03     646.990E-03     605.323E-03        -1.80525     604.852E-03        -1.80478     646.990E-03    -16.2837E-03     211.176E-03    -105.258E-03    -105.865E-03    -105.094E-03     211.012E-03    -105.865E-03     14.3910E-03    -4.29988E+06    -84.0182E+06    -139.881E+06    -84.0532E+06    -139.846E+06    -4.29988E+06     378.866E+03         36.7036
             760     6.29953E-03     31.9680E-03     653.405E-03     639.556E-03        -1.84151     642.105E-03        -1.84101     650.362E-03    -11.4924E-03     211.066E-03    -105.060E-03    -105.867E-03    -104.933E-03     210.939E-03    -105.867E-03     12.6533E-03    -22.2399E+06    -94.0083E+06    -175.509E+06    -94.0139E+06    -175.504E+06    -22.2399E+06    -31.7947E+03         36.6051
             761     5.39960E-03     31.9540E-03     660.118E-03     639.379E-03        -1.84909     647.775E-03        -1.84876     651.384E-03     1.92534E-03     210.829E-03    -104.889E-03    -105.957E-03    -104.791E-03     210.731E-03    -105.957E-03     11.0718E-03    -42.0493E+06    -103.204E+06    -206.268E+06    -103.211E+06    -206.261E+06    -42.0493E+06    -56.6912E+03         36.5426
             762     4.49774E-03     31.9428E-03     659.965E-03     623.858E-03        -1.83387     629.142E-03        -1.83346     654.274E-03     1.79333E-03     210.972E-03    -105.041E-03    -106.044E-03    -104.975E-03     210.907E-03    -106.044E-03     8.98887E-03    -64.5181E+06    -113.048E+06    -225.844E+06    -113.070E+06    -225.822E+06    -64.5181E+06    -1.04610E+06         36.4952
             763     3.59797E-03     31.9328E-03     660.022E-03     634.642E-03        -1.84056     634.359E-03        -1.84027     660.022E-03     24.4550E-03     211.659E-03    -105.521E-03    -106.190E-03    -105.482E-03     211.621E-03    -106.190E-03     6.92536E-03    -85.7530E+06    -122.324E+06    -256.611E+06    -122.347E+06    -256.588E+06    -85.7530E+06    -476.878E+03         36.4543
             764     2.69882E-03     31.9255E-03     670.241E-03     657.136E-03        -1.87484     663.424E-03        -1.87410     663.214E-03     51.0539E-03     212.185E-03    -105.903E-03    -106.282E-03    -105.956E-03     212.164E-03    -106.208E-03     5.07842E-03    -106.137E+06    -130.100E+06    -288.370E+06    -130.104E+06    -288.366E+06    -106.137E+06     764.663E+03         36.4497
             765     1.79918E-03     31.9211E-03     686.541E-03     653.952E-03        -1.89567     679.746E-03        -1.89260     657.676E-03    -49.4214E-03     212.195E-03    -105.956E-03    -106.215E-03    -106.088E-03     212.185E-03    -106.073E-03     3.50068E-03    -126.477E+06    -138.362E+06    -307.814E+06    -138.384E+06    -307.793E+06    -126.477E+06     140.939E+03         36.4473
             766     899.684E-06     31.9179E-03         1.59090    -242.009E-03        -1.92235    -265.602E-03        -1.87691         1.56906     128.264E-03     211.951E-03    -105.681E-03    -106.257E-03    -106.189E-03     211.947E-03    -105.744E-03     2.15380E-03    -141.173E+06    -145.500E+06    -331.467E+06    -145.158E+06    -331.440E+06    -141.542E+06     439.457E+03         36.4313
             767     15.3078E-03     31.0132E-03     577.495E-03     416.617E-03        -1.55534     416.497E-03        -1.55522     577.495E-03     7.67485E-03     210.456E-03    -104.786E-03    -105.674E-03    -103.981E-03     209.651E-03    -105.674E-03     31.2744E-03     142.296E+06     130.085E+06    -7.84152E+06    -7.83964E+06     142.170E+06     130.209E+06    -439.125E+03         48.2018
             768     14.4065E-03     30.9694E-03     587.068E-03     436.379E-03        -1.58288     436.234E-03        -1.58274     587.068E-03     21.8811E-03     210.523E-03    -104.940E-03    -105.595E-03    -104.027E-03     209.609E-03    -105.595E-03     33.7270E-03     132.101E+06     106.749E+06    -15.7037E+06    -15.6976E+06     132.095E+06     106.749E+06    -67.8941E+03         45.6291
             769     13.5046E-03     30.9340E-03     596.335E-03     463.701E-03        -1.61824     463.591E-03        -1.61813     596.335E-03     8.88094E-03     210.084E-03    -104.564E-03    -105.532E-03    -103.856E-03     209.376E-03    -105.532E-03     29.8036E-03     121.524E+06     89.9737E+06    -24.0292E+06    -24.0170E+06     121.512E+06     89.9737E+06    -296.274E+03         42.8083
             770     12.6042E-03     30.8987E-03     605.125E-03     486.205E-03        -1.64606     486.107E-03        -1.64597     605.125E-03    -12.2824E-03     210.088E-03    -104.528E-03    -105.558E-03    -103.916E-03     209.477E-03    -105.558E-03     27.6583E-03     91.9108E+06     63.1213E+06    -31.7663E+06    -31.7290E+06     81.0753E+06     73.9194E+06    -1.15249E+06         40.3909
             771     11.7026E-03     30.8677E-03     614.001E-03     496.553E-03        -1.66270     496.404E-03        -1.66255     614.001E-03     7.83998E-03     210.468E-03    -104.732E-03    -105.676E-03    -104.244E-03     209.981E-03    -105.676E-03     24.7483E-03     61.3773E+06     9.35115E+06    -38.8658E+06    -38.6744E+06     9.15973E+06     61.3773E+06    -383.776E+03         38.6493
             772     10.8014E-03     30.8392E-03     623.132E-03     515.231E-03        -1.69271     515.110E-03        -1.69259     623.132E-03     10.2842E-03     210.733E-03    -104.910E-03    -105.757E-03    -104.506E-03     210.329E-03    -105.757E-03     22.5279E-03     51.6760E+06    -31.1457E+06    -47.0470E+06    -46.7411E+06    -31.4516E+06     51.6760E+06     556.595E+03         37.6264
             773     9.90064E-03     30.8142E-03     631.387E-03     551.354E-03        -1.73657     551.308E-03        -1.73653     631.387E-03    -163.380E-06     210.897E-03    -105.025E-03    -105.822E-03    -104.697E-03     210.569E-03    -105.822E-03     20.3094E-03     41.3771E+06    -47.4886E+06    -64.8123E+06    -55.5179E+06    -56.7829E+06     41.3771E+06     731.196E+03         37.1719
             774     9.00031E-03     30.7906E-03     638.243E-03     575.905E-03        -1.76688     575.869E-03        -1.76684     638.243E-03     3.13352E-03     211.016E-03    -105.183E-03    -105.866E-03    -104.920E-03     210.753E-03    -105.866E-03     18.2230E-03     27.9606E+06    -64.3237E+06    -87.4223E+06    -64.6375E+06    -87.1086E+06     27.9606E+06     857.703E+03         36.9499
             775     8.10005E-03     30.7684E-03     644.785E-03     584.279E-03        -1.78057     584.079E-03        -1.78037     644.785E-03     21.2965E-03     210.995E-03    -105.249E-03    -105.873E-03    -105.036E-03     210.782E-03    -105.873E-03     16.3807E-03     12.4784E+06    -74.1752E+06    -111.472E+06    -74.3802E+06    -111.267E+06     12.4784E+06     305.796E+03         36.8070
             776     7.20003E-03     30.7503E-03     651.510E-03     598.396E-03        -1.80151     597.955E-03        -1.80107     651.510E-03    -7.00046E-03     210.874E-03    -105.007E-03    -105.845E-03    -104.837E-03     210.705E-03    -105.845E-03     14.5998E-03    -4.28877E+06    -83.5328E+06    -139.157E+06    -83.6064E+06    -139.083E+06    -4.28877E+06     141.211E+03         36.7035
             777     6.29966E-03     30.7341E-03     660.028E-03     624.894E-03        -1.83571     627.155E-03        -1.83493     656.985E-03     8.18605E-03     210.889E-03    -104.878E-03    -105.867E-03    -104.747E-03     210.758E-03    -105.867E-03     12.8178E-03    -22.1886E+06    -92.9625E+06    -175.382E+06    -92.9725E+06    -175.372E+06    -22.1886E+06    -246.822E+03         36.6076
             778     5.39807E-03     30.7210E-03     668.364E-03     645.858E-03        -1.86325     653.879E-03        -1.86253     659.630E-03     13.2557E-03     210.996E-03    -105.065E-03    -105.959E-03    -104.969E-03     210.900E-03    -105.959E-03     10.9472E-03    -41.9909E+06    -103.013E+06    -206.659E+06    -103.019E+06    -206.652E+06    -41.9909E+06    -625.719E+03         36.5473
             779     4.49900E-03     30.7079E-03     672.511E-03     645.486E-03        -1.87037     657.014E-03        -1.86992     660.535E-03     740.601E-06     211.162E-03    -105.290E-03    -106.008E-03    -105.225E-03     211.097E-03    -106.008E-03     8.94317E-03    -63.9131E+06    -112.923E+06    -224.668E+06    -112.953E+06    -224.638E+06    -63.9131E+06    -457.952E+03         36.4971
             780     3.59906E-03     30.6985E-03     673.094E-03     645.293E-03        -1.87015     656.187E-03        -1.86957     661.618E-03    -4.75600E-03     211.552E-03    -105.489E-03    -106.127E-03    -105.450E-03     211.513E-03    -106.127E-03     6.94538E-03    -86.3125E+06    -123.441E+06    -258.241E+06    -123.479E+06    -258.203E+06    -86.3125E+06    -614.614E+03         36.4504
             781     2.69842E-03     30.6911E-03     671.593E-03     654.657E-03        -1.87694     661.923E-03        -1.87497     662.362E-03     55.3117E-03     211.800E-03    -105.623E-03    -106.191E-03    -105.600E-03     211.778E-03    -106.191E-03     5.26735E-03    -106.853E+06    -132.518E+06    -289.487E+06    -132.530E+06    -289.475E+06    -106.853E+06     31.0422E+03         36.4437
             782     1.79880E-03     30.6855E-03     687.196E-03     655.559E-03        -1.90314     677.865E-03        -1.89551     657.259E-03    -83.2813E-03     212.081E-03    -105.862E-03    -106.199E-03    -105.852E-03     212.071E-03    -106.199E-03     3.45605E-03    -124.460E+06    -138.569E+06    -306.841E+06    -138.578E+06    -306.832E+06    -124.460E+06     961.650E+03         36.4451
             783     899.085E-06     30.6837E-03         1.52073    -122.737E-03        -1.96566    -191.383E-03        -1.87112         1.49484     232.393E-03     212.409E-03    -105.922E-03    -106.473E-03    -106.374E-03     212.406E-03    -106.017E-03     2.18755E-03    -137.901E+06    -143.988E+06    -330.476E+06    -142.817E+06    -330.467E+06    -139.080E+06     958.672E+03         36.4367
             784     15.3072E-03     29.7794E-03     579.879E-03     404.511E-03        -1.54963     404.266E-03        -1.54938     579.879E-03    -2.94186E-03     210.240E-03    -104.561E-03    -105.681E-03    -103.743E-03     209.423E-03    -105.681E-03     31.4240E-03     142.071E+06     128.902E+06    -7.97888E+06    -7.97185E+06     141.941E+06     129.026E+06    -444.503E+03         48.1864
             785     14.4056E-03     29.7345E-03     590.004E-03     433.416E-03        -1.58608     433.250E-03        -1.58591     590.004E-03    -3.71063E-03     210.479E-03    -104.863E-03    -105.622E-03    -103.944E-03     209.561E-03    -105.622E-03     33.7629E-03     131.505E+06     106.260E+06    -15.8031E+06    -15.7913E+06     131.493E+06     106.260E+06     4.42884E+03         45.6153
             786     13.5052E-03     29.6997E-03     599.403E-03     466.666E-03        -1.62681     466.548E-03        -1.62669     599.403E-03    -27.2373E-03     210.214E-03    -104.655E-03    -105.559E-03    -103.956E-03     209.515E-03    -105.559E-03     29.6323E-03     122.232E+06     90.5023E+06    -23.2760E+06    -23.2514E+06     122.207E+06     90.5023E+06    -10.6006E+03         42.7971
             787     12.6030E-03     29.6654E-03     607.970E-03     494.064E-03        -1.65901     493.981E-03        -1.65893     607.970E-03    -21.5525E-03     210.323E-03    -104.749E-03    -105.564E-03    -104.127E-03     209.702E-03    -105.564E-03     27.9157E-03     91.7479E+06     63.0071E+06    -31.4323E+06    -31.4152E+06     81.6128E+06     73.1251E+06    -17.0288E+03         40.3830
             788     11.7025E-03     29.6337E-03     616.367E-03     505.283E-03        -1.67885     505.148E-03        -1.67871     616.367E-03     9.52458E-03     210.695E-03    -104.963E-03    -105.672E-03    -104.474E-03     210.206E-03    -105.672E-03     24.7775E-03     59.7848E+06     7.49138E+06    -40.0475E+06    -40.0036E+06     7.44746E+06     59.7848E+06    -556.091E+03         38.6448
             789     10.8019E-03     29.6055E-03     624.806E-03     525.057E-03        -1.70702     524.956E-03        -1.70691     624.806E-03     13.5350E-03     210.801E-03    -104.995E-03    -105.747E-03    -104.603E-03     210.409E-03    -105.747E-03     22.2164E-03     51.1533E+06    -31.4483E+06    -47.9155E+06    -47.7646E+06    -31.5992E+06     51.1533E+06    -42.3906E+03         37.6258
             790     9.90120E-03     29.5795E-03     632.681E-03     550.200E-03        -1.73873     550.009E-03        -1.73854     632.681E-03     19.5195E-03     211.052E-03    -105.215E-03    -105.798E-03    -104.891E-03     210.729E-03    -105.798E-03     20.1856E-03     41.0394E+06    -46.2783E+06    -66.7132E+06    -55.6034E+06    -57.3881E+06     41.0394E+06     481.145E+03         37.1735
             791     9.00119E-03     29.5559E-03     639.801E-03     572.064E-03        -1.76744     571.820E-03        -1.76720     639.801E-03     8.22106E-03     210.997E-03    -105.216E-03    -105.825E-03    -104.951E-03     210.732E-03    -105.825E-03     18.2676E-03     28.4449E+06    -63.5946E+06    -87.1183E+06    -63.7629E+06    -86.9500E+06     28.4449E+06     501.707E+03         36.9483
             792     8.10084E-03     29.5348E-03     645.822E-03     598.769E-03        -1.79741     598.661E-03        -1.79730     645.822E-03    -4.62101E-03     210.548E-03    -104.824E-03    -105.847E-03    -104.604E-03     210.328E-03    -105.847E-03     16.6338E-03     13.3975E+06    -72.2857E+06    -109.953E+06    -72.4790E+06    -109.760E+06     13.3975E+06     406.752E+03         36.8013
             793     7.19959E-03     29.5164E-03     650.587E-03     617.008E-03        -1.81777     616.398E-03        -1.81716     650.587E-03    -37.4019E-03     210.696E-03    -104.810E-03    -105.856E-03    -104.635E-03     210.522E-03    -105.856E-03     14.7747E-03    -4.34270E+06    -82.5678E+06    -139.511E+06    -82.6496E+06    -139.429E+06    -4.34270E+06    -233.030E+03         36.7000
             794     6.29878E-03     29.5005E-03     655.283E-03     620.314E-03        -1.82628     619.121E-03        -1.82509     655.283E-03     2.44442E-03     211.211E-03    -105.212E-03    -105.872E-03    -105.086E-03     211.085E-03    -105.872E-03     12.5880E-03    -21.3796E+06    -92.7273E+06    -174.803E+06    -92.7481E+06    -174.783E+06    -21.3796E+06    -399.110E+03         36.6115
             795     5.39978E-03     29.4863E-03     661.222E-03     621.143E-03        -1.83560     620.450E-03        -1.83491     661.222E-03     33.9331E-03     211.274E-03    -105.432E-03    -105.910E-03    -105.343E-03     211.184E-03    -105.910E-03     10.6140E-03    -40.9566E+06    -103.461E+06    -206.799E+06    -103.466E+06    -206.794E+06    -40.9566E+06    -501.828E+03         36.5550
             796     4.49877E-03     29.4740E-03     672.670E-03     642.460E-03        -1.86640     648.637E-03        -1.86629     666.385E-03    -4.73751E-03     211.038E-03    -105.285E-03    -105.914E-03    -105.223E-03     210.976E-03    -105.914E-03     8.78033E-03    -63.1531E+06    -113.793E+06    -225.301E+06    -113.810E+06    -225.285E+06    -63.1531E+06    -222.842E+03         36.4994
             797     3.59844E-03     29.4640E-03     686.896E-03     662.485E-03        -1.90142     682.742E-03        -1.90089     666.115E-03    -36.4855E-03     211.241E-03    -105.262E-03    -106.047E-03    -105.224E-03     211.203E-03    -106.047E-03     6.85295E-03    -85.3147E+06    -122.653E+06    -257.921E+06    -122.679E+06    -257.895E+06    -85.3147E+06    -150.325E+03         36.4442
             798     2.69916E-03     29.4567E-03     679.077E-03     660.198E-03        -1.89276     675.002E-03        -1.89038     661.899E-03     47.5501E-03     211.613E-03    -105.477E-03    -106.152E-03    -105.455E-03     211.590E-03    -106.152E-03     5.31056E-03    -108.310E+06    -132.326E+06    -290.274E+06    -132.346E+06    -290.254E+06    -108.310E+06    -678.116E+03         36.4333
             799     1.79858E-03     29.4517E-03     669.226E-03     659.226E-03        -1.88250     656.185E-03        -1.87116     660.927E-03    -121.035E-03     212.017E-03    -105.835E-03    -106.168E-03    -105.823E-03     212.005E-03    -106.168E-03     3.63851E-03    -127.651E+06    -139.275E+06    -307.889E+06    -139.284E+06    -307.881E+06    -127.651E+06    -511.743E+03         36.4360
             800     899.499E-06     29.4469E-03         1.47348    -5.77894E-03        -2.02405    -144.343E-03        -1.87987         1.46787     351.615E-03     212.330E-03    -105.967E-03    -106.360E-03    -106.291E-03     212.327E-03    -106.033E-03     1.68786E-03    -137.288E+06    -143.574E+06    -329.177E+06    -142.398E+06    -329.173E+06    -138.468E+06    -18.1171E+03         36.4333
             801     15.3068E-03     28.5457E-03     579.615E-03     407.173E-03        -1.54803     406.861E-03        -1.54772     579.615E-03    -18.3681E-03     210.136E-03    -104.445E-03    -105.691E-03    -103.632E-03     209.324E-03    -105.691E-03     31.3396E-03     141.742E+06     128.097E+06    -8.70836E+06    -8.70159E+06     141.736E+06     128.097E+06    -194.329E+03         48.1750
             802     14.4057E-03     28.5011E-03     589.314E-03     439.447E-03        -1.58919     439.279E-03        -1.58902     589.314E-03     2.96128E-03     210.487E-03    -104.848E-03    -105.642E-03    -103.939E-03     209.578E-03    -105.642E-03     33.5775E-03     131.113E+06     105.296E+06    -16.7340E+06    -16.7256E+06     131.104E+06     105.296E+06    -304.900E+03         45.6056
             803     13.5038E-03     28.4658E-03     598.273E-03     467.070E-03        -1.62542     466.939E-03        -1.62528     598.273E-03    -5.56961E-03     210.351E-03    -104.763E-03    -105.578E-03    -104.084E-03     209.673E-03    -105.578E-03     29.2057E-03     121.760E+06     90.2901E+06    -24.6966E+06    -24.6823E+06     121.746E+06     90.2901E+06     324.905E+03         42.7895
             804     12.6036E-03     28.4311E-03     606.854E-03     486.010E-03        -1.65333     485.939E-03        -1.65326     606.854E-03     11.4903E-03     210.536E-03    -104.955E-03    -105.564E-03    -104.359E-03     209.939E-03    -105.564E-03     27.3687E-03     92.1258E+06     65.5291E+06    -32.5063E+06    -32.4908E+06     83.3847E+06     74.2547E+06     887.490E+03         40.3773
             805     11.7025E-03     28.3986E-03     614.988E-03     513.356E-03        -1.69014     513.231E-03        -1.69002     614.988E-03     9.74063E-03     210.808E-03    -105.108E-03    -105.652E-03    -104.634E-03     210.334E-03    -105.652E-03     24.4220E-03     59.8656E+06     8.25276E+06    -40.5640E+06    -40.4378E+06     8.12653E+06     59.8656E+06    -461.673E+03         38.6402
             806     10.8024E-03     28.3714E-03     622.221E-03     540.768E-03        -1.72371     540.625E-03        -1.72357     622.221E-03    -9.43259E-03     210.925E-03    -105.165E-03    -105.715E-03    -104.772E-03     210.531E-03    -105.715E-03     22.2890E-03     50.4684E+06    -33.0917E+06    -48.4540E+06    -48.3247E+06    -33.2210E+06     50.4684E+06    -776.527E+03         37.6205
             807     9.90170E-03     28.3445E-03     629.228E-03     548.437E-03        -1.73597     548.230E-03        -1.73576     629.228E-03     7.48571E-03     210.867E-03    -105.076E-03    -105.767E-03    -104.740E-03     210.532E-03    -105.767E-03     20.5574E-03     40.4296E+06    -46.6114E+06    -66.3856E+06    -55.9189E+06    -57.0781E+06     40.4296E+06    -244.955E+03         37.1660
             808     9.00127E-03     28.3215E-03     636.754E-03     558.502E-03        -1.75239     558.240E-03        -1.75212     636.754E-03    -4.10459E-03     210.678E-03    -104.900E-03    -105.816E-03    -104.629E-03     210.407E-03    -105.816E-03     18.4805E-03     27.6527E+06    -64.0654E+06    -87.7195E+06    -64.1553E+06    -87.6296E+06     27.6527E+06    -450.716E+03         36.9406
             809     8.10005E-03     28.3019E-03     643.526E-03     590.909E-03        -1.78707     590.754E-03        -1.78692     643.526E-03    -8.14293E-03     210.554E-03    -104.816E-03    -105.857E-03    -104.596E-03     210.334E-03    -105.857E-03     16.6137E-03     14.2998E+06    -72.8603E+06    -109.863E+06    -72.9144E+06    -109.809E+06     14.2998E+06     54.7907E+03         36.7974
             810     7.19930E-03     28.2824E-03     648.314E-03     618.156E-03        -1.81839     617.472E-03        -1.81771     648.314E-03    -40.2394E-03     210.844E-03    -104.972E-03    -105.835E-03    -104.798E-03     210.670E-03    -105.835E-03     14.7665E-03    -3.69079E+06    -82.4365E+06    -139.020E+06    -82.4894E+06    -138.967E+06    -3.69079E+06     224.685E+03         36.6995
             811     6.29991E-03     28.2652E-03     652.356E-03     623.179E-03        -1.82996     622.199E-03        -1.82898     652.356E-03    -13.2821E-03     211.376E-03    -105.401E-03    -105.827E-03    -105.272E-03     211.246E-03    -105.827E-03     12.7591E-03    -21.7920E+06    -92.9737E+06    -175.017E+06    -92.9933E+06    -174.998E+06    -21.7920E+06    -45.1604E+03         36.6116
             812     5.39922E-03     28.2513E-03     661.545E-03     624.666E-03        -1.84141     628.878E-03        -1.84088     656.801E-03     13.2961E-03     211.399E-03    -105.624E-03    -105.853E-03    -105.532E-03     211.306E-03    -105.853E-03     10.7643E-03    -39.8262E+06    -103.894E+06    -206.292E+06    -103.894E+06    -206.292E+06    -39.8262E+06     103.522E+03         36.5549
             813     4.50013E-03     28.2394E-03     666.144E-03     633.723E-03        -1.85739     637.928E-03        -1.85685     661.399E-03     8.62763E-03     210.995E-03    -105.346E-03    -105.821E-03    -105.285E-03     210.934E-03    -105.821E-03     8.70544E-03    -63.1995E+06    -115.257E+06    -226.497E+06    -115.293E+06    -226.460E+06    -63.1995E+06     513.224E+03         36.4969
             814     3.59985E-03     28.2299E-03     675.567E-03     636.897E-03        -1.86754     645.450E-03        -1.86679     666.262E-03    -8.61619E-03     211.041E-03    -105.219E-03    -105.888E-03    -105.183E-03     211.005E-03    -105.888E-03     6.67839E-03    -89.7542E+06    -126.221E+06    -256.982E+06    -126.269E+06    -256.934E+06    -89.7542E+06     384.475E+03         36.4380
             815     2.69854E-03     28.2226E-03     683.847E-03     644.757E-03        -1.87823     653.812E-03        -1.87530     671.859E-03     67.2751E-03     211.429E-03    -105.503E-03    -105.930E-03    -105.483E-03     211.409E-03    -105.930E-03     4.97617E-03    -112.620E+06    -134.658E+06    -289.422E+06    -134.679E+06    -289.401E+06    -112.620E+06    -987.867E+03         36.4239
             816     1.79945E-03     28.2161E-03     689.568E-03     670.350E-03        -1.90839     659.245E-03        -1.88792     680.198E-03    -187.868E-03     211.611E-03    -105.674E-03    -105.907E-03    -105.663E-03     211.600E-03    -105.907E-03     3.55643E-03    -130.429E+06    -141.058E+06    -309.612E+06    -141.072E+06    -309.599E+06    -130.429E+06    -1.33195E+06         36.4223
             817     899.490E-06     28.2119E-03         1.43693     84.1471E-03        -2.07043    -59.6806E-03        -1.91991         1.43025     306.608E-03     211.771E-03    -105.603E-03    -106.160E-03    -106.025E-03     211.768E-03    -105.734E-03     1.79544E-03    -140.508E+06    -147.032E+06    -330.623E+06    -145.304E+06    -330.603E+06    -142.257E+06    -1.63741E+06         36.4149
             818     15.3070E-03     27.3113E-03     575.171E-03     429.754E-03        -1.56459     429.593E-03        -1.56443     575.171E-03     1.97245E-03     210.278E-03    -104.615E-03    -105.690E-03    -103.801E-03     209.463E-03    -105.690E-03     31.5095E-03     141.246E+06     127.019E+06    -9.49424E+06    -9.47868E+06     141.230E+06     127.019E+06     856.143E+03         48.1691
             819     14.4055E-03     27.2672E-03     583.467E-03     447.530E-03        -1.59141     447.422E-03        -1.59130     583.467E-03     15.3504E-03     210.682E-03    -105.063E-03    -105.630E-03    -104.182E-03     209.801E-03    -105.630E-03     33.0640E-03     130.570E+06     103.843E+06    -18.0573E+06    -18.0393E+06     130.552E+06     103.843E+06    -558.029E+03         45.6021
             820     13.5048E-03     27.2311E-03     591.826E-03     461.137E-03        -1.61093     461.083E-03        -1.61088     591.826E-03     7.91002E-03     210.521E-03    -104.939E-03    -105.558E-03    -104.288E-03     209.869E-03    -105.558E-03     28.6449E-03     121.956E+06     91.1339E+06    -25.1867E+06    -25.1719E+06     121.941E+06     91.1339E+06    -454.652E+03         42.7872
             821     12.6039E-03     27.1958E-03     600.402E-03     475.922E-03        -1.63787     475.836E-03        -1.63778     600.402E-03     9.28957E-03     210.537E-03    -104.966E-03    -105.535E-03    -104.394E-03     209.966E-03    -105.535E-03     26.7980E-03     93.3349E+06     67.3430E+06    -31.5063E+06    -31.4919E+06     84.4250E+06     76.2384E+06     128.093E+03         40.3749
             822     11.7031E-03     27.1654E-03     608.783E-03     501.162E-03        -1.67350     501.008E-03        -1.67335     608.783E-03     1.62263E-03     210.647E-03    -104.970E-03    -105.620E-03    -104.504E-03     210.181E-03    -105.620E-03     24.1993E-03     61.0965E+06     9.25487E+06    -38.6332E+06    -38.4353E+06     9.05693E+06     61.0965E+06    -216.828E+03         38.6366
             823     10.8021E-03     27.1368E-03     616.579E-03     524.715E-03        -1.69967     524.509E-03        -1.69946     616.579E-03     1.90662E-03     210.762E-03    -105.027E-03    -105.689E-03    -104.632E-03     210.367E-03    -105.689E-03     22.3067E-03     50.9215E+06    -33.1512E+06    -46.9406E+06    -46.7290E+06    -33.3629E+06     50.9215E+06    -398.001E+03         37.6142
             824     9.90198E-03     27.1112E-03     623.752E-03     547.156E-03        -1.72926     547.045E-03        -1.72915     623.752E-03     475.228E-06     210.645E-03    -104.867E-03    -105.753E-03    -104.535E-03     210.313E-03    -105.753E-03     20.4278E-03     40.4189E+06    -47.3236E+06    -65.8321E+06    -55.7852E+06    -57.3705E+06     40.4189E+06    -641.978E+03         37.1575
             825     9.00062E-03     27.0887E-03     629.902E-03     573.923E-03        -1.76217     573.862E-03        -1.76211     629.902E-03    -16.5705E-03     210.581E-03    -104.831E-03    -105.816E-03    -104.563E-03     210.314E-03    -105.816E-03     18.3270E-03     26.8421E+06    -64.9402E+06    -87.8547E+06    -65.0023E+06    -87.7925E+06     26.8421E+06    -616.042E+03         36.9340
             826     8.10025E-03     27.0671E-03     635.184E-03     587.768E-03        -1.77812     587.660E-03        -1.77801     635.184E-03    -5.98479E-03     210.785E-03    -105.126E-03    -105.856E-03    -104.913E-03     210.573E-03    -105.856E-03     16.3564E-03     13.8670E+06    -74.5962E+06    -110.928E+06    -74.6135E+06    -110.911E+06     13.8670E+06    -330.294E+03         36.7959
             827     7.20038E-03     27.0490E-03     640.594E-03     593.783E-03        -1.78861     593.539E-03        -1.78836     640.594E-03    -18.4688E-03     210.945E-03    -105.152E-03    -105.799E-03    -104.984E-03     210.777E-03    -105.799E-03     14.5427E-03    -3.49941E+06    -85.6295E+06    -140.039E+06    -85.7184E+06    -139.951E+06    -3.49941E+06     1.26931E+06         36.6976
             828     6.29901E-03     27.0310E-03     646.013E-03     609.669E-03        -1.81098     609.137E-03        -1.81045     646.013E-03     11.2561E-03     211.096E-03    -105.173E-03    -105.761E-03    -105.044E-03     210.966E-03    -105.761E-03     12.7647E-03    -25.3012E+06    -97.5708E+06    -173.429E+06    -97.6547E+06    -173.345E+06    -25.3012E+06     1.37829E+06         36.6028
             829     5.40002E-03     27.0167E-03     654.230E-03     634.088E-03        -1.84720     637.964E-03        -1.84634     649.486E-03    -10.8889E-03     211.210E-03    -105.443E-03    -105.805E-03    -105.350E-03     211.117E-03    -105.805E-03     10.8028E-03    -45.0532E+06    -108.094E+06    -206.342E+06    -108.103E+06    -206.332E+06    -45.0532E+06    -464.204E+03         36.5431
             830     4.49948E-03     27.0055E-03     655.913E-03     639.472E-03        -1.85754     643.114E-03        -1.85644     651.169E-03     2.17729E-03     211.161E-03    -105.498E-03    -105.784E-03    -105.435E-03     211.098E-03    -105.784E-03     8.93214E-03    -64.1172E+06    -116.568E+06    -227.742E+06    -116.610E+06    -227.701E+06    -64.1172E+06     207.834E+03         36.4871
             831     3.59942E-03     26.9964E-03     656.399E-03     621.616E-03        -1.83874     620.442E-03        -1.83756     656.399E-03    -656.789E-06     211.350E-03    -105.536E-03    -105.856E-03    -105.571E-03     211.309E-03    -105.781E-03     7.07266E-03     -87.215E+06    -125.143E+06    -255.374E+06    -125.195E+06    -255.322E+06     -87.215E+06     862.730E+03         36.4303
             832     2.70081E-03     26.9882E-03     668.031E-03     630.765E-03        -1.85125     624.680E-03        -1.84517     668.031E-03     108.876E-03     211.327E-03    -105.559E-03    -105.777E-03    -105.651E-03     211.306E-03    -105.664E-03     5.03371E-03    -110.748E+06    -134.395E+06    -288.221E+06    -134.418E+06    -288.198E+06    -110.748E+06    -298.203E+03         36.4153
             833     1.80010E-03     26.9821E-03     692.462E-03     669.399E-03        -1.91165     655.901E-03        -1.88724     681.553E-03    -148.876E-03     210.949E-03    -105.380E-03    -105.559E-03    -105.408E-03     210.939E-03    -105.520E-03     3.56124E-03    -130.463E+06    -142.472E+06    -310.628E+06    -142.482E+06    -310.618E+06    -130.463E+06    -1.29104E+06         36.4044
             834     899.812E-06     26.9778E-03         1.37677     159.233E-03        -2.08031     9.91768E-03        -1.92009         1.36587     345.365E-03     211.004E-03    -105.206E-03    -105.795E-03    -105.384E-03     211.000E-03    -105.612E-03     2.18205E-03    -142.864E+06    -148.654E+06    -333.273E+06    -146.927E+06    -333.250E+06    -144.613E+06    -1.68615E+06         36.3838
             835     15.3066E-03     26.0767E-03     566.708E-03     422.691E-03        -1.55041     422.375E-03        -1.55010     566.708E-03    -15.8629E-03     210.597E-03    -104.927E-03    -105.692E-03    -104.121E-03     209.785E-03    -105.686E-03     31.5835E-03     141.586E+06     128.006E+06    -8.51625E+06    -8.48384E+06     141.553E+06     128.006E+06     1.44127E+06         48.1693
             836     14.4064E-03     26.0318E-03     574.734E-03     444.373E-03        -1.57788     444.328E-03        -1.57783     574.734E-03     256.604E-06     210.936E-03    -105.340E-03    -105.607E-03    -104.480E-03     210.069E-03    -105.601E-03     32.8401E-03     131.459E+06     105.296E+06    -16.7343E+06    -16.6982E+06     131.423E+06     105.296E+06     79.3069E+03         45.6048
             837     13.5055E-03     25.9958E-03     582.757E-03     455.900E-03        -1.59796     455.876E-03        -1.59793     582.757E-03    -10.2655E-03     210.507E-03    -104.993E-03    -105.507E-03    -104.340E-03     209.854E-03    -105.507E-03     28.6864E-03     122.402E+06     90.3604E+06    -24.5820E+06    -24.5027E+06     122.323E+06     90.3604E+06    -1.18288E+06         42.7900
             838     12.6047E-03     25.9608E-03     590.821E-03     475.927E-03        -1.63014     475.820E-03        -1.63003     590.821E-03    -21.4742E-03     210.398E-03    -104.888E-03    -105.484E-03    -104.320E-03     209.830E-03    -105.484E-03     26.6945E-03     92.6935E+06     64.4277E+06    -31.5820E+06    -31.5208E+06     82.8081E+06     74.2519E+06    -1.36142E+06         40.3759
             839     11.7037E-03     25.9309E-03     598.554E-03     497.300E-03        -1.65955     497.140E-03        -1.65939     598.554E-03    -7.82622E-03     210.573E-03    -104.909E-03    -105.572E-03    -104.453E-03     210.117E-03    -105.572E-03     23.9507E-03     60.6406E+06     8.92458E+06    -38.9907E+06    -38.9005E+06     8.83433E+06     60.6406E+06     506.928E+03         38.6353
             840     10.8030E-03     25.9025E-03     605.915E-03     516.321E-03        -1.68371     516.194E-03        -1.68358     605.915E-03     18.9807E-03     210.504E-03    -104.781E-03    -105.648E-03    -104.402E-03     210.125E-03    -105.648E-03     21.8252E-03     50.7771E+06    -32.3219E+06    -47.5006E+06    -47.3976E+06    -32.4249E+06     50.7771E+06     284.291E+03         37.6105
             841     9.90145E-03     25.8783E-03     612.473E-03     544.084E-03        -1.71769     543.998E-03        -1.71761     612.473E-03     12.6273E-03     210.542E-03    -104.788E-03    -105.718E-03    -104.477E-03     210.231E-03    -105.718E-03     19.7809E-03     40.5256E+06    -48.0167E+06    -65.8736E+06    -56.3426E+06    -57.5477E+06     40.5256E+06    -219.952E+03         37.1522
             842     9.00131E-03     25.8541E-03     617.715E-03     569.250E-03        -1.74783     569.200E-03        -1.74779     617.715E-03     7.86356E-03     210.708E-03    -104.995E-03    -105.769E-03    -104.741E-03     210.454E-03    -105.769E-03     17.8918E-03     26.6807E+06    -65.5216E+06    -87.5540E+06    -65.5383E+06    -87.5372E+06     26.6807E+06    -314.072E+03         36.9286
             843     8.10061E-03     25.8328E-03     622.415E-03     576.825E-03        -1.75824     576.748E-03        -1.75817     622.415E-03     10.8739E-03     210.705E-03    -105.112E-03    -105.788E-03    -104.908E-03     210.501E-03    -105.788E-03     16.0325E-03     12.0997E+06    -75.1778E+06    -111.745E+06    -75.1947E+06    -111.729E+06     12.0997E+06    -364.124E+03         36.7890
             844     7.20014E-03     25.8139E-03     627.593E-03     582.105E-03        -1.76580     581.803E-03        -1.76550     627.593E-03    -22.6212E-03     210.904E-03    -105.177E-03    -105.749E-03    -105.015E-03     210.743E-03    -105.749E-03     14.2612E-03    -2.04160E+06    -84.0991E+06    -142.940E+06    -84.1778E+06    -142.862E+06    -2.04160E+06     1.06381E+06         36.6870
             845     6.30093E-03     25.7976E-03     632.735E-03     598.426E-03        -1.78558     598.013E-03        -1.78517     632.735E-03    -5.45491E-03     210.933E-03    -105.080E-03    -105.723E-03    -104.957E-03     210.810E-03    -105.723E-03     12.4466E-03    -19.7956E+06    -93.1366E+06    -171.807E+06    -93.2731E+06    -171.671E+06    -19.7956E+06     2.09777E+06         36.5870
             846     5.39926E-03     25.7827E-03     637.718E-03     606.199E-03        -1.79979     605.594E-03        -1.79919     637.718E-03    -17.8873E-03     210.833E-03    -105.107E-03    -105.762E-03    -105.019E-03     210.745E-03    -105.762E-03     10.5192E-03    -42.8539E+06    -104.629E+06    -203.493E+06    -104.698E+06    -203.424E+06    -42.8539E+06     411.497E+03         36.5234
             847     4.49961E-03     25.7717E-03     643.381E-03     613.219E-03        -1.81395     612.358E-03        -1.81309     643.381E-03     306.305E-06     211.117E-03    -105.453E-03    -105.759E-03    -105.392E-03     211.056E-03    -105.759E-03     8.73771E-03    -65.2322E+06    -116.240E+06    -229.349E+06    -116.259E+06    -229.331E+06    -65.2322E+06    -1.35794E+06         36.4694
             848     3.60022E-03     25.7610E-03     658.267E-03     628.261E-03        -1.84452     637.198E-03        -1.84293     647.746E-03    -31.3530E-03     211.419E-03    -105.610E-03    -105.834E-03    -105.644E-03     211.378E-03    -105.759E-03     7.15305E-03    -85.8406E+06    -126.131E+06    -255.935E+06    -126.154E+06    -255.913E+06    -85.8406E+06    -223.577E+03         36.4176
             849     2.69998E-03     25.7548E-03     676.303E-03     636.594E-03        -1.87461     660.226E-03        -1.86869     646.757E-03     70.7674E-03     211.368E-03    -105.515E-03    -105.845E-03    -105.720E-03     211.345E-03    -105.616E-03     5.38684E-03    -107.140E+06    -134.290E+06    -286.741E+06    -134.307E+06    -286.725E+06    -107.140E+06     447.791E+03         36.4046
             850     1.80058E-03     25.7499E-03     689.678E-03     634.443E-03        -1.88346     667.211E-03        -1.86330     636.749E-03    -132.399E-03     210.891E-03    -105.325E-03    -105.550E-03    -105.516E-03     210.878E-03    -105.346E-03     3.88315E-03    -128.669E+06    -141.574E+06    -310.508E+06    -141.582E+06    -310.501E+06    -128.669E+06    -106.036E+03         36.3889
             851     900.476E-06     25.7449E-03         1.28396     172.772E-03        -2.00081     8.32525E-03        -1.80246         1.25005     454.177E-03     210.464E-03    -104.987E-03    -105.477E-03    -105.032E-03     210.459E-03    -105.428E-03     2.40305E-03    -144.681E+06    -148.930E+06    -335.804E+06    -148.409E+06    -335.794E+06    -145.212E+06     351.423E+03         36.3579
             852     15.3078E-03     24.8419E-03     555.211E-03     399.962E-03        -1.52299     399.480E-03        -1.52250     555.211E-03    -20.3115E-03     210.832E-03    -105.162E-03    -105.676E-03    -104.358E-03     210.021E-03    -105.670E-03     31.5008E-03     141.588E+06     129.507E+06    -7.58330E+06    -7.56051E+06     141.428E+06     129.644E+06     1.01021E+06         48.1751
             853     14.4064E-03     24.7967E-03     563.703E-03     425.461E-03        -1.55410     425.351E-03        -1.55399     563.703E-03     7.99719E-03     210.823E-03    -105.262E-03    -105.577E-03    -104.398E-03     209.952E-03    -105.571E-03     32.8901E-03     132.436E+06     106.412E+06    -15.0511E+06    -15.0304E+06     132.416E+06     106.412E+06     538.558E+03         45.6122
             854     13.5059E-03     24.7629E-03     571.523E-03     455.001E-03        -1.58802     454.971E-03        -1.58799     571.523E-03    -14.6561E-03     210.492E-03    -105.040E-03    -105.470E-03    -104.391E-03     209.844E-03    -105.470E-03     28.5760E-03     123.441E+06     89.7214E+06    -23.0341E+06    -22.9518E+06     123.359E+06     89.7214E+06     125.065E+03         42.7965
             855     12.6049E-03     24.7279E-03     578.781E-03     474.519E-03        -1.61181     474.367E-03        -1.61165     578.781E-03    -29.9942E-03     210.475E-03    -105.039E-03    -105.439E-03    -104.476E-03     209.912E-03    -105.439E-03     26.5768E-03     92.0397E+06     61.5613E+06    -32.6013E+06    -32.5158E+06     80.8016E+06     72.7138E+06    -804.494E+03         40.3804
             856     11.7043E-03     24.6967E-03     585.752E-03     492.822E-03        -1.63919     492.660E-03        -1.63903     585.752E-03    -28.6826E-03     210.662E-03    -105.063E-03    -105.512E-03    -104.621E-03     210.220E-03    -105.512E-03     23.5667E-03     60.3620E+06     8.28026E+06    -40.6460E+06    -40.6004E+06     8.23472E+06     60.3620E+06     195.710E+03         38.6374
             857     10.8036E-03     24.6695E-03     591.826E-03     524.455E-03        -1.67994     524.378E-03        -1.67987     591.826E-03    -19.5781E-03     210.565E-03    -104.926E-03    -105.562E-03    -104.573E-03     210.212E-03    -105.562E-03     21.0607E-03     50.9283E+06    -31.6476E+06    -47.5291E+06    -47.4512E+06    -31.7255E+06     50.9283E+06     33.0742E+03         37.6096
             858     9.90300E-03     24.6441E-03     596.718E-03     544.142E-03        -1.70217     544.064E-03        -1.70209     596.718E-03    -12.9787E-03     210.521E-03    -104.867E-03    -105.609E-03    -104.578E-03     210.231E-03    -105.609E-03     19.0819E-03     41.1681E+06    -47.5957E+06    -64.4554E+06    -54.9988E+06    -57.0523E+06     41.1681E+06    -561.189E+03         37.1477
             859     9.00207E-03     24.6200E-03     601.655E-03     544.881E-03        -1.70611     544.684E-03        -1.70591     601.655E-03    -8.90389E-03     210.577E-03    -104.948E-03    -105.657E-03    -104.710E-03     210.339E-03    -105.657E-03     17.2765E-03     28.2675E+06    -63.4627E+06    -87.9405E+06    -63.4736E+06    -87.9297E+06     28.2675E+06    -196.694E+03         36.9184
             860     8.10199E-03     24.5995E-03     607.120E-03     555.243E-03        -1.72137     555.009E-03        -1.72114     607.120E-03     3.92022E-03     210.478E-03    -104.933E-03    -105.663E-03    -104.744E-03     210.289E-03    -105.663E-03     15.4098E-03     13.0572E+06    -72.9015E+06    -112.006E+06    -72.9118E+06    -111.996E+06     13.0572E+06     119.138E+03         36.7709
             861     7.20134E-03     24.5793E-03     612.191E-03     573.960E-03        -1.74379     573.380E-03        -1.74321     612.191E-03    -34.1097E-03     210.540E-03    -104.879E-03    -105.630E-03    -104.727E-03     210.388E-03    -105.630E-03     13.8275E-03    -2.52737E+06    -82.8998E+06    -143.480E+06    -82.9208E+06    -143.459E+06    -2.52737E+06    -393.431E+03         36.6642
             862     6.30030E-03     24.5633E-03     616.627E-03     586.031E-03        -1.76012     585.376E-03        -1.75946     616.627E-03    -25.2628E-03     210.737E-03    -104.959E-03    -105.645E-03    -104.842E-03     210.620E-03    -105.645E-03     12.1115E-03    -17.4959E+06    -92.3991E+06    -174.561E+06    -92.4743E+06    -174.485E+06    -17.4959E+06     562.221E+03         36.5631
             863     5.40087E-03     24.5501E-03     621.406E-03     588.781E-03        -1.76631     588.469E-03        -1.76600     621.406E-03    -5.15420E-03     210.731E-03    -105.097E-03    -105.681E-03    -105.013E-03     210.646E-03    -105.681E-03     10.3129E-03    -37.3027E+06    -102.061E+06    -201.042E+06    -102.249E+06    -200.854E+06    -37.3027E+06     2.73695E+06         36.4968
             864     4.49996E-03     24.5372E-03     627.048E-03     596.785E-03        -1.78086     596.056E-03        -1.78013     627.048E-03     20.8571E-03     210.758E-03    -105.215E-03    -105.664E-03    -105.156E-03     210.700E-03    -105.664E-03     8.53736E-03    -63.7843E+06    -115.333E+06    -227.894E+06    -115.476E+06    -227.752E+06    -63.7843E+06     1.68316E+06         36.4409
             865     3.59978E-03     24.5282E-03     642.052E-03     609.792E-03        -1.81372     618.837E-03        -1.81224     631.531E-03    -13.4978E-03     210.994E-03    -105.347E-03    -105.668E-03    -105.312E-03     210.958E-03    -105.668E-03     6.59882E-03    -89.8284E+06    -127.685E+06    -256.019E+06    -127.708E+06    -255.996E+06    -89.8284E+06    -669.144E+03         36.3910
             866     2.70000E-03     24.5204E-03     661.225E-03     612.962E-03        -1.83906     639.514E-03        -1.83606     631.680E-03     37.3912E-03     211.158E-03    -105.437E-03    -105.707E-03    -105.533E-03     211.139E-03    -105.592E-03     4.82802E-03    -111.704E+06    -136.354E+06    -286.790E+06    -136.382E+06    -286.762E+06    -111.704E+06    -1.41089E+06         36.3821
             867     1.80012E-03     24.5151E-03     674.290E-03     614.390E-03        -1.85215     640.076E-03        -1.83069     627.141E-03    -209.652E-03     210.967E-03    -105.358E-03    -105.588E-03    -105.557E-03     210.957E-03    -105.379E-03     3.39865E-03    -129.440E+06    -143.503E+06    -311.918E+06    -143.529E+06    -311.892E+06    -129.440E+06     100.119E+03         36.3713
             868     900.278E-06     24.5135E-03         1.23861     193.912E-03        -1.99192     37.5529E-03        -1.80743         1.21049     403.043E-03     210.484E-03    -105.064E-03    -105.412E-03    -105.276E-03     210.480E-03    -105.196E-03     2.23113E-03    -143.132E+06    -148.334E+06    -334.451E+06    -147.749E+06    -334.437E+06    -143.731E+06     1.62308E+06         36.3430
             869     15.3081E-03     23.6085E-03     540.290E-03     400.641E-03        -1.50923     400.458E-03        -1.50905     540.290E-03     405.386E-06     210.973E-03    -105.271E-03    -105.697E-03    -104.505E-03     210.161E-03    -105.652E-03     31.4556E-03     141.030E+06     129.926E+06    -7.15300E+06    -7.14771E+06     140.888E+06     130.063E+06     436.067E+03         48.1866
             870     14.4071E-03     23.5630E-03     548.207E-03     409.030E-03        -1.52767     408.902E-03        -1.52754     548.207E-03     17.9465E-03     210.862E-03    -105.294E-03    -105.583E-03    -104.461E-03     209.985E-03    -105.538E-03     32.9922E-03     131.651E+06     106.813E+06    -14.5211E+06    -14.5138E+06     131.643E+06     106.813E+06     584.339E+03         45.6245
             871     13.5061E-03     23.5273E-03     555.891E-03     439.516E-03        -1.55974     439.451E-03        -1.55968     555.891E-03     3.92606E-03     210.656E-03    -105.212E-03    -105.459E-03    -104.610E-03     210.029E-03    -105.434E-03     28.1065E-03     123.676E+06     91.5583E+06    -22.5650E+06    -22.5406E+06     123.651E+06     91.5583E+06     1.34686E+06         42.8081
             872     12.6058E-03     23.4931E-03     562.745E-03     465.539E-03        -1.58934     465.457E-03        -1.58926     562.745E-03    -9.77591E-03     210.697E-03    -105.267E-03    -105.445E-03    -104.786E-03     210.162E-03    -105.391E-03     25.9198E-03     93.3660E+06     64.3268E+06    -30.6393E+06    -30.5861E+06     82.3431E+06     75.2964E+06     1.05112E+06         40.3899
             873     11.7051E-03     23.4629E-03     568.793E-03     489.584E-03        -1.61879     489.500E-03        -1.61870     568.793E-03    -18.0488E-03     210.808E-03    -105.286E-03    -105.460E-03    -104.900E-03     210.393E-03    -105.431E-03     22.8453E-03     61.1394E+06     8.23997E+06    -39.0466E+06    -38.7961E+06     7.98944E+06     61.1394E+06    -459.963E+03         38.6435
             874     10.8052E-03     23.4357E-03     573.971E-03     511.959E-03        -1.64415     511.853E-03        -1.64404     573.971E-03    -8.08796E-03     210.760E-03    -105.242E-03    -105.467E-03    -104.940E-03     210.427E-03    -105.437E-03     20.4895E-03     51.5548E+06    -30.7612E+06    -46.9825E+06    -46.6950E+06    -31.0487E+06     51.5548E+06    -619.084E+03         37.6112
             875     9.90456E-03     23.4101E-03     578.833E-03     519.753E-03        -1.65722     519.506E-03        -1.65698     578.833E-03     13.9572E-03     210.612E-03    -105.097E-03    -105.466E-03    -104.856E-03     210.341E-03    -105.435E-03     18.4566E-03     40.7665E+06    -46.3371E+06    -65.9364E+06    -55.2534E+06    -57.0201E+06     40.7665E+06    -676.271E+03         37.1425
             876     9.00430E-03     23.3871E-03     584.128E-03     525.164E-03        -1.66776     524.844E-03        -1.66744     584.128E-03    -7.30792E-03     210.256E-03    -104.822E-03    -105.466E-03    -104.605E-03     210.039E-03    -105.466E-03     16.5076E-03     27.5532E+06    -64.4513E+06    -89.4289E+06    -64.5005E+06    -89.3797E+06     27.5532E+06    -205.020E+03         36.9024
             877     8.10296E-03     23.3653E-03     589.260E-03     544.536E-03        -1.69262     544.356E-03        -1.69244     589.260E-03    -14.1165E-03     210.055E-03    -104.701E-03    -105.480E-03    -104.527E-03     209.880E-03    -105.480E-03     14.7789E-03     13.1237E+06    -74.0734E+06    -112.118E+06    -74.0962E+06    -112.095E+06     13.1237E+06     852.100E+03         36.7435
             878     7.20254E-03     23.3471E-03     593.252E-03     564.708E-03        -1.71711     564.335E-03        -1.71673     593.252E-03    -29.6107E-03     210.119E-03    -104.655E-03    -105.448E-03    -104.521E-03     209.984E-03    -105.448E-03     12.9534E-03    -4.33803E+06    -84.9677E+06    -141.755E+06    -85.0006E+06    -141.722E+06    -4.33803E+06     312.596E+03         36.6309
             879     6.30186E-03     23.3302E-03     596.527E-03     572.417E-03        -1.72722     571.795E-03        -1.72660     596.527E-03    -3.48196E-03     210.319E-03    -104.742E-03    -105.450E-03    -104.642E-03     210.219E-03    -105.450E-03     11.2131E-03    -21.5864E+06    -96.3156E+06    -176.395E+06    -96.3399E+06    -176.371E+06    -21.5864E+06    -402.795E+03         36.5278
             880     5.40085E-03     23.3156E-03     599.405E-03     583.046E-03        -1.74376     582.625E-03        -1.74334     599.405E-03     7.57826E-03     210.488E-03    -105.057E-03    -105.471E-03    -104.984E-03     210.415E-03    -105.471E-03     9.51943E-03    -39.1245E+06    -106.303E+06    -203.391E+06    -106.434E+06    -203.261E+06    -39.1245E+06     1.77573E+06         36.4583
             881     4.50124E-03     23.3036E-03     601.261E-03     595.767E-03        -1.75844     595.355E-03        -1.75789     601.119E-03     10.4973E-03     210.346E-03    -105.024E-03    -105.442E-03    -104.976E-03     210.298E-03    -105.442E-03     7.63094E-03    -61.6078E+06    -115.625E+06    -224.364E+06    -115.776E+06    -224.213E+06    -61.6078E+06     3.12583E+06         36.3973
             882     3.60076E-03     23.2933E-03     603.559E-03     589.057E-03        -1.75094     587.894E-03        -1.74964     603.417E-03    -23.2119E-03     210.365E-03    -104.931E-03    -105.455E-03    -104.904E-03     210.339E-03    -105.455E-03     5.74317E-03    -89.1545E+06    -125.377E+06    -253.371E+06    -125.408E+06    -253.340E+06    -89.1545E+06     814.761E+03         36.3452
             883     2.70066E-03     23.2873E-03     612.198E-03     575.177E-03        -1.74359     570.142E-03        -1.73856     612.198E-03     73.3775E-03     210.595E-03    -105.152E-03    -105.432E-03    -105.137E-03     210.580E-03    -105.432E-03     4.35306E-03    -115.062E+06    -134.852E+06    -287.939E+06    -134.888E+06    -287.903E+06    -115.062E+06    -548.063E+03         36.3393
             884     1.80025E-03     23.2820E-03     631.770E-03     603.431E-03        -1.79499     581.031E-03        -1.77258     631.770E-03    -164.453E-03     210.690E-03    -105.272E-03    -105.398E-03    -105.308E-03     210.682E-03    -105.354E-03     2.99505E-03    -132.987E+06    -142.184E+06    -313.613E+06    -142.161E+06    -313.568E+06    -133.055E+06    -544.302E+03         36.3378
             885     900.270E-06     23.2792E-03         1.18073     289.675E-03        -2.03217     107.807E-03        -1.85030         1.18073     476.004E-03     210.582E-03    -105.105E-03    -105.473E-03    -105.269E-03     210.580E-03    -105.307E-03     1.82738E-03    -141.914E+06    -145.766E+06    -332.667E+06    -145.654E+06    -332.643E+06    -142.050E+06    -316.466E+03         36.3219
             886     15.3077E-03     22.3730E-03     522.801E-03     407.710E-03        -1.49071     407.694E-03        -1.49069     522.801E-03    -2.76250E-03     211.215E-03    -105.348E-03    -105.866E-03    -104.789E-03     210.420E-03    -105.631E-03     31.1590E-03     140.499E+06     128.962E+06    -8.13357E+06    -8.13200E+06     140.497E+06     128.962E+06    -326.176E+03         48.2057
             887     14.4075E-03     22.3272E-03     528.969E-03     420.390E-03        -1.51395     420.344E-03        -1.51390     528.969E-03     11.1738E-03     211.276E-03    -105.459E-03    -105.831E-03    -104.929E-03     210.414E-03    -105.499E-03     32.7366E-03     130.591E+06     108.014E+06    -15.5448E+06    -15.5380E+06     130.585E+06     108.014E+06     513.629E+03         45.6447
             888     13.5073E-03     22.2924E-03     535.182E-03     431.143E-03        -1.53243     431.096E-03        -1.53238     535.182E-03     15.2848E-03     210.964E-03    -105.333E-03    -105.631E-03    -104.984E-03     210.358E-03    -105.374E-03     27.6630E-03     122.874E+06     93.3131E+06    -23.1932E+06    -23.1774E+06     122.858E+06     93.3131E+06     1.33594E+06         42.8275
             889     12.6069E-03     22.2583E-03     541.099E-03     454.626E-03        -1.55979     454.607E-03        -1.55977     541.099E-03     10.1046E-03     210.912E-03    -105.297E-03    -105.621E-03    -105.118E-03     210.408E-03    -105.297E-03     25.1662E-03     93.5537E+06     67.1241E+06    -30.2237E+06    -30.1906E+06     84.5194E+06     76.1252E+06     1.07160E+06         40.4062
             890     11.7069E-03     22.2282E-03     546.139E-03     479.345E-03        -1.58405     479.323E-03        -1.58403     546.139E-03    -1.53597E-03     210.966E-03    -105.289E-03    -105.624E-03    -105.234E-03     210.582E-03    -105.295E-03     21.9718E-03     61.3248E+06     9.54936E+06    -37.8596E+06    -37.5333E+06     9.22310E+06     61.3248E+06     62.7734E+03         38.6547
             891     10.8064E-03     22.2006E-03     550.895E-03     484.901E-03        -1.59120     484.788E-03        -1.59109     550.895E-03     13.8812E-03     210.855E-03    -105.254E-03    -105.562E-03    -105.250E-03     210.549E-03    -105.260E-03     19.6196E-03     51.4265E+06    -31.2143E+06    -46.7873E+06    -46.4654E+06    -31.5363E+06     51.4265E+06     38.7358E+03         37.6152
             892     9.90666E-03     22.1749E-03     556.220E-03     488.518E-03        -1.60119     488.263E-03        -1.60094     556.220E-03     36.6912E-03     210.633E-03    -105.166E-03    -105.418E-03    -105.128E-03     210.391E-03    -105.215E-03     17.3865E-03     40.3392E+06    -45.9890E+06    -67.1139E+06    -55.7505E+06    -57.3524E+06     40.3392E+06     421.118E+03         37.1376
             893     9.00631E-03     22.1526E-03     561.423E-03     509.656E-03        -1.63016     509.494E-03        -1.63000     561.423E-03     13.8501E-03     210.163E-03    -104.913E-03    -105.261E-03    -104.792E-03     209.977E-03    -105.196E-03     15.2668E-03     26.4319E+06    -65.6779E+06    -90.0935E+06    -65.7687E+06    -90.0026E+06     26.4319E+06     425.365E+03         36.8861
             894     8.10560E-03     22.1314E-03     565.526E-03     530.150E-03        -1.65560     530.127E-03        -1.65557     565.526E-03     5.35879E-03     209.659E-03    -104.601E-03    -105.179E-03    -104.455E-03     209.513E-03    -105.179E-03     13.4822E-03     11.7371E+06    -75.6714E+06    -112.621E+06    -75.6884E+06    -112.604E+06     11.7371E+06      526.37E+03         36.7141
             895     7.20444E-03     22.1122E-03     568.793E-03     541.332E-03        -1.67283     541.190E-03        -1.67269     568.793E-03    -15.6341E-03     209.712E-03    -104.587E-03    -105.129E-03    -104.480E-03     209.605E-03    -105.129E-03     11.5151E-03    -4.23967E+06    -84.3758E+06    -140.532E+06    -84.3887E+06    -140.519E+06    -4.23967E+06     486.261E+03         36.5907
             896     6.30403E-03     22.0966E-03     571.565E-03     552.065E-03        -1.68708     551.754E-03        -1.68676     571.565E-03     246.236E-06     209.925E-03    -104.711E-03    -105.097E-03    -104.647E-03     209.847E-03    -105.084E-03     9.79194E-03    -20.8640E+06    -94.0217E+06    -175.815E+06    -94.0393E+06    -175.798E+06    -20.8640E+06      531.94E+03         36.4799
             897     5.40370E-03     22.0813E-03     573.937E-03     559.347E-03        -1.69354     558.756E-03        -1.69294     573.937E-03    -15.2697E-03     209.709E-03    -104.687E-03    -105.079E-03    -104.646E-03     209.656E-03    -105.066E-03     8.15601E-03    -40.5741E+06    -105.501E+06    -205.848E+06    -105.512E+06    -205.837E+06    -40.5741E+06     532.770E+03         36.4013
             898     4.50294E-03     22.0690E-03     575.996E-03     567.294E-03        -1.70437     566.887E-03        -1.70382     575.855E-03    -15.4125E-03     209.430E-03    -104.515E-03    -105.040E-03    -104.480E-03     209.395E-03    -105.040E-03     6.58335E-03    -62.5294E+06    -115.066E+06    -222.755E+06    -115.088E+06    -222.733E+06    -62.5294E+06     452.104E+03         36.3316
             899     3.60234E-03     22.0608E-03     585.009E-03     571.685E-03        -1.71337     579.676E-03        -1.71247     576.120E-03    -20.3804E-03     209.518E-03    -104.432E-03    -105.111E-03    -104.410E-03     209.496E-03    -105.111E-03     5.21758E-03    -87.1020E+06    -123.721E+06    -252.646E+06    -123.759E+06    -252.608E+06    -87.1020E+06     1.21137E+06         36.2757
             900     2.70086E-03     22.0524E-03     603.976E-03     556.345E-03        -1.70964     579.750E-03        -1.70372     574.649E-03     108.776E-03     209.837E-03    -104.661E-03    -105.154E-03    -104.648E-03     209.824E-03    -105.154E-03     3.91018E-03    -110.728E+06    -132.134E+06    -287.489E+06    -132.170E+06    -287.453E+06    -110.728E+06     2.20756E+06         36.2696
             901     1.80068E-03     22.0496E-03     610.731E-03     559.147E-03        -1.72127     570.147E-03        -1.69628     574.735E-03    -146.731E-03     210.110E-03    -104.906E-03    -105.159E-03    -104.900E-03     210.104E-03    -105.159E-03     2.60934E-03    -129.075E+06    -138.696E+06    -311.122E+06    -138.663E+06    -311.087E+06    -129.143E+06     920.252E+03         36.2733
             902     900.070E-06     22.0461E-03         1.06654     270.321E-03        -1.89489     100.227E-03        -1.70938         1.05113     447.984E-03     210.288E-03    -104.945E-03    -105.337E-03    -105.053E-03     210.286E-03    -105.226E-03     1.42325E-03    -141.108E+06    -145.445E+06    -333.177E+06    -144.505E+06    -333.156E+06    -142.069E+06    -595.735E+03         36.2674
             903     15.3083E-03     21.1383E-03     502.969E-03     402.692E-03        -1.46670     402.435E-03        -1.46644     502.969E-03    -19.5668E-03     211.682E-03    -105.485E-03    -106.203E-03    -105.326E-03     210.914E-03    -105.593E-03     30.7542E-03     140.519E+06     128.525E+06    -8.95616E+06    -8.95433E+06     140.517E+06     128.525E+06    -10.0757E+03         48.2363
             904     14.4086E-03     21.0931E-03     507.724E-03     428.206E-03        -1.49720     428.175E-03        -1.49717     507.724E-03     8.70435E-03     211.731E-03    -105.432E-03    -106.304E-03    -105.481E-03     210.908E-03    -105.432E-03     32.0579E-03     129.615E+06     106.730E+06    -17.1410E+06    -17.1371E+06     129.611E+06     106.730E+06    -95.5759E+03         45.6767
             905     13.5083E-03     21.0579E-03     511.971E-03     438.615E-03        -1.50991     438.583E-03        -1.50988     511.971E-03    -1.55617E-03     211.290E-03    -105.270E-03    -106.026E-03    -105.445E-03     210.710E-03    -105.270E-03     27.1062E-03     122.172E+06      92.211E+06    -23.6503E+06    -23.6371E+06     122.158E+06      92.211E+06     59.1350E+03         42.8579
             906     12.6088E-03     21.0250E-03     516.387E-03     443.361E-03        -1.51723     443.201E-03        -1.51707     516.387E-03    -17.7486E-03     211.229E-03    -105.153E-03    -106.074E-03    -105.605E-03     210.759E-03    -105.153E-03     24.3074E-03     93.6832E+06     67.2027E+06    -30.7133E+06    -30.6715E+06     85.2503E+06     75.5938E+06     674.934E+03         40.4317
             907     11.7088E-03     20.9947E-03     521.200E-03     448.397E-03        -1.52715     448.170E-03        -1.52692     521.200E-03    -29.1570E-03     211.290E-03    -105.093E-03    -106.145E-03    -105.802E-03     210.948E-03    -105.093E-03     20.7765E-03     61.0553E+06     10.4295E+06    -38.8463E+06    -38.7062E+06     10.2894E+06     61.0553E+06     804.615E+03         38.6726
             908     10.8096E-03     20.9667E-03     526.129E-03     462.132E-03        -1.54451     461.980E-03        -1.54436     526.129E-03    -7.27546E-03     210.975E-03    -104.996E-03    -105.924E-03    -105.665E-03     210.717E-03    -104.996E-03     18.0339E-03     51.1480E+06    -31.8267E+06    -46.6444E+06    -46.5146E+06    -31.9565E+06     51.1480E+06     618.075E+03         37.6227
             909     9.90941E-03     20.9421E-03     530.381E-03     484.456E-03        -1.56998     484.396E-03        -1.56992     530.381E-03     7.48868E-03     210.527E-03    -104.906E-03    -105.552E-03    -105.357E-03     210.333E-03    -104.906E-03     15.5861E-03     40.8396E+06    -46.3462E+06    -66.3279E+06    -54.8522E+06    -57.8219E+06     40.8396E+06     919.124E+03         37.1333
             910     9.00935E-03     20.9203E-03     533.659E-03     499.931E-03        -1.58910     499.929E-03        -1.58910     533.659E-03    -855.025E-06     210.122E-03    -104.816E-03    -105.279E-03    -105.131E-03     209.978E-03    -104.821E-03     13.3881E-03     27.7806E+06    -63.6776E+06    -89.1262E+06    -63.7620E+06    -89.0419E+06     27.7806E+06     1.16561E+06         36.8694
             911     8.10919E-03     20.9000E-03     536.635E-03     504.678E-03        -1.59893     504.637E-03        -1.59889     536.635E-03     40.1773E-06     209.533E-03    -104.568E-03    -105.025E-03    -104.764E-03     209.425E-03    -104.721E-03     11.5708E-03     12.9193E+06    -73.5684E+06    -112.140E+06    -73.6017E+06    -112.106E+06     12.9193E+06     533.076E+03         36.6831
             912     7.20849E-03     20.8812E-03     539.963E-03     508.009E-03        -1.60973     507.870E-03        -1.60959     539.963E-03    -22.1624E-03     209.123E-03    -104.367E-03    -104.717E-03    -104.431E-03     209.046E-03    -104.577E-03     9.70404E-03    -4.66789E+06    -83.7824E+06    -140.396E+06    -83.7880E+06    -140.391E+06    -4.66789E+06     221.923E+03         36.5429
             913     6.30762E-03     20.8636E-03     543.496E-03     516.660E-03        -1.62424     516.456E-03        -1.62403     543.496E-03    -2.15390E-03     209.036E-03    -104.377E-03    -104.513E-03    -104.362E-03     208.984E-03    -104.475E-03     8.03615E-03    -22.4408E+06    -93.7849E+06    -175.838E+06    -93.8006E+06    -175.823E+06    -22.4408E+06     454.874E+03         36.4154
             914     5.40702E-03     20.8492E-03     549.688E-03     529.828E-03        -1.64315     532.867E-03        -1.64270     546.194E-03    -9.23807E-03     208.518E-03    -104.108E-03    -104.465E-03    -104.084E-03     208.481E-03    -104.452E-03     6.69690E-03    -41.4474E+06    -103.188E+06    -205.511E+06    -103.202E+06    -205.497E+06    -41.4474E+06     25.0736E+03         36.3193
             915     4.50527E-03     20.8383E-03     551.615E-03     540.764E-03        -1.65309     544.492E-03        -1.65250     547.290E-03     5.66774E-03     208.060E-03    -103.748E-03    -104.442E-03    -103.724E-03     208.036E-03    -104.442E-03     5.38418E-03    -63.1546E+06    -112.909E+06    -222.622E+06    -112.921E+06    -222.610E+06    -63.1546E+06    -391.380E+03         36.2336
             916     3.60352E-03     20.8283E-03     556.622E-03     540.167E-03        -1.65377     549.191E-03        -1.65321     547.043E-03     4.95292E-03     208.448E-03    -103.915E-03    -104.557E-03    -103.901E-03     208.434E-03    -104.557E-03     4.03598E-03    -84.0678E+06    -122.687E+06    -254.203E+06    -122.714E+06    -254.177E+06    -84.0678E+06     757.068E+03         36.1694
             917     2.70312E-03     20.8220E-03     573.240E-03     537.421E-03        -1.66156     564.991E-03        -1.65881     542.920E-03     66.9051E-03     208.757E-03    -104.145E-03    -104.583E-03    -104.138E-03     208.750E-03    -104.583E-03     2.85645E-03    -104.960E+06    -131.764E+06    -286.776E+06    -131.807E+06    -286.734E+06    -104.960E+06     2.31231E+06         36.1583
             918     1.80140E-03     20.8160E-03     582.200E-03     533.049E-03        -1.66051     557.594E-03        -1.63590     533.049E-03    -216.395E-03     208.856E-03    -104.251E-03    -104.552E-03    -104.249E-03     208.853E-03    -104.552E-03     1.80515E-03    -124.763E+06    -139.305E+06    -307.587E+06    -139.336E+06    -307.556E+06    -124.763E+06     2.09044E+06         36.1561
             919     900.636E-06     20.8138E-03     965.253E-03     237.835E-03        -1.75152     115.865E-03        -1.60197     937.675E-03     311.578E-03     209.094E-03    -104.318E-03    -104.770E-03    -104.650E-03     209.093E-03    -104.437E-03     1.01669E-03    -139.395E+06    -145.957E+06    -332.184E+06    -145.075E+06    -332.173E+06    -140.288E+06     1.26599E+06         36.1472
             920     15.3089E-03     19.8999E-03     480.537E-03     400.589E-03        -1.44381     400.220E-03        -1.44344     480.537E-03    -25.8966E-03     212.332E-03    -105.557E-03    -106.751E-03    -105.991E-03     211.572E-03    -105.557E-03     30.6833E-03     140.707E+06     128.809E+06    -8.08992E+06    -8.08685E+06     140.631E+06     128.882E+06     358.799E+03         48.2819
             921     14.4096E-03     19.8560E-03     484.379E-03     412.653E-03        -1.45520     412.621E-03        -1.45517     484.379E-03     10.7205E-03     212.367E-03    -105.349E-03    -107.007E-03    -106.214E-03     211.574E-03    -105.349E-03     31.4940E-03     130.875E+06     106.176E+06    -16.0056E+06    -16.0010E+06     130.870E+06     106.176E+06     24.2243E+03         45.7244
             922     13.5105E-03     19.8206E-03     487.883E-03     427.696E-03        -1.47312     427.665E-03        -1.47309     487.883E-03    -5.16804E-03     211.837E-03    -105.127E-03    -106.718E-03    -106.181E-03     211.299E-03    -105.127E-03     26.1208E-03     121.223E+06     91.0891E+06    -24.5530E+06    -24.5471E+06     121.217E+06     91.0891E+06    -411.890E+03         42.9028
             923     12.6108E-03     19.7876E-03     491.244E-03     434.726E-03        -1.48126     434.545E-03        -1.48108     491.244E-03    -14.9077E-03     211.687E-03    -104.942E-03    -106.743E-03    -106.322E-03     211.267E-03    -104.942E-03     23.0201E-03     92.1465E+06     66.5796E+06    -32.4046E+06    -32.3730E+06     83.7433E+06     74.9512E+06     178.435E+03         40.4694
             924     11.7124E-03     19.7592E-03     495.037E-03     432.642E-03        -1.48251     432.384E-03        -1.48226     495.037E-03    -14.0149E-03     211.651E-03    -104.810E-03    -106.799E-03    -106.506E-03     211.359E-03    -104.810E-03     19.1814E-03     61.0893E+06     10.7589E+06    -39.5729E+06    -39.4297E+06     10.6157E+06     61.0893E+06     947.186E+03         38.7001
             925     10.8132E-03     19.7323E-03     499.047E-03     445.824E-03        -1.50149     445.710E-03        -1.50138     499.047E-03    -1.79142E-03     211.143E-03    -104.634E-03    -106.472E-03    -106.267E-03     210.938E-03    -104.634E-03     16.0563E-03     50.9036E+06    -31.3448E+06    -47.7117E+06    -47.5700E+06    -31.4865E+06     50.9036E+06     919.702E+03         37.6362
             926     9.91399E-03     19.7088E-03     502.230E-03     468.267E-03        -1.52681     468.247E-03        -1.52679     502.230E-03     6.57393E-03     210.517E-03    -104.464E-03    -105.995E-03    -105.850E-03     210.372E-03    -104.464E-03     13.4113E-03     40.0755E+06    -46.9074E+06    -66.9311E+06    -56.3244E+06    -57.5142E+06     40.0755E+06     912.201E+03         37.1299
             927     9.01402E-03     19.6867E-03     504.870E-03     472.601E-03        -1.53393     472.525E-03        -1.53385     504.870E-03    -8.09514E-03     209.911E-03    -104.281E-03    -105.594E-03    -105.496E-03     209.813E-03    -104.281E-03     11.0113E-03     26.6352E+06    -65.0222E+06    -88.6401E+06    -65.0783E+06    -88.5840E+06     26.6352E+06     774.491E+03         36.8484
             928     8.11406E-03     19.6669E-03     507.563E-03     480.096E-03        -1.54138     479.918E-03        -1.54120     507.563E-03    -30.9699E-03     209.153E-03    -104.083E-03    -105.142E-03    -105.075E-03     209.086E-03    -104.083E-03     9.04182E-03     12.7793E+06    -74.1652E+06    -111.355E+06    -74.2389E+06    -111.281E+06     12.7793E+06     1.06009E+06         36.6435
             929     7.21400E-03     19.6492E-03     509.869E-03     490.986E-03        -1.55257     490.821E-03        -1.55241     509.869E-03    -35.3037E-03     208.318E-03    -103.837E-03    -104.476E-03    -104.430E-03     208.273E-03    -103.837E-03     7.39665E-03    -5.39726E+06    -84.7526E+06    -140.853E+06    -84.8041E+06    -140.802E+06    -5.39726E+06     1.35775E+06         36.4824
             930     6.31279E-03     19.6340E-03     511.884E-03     494.854E-03        -1.56084     494.686E-03        -1.56068     511.884E-03    -5.76930E-03     207.602E-03    -103.610E-03    -103.861E-03    -103.795E-03     207.573E-03    -103.647E-03     5.86236E-03    -25.4868E+06    -95.6417E+06    -174.012E+06    -95.6567E+06    -173.997E+06    -25.4868E+06     396.104E+03         36.3307
             931     5.41087E-03     19.6208E-03     517.474E-03     495.980E-03        -1.57257     499.114E-03        -1.57222     513.981E-03    -12.4248E-03     207.055E-03    -103.418E-03    -103.680E-03    -103.499E-03     207.038E-03    -103.582E-03     4.35288E-03    -43.8488E+06    -105.362E+06    -204.252E+06    -105.397E+06    -204.217E+06    -43.8488E+06    -1.42416E+06         36.2086
             932     4.50927E-03     19.6104E-03     521.078E-03     494.531E-03        -1.57354     498.480E-03        -1.57316     516.753E-03    -6.86318E-03     206.701E-03    -103.171E-03    -103.604E-03    -103.235E-03     206.691E-03    -103.531E-03     3.16429E-03    -62.4659E+06    -114.573E+06    -224.019E+06    -114.609E+06    -223.984E+06    -62.4659E+06    -886.967E+03         36.0976
             933     3.60749E-03     19.5999E-03     521.993E-03     499.198E-03        -1.57549     498.974E-03        -1.57443     521.161E-03    -46.4282E-03     206.698E-03    -103.100E-03    -103.591E-03    -103.095E-03     206.693E-03    -103.591E-03     2.10010E-03    -82.8093E+06    -124.335E+06    -255.531E+06    -124.338E+06    -255.528E+06    -82.8093E+06     398.015E+03         36.0137
             934     2.70519E-03     19.5932E-03     527.152E-03     514.044E-03        -1.60065     512.166E-03        -1.59778     526.158E-03     22.2420E-03     206.809E-03    -103.217E-03    -103.563E-03    -103.232E-03     206.807E-03    -103.546E-03     1.38104E-03    -104.137E+06    -132.793E+06    -286.573E+06    -132.812E+06    -286.554E+06    -104.137E+06     710.602E+03         35.9893
             935     1.80384E-03     19.5888E-03     546.755E-03     525.884E-03        -1.63174     528.477E-03        -1.61600     528.415E-03    -154.609E-03     206.764E-03    -103.295E-03    -103.422E-03    -103.312E-03     206.763E-03    -103.404E-03     1.01053E-03    -125.545E+06    -139.582E+06    -305.515E+06    -139.601E+06    -305.495E+06    -125.545E+06     872.257E+03         35.9762
             936     901.870E-06     19.5834E-03     870.818E-03     293.423E-03        -1.71183     203.016E-03        -1.60408     853.471E-03     317.819E-03     206.705E-03    -103.199E-03    -103.509E-03    -103.421E-03     206.705E-03    -103.286E-03     663.572E-06    -140.421E+06    -145.221E+06    -331.034E+06    -144.998E+06    -331.020E+06    -140.658E+06     126.953E+03         35.9563
             937     15.3097E-03     18.6651E-03     456.720E-03     399.358E-03        -1.41698     399.195E-03        -1.41682     456.720E-03    -20.4189E-03     213.126E-03    -105.507E-03    -107.592E-03    -106.844E-03     212.378E-03    -105.507E-03     30.5637E-03     140.589E+06     127.940E+06    -7.88380E+06    -7.88104E+06     140.513E+06     128.013E+06     254.249E+03         48.3436
             938     14.4110E-03     18.6201E-03     459.425E-03     402.116E-03        -1.41782     402.107E-03        -1.41782     459.425E-03    -1.06368E-03     213.234E-03    -105.243E-03    -108.014E-03    -107.255E-03     212.475E-03    -105.243E-03     30.8570E-03     130.786E+06     105.699E+06    -15.9723E+06    -15.9698E+06     130.783E+06     105.699E+06     381.664E+03         45.7894
             939     13.5130E-03     18.5856E-03     462.153E-03     410.655E-03        -1.43077     410.629E-03        -1.43075     462.153E-03    -9.81175E-03     212.744E-03    -104.938E-03    -107.800E-03    -107.309E-03     212.253E-03    -104.938E-03     25.0367E-03     121.773E+06     91.7297E+06    -23.7158E+06    -23.7119E+06     121.769E+06     91.7297E+06     596.937E+03         42.9641
             940     12.6151E-03     18.5515E-03     464.514E-03     426.159E-03        -1.44733     426.105E-03        -1.44728     464.514E-03    -1.28653E-03     212.358E-03    -104.647E-03    -107.695E-03    -107.325E-03     211.988E-03    -104.647E-03     21.6478E-03     92.0162E+06     65.8858E+06    -31.7721E+06    -31.7658E+06     83.2882E+06     74.6075E+06     193.770E+03         40.5215
             941     11.7164E-03     18.5220E-03     466.521E-03     432.428E-03        -1.45632     432.260E-03        -1.45615     466.521E-03    -3.37822E-03     212.034E-03    -104.418E-03    -107.565E-03    -107.326E-03     211.795E-03    -104.418E-03     17.2755E-03     60.3192E+06     9.86409E+06    -39.7279E+06    -39.6158E+06     9.75195E+06     60.3192E+06     562.097E+03         38.7398
             942     10.8185E-03     18.4971E-03     468.842E-03     429.808E-03        -1.45623     429.567E-03        -1.45599     468.842E-03    -16.4797E-03     211.426E-03    -104.151E-03    -107.236E-03    -107.087E-03     211.277E-03    -104.151E-03     13.6388E-03     50.8457E+06    -30.6733E+06    -47.6785E+06    -47.4812E+06    -30.8705E+06     50.8457E+06     1.45088E+06         37.6598
             943     9.91944E-03     18.4743E-03     471.930E-03     427.317E-03        -1.45545     427.202E-03        -1.45534     471.930E-03    -2.86699E-03     210.638E-03    -103.870E-03    -106.742E-03    -106.648E-03     210.544E-03    -103.870E-03     10.7285E-03     39.8568E+06    -46.6183E+06    -66.3391E+06    -56.3884E+06    -56.5689E+06     39.8568E+06     1.30794E+06         37.1325
             944     9.02079E-03     18.4541E-03     475.325E-03     437.793E-03        -1.46778     437.698E-03        -1.46768     475.325E-03    -11.7758E-03     209.658E-03    -103.551E-03    -106.075E-03    -106.020E-03     209.603E-03    -103.551E-03     8.08551E-03     25.7492E+06    -65.5999E+06    -88.2239E+06    -65.6396E+06    -88.1842E+06     25.7492E+06     645.072E+03         36.8252
             945     8.12119E-03     18.4356E-03     477.701E-03     460.607E-03        -1.48962     460.421E-03        -1.48943     477.701E-03    -35.9315E-03     208.390E-03    -103.219E-03    -105.277E-03    -105.246E-03     208.359E-03    -103.219E-03     5.92555E-03     11.4516E+06    -74.3187E+06    -111.294E+06    -74.4054E+06    -111.207E+06     11.4516E+06     151.640E+03         36.5940
             946     7.22059E-03     18.4195E-03     480.521E-03     474.125E-03        -1.50300     476.148E-03        -1.50287     478.375E-03    -26.6847E-03     207.261E-03    -102.884E-03    -104.437E-03    -104.420E-03     207.243E-03    -102.884E-03     4.11467E-03    -3.23534E+06    -82.1382E+06    -141.904E+06    -82.2346E+06    -141.807E+06    -3.23534E+06     915.741E+03         36.4076
             947     6.31936E-03     18.4045E-03     480.375E-03     474.686E-03        -1.50303     476.774E-03        -1.50297     478.229E-03    -7.11361E-03     206.285E-03    -102.590E-03    -103.617E-03    -103.608E-03     206.276E-03    -102.590E-03     2.50130E-03    -19.4808E+06    -91.6892E+06    -171.432E+06    -91.7321E+06    -171.389E+06    -19.4808E+06     1.53010E+06         36.2246
             948     5.41766E-03     18.3913E-03     479.588E-03     460.670E-03        -1.49337     460.332E-03        -1.49303     479.588E-03    -10.4922E-03     205.321E-03    -102.368E-03    -103.047E-03    -103.043E-03     205.318E-03    -102.368E-03     1.14303E-03    -39.9727E+06    -104.117E+06    -201.347E+06    -104.167E+06    -201.297E+06    -39.9727E+06    -179.249E+03         36.0644
             949     4.51540E-03     18.3809E-03     484.072E-03     453.092E-03        -1.49551     452.189E-03        -1.49461     484.072E-03     20.6404E-03     204.596E-03    -102.148E-03    -102.528E-03    -102.491E-03     204.594E-03    -102.183E-03     339.504E-06    -63.5136E+06    -116.453E+06    -226.804E+06    -116.494E+06    -226.764E+06    -63.5136E+06    -1.32976E+06         35.9169
             950     3.61279E-03     18.3717E-03     492.228E-03     470.360E-03        -1.52056     472.296E-03        -1.51934     489.074E-03    -3.37429E-03     204.168E-03    -101.921E-03    -102.215E-03    -102.021E-03     204.167E-03    -102.114E-03    -118.493E-06    -86.3771E+06    -126.594E+06    -255.568E+06    -126.605E+06    -255.557E+06    -86.3771E+06    -739.873E+03         35.8023
             951     2.70971E-03     18.3649E-03     500.465E-03     484.583E-03        -1.53767     489.449E-03        -1.53327     491.198E-03     87.9775E-03     203.890E-03    -101.804E-03    -102.067E-03    -101.909E-03     203.889E-03    -101.961E-03    -418.152E-06     -107.86E+06    -134.865E+06    -285.512E+06    -134.878E+06    -285.499E+06     -107.86E+06    -1.08069E+06         35.7537
             952     1.80634E-03     18.3597E-03     507.545E-03     488.909E-03        -1.54674     490.681E-03        -1.53240     491.440E-03    -80.4642E-03     203.548E-03    -101.698E-03    -101.823E-03    -101.748E-03     203.547E-03    -101.772E-03    -292.216E-06    -129.058E+06    -142.214E+06    -306.329E+06    -142.226E+06    -306.317E+06    -129.058E+06    -732.431E+03         35.7236
             953     903.356E-06     18.3570E-03     772.751E-03     321.349E-03        -1.64474     220.102E-03        -1.53350     762.759E-03     376.683E-03     203.379E-03    -101.627E-03    -101.763E-03    -101.627E-03     203.379E-03    -101.763E-03     141.115E-06    -143.273E+06    -147.256E+06    -331.079E+06    -146.438E+06    -331.069E+06    -144.100E+06    -300.331E+03         35.6886
             954     15.3104E-03     17.4254E-03     431.359E-03     388.360E-03        -1.37166     388.209E-03        -1.37151     431.359E-03     6.52941E-03     214.163E-03    -105.447E-03    -108.687E-03    -107.953E-03     213.429E-03    -105.447E-03     30.3984E-03     140.611E+06     128.312E+06    -8.17870E+06    -8.17556E+06     140.304E+06     128.616E+06     444.633E+03         48.4204
             955     14.4133E-03     17.3815E-03     432.979E-03     394.601E-03        -1.37964     394.486E-03        -1.37952     432.979E-03     13.4385E-03     214.292E-03    -105.104E-03    -109.213E-03    -108.484E-03     213.562E-03    -105.104E-03     30.3045E-03     130.327E+06     105.287E+06    -16.3346E+06    -16.3312E+06     130.323E+06     105.287E+06     558.436E+03         45.8703
             956     13.5160E-03     17.3471E-03     434.668E-03     395.252E-03        -1.38165     395.225E-03        -1.38162     434.668E-03    -6.06290E-03     213.868E-03    -104.700E-03    -109.137E-03    -108.688E-03     213.419E-03    -104.700E-03     24.0128E-03     121.939E+06     91.1510E+06    -23.4962E+06    -23.4934E+06     121.936E+06     91.1510E+06     402.496E+03         43.0414
             957     12.6193E-03     17.3146E-03     436.498E-03     401.450E-03        -1.38942     401.298E-03        -1.38926     436.498E-03    -23.3646E-03     213.372E-03    -104.291E-03    -109.037E-03    -108.721E-03     213.056E-03    -104.291E-03     20.0048E-03     93.0464E+06     66.6322E+06    -30.5866E+06    -30.5748E+06     84.2399E+06      75.427E+06     872.380E+03         40.5892
             958     11.7226E-03     17.2867E-03     437.853E-03     418.492E-03        -1.40984     418.245E-03        -1.40960     437.853E-03    -34.7667E-03     212.735E-03    -103.924E-03    -108.754E-03    -108.571E-03     212.553E-03    -103.924E-03     15.0973E-03     60.4604E+06     9.71615E+06    -38.7478E+06    -38.6803E+06     9.64860E+06     60.4604E+06     1.01451E+06         38.7945
             959     10.8251E-03     17.2613E-03     438.758E-03     421.503E-03        -1.41472     421.192E-03        -1.41441     438.758E-03    -16.6267E-03     211.910E-03    -103.515E-03    -108.320E-03    -108.222E-03     211.812E-03    -103.515E-03     10.9644E-03     50.7320E+06    -31.4816E+06    -46.8344E+06    -46.6895E+06    -31.6265E+06     50.7320E+06     911.785E+03         37.6969
             960     9.92764E-03     17.2392E-03     440.197E-03     412.692E-03        -1.40795     412.449E-03        -1.40770     440.197E-03     11.3797E-03     210.793E-03    -103.091E-03    -107.651E-03    -107.602E-03     210.744E-03    -103.091E-03     7.54766E-03     41.2461E+06    -45.4901E+06    -64.5492E+06    -54.3250E+06    -55.7143E+06     41.2461E+06     1.14986E+06         37.1456
             961     9.02925E-03     17.2204E-03     442.063E-03     419.366E-03        -1.41211     419.297E-03        -1.41204     442.063E-03     7.43750E-03     209.350E-03    -102.624E-03    -106.694E-03    -106.673E-03     209.330E-03    -102.624E-03     4.60484E-03     28.0389E+06    -63.0351E+06    -87.1003E+06    -63.0975E+06    -87.0378E+06     28.0389E+06     1.02410E+06         36.8074
             962     8.13007E-03     17.2040E-03     443.324E-03     432.264E-03        -1.42153     432.167E-03        -1.42143     443.324E-03    -19.4704E-03     207.645E-03    -102.120E-03    -105.631E-03    -105.622E-03     207.637E-03    -102.120E-03     2.13451E-03     12.9941E+06    -73.0776E+06    -110.808E+06    -73.1751E+06    -110.710E+06     12.9941E+06     442.653E+03         36.5419
             963     7.22979E-03     17.1893E-03     446.069E-03     439.913E-03        -1.42998     442.314E-03        -1.42990     443.584E-03    -14.0510E-03     206.082E-03    -101.607E-03    -104.568E-03    -104.564E-03     206.077E-03    -101.607E-03    -30.6303E-06    -3.27402E+06    -83.9707E+06    -142.668E+06    -84.0739E+06    -142.565E+06    -3.27402E+06     439.563E+03         36.3195
             964     6.32880E-03     17.1775E-03     448.178E-03     441.193E-03        -1.43059     446.268E-03        -1.43055     443.061E-03     13.3251E-03     204.698E-03    -101.133E-03    -103.511E-03    -103.505E-03     204.691E-03    -101.133E-03    -1.70506E-03    -18.8345E+06    -94.2702E+06    -170.807E+06    -94.3093E+06    -170.768E+06    -18.8345E+06     1.21142E+06         36.0919
             965     5.42683E-03     17.1661E-03     449.906E-03     434.218E-03        -1.42973     441.421E-03        -1.42962     442.595E-03     16.5801E-03     203.064E-03    -100.705E-03    -102.475E-03    -102.465E-03     203.054E-03    -100.705E-03    -2.71741E-03    -38.4464E+06    -104.474E+06    -198.537E+06    -104.497E+06    -198.513E+06    -38.4464E+06     1.16750E+06         35.8797
             966     4.52359E-03     17.1563E-03     453.332E-03     433.447E-03        -1.43816     443.847E-03        -1.43743     442.204E-03     29.0367E-03     201.650E-03    -100.343E-03    -101.409E-03    -101.397E-03     201.637E-03    -100.343E-03    -3.25145E-03    -63.9775E+06    -115.812E+06    -227.153E+06    -115.847E+06    -227.118E+06    -63.9775E+06     580.787E+03         35.6873
             967     3.61947E-03     17.1490E-03     451.100E-03     434.613E-03        -1.43504     443.373E-03        -1.43420     441.497E-03     5.92338E-03     200.791E-03    -100.084E-03    -100.651E-03    -100.639E-03     200.779E-03    -100.084E-03    -3.21017E-03    -91.0189E+06    -127.293E+06    -254.347E+06    -127.328E+06    -254.312E+06    -91.0189E+06    -109.826E+03         35.5331
             968     2.71554E-03     17.1425E-03     451.100E-03     430.312E-03        -1.42380     436.885E-03        -1.42111     441.833E-03     72.7444E-03     199.989E-03    -99.7788E-03    -100.201E-03    -100.193E-03     199.980E-03    -99.7788E-03    -2.83194E-03    -114.433E+06    -137.375E+06    -284.952E+06    -137.398E+06    -284.928E+06    -114.433E+06    -1.68596E+06         35.4448
             969     1.81073E-03     17.1393E-03     457.267E-03     434.324E-03        -1.42660     430.957E-03        -1.41231     446.348E-03    -117.939E-03     199.221E-03    -99.4706E-03    -99.7589E-03    -99.6802E-03     199.216E-03    -99.5446E-03    -2.11452E-03    -132.265E+06    -143.970E+06    -308.682E+06    -143.994E+06    -308.658E+06    -132.265E+06    -1.54920E+06         35.3825
             970     905.008E-06     17.1352E-03     678.723E-03     305.779E-03        -1.52487     226.302E-03        -1.44059     673.916E-03     257.199E-03     198.843E-03    -99.3512E-03    -99.5134E-03    -99.3765E-03     198.841E-03    -99.4866E-03    -903.295E-06    -143.477E+06    -147.479E+06    -331.377E+06    -146.501E+06    -331.373E+06    -144.458E+06    -6.77427E+03         35.3241
             971     15.3121E-03     16.1856E-03     403.949E-03     373.063E-03        -1.32296     372.899E-03        -1.32280     403.949E-03     8.39414E-03     215.396E-03    -105.376E-03    -109.972E-03    -109.249E-03     214.673E-03    -105.376E-03     30.2679E-03     140.451E+06     129.114E+06    -7.84598E+06    -7.84317E+06     139.698E+06     129.864E+06     379.206E+03         48.5100
             972     14.4153E-03     16.1411E-03     404.824E-03     377.455E-03        -1.33072     377.339E-03        -1.33061     404.824E-03     17.3858E-03     215.544E-03    -104.935E-03    -110.607E-03    -109.899E-03     214.837E-03    -104.935E-03     29.8955E-03     130.827E+06     106.670E+06    -15.5556E+06    -15.5526E+06     130.824E+06     106.670E+06     344.687E+03         45.9652
             973     13.5200E-03     16.1086E-03     405.754E-03     377.958E-03        -1.33234     377.929E-03        -1.33231     405.754E-03     8.21315E-03     215.113E-03    -104.412E-03    -110.678E-03    -110.270E-03     214.705E-03    -104.412E-03     22.9818E-03     122.112E+06     91.4792E+06    -23.2469E+06    -23.2446E+06     122.110E+06     91.4792E+06     371.432E+03         43.1336
             974     12.6249E-03     16.0751E-03     406.923E-03     378.631E-03        -1.33342     378.472E-03        -1.33326     406.923E-03    -10.7965E-03     214.528E-03    -103.870E-03    -110.617E-03    -110.350E-03     214.262E-03    -103.870E-03     18.3927E-03     92.3561E+06     66.1508E+06    -31.4959E+06    -31.4853E+06     83.2027E+06     75.2936E+06     791.436E+03         40.6729
             975     11.7292E-03     16.0493E-03     407.892E-03     391.166E-03        -1.34598     390.963E-03        -1.34578     407.892E-03    -31.1155E-03     213.761E-03    -103.349E-03    -110.368E-03    -110.231E-03     213.624E-03    -103.349E-03     13.0523E-03     61.2739E+06     10.5619E+06    -38.9361E+06    -38.8241E+06     10.4499E+06     61.2739E+06     1.37694E+06         38.8668
             976     10.8336E-03     16.0259E-03     413.628E-03     405.087E-03        -1.36723     410.725E-03        -1.36705     407.813E-03     3.20710E-03     212.560E-03    -102.763E-03    -109.741E-03    -109.681E-03     212.500E-03    -102.763E-03     8.47105E-03     51.2317E+06    -30.7862E+06    -46.7831E+06    -46.6658E+06    -30.9034E+06     51.2317E+06     899.855E+03         37.7525
             977     9.93690E-03     16.0053E-03     416.982E-03     403.977E-03        -1.37285     413.978E-03        -1.37270     406.829E-03     25.5958E-03     210.997E-03    -102.135E-03    -108.816E-03    -108.796E-03     210.977E-03    -102.135E-03     4.40678E-03     41.0300E+06    -46.4419E+06    -65.0300E+06    -55.3884E+06    -56.0835E+06     41.0300E+06     647.350E+03         37.1765
             978     9.03970E-03     15.9881E-03     410.478E-03     399.569E-03        -1.36091     403.855E-03        -1.36086     406.140E-03     9.13292E-03     209.183E-03    -101.477E-03    -107.703E-03    -107.697E-03     209.177E-03    -101.477E-03     710.636E-06     28.7526E+06    -64.3684E+06    -87.2543E+06    -64.5800E+06    -87.0428E+06     28.7526E+06     1.62944E+06         36.8051
             979     8.14118E-03     15.9743E-03     406.636E-03     392.252E-03        -1.34571     392.077E-03        -1.34554     406.636E-03    -23.8567E-03     207.017E-03    -100.776E-03    -106.412E-03    -106.401E-03     207.006E-03    -100.776E-03    -2.42429E-03     14.4176E+06    -75.1064E+06    -110.412E+06    -75.4080E+06    -110.111E+06     14.4176E+06     2.75001E+06         36.4987
             980     7.24170E-03     15.9613E-03     408.648E-03     388.670E-03        -1.33980     388.638E-03        -1.33943     408.310E-03    -38.4824E-03     204.789E-03    -100.010E-03    -104.912E-03    -104.887E-03     204.764E-03    -100.010E-03    -4.83529E-03    -5.17027E+06    -87.5656E+06    -141.292E+06    -87.7645E+06    -141.093E+06    -5.17027E+06     2.51441E+06         36.2262
             981     6.34069E-03     15.9513E-03     412.748E-03     400.008E-03        -1.35284     402.498E-03        -1.35236     409.777E-03    -30.9709E-03     202.633E-03    -99.2393E-03    -103.309E-03    -103.269E-03     202.593E-03    -99.2393E-03    -6.47037E-03    -24.9466E+06    -99.1143E+06    -169.253E+06    -99.2202E+06    -169.147E+06    -24.9466E+06     116.394E+03         35.9367
             982     5.43815E-03     15.9435E-03     418.103E-03     409.114E-03        -1.36703     417.210E-03        -1.36646     409.442E-03    -43.2595E-03     200.326E-03    -98.5600E-03    -101.846E-03    -101.795E-03     200.275E-03    -98.5600E-03    -7.42481E-03    -43.3153E+06    -108.453E+06    -198.514E+06    -108.496E+06    -198.470E+06    -43.3153E+06    -463.672E+03         35.6617
             983     4.53435E-03     15.9359E-03     420.824E-03     399.373E-03        -1.36378     411.273E-03        -1.36320     408.347E-03    -56.9738E-03     198.201E-03    -97.9771E-03    -100.326E-03    -100.272E-03     198.147E-03    -97.9771E-03    -7.70525E-03    -65.2083E+06    -117.666E+06    -227.493E+06    -117.691E+06    -227.469E+06    -65.2083E+06     1.05412E+06         35.4170
             984     3.62950E-03     15.9303E-03     416.484E-03     388.122E-03        -1.35453     393.345E-03        -1.35330     410.035E-03    -84.0566E-03     196.407E-03    -97.4710E-03    -98.8642E-03    -98.8168E-03     196.359E-03    -97.4710E-03    -7.17339E-03    -91.3743E+06    -126.737E+06    -251.728E+06    -126.775E+06    -251.689E+06    -91.3743E+06     1.33352E+06         35.2062
             985     2.72285E-03     15.9248E-03     415.675E-03     395.333E-03        -1.36624     393.984E-03        -1.36489     415.675E-03    -30.1321E-03     194.920E-03    -97.0024E-03    -97.8999E-03    -97.8658E-03     194.886E-03    -97.0024E-03    -6.01782E-03    -116.021E+06    -135.446E+06    -283.573E+06    -135.473E+06    -283.546E+06    -116.021E+06    -323.300E+03         35.0560
             986     1.81580E-03     15.9228E-03     430.527E-03     409.532E-03        -1.39395     410.782E-03        -1.38674     422.072E-03    -129.351E-03     193.782E-03    -96.6108E-03    -97.1972E-03    -97.1787E-03     193.764E-03    -96.6108E-03    -4.31556E-03    -132.708E+06    -142.564E+06    -310.998E+06    -142.580E+06    -310.983E+06    -132.708E+06    -1.42853E+06         34.9500
             987     908.572E-06     15.9194E-03     583.284E-03     305.990E-03        -1.43603     274.814E-03        -1.39640     574.829E-03     170.210E-03     192.792E-03    -96.2365E-03    -96.5857E-03    -96.5317E-03     192.786E-03    -96.2846E-03    -2.23636E-03    -142.836E+06    -146.737E+06    -331.566E+06    -146.120E+06    -331.557E+06    -143.463E+06    -55.9340E+03         34.8665
             988     15.3131E-03     14.9454E-03     378.857E-03     360.843E-03        -1.28702     362.888E-03        -1.28692     376.713E-03    -14.4882E-03     216.789E-03    -105.291E-03    -111.431E-03    -110.725E-03     216.083E-03    -105.291E-03     29.9815E-03     140.272E+06     128.937E+06    -7.75142E+06    -7.75087E+06     139.753E+06     129.456E+06    -23.3292E+03         48.6087
             989     14.4185E-03     14.9001E-03     378.280E-03     361.753E-03        -1.28324     363.288E-03        -1.28318     376.689E-03    -7.06745E-03     216.801E-03    -104.742E-03    -112.053E-03    -111.355E-03     216.103E-03    -104.742E-03     29.7949E-03     130.161E+06     106.772E+06    -15.7266E+06    -15.7259E+06     130.160E+06     106.772E+06     83.6854E+03         46.0709
             990     13.5244E-03     14.8658E-03     384.923E-03     366.948E-03        -1.29405     375.480E-03        -1.29397     376.309E-03    -6.16410E-03     216.342E-03    -104.103E-03    -112.245E-03    -111.857E-03     215.955E-03    -104.103E-03     22.4725E-03     121.740E+06     91.6119E+06    -23.4820E+06    -23.4769E+06     121.735E+06     91.6119E+06     745.410E+03         43.2381
             991     12.6304E-03     14.8344E-03     384.004E-03     366.991E-03        -1.29305     375.357E-03        -1.29302     375.598E-03     3.62658E-03     215.832E-03    -103.413E-03    -112.399E-03    -112.161E-03     215.594E-03    -103.413E-03     17.3981E-03     92.9653E+06     65.4589E+06    -31.1488E+06    -31.1330E+06     82.9985E+06     75.4099E+06     1.15858E+06         40.7712
             992     11.7367E-03     14.8092E-03     376.745E-03     363.156E-03        -1.28144     364.181E-03        -1.28108     375.363E-03    -32.1954E-03     215.028E-03    -102.721E-03    -112.262E-03    -112.155E-03     214.922E-03    -102.721E-03     11.4041E-03     61.6295E+06     10.5730E+06    -39.1168E+06    -39.0291E+06     10.4853E+06     61.6295E+06     1.37034E+06         38.9575
             993     10.8425E-03     14.7884E-03     381.129E-03     367.648E-03        -1.29062     373.111E-03        -1.29027     375.314E-03    -28.9738E-03     213.534E-03    -101.932E-03    -111.561E-03    -111.527E-03     213.500E-03    -101.932E-03     6.06926E-03     51.6426E+06    -29.4217E+06    -47.2862E+06    -47.1199E+06    -29.5880E+06     51.6426E+06     1.62564E+06         37.8329
             994     9.94779E-03     14.7704E-03     390.984E-03     372.617E-03        -1.30710     389.328E-03        -1.30709     374.265E-03     5.15752E-03     211.636E-03    -101.031E-03    -110.530E-03    -110.521E-03     211.628E-03    -101.031E-03     1.12015E-03      41.011E+06    -46.7453E+06    -66.0299E+06    -56.6969E+06    -56.0783E+06      41.011E+06     1.85174E+06         37.2374
             995     9.05201E-03     14.7567E-03     390.147E-03     371.093E-03        -1.30501     388.823E-03        -1.30500     372.407E-03    -2.59945E-03     209.355E-03    -100.118E-03    -109.213E-03    -109.197E-03     209.339E-03    -100.118E-03    -3.41267E-03     27.8781E+06    -66.6059E+06    -88.4576E+06    -66.9880E+06    -88.0755E+06     27.8781E+06     2.56880E+06         36.8300
             996     8.15508E-03     14.7442E-03     380.339E-03     362.712E-03        -1.29075     371.638E-03        -1.29061     371.273E-03    -12.1451E-03     206.508E-03    -99.1397E-03    -107.503E-03    -107.456E-03     206.461E-03    -99.1397E-03    -7.10442E-03     13.8484E+06    -75.9641E+06    -110.503E+06    -76.2977E+06    -110.169E+06     13.8484E+06     3.08738E+06         36.4746
             997     7.25607E-03     14.7356E-03     374.477E-03     350.574E-03        -1.27435     352.259E-03        -1.27381     372.248E-03    -6.79306E-03     203.483E-03    -98.0565E-03    -105.489E-03    -105.402E-03     203.395E-03    -98.0565E-03    -9.99763E-03    -3.35476E+06    -84.5161E+06    -138.157E+06    -84.6911E+06    -137.982E+06    -3.35476E+06     2.57743E+06         36.1422
             998     6.35521E-03     14.7292E-03     375.027E-03     351.400E-03        -1.27458     350.647E-03        -1.27383     375.027E-03    -10.0945E-03     200.451E-03    -96.9604E-03    -103.351E-03    -103.229E-03     200.329E-03    -96.9604E-03    -11.8542E-03    -22.9878E+06    -94.3222E+06    -165.557E+06    -94.4641E+06    -165.415E+06    -22.9878E+06     1.05525E+06         35.7777
             999     5.45243E-03     14.7241E-03     379.138E-03     363.182E-03        -1.29032     363.720E-03        -1.28951     377.789E-03    -14.1665E-03     197.244E-03    -95.9822E-03    -101.304E-03    -101.160E-03     197.100E-03    -95.9822E-03    -12.7842E-03    -44.6007E+06    -106.857E+06    -199.266E+06    -106.938E+06    -199.185E+06    -44.6007E+06    -88.0483E+03         35.4268
            1000     4.54783E-03     14.7205E-03     381.825E-03     364.100E-03        -1.29535     364.455E-03        -1.29436     380.475E-03    -1.85780E-03     194.058E-03    -95.1123E-03    -99.0502E-03    -98.9065E-03     193.914E-03    -95.1123E-03    -12.6772E-03    -67.0681E+06    -118.660E+06    -228.507E+06    -118.672E+06    -228.495E+06    -67.0681E+06     462.017E+03         35.1166
            1001     3.64091E-03     14.7175E-03     384.894E-03     363.367E-03        -1.30204     361.996E-03        -1.30066     384.894E-03    -21.0666E-03     191.192E-03    -94.3026E-03    -96.8320E-03    -96.7093E-03     191.070E-03    -94.3026E-03    -11.5897E-03    -90.5844E+06    -128.412E+06    -250.036E+06    -128.439E+06    -250.008E+06    -90.5844E+06     961.173E+03         34.8293
            1002     2.73251E-03     14.7155E-03     390.036E-03     378.106E-03        -1.31911     376.254E-03        -1.31725     390.036E-03     14.4632E-03     188.820E-03    -93.6211E-03    -95.1655E-03    -95.0781E-03     188.732E-03    -93.6211E-03    -9.66618E-03    -113.521E+06    -135.560E+06    -280.996E+06    -135.580E+06    -280.975E+06    -113.521E+06     525.715E+03         34.5973
            1003     1.82256E-03     14.7139E-03     403.913E-03     390.133E-03        -1.34503     394.743E-03        -1.33724     391.505E-03    -112.742E-03     186.933E-03    -93.0558E-03    -93.8745E-03    -93.8274E-03     186.886E-03    -93.0558E-03    -6.96059E-03    -132.080E+06    -141.426E+06    -311.416E+06    -141.078E+06    -311.406E+06    -132.437E+06    -621.218E+03         34.4407
            1004     911.486E-06     14.7126E-03     489.845E-03     332.319E-03        -1.37339     303.790E-03        -1.33245     477.436E-03     179.198E-03     185.561E-03    -92.5573E-03    -93.0213E-03    -93.0059E-03     185.546E-03    -92.5573E-03    -3.56399E-03    -141.967E+06    -146.393E+06    -333.085E+06    -145.828E+06    -333.056E+06    -142.561E+06    -1.17255E+06         34.3362
            1005     15.3151E-03     13.7030E-03     371.535E-03     347.966E-03        -1.26118     368.023E-03        -1.26105     351.344E-03    -21.0907E-03     218.073E-03    -105.200E-03    -112.822E-03    -112.105E-03     217.356E-03    -105.200E-03     30.1424E-03     140.103E+06     128.112E+06    -8.31569E+06    -8.31485E+06     139.802E+06     128.412E+06     116.543E+03         48.7101
            1006     14.4212E-03     13.6573E-03     369.220E-03     346.180E-03        -1.25696     365.636E-03        -1.25676     349.558E-03    -25.4403E-03     218.137E-03    -104.550E-03    -113.576E-03    -112.847E-03     217.407E-03    -104.550E-03     30.5310E-03     129.885E+06     105.897E+06    -16.3422E+06    -16.3407E+06     129.883E+06     105.897E+06     341.757E+03         46.1805
            1007     13.5282E-03     13.6228E-03     373.168E-03     347.421E-03        -1.26037     372.957E-03        -1.26016     347.421E-03    -28.9017E-03     217.723E-03    -103.801E-03    -113.956E-03    -113.573E-03     217.340E-03    -103.801E-03     22.4092E-03     121.083E+06     91.2230E+06    -24.0709E+06    -24.0667E+06     121.079E+06     91.2230E+06     364.454E+03         43.3493
            1008     12.6361E-03     13.5927E-03     372.405E-03     344.910E-03        -1.25649     372.385E-03        -1.25647     344.910E-03     2.69356E-03     217.262E-03    -102.965E-03    -114.319E-03    -114.100E-03     217.042E-03    -102.965E-03     16.7409E-03     93.3006E+06     65.7495E+06    -30.9613E+06    -30.9440E+06     83.2958E+06     75.7369E+06     889.616E+03         40.8804
            1009     11.7442E-03     13.5676E-03     361.912E-03     338.562E-03        -1.24078     357.338E-03        -1.24043     342.782E-03    -23.9929E-03     216.497E-03    -102.089E-03    -114.416E-03    -114.331E-03     216.412E-03    -102.089E-03     10.0281E-03     62.1922E+06     10.4480E+06    -38.3917E+06    -38.2754E+06     10.3317E+06     62.1922E+06     1.55698E+06         39.0653
            1010     10.8523E-03     13.5498E-03     348.802E-03     332.712E-03        -1.22228     339.317E-03        -1.22191     341.825E-03    -23.7627E-03     214.896E-03    -101.056E-03    -113.854E-03    -113.837E-03     214.878E-03    -101.056E-03     3.80538E-03     52.0341E+06    -29.8026E+06    -47.0222E+06    -46.6607E+06    -30.1641E+06     52.0341E+06     2.39104E+06         37.9386
            1011     9.95965E-03     13.5339E-03     348.110E-03     334.348E-03        -1.22295     340.878E-03        -1.22291     341.544E-03     9.27697E-03     212.650E-03    -99.8521E-03    -112.711E-03    -112.701E-03     212.639E-03    -99.8521E-03    -1.90622E-03     41.8311E+06    -45.1330E+06    -65.6887E+06    -55.2366E+06    -55.5851E+06     41.8311E+06     3.15886E+06         37.3307
            1012     9.06585E-03     13.5231E-03     359.288E-03     338.154E-03        -1.23959     356.977E-03        -1.23958     340.457E-03    -1.28258E-03     209.730E-03    -98.6292E-03    -111.019E-03    -110.973E-03     209.684E-03    -98.6292E-03    -7.11958E-03     28.7015E+06    -63.7195E+06    -87.8385E+06    -64.1179E+06    -87.4401E+06     28.7015E+06     2.98462E+06         36.8880
            1013     8.16994E-03     13.5155E-03     363.013E-03     338.088E-03        -1.24486     362.789E-03        -1.24464     338.088E-03    -14.9596E-03     206.152E-03    -97.3206E-03    -108.868E-03    -108.759E-03     206.042E-03    -97.3206E-03    -11.3919E-03     14.5619E+06    -73.4907E+06    -109.365E+06    -73.6899E+06    -109.166E+06     14.5619E+06     2.49152E+06         36.4788
            1014     7.27226E-03     13.5120E-03     358.769E-03     330.520E-03        -1.23502     353.285E-03        -1.23452     335.506E-03    -2.89079E-03     202.310E-03    -95.8903E-03    -106.392E-03    -106.208E-03     202.126E-03    -95.8903E-03    -14.7950E-03    -2.58947E+06    -84.0160E+06    -136.340E+06    -84.1204E+06    -136.236E+06    -2.58947E+06     2.01478E+06         36.0803
            1015     6.37170E-03     13.5092E-03     347.002E-03     320.596E-03        -1.21584     332.652E-03        -1.21534     334.454E-03     5.02525E-03     198.165E-03    -94.4228E-03    -103.647E-03    -103.401E-03     197.919E-03    -94.4228E-03    -17.0111E-03    -22.8127E+06    -95.2324E+06    -163.846E+06    -95.3345E+06    -163.744E+06    -22.8127E+06     2.27939E+06         35.6315
            1016     5.46889E-03     13.5075E-03     337.879E-03     317.780E-03        -1.20525     319.279E-03        -1.20480     335.933E-03     21.3605E-03     193.774E-03    -93.0854E-03    -100.754E-03    -100.471E-03     193.491E-03    -93.0854E-03    -18.0533E-03    -44.0823E+06    -106.252E+06    -197.807E+06    -106.349E+06    -197.711E+06    -44.0823E+06     2.31990E+06         35.1889
            1017     4.56293E-03     13.5098E-03     348.035E-03     326.197E-03        -1.22039     336.226E-03        -1.21985     337.473E-03     50.4489E-03     189.414E-03    -91.8810E-03    -97.6011E-03    -97.3207E-03     189.134E-03    -91.8810E-03    -17.7357E-03    -64.7588E+06    -117.022E+06    -227.377E+06    -117.078E+06    -227.320E+06    -64.7588E+06     1.26887E+06         34.8018
            1018     3.65446E-03     13.5108E-03     357.166E-03     331.321E-03        -1.22941     352.466E-03        -1.22896     335.570E-03     47.2353E-03     185.382E-03    -90.7460E-03    -94.6001E-03    -94.3659E-03     185.148E-03    -90.7460E-03    -16.0012E-03    -88.5698E+06    -127.010E+06    -249.117E+06    -127.025E+06    -249.102E+06    -88.5698E+06     50.9414E+03         34.4389
            1019     2.74350E-03     13.5134E-03     348.756E-03     328.360E-03        -1.21576     344.068E-03        -1.21418     331.470E-03     86.8904E-03     181.984E-03    -89.8117E-03    -92.1315E-03    -91.9703E-03     181.823E-03    -89.8117E-03    -13.0762E-03    -112.779E+06    -135.874E+06    -280.205E+06    -135.879E+06    -280.200E+06    -112.779E+06     17.6127E+03         34.1235
            1020     1.83025E-03     13.5149E-03     341.736E-03     319.749E-03        -1.19906     323.300E-03        -1.19241     331.529E-03    -47.1997E-03     179.271E-03    -89.0892E-03    -90.1079E-03    -90.0223E-03     179.185E-03    -89.0892E-03    -9.32958E-03    -132.475E+06    -143.026E+06    -309.758E+06    -142.684E+06    -309.743E+06    -132.833E+06     401.848E+03         33.9038
            1021     915.327E-06     13.5151E-03     425.256E-03     270.605E-03        -1.24499     245.979E-03        -1.21641     421.302E-03     146.810E-03     177.521E-03    -88.5765E-03    -88.9135E-03    -88.8849E-03     177.493E-03    -88.5765E-03    -4.89968E-03    -143.378E+06    -149.217E+06    -334.186E+06    -147.039E+06    -334.150E+06    -145.592E+06    -1.31038E+06         33.7682
            1022     15.3156E-03     12.4602E-03     370.894E-03     326.038E-03        -1.24447     370.738E-03        -1.24432     326.038E-03     1.05833E-03     219.177E-03    -105.129E-03    -114.029E-03    -113.298E-03     218.446E-03    -105.129E-03     30.3733E-03     139.906E+06     127.958E+06    -8.43076E+06    -8.42893E+06     139.291E+06     128.572E+06     362.335E+03         48.8054
            1023     14.4230E-03     12.4118E-03     369.917E-03     322.431E-03        -1.23928     369.711E-03        -1.23908     322.431E-03    -4.90575E-03     219.545E-03    -104.384E-03    -115.153E-03    -114.391E-03     218.782E-03    -104.384E-03     31.2873E-03     130.328E+06     106.579E+06    -15.8097E+06    -15.8070E+06     130.325E+06     106.579E+06     475.584E+03         46.2851
            1024     13.5322E-03     12.3791E-03     355.879E-03     318.951E-03        -1.21711     355.710E-03        -1.21694     318.951E-03    -16.5621E-03     219.231E-03    -103.532E-03    -115.747E-03    -115.359E-03     218.843E-03    -103.532E-03     22.6684E-03     121.357E+06     91.7046E+06    -22.8830E+06    -22.8808E+06     121.355E+06     91.7046E+06     124.287E+03         43.4593
            1025     12.6417E-03     12.3493E-03     355.925E-03     315.649E-03        -1.21137     355.844E-03        -1.21129     315.649E-03    -10.1558E-03     218.828E-03    -102.560E-03    -116.332E-03    -116.115E-03     218.610E-03    -102.560E-03     16.6954E-03     92.5491E+06     65.1490E+06    -30.7973E+06    -30.7909E+06     82.3803E+06     75.3115E+06     457.938E+03         40.9950
            1026     11.7516E-03     12.3251E-03     358.286E-03     311.930E-03        -1.21104     358.127E-03        -1.21088     311.930E-03    -21.7669E-03     218.061E-03    -101.491E-03    -116.660E-03    -116.584E-03     217.985E-03    -101.491E-03     9.34623E-03     61.8202E+06     9.82705E+06    -38.9425E+06    -38.6851E+06     9.56974E+06     61.8202E+06     1.76442E+06         39.1865
            1027     10.8622E-03     12.3089E-03     338.650E-03     305.422E-03        -1.18321     335.283E-03        -1.18309     308.667E-03    -6.62713E-03     216.292E-03    -100.207E-03    -116.202E-03    -116.190E-03     216.280E-03    -100.207E-03     2.44770E-03     51.8636E+06    -30.2124E+06    -47.0966E+06    -46.6018E+06    -30.7071E+06     51.8636E+06     2.77364E+06         38.0661
            1028     9.97155E-03     12.2964E-03     316.071E-03     301.568E-03        -1.15528     310.485E-03        -1.15524     307.115E-03     7.97747E-03     213.656E-03    -98.7171E-03    -114.919E-03    -114.900E-03     213.637E-03    -98.7171E-03    -3.82739E-03     41.3879E+06    -45.4080E+06    -64.7297E+06    -54.8577E+06    -55.2800E+06     41.3879E+06     3.00371E+06         37.4526
            1029     9.07948E-03     12.2903E-03     312.691E-03     300.182E-03        -1.15350     306.045E-03        -1.15348     306.813E-03     1.72609E-03     210.232E-03    -97.1689E-03    -112.986E-03    -112.906E-03     210.153E-03    -97.1689E-03    -9.69715E-03     28.8384E+06    -62.9692E+06    -86.4761E+06    -63.3707E+06    -86.0746E+06     28.8384E+06     2.94360E+06         36.9793
            1030     8.18549E-03     12.2870E-03     325.476E-03     301.637E-03        -1.16927     320.922E-03        -1.16904     305.966E-03    -19.4680E-03     205.958E-03    -95.5232E-03    -110.484E-03    -110.308E-03     205.783E-03    -95.5232E-03    -14.6560E-03     15.2096E+06    -72.6979E+06    -108.063E+06    -72.9691E+06    -107.791E+06     15.2096E+06     2.96120E+06         36.5169
            1031     7.28837E-03     12.2881E-03     339.970E-03     302.911E-03        -1.18417     339.683E-03        -1.18388     302.911E-03    -28.1887E-03     201.227E-03    -93.7402E-03    -107.443E-03    -107.159E-03     200.943E-03    -93.7402E-03    -18.5548E-03    -1.15826E+06    -82.9236E+06    -134.928E+06    -83.1016E+06    -134.750E+06    -1.15826E+06     2.65664E+06         36.0499
            1032     6.38896E-03     12.2910E-03     333.508E-03     298.285E-03        -1.17079     333.229E-03        -1.17051     298.285E-03    -10.1428E-03     195.938E-03    -91.9033E-03    -103.932E-03    -103.558E-03     195.564E-03    -91.9033E-03    -21.0692E-03    -19.0405E+06    -92.9305E+06    -164.893E+06    -93.0929E+06    -164.730E+06    -19.0405E+06     3.05526E+06         35.5168
            1033     5.48563E-03     12.2981E-03     313.267E-03     290.965E-03        -1.14075     308.797E-03        -1.14016     294.839E-03    -20.1834E-03     190.207E-03    -90.2214E-03    -100.089E-03    -99.6726E-03     189.791E-03    -90.2214E-03    -21.9049E-03    -39.5244E+06    -104.144E+06    -194.816E+06    -104.311E+06    -194.650E+06    -39.5244E+06     3.57730E+06         34.9791
            1034     4.57879E-03     12.3049E-03     310.942E-03     288.625E-03        -1.13381     306.505E-03        -1.13324     292.500E-03    -26.4101E-03     184.640E-03    -88.6576E-03    -96.0652E-03    -95.6654E-03     184.240E-03    -88.6576E-03    -21.1342E-03    -62.8540E+06    -115.598E+06    -223.277E+06    -115.656E+06    -223.219E+06    -62.8540E+06     1.41553E+06         34.5126
            1035     3.66822E-03     12.3122E-03     312.789E-03     288.309E-03        -1.13666     312.325E-03        -1.13619     288.309E-03    -20.3759E-03     179.491E-03    -87.2391E-03    -92.2537E-03    -91.9234E-03     179.161E-03    -87.2391E-03    -18.8615E-03    -88.8158E+06    -125.927E+06    -249.286E+06    -125.935E+06    -249.278E+06    -88.8158E+06     242.163E+03         34.0896
            1036     2.75408E-03     12.3194E-03     312.523E-03     280.256E-03        -1.13350     311.531E-03        -1.13251     280.256E-03    -4.34567E-03     175.207E-03    -86.1318E-03    -89.0968E-03    -88.8696E-03     174.979E-03    -86.1318E-03    -15.3507E-03    -113.234E+06    -135.098E+06    -280.215E+06    -135.116E+06    -280.198E+06    -113.234E+06     1.11012E+06         33.7102
            1037     1.83761E-03     12.3246E-03     306.160E-03     258.185E-03        -1.10725     293.232E-03        -1.10525     269.109E-03    -52.9735E-03     171.982E-03    -85.2506E-03    -86.6670E-03    -86.5462E-03     171.861E-03    -85.2506E-03    -10.8926E-03    -131.894E+06    -142.885E+06    -308.642E+06    -142.905E+06    -308.622E+06    -131.894E+06     1.15705E+06         33.4276
            1038     919.457E-06     12.3274E-03     343.101E-03     192.542E-03        -1.07877     200.183E-03        -1.06941     326.099E-03     73.6113E-03     169.656E-03    -84.5729E-03    -85.0356E-03    -84.9963E-03     169.617E-03    -84.5729E-03    -5.72023E-03    -142.511E+06    -149.092E+06    -332.194E+06    -147.266E+06    -332.164E+06    -144.366E+06     886.504E+03         33.2487
            1039     15.3165E-03     11.2135E-03     364.146E-03     298.838E-03        -1.20217     363.999E-03        -1.20202     298.838E-03     29.6843E-03     220.064E-03    -105.057E-03    -115.024E-03    -114.292E-03     219.332E-03    -105.057E-03     30.1608E-03     140.044E+06     128.131E+06    -7.96954E+06    -7.96447E+06     139.328E+06     128.842E+06    -223.633E+03         48.8851
            1040     14.4256E-03     11.1656E-03     352.405E-03     294.251E-03        -1.18336     352.146E-03        -1.18310     294.251E-03     36.0910E-03     220.534E-03    -104.252E-03    -116.299E-03    -115.495E-03     219.730E-03    -104.252E-03     32.2363E-03     130.529E+06     107.011E+06    -14.8847E+06    -14.8781E+06     130.523E+06     107.011E+06    -7.45243E+03         46.3730
            1041     13.5350E-03     11.1328E-03     335.999E-03     290.112E-03        -1.16360     335.826E-03        -1.16343     290.112E-03     19.2008E-03     220.476E-03    -103.320E-03    -117.212E-03    -116.797E-03     220.061E-03    -103.320E-03     23.5333E-03     120.969E+06     91.2724E+06    -22.6815E+06    -22.6779E+06     120.966E+06     91.2724E+06     563.357E+03         43.5552
            1042     12.6463E-03     11.1021E-03     328.503E-03     286.446E-03        -1.15009     328.423E-03        -1.15001     286.446E-03    -7.69447E-03     220.306E-03    -102.219E-03    -118.135E-03    -117.898E-03     220.070E-03    -102.219E-03     17.4919E-03     92.1858E+06     64.1901E+06    -30.3408E+06    -30.3162E+06      81.547E+06     74.8042E+06     1.22008E+06         41.1035
            1043     11.7584E-03     11.0791E-03     329.022E-03     282.693E-03        -1.14691     328.896E-03        -1.14678     282.693E-03    -21.8429E-03     219.533E-03    -100.971E-03    -118.593E-03    -118.509E-03     219.449E-03    -100.971E-03     9.87517E-03     61.2405E+06      8.9011E+06    -38.4013E+06    -38.1114E+06     8.61117E+06     61.2405E+06     2.15559E+06         39.3158
            1044     10.8703E-03     11.0647E-03     330.364E-03     278.486E-03        -1.14552     330.283E-03        -1.14544     278.486E-03    -6.18393E-03     217.578E-03    -99.4499E-03    -118.145E-03    -118.132E-03     217.564E-03    -99.4499E-03     2.46144E-03     51.7341E+06    -30.2918E+06    -46.2665E+06    -45.8247E+06    -30.7337E+06     51.7341E+06     2.55756E+06         38.2134
            1045     9.98170E-03     11.0569E-03     314.085E-03     274.416E-03        -1.12552     314.044E-03        -1.12548     274.416E-03     11.0183E-03     214.609E-03    -97.7241E-03    -116.855E-03    -116.832E-03     214.586E-03    -97.7241E-03    -4.33127E-03     42.0708E+06    -44.8097E+06    -64.1862E+06    -54.0074E+06    -54.9884E+06     42.0708E+06     2.95473E+06         37.5976
            1046     9.09144E-03     11.0554E-03     288.952E-03     267.664E-03        -1.09518     284.583E-03        -1.09514     271.993E-03     5.13145E-03     210.701E-03    -95.9274E-03    -114.800E-03    -114.704E-03     210.605E-03    -95.9274E-03    -10.7024E-03     29.8955E+06    -62.6712E+06    -85.3692E+06    -63.1129E+06    -84.9275E+06     29.8955E+06     3.03333E+06         37.0970
            1047     8.19864E-03     11.0600E-03     281.411E-03     266.835E-03        -1.08630     277.032E-03        -1.08625     271.164E-03    -8.12592E-03     205.704E-03    -93.9862E-03    -111.875E-03    -111.668E-03     205.497E-03    -93.9862E-03    -16.0053E-03     17.0227E+06    -71.8571E+06    -107.080E+06    -72.1012E+06    -106.836E+06     17.0227E+06     2.43580E+06         36.5813
            1048     7.30332E-03     11.0675E-03     287.821E-03     269.122E-03        -1.09444     286.858E-03        -1.09439     270.040E-03    -4.98804E-03     199.895E-03    -91.9032E-03    -107.998E-03    -107.675E-03     199.571E-03    -91.9032E-03    -19.8573E-03     1.48431E+06    -81.4650E+06    -134.346E+06    -81.6951E+06    -134.116E+06     1.48431E+06     2.72185E+06         36.0464
            1049     6.40363E-03     11.0782E-03     299.383E-03     266.190E-03        -1.10284     298.374E-03        -1.10274     267.108E-03     18.3859E-03     193.599E-03    -89.7896E-03    -103.639E-03    -103.226E-03     193.186E-03    -89.7896E-03    -22.1101E-03    -15.8210E+06    -92.5100E+06    -165.133E+06    -92.7619E+06    -164.881E+06    -15.8210E+06     3.78213E+06         35.4514
            1050     5.49969E-03     11.0935E-03     295.750E-03     262.555E-03        -1.09761     295.303E-03        -1.09716     262.555E-03    -11.7693E-03     186.882E-03    -87.8822E-03    -99.0625E-03    -98.6178E-03     186.438E-03    -87.8822E-03    -22.5275E-03    -37.1140E+06    -103.268E+06    -191.781E+06    -103.428E+06    -191.621E+06    -37.1140E+06     3.48675E+06         34.8487
            1051     4.59122E-03     11.1074E-03     274.232E-03     254.680E-03        -1.07082     269.134E-03        -1.07028     259.239E-03    -44.2491E-03     180.443E-03    -86.1389E-03    -94.4101E-03    -93.9943E-03     180.027E-03    -86.1389E-03    -21.3508E-03    -61.8144E+06    -113.861E+06    -219.174E+06    -113.904E+06    -219.131E+06    -61.8144E+06     1.70576E+06         34.3158
            1052     3.67875E-03     11.1218E-03     261.974E-03     252.681E-03        -1.05539     255.082E-03        -1.05491     259.090E-03    -45.9837E-03     174.821E-03    -84.6032E-03    -90.2116E-03    -89.8718E-03     174.481E-03    -84.6032E-03    -18.9189E-03    -85.9560E+06    -124.609E+06    -250.346E+06    -124.627E+06    -250.329E+06    -85.9560E+06     1.33034E+06         33.8462
            1053     2.76264E-03     11.1338E-03     273.060E-03     254.404E-03        -1.06833     268.748E-03        -1.06770     258.079E-03    -38.8081E-03     170.052E-03    -83.3818E-03    -86.7024E-03    -86.4693E-03     169.819E-03    -83.3818E-03    -15.3441E-03    -108.985E+06    -134.373E+06    -279.577E+06    -134.400E+06    -279.550E+06    -108.985E+06     1.93524E+06         33.4320
            1054     1.84360E-03     11.1441E-03     285.413E-03     246.110E-03        -1.07569     282.059E-03        -1.07416     247.935E-03    -66.4672E-03     166.375E-03    -82.3801E-03    -83.9742E-03    -83.8515E-03     166.252E-03    -82.3801E-03    -10.8126E-03    -128.936E+06    -141.202E+06    -306.612E+06    -141.223E+06    -306.591E+06    -128.936E+06     1.45019E+06         33.1178
            1055     922.359E-06     11.1490E-03     287.621E-03     197.158E-03        -1.03073     214.865E-03        -1.02475     263.938E-03     46.3274E-03     163.820E-03    -81.5022E-03    -82.2986E-03    -82.2590E-03     163.780E-03    -81.5022E-03    -5.64777E-03    -141.174E+06    -146.687E+06    -330.907E+06    -145.592E+06    -330.883E+06    -142.294E+06     1.12731E+06         32.9104
            1056     15.3184E-03     9.96889E-03     355.623E-03     273.438E-03        -1.15340     355.329E-03        -1.15310     273.438E-03    -9.53572E-03     220.709E-03    -105.001E-03    -115.721E-03    -114.948E-03     219.936E-03    -105.001E-03     30.4425E-03     140.250E+06     127.239E+06    -7.74215E+06    -7.72504E+06     138.963E+06     128.509E+06    -604.050E+03         48.9411
            1057     14.4263E-03     9.91827E-03     340.995E-03     268.090E-03        -1.13215     340.510E-03        -1.13166     268.090E-03    -4.41829E-03     221.194E-03    -104.128E-03    -117.061E-03    -116.172E-03     220.304E-03    -104.128E-03     33.8739E-03     129.228E+06     105.228E+06    -15.5741E+06    -15.5642E+06     129.218E+06     105.228E+06     366.685E+03         46.4348
            1058     13.5376E-03     9.88394E-03     332.200E-03     262.873E-03        -1.12083     331.817E-03        -1.12045     262.873E-03    -6.59363E-03     221.317E-03    -103.145E-03    -118.185E-03    -117.728E-03     220.861E-03    -103.145E-03     24.7843E-03     120.312E+06     90.6053E+06    -23.4264E+06    -23.4107E+06     120.297E+06     90.6053E+06     1.25773E+06         43.6227
            1059     12.6493E-03     9.85400E-03     312.681E-03     258.096E-03        -1.09844     312.593E-03        -1.09835     258.096E-03    -4.46367E-03     221.210E-03    -101.974E-03    -119.227E-03    -118.949E-03     220.931E-03    -101.974E-03     19.0700E-03     91.7437E+06     63.5788E+06    -31.4425E+06    -31.4044E+06     80.9891E+06     74.2954E+06     1.80354E+06         41.1829
            1060     11.7622E-03     9.83282E-03     291.596E-03     254.332E-03        -1.07737     291.112E-03        -1.07689     254.332E-03    -28.8522E-03     220.384E-03    -100.613E-03    -119.742E-03    -119.636E-03     220.279E-03    -100.613E-03     11.2367E-03     61.8429E+06     9.13043E+06    -38.6858E+06    -38.5576E+06     9.00222E+06     61.8429E+06     1.68406E+06         39.4278
            1061     10.8758E-03     9.82181E-03     297.576E-03     250.780E-03        -1.08314     297.074E-03        -1.08264     250.780E-03    -28.6027E-03     218.299E-03    -98.9815E-03    -119.277E-03    -119.257E-03     218.279E-03    -98.9815E-03     3.82785E-03     52.6038E+06    -30.8384E+06    -46.0967E+06    -45.8486E+06    -31.0865E+06     52.6038E+06     1.81475E+06         38.3563
            1062     9.98825E-03     9.81655E-03     305.286E-03     246.163E-03        -1.08574     305.243E-03        -1.08570     246.163E-03     5.82368E-03     215.099E-03    -97.1185E-03    -117.910E-03    -117.893E-03     215.082E-03    -97.1185E-03    -2.93536E-03     43.5441E+06    -45.3835E+06    -63.3682E+06    -53.6352E+06    -55.1165E+06     43.5441E+06     2.62265E+06         37.7327
            1063     9.09919E-03     9.82073E-03     289.205E-03     241.262E-03        -1.06610     289.021E-03        -1.06592     241.262E-03    -13.8932E-03     210.621E-03    -95.1829E-03    -115.477E-03    -115.405E-03     210.550E-03    -95.1829E-03    -9.07566E-03     32.6541E+06    -61.4752E+06    -83.6336E+06    -61.8423E+06    -83.2665E+06     32.6541E+06     2.64410E+06         37.2041
            1064     8.20774E-03     9.83043E-03     263.138E-03     237.797E-03        -1.03718     262.648E-03        -1.03669     237.797E-03    -41.3262E-03     204.759E-03    -93.1131E-03    -111.864E-03    -111.709E-03     204.605E-03    -93.1131E-03    -13.6040E-03     19.5709E+06    -71.0399E+06    -106.351E+06    -71.2190E+06    -106.172E+06     19.5709E+06     2.03457E+06         36.6517
            1065     7.31155E-03     9.84723E-03     244.787E-03     235.467E-03        -1.01721     243.488E-03        -1.01683     236.384E-03    -32.0120E-03     198.232E-03    -90.9704E-03    -107.312E-03    -107.078E-03     197.998E-03    -90.9704E-03    -16.5822E-03     2.69044E+06    -81.6596E+06    -135.573E+06    -81.8919E+06    -135.341E+06     2.69044E+06     3.08119E+06         36.0744
            1066     6.41117E-03     9.86717E-03     248.215E-03     234.710E-03        -1.02289     247.232E-03        -1.02283     235.628E-03    -2.93519E-03     191.522E-03    -88.8436E-03    -102.507E-03    -102.219E-03     191.233E-03    -88.8436E-03    -18.0860E-03    -14.8478E+06    -91.6883E+06    -162.872E+06    -91.8737E+06    -162.687E+06    -14.8478E+06     2.78100E+06         35.4597
            1067     5.50616E-03     9.88946E-03     257.921E-03     233.329E-03        -1.02945     257.889E-03        -1.02942     233.329E-03     5.32624E-03     184.802E-03    -86.9329E-03    -97.8038E-03    -97.4970E-03     184.495E-03    -86.9329E-03    -18.2891E-03    -32.7545E+06    -100.600E+06    -189.718E+06    -100.651E+06    -189.667E+06    -32.7545E+06     1.17095E+06         34.8434
            1068     4.59666E-03     9.91257E-03     254.136E-03     225.343E-03        -1.01351     249.544E-03        -1.01348     229.901E-03    -1.47578E-03     178.404E-03    -85.2347E-03    -93.1542E-03    -92.8688E-03     178.119E-03    -85.2347E-03    -17.2833E-03    -53.8451E+06    -110.617E+06    -218.492E+06    -110.688E+06    -218.421E+06    -53.8451E+06     1.94471E+06         34.2867
            1069     3.68276E-03     9.93394E-03     239.372E-03     221.519E-03    -993.360E-03     232.832E-03    -993.229E-03     227.928E-03    -3.47409E-03     172.801E-03    -83.7474E-03    -89.0006E-03    -88.7702E-03     172.570E-03    -83.7474E-03    -15.2253E-03    -77.6937E+06    -121.108E+06    -248.983E+06    -121.164E+06    -248.927E+06    -77.6937E+06     1.51544E+06         33.8080
            1070     2.76565E-03     9.95255E-03     230.255E-03     219.327E-03    -983.757E-03     219.880E-03    -983.578E-03     229.523E-03     3.77652E-03     168.219E-03    -82.5554E-03    -85.6381E-03    -85.4831E-03     168.064E-03    -82.5554E-03    -12.2217E-03    -102.745E+06    -129.950E+06    -279.382E+06    -129.966E+06    -279.366E+06    -102.745E+06     525.116E+03         33.3981
            1071     1.84544E-03     9.96659E-03     242.815E-03     211.768E-03    -994.620E-03     217.941E-03    -994.112E-03     236.134E-03    -27.5439E-03     164.683E-03    -81.5801E-03    -83.0624E-03    -82.9830E-03     164.603E-03    -81.5801E-03    -8.49722E-03    -123.695E+06    -136.583E+06    -305.685E+06    -136.601E+06    -305.666E+06    -123.695E+06     1.62024E+06         33.0909
            1072     923.275E-06     9.97523E-03     285.981E-03     202.596E-03        -1.04335     202.449E-03        -1.03652     279.300E-03     93.6842E-03     162.244E-03    -80.6438E-03    -81.5707E-03    -81.5446E-03     162.218E-03    -80.6438E-03    -4.54510E-03    -138.067E+06    -143.057E+06    -329.005E+06    -141.839E+06    -328.949E+06    -139.341E+06     2.35778E+06         32.8874
            1073     15.3178E-03     8.72299E-03     339.820E-03     252.039E-03        -1.11819     339.568E-03        -1.11793     252.039E-03    -15.3356E-03     221.101E-03    -104.995E-03    -116.067E-03    -115.234E-03     220.268E-03    -104.995E-03     30.8550E-03     139.808E+06     127.308E+06    -8.06813E+06    -8.03862E+06     138.359E+06     128.727E+06    -459.258E+03         48.9659
            1074     14.4279E-03     8.66963E-03     339.516E-03     245.955E-03        -1.10928     339.199E-03        -1.10896     245.955E-03    -18.9563E-03     221.795E-03    -104.090E-03    -117.653E-03    -116.647E-03     220.790E-03    -104.090E-03     35.9876E-03     129.001E+06     106.047E+06    -15.8377E+06    -15.8026E+06     128.965E+06     106.047E+06     1.90118E+06         46.4646
            1075     13.5385E-03     8.63501E-03     331.811E-03     239.412E-03        -1.09591     331.546E-03        -1.09565     239.412E-03    -29.7921E-03     221.687E-03    -103.080E-03    -118.599E-03    -118.084E-03     221.172E-03    -103.080E-03     26.3851E-03     119.609E+06     91.2990E+06    -24.4442E+06    -24.4034E+06     119.568E+06     91.2990E+06     2.03788E+06         43.6482
            1076     12.6506E-03     8.60599E-03     316.092E-03     232.976E-03        -1.07684     315.850E-03        -1.07660     232.976E-03    -3.35554E-03     221.230E-03    -101.875E-03    -119.367E-03    -119.032E-03     220.895E-03    -101.875E-03     20.9841E-03     92.3290E+06     65.4810E+06    -32.1854E+06    -32.1655E+06     81.8975E+06     75.8927E+06     1.40700E+06         41.2025
            1077     11.7640E-03     8.58600E-03     287.136E-03     227.468E-03        -1.04445     286.535E-03        -1.04385     227.468E-03    -15.4735E-03     220.067E-03    -100.492E-03    -119.545E-03    -119.400E-03     219.922E-03    -100.492E-03     13.4227E-03     63.4288E+06     9.43024E+06    -39.4746E+06    -39.3936E+06     9.34927E+06     63.4288E+06     1.14060E+06         39.4586
            1078     10.8770E-03     8.57763E-03     261.914E-03     223.499E-03        -1.01433     261.405E-03        -1.01382     223.499E-03    -25.7446E-03     217.640E-03    -98.9282E-03    -118.717E-03    -118.673E-03     217.596E-03    -98.9282E-03     6.89032E-03     54.0018E+06    -32.1353E+06    -48.2805E+06    -47.9723E+06    -32.4436E+06     54.0018E+06     2.05521E+06         38.4037
            1079     9.98943E-03     8.57682E-03     266.089E-03     219.904E-03        -1.01297     265.967E-03        -1.01285     219.904E-03     12.0697E-03     213.779E-03    -97.1445E-03    -116.588E-03    -116.572E-03     213.764E-03    -97.1445E-03     1.48121E-03     44.2283E+06    -47.1929E+06    -62.9790E+06    -56.8202E+06    -53.3517E+06     44.2283E+06     1.27613E+06         37.7716
            1080     9.09979E-03     8.58635E-03     271.687E-03     215.299E-03        -1.01376     271.381E-03        -1.01345     215.299E-03     2.68891E-03     208.739E-03    -95.3610E-03    -113.365E-03    -113.341E-03     208.715E-03    -95.3610E-03    -2.75901E-03     32.8049E+06    -63.7777E+06    -83.2272E+06    -64.3051E+06    -82.6998E+06     32.8049E+06     265.386E+03         37.2314
            1081     8.20571E-03     8.60527E-03     257.535E-03     210.373E-03    -996.439E-03     256.929E-03    -995.832E-03     210.373E-03    -34.5620E-03     202.789E-03    -93.5433E-03    -109.484E-03    -109.434E-03     202.739E-03    -93.5433E-03    -5.35087E-03     21.0692E+06    -72.1103E+06    -107.235E+06    -72.2138E+06    -107.132E+06     21.0692E+06     1.64940E+06         36.6923
            1082     7.30810E-03     8.62967E-03     237.925E-03     206.447E-03    -976.266E-03     237.462E-03    -975.802E-03     206.447E-03    -31.7131E-03     196.769E-03    -91.6995E-03    -105.220E-03    -105.144E-03     196.693E-03    -91.6995E-03    -7.09563E-03     6.90118E+06    -80.5245E+06    -134.629E+06    -80.6819E+06    -134.471E+06     6.90118E+06     1.19623E+06         36.1451
            1083     6.40612E-03     8.65862E-03     217.410E-03     202.124E-03    -954.373E-03     214.980E-03    -954.294E-03     204.475E-03    -564.013E-06     190.902E-03    -89.8844E-03    -100.903E-03    -100.809E-03     190.809E-03    -89.8844E-03    -8.14555E-03    -8.13282E+06    -88.3026E+06    -159.413E+06    -88.4695E+06    -159.246E+06    -8.13282E+06    -1.40550E+06         35.5741
            1084     5.49995E-03     8.68915E-03     216.089E-03     201.315E-03    -951.356E-03     213.716E-03    -951.333E-03     203.666E-03     8.96893E-03     185.286E-03    -88.2510E-03    -96.8961E-03    -96.7963E-03     185.187E-03    -88.2510E-03    -8.63429E-03    -23.6886E+06    -96.3659E+06    -190.167E+06    -96.5018E+06    -190.031E+06    -23.6886E+06    -2.67228E+06         35.0112
            1085     4.59017E-03     8.71983E-03     231.160E-03     200.541E-03    -958.834E-03     231.100E-03    -958.774E-03     200.541E-03     15.3308E-03     179.951E-03    -86.8117E-03    -93.1080E-03    -93.0137E-03     179.856E-03    -86.8117E-03    -8.47881E-03    -43.1661E+06    -104.575E+06    -220.524E+06    -104.713E+06    -220.386E+06    -43.1661E+06    -1.58242E+06         34.5046
            1086     3.67693E-03     8.74826E-03     216.030E-03     195.595E-03    -935.086E-03     215.862E-03    -934.958E-03     195.634E-03     9.43442E-03     175.151E-03    -85.5261E-03    -89.6452E-03    -89.5675E-03     175.074E-03    -85.5261E-03    -7.72254E-03    -69.5158E+06    -113.007E+06    -247.582E+06    -113.107E+06    -247.482E+06    -69.5158E+06    -750.003E+03         34.0731
            1087     2.76028E-03     8.77180E-03     195.613E-03     187.080E-03    -907.953E-03     187.466E-03    -907.607E-03     194.881E-03    -18.0620E-03     171.519E-03    -84.5266E-03    -86.9747E-03    -86.9205E-03     171.465E-03    -84.5266E-03    -6.57079E-03    -95.1429E+06    -121.245E+06    -280.866E+06    -121.252E+06    -280.860E+06    -95.1429E+06    -204.734E+03         33.7126
            1088     1.84161E-03     8.78957E-03     205.981E-03     177.809E-03    -916.547E-03     181.559E-03    -915.907E-03     201.592E-03    -48.2800E-03     168.630E-03    -83.6715E-03    -84.9199E-03    -84.8911E-03     168.601E-03    -83.6715E-03    -4.84988E-03    -114.311E+06    -128.886E+06    -307.465E+06    -128.909E+06    -307.443E+06    -114.311E+06     1.70047E+06         33.4463
            1089     921.466E-06     8.80063E-03     237.047E-03     182.170E-03    -954.600E-03     189.216E-03    -949.610E-03     225.011E-03     74.7678E-03     166.415E-03    -82.5797E-03    -83.8113E-03    -83.1694E-03     166.406E-03    -83.2120E-03    -2.48024E-03    -128.849E+06    -134.563E+06    -323.891E+06    -134.473E+06    -323.827E+06    -129.003E+06     3.14082E+06         33.2732
            1090     15.3181E-03     7.47647E-03     338.095E-03     231.701E-03        -1.09616     337.934E-03        -1.09600     231.701E-03     7.61706E-03     221.210E-03    -104.990E-03    -116.164E-03    -115.251E-03     220.297E-03    -104.990E-03     31.7844E-03     138.145E+06     126.585E+06    -9.55870E+06    -9.54119E+06     136.950E+06     127.763E+06    -93.5456E+03         48.9466
            1091     14.4268E-03     7.42242E-03     324.227E-03     224.856E-03        -1.07574     324.073E-03        -1.07558     224.856E-03     6.53670E-03     222.188E-03    -104.090E-03    -118.030E-03    -116.932E-03     221.090E-03    -104.090E-03     37.4256E-03     128.025E+06     107.616E+06    -17.2492E+06    -17.2173E+06     127.993E+06     107.616E+06     1.14109E+06         46.4500
            1092     13.5382E-03     7.38730E-03     312.552E-03     218.052E-03        -1.05733     312.307E-03        -1.05709     218.052E-03    -12.1329E-03     221.201E-03    -103.118E-03    -118.040E-03    -117.497E-03     220.658E-03    -103.118E-03     27.0959E-03     121.157E+06     96.9801E+06    -22.0702E+06    -22.0286E+06     121.116E+06     96.9801E+06     354.922E+03         43.6205
            1093     12.6503E-03     7.35823E-03     308.737E-03     211.074E-03        -1.04421     308.407E-03        -1.04388     211.074E-03    -9.02516E-03     219.727E-03    -102.012E-03    -117.733E-03    -117.332E-03     219.326E-03    -102.012E-03     23.0285E-03     95.1936E+06     67.6886E+06    -26.9977E+06    -26.9786E+06     81.8200E+06     81.0430E+06     9.98509E+03         41.1473
            1094     11.7613E-03     7.33966E-03     296.596E-03     203.857E-03        -1.02577     296.323E-03        -1.02550     203.857E-03    -5.27451E-03     217.731E-03    -100.801E-03    -116.891E-03    -116.662E-03     217.502E-03    -100.801E-03     17.1267E-03     66.6647E+06     8.27513E+06    -35.5360E+06    -34.6206E+06     7.35968E+06     66.6647E+06     2.25091E+06         39.3587
            1095     10.8725E-03     7.33412E-03     260.619E-03     197.680E-03    -985.403E-03     260.441E-03    -985.224E-03     197.680E-03    -10.7059E-03     214.399E-03    -99.5208E-03    -114.862E-03    -114.720E-03     214.258E-03    -99.5208E-03     12.8842E-03     59.6091E+06    -30.0828E+06    -44.1672E+06    -42.9924E+06    -31.2576E+06     59.6091E+06     2.49987E+06         38.2567
            1096     9.98107E-03     7.33897E-03     231.182E-03     193.530E-03    -951.240E-03     230.985E-03    -951.043E-03     193.530E-03     8.09865E-03     209.782E-03    -98.1893E-03    -111.628E-03    -111.517E-03     209.671E-03    -98.1893E-03     10.3092E-03     51.1946E+06    -43.2949E+06    -58.5576E+06    -51.5850E+06    -50.2674E+06     51.1946E+06     245.600E+03         37.6235
            1097     9.08578E-03     7.35628E-03     233.229E-03     190.045E-03    -950.336E-03     232.994E-03    -950.101E-03     190.045E-03     6.78200E-03     205.122E-03    -96.9909E-03    -108.167E-03    -108.060E-03     205.015E-03    -96.9909E-03     8.97963E-03     38.6253E+06    -60.9761E+06    -83.7092E+06    -61.5072E+06    -83.1781E+06     38.6253E+06    -1.39133E+06         37.1322
            1098     8.18800E-03     7.38191E-03     243.257E-03     185.234E-03    -953.952E-03     242.997E-03    -953.692E-03     185.234E-03    -14.9447E-03     200.831E-03    -95.8252E-03    -105.196E-03    -105.079E-03     200.715E-03    -95.8252E-03     8.56932E-03     28.5637E+06    -69.4924E+06    -108.002E+06    -69.9644E+06    -107.530E+06     28.5637E+06    -2.59672E+06         36.6745
            1099     7.28679E-03     7.41339E-03     225.956E-03     179.817E-03    -931.423E-03     225.732E-03    -931.199E-03     179.817E-03    -12.2097E-03     196.946E-03    -94.6851E-03    -102.469E-03    -102.359E-03     196.836E-03    -94.6851E-03     7.75132E-03     17.9202E+06    -75.2625E+06    -132.040E+06    -76.0274E+06    -131.275E+06     17.9202E+06    -4.94152E+06         36.2443
            1100     6.38343E-03     7.44912E-03     198.891E-03     173.884E-03    -904.558E-03     196.338E-03    -904.356E-03     176.235E-03    -3.31599E-03     193.396E-03    -93.4773E-03    -99.8406E-03    -99.7504E-03     193.306E-03    -93.4773E-03     6.42674E-03     2.12996E+06    -82.3048E+06    -158.651E+06    -83.0730E+06    -157.883E+06     2.12996E+06    -7.14795E+06         35.8106
            1101     5.47758E-03     7.48549E-03     186.545E-03     170.297E-03    -894.166E-03     181.554E-03    -893.898E-03     175.020E-03    -18.3335E-03     189.834E-03    -92.3151E-03    -97.4273E-03    -97.3598E-03     189.766E-03    -92.3151E-03     4.86424E-03    -20.0170E+06    -90.2572E+06    -192.618E+06    -90.9833E+06    -191.892E+06    -20.0170E+06    -8.06187E+06         35.3931
            1102     4.56912E-03     7.52220E-03     188.146E-03     166.912E-03    -891.354E-03     180.257E-03    -891.204E-03     174.650E-03     3.83087E-03     186.439E-03    -91.3372E-03    -95.1237E-03    -95.0799E-03     186.395E-03    -91.3372E-03     3.23395E-03    -43.1103E+06    -97.0965E+06    -224.938E+06    -97.6635E+06    -224.371E+06    -43.1103E+06    -7.86925E+06         35.0230
            1103     3.65841E-03     7.55516E-03     191.935E-03     167.586E-03    -888.905E-03     186.397E-03    -888.772E-03     172.991E-03     10.5219E-03     183.461E-03    -90.4399E-03    -93.0514E-03    -93.0272E-03     183.437E-03    -90.4399E-03     1.72668E-03    -65.3056E+06    -104.350E+06    -253.296E+06    -104.556E+06    -253.091E+06    -65.3056E+06    -3.92306E+06         34.7024
            1104     2.74610E-03     7.58258E-03     186.171E-03     167.936E-03    -877.350E-03     184.558E-03    -877.018E-03     169.217E-03    -15.0165E-03     180.991E-03    -89.6810E-03    -91.3391E-03    -91.3255E-03     180.977E-03    -89.6810E-03     548.308E-06    -88.7398E+06    -113.154E+06    -284.197E+06    -113.188E+06    -284.163E+06    -88.7398E+06     1.10415E+06         34.4365
            1105     1.83220E-03     7.60351E-03     183.706E-03     161.648E-03    -867.400E-03     179.863E-03    -864.799E-03     162.889E-03    -77.2542E-03     178.814E-03    -88.9974E-03    -89.8060E-03    -89.7984E-03     178.806E-03    -88.9974E-03    -97.8575E-06    -108.190E+06    -122.159E+06    -306.890E+06    -122.209E+06    -306.841E+06    -108.190E+06     2.59435E+06         34.2385
            1106     916.358E-06     7.61690E-03     179.987E-03     148.710E-03    -856.366E-03     169.508E-03    -845.887E-03     148.710E-03     59.6549E-03     177.192E-03    -88.1340E-03    -89.0581E-03    -88.4236E-03     177.190E-03    -88.7663E-03    -241.469E-06    -122.687E+06    -128.588E+06    -319.774E+06    -128.562E+06    -319.755E+06    -122.733E+06     1.52229E+06         34.1074
            1107     15.3163E-03     6.23072E-03     343.048E-03     213.450E-03        -1.08274     342.780E-03        -1.08247     213.450E-03    -3.27795E-03     221.502E-03    -104.957E-03    -116.453E-03    -115.549E-03     220.598E-03    -104.957E-03     31.1979E-03     139.092E+06     127.130E+06    -9.31340E+06    -9.29480E+06     136.933E+06     129.270E+06     653.850E+03         48.8669
            1108     14.4274E-03     6.17037E-03     316.370E-03     205.738E-03        -1.04595     316.169E-03        -1.04574     205.738E-03    -12.0014E-03     221.411E-03    -104.078E-03    -117.266E-03    -116.206E-03     220.351E-03    -104.078E-03     36.3541E-03     130.118E+06     110.501E+06    -14.8248E+06    -14.6590E+06     129.952E+06     110.501E+06    -2.93314E+06         46.3697
            1109     13.5379E-03     6.14092E-03     298.561E-03     198.544E-03        -1.01755     298.236E-03        -1.01723     198.544E-03    -18.0172E-03     218.519E-03    -103.225E-03    -115.209E-03    -114.671E-03     217.981E-03    -103.225E-03     26.7197E-03     120.243E+06     100.171E+06    -20.1799E+06    -20.0023E+06     120.066E+06     100.171E+06    -3.08998E+06         43.5370
            1110     12.6458E-03     6.11219E-03     285.312E-03     191.605E-03    -996.732E-03     284.898E-03    -996.319E-03     191.605E-03    -15.0640E-03     215.428E-03    -102.402E-03    -112.958E-03    -112.442E-03     214.912E-03    -102.402E-03     25.8469E-03     92.5867E+06     66.1308E+06    -29.7960E+06    -29.3887E+06     76.0002E+06     82.3100E+06     2.63061E+06         41.0447
            1111     11.7531E-03     6.09788E-03     276.996E-03     184.606E-03    -983.245E-03     276.456E-03    -982.705E-03     184.606E-03    -19.1843E-03     211.985E-03    -101.722E-03    -110.250E-03    -109.813E-03     211.549E-03    -101.722E-03     23.2379E-03     68.3447E+06     12.1505E+06    -41.2562E+06    -39.6366E+06     10.5309E+06     68.3447E+06     2.42013E+06         39.1872
            1112     10.8570E-03     6.09832E-03     266.895E-03     177.399E-03    -969.192E-03     266.474E-03    -968.770E-03     177.399E-03    -26.5808E-03     208.063E-03    -100.639E-03    -107.387E-03    -106.474E-03     207.638E-03    -101.127E-03     22.3086E-03     64.3907E+06    -24.6378E+06    -46.9633E+06    -44.1348E+06    -27.4663E+06     64.3907E+06    -3.16887E+06         37.9709
            1113     9.95696E-03     6.10965E-03     237.254E-03     170.862E-03    -934.107E-03     237.159E-03    -934.012E-03     170.862E-03    -2.61771E-03     204.232E-03    -99.0640E-03    -105.210E-03    -103.172E-03     203.780E-03    -100.650E-03     22.4731E-03     61.0663E+06    -41.8795E+06    -57.1872E+06    -47.3131E+06    -51.7536E+06     61.0663E+06    -2.93907E+06         37.2994
            1114     9.05479E-03     6.13183E-03     211.982E-03     165.911E-03    -903.084E-03     211.848E-03    -902.949E-03     165.911E-03    -16.7406E-03     201.827E-03    -98.1839E-03    -103.747E-03    -101.028E-03     201.315E-03    -100.391E-03     23.6008E-03     52.8766E+06    -53.1282E+06    -81.0780E+06    -53.9642E+06    -80.2420E+06     52.8766E+06    -3.61084E+06         36.9127
            1115     8.15055E-03     6.16101E-03     204.747E-03     161.744E-03    -891.013E-03     204.569E-03    -890.836E-03     161.744E-03    -17.6710E-03     200.796E-03    -98.1386E-03    -102.830E-03    -100.249E-03     200.267E-03    -100.191E-03     24.1012E-03     40.0982E+06    -59.0460E+06    -106.203E+06    -61.1967E+06    -104.052E+06     40.0982E+06    -9.38629E+06         36.6202
            1116     7.24673E-03     6.19581E-03     199.005E-03     157.342E-03    -879.299E-03     198.862E-03    -879.156E-03     157.342E-03    -6.98490E-03     200.192E-03    -98.2940E-03    -102.129E-03    -99.9655E-03     199.717E-03    -99.9824E-03     22.9349E-03     23.1730E+06    -64.1945E+06    -132.906E+06    -67.1855E+06    -129.915E+06     23.1730E+06    -13.5952E+06         36.3887
            1117     6.34270E-03     6.23297E-03     191.282E-03     152.628E-03    -867.422E-03     191.034E-03    -867.173E-03     152.628E-03    -3.82519E-03     199.901E-03    -98.4290E-03    -101.421E-03    -99.8634E-03     199.510E-03    -99.5954E-03     20.7774E-03     1.86139E+06    -69.8494E+06    -163.882E+06    -72.1330E+06    -161.599E+06     1.86139E+06    -13.9949E+06         36.1905
            1118     5.43854E-03     6.27295E-03     167.348E-03     145.546E-03    -841.220E-03     162.778E-03    -840.602E-03     149.497E-03     1.91225E-03     199.348E-03    -98.5827E-03    -100.709E-03    -99.8695E-03     199.055E-03    -99.1289E-03     17.9182E-03    -23.4817E+06    -77.4049E+06    -198.086E+06    -78.7156E+06    -196.775E+06    -23.4817E+06    -11.9705E+06         35.9974
            1119     4.53417E-03     6.31214E-03     151.489E-03     140.670E-03    -823.547E-03     141.774E-03    -823.148E-03     149.987E-03     11.1802E-03     198.530E-03    -98.5721E-03    -99.9244E-03    -99.6029E-03     198.334E-03    -98.6972E-03     14.4997E-03    -49.0119E+06    -88.0070E+06    -232.433E+06    -88.6415E+06    -231.799E+06    -49.0119E+06    -8.76916E+06         35.8239
            1120     3.62928E-03     6.34718E-03     166.536E-03     144.851E-03    -844.676E-03     161.065E-03    -844.571E-03     150.216E-03     18.0651E-03     197.504E-03    -98.2371E-03    -99.1916E-03    -99.0759E-03     197.388E-03    -98.2371E-03     10.8987E-03    -69.8381E+06    -98.9626E+06    -264.150E+06    -99.1424E+06    -263.970E+06    -69.8381E+06    -3.46838E+06         35.6745
            1121     2.72325E-03     6.37670E-03     182.646E-03     143.009E-03    -855.170E-03     182.362E-03    -854.886E-03     143.009E-03     28.5394E-03     196.283E-03    -97.8396E-03    -98.4815E-03    -98.4239E-03     196.225E-03    -97.8396E-03     7.54205E-03    -87.9209E+06    -107.334E+06    -289.014E+06    -107.393E+06    -288.956E+06    -87.9209E+06     2.24949E+06         35.5403
            1122     1.81577E-03     6.40225E-03     163.797E-03     127.775E-03    -813.777E-03     159.742E-03    -811.457E-03     129.511E-03    -30.1309E-03     195.193E-03    -97.4667E-03    -97.7480E-03    -97.7258E-03     195.171E-03    -97.4667E-03     4.57755E-03    -104.080E+06    -114.830E+06    -304.144E+06    -114.930E+06    -304.044E+06    -104.080E+06     4.10751E+06         35.4261
            1123     908.191E-06     6.41631E-03     140.333E-03     115.141E-03    -784.080E-03     123.759E-03    -773.457E-03     121.092E-03     75.9505E-03     194.362E-03    -96.7874E-03    -97.5733E-03    -97.5658E-03     194.354E-03    -96.7874E-03     2.38511E-03    -116.514E+06    -121.785E+06    -314.864E+06    -121.794E+06    -314.809E+06    -116.559E+06     2.54374E+06         35.3427
            1124     15.3203E-03     4.98147E-03     337.722E-03     199.188E-03        -1.05213     337.557E-03        -1.05196     199.188E-03    -7.91534E-03     221.265E-03    -104.932E-03    -116.255E-03    -115.324E-03     220.334E-03    -104.932E-03     30.4710E-03     143.613E+06     130.116E+06    -7.16965E+06    -7.01052E+06     139.120E+06     134.450E+06    -1.47856E+06         48.7349
            1125     14.4290E-03     4.92321E-03     324.363E-03     190.620E-03        -1.03118     324.260E-03        -1.03108     190.620E-03    -11.0593E-03     218.402E-03    -104.162E-03    -114.190E-03    -113.097E-03     217.309E-03    -104.162E-03     36.1811E-03     131.534E+06     111.268E+06    -13.2589E+06    -12.9346E+06     131.210E+06     111.268E+06    -4.10643E+06         46.2191
            1126     13.5345E-03     4.89818E-03     303.117E-03     182.121E-03        -1.00382     302.965E-03        -1.00367     182.121E-03    -14.3750E-03     212.699E-03    -102.902E-03    -109.750E-03    -108.451E-03     212.099E-03    -103.602E-03     27.3972E-03     113.222E+06     96.8621E+06    -26.0028E+06    -25.5646E+06     111.431E+06     98.2154E+06     1.51738E+06         43.4313
            1127     12.6369E-03     4.87501E-03     273.964E-03     174.329E-03    -970.000E-03     273.620E-03    -969.657E-03     174.329E-03     3.27583E-03     207.461E-03    -100.588E-03    -106.831E-03    -103.256E-03     206.645E-03    -103.348E-03     31.3747E-03     89.7978E+06     70.1570E+06    -38.9062E+06    -38.2108E+06     73.3652E+06     85.8944E+06     4.86154E+06         40.9813
            1128     11.7333E-03     4.86725E-03     251.654E-03     167.429E-03    -940.165E-03     251.163E-03    -939.674E-03     167.429E-03     918.344E-06     203.715E-03    -98.5528E-03    -105.180E-03    -99.3491E-03     202.811E-03    -103.480E-03     32.4541E-03     76.3635E+06     25.0016E+06    -45.0725E+06    -43.5905E+06     23.5196E+06     76.3635E+06    -2.96046E+06         39.0939
            1129     10.8265E-03     4.87074E-03     247.121E-03     160.639E-03    -929.476E-03     246.690E-03    -929.045E-03     160.639E-03    -5.17346E-03     201.163E-03    -96.8820E-03    -104.262E-03    -96.3245E-03     200.246E-03    -103.903E-03     32.5416E-03     69.6893E+06    -19.0428E+06    -54.6340E+06    -48.2618E+06    -25.4150E+06     69.6893E+06    -10.7921E+06         37.7677
            1130     9.91745E-03     4.88847E-03     241.679E-03     153.174E-03    -917.668E-03     241.527E-03    -917.517E-03     153.174E-03     21.0399E-03     200.132E-03    -95.5510E-03    -104.528E-03    -94.5900E-03     199.171E-03    -104.528E-03     33.2850E-03     61.5897E+06    -39.5421E+06    -67.1022E+06    -52.1300E+06    -54.5143E+06     61.5897E+06    -12.7063E+06         36.9969
            1131     9.00714E-03     4.91172E-03     207.001E-03     146.368E-03    -875.407E-03     206.671E-03    -875.077E-03     146.368E-03    -17.7723E-03     201.241E-03    -96.0205E-03    -105.272E-03    -94.9950E-03     200.215E-03    -105.272E-03     34.6471E-03     52.5021E+06    -41.7276E+06    -85.1982E+06    -50.5868E+06    -76.3390E+06     52.5021E+06    -15.3221E+06         36.6740
            1132     8.09945E-03     4.93985E-03     176.719E-03     141.768E-03    -839.013E-03     176.357E-03    -838.651E-03     141.768E-03    -25.7212E-03     203.622E-03    -97.7699E-03    -106.092E-03    -96.7985E-03     202.650E-03    -106.092E-03     34.0528E-03     36.1688E+06    -44.3927E+06    -108.263E+06    -50.1445E+06    -102.511E+06     36.1688E+06    -17.7119E+06         36.5956
            1133     7.19378E-03     4.97273E-03     178.143E-03     137.773E-03    -837.074E-03     178.053E-03    -836.985E-03     137.773E-03    -10.7753E-03     206.400E-03    -99.7588E-03    -106.852E-03    -98.9122E-03     205.554E-03    -106.852E-03     32.0615E-03     10.6081E+06    -51.2994E+06    -137.229E+06    -55.5067E+06    -133.022E+06     10.6081E+06    -18.1123E+06         36.6283
            1134     6.29032E-03     5.00898E-03     175.432E-03     132.715E-03    -829.512E-03     175.290E-03    -829.370E-03     132.715E-03     5.24277E-03     209.376E-03    -101.966E-03    -107.375E-03    -101.262E-03     208.672E-03    -107.375E-03     29.4672E-03    -15.3048E+06    -62.4592E+06    -173.636E+06    -64.9406E+06    -171.155E+06    -15.3048E+06    -15.4150E+06         36.7005
            1135     5.38907E-03     5.04854E-03     157.126E-03     126.368E-03    -805.340E-03     155.047E-03    -804.840E-03     127.947E-03     19.9868E-03     211.978E-03    -104.199E-03    -107.770E-03    -103.654E-03     211.433E-03    -107.770E-03     26.0883E-03    -37.2760E+06    -74.4196E+06    -208.301E+06    -75.3261E+06    -207.395E+06    -37.2760E+06    -9.55210E+06         36.7552
            1136     4.48975E-03     5.08470E-03     137.647E-03     123.678E-03    -787.491E-03     135.624E-03    -787.048E-03     125.257E-03     1.03917E-03     213.967E-03    -105.895E-03    -108.101E-03    -105.525E-03     213.579E-03    -108.083E-03     22.0858E-03    -58.3743E+06    -85.1778E+06    -242.319E+06    -85.3867E+06    -242.110E+06    -58.3743E+06    -3.43385E+06         36.7975
            1137     3.59156E-03     5.12066E-03     131.702E-03     115.659E-03    -778.697E-03     121.626E-03    -778.287E-03     125.326E-03    -14.5043E-03     215.270E-03    -106.944E-03    -108.278E-03    -106.749E-03     215.021E-03    -108.223E-03     17.6745E-03    -76.0368E+06    -94.4205E+06    -272.250E+06    -94.4987E+06    -272.172E+06    -76.0368E+06     1.12744E+06         36.8377
            1138     2.69368E-03     5.15123E-03     149.092E-03     103.739E-03    -785.257E-03     125.226E-03    -784.061E-03     126.409E-03    -18.0319E-03     216.038E-03    -107.696E-03    -108.322E-03    -107.602E-03     215.900E-03    -108.279E-03     13.0362E-03    -88.9494E+06    -102.715E+06    -292.171E+06    -102.819E+06    -292.067E+06    -88.9494E+06     3.96479E+06         36.8544
            1139     1.79625E-03     5.17518E-03     148.280E-03     110.198E-03    -785.004E-03     131.508E-03    -782.972E-03     124.938E-03    -41.9823E-03     216.411E-03    -108.078E-03    -108.341E-03    -108.155E-03     216.352E-03    -108.205E-03     8.22616E-03    -99.6531E+06    -109.469E+06    -301.774E+06    -109.596E+06    -301.647E+06    -99.6531E+06     4.82860E+06         36.8453
            1140     898.154E-06     5.19162E-03     140.098E-03     109.104E-03    -771.957E-03     111.223E-03    -768.593E-03     134.615E-03     11.4363E-03     216.015E-03    -107.343E-03    -108.676E-03    -108.088E-03     215.999E-03    -107.915E-03     4.23643E-03    -106.490E+06    -114.115E+06    -306.734E+06    -111.636E+06    -306.657E+06    -109.046E+06     3.73108E+06         36.8314
            1141     15.3204E-03     3.73784E-03     338.689E-03     187.877E-03        -1.03194     338.572E-03        -1.03183     187.877E-03    -17.0557E-03     218.728E-03    -105.163E-03    -113.578E-03    -112.266E-03     217.415E-03    -105.163E-03     36.3320E-03     146.249E+06     129.823E+06    -6.89918E+06    -6.74282E+06     139.423E+06     136.494E+06    -2.94166E+06         48.6449
            1142     14.4250E-03     3.67982E-03     326.699E-03     178.581E-03        -1.01670     326.583E-03        -1.01658     178.581E-03    -14.8776E-03     213.538E-03    -103.297E-03    -110.222E-03    -107.300E-03     211.994E-03    -104.675E-03     42.3664E-03     124.722E+06     105.892E+06    -19.9545E+06    -19.5233E+06     124.290E+06     105.892E+06     1.40130E+06         46.1055
            1143     13.5260E-03     3.66615E-03     302.416E-03     169.306E-03    -988.055E-03     302.337E-03    -987.976E-03     169.306E-03    -12.6707E-03     205.691E-03    -99.7876E-03    -105.962E-03    -100.083E-03     204.693E-03    -104.667E-03     33.8684E-03     109.613E+06     95.5785E+06    -32.4757E+06    -31.9309E+06     107.715E+06     96.9318E+06     7.06463E+06         43.4282
            1144     12.6146E-03     3.65309E-03     275.719E-03     160.594E-03    -957.102E-03     275.569E-03    -956.952E-03     160.594E-03    -7.70094E-03     200.440E-03    -95.3960E-03    -105.111E-03    -94.1554E-03     199.200E-03    -105.111E-03     37.9317E-03     93.1951E+06     79.3914E+06    -38.7503E+06    -38.2748E+06     82.5229E+06     89.5880E+06    -174.633E+03         41.0989
            1145     11.6998E-03     3.64657E-03     254.380E-03     152.426E-03    -929.162E-03     254.193E-03    -928.975E-03     152.426E-03    -7.36150E-03     197.101E-03    -91.1818E-03    -105.992E-03    -90.0693E-03     195.989E-03    -105.992E-03     35.6730E-03     73.1605E+06     36.7506E+06    -44.0972E+06    -42.1690E+06     34.8224E+06     73.1605E+06    -10.0026E+06         39.2389
            1146     10.7846E-03     3.65432E-03     225.712E-03     145.108E-03    -892.842E-03     225.466E-03    -892.596E-03     145.108E-03    -3.90862E-03     196.247E-03    -89.0220E-03    -107.327E-03    -87.9812E-03     195.206E-03    -107.327E-03     34.3135E-03     56.2391E+06    -8.47341E+06    -58.3244E+06    -45.7329E+06    -21.0649E+06     56.2391E+06    -17.5418E+06         37.8643
            1147     9.86865E-03     3.67108E-03     207.267E-03     138.686E-03    -867.899E-03     207.033E-03    -867.665E-03     138.686E-03     22.2824E-03     198.804E-03    -89.9543E-03    -108.921E-03    -88.8480E-03     197.697E-03    -108.921E-03     35.6256E-03     40.5157E+06    -24.4211E+06    -74.7525E+06    -46.8433E+06    -52.3303E+06     40.5157E+06    -24.8457E+06         36.9962
            1148     8.95603E-03     3.68884E-03     199.176E-03     132.319E-03    -853.838E-03     198.801E-03    -853.463E-03     132.319E-03    -2.08783E-03     203.304E-03    -92.8490E-03    -110.547E-03    -91.7293E-03     202.184E-03    -110.547E-03     36.2800E-03     21.7270E+06    -30.5053E+06    -96.6428E+06    -48.1415E+06    -79.0066E+06     21.7270E+06    -27.7405E+06         36.6356
            1149     8.04573E-03     3.71168E-03     180.236E-03     126.121E-03    -828.522E-03     179.885E-03    -828.170E-03     126.121E-03    -27.3072E-03     208.261E-03    -96.1577E-03    -112.233E-03    -95.1659E-03     207.269E-03    -112.233E-03     34.5816E-03     2.30964E+06    -43.0426E+06    -120.109E+06    -51.5283E+06    -111.623E+06     2.30964E+06    -23.3678E+06         36.6851
            1150     7.13912E-03     3.73986E-03     153.205E-03     121.370E-03    -794.870E-03     153.067E-03    -794.733E-03     121.370E-03    -22.6869E-03     213.727E-03    -99.8171E-03    -113.934E-03    -98.9690E-03     212.879E-03    -113.934E-03     32.4439E-03    -16.4536E+06    -54.7715E+06    -147.626E+06    -58.0227E+06    -144.375E+06    -16.4536E+06    -15.1611E+06         36.9459
            1151     6.23644E-03     3.77088E-03     138.731E-03     118.194E-03    -777.159E-03     138.635E-03    -777.064E-03     118.194E-03    -7.33378E-03     219.484E-03    -103.926E-03    -115.467E-03    -103.214E-03     218.772E-03    -115.467E-03     30.1867E-03    -35.7820E+06    -67.1073E+06    -184.252E+06    -68.0077E+06    -183.351E+06    -35.7820E+06    -8.04159E+06         37.2437
            1152     5.33793E-03     3.80376E-03     146.831E-03     114.258E-03    -782.328E-03     146.598E-03    -782.095E-03     114.258E-03    -16.2231E-03     224.884E-03    -108.044E-03    -116.855E-03    -107.473E-03     224.312E-03    -116.855E-03     27.4378E-03    -52.8437E+06    -78.1450E+06    -218.882E+06    -78.3483E+06    -218.679E+06    -52.8437E+06    -2.83181E+06         37.5210
            1153     4.44287E-03     3.83803E-03     137.007E-03     108.989E-03    -768.473E-03     136.590E-03    -768.056E-03     108.989E-03    -12.8956E-03     229.807E-03    -111.787E-03    -118.127E-03    -111.359E-03     229.379E-03    -118.127E-03     24.0347E-03    -65.5520E+06    -86.3144E+06    -251.374E+06    -86.4049E+06    -251.283E+06    -65.5520E+06     1.79746E+06         37.7810
            1154     3.55094E-03     3.86964E-03     114.429E-03     91.4476E-03    -732.355E-03     97.4997E-03    -731.730E-03     107.752E-03    -17.8258E-03     234.069E-03    -114.987E-03    -119.075E-03    -114.697E-03     233.779E-03    -119.075E-03     19.9624E-03    -76.9948E+06    -92.9964E+06    -276.804E+06    -93.1971E+06    -276.604E+06    -76.9948E+06     5.68444E+06         38.0176
            1155     2.66143E-03     3.89837E-03     115.536E-03     80.4342E-03    -726.883E-03     78.4026E-03    -724.851E-03     115.536E-03    -18.8152E-03     237.374E-03    -117.569E-03    -119.674E-03    -117.395E-03     237.200E-03    -119.674E-03     15.5385E-03    -89.4293E+06    -98.6708E+06    -291.166E+06    -98.9260E+06    -290.910E+06    -89.4293E+06     6.78187E+06         38.2123
            1156     1.77367E-03     3.92114E-03     133.121E-03     102.661E-03    -765.814E-03     105.111E-03    -762.781E-03     127.638E-03    -15.3012E-03     239.380E-03    -119.121E-03    -120.210E-03    -119.149E-03     239.294E-03    -120.097E-03     10.7835E-03    -97.3628E+06    -102.630E+06    -296.101E+06    -102.785E+06    -295.946E+06    -97.3628E+06     5.34746E+06         38.3563
            1157     887.670E-06     3.93561E-03     159.253E-03     113.571E-03    -805.607E-03     113.074E-03    -799.627E-03     153.769E-03     46.8866E-03     240.453E-03    -119.618E-03    -120.873E-03    -119.704E-03     240.426E-03    -120.760E-03     5.71656E-03    -101.654E+06    -108.275E+06    -299.019E+06    -105.781E+06    -298.957E+06    -104.210E+06     2.88755E+06         38.4541
            1158     15.3057E-03     2.49154E-03     338.708E-03     178.353E-03        -1.02572     338.602E-03        -1.02561     178.353E-03    -11.8564E-03     214.170E-03    -105.139E-03    -109.035E-03    -106.587E-03     212.516E-03    -105.934E-03     43.5605E-03     141.650E+06     129.004E+06    -8.63446E+06    -7.89495E+06     135.057E+06     134.857E+06     2.05139E+06         48.7921
            1159     14.4069E-03     2.44715E-03     316.883E-03     168.818E-03        -1.00021     316.614E-03    -999.941E-03     168.818E-03    -960.941E-06     207.628E-03    -100.062E-03    -107.561E-03    -99.9685E-03     205.885E-03    -105.911E-03     45.1587E-03     123.173E+06     105.058E+06    -23.5471E+06    -22.6456E+06     122.271E+06     105.058E+06     7.95220E+06         46.2853
            1160     13.4946E-03     2.44489E-03     291.696E-03     159.616E-03    -967.827E-03     291.460E-03    -967.591E-03     159.616E-03     10.9605E-03     200.650E-03    -94.3770E-03    -106.447E-03    -93.0483E-03     199.321E-03    -106.447E-03     39.0557E-03     115.393E+06     88.4969E+06    -28.8187E+06    -28.4877E+06     115.062E+06     88.4969E+06     2.21518E+06         43.7553
            1161     12.5839E-03     2.43247E-03     270.790E-03     150.761E-03    -941.297E-03     270.709E-03    -941.215E-03     150.761E-03    -7.25730E-03     198.248E-03    -91.0359E-03    -107.324E-03    -89.5408E-03     196.752E-03    -107.324E-03     41.3698E-03     95.2344E+06     59.5299E+06    -32.3935E+06    -32.1027E+06     92.6664E+06     61.8071E+06    -4.63504E+06         41.5703
            1162     11.6696E-03     2.43268E-03     250.272E-03     142.150E-03    -913.829E-03     250.114E-03    -913.671E-03     142.150E-03    -9.74494E-03     195.859E-03    -87.2836E-03    -108.625E-03    -86.2140E-03     194.789E-03    -108.625E-03     34.5683E-03     57.0673E+06     18.8428E+06    -42.1233E+06    -39.2679E+06     43.8802E+06     29.1744E+06    -12.5498E+06         39.7714
            1163     10.7479E-03     2.44081E-03     220.383E-03     134.276E-03    -875.267E-03     220.224E-03    -875.108E-03     134.276E-03    -5.01043E-03     195.845E-03    -85.4674E-03    -110.481E-03    -84.6251E-03     195.003E-03    -110.481E-03     30.7106E-03     23.5433E+06    -10.3681E+06    -60.2731E+06    -43.6821E+06    -12.1695E+06      8.7538E+06    -24.0178E+06         38.3943
            1164     9.82778E-03     2.45073E-03     198.080E-03     127.382E-03    -845.753E-03     197.961E-03    -845.634E-03     127.382E-03     13.4506E-03     200.046E-03    -87.4302E-03    -112.659E-03    -86.6151E-03     199.231E-03    -112.659E-03     30.3319E-03    -1.26353E+06    -25.8266E+06    -79.9055E+06    -46.1895E+06    -53.2009E+06    -7.60518E+06    -29.4035E+06         37.4682
            1165     8.91178E-03     2.46228E-03     188.342E-03     120.739E-03    -828.732E-03     188.220E-03    -828.610E-03     120.739E-03     18.9243E-03     206.116E-03    -91.1511E-03    -115.069E-03    -90.4133E-03     205.378E-03    -115.069E-03     29.0224E-03    -20.9293E+06    -39.5557E+06    -104.213E+06    -52.9451E+06    -89.2314E+06    -22.5217E+06    -25.8600E+06         37.0164
            1166     8.00056E-03     2.47853E-03     164.823E-03     114.569E-03    -798.652E-03     164.743E-03    -798.572E-03     114.569E-03     3.11859E-03     212.669E-03    -95.2281E-03    -117.557E-03    -94.6113E-03     212.052E-03    -117.557E-03     26.8849E-03    -34.8398E+06    -57.3692E+06    -133.432E+06    -63.2177E+06    -127.584E+06    -34.8398E+06    -18.5827E+06         37.0228
            1167     7.09332E-03     2.49796E-03     134.223E-03     110.345E-03    -762.780E-03     134.129E-03    -762.685E-03     110.345E-03    -9.24639E-03     219.904E-03    -99.8498E-03    -119.992E-03    -99.3263E-03     219.381E-03    -119.992E-03     25.2470E-03    -44.5290E+06    -70.7459E+06    -162.753E+06    -72.3801E+06    -161.119E+06    -44.5290E+06    -9.34576E+06         37.3446
            1168     6.19115E-03     2.52099E-03     124.194E-03     107.797E-03    -748.314E-03     124.133E-03    -748.254E-03     107.797E-03    -13.9697E-03     227.653E-03    -105.077E-03    -122.359E-03    -104.630E-03     227.205E-03    -122.359E-03     23.8635E-03    -54.0338E+06    -78.2191E+06    -193.856E+06    -78.3213E+06    -193.754E+06    -54.0338E+06    -1.87335E+06         37.7828
            1169     5.29363E-03     2.54532E-03     127.005E-03     104.936E-03    -747.326E-03     126.882E-03    -747.203E-03     104.936E-03    -14.7289E-03     235.555E-03    -110.731E-03    -124.689E-03    -110.357E-03     235.181E-03    -124.689E-03     22.2811E-03    -63.1860E+06    -83.2326E+06    -225.626E+06    -83.2964E+06    -225.562E+06    -63.1860E+06     2.18251E+06         38.2473
            1170     4.40150E-03     2.57025E-03     130.526E-03     100.229E-03    -746.882E-03     130.165E-03    -746.521E-03     100.229E-03     13.5616E-03     243.194E-03    -116.404E-03    -126.893E-03    -116.110E-03     242.900E-03    -126.893E-03     20.1450E-03    -70.1733E+06    -88.3007E+06    -257.094E+06    -88.4424E+06    -256.953E+06    -70.1733E+06     4.75478E+06         38.7132
            1171     3.51455E-03     2.59555E-03     130.317E-03     87.0250E-03    -737.227E-03     123.281E-03    -736.829E-03     93.6629E-03     19.4302E-03     250.203E-03    -121.554E-03    -128.713E-03    -121.343E-03     249.992E-03    -128.713E-03     17.3675E-03    -78.1484E+06    -92.0577E+06    -278.524E+06    -92.3308E+06    -278.251E+06    -78.1484E+06     6.96486E+06         39.1463
            1172     2.63182E-03     2.61769E-03     108.852E-03     76.8603E-03    -710.758E-03     95.2598E-03    -709.597E-03     89.2912E-03     20.7509E-03     256.050E-03    -125.782E-03    -130.188E-03    -125.647E-03     255.915E-03    -130.188E-03     14.0572E-03    -86.0211E+06    -94.1462E+06    -286.825E+06    -94.4304E+06    -286.541E+06    -86.0211E+06     7.25346E+06         39.5294
            1173     1.75229E-03     2.63596E-03     94.9649E-03     79.9892E-03    -705.278E-03     74.2354E-03    -698.366E-03     93.8065E-03    -26.7982E-03     260.550E-03    -129.019E-03    -131.528E-03    -128.948E-03     260.479E-03    -131.528E-03     10.1347E-03    -89.5981E+06    -94.5379E+06    -287.925E+06    -94.6807E+06    -287.783E+06    -89.5981E+06     4.98719E+06         39.8488
            1174     873.531E-06     2.64870E-03     154.441E-03     55.3912E-03    -740.181E-03     44.4258E-03    -729.215E-03     154.441E-03     33.8727E-03     264.284E-03    -131.561E-03    -132.750E-03    -131.626E-03     264.257E-03    -132.659E-03     5.93334E-03    -96.3633E+06    -100.768E+06    -292.079E+06    -99.8527E+06    -292.033E+06    -97.3249E+06     2.29283E+06         40.0734
            1175     15.2875E-03     1.24831E-03     332.297E-03     170.378E-03        -1.02853     332.262E-03        -1.02849     170.378E-03     6.66953E-03     216.952E-03    -105.549E-03    -111.395E-03    -107.963E-03     215.312E-03    -107.341E-03     45.2158E-03     138.439E+06     131.776E+06    -11.3954E+06    -10.0525E+06     133.207E+06     135.665E+06     4.69640E+06         49.3995
            1176     14.3785E-03     1.22600E-03     302.934E-03     161.066E-03    -987.842E-03     302.724E-03    -987.633E-03     161.066E-03     21.9358E-03     205.594E-03    -98.2572E-03    -107.429E-03    -97.2305E-03     204.567E-03    -107.429E-03     32.5533E-03     130.425E+06     107.689E+06    -16.7265E+06    -15.8956E+06     129.594E+06     107.689E+06     1.48571E+06         47.0323
            1177     13.4661E-03     1.22471E-03     277.511E-03     152.313E-03    -954.024E-03     277.306E-03    -953.819E-03     152.313E-03     23.0266E-03     199.067E-03    -91.1842E-03    -108.114E-03    -90.4542E-03     198.337E-03    -108.114E-03     25.7127E-03     119.938E+06     69.2370E+06    -19.4409E+06    -19.3256E+06     119.823E+06     69.2370E+06    -1.69541E+06         44.6555
            1178     12.5485E-03     1.21395E-03     253.730E-03     144.052E-03    -919.824E-03     253.679E-03    -919.773E-03     144.052E-03    -2.81289E-03     196.644E-03    -87.5971E-03    -109.243E-03    -86.7694E-03     195.817E-03    -109.243E-03     26.4081E-03     97.6415E+06     23.3598E+06    -25.1111E+06    -24.9386E+06     97.4690E+06     23.3598E+06    -3.14637E+06         42.5709
            1179     11.6308E-03     1.21644E-03     230.894E-03     136.320E-03    -885.655E-03     230.824E-03    -885.585E-03     136.320E-03    -2.88900E-03     196.474E-03    -85.7119E-03    -110.833E-03    -85.0973E-03     195.860E-03    -110.833E-03     22.8856E-03     57.3322E+06    -13.1693E+06    -38.3065E+06    -30.3580E+06     55.3449E+06    -19.1305E+06    -9.61408E+06         40.8253
            1180     10.7158E-03     1.22612E-03     215.680E-03     128.903E-03    -860.560E-03     215.556E-03    -860.436E-03     128.903E-03    -2.39756E-03     199.484E-03    -86.6007E-03    -112.897E-03    -86.1215E-03     199.005E-03    -112.897E-03     21.6741E-03     5.95674E+06    -31.7263E+06    -58.6771E+06    -39.5344E+06    -5.17486E+06    -39.7374E+06    -18.2045E+06         39.4599
            1181     9.79892E-03     1.22999E-03     201.699E-03     121.487E-03    -838.794E-03     201.328E-03    -838.422E-03     121.487E-03    -18.8501E-03     203.800E-03    -88.4026E-03    -115.286E-03    -88.0127E-03     203.410E-03    -115.286E-03     19.8843E-03    -33.8133E+06    -47.2137E+06    -80.6404E+06    -52.4328E+06    -59.9710E+06    -49.2636E+06    -20.3937E+06         38.5056
            1182     8.88374E-03     1.23241E-03     177.355E-03     114.582E-03    -811.981E-03     176.826E-03    -811.452E-03     114.582E-03    -23.4908E-03     208.906E-03    -90.8660E-03    -118.026E-03    -90.5942E-03     208.634E-03    -118.026E-03     16.3347E-03    -50.1556E+06    -59.6527E+06    -109.746E+06    -63.8858E+06    -102.836E+06    -52.8317E+06    -14.9079E+06         37.9751
            1183     7.97141E-03     1.24057E-03     154.736E-03     108.805E-03    -786.504E-03     154.477E-03    -786.245E-03     108.805E-03    -6.79884E-03     215.414E-03    -94.6344E-03    -120.973E-03    -94.4306E-03     215.210E-03    -120.973E-03     14.1773E-03    -55.7545E+06    -71.9945E+06    -141.952E+06    -73.5427E+06    -140.404E+06    -55.7545E+06    -7.85269E+06         37.8589
            1184     7.06390E-03     1.25165E-03     144.099E-03     103.650E-03    -769.501E-03     144.066E-03    -769.469E-03     103.650E-03    -114.204E-06     223.500E-03    -99.5551E-03    -123.941E-03    -99.3813E-03     223.327E-03    -123.941E-03     13.4131E-03    -61.9059E+06    -80.9354E+06    -172.034E+06    -81.2669E+06    -171.702E+06    -61.9059E+06    -3.91868E+06         38.0930
            1185     6.16089E-03     1.26272E-03     133.889E-03     98.5526E-03    -750.338E-03     133.798E-03    -750.248E-03     98.5526E-03    -2.23456E-03     232.602E-03    -105.443E-03    -126.948E-03    -105.289E-03     232.448E-03    -126.948E-03     12.9680E-03    -66.4236E+06    -85.8501E+06    -201.888E+06    -85.9139E+06    -201.824E+06    -66.4236E+06    -453.554E+03         38.5501
            1186     5.26392E-03     1.27593E-03     118.411E-03     94.0239E-03    -724.092E-03     118.196E-03    -723.877E-03     94.0239E-03     14.0132E-03     242.228E-03    -112.066E-03    -129.949E-03    -111.932E-03     242.094E-03    -129.949E-03     12.4058E-03    -70.2144E+06    -88.6141E+06    -229.739E+06    -88.6828E+06    -229.670E+06    -70.2144E+06     2.95695E+06         39.1177
            1187     4.37314E-03     1.28940E-03     111.925E-03     89.8764E-03    -713.273E-03     111.679E-03    -713.027E-03     89.8764E-03     24.5920E-03     251.842E-03    -118.958E-03    -132.863E-03    -118.848E-03     251.731E-03    -132.863E-03     11.6110E-03    -73.6811E+06    -90.0282E+06    -258.173E+06    -90.1429E+06    -258.058E+06    -73.6811E+06     4.07142E+06         39.7200
            1188     3.48861E-03     1.30395E-03     115.659E-03     83.7731E-03    -715.172E-03     115.484E-03    -714.997E-03     83.7731E-03     14.8810E-03     261.019E-03    -125.589E-03    -135.514E-03    -125.505E-03     260.934E-03    -135.514E-03     10.3838E-03    -76.5759E+06    -90.3385E+06    -278.180E+06    -90.4669E+06    -278.052E+06    -76.5759E+06     4.10553E+06         40.2956
            1189     2.61007E-03     1.31566E-03     105.335E-03     74.7238E-03    -700.223E-03     105.190E-03    -700.078E-03     74.7238E-03    -9.02171E-03     269.290E-03    -131.550E-03    -137.788E-03    -131.495E-03     269.234E-03    -137.788E-03     8.25653E-03    -80.6877E+06    -91.1747E+06    -282.037E+06    -91.2900E+06    -281.922E+06    -80.6877E+06     3.93597E+06         40.8159
            1190     1.73596E-03     1.32683E-03     87.4543E-03     64.3071E-03    -672.496E-03     79.8545E-03    -666.740E-03     66.1513E-03    -74.2526E-03     276.193E-03    -136.592E-03    -139.641E-03    -136.565E-03     276.167E-03    -139.641E-03     5.61865E-03    -84.8055E+06    -93.0319E+06    -282.462E+06    -93.0900E+06    -282.404E+06    -84.8055E+06     2.76864E+06         41.2554
            1191     868.031E-06     1.33245E-03     143.519E-03    -11.0632E-03    -651.313E-03    -8.92448E-03    -644.084E-03     134.152E-03    -22.4957E-03     280.866E-03    -139.899E-03    -140.968E-03    -140.153E-03     280.857E-03    -140.704E-03     3.31532E-03    -90.6025E+06    -96.3215E+06    -285.525E+06    -95.3944E+06    -285.490E+06    -91.5641E+06     2.22368E+06         41.5633
            1192     900.189E-06     68.9458E-03         1.64104    -247.408E-03        -1.76710         1.60536    -511.896E-03        -1.46693     278.319E-03     211.490E-03    -105.539E-03    -105.961E-03    -105.891E-03     211.487E-03    -105.605E-03     1.59451E-03    -137.971E+06    -141.113E+06    -324.589E+06    -140.782E+06    -324.582E+06    -138.309E+06    -21.1301E+03         36.4283
            1193     1.79990E-03     68.9481E-03     106.703E-03     72.8652E-03    -547.948E-03     88.9597E-03    -530.273E-03     72.9336E-03    -54.0446E-03     211.380E-03    -105.590E-03    -105.762E-03    -105.583E-03     211.373E-03    -105.761E-03     3.00514E-03    -125.981E+06    -137.336E+06    -300.466E+06    -137.344E+06    -300.458E+06    -125.981E+06     644.456E+03         36.4329
            1194     2.69940E-03     68.9531E-03     116.720E-03     80.1155E-03    -563.973E-03     110.751E-03    -559.818E-03     81.9290E-03     34.4386E-03     211.387E-03    -105.535E-03    -105.845E-03    -105.516E-03     211.368E-03    -105.845E-03     4.80224E-03    -106.062E+06    -130.588E+06    -285.934E+06    -130.593E+06    -285.928E+06    -106.062E+06     687.987E+03         36.4318
            1195     3.59941E-03     68.9598E-03     103.671E-03     83.2465E-03    -555.125E-03     96.8433E-03    -553.066E-03     88.0146E-03     8.16868E-03     211.257E-03    -105.494E-03    -105.873E-03    -105.456E-03     211.219E-03    -105.873E-03     6.81936E-03    -84.6215E+06    -122.008E+06    -256.242E+06    -122.011E+06    -256.239E+06    -84.6215E+06     249.693E+03         36.4446
            1196     4.49970E-03     68.9684E-03     91.2406E-03     78.8704E-03    -538.316E-03     80.0600E-03    -536.748E-03     88.4832E-03     23.8709E-03     211.102E-03    -105.422E-03    -105.793E-03    -105.363E-03     211.042E-03    -105.793E-03     8.60848E-03    -63.1255E+06    -111.938E+06    -221.540E+06    -111.950E+06    -221.529E+06    -63.1255E+06     546.981E+03         36.5043
            1197     5.39913E-03     68.9798E-03     90.4178E-03     77.1241E-03    -535.784E-03     79.8668E-03    -535.401E-03     87.2920E-03    -9.28755E-03     211.204E-03    -105.385E-03    -105.814E-03    -105.298E-03     211.116E-03    -105.814E-03     10.4626E-03    -40.4428E+06    -101.440E+06    -199.872E+06    -101.529E+06    -199.783E+06    -40.4428E+06     2.53396E+06         36.5726
            1198     6.29991E-03     68.9938E-03     109.708E-03     84.7562E-03    -562.197E-03     106.031E-03    -562.030E-03     88.2658E-03     16.4881E-03     211.216E-03    -105.265E-03    -105.828E-03    -105.141E-03     211.092E-03    -105.828E-03     12.4819E-03    -19.1431E+06    -90.1474E+06    -176.469E+06    -90.2486E+06    -176.368E+06    -19.1431E+06     2.74304E+06         36.6329
            1199     7.19978E-03     69.0103E-03     137.129E-03     92.5758E-03    -598.575E-03     135.638E-03    -597.084E-03     92.5758E-03    -33.4386E-03     210.819E-03    -104.968E-03    -105.830E-03    -104.801E-03     210.652E-03    -105.830E-03     14.4747E-03    -2.33821E+06    -79.2320E+06    -143.736E+06    -79.2840E+06    -143.684E+06    -2.33821E+06     630.466E+03         36.7142
            1200     8.10075E-03     69.0285E-03     145.568E-03     98.1757E-03    -613.903E-03     144.168E-03    -612.503E-03     98.1757E-03    -40.4939E-03     210.512E-03    -104.790E-03    -105.806E-03    -104.580E-03     210.302E-03    -105.806E-03     16.2232E-03     12.7668E+06    -69.1067E+06    -109.058E+06    -69.1890E+06    -108.976E+06     12.7668E+06    -709.051E+03         36.8051
            1201     9.00184E-03     69.0487E-03     144.220E-03     103.140E-03    -614.868E-03     144.132E-03    -614.780E-03     103.140E-03     8.51618E-03     210.799E-03    -105.021E-03    -105.771E-03    -104.760E-03     210.538E-03    -105.771E-03     18.1132E-03     26.9018E+06    -60.7616E+06    -86.7886E+06    -60.8228E+06    -86.7274E+06     26.9018E+06    -541.117E+03         36.9420
            1202     9.90145E-03     69.0722E-03     155.382E-03     107.760E-03    -629.644E-03     155.194E-03    -629.457E-03     107.760E-03    -9.44051E-03     210.962E-03    -105.236E-03    -105.744E-03    -104.906E-03     210.633E-03    -105.744E-03     20.3606E-03     41.0163E+06    -44.7924E+06    -63.7115E+06    -52.5448E+06    -55.9591E+06     41.0163E+06     446.775E+03         37.1826
            1203     10.8021E-03     69.0983E-03     177.669E-03     113.092E-03    -657.735E-03     177.440E-03    -657.506E-03     113.092E-03    -1.45159E-03     210.892E-03    -105.172E-03    -105.703E-03    -104.771E-03     210.492E-03    -105.703E-03     22.4639E-03     52.0296E+06    -29.4414E+06    -44.5257E+06    -44.3838E+06    -29.5832E+06     52.0296E+06     1.35943E+06         37.6974
            1204     11.7032E-03     69.1265E-03     191.799E-03     119.118E-03    -677.845E-03     191.696E-03    -677.742E-03     119.118E-03     9.17396E-03     210.854E-03    -105.125E-03    -105.630E-03    -104.643E-03     210.373E-03    -105.630E-03     24.6237E-03     61.5965E+06     12.4212E+06    -37.9640E+06    -37.8514E+06     12.3086E+06     61.5965E+06     1.25319E+06         38.7970
            1205     12.6034E-03     69.1574E-03     196.151E-03     125.042E-03    -687.236E-03     196.070E-03    -687.155E-03     125.042E-03     4.75667E-03     210.549E-03    -104.981E-03    -105.540E-03    -104.377E-03     209.946E-03    -105.540E-03     27.5169E-03     95.5329E+06     67.0926E+06    -31.5288E+06    -31.5089E+06     87.2946E+06     75.3110E+06     565.274E+03         40.6081
            1206     13.5046E-03     69.1915E-03     202.736E-03     130.586E-03    -698.983E-03     202.306E-03    -698.553E-03     130.586E-03    -17.5691E-03     210.332E-03    -104.783E-03    -105.560E-03    -104.085E-03     209.634E-03    -105.560E-03     29.6270E-03     127.479E+06     91.6571E+06    -24.1874E+06    -24.1805E+06     127.472E+06     91.6571E+06    -535.053E+03         43.0903
            1207     14.4058E-03     69.2274E-03     215.702E-03     136.072E-03    -717.927E-03     214.967E-03    -717.193E-03     136.072E-03     753.570E-06     210.497E-03    -104.865E-03    -105.623E-03    -103.931E-03     209.563E-03    -105.623E-03     34.0508E-03     135.354E+06     106.806E+06    -15.8637E+06    -15.8543E+06     135.345E+06     106.806E+06    -879.283E+03         45.9757
            1208     15.3069E-03     69.2737E-03     234.427E-03     141.829E-03    -744.562E-03     233.309E-03    -743.444E-03     141.829E-03    -12.6854E-03     210.385E-03    -104.665E-03    -105.712E-03    -103.835E-03     209.555E-03    -105.712E-03     31.6846E-03     144.819E+06     130.043E+06    -7.51786E+06    -7.51194E+06     144.813E+06     130.043E+06    -299.285E+03         48.6159
            1209     899.490E-06     70.1795E-03         1.84715    -296.686E-03        -1.92147         1.78580    -625.383E-03        -1.53142     324.219E-03     211.485E-03    -105.548E-03    -105.942E-03    -105.768E-03     211.482E-03    -105.719E-03     1.25403E-03    -138.534E+06    -141.468E+06    -326.145E+06    -141.501E+06    -326.112E+06    -138.534E+06     1.85797E+06         36.4301
            1210     1.79920E-03     70.1830E-03     140.957E-03     119.791E-03    -627.837E-03     108.156E-03    -598.461E-03     123.215E-03    -144.655E-03     211.486E-03    -105.627E-03    -105.811E-03    -105.645E-03     211.477E-03    -105.784E-03     3.25335E-03    -126.448E+06    -138.072E+06    -301.354E+06    -138.101E+06    -301.324E+06    -126.448E+06     1.82211E+06         36.4366
            1211     2.69967E-03     70.1864E-03     119.969E-03     109.044E-03    -598.165E-03     107.416E-03    -594.407E-03     117.839E-03     19.4677E-03     211.523E-03    -105.611E-03    -105.897E-03    -105.618E-03     211.503E-03    -105.870E-03     4.87948E-03    -106.928E+06    -131.894E+06    -286.075E+06    -131.909E+06    -286.060E+06    -106.928E+06     1.14156E+06         36.4351
            1212     3.59999E-03     70.1943E-03     123.327E-03     110.710E-03    -604.868E-03     115.206E-03    -602.186E-03     116.149E-03     3.93038E-03     211.218E-03    -105.429E-03    -105.888E-03    -105.395E-03     211.184E-03    -105.888E-03     6.43511E-03    -85.2755E+06    -123.336E+06    -255.201E+06    -123.341E+06    -255.195E+06    -85.2755E+06     232.222E+03         36.4477
            1213     4.49941E-03     70.2029E-03     124.791E-03     115.278E-03    -609.449E-03     122.007E-03    -608.152E-03     116.764E-03     42.3327E-03     211.078E-03    -105.386E-03    -105.805E-03    -105.330E-03     211.022E-03    -105.805E-03     8.32408E-03    -63.0403E+06    -112.905E+06    -221.828E+06    -112.929E+06    -221.804E+06    -63.0403E+06    -558.949E+03         36.5064
            1214     5.39985E-03     70.2141E-03     117.959E-03     110.875E-03    -596.758E-03     111.689E-03    -596.724E-03     117.111E-03    -4.69034E-03     211.222E-03    -105.429E-03    -105.820E-03    -105.338E-03     211.131E-03    -105.820E-03     10.6805E-03    -42.0128E+06    -102.002E+06    -203.496E+06    -102.052E+06    -203.446E+06    -42.0128E+06     903.674E+03         36.5714
            1215     6.29922E-03     70.2281E-03     128.378E-03     112.670E-03    -606.699E-03     123.268E-03    -606.339E-03     117.420E-03    -17.9905E-03     211.108E-03    -105.178E-03    -105.798E-03    -105.047E-03     210.977E-03    -105.798E-03     12.8065E-03    -22.2464E+06    -91.1142E+06    -175.089E+06    -91.1514E+06    -175.051E+06    -22.2464E+06     1.52797E+06         36.6284
            1216     7.20004E-03     70.2441E-03     146.437E-03     119.820E-03    -631.315E-03     145.286E-03    -630.164E-03     119.820E-03    -40.4801E-03     210.784E-03    -104.926E-03    -105.795E-03    -104.760E-03     210.617E-03    -105.795E-03     14.4684E-03    -3.34559E+06    -80.1292E+06    -140.398E+06    -80.1660E+06    -140.361E+06    -3.34559E+06    -389.822E+03         36.7110
            1217     8.10067E-03     70.2620E-03     153.539E-03     123.439E-03    -641.339E-03     152.182E-03    -639.982E-03     123.439E-03    -2.09497E-03     210.733E-03    -104.986E-03    -105.801E-03    -104.774E-03     210.521E-03    -105.801E-03     16.2954E-03     12.6181E+06    -70.8338E+06    -110.050E+06    -70.8686E+06    -110.015E+06     12.6181E+06    -458.784E+03         36.8086
            1218     9.00061E-03     70.2833E-03     173.069E-03     127.757E-03    -663.221E-03     172.466E-03    -662.617E-03     127.757E-03     36.5965E-03     211.003E-03    -105.193E-03    -105.796E-03    -104.927E-03     210.738E-03    -105.796E-03     18.2864E-03     27.3933E+06    -62.2548E+06    -86.5486E+06    -62.3212E+06    -86.4822E+06     27.3933E+06     589.462E+03         36.9490
            1219     9.90157E-03     70.3065E-03     190.927E-03     133.151E-03    -685.166E-03     190.753E-03    -684.991E-03     133.151E-03     16.4155E-03     210.951E-03    -105.179E-03    -105.789E-03    -104.852E-03     210.624E-03    -105.789E-03     20.2996E-03     41.1421E+06    -46.1143E+06    -64.5185E+06    -54.0322E+06    -56.6007E+06     41.1421E+06     363.498E+03         37.1861
            1220     10.8023E-03     70.3324E-03     184.561E-03     138.260E-03    -685.312E-03     184.346E-03    -685.097E-03     138.260E-03     43.1128E-06     210.759E-03    -104.996E-03    -105.730E-03    -104.601E-03     210.364E-03    -105.730E-03     22.3041E-03     51.2114E+06    -31.5565E+06    -45.5338E+06    -45.3700E+06    -31.7204E+06     51.2114E+06     900.374E+03         37.6987
            1221     11.7027E-03     70.3605E-03     193.197E-03     142.671E-03    -699.691E-03     192.737E-03    -699.231E-03     142.671E-03    -26.2041E-03     210.633E-03    -104.896E-03    -105.630E-03    -104.414E-03     210.152E-03    -105.630E-03     24.5948E-03     61.9916E+06     12.4442E+06    -36.8973E+06    -36.7485E+06     12.2953E+06     61.9916E+06     2.04170E+06         38.7996
            1222     12.6040E-03     70.3918E-03     206.838E-03     147.273E-03    -719.097E-03     206.470E-03    -718.729E-03     147.273E-03    -25.4714E-03     210.465E-03    -104.903E-03    -105.533E-03    -104.307E-03     209.869E-03    -105.533E-03     27.3479E-03     96.9509E+06     69.4005E+06    -28.8871E+06    -28.8517E+06     89.1171E+06     77.1990E+06     1.27804E+06         40.6122
            1223     13.5047E-03     70.4256E-03     208.646E-03     151.847E-03    -724.465E-03     208.168E-03    -723.986E-03     151.847E-03    -33.9807E-03     210.483E-03    -104.925E-03    -105.569E-03    -104.237E-03     209.795E-03    -105.569E-03     29.4144E-03     129.223E+06     94.0109E+06    -21.6896E+06    -21.6732E+06     129.206E+06     94.0109E+06     234.912E+03         43.0957
            1224     14.4053E-03     70.4622E-03     220.436E-03     156.356E-03    -738.883E-03     219.790E-03    -738.237E-03     156.356E-03    -10.1965E-03     210.581E-03    -104.951E-03    -105.634E-03    -104.028E-03     209.658E-03    -105.634E-03     33.8853E-03     135.644E+06     107.380E+06    -15.5397E+06    -15.5210E+06     135.625E+06     107.380E+06    -143.734E+03         45.9823
            1225     15.3072E-03     70.5060E-03     241.123E-03     161.339E-03    -761.100E-03     240.485E-03    -760.462E-03     161.339E-03    -11.1425E-03     210.314E-03    -104.679E-03    -105.713E-03    -103.847E-03     209.481E-03    -105.713E-03     31.8192E-03     143.965E+06     128.484E+06    -8.63044E+06    -8.62578E+06     143.960E+06     128.484E+06    -235.934E+03         48.6242
            1226     899.939E-06     71.4144E-03         1.99121    -308.381E-03        -2.04809         1.91602    -675.767E-03        -1.60551     419.525E-03     211.322E-03    -105.472E-03    -105.838E-03    -105.564E-03     211.320E-03    -105.743E-03     1.61912E-03    -140.743E+06    -144.446E+06    -328.835E+06    -144.360E+06    -328.800E+06    -140.864E+06     1.74864E+06         36.4236
            1227     1.80052E-03     71.4159E-03     180.916E-03     144.343E-03    -689.252E-03     138.818E-03    -654.955E-03     152.145E-03    -132.212E-03     211.675E-03    -105.676E-03    -105.939E-03    -105.833E-03     211.665E-03    -105.772E-03     3.24007E-03    -126.184E+06    -138.255E+06    -303.197E+06    -138.290E+06    -303.162E+06    -126.184E+06     1.65943E+06         36.4367
            1228     2.69947E-03     71.4222E-03     144.892E-03     130.439E-03    -643.145E-03     120.759E-03    -633.465E-03     144.892E-03     16.5689E-03     211.840E-03    -105.810E-03    -106.012E-03    -105.863E-03     211.823E-03    -105.941E-03     4.71728E-03    -105.733E+06    -130.314E+06    -285.589E+06    -130.339E+06    -285.564E+06    -105.733E+06     1.88670E+06         36.4378
            1229     3.59839E-03     71.4279E-03     145.284E-03     133.603E-03    -647.841E-03     134.377E-03    -643.585E-03     140.255E-03    -53.0339E-03     211.336E-03    -105.443E-03    -105.960E-03    -105.411E-03     211.304E-03    -105.960E-03     6.30632E-03    -84.1552E+06    -121.786E+06    -253.038E+06    -121.793E+06    -253.031E+06    -84.1552E+06     489.757E+03         36.4464
            1230     4.49944E-03     71.4372E-03     161.277E-03     141.582E-03    -669.253E-03     160.660E-03    -668.636E-03     141.582E-03     8.56047E-03     210.915E-03    -105.188E-03    -105.851E-03    -105.131E-03     210.858E-03    -105.851E-03     8.41875E-03    -63.5255E+06    -113.268E+06    -221.756E+06    -113.294E+06    -221.730E+06    -63.5255E+06    -330.735E+03         36.5038
            1231     5.39926E-03     71.4483E-03     172.876E-03     144.600E-03    -681.460E-03     171.194E-03    -681.019E-03     145.840E-03    -6.86038E-03     211.016E-03    -105.259E-03    -105.824E-03    -105.170E-03     210.927E-03    -105.824E-03     10.5384E-03    -43.4413E+06    -103.577E+06    -205.250E+06    -103.634E+06    -205.194E+06    -43.4413E+06    -323.575E+03         36.5691
            1232     6.30025E-03     71.4623E-03     164.999E-03     146.186E-03    -673.410E-03     161.485E-03    -672.889E-03     149.180E-03    -11.5523E-03     210.934E-03    -105.046E-03    -105.778E-03    -104.921E-03     210.808E-03    -105.778E-03     12.5307E-03    -24.1356E+06    -92.8936E+06    -174.515E+06    -92.9263E+06    -174.482E+06    -24.1356E+06    -105.738E+03         36.6275
            1233     7.20031E-03     71.4781E-03     162.590E-03     149.305E-03    -672.199E-03     160.160E-03    -671.524E-03     151.059E-03    -39.0943E-03     210.823E-03    -104.999E-03    -105.775E-03    -104.834E-03     210.657E-03    -105.775E-03     14.3979E-03    -4.96373E+06    -83.1237E+06    -138.858E+06    -83.1280E+06    -138.854E+06    -4.96373E+06    -227.621E+03         36.7120
            1234     8.10049E-03     71.4963E-03     179.695E-03     153.520E-03    -694.208E-03     178.848E-03    -693.361E-03     153.520E-03     311.974E-06     210.939E-03    -105.179E-03    -105.803E-03    -104.962E-03     210.722E-03    -105.803E-03     16.5163E-03     12.1764E+06    -74.0597E+06    -111.409E+06    -74.0773E+06    -111.392E+06     12.1764E+06     118.868E+03         36.8117
            1235     9.00127E-03     71.5176E-03     194.026E-03     157.267E-03    -711.961E-03     193.433E-03    -711.368E-03     157.267E-03     17.3914E-03     211.049E-03    -105.211E-03    -105.807E-03    -104.935E-03     210.773E-03    -105.807E-03     18.6390E-03     26.6869E+06    -64.8239E+06    -87.1164E+06    -64.8894E+06    -87.0510E+06     26.6869E+06     823.863E+03         36.9531
            1236     9.90093E-03     71.5410E-03     194.619E-03     161.138E-03    -716.062E-03     194.424E-03    -715.868E-03     161.138E-03     9.00185E-03     210.931E-03    -105.153E-03    -105.801E-03    -104.820E-03     210.598E-03    -105.801E-03     20.4872E-03     41.0911E+06    -46.5533E+06    -64.2187E+06    -55.3741E+06    -55.3979E+06     41.0911E+06     321.995E+03         37.1891
            1237     10.8016E-03     71.5663E-03     189.258E-03     164.238E-03    -715.733E-03     189.051E-03    -715.526E-03     164.238E-03    -176.743E-06     210.744E-03    -104.992E-03    -105.740E-03    -104.595E-03     210.347E-03    -105.740E-03     22.3567E-03     51.1170E+06    -32.2984E+06    -46.5205E+06    -46.4616E+06    -32.3572E+06     51.1170E+06     64.9460E+03         37.7010
            1238     11.7029E-03     71.5944E-03     193.258E-03     166.850E-03    -722.862E-03     192.740E-03    -722.344E-03     166.850E-03    -38.0865E-03     210.578E-03    -104.858E-03    -105.635E-03    -104.375E-03     210.095E-03    -105.635E-03     24.6346E-03     61.0636E+06     11.1898E+06    -37.8612E+06    -37.8064E+06     11.1351E+06     61.0636E+06     816.912E+03         38.8026
            1239     12.6037E-03     71.6256E-03     214.536E-03     170.048E-03    -746.979E-03     214.027E-03    -746.470E-03     170.048E-03    -20.9511E-03     210.423E-03    -104.849E-03    -105.544E-03    -104.249E-03     209.822E-03    -105.544E-03     27.4474E-03     96.6733E+06     70.2774E+06    -29.6313E+06    -29.5854E+06     89.3293E+06     77.5755E+06     1.59118E+06         40.6164
            1240     13.5044E-03     71.6608E-03     232.800E-03     174.228E-03    -768.678E-03     232.501E-03    -768.379E-03     174.228E-03    -10.9658E-03     210.425E-03    -104.844E-03    -105.577E-03    -104.161E-03     209.742E-03    -105.577E-03     29.3038E-03     129.578E+06     94.1800E+06    -22.8470E+06    -22.8069E+06     129.538E+06     94.1800E+06     1.69051E+06         43.1012
            1241     14.4063E-03     71.6956E-03     237.500E-03     178.724E-03    -775.561E-03     237.166E-03    -775.227E-03     178.724E-03    -146.016E-06     210.682E-03    -105.054E-03    -105.644E-03    -104.143E-03     209.771E-03    -105.644E-03     33.6294E-03     136.877E+06     107.590E+06    -15.6871E+06    -15.6761E+06     136.866E+06     107.590E+06     896.765E+03         45.9891
            1242     15.3066E-03     71.7414E-03     240.549E-03     182.964E-03    -779.257E-03     240.130E-03    -778.838E-03     182.964E-03    -8.29453E-03     210.345E-03    -104.673E-03    -105.725E-03    -103.847E-03     209.519E-03    -105.725E-03     31.6753E-03     144.524E+06     129.072E+06    -7.77467E+06    -7.77365E+06     144.523E+06     129.072E+06     100.784E+03         48.6329
            1243     900.336E-06     72.6478E-03         2.09765    -331.379E-03        -2.12338         2.01500    -726.454E-03        -1.64565     466.796E-03     211.554E-03    -105.610E-03    -105.930E-03    -105.827E-03     211.552E-03    -105.710E-03     1.65629E-03    -142.439E+06    -146.677E+06    -330.119E+06    -146.564E+06    -330.110E+06    -142.560E+06     326.656E+03         36.4283
            1244     1.79884E-03     72.6511E-03     206.355E-03     175.372E-03    -741.254E-03     160.223E-03    -699.568E-03     179.817E-03    -95.1794E-03     211.918E-03    -105.782E-03    -106.092E-03    -105.969E-03     211.911E-03    -105.897E-03     3.00556E-03    -128.524E+06    -140.585E+06    -304.863E+06    -140.598E+06    -304.851E+06    -128.524E+06     60.3322E+03         36.4377
            1245     2.69898E-03     72.6565E-03     175.887E-03     158.145E-03    -695.420E-03     146.576E-03    -678.935E-03     170.971E-03     54.1506E-03     211.541E-03    -105.497E-03    -106.026E-03    -105.523E-03     211.523E-03    -105.982E-03     4.74669E-03    -111.275E+06    -133.108E+06    -285.175E+06    -133.125E+06    -285.157E+06    -111.275E+06     381.733E+03         36.4354
            1246     3.59967E-03     72.6628E-03     170.755E-03     157.599E-03    -690.610E-03     157.251E-03    -685.486E-03     165.980E-03    -62.1198E-03     211.132E-03    -105.272E-03    -105.922E-03    -105.235E-03     211.094E-03    -105.922E-03     6.77233E-03    -88.9286E+06    -123.983E+06    -252.853E+06    -124.003E+06    -252.832E+06    -88.9286E+06     641.046E+03         36.4428
            1247     4.49900E-03     72.6709E-03     197.892E-03     168.023E-03    -726.641E-03     197.078E-03    -725.826E-03     168.023E-03    -1.90667E-03     211.003E-03    -105.330E-03    -105.839E-03    -105.267E-03     210.940E-03    -105.839E-03     8.86814E-03    -64.2400E+06    -114.601E+06    -222.478E+06    -114.633E+06    -222.447E+06    -64.2400E+06     1.62193E+06         36.5032
            1248     5.39966E-03     72.6828E-03     225.397E-03     175.338E-03    -758.945E-03     224.708E-03    -758.256E-03     175.338E-03    -3.32068E-03     211.027E-03    -105.293E-03    -105.836E-03    -105.204E-03     210.938E-03    -105.836E-03     10.5684E-03    -41.6931E+06    -104.851E+06    -202.426E+06    -104.891E+06    -202.386E+06    -41.6931E+06     30.4407E+03         36.5723
            1249     6.29929E-03     72.6962E-03     211.813E-03     180.052E-03    -750.265E-03     209.753E-03    -749.959E-03     181.806E-03     20.4035E-03     210.943E-03    -105.036E-03    -105.805E-03    -104.917E-03     210.824E-03    -105.805E-03     12.2112E-03    -22.6756E+06    -94.2641E+06    -174.968E+06    -94.3062E+06    -174.926E+06    -22.6756E+06    -1.41575E+06         36.6341
            1250     7.20026E-03     72.7120E-03     191.620E-03     180.474E-03    -731.204E-03     186.924E-03    -730.426E-03     184.391E-03    -41.0345E-03     210.834E-03    -104.971E-03    -105.789E-03    -104.807E-03     210.670E-03    -105.789E-03     14.3395E-03    -4.94916E+06    -84.0495E+06    -140.206E+06    -84.1163E+06    -140.140E+06    -4.94916E+06     163.436E+03         36.7180
            1251     8.10059E-03     72.7308E-03     197.232E-03     178.802E-03    -735.685E-03     189.917E-03    -734.864E-03     185.296E-03    -30.2264E-03     210.927E-03    -105.143E-03    -105.808E-03    -104.929E-03     210.713E-03    -105.808E-03     16.4296E-03     12.5542E+06    -74.3106E+06    -110.624E+06    -74.4161E+06    -110.518E+06     12.5542E+06     365.869E+03         36.8142
            1252     9.00055E-03     72.7514E-03     200.872E-03     182.219E-03    -744.325E-03     196.371E-03    -744.154E-03     186.549E-03    -7.53825E-03     210.956E-03    -105.123E-03    -105.810E-03    -104.849E-03     210.682E-03    -105.810E-03     18.5485E-03     27.3402E+06    -64.0432E+06    -87.4440E+06    -64.1030E+06    -87.3841E+06     27.3402E+06    -384.691E+03         36.9529
            1253     9.90185E-03     72.7756E-03     205.039E-03     188.312E-03    -755.597E-03     204.914E-03    -755.472E-03     188.312E-03    -11.4067E-03     210.806E-03    -105.053E-03    -105.779E-03    -104.716E-03     210.470E-03    -105.779E-03     20.5920E-03     41.3519E+06    -45.4636E+06    -64.4404E+06    -54.4928E+06    -55.4111E+06     41.3519E+06     129.761E+03         37.1892
            1254     10.8024E-03     72.8003E-03     221.094E-03     190.888E-03    -775.246E-03     221.039E-03    -775.191E-03     190.888E-03     6.22070E-03     210.837E-03    -105.132E-03    -105.716E-03    -104.732E-03     210.437E-03    -105.716E-03     22.4575E-03     51.7626E+06    -31.3914E+06    -46.3726E+06    -46.3634E+06    -31.4007E+06     51.7626E+06     151.184E+03         37.7032
            1255     11.7023E-03     72.8283E-03     224.595E-03     193.970E-03    -782.501E-03     224.477E-03    -782.383E-03     193.970E-03    -4.84856E-03     210.791E-03    -105.086E-03    -105.639E-03    -104.602E-03     210.306E-03    -105.639E-03     24.7045E-03     60.6477E+06     10.2844E+06    -38.5872E+06    -38.5841E+06     10.2812E+06     60.6477E+06    -136.323E+03         38.8060
            1256     12.6035E-03     72.8598E-03     224.032E-03     196.854E-03    -782.939E-03     223.871E-03    -782.778E-03     196.854E-03     4.24681E-03     210.416E-03    -104.824E-03    -105.558E-03    -104.225E-03     209.816E-03    -105.558E-03     27.4243E-03     94.5831E+06     67.8850E+06    -30.5586E+06    -30.5269E+06     86.7421E+06     75.6942E+06     1.27336E+06         40.6205
            1257     13.5050E-03     72.8948E-03     232.057E-03     199.677E-03    -794.841E-03     231.948E-03    -794.733E-03     199.677E-03     6.09347E-03     210.326E-03    -104.734E-03    -105.577E-03    -104.057E-03     209.648E-03    -105.577E-03     29.1768E-03     129.721E+06     93.7674E+06    -22.3098E+06    -22.2611E+06     129.672E+06     93.7674E+06     2.23964E+06         43.1064
            1258     14.4051E-03     72.9303E-03     238.468E-03     202.651E-03    -803.048E-03     238.356E-03    -802.936E-03     202.651E-03     7.77363E-03     210.606E-03    -104.988E-03    -105.635E-03    -104.069E-03     209.687E-03    -105.635E-03     33.7359E-03     138.375E+06     106.674E+06    -15.2846E+06    -15.2588E+06     138.349E+06     106.674E+06     1.61398E+06         45.9960
            1259     15.3067E-03     72.9757E-03     237.529E-03     205.437E-03    -805.391E-03     237.144E-03    -805.007E-03     205.437E-03    -10.7705E-03     210.170E-03    -104.510E-03    -105.699E-03    -103.682E-03     209.342E-03    -105.699E-03     31.6059E-03     145.208E+06     127.889E+06    -8.22770E+06    -8.21878E+06     145.199E+06     127.889E+06     657.976E+03         48.6421
            1260     899.153E-06     73.8821E-03         2.18270    -333.663E-03        -2.20126         2.07806    -747.710E-03        -1.68257     487.377E-03     212.022E-03    -105.738E-03    -106.281E-03    -106.063E-03     212.018E-03    -105.953E-03     1.97765E-03    -141.916E+06    -145.644E+06    -329.076E+06    -144.996E+06    -329.073E+06    -142.567E+06    -81.7999E+03         36.4278
            1261     1.79929E-03     73.8865E-03     269.140E-03     200.382E-03    -826.285E-03     212.636E-03    -769.781E-03     200.382E-03    -116.459E-03     211.567E-03    -105.491E-03    -106.046E-03    -105.538E-03     211.558E-03    -105.991E-03     3.28012E-03    -130.322E+06    -140.886E+06    -304.491E+06    -140.900E+06    -304.477E+06    -130.322E+06    -796.492E+03         36.4349
            1262     2.69913E-03     73.8894E-03     241.707E-03     200.320E-03    -799.607E-03     218.199E-03    -781.453E-03     205.674E-03     100.289E-03     211.217E-03    -105.274E-03    -105.935E-03    -105.253E-03     211.196E-03    -105.935E-03     4.94794E-03    -112.338E+06    -134.096E+06    -285.451E+06    -134.119E+06    -285.429E+06    -112.338E+06    -856.170E+03         36.4333
            1263     3.59947E-03     73.8967E-03     226.296E-03     203.566E-03    -788.662E-03     215.848E-03    -783.568E-03     208.920E-03    -15.6023E-03     211.134E-03    -105.310E-03    -105.857E-03    -105.271E-03     211.095E-03    -105.857E-03     6.96203E-03    -89.7913E+06    -125.916E+06    -254.105E+06    -125.954E+06    -254.067E+06    -89.7913E+06    -28.0922E+03         36.4426
            1264     4.49999E-03     73.9058E-03     227.328E-03     195.670E-03    -780.593E-03     210.625E-03    -778.444E-03     210.225E-03     50.0909E-03     211.148E-03    -105.460E-03    -105.807E-03    -105.400E-03     211.088E-03    -105.807E-03     8.66872E-03    -64.0315E+06    -114.513E+06    -222.906E+06    -114.567E+06    -222.852E+06    -64.0315E+06    -210.373E+03         36.5048
            1265     5.39918E-03     73.9169E-03     234.575E-03     187.587E-03    -778.038E-03     211.159E-03    -777.739E-03     210.704E-03     5.15085E-03     211.076E-03    -105.323E-03    -105.834E-03    -105.235E-03     210.988E-03    -105.834E-03     10.5132E-03    -39.0203E+06    -102.119E+06    -200.784E+06    -102.162E+06    -200.741E+06    -39.0203E+06     257.106E+03         36.5746
            1266     6.29999E-03     73.9303E-03     238.838E-03     203.800E-03    -799.832E-03     230.028E-03    -799.584E-03     212.362E-03     4.38152E-03     211.098E-03    -105.166E-03    -105.813E-03    -105.041E-03     210.974E-03    -105.813E-03     12.5014E-03    -18.6876E+06    -92.3040E+06    -174.344E+06    -92.3479E+06    -174.300E+06    -18.6876E+06     138.381E+03         36.6390
            1267     7.19979E-03     73.9460E-03     237.214E-03     213.004E-03    -808.873E-03     233.919E-03    -807.742E-03     215.167E-03    -57.0454E-03     210.977E-03    -105.128E-03    -105.802E-03    -104.958E-03     210.807E-03    -105.802E-03     14.6055E-03    -3.04260E+06    -82.7551E+06    -141.545E+06     -82.908E+06    -141.392E+06    -3.04260E+06    -568.495E+03         36.7244
            1268     8.10033E-03     73.9651E-03     224.853E-03     207.802E-03    -793.023E-03     214.796E-03    -791.852E-03     216.687E-03    -29.4016E-03     210.822E-03    -105.105E-03    -105.829E-03    -104.889E-03     210.605E-03    -105.829E-03     16.5108E-03     13.3856E+06    -71.6371E+06    -109.548E+06    -71.8207E+06    -109.364E+06     13.3856E+06    -619.692E+03         36.8163
            1269     9.00097E-03     73.9859E-03     217.859E-03     210.056E-03    -790.139E-03     210.882E-03    -789.933E-03     216.826E-03     14.2771E-03     210.867E-03    -105.045E-03    -105.818E-03    -104.779E-03     210.600E-03    -105.818E-03     18.3263E-03     28.0982E+06    -62.2761E+06    -87.5473E+06    -62.3346E+06    -87.4889E+06     28.0982E+06    -263.027E+03         36.9522
            1270     9.90126E-03     74.0089E-03     229.651E-03     217.627E-03    -809.117E-03     229.496E-03    -809.011E-03     217.676E-03     4.55116E-03     210.771E-03    -104.995E-03    -105.762E-03    -104.665E-03     210.442E-03    -105.762E-03     20.3517E-03     40.3058E+06    -45.7118E+06    -66.1195E+06    -54.8047E+06    -57.0266E+06     40.3058E+06     734.857E+03         37.1906
            1271     10.8021E-03     74.0349E-03     244.643E-03     219.891E-03    -826.084E-03     244.556E-03    -825.997E-03     219.891E-03     9.68309E-03     210.843E-03    -105.131E-03    -105.683E-03    -104.735E-03     210.446E-03    -105.683E-03     22.3504E-03     50.5957E+06    -30.2359E+06    -47.3554E+06    -47.2716E+06    -30.3198E+06     50.5957E+06     688.260E+03         37.7062
            1272     11.7030E-03     74.0628E-03     250.790E-03     222.661E-03    -834.803E-03     250.538E-03    -834.552E-03     222.661E-03    -12.0186E-03     210.869E-03    -105.148E-03    -105.627E-03    -104.664E-03     210.385E-03    -105.627E-03     24.6920E-03     59.8081E+06     10.5844E+06    -39.8542E+06    -39.8522E+06     10.5824E+06     59.8081E+06     95.3065E+03         38.8096
            1273     12.6031E-03     74.0939E-03     242.478E-03     225.051E-03    -829.071E-03     242.254E-03    -828.847E-03     225.051E-03    -8.60274E-03     210.470E-03    -104.879E-03    -105.553E-03    -104.270E-03     209.861E-03    -105.553E-03     27.6327E-03     92.9622E+06     64.2943E+06    -32.3782E+06    -32.3737E+06     84.6886E+06     72.5633E+06     206.664E+03         40.6250
            1274     13.5040E-03     74.1289E-03     231.927E-03     222.421E-03    -818.432E-03     227.739E-03    -818.273E-03     226.450E-03    -9.21787E-03     210.208E-03    -104.624E-03    -105.556E-03    -103.928E-03     209.512E-03    -105.556E-03     29.5693E-03     128.336E+06     90.1973E+06    -24.1706E+06    -24.1441E+06     128.310E+06     90.1973E+06     1.43220E+06         43.1120
            1275     14.4061E-03     74.1647E-03     239.736E-03     223.497E-03    -826.036E-03     235.189E-03    -825.518E-03     227.526E-03     11.3049E-03     210.293E-03    -104.693E-03    -105.616E-03    -103.758E-03     209.358E-03    -105.616E-03     34.0341E-03     139.400E+06     106.165E+06    -15.4580E+06    -15.4218E+06     139.364E+06     106.165E+06     2.29047E+06         46.0035
            1276     15.3073E-03     74.2094E-03     249.429E-03     229.132E-03    -840.446E-03     248.848E-03    -839.865E-03     229.132E-03     7.61576E-03     210.089E-03    -104.508E-03    -105.674E-03    -103.678E-03     209.258E-03    -105.674E-03     31.6368E-03     147.017E+06     128.741E+06    -7.62482E+06    -7.61205E+06     147.004E+06     128.741E+06     967.655E+03         48.6520
            1277     899.070E-06     75.1177E-03         2.24613    -364.615E-03        -2.23273         2.11742    -800.203E-03        -1.66842     558.380E-03     211.708E-03    -105.462E-03    -106.245E-03    -105.932E-03     211.704E-03    -105.770E-03     2.10158E-03    -140.690E+06    -143.900E+06    -327.937E+06    -142.997E+06    -327.921E+06    -141.608E+06    -1.33514E+06         36.4144
            1278     1.79924E-03     75.1198E-03     318.299E-03     230.308E-03    -905.136E-03     256.198E-03    -843.035E-03     230.308E-03    -151.783E-03     211.259E-03    -105.348E-03    -105.871E-03    -105.384E-03     211.250E-03    -105.827E-03     3.30763E-03    -127.836E+06    -139.089E+06    -302.108E+06    -139.107E+06    -302.090E+06    -127.836E+06    -1.22559E+06         36.4323
            1279     2.70017E-03     75.1235E-03     309.519E-03     244.557E-03    -913.395E-03     290.345E-03    -894.221E-03     244.557E-03     69.4430E-03     211.578E-03    -105.610E-03    -105.939E-03    -105.644E-03     211.559E-03    -105.887E-03     4.71617E-03    -106.900E+06    -131.707E+06    -286.426E+06    -131.741E+06    -286.391E+06    -106.900E+06    -1.23269E+06         36.4369
            1280     3.59975E-03     75.1308E-03     285.628E-03     254.354E-03    -899.171E-03     277.290E-03    -891.652E-03     255.173E-03    -47.9129E-03     211.411E-03    -105.494E-03    -105.915E-03    -105.467E-03     211.376E-03    -105.907E-03     6.59386E-03    -85.2977E+06    -122.661E+06    -254.608E+06    -122.708E+06    -254.561E+06    -85.2977E+06    -487.433E+03         36.4437
            1281     4.49891E-03     75.1404E-03     257.260E-03     229.778E-03    -843.838E-03     229.370E-03    -841.771E-03     255.601E-03     54.8288E-03     210.945E-03    -105.202E-03    -105.816E-03    -105.143E-03     210.887E-03    -105.816E-03     8.52384E-03    -63.6118E+06    -114.388E+06    -221.020E+06    -114.435E+06    -220.974E+06    -63.6118E+06    -1.13000E+06         36.5032
            1282     5.39991E-03     75.1510E-03     249.446E-03     203.034E-03    -807.313E-03     202.909E-03    -807.187E-03     249.446E-03     1.54847E-03     210.985E-03    -105.212E-03    -105.808E-03    -105.125E-03     210.898E-03    -105.808E-03     10.4607E-03    -40.9421E+06    -103.951E+06    -202.694E+06    -104.021E+06    -202.624E+06    -40.9421E+06    -1.25008E+06         36.5714
            1283     6.29989E-03     75.1642E-03     253.409E-03     216.366E-03    -825.846E-03     224.985E-03    -825.625E-03     244.569E-03    -10.9080E-03     211.149E-03    -105.225E-03    -105.777E-03    -105.098E-03     211.022E-03    -105.777E-03     12.6109E-03    -19.9871E+06    -91.3471E+06    -174.316E+06    -91.4039E+06    -174.259E+06    -19.9871E+06    -92.6097E+03         36.6371
            1284     7.20009E-03     75.1809E-03     267.162E-03     237.738E-03    -863.065E-03     259.506E-03    -862.203E-03     244.533E-03    -55.3486E-03     211.022E-03    -105.241E-03    -105.795E-03    -105.067E-03     210.848E-03    -105.795E-03     14.7773E-03    -2.42762E+06    -80.8529E+06    -140.134E+06    -80.9712E+06    -140.016E+06    -2.42762E+06    -256.100E+03         36.7260
            1285     8.10030E-03     75.1990E-03     269.850E-03     244.624E-03    -875.505E-03     266.668E-03    -874.714E-03     247.016E-03    -20.5255E-03     210.793E-03    -105.161E-03    -105.841E-03    -104.940E-03     210.571E-03    -105.841E-03     16.6897E-03     11.8802E+06    -73.3699E+06    -110.822E+06    -73.5153E+06    -110.677E+06     11.8802E+06     200.941E+03         36.8164
            1286     9.00068E-03     75.2201E-03     258.944E-03     246.553E-03    -867.855E-03     256.267E-03    -867.619E-03     248.994E-03     8.14381E-03     210.845E-03    -105.059E-03    -105.815E-03    -104.790E-03     210.577E-03    -105.815E-03     18.3923E-03     25.5392E+06    -65.8130E+06    -88.3332E+06    -65.9162E+06    -88.2301E+06     25.5392E+06     1.27852E+06         36.9508
            1287     9.90136E-03     75.2427E-03     253.384E-03     243.464E-03    -857.536E-03     246.853E-03    -857.367E-03     249.827E-03    -1.54087E-03     210.888E-03    -105.124E-03    -105.760E-03    -104.788E-03     210.552E-03    -105.760E-03     20.5436E-03     39.0746E+06    -47.4225E+06    -66.9426E+06    -57.0797E+06    -57.2853E+06     39.0746E+06     1.08491E+06         37.1915
            1288     10.8020E-03     75.2692E-03     255.356E-03     237.926E-03    -850.868E-03     243.173E-03    -850.811E-03     250.053E-03     51.5692E-06     210.815E-03    -105.116E-03    -105.686E-03    -104.715E-03     210.414E-03    -105.686E-03     22.4905E-03     50.0376E+06    -29.1540E+06    -48.2181E+06    -48.0336E+06    -29.3384E+06     50.0376E+06     1.06000E+06         37.7087
            1289     11.7026E-03     75.2970E-03     258.784E-03     240.473E-03    -857.024E-03     248.467E-03    -856.576E-03     250.343E-03    -36.3585E-03     210.616E-03    -104.901E-03    -105.635E-03    -104.421E-03     210.135E-03    -105.635E-03     24.5484E-03     59.9449E+06     11.6358E+06    -40.2047E+06    -40.0849E+06     11.5160E+06     59.9449E+06     137.897E+03         38.8130
            1290     12.6037E-03     75.3285E-03     262.147E-03     247.103E-03    -867.482E-03     257.607E-03    -866.998E-03     251.158E-03    -21.0127E-03     210.237E-03    -104.662E-03    -105.538E-03    -104.043E-03     209.617E-03    -105.538E-03     27.8533E-03     92.0155E+06     63.9771E+06    -32.5919E+06    -32.5606E+06     83.2868E+06     72.6745E+06    -90.3502E+03         40.6301
            1291     13.5052E-03     75.3630E-03     257.901E-03     248.097E-03    -866.842E-03     253.537E-03    -866.508E-03     252.126E-03    -14.9795E-03     210.089E-03    -104.536E-03    -105.516E-03    -103.820E-03     209.373E-03    -105.516E-03     29.9899E-03     126.794E+06     89.7076E+06    -24.6869E+06    -24.6704E+06     126.778E+06     89.7076E+06     992.134E+03         43.1189
            1292     14.4059E-03     75.3981E-03     257.181E-03     248.360E-03    -867.314E-03     252.028E-03    -866.714E-03     252.914E-03    -6.73024E-03     210.218E-03    -104.655E-03    -105.578E-03    -103.712E-03     209.276E-03    -105.578E-03     34.1917E-03     139.464E+06     106.185E+06    -16.3609E+06    -16.3493E+06     139.452E+06     106.185E+06     893.787E+03         46.0121
            1293     15.3080E-03     75.4432E-03     262.240E-03     246.311E-03    -866.789E-03     254.394E-03    -866.321E-03     253.690E-03     1.27432E-03     210.251E-03    -104.644E-03    -105.651E-03    -103.805E-03     209.412E-03    -105.651E-03     31.8750E-03     148.446E+06     129.916E+06    -7.56725E+06     -7.5569E+06     148.435E+06     129.916E+06     862.049E+03         48.6623
            1294     900.409E-06     76.3516E-03         2.30554    -425.653E-03        -2.23123         2.14532    -909.888E-03        -1.58677     626.463E-03     211.049E-03    -105.185E-03    -105.861E-03    -105.578E-03     211.046E-03    -105.466E-03     1.24959E-03    -138.711E+06    -142.689E+06    -326.346E+06    -142.438E+06    -326.331E+06    -138.978E+06    -1.55328E+06         36.4112
            1295     1.80056E-03     76.3531E-03     345.007E-03     275.974E-03    -975.320E-03     271.390E-03    -903.390E-03     277.662E-03    -219.823E-03     211.519E-03    -105.534E-03    -105.952E-03    -105.849E-03     211.510E-03    -105.628E-03     3.16633E-03    -126.139E+06    -138.406E+06    -300.939E+06    -138.412E+06    -300.933E+06    -126.139E+06    -758.268E+03         36.4348
            1296     2.69905E-03     76.3584E-03     310.708E-03     268.327E-03    -938.841E-03     280.786E-03    -917.455E-03     276.863E-03     17.0868E-03     211.792E-03    -105.682E-03    -106.077E-03    -105.870E-03     211.773E-03    -105.870E-03     4.78427E-03    -107.556E+06    -132.527E+06    -286.263E+06    -132.544E+06    -286.245E+06    -107.556E+06    -813.590E+03         36.4396
            1297     3.59843E-03     76.3655E-03     302.671E-03     270.727E-03    -931.684E-03     284.825E-03    -921.505E-03     278.394E-03    -115.558E-03     211.235E-03    -105.310E-03    -105.937E-03    -105.281E-03     211.198E-03    -105.928E-03     6.72864E-03    -86.4158E+06    -124.326E+06    -255.391E+06    -124.355E+06    -255.361E+06    -86.4158E+06    -377.465E+03         36.4444
            1298     4.49988E-03     76.3734E-03     301.688E-03     268.919E-03    -927.100E-03     289.316E-03    -925.996E-03     280.187E-03     3.03469E-03     210.763E-03    -105.045E-03    -105.804E-03    -104.982E-03     210.701E-03    -105.804E-03     8.80749E-03    -62.8323E+06    -113.669E+06    -219.439E+06    -113.694E+06    -219.414E+06    -62.8323E+06     271.177E+03         36.5012
            1299     5.39975E-03     76.3855E-03     304.882E-03     257.971E-03    -918.541E-03     281.008E-03    -917.961E-03     281.265E-03    -33.8865E-03     211.011E-03    -105.249E-03    -105.782E-03    -105.160E-03     210.922E-03    -105.782E-03     10.5604E-03    -42.3062E+06    -104.559E+06    -201.751E+06    -104.604E+06    -201.706E+06    -42.3062E+06    -957.517E+03         36.5674
            1300     6.29993E-03     76.3985E-03     289.768E-03     258.012E-03    -903.322E-03     266.902E-03    -903.065E-03     280.622E-03    -21.8519E-03     211.100E-03    -105.204E-03    -105.747E-03    -105.079E-03     210.975E-03    -105.747E-03     12.5148E-03    -25.6978E+06    -96.3598E+06    -175.270E+06    -96.4062E+06    -175.224E+06    -25.6978E+06    -1.55027E+06         36.6331
            1301     7.20032E-03     76.4149E-03     284.954E-03     261.046E-03    -904.630E-03     266.359E-03    -904.320E-03     279.331E-03    -36.6953E-03     210.843E-03    -105.045E-03    -105.765E-03    -104.873E-03     210.672E-03    -105.765E-03     14.6756E-03    -6.94322E+06    -86.0321E+06    -140.715E+06    -86.0768E+06    -140.670E+06    -6.94322E+06     212.085E+03         36.7239
            1302     8.10067E-03     76.4335E-03     293.776E-03     265.354E-03    -920.041E-03     279.772E-03    -919.790E-03     279.106E-03     3.21519E-03     210.736E-03    -105.074E-03    -105.818E-03    -104.853E-03     210.515E-03    -105.818E-03     16.6786E-03     11.2382E+06    -75.4688E+06    -111.973E+06    -75.5255E+06    -111.916E+06     11.2382E+06     1.17641E+06         36.8141
            1303     9.00122E-03     76.4541E-03     289.734E-03     272.194E-03    -922.792E-03     281.884E-03    -922.532E-03     279.784E-03     5.99708E-03     210.922E-03    -105.169E-03    -105.802E-03    -104.894E-03     210.647E-03    -105.802E-03     18.5934E-03     25.9918E+06    -65.0679E+06    -88.8523E+06    -65.1594E+06    -88.7608E+06     25.9918E+06     969.917E+03         36.9470
            1304     9.90158E-03     76.4771E-03     280.852E-03     268.511E-03    -907.773E-03     269.304E-03    -907.663E-03     279.947E-03    -12.4476E-03     210.948E-03    -105.199E-03    -105.756E-03    -104.857E-03     210.605E-03    -105.756E-03     20.7628E-03     40.7213E+06    -45.6350E+06    -65.9866E+06    -55.1560E+06    -56.4656E+06     40.7213E+06     866.659E+03         37.1891
            1305     10.8018E-03     76.5035E-03     279.219E-03     259.188E-03    -893.339E-03     259.182E-03    -893.333E-03     279.219E-03    -3.21430E-03     210.714E-03    -105.027E-03    -105.689E-03    -104.612E-03     210.299E-03    -105.689E-03     22.8663E-03     51.5525E+06    -29.4910E+06    -46.5937E+06    -46.4306E+06    -29.6542E+06     51.5525E+06     781.555E+03         37.7095
            1306     11.7026E-03     76.5309E-03     278.180E-03     256.326E-03    -889.211E-03     255.990E-03    -888.875E-03     278.180E-03    -29.6928E-03     210.520E-03    -104.837E-03    -105.636E-03    -104.342E-03     210.026E-03    -105.636E-03     24.9319E-03     61.5902E+06     12.1866E+06    -38.9128E+06    -38.7207E+06     11.9945E+06     61.5902E+06     997.096E+03         38.8165
            1307     12.6037E-03     76.5615E-03     280.871E-03     259.370E-03    -897.097E-03     262.298E-03    -896.643E-03     277.490E-03    -10.3367E-03     210.212E-03    -104.633E-03    -105.534E-03    -104.029E-03     209.608E-03    -105.534E-03     27.5167E-03     92.7166E+06     67.7026E+06    -31.9976E+06    -31.8893E+06     84.0917E+06     76.2193E+06     356.649E+03         40.6354
            1308     13.5056E-03     76.5965E-03     281.311E-03     264.070E-03    -904.730E-03     267.723E-03    -904.424E-03     277.353E-03    -2.47404E-03     210.003E-03    -104.463E-03    -105.496E-03    -103.781E-03     209.321E-03    -105.496E-03     29.2312E-03     126.093E+06     91.9621E+06    -24.1390E+06    -24.1162E+06     126.070E+06     91.9621E+06    -58.6597E+03         43.1258
            1309     14.4072E-03     76.6321E-03     277.842E-03     260.655E-03    -899.167E-03     261.010E-03    -898.945E-03     277.265E-03    -26.0838E-03     210.226E-03    -104.702E-03    -105.552E-03    -103.788E-03     209.313E-03    -105.552E-03     33.6168E-03     138.863E+06     105.974E+06    -16.3336E+06    -16.3281E+06     138.857E+06     105.974E+06     439.162E+03         46.0206
            1310     15.3082E-03     76.6770E-03     276.640E-03     248.569E-03    -889.014E-03     248.403E-03    -888.847E-03     276.640E-03    -19.3558E-03     210.400E-03    -104.793E-03    -105.626E-03    -103.956E-03     209.563E-03    -105.626E-03     31.9132E-03     148.669E+06     129.184E+06    -9.23023E+06    -9.21936E+06     148.658E+06     129.184E+06     818.449E+03         48.6721
            1311     900.259E-06     77.5845E-03         2.33846    -457.080E-03        -2.23328         2.15129    -996.152E-03        -1.50705     674.358E-03     211.101E-03    -105.366E-03    -105.733E-03    -105.505E-03     211.098E-03    -105.591E-03     1.14435E-03    -139.337E+06    -142.767E+06    -324.549E+06    -142.364E+06    -324.546E+06    -139.744E+06    -612.997E+03         36.4218
            1312     1.79935E-03     77.5883E-03     389.284E-03     317.021E-03        -1.05936     303.086E-03    -974.853E-03     318.709E-03    -235.585E-03     211.443E-03    -105.507E-03    -105.916E-03    -105.794E-03     211.433E-03    -105.619E-03     3.43056E-03    -128.081E+06    -138.805E+06    -302.161E+06    -138.806E+06    -302.161E+06    -128.081E+06    -143.241E+03         36.4348
            1313     2.69943E-03     77.5936E-03     311.593E-03     291.110E-03    -961.453E-03     269.459E-03    -936.662E-03     308.453E-03     71.6733E-03     211.383E-03    -105.411E-03    -105.956E-03    -105.544E-03     211.361E-03    -105.802E-03     5.13639E-03    -108.451E+06    -132.610E+06    -286.699E+06    -132.616E+06    -286.692E+06    -108.451E+06     667.042E+03         36.4336
            1314     3.60041E-03     77.5985E-03     312.976E-03     284.945E-03    -956.188E-03     288.218E-03    -947.086E-03     300.600E-03    -78.5758E-03     211.138E-03    -105.320E-03    -105.848E-03    -105.281E-03     211.099E-03    -105.848E-03     6.92135E-03    -86.3468E+06    -124.382E+06    -254.312E+06    -124.391E+06    -254.302E+06    -86.3468E+06     317.752E+03         36.4427
            1315     4.49946E-03     77.6084E-03     341.089E-03     302.913E-03        -1.00005     338.977E-03    -997.936E-03     302.913E-03     52.5244E-03     210.899E-03    -105.236E-03    -105.751E-03    -105.174E-03     210.837E-03    -105.751E-03     8.80192E-03    -65.0309E+06    -114.602E+06    -219.901E+06    -114.628E+06    -219.875E+06    -65.0309E+06    -525.068E+03         36.5004
            1316     5.39990E-03     77.6190E-03     351.326E-03     310.170E-03        -1.01859     350.280E-03        -1.01754     310.170E-03     10.2894E-03     210.991E-03    -105.268E-03    -105.768E-03    -105.177E-03     210.899E-03    -105.768E-03     10.7312E-03    -42.1262E+06    -103.500E+06    -199.949E+06    -103.523E+06    -199.926E+06    -42.1262E+06    -436.829E+03         36.5645
            1317     6.29993E-03     77.6333E-03     331.595E-03     311.843E-03        -1.00113     327.984E-03        -1.00049     314.812E-03    -17.9789E-03     211.117E-03    -105.250E-03    -105.750E-03    -105.124E-03     210.992E-03    -105.750E-03     12.5787E-03    -20.9161E+06    -92.5591E+06    -174.830E+06    -92.5710E+06    -174.818E+06    -20.9161E+06    -629.308E+03         36.6304
            1318     7.20008E-03     77.6482E-03     316.365E-03     294.568E-03    -969.146E-03     295.177E-03    -968.326E-03     314.937E-03    -59.3653E-03     210.871E-03    -105.030E-03    -105.749E-03    -104.861E-03     210.703E-03    -105.749E-03     14.5303E-03    -4.51959E+06    -82.8909E+06    -143.060E+06    -82.9055E+06    -143.046E+06    -4.51959E+06    -382.723E+03         36.7214
            1319     8.10088E-03     77.6681E-03     312.209E-03     277.283E-03    -948.818E-03     276.688E-03    -948.223E-03     312.209E-03    -21.8909E-03     210.619E-03    -104.943E-03    -105.795E-03    -104.726E-03     210.402E-03    -105.795E-03     16.5053E-03     12.4119E+06    -72.7055E+06    -111.651E+06    -72.7101E+06    -111.647E+06     12.4119E+06     23.6903E+03         36.8091
            1320     9.00131E-03     77.6879E-03     309.422E-03     283.005E-03    -951.167E-03     282.848E-03    -951.010E-03     309.422E-03     5.49517E-03     210.843E-03    -105.120E-03    -105.794E-03    -104.846E-03     210.569E-03    -105.794E-03     18.5639E-03     27.6584E+06    -63.2871E+06    -88.6727E+06    -63.3017E+06    -88.6581E+06     27.6584E+06     252.905E+03         36.9419
            1321     9.90151E-03     77.7121E-03     307.976E-03     293.523E-03    -956.527E-03     293.521E-03    -956.524E-03     307.976E-03     1.44645E-03     210.841E-03    -105.090E-03    -105.742E-03    -104.749E-03     210.500E-03    -105.742E-03     20.7223E-03     41.3313E+06    -45.6780E+06    -65.8382E+06    -54.5465E+06    -56.9697E+06     41.3313E+06     478.968E+03         37.1874
            1322     10.8027E-03     77.7366E-03     307.327E-03     293.645E-03    -953.610E-03     293.636E-03    -953.601E-03     307.327E-03     4.30830E-03     210.591E-03    -104.901E-03    -105.659E-03    -104.491E-03     210.181E-03    -105.659E-03     22.6989E-03     52.4038E+06    -29.8127E+06    -45.6895E+06    -45.5471E+06    -29.9551E+06     52.4038E+06     531.285E+03         37.7112
            1323     11.7038E-03     77.7654E-03     306.492E-03     283.286E-03    -942.321E-03     283.029E-03    -942.064E-03     306.492E-03    -22.4688E-03     210.578E-03    -104.933E-03    -105.600E-03    -104.439E-03     210.085E-03    -105.600E-03     24.8986E-03     62.3303E+06     11.2978E+06    -37.2396E+06    -37.0927E+06     11.1509E+06     62.3303E+06     1.17166E+06         38.8202
            1324     12.6041E-03     77.7961E-03     304.954E-03     267.986E-03    -926.907E-03     267.645E-03    -926.567E-03     304.954E-03    -11.3777E-03     210.474E-03    -104.918E-03    -105.515E-03    -104.315E-03     209.871E-03    -105.515E-03     27.5131E-03     94.6552E+06     67.8788E+06    -29.7634E+06    -29.6003E+06      85.112E+06     77.2589E+06     1.79772E+06         40.6405
            1325     13.5046E-03     77.8305E-03     302.912E-03     260.154E-03    -919.118E-03     259.970E-03    -918.934E-03     302.912E-03    -1.36632E-03     210.270E-03    -104.728E-03    -105.503E-03    -104.052E-03     209.594E-03    -105.503E-03     29.1453E-03     127.368E+06     92.8757E+06    -24.0624E+06    -23.9695E+06     127.275E+06     92.8757E+06     776.754E+03         43.1317
            1326     14.4062E-03     77.8656E-03     300.770E-03     254.503E-03    -913.633E-03     254.222E-03    -913.351E-03     300.770E-03    -7.92785E-03     210.411E-03    -104.866E-03    -105.579E-03    -103.973E-03     209.517E-03    -105.579E-03     33.2783E-03     139.136E+06     106.563E+06    -16.6109E+06    -16.5949E+06     139.120E+06     106.563E+06    -355.179E+03         46.0274
            1327     15.3078E-03     77.9113E-03     298.600E-03     249.709E-03    -908.106E-03     249.456E-03    -907.854E-03     298.600E-03    -2.66245E-03     210.379E-03    -104.734E-03    -105.652E-03    -103.911E-03     209.556E-03    -105.652E-03     31.6943E-03     149.229E+06     130.346E+06    -7.26775E+06    -7.23252E+06     149.193E+06     130.346E+06     713.922E+03         48.6806
            1328     899.583E-06     78.8184E-03         2.33002    -485.679E-03        -2.19118         2.14267        -1.07510        -1.41441     721.980E-03     211.261E-03    -105.516E-03    -105.750E-03    -105.651E-03     211.257E-03    -105.610E-03     2.12353E-03    -140.187E+06    -143.039E+06    -324.313E+06    -142.637E+06    -324.310E+06    -140.593E+06     356.334E+03         36.4217
            1329     1.79994E-03     78.8226E-03     426.629E-03     359.555E-03        -1.13935     342.460E-03        -1.05518     359.555E-03    -174.339E-03     211.054E-03    -105.398E-03    -105.631E-03    -105.405E-03     211.043E-03    -105.614E-03     3.61687E-03    -128.358E+06    -139.299E+06    -302.583E+06    -139.301E+06    -302.581E+06    -128.358E+06     302.583E+03         36.4278
            1330     2.70051E-03     78.8259E-03     368.165E-03     343.142E-03        -1.06774     330.703E-03        -1.03909     351.949E-03     139.708E-03     211.172E-03    -105.452E-03    -105.711E-03    -105.440E-03     211.152E-03    -105.702E-03     5.00980E-03    -108.716E+06    -132.476E+06    -287.572E+06    -132.483E+06    -287.565E+06    -108.716E+06     547.245E+03         36.4229
            1331     3.59945E-03     78.8339E-03     357.408E-03     333.691E-03        -1.04739     337.015E-03        -1.04073     347.421E-03    -55.7378E-03     211.253E-03    -105.517E-03    -105.784E-03    -105.491E-03     211.217E-03    -105.775E-03     6.64491E-03    -86.7128E+06    -123.206E+06    -254.167E+06    -123.215E+06    -254.158E+06    -86.7128E+06     546.902E+03         36.4350
            1332     4.50006E-03     78.8417E-03     362.940E-03     328.952E-03        -1.04658     343.780E-03        -1.04474     346.265E-03     85.1544E-03     210.924E-03    -105.317E-03    -105.720E-03    -105.255E-03     210.863E-03    -105.720E-03     8.72826E-03    -63.2215E+06    -113.978E+06    -218.209E+06    -113.996E+06    -218.190E+06    -63.2215E+06    -317.409E+03         36.4964
            1333     5.39993E-03     78.8536E-03     363.552E-03     324.157E-03        -1.04318     341.118E-03        -1.04260     346.013E-03     42.7656E-03     210.976E-03    -105.315E-03    -105.750E-03    -105.219E-03     210.881E-03    -105.750E-03     10.9407E-03    -40.7419E+06    -104.278E+06    -199.478E+06    -104.315E+06    -199.441E+06    -40.7419E+06    -1.36852E+06         36.5602
            1334     6.30030E-03     78.8672E-03     352.953E-03     329.049E-03        -1.03795     336.116E-03        -1.03738     345.317E-03    -8.15230E-03     211.086E-03    -105.263E-03    -105.720E-03    -105.137E-03     210.960E-03    -105.720E-03     12.6415E-03    -21.3468E+06    -93.3984E+06    -175.482E+06    -93.4249E+06    -175.456E+06    -21.3468E+06    -1.10514E+06         36.6254
            1335     7.20043E-03     78.8834E-03     345.213E-03     323.597E-03        -1.02515     324.219E-03        -1.02434     343.784E-03    -61.1908E-03     210.851E-03    -105.063E-03    -105.738E-03    -104.896E-03     210.684E-03    -105.738E-03     14.4706E-03    -3.74494E+06    -82.7680E+06    -143.621E+06    -82.7757E+06    -143.613E+06    -3.74494E+06    -360.867E+03         36.7174
            1336     8.10061E-03     78.9007E-03     341.239E-03     310.960E-03        -1.00924     310.442E-03        -1.00872     341.239E-03    -41.6695E-03     210.591E-03    -104.998E-03    -105.798E-03    -104.775E-03     210.368E-03    -105.798E-03     16.7252E-03     12.3765E+06    -73.8112E+06    -112.104E+06    -73.8842E+06    -112.031E+06     12.3765E+06     542.467E+03         36.8045
            1337     9.00127E-03     78.9230E-03     338.412E-03     306.752E-03        -1.00130     306.706E-03        -1.00125     338.412E-03    -5.73593E-03     210.689E-03    -105.020E-03    -105.783E-03    -104.745E-03     210.414E-03    -105.783E-03     18.6272E-03     26.9998E+06    -65.1097E+06    -88.4344E+06    -65.2005E+06    -88.3437E+06     26.9998E+06     669.664E+03         36.9384
            1338     9.90237E-03     78.9453E-03     336.188E-03     310.414E-03        -1.00087     310.402E-03        -1.00086     336.188E-03     3.72551E-03     210.748E-03    -105.024E-03    -105.730E-03    -104.694E-03     210.418E-03    -105.730E-03     20.3614E-03     40.9402E+06    -45.9931E+06    -66.4046E+06    -56.0392E+06    -56.3585E+06     40.9402E+06    -59.6027E+03         37.1879
            1339     10.8024E-03     78.9711E-03     334.529E-03     309.271E-03    -996.486E-03     309.257E-03    -996.472E-03     334.529E-03     5.84395E-03     210.726E-03    -105.043E-03    -105.652E-03    -104.649E-03     210.332E-03    -105.652E-03     22.2720E-03     51.1256E+06    -30.1966E+06    -47.4672E+06    -47.3245E+06    -30.3393E+06     51.1256E+06    -105.585E+03         37.7138
            1340     11.7032E-03     78.9990E-03     332.766E-03     299.818E-03    -983.727E-03     299.198E-03    -983.107E-03     332.766E-03    -32.3788E-03     210.598E-03    -104.935E-03    -105.596E-03    -104.458E-03     210.121E-03    -105.596E-03     24.4767E-03     60.9858E+06     10.8584E+06    -38.6716E+06    -38.5402E+06     10.7270E+06     60.9858E+06    -377.343E+03         38.8237
            1341     12.6046E-03     79.0305E-03     330.431E-03     284.962E-03    -965.870E-03     284.270E-03    -965.178E-03     330.431E-03    -24.7705E-03     210.358E-03    -104.800E-03    -105.505E-03    -104.207E-03     209.765E-03    -105.505E-03     27.2605E-03     91.4424E+06     67.3889E+06    -29.5088E+06    -29.4151E+06     82.6949E+06     76.0427E+06     682.117E+03         40.6455
            1342     13.5056E-03     79.0646E-03     327.479E-03     269.271E-03    -946.697E-03     268.971E-03    -946.398E-03     327.479E-03    -9.21757E-03     210.462E-03    -104.914E-03    -105.502E-03    -104.228E-03     209.776E-03    -105.502E-03     29.3737E-03     128.096E+06     94.2035E+06    -20.4910E+06    -20.3428E+06     127.948E+06     94.2035E+06     2.42152E+06         43.1379
            1343     14.4060E-03     79.1002E-03     324.174E-03     258.447E-03    -934.619E-03     258.015E-03    -934.187E-03     324.174E-03    -179.917E-06     210.800E-03    -105.222E-03    -105.596E-03    -104.297E-03     209.875E-03    -105.594E-03     33.9340E-03     142.818E+06     108.763E+06    -14.0496E+06    -13.9790E+06     142.747E+06     108.763E+06     692.719E+03         46.0344
            1344     15.3068E-03     79.1454E-03     320.723E-03     249.649E-03    -920.068E-03     249.343E-03    -919.762E-03     320.723E-03     8.17379E-03     210.357E-03    -104.676E-03    -105.673E-03    -103.837E-03     209.516E-03    -105.672E-03     31.9865E-03     148.914E+06     129.837E+06     -8.2644E+06    -8.22039E+06     148.870E+06     129.837E+06     991.943E+03         48.6890
            1345     900.198E-06     80.0538E-03         2.29665    -512.574E-03        -2.13030         2.10919        -1.14671        -1.30870     737.785E-03     211.106E-03    -105.359E-03    -105.761E-03    -105.484E-03     211.102E-03    -105.631E-03     2.16984E-03    -139.586E+06    -143.245E+06    -324.967E+06    -142.647E+06    -324.957E+06    -140.194E+06     117.553E+03         36.4111
            1346     1.80012E-03     80.0544E-03     462.371E-03     397.293E-03        -1.20793     384.966E-03        -1.13053     397.293E-03    -183.271E-03     211.061E-03    -105.464E-03    -105.582E-03    -105.463E-03     211.053E-03    -105.574E-03     3.03042E-03    -126.991E+06    -138.186E+06    -302.563E+06    -138.188E+06    -302.561E+06    -126.991E+06     557.747E+03         36.4210
            1347     2.69984E-03     80.0610E-03     420.120E-03     394.085E-03        -1.16597     392.510E-03        -1.13836     394.085E-03     95.9683E-03     211.179E-03    -105.463E-03    -105.702E-03    -105.452E-03     211.158E-03    -105.693E-03     4.97649E-03    -107.250E+06    -130.978E+06    -286.804E+06    -130.980E+06    -286.802E+06    -107.250E+06     220.055E+03         36.4168
            1348     3.60035E-03     80.0674E-03     400.141E-03     377.184E-03        -1.13011     376.980E-03        -1.12188     392.115E-03    -112.460E-03     211.107E-03    -105.407E-03    -105.764E-03    -105.379E-03     211.071E-03    -105.755E-03     6.74483E-03    -85.4792E+06    -122.878E+06    -255.129E+06    -122.882E+06    -255.126E+06    -85.4792E+06     310.468E+03         36.4297
            1349     4.49999E-03     80.0761E-03     386.101E-03     343.535E-03        -1.08073     342.811E-03        -1.08001     386.101E-03     25.1047E-03     210.934E-03    -105.355E-03    -105.703E-03    -105.296E-03     210.875E-03    -105.703E-03     8.57415E-03    -61.9616E+06    -113.348E+06    -217.869E+06    -113.358E+06    -217.859E+06    -61.9616E+06     814.385E+03         36.4928
            1350     5.40036E-03     80.0876E-03     378.614E-03     337.994E-03        -1.06999     337.774E-03        -1.06977     378.614E-03    -21.6046E-03     210.925E-03    -105.264E-03    -105.739E-03    -105.173E-03     210.834E-03    -105.739E-03     10.6683E-03    -39.4317E+06    -103.822E+06    -197.144E+06    -103.850E+06    -197.117E+06    -39.4317E+06    -297.373E+03         36.5555
            1351     6.30007E-03     80.1017E-03     373.902E-03     351.506E-03        -1.08020     351.302E-03        -1.07999     373.902E-03    -7.75405E-03     210.910E-03    -105.095E-03    -105.700E-03    -104.966E-03     210.781E-03    -105.700E-03     12.7583E-03    -21.3659E+06    -94.7435E+06    -175.871E+06    -94.7704E+06    -175.844E+06    -21.3659E+06    -1.17036E+06         36.6206
            1352     7.20058E-03     80.1169E-03     371.452E-03     352.282E-03        -1.07791     352.049E-03        -1.07768     371.452E-03    -16.4472E-03     210.909E-03    -105.138E-03    -105.710E-03    -104.967E-03     210.738E-03    -105.710E-03     14.6478E-03    -4.52199E+06    -85.0020E+06    -145.273E+06    -85.0172E+06    -145.258E+06    -4.52199E+06    -16.4596E+03         36.7155
            1353     8.10132E-03     80.1355E-03     369.585E-03     349.938E-03        -1.07438     349.727E-03        -1.07417     369.585E-03    -6.35468E-03     210.786E-03    -105.159E-03    -105.783E-03    -104.942E-03     210.569E-03    -105.783E-03     16.4988E-03     12.4807E+06    -74.7524E+06    -112.712E+06    -74.8400E+06    -112.625E+06     12.4807E+06     799.055E+03         36.8038
            1354     9.00142E-03     80.1565E-03     367.384E-03     335.561E-03        -1.05824     335.321E-03        -1.05800     367.384E-03     25.7059E-03     210.720E-03    -105.018E-03    -105.776E-03    -104.752E-03     210.454E-03    -105.776E-03     18.2935E-03     27.4189E+06    -64.5404E+06    -87.4892E+06    -64.6256E+06    -87.4041E+06     27.4189E+06     187.478E+03         36.9369
            1355     9.90179E-03     80.1794E-03     364.100E-03     315.606E-03        -1.03358     315.446E-03        -1.03342     364.100E-03     7.92348E-03     210.765E-03    -105.053E-03    -105.731E-03    -104.725E-03     210.438E-03    -105.731E-03     20.2935E-03     41.1666E+06    -46.0604E+06    -64.5473E+06    -55.0676E+06    -55.5401E+06     41.1666E+06    -300.475E+03         37.1875
            1356     10.8026E-03     80.2053E-03     360.159E-03     305.901E-03        -1.01962     305.802E-03        -1.01952     360.159E-03     3.09316E-03     210.796E-03    -105.107E-03    -105.670E-03    -104.709E-03     210.397E-03    -105.670E-03     22.4063E-03     51.1146E+06    -30.2184E+06    -46.9068E+06    -46.8045E+06    -30.3206E+06     51.1146E+06    -193.777E+03         37.7157
            1357     11.7033E-03     80.2330E-03     356.378E-03     303.890E-03        -1.01302     303.048E-03        -1.01218     356.378E-03    -33.8409E-03     210.645E-03    -104.968E-03    -105.607E-03    -104.484E-03     210.161E-03    -105.607E-03     24.6597E-03     60.0227E+06     10.7946E+06    -40.1881E+06    -40.0954E+06     10.7019E+06     60.0227E+06     131.848E+03         38.8270
            1358     12.6039E-03     80.2637E-03     353.033E-03     302.200E-03        -1.00646     301.261E-03        -1.00552     353.033E-03    -24.8241E-03     210.326E-03    -104.777E-03    -105.507E-03    -104.179E-03     209.729E-03    -105.507E-03     27.3819E-03     90.1730E+06     65.2518E+06    -33.6952E+06    -33.6806E+06     81.8677E+06     73.5425E+06    -366.857E+03         40.6499
            1359     13.5051E-03     80.2989E-03     349.760E-03     289.828E-03    -988.008E-03     289.429E-03    -987.609E-03     349.760E-03    -4.15741E-03     210.272E-03    -104.747E-03    -105.493E-03    -104.062E-03     209.588E-03    -105.493E-03     29.3297E-03     126.400E+06     90.2399E+06    -24.8092E+06    -24.6841E+06     126.275E+06     90.2399E+06    -569.543E+03         43.1438
            1360     14.4066E-03     80.3353E-03     345.940E-03     268.147E-03    -962.844E-03     267.830E-03    -962.527E-03     345.940E-03    -12.3288E-03     210.652E-03    -105.084E-03    -105.582E-03    -104.157E-03     209.723E-03    -105.581E-03     33.9556E-03     142.217E+06     107.824E+06    -15.3679E+06    -15.0708E+06     141.920E+06     107.824E+06     2.69779E+06         46.0421
            1361     15.3075E-03     80.3801E-03     341.479E-03     251.520E-03    -944.875E-03     251.417E-03    -944.772E-03     341.479E-03     4.92150E-03     210.458E-03    -104.823E-03    -105.678E-03    -103.988E-03     209.621E-03    -105.677E-03     31.8460E-03     150.857E+06     131.436E+06    -8.40065E+06    -8.20457E+06     150.661E+06     131.436E+06     3.25308E+06         48.6977
            1362     899.869E-06     81.2863E-03         2.25362    -532.394E-03        -2.06726         2.04593        -1.18101        -1.21095     790.453E-03     211.202E-03    -105.372E-03    -105.834E-03    -105.570E-03     211.198E-03    -105.632E-03     2.19679E-03    -138.437E+06    -144.263E+06    -325.716E+06    -143.675E+06    -325.696E+06    -139.045E+06     240.308E+03         36.4063
            1363     1.79976E-03     81.2895E-03     496.599E-03     418.532E-03        -1.25875     421.609E-03        -1.18376     418.532E-03    -217.133E-03     211.245E-03    -105.582E-03    -105.651E-03    -105.581E-03     211.236E-03    -105.643E-03     3.11875E-03    -126.426E+06    -138.250E+06    -302.988E+06    -138.254E+06    -302.983E+06    -126.426E+06     442.485E+03         36.4188
            1364     2.69977E-03     81.2940E-03     442.799E-03     416.325E-03        -1.20560     415.231E-03        -1.18049     418.776E-03     62.8710E-03     211.231E-03    -105.467E-03    -105.765E-03    -105.448E-03     211.213E-03    -105.765E-03     4.84901E-03    -107.107E+06    -131.765E+06    -286.833E+06    -131.770E+06    -286.828E+06    -107.107E+06     748.837E+03         36.4164
            1365     3.60001E-03     81.3011E-03     418.824E-03     399.633E-03        -1.16723     392.745E-03        -1.15696     415.440E-03    -110.339E-03     211.045E-03    -105.298E-03    -105.802E-03    -105.263E-03     211.010E-03    -105.802E-03     6.55662E-03    -84.2481E+06    -122.715E+06    -254.765E+06    -122.716E+06    -254.763E+06    -84.2481E+06     375.602E+03         36.4292
            1366     4.50008E-03     81.3109E-03     414.587E-03     381.576E-03        -1.14431     384.477E-03        -1.14281     410.178E-03     35.6057E-03     210.896E-03    -105.300E-03    -105.714E-03    -105.242E-03     210.839E-03    -105.714E-03     8.47648E-03    -61.9708E+06    -112.702E+06    -218.594E+06    -112.711E+06    -218.584E+06    -61.9708E+06     257.241E+03         36.4906
            1367     5.39950E-03     81.3214E-03     410.384E-03     379.418E-03        -1.14275     383.515E-03        -1.14244     405.975E-03    -21.8404E-03     210.858E-03    -105.182E-03    -105.739E-03    -105.096E-03     210.772E-03    -105.739E-03     10.3770E-03    -37.6874E+06    -101.729E+06    -195.672E+06    -101.746E+06    -195.655E+06    -37.6874E+06     548.936E+03         36.5527
            1368     6.30102E-03     81.3352E-03     402.945E-03     382.322E-03        -1.13994     382.125E-03        -1.13974     402.945E-03     6.02485E-03     210.935E-03    -105.090E-03    -105.715E-03    -104.967E-03     210.813E-03    -105.715E-03     12.3912E-03    -16.7632E+06    -91.2957E+06    -175.826E+06    -91.3111E+06    -175.811E+06    -16.7632E+06     590.027E+03         36.6190
            1369     7.20124E-03     81.3513E-03     400.584E-03     380.757E-03        -1.13294     380.516E-03        -1.13269     400.584E-03    -15.4689E-03     210.980E-03    -105.217E-03    -105.719E-03    -105.054E-03     210.816E-03    -105.719E-03     14.3401E-03    -1.91431E+06    -82.3174E+06    -146.407E+06    -82.3346E+06    -146.390E+06    -1.91431E+06     427.769E+03         36.7142
            1370     8.10049E-03     81.3700E-03     398.078E-03     368.486E-03        -1.11726     368.197E-03        -1.11697     398.078E-03    -12.6007E-03     210.777E-03    -105.153E-03    -105.775E-03    -104.943E-03     210.567E-03    -105.775E-03     16.2598E-03     12.9549E+06    -72.2195E+06    -111.476E+06    -72.2570E+06    -111.439E+06     12.9549E+06    -448.889E+03         36.8019
            1371     9.00102E-03     81.3900E-03     394.427E-03     346.388E-03        -1.09233     346.102E-03        -1.09204     394.427E-03     29.6312E-03     210.737E-03    -105.028E-03    -105.767E-03    -104.757E-03     210.466E-03    -105.767E-03     18.4394E-03     27.4471E+06    -62.4673E+06    -87.5269E+06    -62.5188E+06    -87.4754E+06     27.4471E+06    -285.074E+03         36.9356
            1372     9.90212E-03     81.4136E-03     389.582E-03     326.495E-03        -1.06775     326.255E-03        -1.06751     389.582E-03     6.60197E-03     210.807E-03    -105.088E-03    -105.727E-03    -104.751E-03     210.470E-03    -105.727E-03     20.6046E-03     41.0400E+06    -45.1349E+06    -64.8147E+06    -54.5549E+06    -55.3947E+06     41.0400E+06     339.084E+03         37.1882
            1373     10.8025E-03     81.4392E-03     384.481E-03     319.541E-03        -1.05535     319.290E-03        -1.05510     384.481E-03     7.12114E-03     210.779E-03    -105.065E-03    -105.671E-03    -104.668E-03     210.381E-03    -105.671E-03     22.3749E-03     50.8803E+06    -30.5771E+06    -46.8671E+06    -46.8168E+06    -30.6273E+06     50.8803E+06     268.017E+03         37.7182
            1374     11.7034E-03     81.4673E-03     379.763E-03     314.063E-03        -1.04760     313.526E-03        -1.04707     379.763E-03    -6.66624E-03     210.666E-03    -104.988E-03    -105.600E-03    -104.509E-03     210.187E-03    -105.600E-03     24.5557E-03     60.1290E+06     9.27770E+06    -38.9629E+06    -38.8943E+06     9.20906E+06     60.1290E+06     1.40179E+06         38.8304
            1375     12.6045E-03     81.4981E-03     375.209E-03     303.429E-03        -1.03242     302.604E-03        -1.03160     375.209E-03     4.63723E-03     210.495E-03    -104.934E-03    -105.505E-03    -104.332E-03     209.893E-03    -105.505E-03     27.4742E-03     93.6056E+06     65.5631E+06    -31.7951E+06    -31.7553E+06     84.1577E+06     74.9712E+06     1.40596E+06         40.6537
            1376     13.5050E-03     81.5330E-03     370.574E-03     292.059E-03        -1.01350     291.497E-03        -1.01294     370.574E-03     24.5795E-03     210.338E-03    -104.802E-03    -105.517E-03    -104.116E-03     209.652E-03    -105.517E-03     29.3640E-03     127.882E+06     90.5487E+06    -25.9894E+06    -25.9276E+06     127.820E+06     90.5487E+06    -847.774E+03         43.1481
            1377     14.4061E-03     81.5684E-03     365.668E-03     273.872E-03    -990.846E-03     273.645E-03    -990.619E-03     365.668E-03     7.07543E-03     210.465E-03    -104.922E-03    -105.592E-03    -104.010E-03     209.552E-03    -105.592E-03     33.6415E-03     139.862E+06     104.614E+06    -19.0245E+06    -18.7822E+06     139.619E+06     104.614E+06     1.30350E+06         46.0473
            1378     15.3078E-03     81.6148E-03     360.508E-03     262.916E-03    -975.317E-03     262.730E-03    -975.131E-03     360.508E-03     5.29619E-03     210.388E-03    -104.779E-03    -105.688E-03    -103.969E-03     209.579E-03    -105.688E-03     31.2452E-03     150.874E+06     129.929E+06    -9.19040E+06    -9.00082E+06     150.684E+06     129.929E+06     2.75811E+06         48.7046
            1379     899.846E-06     82.5203E-03         2.19716    -531.205E-03        -2.00514         1.97059        -1.19176        -1.11801     766.065E-03     211.285E-03    -105.381E-03    -105.895E-03    -105.847E-03     211.281E-03    -105.425E-03     2.28774E-03    -137.135E+06    -145.274E+06    -327.299E+06    -142.614E+06    -327.264E+06    -139.830E+06     789.922E+03         36.4064
            1380     1.79987E-03     82.5233E-03     535.135E-03     430.640E-03        -1.30790     450.653E-03        -1.22342     430.640E-03    -251.099E-03     211.332E-03    -105.602E-03    -105.707E-03    -105.619E-03     211.323E-03    -105.681E-03     3.38484E-03    -125.667E+06    -138.856E+06    -303.998E+06    -138.881E+06    -303.973E+06    -125.667E+06     1.50754E+06         36.4199
            1381     2.69967E-03     82.5285E-03     468.559E-03     434.336E-03        -1.24601     443.200E-03        -1.22310     436.787E-03     102.221E-03     211.440E-03    -105.620E-03    -105.822E-03    -105.600E-03     211.420E-03    -105.822E-03     4.91648E-03    -106.341E+06    -132.224E+06    -286.934E+06    -132.238E+06    -286.920E+06    -106.341E+06     1.43315E+06         36.4173
            1382     3.59937E-03     82.5350E-03     446.488E-03     431.567E-03        -1.22035     432.224E-03        -1.21189     437.367E-03    -48.5493E-03     211.146E-03    -105.334E-03    -105.868E-03    -105.297E-03     211.109E-03    -105.868E-03     6.73484E-03    -84.1342E+06    -123.447E+06    -253.757E+06    -123.452E+06    -253.752E+06    -84.1342E+06     553.966E+03         36.4275
            1383     4.49971E-03     82.5449E-03     444.264E-03     426.735E-03        -1.21546     431.891E-03        -1.21285     436.495E-03     71.6763E-03     210.691E-03    -105.099E-03    -105.748E-03    -105.040E-03     210.632E-03    -105.748E-03     8.60247E-03    -60.4460E+06    -112.816E+06    -217.241E+06    -112.829E+06    -217.229E+06    -60.4460E+06    -729.493E+03         36.4876
            1384     5.40071E-03     82.5555E-03     438.860E-03     408.011E-03        -1.19570     412.188E-03        -1.19547     434.451E-03     13.4949E-06     210.959E-03    -105.319E-03    -105.747E-03    -105.234E-03     210.874E-03    -105.747E-03     10.3355E-03    -38.1223E+06    -102.066E+06    -197.704E+06    -102.092E+06    -197.677E+06    -38.1223E+06     98.5133E+03         36.5509
            1385     6.29967E-03     82.5692E-03     429.980E-03     389.905E-03        -1.16910     389.377E-03        -1.16857     429.980E-03    -10.0289E-03     211.175E-03    -105.301E-03    -105.740E-03    -105.181E-03     211.055E-03    -105.740E-03     12.2857E-03    -18.1896E+06    -91.2198E+06    -176.581E+06    -91.2481E+06    -176.552E+06    -18.1896E+06     1.55327E+06         36.6169
            1386     7.19979E-03     82.5859E-03     424.903E-03     386.151E-03        -1.15816     385.544E-03        -1.15756     424.903E-03    -52.9507E-03     210.737E-03    -104.966E-03    -105.756E-03    -104.799E-03     210.570E-03    -105.756E-03     14.4473E-03    -1.16354E+06    -80.6088E+06    -144.852E+06    -80.6262E+06    -144.834E+06    -1.16354E+06     764.777E+03         36.7103
            1387     8.10145E-03     82.6041E-03     420.194E-03     375.005E-03        -1.14046     374.742E-03        -1.14020     420.194E-03    -37.3530E-03     210.516E-03    -104.917E-03    -105.778E-03    -104.703E-03     210.301E-03    -105.778E-03     16.4167E-03     12.9514E+06    -71.8296E+06    -110.724E+06    -71.8851E+06    -110.669E+06     12.9514E+06     95.7658E+03         36.7981
            1388     9.00192E-03     82.6244E-03     415.441E-03     365.212E-03        -1.12531     365.081E-03        -1.12518     415.441E-03    -693.247E-06     210.823E-03    -105.135E-03    -105.750E-03    -104.865E-03     210.553E-03    -105.750E-03     18.4082E-03     25.8852E+06    -64.2161E+06    -88.8185E+06    -64.2943E+06    -88.7403E+06     25.8852E+06     566.833E+03         36.9354
            1389     9.90197E-03     82.6473E-03     411.146E-03     364.523E-03        -1.12340     364.329E-03        -1.12321     411.146E-03    -6.62258E-03     210.913E-03    -105.184E-03    -105.722E-03    -104.854E-03     210.582E-03    -105.722E-03     20.4135E-03     40.1766E+06    -44.7074E+06    -67.0311E+06    -56.1189E+06    -55.6195E+06     40.1766E+06     1.18401E+06         37.1914
            1390     10.8028E-03     82.6736E-03     407.127E-03     351.834E-03        -1.10852     351.467E-03        -1.10815     407.127E-03     6.60313E-03     210.847E-03    -105.120E-03    -105.690E-03    -104.733E-03     210.460E-03    -105.690E-03     22.0871E-03     50.5385E+06    -29.9718E+06    -48.5234E+06    -48.4574E+06    -30.0377E+06     50.5385E+06     861.117E+03         37.7216
            1391     11.7032E-03     82.7008E-03     402.299E-03     325.143E-03        -1.07737     324.549E-03        -1.07678     402.299E-03    -2.49639E-03     210.730E-03    -105.042E-03    -105.626E-03    -104.573E-03     210.261E-03    -105.626E-03     24.2702E-03     59.3255E+06     7.87563E+06    -40.3866E+06    -40.3170E+06     7.80605E+06     59.3255E+06     327.278E+03         38.8332
            1392     12.6038E-03     82.7329E-03     396.296E-03     298.579E-03        -1.04618     297.777E-03        -1.04538     396.296E-03     3.12474E-03     210.478E-03    -104.891E-03    -105.531E-03    -104.300E-03     209.888E-03    -105.531E-03     27.2191E-03     93.3593E+06     66.5704E+06    -31.0522E+06    -30.9889E+06     83.7823E+06     76.0842E+06     972.464E+03         40.6565
            1393     13.5049E-03     82.7671E-03     389.674E-03     282.156E-03        -1.02405     281.449E-03        -1.02334     389.674E-03     16.0055E-03     210.408E-03    -104.858E-03    -105.548E-03    -104.184E-03     209.734E-03    -105.548E-03     29.1112E-03     128.329E+06     92.6380E+06    -24.2062E+06    -24.0656E+06     128.188E+06     92.6380E+06     3.41881E+06         43.1507
            1394     14.4059E-03     82.8031E-03     383.237E-03     276.804E-03        -1.01330     276.410E-03        -1.01290     383.237E-03    -7.32705E-03     210.555E-03    -105.043E-03    -105.597E-03    -104.130E-03     209.642E-03    -105.597E-03     33.6436E-03     140.224E+06     103.678E+06    -18.5481E+06    -18.3800E+06     140.056E+06     103.678E+06     1.17183E+06         46.0501
            1395     15.3066E-03     82.8486E-03     377.096E-03     265.658E-03    -991.274E-03     265.387E-03    -991.003E-03     377.096E-03    -10.1040E-03     210.217E-03    -104.622E-03    -105.676E-03    -103.802E-03     209.397E-03    -105.676E-03     31.4727E-03     151.453E+06     127.805E+06    -10.3034E+06    -10.2604E+06     151.410E+06     127.805E+06    -859.704E+03         48.7092
            1396     900.190E-06     83.7541E-03         2.12070    -560.042E-03        -1.90110         1.88932        -1.25325    -976.517E-03     785.489E-03     211.345E-03    -105.510E-03    -105.827E-03    -105.782E-03     211.341E-03    -105.551E-03     2.07837E-03    -137.763E+06    -145.406E+06    -328.447E+06    -142.734E+06    -328.424E+06    -140.458E+06     293.965E+03         36.4046
            1397     1.79972E-03     83.7575E-03     550.541E-03     458.283E-03        -1.35155     466.218E-03        -1.26723     458.283E-03    -227.867E-03     211.436E-03    -105.667E-03    -105.739E-03    -105.684E-03     211.427E-03    -105.712E-03     3.32391E-03    -126.803E+06    -138.555E+06    -306.797E+06    -138.594E+06    -306.758E+06    -126.803E+06     2.06909E+06         36.4184
            1398     2.69966E-03     83.7624E-03     494.417E-03     461.809E-03        -1.29664     470.204E-03        -1.27242     461.809E-03     133.035E-03     211.376E-03    -105.521E-03    -105.851E-03    -105.501E-03     211.356E-03    -105.851E-03     4.87680E-03    -105.395E+06    -131.295E+06    -287.078E+06    -131.334E+06    -287.039E+06    -105.395E+06     2.37954E+06         36.4160
            1399     3.59961E-03     83.7696E-03     476.339E-03     461.231E-03        -1.27636     467.300E-03        -1.26988     463.794E-03    -56.4922E-03     211.005E-03    -105.223E-03    -105.861E-03    -105.184E-03     210.966E-03    -105.861E-03     6.95369E-03    -82.6843E+06    -122.401E+06    -251.818E+06    -122.419E+06    -251.800E+06    -82.6843E+06     1.30798E+06         36.4268
            1400     4.49984E-03     83.7779E-03     465.705E-03     440.347E-03        -1.24741     441.884E-03        -1.24558     462.346E-03     52.7222E-03     210.754E-03    -105.187E-03    -105.734E-03    -105.123E-03     210.691E-03    -105.734E-03     8.90713E-03    -60.5747E+06    -113.618E+06    -216.366E+06    -113.659E+06    -216.326E+06    -60.5747E+06     583.150E+03         36.4859
            1401     5.39958E-03     83.7901E-03     457.056E-03     416.291E-03        -1.21594     416.107E-03        -1.21575     457.056E-03    -8.97500E-03     210.974E-03    -105.328E-03    -105.744E-03    -105.234E-03     210.881E-03    -105.744E-03     10.8068E-03    -40.3324E+06    -104.539E+06    -199.519E+06    -104.588E+06    -199.471E+06    -40.3324E+06     422.870E+03         36.5477
            1402     6.30019E-03     83.8040E-03     450.510E-03     404.488E-03        -1.19814     404.000E-03        -1.19766     450.510E-03    -20.6048E-03     211.043E-03    -105.193E-03    -105.712E-03    -105.063E-03     210.914E-03    -105.712E-03     12.7225E-03    -22.4574E+06    -94.0205E+06    -177.044E+06    -94.0407E+06    -177.024E+06    -22.4574E+06     712.001E+03         36.6144
            1403     7.20094E-03     83.8189E-03     444.160E-03     392.578E-03        -1.18008     392.075E-03        -1.17958     444.160E-03    -46.0568E-03     210.742E-03    -104.966E-03    -105.725E-03    -104.796E-03     210.572E-03    -105.725E-03     14.6013E-03    -4.31194E+06    -83.7945E+06    -144.158E+06    -83.8438E+06    -144.109E+06    -4.31194E+06     1.39440E+06         36.7105
            1404     8.10106E-03     83.8375E-03     438.561E-03     391.642E-03        -1.17101     391.332E-03        -1.17070     438.561E-03    -6.19051E-03     210.633E-03    -105.019E-03    -105.775E-03    -104.808E-03     210.422E-03    -105.775E-03     16.2967E-03     12.4983E+06    -74.5675E+06    -111.609E+06    -74.6623E+06    -111.514E+06     12.4983E+06     1.64721E+06         36.8012
            1405     9.00132E-03     83.8587E-03     434.218E-03     393.515E-03        -1.16778     393.138E-03        -1.16740     434.218E-03     26.1355E-03     210.923E-03    -105.221E-03    -105.758E-03    -104.961E-03     210.663E-03    -105.758E-03     18.0935E-03     26.1383E+06    -65.7683E+06    -88.5110E+06    -65.8543E+06    -88.4250E+06     26.1383E+06     1.33154E+06         36.9393
            1406     9.90173E-03     83.8820E-03     430.313E-03     381.846E-03        -1.15380     381.597E-03        -1.15355     430.313E-03     885.271E-06     211.004E-03    -105.217E-03    -105.730E-03    -104.895E-03     210.682E-03    -105.730E-03     20.1483E-03     39.9596E+06    -46.2041E+06    -66.1209E+06    -56.5201E+06    -55.8049E+06     39.9596E+06     767.311E+03         37.1946
            1407     10.8022E-03     83.9076E-03     425.565E-03     356.592E-03        -1.12554     356.352E-03        -1.12530     425.565E-03    -247.736E-06     210.925E-03    -105.163E-03    -105.713E-03    -104.776E-03     210.537E-03    -105.713E-03     22.1066E-03     50.9534E+06    -30.0838E+06    -47.3766E+06    -47.1029E+06    -30.3575E+06     50.9534E+06     1.23947E+06         37.7243
            1408     11.7026E-03     83.9359E-03     419.432E-03     327.381E-03        -1.09076     326.519E-03        -1.08990     419.432E-03    -27.9309E-03     210.798E-03    -105.097E-03    -105.652E-03    -104.626E-03     210.327E-03    -105.652E-03     24.3368E-03     59.6203E+06     9.34132E+06    -40.7245E+06    -40.4712E+06     9.08803E+06     59.6203E+06     780.729E+03         38.8355
            1409     12.6035E-03     83.9666E-03     412.239E-03     302.752E-03        -1.06104     301.936E-03        -1.06023     412.239E-03    -30.9898E-03     210.432E-03    -104.869E-03    -105.551E-03    -104.272E-03     209.836E-03    -105.551E-03     27.3452E-03     89.5501E+06     63.9873E+06    -35.0535E+06    -35.0036E+06     80.9679E+06     72.5196E+06     967.281E+03         40.6585
            1410     13.5045E-03     84.0017E-03     404.781E-03     289.490E-03        -1.04298     289.000E-03        -1.04249     404.781E-03    -18.5131E-03     210.279E-03    -104.753E-03    -105.555E-03    -104.068E-03     209.594E-03    -105.555E-03     29.3564E-03     125.332E+06     88.8460E+06    -26.7389E+06    -26.5913E+06     125.184E+06     88.8460E+06     3.11886E+06         43.1526
            1411     14.4056E-03     84.0372E-03     397.544E-03     277.757E-03        -1.02617     277.274E-03        -1.02569     397.544E-03    -27.6989E-03     210.512E-03    -104.960E-03    -105.608E-03    -104.037E-03     209.588E-03    -105.608E-03     33.8312E-03     142.615E+06     107.027E+06    -16.7436E+06    -16.5729E+06     142.445E+06     107.027E+06     1.26785E+06         46.0527
            1412     15.3074E-03     84.0828E-03     390.342E-03     260.617E-03    -999.668E-03     260.431E-03    -999.482E-03     390.342E-03     388.701E-06     210.234E-03    -104.584E-03    -105.703E-03    -103.757E-03     209.407E-03    -105.703E-03     31.6023E-03     154.058E+06     132.426E+06    -8.02737E+06    -7.97811E+06     154.009E+06     132.426E+06    -1.18655E+06         48.7137
            1413     899.498E-06     84.9876E-03         2.04487    -636.658E-03        -1.75114         1.80039        -1.36213    -781.190E-03     860.086E-03     211.494E-03    -105.665E-03    -105.821E-03    -105.661E-03     211.489E-03    -105.821E-03     2.15125E-03    -140.387E+06    -147.662E+06    -329.705E+06    -146.219E+06    -329.690E+06    -141.845E+06     764.569E+03         36.4043
            1414     1.79964E-03     84.9919E-03     543.388E-03     491.946E-03        -1.37309     456.483E-03        -1.29337     499.132E-03    -228.906E-03     211.337E-03    -105.543E-03    -105.739E-03    -105.532E-03     211.327E-03    -105.739E-03     3.62336E-03    -128.995E+06    -140.030E+06    -309.101E+06    -140.048E+06    -309.083E+06    -128.995E+06     672.976E+03         36.4136
            1415     2.69926E-03     84.9965E-03     496.092E-03     471.366E-03        -1.30315     458.051E-03        -1.27794     484.192E-03     98.2098E-03     211.178E-03    -105.381E-03    -105.784E-03    -105.359E-03     211.156E-03    -105.784E-03     5.09912E-03    -109.480E+06    -131.524E+06    -286.788E+06    -131.559E+06    -286.753E+06    -109.480E+06     1.11773E+06         36.4108
            1416     3.60005E-03     85.0025E-03     480.970E-03     463.148E-03        -1.27988     458.955E-03        -1.27227     477.546E-03    -109.097E-03     210.959E-03    -105.250E-03    -105.793E-03    -105.211E-03     210.920E-03    -105.793E-03     6.96485E-03    -85.7703E+06    -121.989E+06    -252.033E+06    -122.027E+06    -251.995E+06    -85.7703E+06     1.17944E+06         36.4255
            1417     4.50013E-03     85.0128E-03     477.329E-03     451.598E-03        -1.26502     454.788E-03        -1.26426     473.381E-03     23.6690E-03     210.795E-03    -105.234E-03    -105.706E-03    -105.171E-03     210.732E-03    -105.706E-03     8.83319E-03    -61.5700E+06    -112.854E+06    -219.081E+06    -113.017E+06    -218.917E+06    -61.5700E+06     3.47161E+06         36.4848
            1418     5.40026E-03     85.0239E-03     473.839E-03     445.790E-03        -1.25621     449.584E-03        -1.25605     469.890E-03    -22.8317E-03     210.861E-03    -105.180E-03    -105.720E-03    -105.085E-03     210.767E-03    -105.720E-03     10.8759E-03    -39.0884E+06    -104.742E+06    -197.428E+06    -104.932E+06    -197.238E+06    -39.0884E+06     3.15041E+06         36.5463
            1419     6.30066E-03     85.0376E-03     465.923E-03     432.264E-03        -1.23599     432.219E-03        -1.23594     465.923E-03    -4.23497E-03     211.013E-03    -105.151E-03    -105.695E-03    -105.026E-03     210.888E-03    -105.695E-03     12.5574E-03    -21.4334E+06    -96.3452E+06    -176.666E+06    -96.3965E+06    -176.615E+06    -21.4334E+06     653.574E+03         36.6181
            1420     7.20053E-03     85.0534E-03     461.004E-03     418.531E-03        -1.21722     417.775E-03        -1.21647     461.004E-03    -42.6840E-03     210.997E-03    -105.245E-03    -105.725E-03    -105.083E-03     210.834E-03    -105.725E-03     14.2925E-03    -4.69000E+06    -85.3393E+06    -145.318E+06    -85.3827E+06    -145.274E+06    -4.69000E+06     712.126E+03         36.7181
            1421     8.10081E-03     85.0720E-03     456.472E-03     420.069E-03        -1.21433     419.164E-03        -1.21342     456.472E-03    -24.3808E-03     210.888E-03    -105.265E-03    -105.791E-03    -105.051E-03     210.674E-03    -105.791E-03     16.4064E-03     12.5648E+06    -74.1400E+06    -112.151E+06    -74.2335E+06    -112.057E+06     12.5648E+06     1.59820E+06         36.8086
            1422     9.00129E-03     85.0932E-03     452.298E-03     405.038E-03        -1.19477     404.727E-03        -1.19446     452.298E-03     28.3676E-03     210.944E-03    -105.198E-03    -105.782E-03    -104.932E-03     210.679E-03    -105.782E-03     18.3028E-03     27.3936E+06    -64.0481E+06    -87.4340E+06    -64.1392E+06    -87.3428E+06     27.3936E+06     1.06371E+06         36.9445
            1423     9.90145E-03     85.1161E-03     446.580E-03     367.193E-03        -1.15132     367.048E-03        -1.15117     446.580E-03     7.60052E-03     210.968E-03    -105.166E-03    -105.743E-03    -104.840E-03     210.642E-03    -105.743E-03     20.2592E-03     40.6932E+06    -45.7495E+06    -64.1975E+06    -54.8801E+06    -55.0669E+06     40.6932E+06     397.544E+03         37.1975
            1424     10.8022E-03     85.1418E-03     439.086E-03     339.887E-03        -1.11708     339.837E-03        -1.11703     439.086E-03     3.30045E-03     210.888E-03    -105.121E-03    -105.714E-03    -104.725E-03     210.493E-03    -105.714E-03     22.3226E-03     49.8677E+06    -32.2975E+06    -47.0539E+06    -46.7964E+06    -32.5551E+06     49.8677E+06     962.636E+03         37.7261
            1425     11.7028E-03     85.1700E-03     431.347E-03     331.747E-03        -1.10232     331.259E-03        -1.10184     431.347E-03    -22.4479E-03     210.754E-03    -105.019E-03    -105.647E-03    -104.538E-03     210.273E-03    -105.647E-03     24.6054E-03     60.0964E+06     9.62999E+06    -39.2003E+06    -38.9130E+06     9.34260E+06     60.0964E+06     2.42584E+06         38.8373
            1426     12.6033E-03     85.2005E-03     424.153E-03     323.397E-03        -1.09049     322.798E-03        -1.08989     424.153E-03    -13.5296E-03     210.479E-03    -104.895E-03    -105.549E-03    -104.286E-03     209.869E-03    -105.549E-03     27.6403E-03     88.7426E+06     66.1297E+06    -31.5423E+06    -31.4487E+06     80.4690E+06     74.3097E+06     2.62836E+06         40.6607
            1427     13.5045E-03     85.2359E-03     417.204E-03     307.958E-03        -1.06732     307.660E-03        -1.06702     417.204E-03     6.71965E-03     210.307E-03    -104.753E-03    -105.562E-03    -104.050E-03     209.604E-03    -105.562E-03     29.7283E-03     125.260E+06     91.0778E+06    -23.7072E+06    -23.6912E+06     125.243E+06     91.0778E+06     745.741E+03         43.1551
            1428     14.4062E-03     85.2714E-03     409.689E-03     274.848E-03        -1.03037     274.562E-03        -1.03009     409.689E-03     6.53989E-03     210.464E-03    -104.853E-03    -105.625E-03    -103.926E-03     209.537E-03    -105.625E-03     33.9245E-03     145.059E+06     108.992E+06    -15.6038E+06    -15.5948E+06     145.050E+06     108.992E+06     29.6694E+03         46.0562
            1429     15.3068E-03     85.3167E-03     401.457E-03     253.815E-03        -1.00394     253.547E-03        -1.00367     401.457E-03     11.6924E-03     210.299E-03    -104.578E-03    -105.722E-03    -103.756E-03     209.477E-03    -105.722E-03     31.5236E-03     154.306E+06     133.620E+06    -7.49597E+06    -7.48040E+06     154.291E+06     133.620E+06    -176.614E+03         48.7189
            1430     899.902E-06     86.2228E-03         1.95803    -635.391E-03        -1.65315         1.69921        -1.35995    -669.773E-03     894.201E-03     211.413E-03    -105.524E-03    -105.887E-03    -105.707E-03     211.408E-03    -105.699E-03     2.36700E-03    -142.140E+06    -146.918E+06    -329.467E+06    -145.480E+06    -329.448E+06    -143.598E+06    -65.0931E+03         36.4026
            1431     1.79968E-03     86.2253E-03     555.314E-03     499.086E-03        -1.38299     473.665E-03        -1.30853     506.272E-03    -236.886E-03     211.155E-03    -105.409E-03    -105.694E-03    -105.399E-03     211.146E-03    -105.694E-03     3.41085E-03    -131.562E+06    -141.245E+06    -309.131E+06    -141.269E+06    -309.107E+06    -131.562E+06    -1.26231E+06         36.4114
            1432     2.70068E-03     86.2301E-03     492.699E-03     478.933E-03        -1.30158     456.113E-03        -1.27817     492.109E-03     81.0287E-03     211.160E-03    -105.432E-03    -105.706E-03    -105.411E-03     211.139E-03    -105.706E-03     5.05030E-03    -114.884E+06    -134.637E+06    -286.150E+06    -134.665E+06    -286.122E+06    -114.884E+06    -1.33319E+06         36.4080
            1433     3.59970E-03     86.2372E-03     483.015E-03     467.105E-03        -1.28114     457.976E-03        -1.27201     483.015E-03    -83.7524E-03     211.049E-03    -105.383E-03    -105.745E-03    -105.345E-03     211.011E-03    -105.745E-03     6.88334E-03    -91.3023E+06    -126.278E+06    -253.769E+06    -126.305E+06    -253.742E+06    -91.3023E+06    -52.2589E+03         36.4235
            1434     4.49970E-03     86.2462E-03     482.705E-03     465.112E-03        -1.27902     466.859E-03        -1.27682     478.756E-03     41.3963E-03     210.834E-03    -105.222E-03    -105.711E-03    -105.162E-03     210.774E-03    -105.711E-03     8.67257E-03    -63.5969E+06    -114.580E+06    -224.613E+06    -114.724E+06    -224.469E+06    -63.5969E+06     2.54838E+06         36.4847
            1435     5.40037E-03     86.2576E-03     486.530E-03     472.149E-03        -1.28715     480.481E-03        -1.28681     477.858E-03    -29.4475E-03     210.978E-03    -105.229E-03    -105.725E-03    -105.142E-03     210.891E-03    -105.725E-03     10.4577E-03    -36.2274E+06    -101.219E+06    -196.107E+06    -101.458E+06    -195.868E+06    -36.2274E+06     4.33193E+06         36.5482
            1436     6.30032E-03     86.2720E-03     482.516E-03     464.363E-03        -1.27750     469.238E-03        -1.27744     477.580E-03     13.8014E-03     211.150E-03    -105.243E-03    -105.728E-03    -105.122E-03     211.028E-03    -105.728E-03     12.3375E-03    -14.9534E+06    -90.4234E+06    -173.595E+06    -90.5609E+06    -173.458E+06    -14.9534E+06     2.61976E+06         36.6231
            1437     7.20068E-03     86.2878E-03     475.247E-03     442.021E-03        -1.25121     441.448E-03        -1.25043     475.035E-03    -32.4443E-03     211.026E-03    -105.281E-03    -105.763E-03    -105.116E-03     210.861E-03    -105.763E-03     14.4084E-03    -1.53876E+06    -82.0495E+06    -145.902E+06    -82.0730E+06    -145.878E+06    -1.53876E+06     583.535E+03         36.7233
            1438     8.10081E-03     86.3065E-03     470.157E-03     417.789E-03        -1.22195     417.036E-03        -1.22120     470.157E-03    -45.7718E-03     210.877E-03    -105.267E-03    -105.804E-03    -105.049E-03     210.659E-03    -105.804E-03     16.5551E-03     12.0930E+06    -72.7080E+06    -112.187E+06    -72.7480E+06    -112.147E+06     12.0930E+06     456.412E+03         36.8105
            1439     9.00082E-03     86.3276E-03     463.918E-03     395.334E-03        -1.19403     395.245E-03        -1.19394     463.918E-03     8.31084E-03     210.925E-03    -105.175E-03    -105.790E-03    -104.904E-03     210.654E-03    -105.790E-03     18.4907E-03     27.1941E+06    -62.5764E+06    -87.3517E+06    -62.7459E+06    -87.1822E+06     27.1941E+06     868.272E+03         36.9440
            1440     9.90173E-03     86.3502E-03     456.724E-03     371.357E-03        -1.16349     371.261E-03        -1.16340     456.724E-03     6.57430E-03     210.905E-03    -105.137E-03    -105.749E-03    -104.803E-03     210.572E-03    -105.749E-03     20.4777E-03     40.9453E+06    -45.8340E+06    -64.2531E+06    -54.8426E+06    -55.2445E+06     40.9453E+06     1.27053E+06         37.1964
            1441     10.8020E-03     86.3761E-03     448.973E-03     352.539E-03        -1.13733     352.503E-03        -1.13729     448.973E-03     3.88835E-03     210.808E-03    -105.056E-03    -105.713E-03    -104.659E-03     210.411E-03    -105.713E-03     22.3689E-03     50.4046E+06    -32.7507E+06    -47.5239E+06    -47.3777E+06    -32.8968E+06     50.4046E+06     1.21209E+06         37.7260
            1442     11.7029E-03     86.4036E-03     441.528E-03     347.461E-03        -1.12542     347.159E-03        -1.12512     441.528E-03    -17.9168E-03     210.668E-03    -104.914E-03    -105.646E-03    -104.429E-03     210.183E-03    -105.646E-03     24.6702E-03     60.5806E+06     8.00466E+06    -38.7570E+06    -38.5857E+06     7.83341E+06     60.5806E+06     1.26630E+06         38.8385
            1443     12.6041E-03     86.4351E-03     434.652E-03     337.473E-03        -1.10894     337.008E-03        -1.10847     434.652E-03    -3.43475E-03     210.491E-03    -104.877E-03    -105.550E-03    -104.266E-03     209.879E-03    -105.550E-03     27.7098E-03     91.6183E+06     67.2009E+06    -29.0924E+06    -29.0060E+06     81.5548E+06     77.1779E+06     1.41708E+06         40.6631
            1444     13.5049E-03     86.4694E-03     427.426E-03     308.346E-03        -1.07243     308.073E-03        -1.07216     427.426E-03     15.4779E-03     210.356E-03    -104.789E-03    -105.562E-03    -104.093E-03     209.661E-03    -105.562E-03     29.5777E-03     127.983E+06     94.9429E+06    -21.2675E+06    -21.2150E+06     127.931E+06     94.9429E+06     2.08347E+06         43.1584
            1445     14.4057E-03     86.5062E-03     419.081E-03     272.350E-03        -1.03150     272.181E-03        -1.03133     419.081E-03     6.65515E-03     210.417E-03    -104.821E-03    -105.613E-03    -103.896E-03     209.492E-03    -105.613E-03     33.8717E-03     144.500E+06     108.523E+06    -15.5086E+06    -15.4608E+06     144.452E+06     108.523E+06     995.834E+03         46.0605
            1446     15.3078E-03     86.5501E-03     409.949E-03     248.840E-03    -997.275E-03     248.565E-03    -997.001E-03     409.949E-03    -7.39252E-03     210.343E-03    -104.664E-03    -105.702E-03    -103.838E-03     209.517E-03    -105.702E-03     31.6215E-03     154.100E+06     131.340E+06    -8.70910E+06    -8.70646E+06     154.097E+06     131.340E+06    -270.640E+03         48.7244
            1447     899.724E-06     87.4568E-03         1.81064    -576.273E-03        -1.55455         1.54835        -1.26069    -607.853E-03     843.692E-03     211.235E-03    -105.442E-03    -105.787E-03    -105.723E-03     211.232E-03    -105.502E-03     2.13228E-03    -141.499E+06    -145.284E+06    -327.739E+06    -144.841E+06    -327.731E+06    -141.950E+06    -841.377E+03         36.4057
            1448     1.79999E-03     87.4590E-03     588.872E-03     479.173E-03        -1.38867     516.065E-03        -1.31587     479.173E-03    -225.619E-03     211.381E-03    -105.567E-03    -105.786E-03    -105.668E-03     211.373E-03    -105.677E-03     3.05493E-03    -130.441E+06    -141.290E+06    -306.991E+06    -141.318E+06    -306.962E+06    -130.441E+06    -1.86780E+06         36.4167
            1449     2.69921E-03     87.4638E-03     526.304E-03     490.091E-03        -1.34028     502.951E-03        -1.31728     490.441E-03     85.0462E-03     211.322E-03    -105.453E-03    -105.880E-03    -105.514E-03     211.304E-03    -105.799E-03     4.75568E-03    -111.360E+06    -134.991E+06    -286.975E+06    -135.016E+06    -286.949E+06    -111.360E+06    -1.27466E+06         36.4139
            1450     3.59993E-03     87.4717E-03     501.685E-03     487.990E-03        -1.31669     488.067E-03        -1.30715     492.064E-03    -64.4402E-03     211.002E-03    -105.267E-03    -105.817E-03    -105.232E-03     210.966E-03    -105.817E-03     6.64200E-03    -88.3781E+06    -126.957E+06    -255.200E+06    -126.963E+06    -255.194E+06    -88.3781E+06     53.5871E+03         36.4267
            1451     4.50022E-03     87.4796E-03     491.690E-03     480.288E-03        -1.30088     478.622E-03        -1.29800     490.479E-03     61.0295E-03     210.941E-03    -105.326E-03    -105.737E-03    -105.267E-03     210.882E-03    -105.737E-03     8.55889E-03    -65.0072E+06    -117.194E+06    -226.301E+06    -117.232E+06    -226.263E+06    -65.0072E+06    -358.126E+03         36.4868
            1452     5.39964E-03     87.4924E-03     493.109E-03     471.887E-03        -1.29234     475.880E-03        -1.29160     488.385E-03    -1.36752E-03     210.944E-03    -105.244E-03    -105.730E-03    -105.155E-03     210.855E-03    -105.730E-03     10.5735E-03    -42.1466E+06    -104.461E+06    -198.713E+06    -104.570E+06    -198.603E+06    -42.1466E+06     619.902E+03         36.5464
            1453     6.30017E-03     87.5058E-03     491.548E-03     470.371E-03        -1.28905     474.711E-03        -1.28846     486.611E-03     22.3231E-03     211.012E-03    -105.140E-03    -105.710E-03    -105.013E-03     210.885E-03    -105.710E-03     12.6178E-03    -19.6161E+06    -91.4129E+06    -172.733E+06    -91.5756E+06    -172.570E+06    -19.6161E+06     2.73491E+06         36.6165
            1454     7.20048E-03     87.5223E-03     484.217E-03     454.628E-03        -1.26974     454.539E-03        -1.26944     484.005E-03    -28.9841E-03     210.983E-03    -105.244E-03    -105.757E-03    -105.076E-03     210.815E-03    -105.757E-03     14.5344E-03    -806.090E+03    -81.1474E+06    -144.726E+06    -81.2524E+06    -144.621E+06    -806.090E+03     2.35863E+06         36.7176
            1455     8.10067E-03     87.5405E-03     478.611E-03     413.227E-03        -1.22328     413.111E-03        -1.22316     478.611E-03    -17.1103E-03     210.746E-03    -105.180E-03    -105.804E-03    -104.965E-03     210.530E-03    -105.804E-03     16.4607E-03     13.4278E+06    -72.5072E+06    -111.125E+06    -72.5642E+06    -111.068E+06     13.4278E+06     837.495E+03         36.8081
            1456     9.00154E-03     87.5618E-03     470.766E-03     384.924E-03        -1.18610     384.529E-03        -1.18570     470.766E-03     35.4615E-03     210.825E-03    -105.114E-03    -105.779E-03    -104.842E-03     210.553E-03    -105.779E-03     18.5102E-03     26.7383E+06    -64.0607E+06    -88.8149E+06    -64.2257E+06    -88.6500E+06     26.7383E+06     1.17590E+06         36.9417
            1457     9.90155E-03     87.5847E-03     462.816E-03     380.737E-03        -1.17425     380.330E-03        -1.17384     462.816E-03     26.2677E-03     210.906E-03    -105.116E-03    -105.741E-03    -104.780E-03     210.570E-03    -105.741E-03     20.5632E-03     41.6580E+06    -45.1322E+06    -65.5747E+06    -55.4811E+06    -55.2259E+06     41.6580E+06     1.87166E+06         37.1934
            1458     10.8024E-03     87.6103E-03     455.917E-03     377.692E-03        -1.16290     377.618E-03        -1.16282     455.917E-03     5.10590E-03     210.823E-03    -105.065E-03    -105.703E-03    -104.667E-03     210.425E-03    -105.703E-03     22.3954E-03     51.9177E+06    -31.9000E+06    -46.7747E+06    -46.5846E+06    -32.0902E+06     51.9177E+06     1.35290E+06         37.7245
            1459     11.7029E-03     87.6377E-03     449.214E-03     357.153E-03        -1.13516     356.561E-03        -1.13457     449.214E-03    -27.2447E-03     210.709E-03    -104.985E-03    -105.633E-03    -104.502E-03     210.225E-03    -105.633E-03     24.6385E-03     60.5370E+06     7.80565E+06    -39.1543E+06    -38.9989E+06     7.65024E+06     60.5370E+06     1.00356E+06         38.8393
            1460     12.6038E-03     87.6686E-03     441.534E-03     323.839E-03        -1.09606     323.065E-03        -1.09529     441.534E-03    -14.3979E-03     210.488E-03    -104.886E-03    -105.541E-03    -104.274E-03     209.876E-03    -105.541E-03     27.7027E-03     90.7758E+06     65.8873E+06    -33.2674E+06    -33.2022E+06     81.6247E+06     74.9732E+06     1.14791E+06         40.6651
            1461     13.5046E-03     87.7047E-03     432.788E-03     295.235E-03        -1.05969     294.856E-03        -1.05931     432.788E-03     5.73784E-03     210.301E-03    -104.745E-03    -105.547E-03    -104.062E-03     209.618E-03    -105.547E-03     29.3038E-03     127.135E+06     91.5479E+06    -25.0986E+06    -25.0234E+06     127.060E+06     91.5479E+06     902.213E+03         43.1615
            1462     14.4064E-03     87.7388E-03     423.657E-03     276.780E-03        -1.03333     276.620E-03        -1.03317     423.657E-03    -13.0242E-03     210.474E-03    -104.882E-03    -105.612E-03    -103.974E-03     209.567E-03    -105.612E-03     33.5295E-03     145.204E+06     109.235E+06    -15.1101E+06    -14.9877E+06     145.082E+06     109.235E+06     1.62293E+06         46.0646
            1463     15.3072E-03     87.7848E-03     414.518E-03     257.946E-03        -1.00298     257.846E-03        -1.00288     414.518E-03    -5.70969E-03     210.397E-03    -104.749E-03    -105.709E-03    -103.928E-03     209.576E-03    -105.709E-03     31.5437E-03     155.520E+06     133.486E+06    -7.46444E+06    -7.41220E+06     155.468E+06     133.486E+06     1.31788E+06         48.7298
            1464     900.300E-06     88.6896E-03         1.65661    -475.223E-03        -1.49600         1.39424        -1.23077    -478.084E-03     755.678E-03     211.448E-03    -105.565E-03    -105.882E-03    -105.801E-03     211.445E-03    -105.643E-03     1.66532E-03    -140.727E+06    -146.349E+06    -327.834E+06    -145.904E+06    -327.828E+06    -141.178E+06     360.377E+03         36.4205
            1465     1.79956E-03     88.6938E-03     604.428E-03     471.207E-03        -1.39220     524.103E-03        -1.31188     471.207E-03    -227.886E-03     211.535E-03    -105.612E-03    -105.872E-03    -105.713E-03     211.527E-03    -105.763E-03     3.21091E-03    -125.658E+06    -140.957E+06    -303.894E+06    -140.967E+06    -303.884E+06    -125.658E+06    -513.069E+03         36.4280
            1466     2.69947E-03     88.6984E-03     557.241E-03     491.460E-03        -1.36915     533.425E-03        -1.34534     491.460E-03     111.560E-03     211.547E-03    -105.558E-03    -105.977E-03    -105.618E-03     211.528E-03    -105.897E-03     4.91449E-03    -106.011E+06    -133.262E+06    -288.064E+06    -133.267E+06    -288.059E+06    -106.011E+06    -486.064E+03         36.4229
            1467     3.59947E-03     88.7047E-03     517.699E-03     499.722E-03        -1.34407     509.620E-03        -1.33599     499.722E-03    -64.2310E-03     211.190E-03    -105.338E-03    -105.914E-03    -105.301E-03     211.154E-03    -105.914E-03     6.68926E-03    -85.6743E+06    -124.219E+06    -257.568E+06    -124.240E+06    -257.547E+06    -85.6743E+06     1.10785E+06         36.4323
            1468     4.49920E-03     88.7152E-03     501.337E-03     492.351E-03        -1.32092     491.077E-03        -1.31840     500.093E-03     41.6370E-03     210.856E-03    -105.222E-03    -105.785E-03    -105.164E-03     210.798E-03    -105.785E-03     8.51662E-03    -64.6427E+06    -115.406E+06    -223.185E+06    -115.451E+06    -223.139E+06    -64.6427E+06     289.464E+03         36.4880
            1469     5.39999E-03     88.7254E-03     496.676E-03     467.067E-03        -1.28778     466.109E-03        -1.28682     496.676E-03    -17.4675E-03     210.824E-03    -105.160E-03    -105.756E-03    -105.073E-03     210.737E-03    -105.756E-03     10.4391E-03    -44.7297E+06    -106.705E+06    -200.455E+06    -106.737E+06    -200.424E+06    -44.7297E+06    -1.22765E+06         36.5436
            1470     6.30042E-03     88.7398E-03     491.023E-03     448.155E-03        -1.26201     447.379E-03        -1.26123     491.023E-03    -10.9536E-03     210.879E-03    -105.012E-03    -105.701E-03    -104.884E-03     210.750E-03    -105.701E-03     12.6845E-03    -25.7331E+06    -96.3660E+06    -175.760E+06    -96.4405E+06    -175.686E+06    -25.7331E+06     417.604E+03         36.6089
            1471     7.20043E-03     88.7567E-03     485.409E-03     446.272E-03        -1.25673     445.806E-03        -1.25626     485.409E-03    -50.9933E-03     210.822E-03    -105.094E-03    -105.742E-03    -104.918E-03     210.646E-03    -105.742E-03     14.8906E-03    -3.86841E+06    -84.4133E+06    -143.612E+06    -84.5256E+06    -143.500E+06    -3.86841E+06     1.92828E+06         36.7097
            1472     8.10088E-03     88.7747E-03     480.008E-03     428.262E-03        -1.23482     428.182E-03        -1.23474     480.008E-03    -11.9974E-03     210.826E-03    -105.212E-03    -105.808E-03    -104.995E-03     210.608E-03    -105.808E-03     16.5525E-03     14.9255E+06    -73.7473E+06    -110.874E+06    -73.8693E+06    -110.752E+06     14.9255E+06     2.04092E+06         36.8048
            1473     9.00117E-03     88.7956E-03     473.530E-03     402.605E-03        -1.20099     402.223E-03        -1.20060     473.530E-03     13.6655E-03     210.892E-03    -105.105E-03    -105.780E-03    -104.841E-03     210.627E-03    -105.780E-03     18.2586E-03     28.3465E+06    -64.1957E+06    -88.5166E+06    -64.2790E+06    -88.4332E+06     28.3465E+06     1.25168E+06         36.9410
            1474     9.90206E-03     88.8193E-03     466.652E-03     393.915E-03        -1.18377     393.530E-03        -1.18339     466.652E-03     6.40644E-03     210.794E-03    -104.991E-03    -105.734E-03    -104.662E-03     210.464E-03    -105.734E-03     20.3485E-03     41.5821E+06      -45.71E+06    -65.0261E+06    -54.6100E+06    -56.1260E+06     41.5821E+06     997.812E+03         37.1925
            1475     10.8023E-03     88.8445E-03     460.048E-03     380.340E-03        -1.16240     380.220E-03        -1.16228     460.048E-03     13.9422E-03     210.794E-03    -105.073E-03    -105.692E-03    -104.677E-03     210.398E-03    -105.692E-03     22.3400E-03     51.6485E+06    -31.8929E+06    -46.1293E+06    -45.9113E+06    -32.1109E+06     51.6485E+06     1.37033E+06         37.7242
            1476     11.7032E-03     88.8717E-03     452.723E-03     348.109E-03        -1.12136     347.684E-03        -1.12094     452.723E-03    -6.89914E-03     210.831E-03    -105.153E-03    -105.625E-03    -104.671E-03     210.350E-03    -105.625E-03     24.6073E-03     60.5406E+06     8.28438E+06    -38.6692E+06    -38.4833E+06     8.09845E+06     60.5406E+06     1.87512E+06         38.8402
            1477     12.6037E-03     88.9035E-03     443.979E-03     312.270E-03        -1.07974     311.683E-03        -1.07916     443.979E-03     1.71342E-03     210.494E-03    -104.913E-03    -105.535E-03    -104.306E-03     209.887E-03    -105.535E-03     27.5950E-03     91.4296E+06     66.4881E+06    -30.0648E+06    -30.0098E+06     82.2655E+06     75.5972E+06     1.70226E+06         40.6669
            1478     13.5051E-03     88.9383E-03     434.489E-03     291.433E-03        -1.05264     291.074E-03        -1.05228     434.489E-03     23.6191E-03     210.282E-03    -104.727E-03    -105.552E-03    -104.040E-03     209.595E-03    -105.552E-03     29.3849E-03     128.212E+06     93.3023E+06    -23.1131E+06    -23.0687E+06     128.168E+06     93.3023E+06     246.314E+03         43.1642
            1479     14.4055E-03     88.9736E-03     425.159E-03     279.016E-03        -1.03246     278.920E-03        -1.03237     425.159E-03     1.50883E-03     210.622E-03    -105.027E-03    -105.617E-03    -104.107E-03     209.702E-03    -105.617E-03     33.7632E-03     145.395E+06     108.724E+06    -16.9152E+06    -16.8215E+06     145.301E+06     108.724E+06     1.18476E+06         46.0682
            1480     15.3071E-03     89.0191E-03     416.075E-03     262.191E-03        -1.00890     262.070E-03        -1.00878     416.075E-03     13.8887E-03     210.378E-03    -104.726E-03    -105.693E-03    -103.895E-03     209.547E-03    -105.693E-03     31.7380E-03     155.605E+06     132.407E+06    -8.12541E+06    -8.06587E+06     155.546E+06     132.407E+06     1.97171E+06         48.7348
            1481     898.893E-06     89.9251E-03         1.55240    -264.482E-03        -1.59205         1.29980        -1.33944    -264.482E-03     748.785E-03     211.602E-03    -105.462E-03    -106.149E-03    -106.024E-03     211.598E-03    -105.584E-03     2.03311E-03    -139.676E+06    -143.935E+06    -327.818E+06    -142.994E+06    -327.798E+06    -140.638E+06    -253.676E+03         36.4252
            1482     1.79952E-03     89.9272E-03     591.096E-03     503.279E-03        -1.40362     501.883E-03        -1.32544     514.308E-03    -195.508E-03     211.426E-03    -105.594E-03    -105.789E-03    -105.584E-03     211.416E-03    -105.789E-03     3.46668E-03    -126.450E+06    -139.038E+06    -304.725E+06    -139.091E+06    -304.671E+06    -126.450E+06     1.73252E+06         36.4335
            1483     2.69972E-03     89.9325E-03     540.073E-03     493.523E-03        -1.34764     498.789E-03        -1.32240     509.566E-03     149.907E-03     211.662E-03    -105.736E-03    -105.902E-03    -105.716E-03     211.642E-03    -105.902E-03     5.05674E-03    -107.361E+06    -133.790E+06    -288.105E+06    -133.840E+06    -288.054E+06    -107.361E+06     1.35634E+06         36.4280
            1484     3.59898E-03     89.9396E-03     514.316E-03     489.406E-03        -1.32242     490.830E-03        -1.31549     505.959E-03    -33.6711E-03     211.375E-03    -105.498E-03    -105.955E-03    -105.462E-03     211.339E-03    -105.955E-03     6.64522E-03    -87.1316E+06    -124.649E+06    -257.898E+06    -124.707E+06    -257.839E+06    -87.1316E+06    -230.855E+03         36.4364
            1485     4.49970E-03     89.9482E-03     500.617E-03     468.919E-03        -1.29215     465.752E-03        -1.28895     500.584E-03     44.7019E-03     210.758E-03    -105.106E-03    -105.828E-03    -105.046E-03     210.698E-03    -105.828E-03     8.64719E-03    -63.5669E+06    -112.445E+06    -221.756E+06    -112.503E+06    -221.698E+06    -63.5669E+06    -223.532E+03         36.4888
            1486     5.39954E-03     89.9601E-03     494.129E-03     460.139E-03        -1.27244     459.205E-03        -1.27150     494.129E-03    -29.7331E-03     210.879E-03    -105.137E-03    -105.802E-03    -105.047E-03     210.789E-03    -105.802E-03     10.6217E-03    -39.0874E+06    -101.681E+06    -200.943E+06    -101.708E+06    -200.917E+06    -39.0874E+06     705.349E+03         36.5449
            1487     6.29955E-03     89.9732E-03     488.435E-03     451.048E-03        -1.25362     450.503E-03        -1.25308     488.435E-03    -12.5337E-03     211.001E-03    -105.069E-03    -105.748E-03    -104.943E-03     210.874E-03    -105.748E-03     12.5890E-03    -20.6404E+06    -92.9627E+06    -177.066E+06    -92.9989E+06    -177.030E+06    -20.6404E+06     734.779E+03         36.6116
            1488     7.20099E-03     89.9899E-03     482.273E-03     428.392E-03        -1.22741     428.037E-03        -1.22706     482.273E-03    -42.3407E-03     210.689E-03    -104.947E-03    -105.749E-03    -104.777E-03     210.519E-03    -105.749E-03     14.5878E-03    -3.95204E+06    -83.8394E+06    -143.275E+06    -83.8754E+06    -143.239E+06    -3.95204E+06     610.060E+03         36.7083
            1489     8.10115E-03     90.0099E-03     475.741E-03     420.652E-03        -1.21562     420.489E-03        -1.21545     475.741E-03     4.07931E-03     210.700E-03    -105.041E-03    -105.791E-03    -104.824E-03     210.483E-03    -105.791E-03     16.5422E-03     13.8053E+06    -73.0217E+06    -111.288E+06    -73.1153E+06    -111.194E+06     13.8053E+06     629.462E+03         36.7998
            1490     9.00113E-03     90.0295E-03     470.258E-03     424.061E-03        -1.21266     423.860E-03        -1.21246     470.258E-03     1.76372E-03     211.008E-03    -105.177E-03    -105.769E-03    -104.909E-03     210.740E-03    -105.769E-03     18.3956E-03     28.0584E+06    -62.5813E+06    -89.0616E+06    -62.7959E+06    -88.8470E+06     28.0584E+06     1.21626E+06         36.9381
            1491     9.90138E-03     90.0527E-03     465.242E-03     408.133E-03        -1.18894     408.058E-03        -1.18886     465.242E-03    -14.5065E-03     210.856E-03    -105.060E-03    -105.731E-03    -104.736E-03     210.532E-03    -105.731E-03     20.2033E-03     40.9578E+06    -45.0986E+06    -66.3677E+06    -54.6303E+06    -56.8361E+06     40.9578E+06     1.65262E+06         37.1931
            1492     10.8028E-03     90.0781E-03     458.885E-03     371.350E-03        -1.14526     371.252E-03        -1.14516     458.885E-03     817.229E-06     210.730E-03    -105.009E-03    -105.690E-03    -104.613E-03     210.334E-03    -105.690E-03     22.3228E-03     50.9849E+06    -32.1551E+06    -47.5745E+06    -47.2530E+06    -32.4766E+06     50.9849E+06     1.87051E+06         37.7259
            1493     11.7030E-03     90.1064E-03     450.936E-03     342.532E-03        -1.10906     342.289E-03        -1.10881     450.936E-03    -15.9447E-03     210.855E-03    -105.151E-03    -105.627E-03    -104.666E-03     210.370E-03    -105.627E-03     24.7186E-03     60.6535E+06     8.95171E+06    -39.4361E+06    -39.1594E+06     8.67505E+06     60.6535E+06     1.36156E+06         38.8417
            1494     12.6038E-03     90.1372E-03     442.240E-03     319.397E-03        -1.07978     319.142E-03        -1.07953     442.240E-03    -3.34239E-03     210.514E-03    -104.914E-03    -105.539E-03    -104.320E-03     209.920E-03    -105.539E-03     27.3147E-03     92.6478E+06     67.5726E+06    -31.5742E+06    -31.5585E+06     83.9673E+06     76.2375E+06     983.321E+03         40.6686
            1495     13.5048E-03     90.1724E-03     433.131E-03     295.525E-03        -1.05154     295.196E-03        -1.05121     433.131E-03     4.54995E-03     210.211E-03    -104.647E-03    -105.549E-03    -103.957E-03     209.521E-03    -105.549E-03     29.4350E-03     128.900E+06     93.3736E+06    -24.5520E+06    -24.4987E+06     128.847E+06     93.3736E+06     2.67333E+06         43.1665
            1496     14.4064E-03     90.2082E-03     423.668E-03     272.356E-03        -1.02175     272.020E-03        -1.02141     423.668E-03    -18.3214E-03     210.604E-03    -105.015E-03    -105.608E-03    -104.078E-03     209.667E-03    -105.608E-03     34.1212E-03     144.404E+06     107.324E+06    -17.9688E+06    -17.9263E+06     144.362E+06     107.324E+06     1.94246E+06         46.0717
            1497     15.3071E-03     90.2534E-03     413.873E-03     247.462E-03    -988.649E-03     246.980E-03    -988.167E-03     413.873E-03    -13.9611E-03     210.384E-03    -104.717E-03    -105.683E-03    -103.889E-03     209.556E-03    -105.683E-03     31.6279E-03     155.683E+06     130.839E+06    -10.0577E+06    -10.0485E+06     155.674E+06     130.839E+06     619.826E+03         48.7399
            1498     900.561E-06     91.1594E-03         1.43222    -63.5713E-03        -1.67369         1.20651        -1.44797    -63.5713E-03     741.079E-03     211.350E-03    -105.259E-03    -106.101E-03    -105.809E-03     211.347E-03    -105.547E-03     1.95205E-03    -139.903E+06    -144.433E+06    -327.947E+06    -143.488E+06    -327.929E+06    -140.866E+06    -575.928E+03         36.4202
            1499     1.79987E-03     91.1610E-03     569.899E-03     521.827E-03        -1.39574     476.831E-03        -1.33327     552.427E-03    -179.226E-03     211.588E-03    -105.686E-03    -105.880E-03    -105.825E-03     211.577E-03    -105.730E-03     3.44103E-03    -129.402E+06    -139.041E+06    -307.721E+06    -139.092E+06    -307.671E+06    -129.402E+06     1.35952E+06         36.4305
            1500     2.69921E-03     91.1672E-03     520.766E-03     470.877E-03        -1.29707     444.311E-03        -1.27050     520.766E-03     71.5236E-03     211.558E-03    -105.645E-03    -105.921E-03    -105.643E-03     211.535E-03    -105.901E-03     5.26550E-03    -108.104E+06    -131.046E+06    -288.076E+06    -131.118E+06    -288.004E+06    -108.104E+06     2.23288E+06         36.4254
            1501     3.59932E-03     91.1737E-03     502.273E-03     468.530E-03        -1.27871     456.868E-03        -1.26704     502.273E-03    -82.3685E-03     211.278E-03    -105.396E-03    -105.941E-03    -105.359E-03     211.241E-03    -105.941E-03     6.80686E-03    -84.5279E+06    -123.144E+06    -254.369E+06    -123.210E+06    -254.303E+06    -84.5279E+06     257.923E+03         36.4367
            1502     4.49893E-03     91.1820E-03     496.053E-03     463.918E-03        -1.27050     463.382E-03        -1.26741     493.496E-03     43.1429E-03     210.843E-03    -105.170E-03    -105.814E-03    -105.108E-03     210.781E-03    -105.814E-03     8.78080E-03    -63.1134E+06    -115.048E+06    -221.882E+06    -115.108E+06    -221.822E+06    -63.1134E+06    -1.32437E+06         36.4913
            1503     5.39996E-03     91.1939E-03     490.907E-03     462.225E-03        -1.26378     463.438E-03        -1.26244     488.351E-03    -702.530E-06     210.889E-03    -105.131E-03    -105.793E-03    -105.036E-03     210.794E-03    -105.793E-03     10.9267E-03    -40.5303E+06    -104.201E+06    -203.453E+06    -104.243E+06    -203.412E+06    -40.5303E+06     395.901E+03         36.5476
            1504     6.30048E-03     91.2078E-03     483.667E-03     448.568E-03        -1.24053     447.801E-03        -1.23976     483.667E-03     38.1457E-03     211.142E-03    -105.202E-03    -105.765E-03    -105.071E-03     211.011E-03    -105.765E-03     12.8230E-03    -19.4611E+06    -92.5278E+06    -176.258E+06    -92.5630E+06    -176.223E+06    -19.4611E+06     1.51120E+06         36.6140
            1505     7.19937E-03     91.2242E-03     477.676E-03     424.043E-03        -1.20984     423.907E-03        -1.20971     477.676E-03    -20.1420E-03     210.818E-03    -105.048E-03    -105.777E-03    -104.879E-03     210.649E-03    -105.777E-03     14.5899E-03    -3.06041E+06    -81.6449E+06    -142.912E+06    -81.6551E+06    -142.902E+06    -3.06041E+06     526.065E+03         36.7080
            1506     8.10084E-03     91.2426E-03     471.299E-03     418.487E-03        -1.20006     418.268E-03        -1.19984     471.299E-03     12.6460E-03     210.418E-03    -104.828E-03    -105.788E-03    -104.612E-03     210.201E-03    -105.788E-03     16.4831E-03     11.7996E+06    -72.6304E+06    -112.292E+06    -72.8562E+06    -112.066E+06     11.7996E+06     697.683E+03         36.7952
            1507     9.00192E-03     91.2648E-03     465.516E-03     410.470E-03        -1.18698     410.156E-03        -1.18667     465.516E-03     35.6696E-03     210.689E-03    -104.970E-03    -105.754E-03    -104.702E-03     210.420E-03    -105.754E-03     18.3884E-03     25.9487E+06    -65.0129E+06    -91.0080E+06    -65.3864E+06    -90.6345E+06     25.9487E+06     1.81459E+06         36.9347
            1508     9.90184E-03     91.2867E-03     459.203E-03     383.856E-03        -1.15261     383.687E-03        -1.15244     459.203E-03     18.9582E-03     211.015E-03    -105.236E-03    -105.730E-03    -104.917E-03     210.687E-03    -105.720E-03     20.3461E-03     40.3109E+06    -44.9842E+06    -69.4951E+06    -57.0232E+06    -57.4561E+06     40.3109E+06     2.79018E+06         37.1944
            1509     10.8022E-03     91.3119E-03     451.775E-03     360.263E-03        -1.12138     360.110E-03        -1.12123     451.775E-03     10.8964E-03     210.979E-03    -105.215E-03    -105.705E-03    -104.829E-03     210.583E-03    -105.695E-03     22.3474E-03     51.0003E+06    -31.3293E+06    -48.8875E+06    -48.4531E+06    -31.7637E+06     51.0003E+06     2.33900E+06         37.7279
            1510     11.7033E-03     91.3409E-03     443.867E-03     343.498E-03        -1.09826     343.160E-03        -1.09792     443.867E-03    -21.0347E-03     210.691E-03    -104.934E-03    -105.633E-03    -104.456E-03     210.213E-03    -105.633E-03     24.5148E-03     59.9226E+06     8.84868E+06    -41.2163E+06    -41.0133E+06     8.64570E+06     59.9226E+06     1.63011E+06         38.8428
            1511     12.6036E-03     91.3724E-03     435.742E-03     323.521E-03        -1.07299     323.193E-03        -1.07266     435.742E-03    -9.84582E-03     210.349E-03    -104.755E-03    -105.532E-03    -104.159E-03     209.753E-03    -105.532E-03     27.3248E-03     90.1749E+06     67.0633E+06    -35.1095E+06    -35.0128E+06     82.7503E+06     74.3913E+06     2.62436E+06         40.6701
            1512     13.5050E-03     91.4053E-03     427.135E-03     297.114E-03        -1.03910     296.804E-03        -1.03879     427.135E-03    -3.25055E-03     210.330E-03    -104.783E-03    -105.535E-03    -104.089E-03     209.635E-03    -105.535E-03     29.5404E-03     126.375E+06     89.8659E+06    -27.5574E+06    -27.4908E+06     126.309E+06     89.8659E+06     2.18395E+06         43.1684
            1513     14.4059E-03     91.4427E-03     417.638E-03     261.751E-03    -995.107E-03     261.176E-03    -994.532E-03     417.638E-03    -12.0690E-03     210.487E-03    -104.907E-03    -105.597E-03    -103.975E-03     209.555E-03    -105.597E-03     34.0262E-03     145.835E+06     106.285E+06    -17.2090E+06    -17.1795E+06     145.805E+06     106.285E+06     707.485E+03         46.0744
            1514     15.3074E-03     91.4882E-03     407.179E-03     227.735E-03    -951.037E-03     227.098E-03    -950.400E-03     407.179E-03    -10.1847E-03     210.278E-03    -104.612E-03    -105.686E-03    -103.790E-03     209.456E-03    -105.686E-03     31.5070E-03     158.901E+06     133.224E+06    -7.84072E+06    -7.83899E+06     158.899E+06     133.224E+06     194.310E+03         48.7448
            1515     899.823E-06     92.3929E-03         1.23221    -1.86911E-03        -1.53032         1.01689        -1.31500    -1.86911E-03     648.244E-03     211.372E-03    -105.304E-03    -106.072E-03    -105.430E-03     211.368E-03    -105.942E-03     2.06135E-03    -141.860E+06    -147.212E+06    -329.872E+06    -147.240E+06    -329.823E+06    -141.880E+06     2.05862E+06         36.4179
            1516     1.79930E-03     92.3962E-03     558.767E-03     483.656E-03        -1.34524     486.144E-03        -1.29219     503.226E-03    -203.754E-03     211.578E-03    -105.678E-03    -105.886E-03    -105.817E-03     211.568E-03    -105.736E-03     3.47292E-03    -130.484E+06    -142.530E+06    -309.040E+06    -142.541E+06    -309.029E+06    -130.484E+06     688.600E+03         36.4260
            1517     2.69946E-03     92.4004E-03     520.559E-03     460.237E-03        -1.28130     466.244E-03        -1.26083     494.082E-03     20.0101E-03     211.280E-03    -105.428E-03    -105.861E-03    -105.426E-03     211.258E-03    -105.841E-03     5.17265E-03    -112.938E+06    -135.255E+06    -288.051E+06    -135.292E+06    -288.014E+06    -112.938E+06     634.735E+03         36.4178
            1518     3.59986E-03     92.4082E-03     497.802E-03     469.303E-03        -1.26471     468.236E-03        -1.25280     486.965E-03    -83.1188E-03     210.932E-03    -105.135E-03    -105.832E-03    -105.095E-03     210.892E-03    -105.832E-03     7.01800E-03    -87.9597E+06    -125.754E+06    -253.011E+06    -125.799E+06    -252.966E+06    -87.9597E+06     1.23498E+06         36.4316
            1519     4.50013E-03     92.4164E-03     486.134E-03     474.515E-03        -1.25779     473.931E-03        -1.25465     483.577E-03     45.8695E-03     210.928E-03    -105.280E-03    -105.774E-03    -105.246E-03     210.865E-03    -105.744E-03     8.91994E-03    -62.4356E+06    -116.826E+06    -220.989E+06    -116.928E+06    -220.887E+06    -62.4356E+06     1.54381E+06         36.4928
            1520     5.39971E-03     92.4273E-03     483.274E-03     457.792E-03        -1.23810     459.164E-03        -1.23692     480.717E-03    -6.35561E-03     211.108E-03    -105.359E-03    -105.792E-03    -105.292E-03     211.011E-03    -105.762E-03     11.0055E-03    -42.3717E+06    -107.921E+06    -203.610E+06    -108.044E+06    -203.488E+06    -42.3717E+06    -15.3405E+03         36.5505
            1521     6.29962E-03     92.4424E-03     476.045E-03     438.199E-03        -1.21313     437.620E-03        -1.21256     476.045E-03     36.6189E-03     211.012E-03    -105.107E-03    -105.742E-03    -104.974E-03     210.878E-03    -105.742E-03     12.9544E-03    -24.7346E+06    -96.8582E+06    -177.204E+06    -96.8959E+06    -177.166E+06    -24.7346E+06    -646.067E+03         36.6142
            1522     7.20109E-03     92.4585E-03     470.353E-03     425.394E-03        -1.19695     425.328E-03        -1.19689     470.353E-03    -13.5528E-03     210.808E-03    -105.038E-03    -105.765E-03    -104.864E-03     210.635E-03    -105.765E-03     14.7721E-03    -6.66090E+06    -86.4532E+06    -143.898E+06    -86.5587E+06    -143.792E+06    -6.66090E+06     1.16329E+06         36.7077
            1523     8.10043E-03     92.4768E-03     464.276E-03     408.538E-03        -1.17466     408.276E-03        -1.17440     464.276E-03    -17.0394E-03     210.594E-03    -105.029E-03    -105.802E-03    -104.808E-03     210.374E-03    -105.802E-03     16.6565E-03     10.9949E+06    -77.1808E+06    -113.836E+06    -77.5052E+06    -113.511E+06     10.9949E+06     2.57170E+06         36.7951
            1524     9.00100E-03     92.4978E-03     457.335E-03     385.162E-03        -1.14473     384.747E-03        -1.14432     457.335E-03     15.9554E-03     210.547E-03    -104.872E-03    -105.768E-03    -104.602E-03     210.277E-03    -105.768E-03     18.4208E-03     26.1690E+06    -67.1876E+06    -90.6340E+06    -67.4548E+06    -90.3668E+06     26.1690E+06     2.04315E+06         36.9334
            1525     9.90234E-03     92.5213E-03     449.576E-03     364.130E-03        -1.11602     363.887E-03        -1.11578     449.576E-03     24.5057E-03     210.906E-03    -105.120E-03    -105.727E-03    -104.797E-03     210.573E-03    -105.717E-03     20.4721E-03     39.8331E+06    -47.1376E+06    -68.3901E+06    -57.0322E+06    -58.4955E+06     39.8331E+06     1.50849E+06         37.1926
            1526     10.8025E-03     92.5472E-03     441.711E-03     352.366E-03        -1.09780     352.178E-03        -1.09762     441.711E-03     20.7359E-03     211.076E-03    -105.300E-03    -105.697E-03    -104.910E-03     210.675E-03    -105.687E-03     22.4738E-03     50.6676E+06    -30.6002E+06    -48.5199E+06    -47.9110E+06    -31.2091E+06     50.6676E+06     2.22092E+06         37.7267
            1527     11.7020E-03     92.5742E-03     433.948E-03     335.793E-03        -1.07452     335.543E-03        -1.07427     433.948E-03     1.69229E-03     210.662E-03    -104.924E-03    -105.630E-03    -104.442E-03     210.179E-03    -105.630E-03     24.6154E-03     60.2359E+06     8.45837E+06    -40.0158E+06    -39.6112E+06     8.05380E+06     60.2359E+06     2.43962E+06         38.8428
            1528     12.6044E-03     92.6051E-03     425.816E-03     312.276E-03        -1.04377     311.990E-03        -1.04349     425.816E-03     3.40690E-03     210.309E-03    -104.761E-03    -105.528E-03    -104.158E-03     209.705E-03    -105.528E-03     27.5089E-03     89.8373E+06     63.9323E+06    -30.4385E+06    -30.3402E+06     79.6378E+06     74.0335E+06     2.78795E+06         40.6715
            1529     13.5051E-03     92.6410E-03     417.179E-03     289.858E-03        -1.01068     289.672E-03        -1.01049     417.179E-03     14.2430E-03     210.388E-03    -104.870E-03    -105.540E-03    -104.177E-03     209.696E-03    -105.540E-03     29.5186E-03     129.148E+06     92.9394E+06    -21.8931E+06    -21.8460E+06     129.101E+06     92.9394E+06     1.52443E+06         43.1706
            1530     14.4058E-03     92.6761E-03     407.909E-03     259.043E-03    -969.210E-03     258.748E-03    -968.916E-03     407.909E-03     13.9045E-03     210.457E-03    -104.891E-03    -105.598E-03    -103.966E-03     209.532E-03    -105.598E-03     33.8832E-03     148.223E+06     107.610E+06    -15.6671E+06    -15.6605E+06     148.216E+06     107.610E+06    -117.755E+03         46.0777
            1531     15.3079E-03     92.7211E-03     397.964E-03     230.458E-03    -929.709E-03     230.182E-03    -929.433E-03     397.964E-03     21.8583E-03     210.147E-03    -104.529E-03    -105.674E-03    -103.707E-03     209.325E-03    -105.674E-03     31.5204E-03     158.891E+06     131.429E+06    -8.32665E+06    -8.32599E+06     158.890E+06     131.429E+06     174.802E+03         48.7502
            1532     899.669E-06     93.6271E-03         1.00120     27.8292E-03        -1.31491     792.146E-03        -1.10586     27.8292E-03     572.769E-03     211.447E-03    -105.455E-03    -105.991E-03    -105.480E-03     211.442E-03    -105.961E-03     2.43330E-03    -144.915E+06    -148.778E+06    -332.437E+06    -148.123E+06    -332.382E+06    -145.624E+06     1.68695E+06         36.4139
            1533     1.79998E-03     93.6305E-03     554.946E-03     429.748E-03        -1.27815     508.389E-03        -1.23160     429.748E-03    -155.633E-03     211.278E-03    -105.534E-03    -105.710E-03    -105.523E-03     211.267E-03    -105.710E-03     3.69989E-03    -130.847E+06    -143.095E+06    -309.370E+06    -143.107E+06    -309.358E+06    -130.847E+06     1.14526E+06         36.4199
            1534     2.69964E-03     93.6349E-03     537.541E-03     459.783E-03        -1.29438     522.610E-03        -1.27945     459.783E-03     73.8845E-03     211.245E-03    -105.447E-03    -105.778E-03    -105.428E-03     211.226E-03    -105.778E-03     4.85959E-03    -112.153E+06    -136.353E+06    -287.528E+06    -136.373E+06    -287.509E+06    -112.153E+06     293.813E+03         36.4112
            1535     3.59981E-03     93.6414E-03     498.125E-03     465.375E-03        -1.25500     485.318E-03        -1.24866     471.847E-03    -41.6967E-03     210.839E-03    -105.115E-03    -105.781E-03    -105.079E-03     210.803E-03    -105.781E-03     6.68422E-03    -90.0949E+06    -127.364E+06    -254.411E+06    -127.388E+06    -254.387E+06    -90.0949E+06     398.729E+03         36.4260
            1536     4.50019E-03     93.6510E-03     470.718E-03     446.526E-03        -1.20543     443.838E-03        -1.20274     470.718E-03     37.1080E-03     210.782E-03    -105.220E-03    -105.722E-03    -105.186E-03     210.719E-03    -105.692E-03     8.88312E-03    -64.8152E+06    -116.005E+06    -221.902E+06    -116.094E+06    -221.813E+06    -64.8152E+06     1.43124E+06         36.4900
            1537     5.40008E-03     93.6627E-03     465.274E-03     435.235E-03        -1.18675     434.336E-03        -1.18585     465.274E-03    -13.9146E-03     211.126E-03    -105.421E-03    -105.756E-03    -105.355E-03     211.029E-03    -105.726E-03     10.9822E-03    -40.3507E+06    -104.600E+06    -200.640E+06    -104.756E+06    -200.484E+06    -40.3507E+06     1.04577E+06         36.5513
            1538     6.30037E-03     93.6760E-03     460.949E-03     440.128E-03        -1.18758     439.529E-03        -1.18699     460.949E-03     1.80576E-03     211.060E-03    -105.155E-03    -105.730E-03    -105.021E-03     210.926E-03    -105.730E-03     12.9459E-03    -21.5393E+06    -96.1520E+06    -178.624E+06    -96.2576E+06    -178.518E+06    -21.5393E+06     719.759E+03         36.6168
            1539     7.20012E-03     93.6923E-03     456.921E-03     421.207E-03        -1.16928     420.808E-03        -1.16888     456.921E-03    -23.4485E-03     210.792E-03    -105.024E-03    -105.745E-03    -104.850E-03     210.618E-03    -105.745E-03     14.8075E-03    -5.14507E+06    -87.4643E+06    -146.426E+06    -87.5973E+06    -146.293E+06    -5.14507E+06     1.83033E+06         36.7098
            1540     8.10121E-03     93.7112E-03     450.656E-03     383.510E-03        -1.12632     383.247E-03        -1.12606     450.656E-03    -11.0565E-03     210.717E-03    -105.118E-03    -105.779E-03    -104.900E-03     210.498E-03    -105.779E-03     16.5906E-03     11.9788E+06    -76.4852E+06    -112.963E+06    -76.6087E+06    -112.839E+06     11.9788E+06     1.63694E+06         36.7973
            1541     9.00156E-03     93.7315E-03     442.930E-03     369.452E-03        -1.10366     369.016E-03        -1.10322     442.930E-03     10.4147E-03     210.870E-03    -105.150E-03    -105.772E-03    -104.875E-03     210.595E-03    -105.772E-03     18.5990E-03     26.6468E+06    -65.3764E+06    -89.6862E+06    -65.4377E+06    -89.6249E+06     26.6468E+06     870.548E+03         36.9323
            1542     9.90145E-03     93.7557E-03     435.697E-03     364.990E-03        -1.09341     364.706E-03        -1.09313     435.697E-03     22.2817E-03     210.780E-03    -105.003E-03    -105.726E-03    -104.664E-03     210.440E-03    -105.726E-03     20.6641E-03     39.5003E+06    -47.4034E+06    -66.6362E+06    -55.8268E+06    -58.2128E+06     39.5003E+06     531.975E+03         37.1862
            1543     10.8025E-03     93.7822E-03     428.690E-03     345.876E-03        -1.06934     345.766E-03        -1.06924     428.690E-03     11.4062E-03     210.598E-03    -104.856E-03    -105.666E-03    -104.454E-03     210.195E-03    -105.666E-03     22.4944E-03     49.7623E+06    -32.2399E+06    -47.1980E+06    -46.8114E+06    -32.6264E+06     49.7623E+06     1.33318E+06         37.7217
            1544     11.7043E-03     93.8085E-03     421.048E-03     321.297E-03        -1.03817     321.170E-03        -1.03804     421.048E-03     4.94586E-03     210.765E-03    -105.069E-03    -105.600E-03    -104.578E-03     210.274E-03    -105.600E-03     24.8496E-03     60.2999E+06     8.95255E+06    -38.8294E+06    -38.4660E+06     8.58918E+06     60.2999E+06     1.91248E+06         38.8423
            1545     12.6036E-03     93.8394E-03     412.632E-03     295.551E-03        -1.00454     295.436E-03        -1.00442     412.632E-03     1.60160E-03     210.592E-03    -105.066E-03    -105.514E-03    -104.442E-03     209.969E-03    -105.514E-03     27.9772E-03     90.1325E+06     64.4144E+06    -30.6296E+06    -30.6001E+06     80.3423E+06     74.1751E+06     1.19808E+06         40.6732
            1546     13.5047E-03     93.8748E-03     403.615E-03     271.901E-03    -970.367E-03     271.724E-03    -970.189E-03     403.615E-03     17.8271E-03     210.228E-03    -104.732E-03    -105.529E-03    -104.025E-03     209.521E-03    -105.529E-03     29.7998E-03     129.287E+06     92.4484E+06    -22.7329E+06    -22.7033E+06     129.258E+06     92.4484E+06     1.63912E+06         43.1741
            1547     14.4067E-03     93.9104E-03     394.406E-03     256.176E-03    -943.575E-03     256.057E-03    -943.457E-03     394.406E-03     5.76238E-03     210.555E-03    -105.002E-03    -105.594E-03    -104.066E-03     209.619E-03    -105.594E-03     34.0777E-03     149.067E+06     109.264E+06    -15.3513E+06    -15.3229E+06     149.039E+06     109.264E+06     1.83949E+06         46.0831
            1548     15.3068E-03     93.9560E-03     385.427E-03     243.937E-03    -919.266E-03     243.923E-03    -919.252E-03     385.427E-03     224.527E-06     210.212E-03    -104.569E-03    -105.675E-03    -103.745E-03     209.388E-03    -105.675E-03     31.4913E-03     159.415E+06     131.453E+06    -8.59410E+06    -8.58039E+06     159.401E+06     131.453E+06     549.081E+03         48.7572
            1549     899.637E-06     94.8603E-03     880.380E-03     177.373E-03        -1.33681     688.887E-03        -1.14532     177.373E-03     533.728E-03     211.314E-03    -105.572E-03    -105.741E-03    -105.598E-03     211.310E-03    -105.711E-03     1.93275E-03    -145.729E+06    -150.530E+06    -332.619E+06    -149.910E+06    -332.550E+06    -146.419E+06     706.353E+03         36.3991
            1550     1.79969E-03     94.8642E-03     517.540E-03     426.349E-03        -1.22641     459.162E-03        -1.18018     438.502E-03    -118.663E-03     211.086E-03    -105.399E-03    -105.632E-03    -105.387E-03     211.074E-03    -105.632E-03     3.70251E-03    -133.866E+06    -144.049E+06    -308.803E+06    -144.067E+06    -308.785E+06    -133.866E+06    -864.315E+03         36.4065
            1551     2.69996E-03     94.8690E-03     497.663E-03     429.076E-03        -1.21227     462.435E-03        -1.19435     446.382E-03     94.0705E-03     211.107E-03    -105.383E-03    -105.703E-03    -105.363E-03     211.086E-03    -105.703E-03     5.02650E-03    -113.352E+06    -135.991E+06    -287.439E+06    -136.005E+06    -287.425E+06    -113.352E+06    -473.334E+03         36.4023
            1552     3.59975E-03     94.8753E-03     472.425E-03     438.399E-03        -1.19376     454.575E-03        -1.18706     449.552E-03    -35.7207E-03     211.037E-03    -105.354E-03    -105.743E-03    -105.314E-03     210.997E-03    -105.743E-03     7.01906E-03    -90.2517E+06    -126.880E+06    -255.231E+06    -126.891E+06    -255.219E+06    -90.2517E+06    -262.734E+03         36.4198
            1553     4.49989E-03     94.8844E-03     458.912E-03     430.831E-03        -1.16847     438.007E-03        -1.16561     448.876E-03     41.9754E-03     210.846E-03    -105.257E-03    -105.678E-03    -105.189E-03     210.779E-03    -105.678E-03     9.17763E-03    -66.6181E+06    -116.899E+06    -222.832E+06    -116.912E+06    -222.819E+06    -66.6181E+06    -349.743E+03         36.4853
            1554     5.40044E-03     94.8972E-03     448.196E-03     420.226E-03        -1.14664     421.825E-03        -1.14563     445.591E-03    -4.20818E-03     210.914E-03    -105.206E-03    -105.702E-03    -105.113E-03     210.822E-03    -105.702E-03     10.8049E-03    -40.8862E+06    -106.150E+06    -201.704E+06    -106.217E+06    -201.638E+06    -40.8862E+06     1.44898E+06         36.5462
            1555     6.30036E-03     94.9102E-03     441.100E-03     410.070E-03        -1.12984     409.164E-03        -1.12894     441.100E-03    -454.832E-06     211.098E-03    -105.205E-03    -105.697E-03    -105.075E-03     210.969E-03    -105.697E-03     12.7443E-03    -18.3293E+06    -94.9395E+06    -178.856E+06    -95.0466E+06    -178.749E+06    -18.3293E+06     2.91803E+06         36.6121
            1556     7.20104E-03     94.9260E-03     436.370E-03     402.450E-03        -1.11800     401.919E-03        -1.11747     436.370E-03    -27.7752E-03     210.855E-03    -105.102E-03    -105.720E-03    -104.925E-03     210.678E-03    -105.720E-03     14.9260E-03    -2.47879E+06    -84.0751E+06    -146.114E+06    -84.1296E+06    -146.060E+06    -2.47879E+06     1.52300E+06         36.7068
            1557     8.10100E-03     94.9447E-03     431.514E-03     389.049E-03        -1.10003     388.980E-03        -1.09996     431.514E-03     11.4864E-03     210.688E-03    -105.114E-03    -105.754E-03    -104.890E-03     210.464E-03    -105.754E-03     16.7876E-03     11.6027E+06    -73.7665E+06    -111.538E+06    -73.7761E+06    -111.528E+06     11.6027E+06     375.037E+03         36.7951
            1558     9.00143E-03     94.9664E-03     425.543E-03     360.393E-03        -1.06705     360.185E-03        -1.06684     425.543E-03     20.5715E-03     210.898E-03    -105.200E-03    -105.749E-03    -104.920E-03     210.618E-03    -105.749E-03     18.7771E-03     25.6286E+06    -64.6483E+06    -88.8237E+06    -64.6553E+06    -88.8167E+06     25.6286E+06     224.819E+03         36.9286
            1559     9.90186E-03     94.9899E-03     418.396E-03     341.123E-03        -1.04427     340.894E-03        -1.04404     418.396E-03     15.2851E-03     210.706E-03    -104.965E-03    -105.713E-03    -104.620E-03     210.361E-03    -105.713E-03     20.8201E-03     39.3020E+06    -47.2762E+06    -66.6452E+06    -55.9476E+06    -57.9737E+06     39.3020E+06     29.7819E+03         37.1801
            1560     10.8031E-03     95.0142E-03     410.977E-03     327.434E-03        -1.02624     327.371E-03        -1.02618     410.977E-03     2.04080E-03     210.549E-03    -104.838E-03    -105.646E-03    -104.432E-03     210.143E-03    -105.646E-03     22.6063E-03     49.2710E+06    -34.2409E+06    -46.9491E+06    -46.9034E+06    -34.2866E+06     49.2710E+06     227.469E+03         37.7174
            1561     11.7033E-03     95.0432E-03     403.273E-03     305.881E-03    -997.977E-03     305.811E-03    -997.907E-03     403.273E-03    -3.24872E-03     210.709E-03    -105.018E-03    -105.582E-03    -104.530E-03     210.221E-03    -105.582E-03     24.7757E-03     60.1477E+06     7.76807E+06    -38.6776E+06    -38.6195E+06     7.70989E+06     60.1477E+06     1.59608E+06         38.8421
            1562     12.6047E-03     95.0749E-03     394.989E-03     282.530E-03    -964.488E-03     282.464E-03    -964.422E-03     394.989E-03     42.3715E-06     210.489E-03    -104.973E-03    -105.499E-03    -104.361E-03     209.877E-03    -105.499E-03     27.7009E-03     90.5696E+06     65.7478E+06    -32.6202E+06    -32.5493E+06     81.3973E+06     74.8493E+06     2.20751E+06         40.6760
            1563     13.5056E-03     95.1085E-03     386.215E-03     260.026E-03    -931.858E-03     259.897E-03    -931.729E-03     386.215E-03     20.9974E-03     210.229E-03    -104.758E-03    -105.506E-03    -104.053E-03     209.524E-03    -105.506E-03     29.7523E-03     128.159E+06     91.7242E+06    -26.0078E+06    -25.9720E+06     128.123E+06     91.7242E+06     1.60522E+06         43.1794
            1564     14.4064E-03     95.1447E-03     377.173E-03     241.784E-03    -904.661E-03     241.564E-03    -904.441E-03     377.173E-03    -2.02997E-03     210.452E-03    -104.923E-03    -105.569E-03    -103.962E-03     209.492E-03    -105.569E-03     34.4974E-03     148.439E+06     108.506E+06    -17.5586E+06    -17.5121E+06     148.392E+06     108.506E+06     2.43789E+06         46.0905
            1565     15.3079E-03     95.1905E-03     368.069E-03     223.420E-03    -879.612E-03     223.257E-03    -879.448E-03     368.069E-03    -20.2517E-03     210.240E-03    -104.586E-03    -105.665E-03    -103.754E-03     209.408E-03    -105.665E-03     31.5126E-03     161.418E+06     132.719E+06    -8.83156E+06    -8.78914E+06     161.375E+06     132.719E+06     733.475E+03         48.7665
            1566     900.171E-06     96.0949E-03     788.461E-03     344.007E-03        -1.39698     625.818E-03        -1.23434     344.007E-03     461.412E-03     210.980E-03    -105.398E-03    -105.577E-03    -105.547E-03     210.976E-03    -105.424E-03     2.04106E-03    -144.993E+06    -152.380E+06    -333.272E+06    -150.257E+06    -333.145E+06    -147.242E+06     1.32940E+06         36.3816
            1567     1.79993E-03     96.0976E-03     476.666E-03     433.819E-03        -1.17627     398.193E-03        -1.13153     467.548E-03    -126.423E-03     210.924E-03    -105.372E-03    -105.502E-03    -105.364E-03     210.913E-03    -105.500E-03     3.65303E-03    -135.412E+06    -147.128E+06    -306.643E+06    -147.199E+06    -306.571E+06    -135.412E+06    -326.079E+03         36.3939
            1568     2.70030E-03     96.1025E-03     439.457E-03     393.174E-03        -1.10044     375.131E-03        -1.08239     439.457E-03     80.9714E-03     210.919E-03    -105.318E-03    -105.598E-03    -105.297E-03     210.898E-03    -105.598E-03     5.15427E-03    -118.955E+06    -141.305E+06    -286.108E+06    -141.367E+06    -286.047E+06    -118.955E+06    -2.64429E+06         36.3944
            1569     3.60064E-03     96.1093E-03     434.173E-03     412.745E-03        -1.11360     411.428E-03        -1.10485     426.741E-03    -4.03015E-03     211.016E-03    -105.408E-03    -105.664E-03    -105.367E-03     210.974E-03    -105.664E-03     7.11608E-03     -94.622E+06    -131.827E+06    -256.054E+06    -131.876E+06    -256.004E+06     -94.622E+06    -1.86807E+06         36.4142
            1570     4.50014E-03     96.1194E-03     434.616E-03     418.172E-03        -1.12450     423.614E-03        -1.11990     424.579E-03     75.3593E-03     210.933E-03    -105.333E-03    -105.663E-03    -105.267E-03     210.867E-03    -105.663E-03     9.08152E-03    -66.8483E+06    -121.154E+06    -224.536E+06    -121.172E+06    -224.518E+06    -66.8483E+06     591.274E+03         36.4815
            1571     5.40007E-03     96.1303E-03     425.310E-03     402.566E-03        -1.10250     404.151E-03        -1.10148     422.705E-03     2.75113E-03     210.846E-03    -105.168E-03    -105.686E-03    -105.072E-03     210.750E-03    -105.686E-03     10.9855E-03    -43.1954E+06    -110.378E+06    -203.608E+06    -110.409E+06    -203.577E+06    -43.1954E+06     1.06165E+06         36.5377
            1572     6.30078E-03     96.1442E-03     418.168E-03     381.161E-03        -1.07078     380.293E-03        -1.06991     418.168E-03     10.1113E-03     210.906E-03    -105.085E-03    -105.637E-03    -104.954E-03     210.774E-03    -105.637E-03     12.8590E-03    -24.1261E+06    -97.6630E+06    -178.456E+06    -97.7270E+06    -178.392E+06    -24.1261E+06     274.805E+03         36.5973
            1573     7.20068E-03     96.1602E-03     412.659E-03     373.317E-03        -1.05651     372.997E-03        -1.05619     412.659E-03    -29.0512E-03     210.787E-03    -105.053E-03    -105.663E-03    -104.877E-03     210.611E-03    -105.663E-03     14.8613E-03    -5.64689E+06    -84.9913E+06    -144.156E+06    -85.0514E+06    -144.096E+06    -5.64689E+06     352.885E+03         36.6948
            1574     8.10161E-03     96.1796E-03     407.860E-03     373.059E-03        -1.05208     373.051E-03        -1.05207     407.860E-03     4.96374E-03     210.594E-03    -105.054E-03    -105.723E-03    -104.821E-03     210.362E-03    -105.723E-03     17.0809E-03     11.2122E+06    -74.5052E+06    -111.048E+06    -74.5711E+06    -110.982E+06     11.2122E+06    -86.1074E+03         36.7887
            1575     9.00168E-03     96.2005E-03     402.977E-03     353.089E-03        -1.02866     353.068E-03        -1.02864     402.977E-03     9.59641E-03     210.659E-03    -105.024E-03    -105.709E-03    -104.738E-03     210.372E-03    -105.709E-03     18.9735E-03     25.5105E+06    -64.6782E+06    -88.6520E+06    -64.7428E+06    -88.5875E+06     25.5105E+06    -655.791E+03         36.9250
            1576     9.90283E-03     96.2231E-03     396.532E-03     320.390E-03    -991.709E-03     320.348E-03    -991.668E-03     396.532E-03    -2.32831E-03     210.840E-03    -105.103E-03    -105.682E-03    -104.760E-03     210.497E-03    -105.682E-03     20.7828E-03     40.0409E+06    -46.8120E+06    -66.4539E+06    -55.1332E+06    -58.1328E+06     40.0409E+06    -494.959E+03         37.1785
            1577     10.8031E-03     96.2491E-03     388.830E-03     299.375E-03    -967.238E-03     299.331E-03    -967.195E-03     388.830E-03    -5.49812E-03     210.872E-03    -105.139E-03    -105.626E-03    -104.733E-03     210.466E-03    -105.626E-03     22.6132E-03     50.2849E+06    -34.3207E+06    -46.7033E+06    -46.6512E+06    -34.3729E+06     50.2849E+06    -313.253E+03         37.7169
            1578     11.7037E-03     96.2771E-03     380.989E-03     288.587E-03    -950.045E-03     288.551E-03    -950.008E-03     380.989E-03    -3.85290E-03     210.623E-03    -104.925E-03    -105.567E-03    -104.426E-03     210.124E-03    -105.567E-03     25.0208E-03     59.6095E+06     3.87135E+06    -38.4851E+06    -38.3893E+06     3.77558E+06     59.6095E+06     1.40485E+06         38.8430
            1579     12.6045E-03     96.3082E-03     373.233E-03     272.808E-03    -923.695E-03     272.680E-03    -923.568E-03     373.233E-03     9.12305E-03     210.282E-03    -104.776E-03    -105.485E-03    -104.162E-03     209.667E-03    -105.485E-03     27.7561E-03     92.0792E+06     63.0400E+06    -30.3340E+06    -30.2127E+06     79.9676E+06     75.0303E+06     3.59027E+06         40.6796
            1580     13.5055E-03     96.3428E-03     365.278E-03     253.685E-03    -894.729E-03     253.568E-03    -894.612E-03     365.278E-03     19.7398E-03     210.203E-03    -104.751E-03    -105.484E-03    -104.051E-03     209.503E-03    -105.484E-03     29.6561E-03     130.280E+06     93.5245E+06    -24.2579E+06    -24.1349E+06     130.157E+06     93.5245E+06     3.71330E+06         43.1860
            1581     14.4070E-03     96.3784E-03     356.882E-03     229.632E-03    -863.061E-03     229.390E-03    -862.820E-03     356.882E-03     3.68006E-03     210.318E-03    -104.812E-03    -105.540E-03    -103.858E-03     209.365E-03    -105.540E-03     34.3672E-03     148.791E+06     108.132E+06    -18.1243E+06    -18.0400E+06     148.707E+06     108.132E+06     2.16444E+06         46.0996
            1582     15.3088E-03     96.4245E-03     347.915E-03     201.915E-03    -830.752E-03     201.596E-03    -830.434E-03     347.915E-03     356.294E-06     210.368E-03    -104.766E-03    -105.635E-03    -103.942E-03     209.544E-03    -105.635E-03     31.3991E-03     163.107E+06     132.357E+06    -9.16987E+06    -9.13308E+06     163.070E+06     132.357E+06    -517.053E+03         48.7769
            1583     900.079E-06     97.3282E-03     627.218E-03     388.846E-03        -1.26065     486.079E-03        -1.11951     388.846E-03     418.372E-03     210.576E-03    -105.158E-03    -105.403E-03    -105.399E-03     210.571E-03    -105.158E-03     2.14439E-03    -147.110E+06    -153.512E+06    -334.582E+06    -151.356E+06    -334.489E+06    -149.359E+06    -193.636E+03         36.3715
            1584     1.80041E-03     97.3313E-03     448.295E-03     407.489E-03        -1.10898     396.469E-03        -1.07873     429.066E-03    -104.376E-03     210.873E-03    -105.348E-03    -105.481E-03    -105.459E-03     210.862E-03    -105.360E-03     3.55535E-03    -134.920E+06    -145.616E+06    -303.972E+06    -145.697E+06    -303.890E+06    -134.920E+06    -343.283E+03         36.3887
            1585     2.70017E-03     97.3359E-03     423.110E-03     381.094E-03        -1.06594     374.461E-03        -1.05030     414.104E-03     18.6119E-03     211.142E-03    -105.452E-03    -105.695E-03    -105.526E-03     211.121E-03    -105.601E-03     5.08000E-03    -113.117E+06    -138.542E+06    -282.943E+06    -138.595E+06    -282.890E+06    -113.117E+06    -1.90668E+06         36.3920
            1586     3.59984E-03     97.3433E-03     403.369E-03     381.260E-03        -1.05041     371.946E-03        -1.04109     403.369E-03    -67.5412E-03     210.982E-03    -105.329E-03    -105.715E-03    -105.289E-03     210.942E-03    -105.715E-03     7.05408E-03    -89.6979E+06    -130.709E+06    -257.751E+06    -130.752E+06    -257.708E+06    -89.6979E+06    -1.39946E+06         36.4103
            1587     4.50029E-03     97.3524E-03     397.855E-03     381.740E-03        -1.04601     379.251E-03        -1.04304     397.381E-03     28.3974E-03     210.761E-03    -105.221E-03    -105.656E-03    -105.157E-03     210.697E-03    -105.656E-03     8.93256E-03    -67.0913E+06    -119.921E+06    -226.184E+06    -119.972E+06    -226.133E+06    -67.0913E+06    -641.278E+03         36.4760
            1588     5.40076E-03     97.3639E-03     394.444E-03     379.568E-03        -1.04000     378.430E-03        -1.03839     393.969E-03     13.5028E-03     210.732E-03    -105.214E-03    -105.648E-03    -105.117E-03     210.635E-03    -105.648E-03     10.9760E-03    -44.9406E+06    -107.018E+06    -202.297E+06    -107.072E+06    -202.243E+06    -44.9406E+06    -867.231E+03         36.5302
            1589     6.30059E-03     97.3779E-03     390.692E-03     369.521E-03        -1.02487     367.805E-03        -1.02315     390.692E-03     12.6834E-03     210.802E-03    -105.086E-03    -105.611E-03    -104.953E-03     210.669E-03    -105.611E-03     12.9308E-03    -24.9918E+06    -95.7828E+06    -177.137E+06    -95.8191E+06    -177.101E+06    -24.9918E+06    -1.41364E+06         36.5850
            1590     7.20158E-03     97.3941E-03     386.364E-03     350.152E-03        -1.00169     349.490E-03        -1.00103     386.364E-03    -35.1494E-03     210.704E-03    -104.961E-03    -105.615E-03    -104.783E-03     210.527E-03    -105.615E-03     14.9030E-03    -7.11970E+06    -85.0902E+06    -144.403E+06    -85.3064E+06    -144.187E+06    -7.11970E+06    -2.15437E+06         36.6828
            1591     8.10136E-03     97.4132E-03     380.725E-03     328.531E-03    -975.082E-03     328.514E-03    -975.065E-03     380.725E-03     7.52784E-03     210.421E-03    -104.879E-03    -105.671E-03    -104.649E-03     210.191E-03    -105.671E-03     16.9806E-03     11.3678E+06    -73.2283E+06    -110.545E+06    -73.4935E+06    -110.280E+06     11.3678E+06    -2.17293E+06         36.7829
            1592     9.00281E-03     97.4335E-03     374.969E-03     327.838E-03    -967.153E-03     327.796E-03    -967.110E-03     374.969E-03     12.1574E-03     210.637E-03    -105.038E-03    -105.681E-03    -104.758E-03     210.357E-03    -105.681E-03     18.7799E-03     26.6952E+06    -62.8764E+06    -88.8788E+06    -62.9955E+06    -88.7597E+06     26.6952E+06    -1.70225E+06         36.9233
            1593     9.90290E-03     97.4576E-03     369.753E-03     319.045E-03    -953.218E-03     318.975E-03    -953.148E-03     369.753E-03     12.5488E-03     210.852E-03    -105.135E-03    -105.661E-03    -104.792E-03     210.509E-03    -105.661E-03     20.7698E-03     40.4631E+06    -45.8230E+06    -66.6309E+06    -53.8857E+06    -58.5682E+06     40.4631E+06    -975.789E+03         37.1780
            1594     10.8031E-03     97.4831E-03     363.607E-03     285.266E-03    -914.024E-03     285.183E-03    -913.941E-03     363.607E-03     13.3401E-03     210.748E-03    -105.042E-03    -105.589E-03    -104.625E-03     210.331E-03    -105.589E-03     22.9151E-03     50.3053E+06    -35.1578E+06    -45.8138E+06    -45.2509E+06    -35.7207E+06     50.3053E+06    -108.292E+03         37.7174
            1595     11.7039E-03     97.5106E-03     356.091E-03     261.311E-03    -883.515E-03     261.226E-03    -883.431E-03     356.091E-03     3.05963E-03     210.624E-03    -104.963E-03    -105.525E-03    -104.448E-03     210.109E-03    -105.525E-03     25.4301E-03     58.9641E+06     2.01056E+06    -38.2380E+06    -37.6723E+06     1.44492E+06     58.9641E+06     1.20687E+06         38.8453
            1596     12.6051E-03     97.5428E-03     348.457E-03     255.655E-03    -870.307E-03     255.465E-03    -870.117E-03     348.457E-03     11.1852E-03     210.314E-03    -104.837E-03    -105.449E-03    -104.199E-03     209.676E-03    -105.449E-03     28.3018E-03     88.9861E+06     61.3358E+06    -30.1348E+06    -30.0228E+06     76.6558E+06     73.5541E+06     3.37627E+06         40.6841
            1597     13.5064E-03     97.5765E-03     341.115E-03     242.223E-03    -851.506E-03     242.061E-03    -851.344E-03     341.115E-03     20.5972E-03     210.288E-03    -104.853E-03    -105.447E-03    -104.146E-03     209.581E-03    -105.447E-03     29.8195E-03     130.450E+06     93.6167E+06    -22.1993E+06    -22.0262E+06     130.277E+06     93.6167E+06     5.09930E+06         43.1930
            1598     14.4073E-03     97.6123E-03     333.609E-03     224.112E-03    -828.554E-03     223.970E-03    -828.411E-03     333.609E-03     7.58010E-03     210.624E-03    -105.103E-03    -105.534E-03    -104.182E-03     209.702E-03    -105.534E-03     33.8383E-03     153.958E+06     112.124E+06    -14.3634E+06    -14.2635E+06     153.858E+06     112.124E+06     2.77697E+06         46.1084
            1599     15.3082E-03     97.6579E-03     325.928E-03     207.620E-03    -800.455E-03     207.429E-03    -800.264E-03     325.928E-03     11.1030E-03     210.556E-03    -104.941E-03    -105.646E-03    -104.126E-03     209.740E-03    -105.646E-03     31.4216E-03     164.809E+06     134.730E+06    -7.21785E+06    -7.20573E+06     164.797E+06     134.730E+06    -444.910E+03         48.7864
            1600     900.499E-06     98.5607E-03     488.786E-03     370.927E-03        -1.10280     329.542E-03    -943.554E-03     370.927E-03     409.876E-03     210.633E-03    -105.165E-03    -105.442E-03    -105.252E-03     210.629E-03    -105.350E-03     1.90805E-03    -148.044E+06    -154.648E+06    -331.951E+06    -152.937E+06    -331.917E+06    -149.790E+06    -975.933E+03         36.3634
            1601     1.80030E-03     98.5655E-03     411.923E-03     357.279E-03        -1.01797     386.374E-03    -992.422E-03     357.279E-03    -97.4846E-03     210.914E-03    -105.371E-03    -105.513E-03    -105.494E-03     210.903E-03    -105.379E-03     3.66936E-03    -136.231E+06    -148.056E+06    -301.352E+06    -148.114E+06    -301.293E+06    -136.231E+06    -2.55103E+06         36.3826
            1602     2.70005E-03     98.5696E-03     392.995E-03     362.011E-03        -1.01087     376.509E-03    -998.417E-03     366.044E-03     12.2352E-03     211.123E-03    -105.422E-03    -105.742E-03    -105.512E-03     211.102E-03    -105.631E-03     5.12095E-03    -113.170E+06    -139.666E+06    -283.343E+06    -139.695E+06    -283.314E+06    -113.170E+06    -1.26666E+06         36.3868
            1603     3.60025E-03     98.5775E-03     370.146E-03     351.984E-03    -980.076E-03     349.849E-03    -973.343E-03     365.547E-03    -84.8533E-03     210.821E-03    -105.207E-03    -105.719E-03    -105.166E-03     210.780E-03    -105.719E-03     7.13803E-03    -90.2128E+06    -129.517E+06    -256.825E+06    -129.570E+06    -256.772E+06    -90.2128E+06    -1.50512E+06         36.4009
            1604     4.50052E-03     98.5858E-03     362.556E-03     350.877E-03    -971.116E-03     350.108E-03    -969.872E-03     362.081E-03    -4.58733E-03     210.543E-03    -105.119E-03    -105.610E-03    -105.050E-03     210.474E-03    -105.610E-03     9.24717E-03    -69.5931E+06    -118.421E+06    -224.411E+06    -118.549E+06    -224.283E+06    -69.5931E+06    -3.25738E+06         36.4642
            1605     5.40036E-03     98.5987E-03     363.680E-03     355.037E-03    -975.510E-03     356.850E-03    -973.894E-03     360.251E-03     9.41784E-03     210.613E-03    -105.194E-03    -105.600E-03    -105.096E-03     210.515E-03    -105.600E-03     11.1155E-03    -47.4277E+06    -107.234E+06    -202.790E+06    -107.347E+06    -202.677E+06    -47.4277E+06    -2.96171E+06         36.5187
            1606     6.30129E-03     98.6115E-03     361.573E-03     343.932E-03    -962.038E-03     345.290E-03    -960.442E-03     358.618E-03     13.0629E-03     210.729E-03    -105.062E-03    -105.566E-03    -104.925E-03     210.591E-03    -105.566E-03     13.1173E-03    -25.3260E+06    -95.4764E+06    -176.006E+06    -95.5684E+06    -175.914E+06    -25.3260E+06    -2.25762E+06         36.5723
            1607     7.20094E-03     98.6291E-03     355.243E-03     324.291E-03    -937.951E-03     323.670E-03    -937.330E-03     355.243E-03    -28.7546E-03     210.595E-03    -104.905E-03    -105.573E-03    -104.723E-03     210.414E-03    -105.573E-03     15.1055E-03    -6.61311E+06    -84.1945E+06    -141.889E+06    -84.5191E+06    -141.564E+06    -6.61311E+06    -3.71987E+06         36.6719
            1608     8.10241E-03     98.6458E-03     350.370E-03     307.211E-03    -915.715E-03     307.185E-03    -915.689E-03     350.370E-03     8.90188E-03     210.419E-03    -104.937E-03    -105.627E-03    -104.706E-03     210.187E-03    -105.627E-03     17.0372E-03     9.12383E+06    -74.4057E+06    -111.551E+06    -74.8716E+06    -111.085E+06     9.12383E+06    -4.01663E+06         36.7778
            1609     9.00230E-03     98.6688E-03     344.863E-03     293.580E-03    -895.705E-03     293.548E-03    -895.673E-03     344.863E-03     9.18672E-03     210.559E-03    -105.002E-03    -105.640E-03    -104.713E-03     210.270E-03    -105.640E-03     19.0691E-03     24.1055E+06    -64.7611E+06    -90.1626E+06    -65.0455E+06    -89.8782E+06     24.1055E+06    -2.51007E+06         36.9207
            1610     9.90288E-03     98.6911E-03     339.339E-03     287.570E-03    -882.590E-03     287.482E-03    -882.503E-03     339.339E-03     7.71281E-03     210.584E-03    -104.907E-03    -105.619E-03    -104.554E-03     210.232E-03    -105.619E-03     21.0466E-03     38.7040E+06    -47.3829E+06    -67.3043E+06    -55.5101E+06    -59.1772E+06     38.7040E+06    -1.62370E+06         37.1755
            1611     10.8046E-03     98.7165E-03     333.881E-03     275.840E-03    -862.221E-03     275.739E-03    -862.121E-03     333.881E-03     8.66871E-03     210.640E-03    -104.986E-03    -105.529E-03    -104.566E-03     210.219E-03    -105.529E-03     23.0079E-03     48.1921E+06    -37.7093E+06    -47.6890E+06    -47.1015E+06    -38.2968E+06     48.1921E+06    -396.156E+03         37.7173
            1612     11.7050E-03     98.7449E-03     327.694E-03     249.376E-03    -828.894E-03     248.944E-03    -828.462E-03     327.694E-03    -15.8762E-03     210.705E-03    -105.112E-03    -105.476E-03    -104.612E-03     210.204E-03    -105.476E-03     25.0878E-03     57.4541E+06     1.26240E+06    -39.7606E+06    -39.2069E+06     708.737E+03     57.4541E+06     1.03768E+06         38.8479
            1613     12.6056E-03     98.7756E-03     320.748E-03     233.237E-03    -807.484E-03     232.744E-03    -806.992E-03     320.748E-03    -10.6447E-03     210.463E-03    -105.018E-03    -105.420E-03    -104.400E-03     209.845E-03    -105.420E-03     27.8475E-03     84.4877E+06     61.0046E+06    -31.5473E+06    -31.4844E+06     73.5963E+06     71.8329E+06     2.41658E+06         40.6885
            1614     13.5064E-03     98.8114E-03     313.859E-03     226.083E-03    -797.207E-03     225.947E-03    -797.071E-03     313.859E-03     8.20336E-03     210.406E-03    -104.968E-03    -105.422E-03    -104.271E-03     209.709E-03    -105.422E-03     29.6187E-03     128.801E+06     91.4561E+06    -22.9982E+06    -22.9125E+06     128.716E+06     91.4561E+06     3.35232E+06         43.1988
            1615     14.4070E-03     98.8474E-03     307.227E-03     217.007E-03    -782.966E-03     216.927E-03    -782.886E-03     307.227E-03    -6.57585E-03     210.742E-03    -105.218E-03    -105.520E-03    -104.285E-03     209.809E-03    -105.520E-03     34.0298E-03     158.001E+06     111.458E+06    -14.0747E+06    -14.0187E+06     157.945E+06     111.458E+06     2.89501E+06         46.1156
            1616     15.3078E-03     98.8928E-03     300.633E-03     202.543E-03    -758.976E-03     202.456E-03    -758.889E-03     300.633E-03     3.57685E-03     210.646E-03    -105.031E-03    -105.652E-03    -104.188E-03     209.802E-03    -105.652E-03     32.0108E-03     166.933E+06     135.233E+06    -6.63913E+06    -6.60847E+06     166.902E+06     135.233E+06     1.90476E+06         48.7950
            1617     899.633E-06     99.7942E-03     441.900E-03     316.055E-03        -1.00154     206.790E-03    -836.334E-03     385.961E-03     323.261E-03     211.005E-03    -105.287E-03    -105.693E-03    -105.493E-03     210.999E-03    -105.481E-03     2.45926E-03    -150.034E+06    -155.644E+06    -329.038E+06    -153.929E+06    -329.007E+06    -151.780E+06    -1.73302E+06         36.3570
            1618     1.79994E-03     99.7986E-03     373.202E-03     305.451E-03    -929.264E-03     342.010E-03    -898.073E-03     305.451E-03    -110.529E-03     210.861E-03    -105.330E-03    -105.505E-03    -105.335E-03     210.849E-03    -105.488E-03     3.81594E-03    -137.204E+06    -150.300E+06    -297.766E+06    -150.339E+06    -297.727E+06    -137.204E+06    -2.09252E+06         36.3716
            1619     2.69997E-03     99.8042E-03     361.468E-03     319.779E-03    -931.216E-03     351.887E-03    -921.635E-03     319.779E-03     57.1725E-03     210.828E-03    -105.265E-03    -105.608E-03    -105.259E-03     210.805E-03    -105.591E-03     5.34619E-03    -118.300E+06    -142.773E+06    -283.812E+06    -142.854E+06    -283.731E+06    -118.300E+06    -2.83386E+06         36.3748
            1620     3.60024E-03     99.8100E-03     345.575E-03     325.100E-03    -919.134E-03     340.318E-03    -915.415E-03     326.638E-03    -21.1560E-03     210.649E-03    -105.170E-03    -105.608E-03    -105.128E-03     210.608E-03    -105.608E-03     7.16256E-03    -97.4859E+06    -132.505E+06    -253.819E+06    -132.647E+06    -253.678E+06    -97.4859E+06    -3.64814E+06         36.3866
            1621     4.50061E-03     99.8202E-03     326.591E-03     313.651E-03    -892.803E-03     311.595E-03    -890.747E-03     326.591E-03     15.7471E-03     210.315E-03    -104.948E-03    -105.536E-03    -104.878E-03     210.244E-03    -105.536E-03     9.34599E-03    -73.3985E+06    -122.329E+06    -221.597E+06    -122.551E+06    -221.374E+06    -73.3985E+06    -4.59345E+06         36.4471
            1622     5.40147E-03     99.8316E-03     326.566E-03     308.345E-03    -886.302E-03     310.026E-03    -885.029E-03     323.612E-03    -4.96217E-03     210.429E-03    -104.977E-03    -105.538E-03    -104.872E-03     210.324E-03    -105.538E-03     11.4573E-03    -50.1674E+06    -111.429E+06    -204.416E+06    -111.652E+06    -204.193E+06    -50.1674E+06    -4.45911E+06         36.5014
            1623     6.30119E-03     99.8458E-03     324.238E-03     308.810E-03    -881.761E-03     310.815E-03    -880.811E-03     321.284E-03     7.32414E-03     210.543E-03    -104.922E-03    -105.475E-03    -104.777E-03     210.398E-03    -105.475E-03     13.4877E-03    -29.8758E+06    -99.9485E+06    -174.367E+06    -100.293E+06    -174.022E+06    -29.8758E+06    -4.54900E+06         36.5560
            1624     7.20254E-03     99.8615E-03     318.765E-03     299.426E-03    -865.917E-03     298.883E-03    -865.375E-03     318.765E-03    -36.9474E-03     210.473E-03    -104.885E-03    -105.497E-03    -104.693E-03     210.280E-03    -105.497E-03     15.5502E-03    -10.2618E+06    -88.5622E+06    -139.163E+06    -89.0642E+06    -138.661E+06    -10.2618E+06    -4.81923E+06         36.6590
            1625     8.10207E-03     99.8811E-03     315.475E-03     289.297E-03    -851.566E-03     289.137E-03    -851.405E-03     315.475E-03    -3.05060E-03     210.416E-03    -104.990E-03    -105.565E-03    -104.745E-03     210.171E-03    -105.565E-03     17.5233E-03     6.83300E+06    -77.7774E+06    -112.407E+06    -78.4866E+06    -111.697E+06     6.83300E+06    -4.63803E+06         36.7713
            1626     9.00308E-03     99.9014E-03     311.005E-03     263.575E-03    -822.342E-03     263.555E-03    -822.321E-03     311.005E-03     8.29155E-03     210.410E-03    -104.907E-03    -105.568E-03    -104.611E-03     210.113E-03    -105.568E-03     19.3113E-03     21.1750E+06    -67.4887E+06    -92.1638E+06    -68.1856E+06    -91.4670E+06     21.1750E+06    -3.95656E+06         36.9185
            1627     9.90443E-03     99.9245E-03     305.080E-03     242.327E-03    -793.756E-03     242.169E-03    -793.597E-03     305.080E-03    -13.3024E-03     210.593E-03    -104.999E-03    -105.556E-03    -104.644E-03     210.238E-03    -105.556E-03     21.1355E-03     36.0152E+06    -48.8332E+06    -70.2268E+06    -58.5087E+06    -60.5514E+06     36.0152E+06    -2.24445E+06         37.1749
            1628     10.8040E-03     99.9502E-03     299.305E-03     247.769E-03    -791.896E-03     247.520E-03    -791.647E-03     299.305E-03    -4.51449E-03     210.854E-03    -105.242E-03    -105.516E-03    -104.841E-03     210.440E-03    -105.503E-03     22.8517E-03     46.6145E+06    -38.3147E+06    -49.9337E+06    -49.6631E+06    -38.5852E+06     46.6145E+06    -1.21707E+06         37.7182
            1629     11.7048E-03     99.9781E-03     294.488E-03     247.375E-03    -785.651E-03     246.776E-03    -785.052E-03     294.488E-03    -18.9865E-03     210.893E-03    -105.319E-03    -105.487E-03    -104.845E-03     210.407E-03    -105.474E-03     24.7605E-03     55.2740E+06    -1.69844E+06    -41.3141E+06    -41.0732E+06    -1.93941E+06     55.2740E+06    -136.756E+03         38.8502
            1630     12.6053E-03     100.011E-03     289.542E-03     227.480E-03    -760.305E-03     226.944E-03    -759.769E-03     289.542E-03    -23.2572E-03     210.583E-03    -105.130E-03    -105.417E-03    -104.525E-03     209.978E-03    -105.417E-03     27.5652E-03     83.0053E+06     58.6067E+06    -33.2291E+06    -33.1783E+06     71.2470E+06     70.3142E+06     2.00055E+06         40.6918
            1631     13.5060E-03     100.045E-03     284.022E-03     212.310E-03    -738.953E-03     212.242E-03    -738.885E-03     284.022E-03     1.01016E-03     210.311E-03    -104.868E-03    -105.416E-03    -104.166E-03     209.609E-03    -105.416E-03     29.7138E-03     128.535E+06     89.2284E+06    -26.2791E+06    -26.2256E+06     128.481E+06     89.2284E+06     2.63469E+06         43.2031
            1632     14.4077E-03     100.081E-03     278.136E-03     196.764E-03    -716.814E-03     196.707E-03    -716.757E-03     278.136E-03    -1.86755E-03     210.575E-03    -105.091E-03    -105.495E-03    -104.161E-03     209.645E-03    -105.495E-03     34.0086E-03     157.974E+06     106.096E+06    -18.6588E+06    -18.6188E+06     157.934E+06     106.096E+06     2.62345E+06         46.1213
            1633     15.3091E-03     100.127E-03     271.936E-03     180.932E-03    -697.512E-03     180.534E-03    -697.114E-03     271.936E-03    -6.16504E-03     210.610E-03    -105.003E-03    -105.620E-03    -104.171E-03     209.779E-03    -105.620E-03     31.7940E-03     169.135E+06     132.210E+06    -9.87083E+06    -9.82987E+06     169.094E+06     132.210E+06     2.10629E+06         48.8027
            1634     900.184E-06     101.029E-03     500.766E-03     250.325E-03        -1.00038     115.118E-03    -842.958E-03     478.554E-03     349.170E-03     211.045E-03    -105.257E-03    -105.780E-03    -105.682E-03     211.039E-03    -105.350E-03     2.65849E-03    -151.451E+06    -154.557E+06    -326.513E+06    -154.593E+06    -326.477E+06    -151.451E+06    -1.37086E+06         36.3424
            1635     1.79966E-03     101.032E-03     324.956E-03     274.332E-03    -844.445E-03     278.707E-03    -817.201E-03     293.338E-03    -70.4651E-03     210.607E-03    -105.157E-03    -105.454E-03    -105.145E-03     210.594E-03    -105.454E-03     3.93555E-03    -140.368E+06    -149.725E+06    -294.494E+06    -149.769E+06    -294.450E+06    -140.368E+06    -2.17098E+06         36.3541
            1636     2.70064E-03     101.036E-03     313.979E-03     280.784E-03    -838.587E-03     294.022E-03    -828.080E-03     290.234E-03     59.9566E-03     210.515E-03    -105.062E-03    -105.459E-03    -105.036E-03     210.488E-03    -105.459E-03     5.74335E-03    -120.590E+06    -143.187E+06    -280.730E+06    -143.287E+06    -280.630E+06    -120.590E+06    -3.42319E+06         36.3586
            1637     3.60069E-03     101.045E-03     308.279E-03     283.367E-03    -835.492E-03     296.176E-03    -831.297E-03     291.275E-03    -10.2679E-03     210.469E-03    -105.079E-03    -105.467E-03    -105.032E-03     210.422E-03    -105.467E-03     7.64561E-03    -97.9708E+06    -134.659E+06    -251.036E+06    -134.874E+06    -250.821E+06    -97.9708E+06    -4.63695E+06         36.3720
            1638     4.50089E-03     101.053E-03     293.466E-03     279.592E-03    -812.291E-03     280.215E-03    -810.010E-03     290.562E-03     32.8509E-03     210.208E-03    -104.881E-03    -105.437E-03    -104.808E-03     210.135E-03    -105.437E-03     9.54509E-03    -74.6426E+06    -124.216E+06    -219.069E+06    -124.549E+06    -218.736E+06    -74.6426E+06    -5.50684E+06         36.4312
            1639     5.40134E-03     101.065E-03     287.191E-03     261.490E-03    -783.228E-03     260.256E-03    -781.754E-03     286.953E-03     13.6805E-03     210.208E-03    -104.760E-03    -105.445E-03    -104.652E-03     210.100E-03    -105.445E-03     11.6161E-03    -52.2184E+06    -113.417E+06    -203.313E+06    -113.847E+06    -202.884E+06    -52.2184E+06    -6.03771E+06         36.4861
            1640     6.30280E-03     101.079E-03     282.634E-03     260.523E-03    -778.870E-03     259.201E-03    -777.547E-03     282.634E-03     23.3053E-03     210.336E-03    -104.808E-03    -105.376E-03    -104.661E-03     210.189E-03    -105.376E-03     13.5800E-03    -31.2132E+06    -101.226E+06    -172.805E+06    -101.984E+06    -172.048E+06    -31.2132E+06    -6.82861E+06         36.5442
            1641     7.20244E-03     101.095E-03     279.699E-03     268.251E-03    -784.043E-03     267.734E-03    -783.526E-03     279.699E-03    -24.7089E-03     210.387E-03    -104.869E-03    -105.379E-03    -104.673E-03     210.191E-03    -105.379E-03     15.6697E-03    -12.4475E+06    -89.5185E+06    -139.102E+06    -90.5668E+06    -138.053E+06    -12.4475E+06    -7.00953E+06         36.6494
            1642     8.10370E-03     101.115E-03     276.997E-03     253.171E-03    -763.918E-03     252.691E-03    -763.438E-03     276.997E-03     15.3416E-03     210.299E-03    -104.919E-03    -105.455E-03    -104.676E-03     210.056E-03    -105.455E-03     17.4645E-03     5.10510E+06    -78.5961E+06    -112.932E+06    -79.8152E+06    -111.713E+06     5.10510E+06    -6.10567E+06         36.7662
            1643     9.00387E-03     101.135E-03     273.112E-03     236.149E-03    -743.667E-03     235.860E-03    -743.378E-03     273.112E-03     23.3823E-03     210.512E-03    -105.092E-03    -105.493E-03    -104.801E-03     210.221E-03    -105.493E-03     19.1133E-03     19.9527E+06    -68.5563E+06    -93.2507E+06    -69.6610E+06    -92.1460E+06     19.9527E+06    -5.03809E+06         36.9185
            1644     9.90383E-03     101.159E-03     268.791E-03     230.676E-03    -735.544E-03     230.408E-03    -735.276E-03     268.791E-03     4.86351E-03     210.822E-03    -105.284E-03    -105.501E-03    -104.927E-03     210.465E-03    -105.501E-03     21.1972E-03     33.7243E+06    -49.5639E+06    -72.7312E+06    -60.0255E+06    -62.2696E+06     33.7243E+06    -3.78316E+06         37.1762
            1645     10.8050E-03     101.185E-03     264.465E-03     220.587E-03    -721.719E-03     220.108E-03    -721.240E-03     264.465E-03     20.7916E-03     210.978E-03    -105.390E-03    -105.502E-03    -104.993E-03     210.556E-03    -105.477E-03     23.0703E-03     44.6268E+06    -37.7046E+06    -51.2776E+06    -50.2459E+06    -38.7363E+06     44.6268E+06    -2.82494E+06         37.7198
            1646     11.7048E-03     101.213E-03     260.200E-03     217.861E-03    -715.568E-03     217.487E-03    -715.194E-03     260.200E-03     10.5471E-03     210.956E-03    -105.400E-03    -105.486E-03    -104.921E-03     210.453E-03    -105.462E-03     25.1831E-03     53.4926E+06    -3.78992E+06    -41.8439E+06    -41.1356E+06    -4.49822E+06     53.4926E+06    -1.67331E+06         38.8526
            1647     12.6053E-03     101.245E-03     256.325E-03     218.001E-03    -709.246E-03     217.785E-03    -709.030E-03     256.325E-03     371.858E-06     210.597E-03    -105.167E-03    -105.400E-03    -104.546E-03     209.976E-03    -105.400E-03     27.9362E-03     80.0458E+06     54.0854E+06    -32.4751E+06    -32.4200E+06     66.6874E+06     67.3887E+06     1.38063E+06         40.6951
            1648     13.5065E-03     101.279E-03     252.178E-03     196.952E-03    -681.794E-03     196.868E-03    -681.710E-03     252.178E-03     12.3816E-03     210.508E-03    -105.069E-03    -105.413E-03    -104.355E-03     209.794E-03    -105.413E-03     29.9801E-03     129.804E+06     89.2297E+06    -24.2041E+06    -24.1178E+06     129.718E+06     89.2297E+06     3.46752E+06         43.2069
            1649     14.4071E-03     101.316E-03     246.969E-03     171.777E-03    -653.616E-03     171.754E-03    -653.593E-03     246.969E-03     4.82736E-03     210.735E-03    -105.261E-03    -105.498E-03    -104.343E-03     209.817E-03    -105.498E-03     33.8458E-03     162.690E+06     106.193E+06    -17.0224E+06    -16.9692E+06     162.637E+06     106.193E+06     2.73807E+06         46.1258
            1650     15.3074E-03     101.362E-03     241.334E-03     164.543E-03    -643.692E-03     164.196E-03    -643.345E-03     241.334E-03    -13.2832E-03     210.327E-03    -104.726E-03    -105.584E-03    -103.912E-03     209.513E-03    -105.584E-03     31.4827E-03     169.379E+06     128.596E+06    -9.01200E+06    -8.99628E+06     169.363E+06     128.596E+06     744.069E+03         48.8095
            1651     899.568E-06     102.262E-03     519.245E-03     231.999E-03    -998.039E-03     76.1331E-03    -831.650E-03     508.722E-03     380.425E-03     210.502E-03    -105.023E-03    -105.477E-03    -105.386E-03     210.495E-03    -105.107E-03     2.77514E-03    -151.715E+06    -155.445E+06    -323.252E+06    -153.495E+06    -323.202E+06    -153.715E+06    -1.54959E+06         36.3141
            1652     1.80080E-03     102.265E-03     291.245E-03     246.913E-03    -771.286E-03     234.141E-03    -747.991E-03     280.721E-03    -89.5015E-03     210.323E-03    -105.088E-03    -105.283E-03    -105.125E-03     210.311E-03    -105.234E-03     3.94018E-03    -142.123E+06    -152.336E+06    -291.243E+06    -151.594E+06    -291.198E+06    -142.909E+06    -2.12306E+06         36.3312
            1653     2.70052E-03     102.269E-03     261.869E-03     227.714E-03    -718.650E-03     219.580E-03    -710.515E-03     261.869E-03     34.8969E-03     210.263E-03    -104.977E-03    -105.291E-03    -104.956E-03     210.237E-03    -105.286E-03     5.63647E-03    -121.435E+06    -145.325E+06    -277.410E+06    -145.453E+06    -277.281E+06    -121.435E+06    -3.77004E+06         36.3385
            1654     3.60159E-03     102.277E-03     254.360E-03     229.373E-03    -710.254E-03     228.643E-03    -706.859E-03     251.695E-03    -25.4508E-03     210.016E-03    -104.743E-03    -105.293E-03    -104.693E-03     209.966E-03    -105.293E-03     7.79737E-03    -97.6386E+06    -136.007E+06    -247.666E+06    -136.261E+06    -247.412E+06    -97.6386E+06    -4.97743E+06         36.3552
            1655     4.50194E-03     102.287E-03     251.160E-03     242.320E-03    -718.542E-03     244.108E-03    -717.242E-03     248.073E-03     19.1615E-03     209.927E-03    -104.755E-03    -105.266E-03    -104.676E-03     209.847E-03    -105.266E-03     9.91826E-03    -74.1812E+06    -125.236E+06    -215.454E+06    -125.766E+06    -214.924E+06    -74.1812E+06    -6.52242E+06         36.4169
            1656     5.40238E-03     102.297E-03     254.852E-03     234.982E-03    -713.922E-03     242.094E-03    -713.033E-03     246.851E-03     3.68663E-03     210.248E-03    -104.911E-03    -105.323E-03    -104.812E-03     210.132E-03    -105.306E-03     12.0125E-03    -51.7389E+06    -112.702E+06    -200.204E+06    -113.609E+06    -199.296E+06    -51.7389E+06    -8.60760E+06         36.4745
            1657     6.30260E-03     102.312E-03     252.389E-03     221.638E-03    -697.631E-03     228.495E-03    -696.909E-03     244.811E-03     16.0152E-03     210.383E-03    -104.923E-03    -105.290E-03    -104.788E-03     210.231E-03    -105.274E-03     13.8380E-03    -32.2309E+06    -100.672E+06    -172.022E+06    -101.894E+06    -170.799E+06    -32.2309E+06    -9.04400E+06         36.5358
            1658     7.20378E-03     102.329E-03     241.225E-03     211.009E-03    -673.151E-03     210.894E-03    -673.036E-03     241.225E-03    -669.628E-06     210.278E-03    -104.880E-03    -105.291E-03    -104.688E-03     210.086E-03    -105.291E-03     15.5281E-03    -14.2389E+06    -90.2343E+06    -139.245E+06    -91.5188E+06    -137.960E+06    -14.2389E+06    -7.79086E+06         36.6437
            1659     8.10359E-03     102.347E-03     238.022E-03     208.348E-03    -663.971E-03     208.862E-03    -663.614E-03     237.150E-03     26.5395E-03     210.268E-03    -104.985E-03    -105.381E-03    -104.746E-03     210.029E-03    -105.381E-03     17.3350E-03     3.02675E+06    -80.3389E+06    -113.391E+06    -81.9488E+06    -111.781E+06     3.02675E+06    -6.67887E+06         36.7635
            1660     9.00421E-03     102.369E-03     236.209E-03     219.747E-03    -674.666E-03     221.397E-03    -674.360E-03     234.253E-03     19.6923E-03     210.633E-03    -105.276E-03    -105.429E-03    -104.981E-03     210.339E-03    -105.429E-03     19.2529E-03     17.5663E+06    -70.0945E+06    -93.2587E+06    -72.2058E+06    -91.1474E+06     17.5663E+06    -6.41856E+06         36.9187
            1661     9.90479E-03     102.393E-03     233.500E-03     221.136E-03    -675.868E-03     222.056E-03    -675.703E-03     232.416E-03     13.5693E-03     210.897E-03    -105.393E-03    -105.449E-03    -105.031E-03     210.535E-03    -105.449E-03     21.3606E-03     30.4171E+06    -50.9287E+06    -74.0524E+06    -62.0017E+06    -62.9794E+06     30.4171E+06    -6.50092E+06         37.1773
            1662     10.8043E-03     102.419E-03     230.216E-03     207.221E-03    -662.634E-03     206.897E-03    -662.310E-03     230.216E-03     30.6163E-03     210.858E-03    -105.310E-03    -105.437E-03    -104.888E-03     210.424E-03    -105.425E-03     23.4070E-03     40.6502E+06    -37.5521E+06    -54.3917E+06    -51.5682E+06    -40.3756E+06     40.6502E+06    -5.85893E+06         37.7210
            1663     11.7054E-03     102.448E-03     227.049E-03     190.689E-03    -642.234E-03     190.482E-03    -642.027E-03     227.049E-03     23.1407E-03     210.802E-03    -105.298E-03    -105.430E-03    -104.808E-03     210.284E-03    -105.402E-03     25.5430E-03     50.2605E+06    -4.10723E+06    -43.6140E+06    -41.7329E+06    -5.98831E+06     50.2605E+06    -4.33665E+06         38.8551
            1664     12.6063E-03     102.478E-03     223.145E-03     177.262E-03    -620.823E-03     176.900E-03    -620.461E-03     223.145E-03     26.8246E-03     210.828E-03    -105.280E-03    -105.520E-03    -104.816E-03     210.195E-03    -105.352E-03     28.2241E-03     74.1598E+06     49.8126E+06    -32.8126E+06    -32.6822E+06     60.7611E+06     63.0809E+06    -1.16347E+06         40.6990
            1665     13.5064E-03     102.514E-03     218.771E-03     165.720E-03    -604.813E-03     165.306E-03    -604.399E-03     218.771E-03     31.0374E-03     210.750E-03    -105.176E-03    -105.539E-03    -104.602E-03     210.023E-03    -105.386E-03     30.2666E-03     127.234E+06     84.9477E+06    -23.7357E+06    -23.6541E+06     127.153E+06     84.9477E+06     2.96446E+06         43.2113
            1666     14.4068E-03     102.551E-03     214.433E-03     166.078E-03    -600.053E-03     165.938E-03    -599.914E-03     214.433E-03     5.46607E-03     210.637E-03    -105.150E-03    -105.478E-03    -104.193E-03     209.679E-03    -105.478E-03     34.5221E-03     166.566E+06     104.555E+06    -15.4745E+06    -15.4075E+06     166.499E+06     104.555E+06     2.64269E+06         46.1314
            1667     15.3084E-03     102.596E-03     210.513E-03     163.189E-03    -595.998E-03     163.087E-03    -595.896E-03     210.513E-03     1.53442E-03     210.228E-03    -104.649E-03    -105.571E-03    -103.801E-03     209.380E-03    -105.571E-03     32.0479E-03     171.367E+06     128.636E+06    -7.31185E+06    -7.30972E+06     171.365E+06     128.636E+06     343.094E+03         48.8177
            1668     901.379E-06     103.494E-03     444.352E-03     180.191E-03    -842.201E-03     17.2513E-03    -645.531E-03     410.621E-03     341.428E-03     209.758E-03    -104.735E-03    -105.033E-03    -104.887E-03     209.752E-03    -104.873E-03     2.73147E-03    -152.929E+06    -158.501E+06    -318.561E+06    -156.579E+06    -318.482E+06    -154.930E+06    -2.27686E+06         36.2760
            1669     1.80054E-03     103.498E-03     257.585E-03     200.617E-03    -670.612E-03     222.430E-03    -650.261E-03     215.420E-03    -87.3072E-03     209.857E-03    -104.928E-03    -104.988E-03    -104.973E-03     209.843E-03    -104.928E-03     4.19828E-03    -142.637E+06    -153.131E+06    -287.783E+06    -152.467E+06    -287.660E+06    -143.424E+06    -3.33973E+06         36.3011
            1670     2.70135E-03     103.503E-03     223.403E-03     188.475E-03    -618.244E-03     190.947E-03    -610.493E-03     213.181E-03     12.8682E-03     209.984E-03    -104.939E-03    -105.056E-03    -104.922E-03     209.955E-03    -105.043E-03     6.00374E-03    -120.547E+06    -144.395E+06    -273.498E+06    -144.598E+06    -273.294E+06    -120.547E+06    -4.77841E+06         36.3142
            1671     3.60151E-03     103.509E-03     208.578E-03     189.184E-03    -605.326E-03     187.750E-03    -602.103E-03     206.789E-03    -54.4307E-03     209.736E-03    -104.666E-03    -105.102E-03    -104.620E-03     209.685E-03    -105.098E-03     7.98410E-03    -96.6155E+06    -134.706E+06    -243.972E+06    -135.037E+06    -243.641E+06    -96.6155E+06    -5.69749E+06         36.3370
            1672     4.50299E-03     103.519E-03     203.697E-03     195.587E-03    -611.203E-03     195.618E-03    -610.827E-03     203.290E-03     16.2741E-03     209.623E-03    -104.655E-03    -105.091E-03    -104.576E-03     209.544E-03    -105.091E-03     9.93520E-03    -73.0934E+06    -123.869E+06    -210.733E+06    -124.535E+06    -210.067E+06    -73.0934E+06    -7.27028E+06         36.4018
            1673     5.40343E-03     103.531E-03     210.591E-03     201.008E-03    -624.498E-03     208.768E-03    -624.272E-03     202.605E-03     1.27043E-03     210.190E-03    -105.025E-03    -105.173E-03    -104.927E-03     210.076E-03    -105.156E-03     11.9355E-03    -52.0065E+06    -112.879E+06    -195.484E+06    -114.149E+06    -194.215E+06    -52.0065E+06    -9.99199E+06         36.4631
            1674     6.30354E-03     103.545E-03     210.000E-03     192.942E-03    -616.263E-03     200.211E-03    -615.953E-03     202.421E-03     8.64577E-03     210.384E-03    -105.043E-03    -105.197E-03    -104.902E-03     210.226E-03    -105.181E-03     14.0541E-03    -34.3183E+06    -102.664E+06    -172.039E+06    -104.202E+06    -170.500E+06    -34.3183E+06    -10.1533E+06         36.5288
            1675     7.20338E-03     103.562E-03     204.099E-03     176.898E-03    -590.374E-03     180.273E-03    -590.044E-03     200.395E-03     3.22764E-03     210.240E-03    -104.954E-03    -105.231E-03    -104.755E-03     210.041E-03    -105.231E-03     15.8388E-03    -16.6267E+06    -92.4871E+06    -140.353E+06    -93.7901E+06    -139.050E+06    -16.6267E+06    -7.73593E+06         36.6384
            1676     8.10465E-03     103.581E-03     202.435E-03     182.030E-03    -591.457E-03     186.164E-03    -591.015E-03     197.860E-03     15.7294E-03     210.300E-03    -105.064E-03    -105.318E-03    -104.813E-03     210.048E-03    -105.318E-03     17.7491E-03     790.087E+03    -81.1956E+06    -112.439E+06    -83.4104E+06    -110.224E+06     790.087E+03    -7.25810E+06         36.7607
            1677     9.00470E-03     103.603E-03     198.344E-03     191.789E-03    -597.045E-03     193.161E-03    -596.460E-03     196.388E-03     28.3863E-03     210.573E-03    -105.258E-03    -105.366E-03    -104.956E-03     210.261E-03    -105.356E-03     19.8219E-03     14.9510E+06    -69.3209E+06    -92.7354E+06    -73.2579E+06    -88.7984E+06     14.9510E+06    -8.67509E+06         36.9172
            1678     9.90440E-03     103.627E-03     196.283E-03     187.768E-03    -591.490E-03     188.661E-03    -591.299E-03     195.198E-03     5.46221E-03     210.754E-03    -105.359E-03    -105.387E-03    -104.990E-03     210.375E-03    -105.377E-03     21.8300E-03     28.1336E+06    -49.3339E+06    -74.5960E+06    -62.3190E+06    -61.6109E+06     28.1336E+06    -9.62642E+06         37.1752
            1679     10.8057E-03     103.653E-03     193.844E-03     188.022E-03    -592.132E-03     187.797E-03    -591.908E-03     193.844E-03     15.1270E-03     210.796E-03    -105.294E-03    -105.445E-03    -104.920E-03     210.349E-03    -105.372E-03     23.7599E-03     38.2897E+06    -34.9153E+06    -57.1568E+06    -51.8508E+06    -40.2214E+06     38.2897E+06    -9.20412E+06         37.7203
            1680     11.7060E-03     103.681E-03     191.912E-03     171.280E-03    -573.593E-03     171.062E-03    -573.374E-03     191.912E-03     21.6833E-03     210.905E-03    -105.298E-03    -105.540E-03    -104.956E-03     210.384E-03    -105.362E-03     25.6166E-03     47.1286E+06    -5.74765E+06    -46.0979E+06    -42.7731E+06    -9.07245E+06     47.1286E+06    -7.47120E+06         38.8570
            1681     12.6064E-03     103.714E-03     188.679E-03     147.416E-03    -545.296E-03     147.101E-03    -544.981E-03     188.679E-03     21.7016E-03     210.893E-03    -105.279E-03    -105.576E-03    -104.896E-03     210.251E-03    -105.318E-03     28.4130E-03     69.4166E+06     44.8723E+06    -35.0158E+06    -34.6751E+06     54.1346E+06     59.8135E+06    -3.41533E+06         40.7032
            1682     13.5065E-03     103.749E-03     184.998E-03     148.642E-03    -543.726E-03     148.219E-03    -543.303E-03     184.998E-03     30.2916E-03     210.473E-03    -104.954E-03    -105.495E-03    -104.370E-03     209.736E-03    -105.343E-03     30.4612E-03     122.779E+06     80.3921E+06    -26.4966E+06    -26.4591E+06     122.742E+06     80.3921E+06     634.539E+03         43.2179
            1683     14.4082E-03     103.784E-03     182.098E-03     161.119E-03    -552.347E-03     160.876E-03    -552.105E-03     182.098E-03     12.8703E-03     210.354E-03    -104.915E-03    -105.414E-03    -103.938E-03     209.377E-03    -105.414E-03     34.8259E-03     165.670E+06     101.087E+06    -16.9219E+06    -16.8844E+06     165.633E+06     101.087E+06     1.10035E+06         46.1407
            1684     15.3092E-03     103.831E-03     179.801E-03     158.250E-03    -548.051E-03     158.081E-03    -547.882E-03     179.801E-03     8.01041E-03     210.348E-03    -104.808E-03    -105.540E-03    -103.950E-03     209.489E-03    -105.540E-03     32.1754E-03     174.187E+06     128.481E+06    -8.33618E+06    -8.33386E+06     174.185E+06     128.481E+06     508.168E+03         48.8296
            1685     900.023E-06     104.726E-03     380.917E-03     83.1607E-03    -655.739E-03    -81.3527E-03    -463.833E-03     353.524E-03     293.383E-03     209.290E-03    -104.396E-03    -104.912E-03    -104.399E-03     209.284E-03    -104.903E-03     2.52368E-03    -151.102E+06    -158.047E+06    -312.311E+06    -156.342E+06    -312.253E+06    -152.864E+06    -1.13401E+06         36.2322
            1686     1.80202E-03     104.729E-03     187.975E-03     142.494E-03    -516.180E-03     168.997E-03    -497.202E-03     142.494E-03    -17.4740E-03     209.047E-03    -104.439E-03    -104.664E-03    -104.435E-03     209.032E-03    -104.653E-03     4.21514E-03    -141.095E+06    -152.017E+06    -281.692E+06    -152.225E+06    -281.485E+06    -141.095E+06    -4.97584E+06         36.2619
            1687     2.70241E-03     104.734E-03     189.257E-03     152.831E-03    -533.683E-03     176.659E-03    -521.085E-03     152.831E-03     16.8952E-03     209.500E-03    -104.687E-03    -104.823E-03    -104.767E-03     209.467E-03    -104.710E-03     6.38379E-03    -121.280E+06    -143.923E+06    -269.525E+06    -144.326E+06    -269.122E+06    -121.280E+06    -6.76880E+06         36.2846
            1688     3.60313E-03     104.742E-03     185.942E-03     156.956E-03    -538.604E-03     178.246E-03    -532.859E-03     158.906E-03    -56.8308E-03     209.725E-03    -104.748E-03    -105.019E-03    -104.864E-03     209.671E-03    -104.849E-03     8.15489E-03    -97.5920E+06    -133.055E+06    -241.010E+06    -133.636E+06    -240.429E+06    -97.5920E+06    -7.53823E+06         36.3182
            1689     4.50293E-03     104.751E-03     170.175E-03     156.060E-03    -526.392E-03     164.008E-03    -525.418E-03     161.253E-03     27.0290E-03     209.631E-03    -104.759E-03    -104.991E-03    -104.735E-03     209.547E-03    -104.931E-03     10.2081E-03    -74.3117E+06    -122.303E+06    -207.536E+06    -122.959E+06    -206.881E+06    -74.3117E+06    -7.44002E+06         36.3862
            1690     5.40348E-03     104.764E-03     160.228E-03     147.203E-03    -510.082E-03     146.724E-03    -509.379E-03     160.004E-03     14.4640E-03     209.912E-03    -104.902E-03    -105.030E-03    -104.782E-03     209.793E-03    -105.030E-03     12.2011E-03    -51.8391E+06    -113.313E+06    -189.042E+06    -114.311E+06    -188.044E+06    -51.8391E+06    -8.38597E+06         36.4477
            1691     6.30414E-03     104.779E-03     159.060E-03     146.959E-03    -508.377E-03     147.705E-03    -507.733E-03     157.671E-03     31.5219E-03     210.120E-03    -104.940E-03    -105.066E-03    -104.780E-03     209.959E-03    -105.066E-03     14.1562E-03    -33.2337E+06    -103.578E+06    -170.595E+06    -105.177E+06    -168.996E+06    -33.2337E+06    -10.0505E+06         36.5177
            1692     7.20514E-03     104.796E-03     174.679E-03     156.191E-03    -531.666E-03     173.002E-03    -531.144E-03     157.344E-03    -536.684E-06     210.163E-03    -104.966E-03    -105.098E-03    -104.755E-03     209.951E-03    -105.098E-03     16.2911E-03    -17.9000E+06    -91.6906E+06    -142.047E+06    -93.8883E+06    -139.849E+06    -17.9000E+06    -9.96858E+06         36.6314
            1693     8.10463E-03     104.815E-03     174.642E-03     158.302E-03    -531.210E-03     173.687E-03    -530.471E-03     158.518E-03     8.12504E-03     210.270E-03    -105.080E-03    -105.228E-03    -104.848E-03     210.000E-03    -105.190E-03     18.4100E-03    -1.28048E+06    -77.0252E+06    -111.371E+06    -81.4406E+06    -106.956E+06    -1.28048E+06    -10.6688E+06         36.7573
            1694     9.00559E-03     104.837E-03     158.573E-03     153.642E-03    -509.470E-03     153.084E-03    -508.733E-03     158.394E-03     27.8000E-03     210.439E-03    -105.214E-03    -105.321E-03    -104.947E-03     210.111E-03    -105.261E-03     20.3055E-03     14.4952E+06    -63.3377E+06    -92.4347E+06    -69.4274E+06    -86.3449E+06     14.4952E+06    -11.7498E+06         36.9142
            1695     9.90639E-03     104.861E-03     157.114E-03     151.716E-03    -503.839E-03     151.452E-03    -503.575E-03     157.114E-03    -721.000E-06     210.644E-03    -105.292E-03    -105.412E-03    -105.021E-03     210.254E-03    -105.293E-03     22.1723E-03     28.7506E+06    -44.2734E+06    -73.9155E+06    -59.1277E+06    -59.0612E+06     28.7506E+06    -11.9183E+06         37.1702
            1696     10.8061E-03     104.887E-03     155.631E-03     146.367E-03    -495.732E-03     146.042E-03    -495.407E-03     155.631E-03     15.6545E-03     210.962E-03    -105.301E-03    -105.643E-03    -105.186E-03     210.506E-03    -105.302E-03     23.9807E-03     38.7614E+06    -30.9715E+06    -58.2099E+06    -50.1015E+06    -39.0799E+06     38.7614E+06    -11.9752E+06         37.7178
            1697     11.7059E-03     104.916E-03     153.671E-03     137.297E-03    -486.275E-03     136.929E-03    -485.907E-03     153.671E-03     26.5852E-03     211.082E-03    -105.314E-03    -105.696E-03    -105.162E-03     210.548E-03    -105.314E-03     25.9654E-03     46.4999E+06    -7.30083E+06    -46.9701E+06    -41.4096E+06    -12.8613E+06     46.4999E+06    -9.75388E+06         38.8589
            1698     12.6061E-03     104.948E-03     158.465E-03     138.621E-03    -493.571E-03     145.138E-03    -493.419E-03     151.795E-03     3.25056E-03     210.671E-03    -105.217E-03    -105.431E-03    -104.698E-03     210.014E-03    -105.293E-03     28.7334E-03      65.482E+06     40.8293E+06    -33.5018E+06    -32.8674E+06     47.2535E+06     58.4234E+06    -5.36283E+06         40.7087
            1699     13.5079E-03     104.983E-03     162.203E-03     142.303E-03    -503.117E-03     153.684E-03    -502.939E-03     150.645E-03    -675.887E-06     210.263E-03    -104.948E-03    -105.307E-03    -104.216E-03     209.532E-03    -105.307E-03     30.3361E-03     120.337E+06     81.0147E+06    -23.5782E+06    -23.4960E+06     120.255E+06     81.0147E+06    -2.17332E+06         43.2273
            1700     14.4087E-03     105.018E-03     154.429E-03     140.012E-03    -493.075E-03     144.731E-03    -492.906E-03     149.540E-03     5.72754E-03     210.390E-03    -105.010E-03    -105.350E-03    -104.044E-03     209.424E-03    -105.350E-03     34.5970E-03     165.138E+06     99.4013E+06    -15.7267E+06    -15.7208E+06     165.132E+06     99.4013E+06    -398.881E+03         46.1535
            1701     15.3100E-03     105.065E-03     147.891E-03     133.064E-03    -476.638E-03     132.737E-03    -476.311E-03     147.891E-03    -5.06353E-03     210.382E-03    -104.902E-03    -105.459E-03    -104.043E-03     209.523E-03    -105.459E-03     32.1786E-03     173.771E+06     124.821E+06     -8.4832E+06    -8.48122E+06     173.769E+06     124.821E+06     521.508E+03         48.8449
            1702     900.968E-06     105.958E-03     332.916E-03     53.5501E-03    -565.535E-03    -119.528E-03    -373.006E-03     313.466E-03     229.400E-03     208.751E-03    -103.943E-03    -104.817E-03    -104.442E-03     208.744E-03    -104.311E-03     2.92815E-03    -151.424E+06    -155.443E+06    -307.523E+06    -153.803E+06    -307.400E+06    -153.186E+06    -3.15777E+06         36.1935
            1703     1.80171E-03     105.959E-03     149.106E-03     101.905E-03    -432.866E-03     122.074E-03    -405.834E-03     101.905E-03    -26.2395E-03     208.678E-03    -104.183E-03    -104.547E-03    -104.318E-03     208.663E-03    -104.397E-03     4.22375E-03    -139.186E+06    -149.929E+06    -274.525E+06    -150.088E+06    -274.365E+06    -139.186E+06    -4.30137E+06         36.2234
            1704     2.70330E-03     105.967E-03     159.139E-03     112.432E-03    -455.144E-03     146.020E-03    -442.025E-03     112.432E-03     61.9547E-03     209.026E-03    -104.422E-03    -104.627E-03    -104.537E-03     208.993E-03    -104.480E-03     6.29220E-03    -120.481E+06    -144.137E+06    -263.369E+06    -144.563E+06    -262.943E+06    -120.481E+06    -6.81289E+06         36.2493
            1705     3.60340E-03     105.974E-03     146.902E-03     108.995E-03    -442.008E-03     130.478E-03    -435.836E-03     119.247E-03     4.02206E-03     209.322E-03    -104.579E-03    -104.781E-03    -104.686E-03     209.264E-03    -104.615E-03     8.43603E-03    -100.659E+06    -136.324E+06    -237.643E+06    -137.098E+06    -236.870E+06    -100.659E+06    -8.55764E+06         36.2902
            1706     4.50404E-03     105.984E-03     127.725E-03     100.650E-03    -420.244E-03     106.074E-03    -416.970E-03     119.027E-03     26.9192E-03     209.418E-03    -104.686E-03    -104.849E-03    -104.720E-03     209.324E-03    -104.720E-03     10.7786E-03    -77.7132E+06    -126.286E+06    -205.513E+06    -127.370E+06    -204.429E+06    -77.7132E+06    -8.86986E+06         36.3630
            1707     5.40461E-03     105.997E-03     126.328E-03     100.573E-03    -421.638E-03     109.338E-03    -420.735E-03     116.658E-03    -2.48308E-03     209.671E-03    -104.790E-03    -104.949E-03    -104.747E-03     209.537E-03    -104.858E-03     12.9454E-03    -52.4110E+06    -112.745E+06    -184.843E+06    -114.124E+06    -183.464E+06    -52.4110E+06    -9.51621E+06         36.4236
            1708     6.30515E-03     106.012E-03     135.694E-03     108.347E-03    -437.145E-03     127.076E-03    -436.488E-03     116.308E-03     32.8130E-03     209.957E-03    -104.844E-03    -105.025E-03    -104.790E-03     209.786E-03    -104.909E-03     14.6439E-03    -31.7329E+06    -99.3053E+06    -166.848E+06    -101.134E+06    -165.019E+06    -31.7329E+06    -10.7579E+06         36.4963
            1709     7.20512E-03     106.028E-03     139.541E-03     113.021E-03    -440.489E-03     134.167E-03    -439.678E-03     117.584E-03     13.0865E-03     210.060E-03    -104.902E-03    -105.036E-03    -104.778E-03     209.841E-03    -104.941E-03     16.5554E-03    -17.3167E+06    -85.9754E+06    -140.808E+06    -90.1330E+06    -136.650E+06    -17.3167E+06    -13.3545E+06         36.6187
            1710     8.10664E-03     106.049E-03     131.610E-03     113.802E-03    -433.258E-03     124.924E-03    -431.135E-03     118.366E-03     33.9603E-03     210.085E-03    -105.034E-03    -105.090E-03    -104.793E-03     209.806E-03    -105.051E-03     18.7256E-03    -2.18242E+06    -71.9194E+06    -110.642E+06    -79.1830E+06    -103.378E+06    -2.18242E+06    -14.6674E+06         36.7515
            1711     9.00632E-03     106.070E-03     123.824E-03     118.019E-03    -430.193E-03     121.694E-03    -428.216E-03     118.173E-03     13.7603E-03     210.429E-03    -105.145E-03    -105.376E-03    -105.031E-03     210.093E-03    -105.153E-03     20.5801E-03     13.5881E+06    -60.2261E+06    -92.7080E+06    -69.0858E+06    -83.8483E+06     13.5881E+06    -14.1761E+06         36.9108
            1712     9.90645E-03     106.095E-03     122.287E-03     115.811E-03    -422.748E-03     119.933E-03    -422.222E-03     117.639E-03    -13.5420E-03     210.810E-03    -105.213E-03    -105.633E-03    -105.236E-03     210.412E-03    -105.213E-03     22.4037E-03     27.8872E+06    -41.9131E+06    -75.2057E+06    -59.7435E+06    -57.3753E+06     27.8872E+06    -14.1964E+06         37.1666
            1713     10.8070E-03     106.121E-03     118.058E-03     107.158E-03    -408.877E-03     108.199E-03    -408.389E-03     116.529E-03     26.5142E-03     210.960E-03    -105.229E-03    -105.680E-03    -105.217E-03     210.496E-03    -105.229E-03     24.2006E-03     37.9049E+06    -28.8552E+06    -59.8865E+06    -50.4905E+06    -38.2512E+06     37.9049E+06    -13.8126E+06         37.7154
            1714     11.7069E-03     106.151E-03     123.777E-03     107.371E-03    -413.974E-03     115.415E-03    -413.525E-03     115.284E-03     26.3158E-03     210.908E-03    -105.232E-03    -105.553E-03    -105.004E-03     210.359E-03    -105.232E-03     26.3063E-03     45.0220E+06    -8.63162E+06    -48.7704E+06    -42.0235E+06    -15.3785E+06     45.0220E+06    -12.1123E+06         38.8607
            1715     12.6077E-03     106.181E-03     134.233E-03     114.803E-03    -431.913E-03     133.876E-03    -431.774E-03     115.021E-03     635.467E-06     210.627E-03    -105.190E-03    -105.389E-03    -104.685E-03     209.960E-03    -105.227E-03     28.9531E-03     61.3969E+06      36.594E+06    -34.8217E+06    -33.3521E+06     41.2288E+06     55.2924E+06    -8.64198E+06         40.7161
            1716     13.5077E-03     106.217E-03     134.838E-03     115.343E-03    -434.379E-03     134.679E-03    -434.221E-03     115.343E-03    -4.18590E-03     210.382E-03    -105.054E-03    -105.307E-03    -104.365E-03     209.636E-03    -105.250E-03     30.6395E-03     115.985E+06     77.0621E+06    -25.3285E+06    -25.0970E+06     115.754E+06     77.0621E+06    -4.55319E+06         43.2400
            1717     14.4091E-03     106.253E-03     128.957E-03     112.734E-03    -423.513E-03     126.269E-03    -423.327E-03     115.236E-03     4.63078E-03     210.574E-03    -105.117E-03    -105.423E-03    -104.268E-03     209.599E-03    -105.297E-03     34.8218E-03     163.834E+06     97.1788E+06    -16.7126E+06    -16.6869E+06     163.808E+06     97.1788E+06    -1.44288E+06         46.1703
            1718     15.3102E-03     106.298E-03     123.090E-03     107.421E-03    -409.863E-03     115.592E-03    -409.452E-03     114.508E-03    -2.09656E-03     210.473E-03    -104.925E-03    -105.533E-03    -104.190E-03     209.612E-03    -105.407E-03     32.2895E-03     173.727E+06     123.817E+06    -8.23339E+06    -8.23216E+06     173.726E+06     123.817E+06     154.394E+03         48.8643
            1719     901.746E-06     107.187E-03     300.622E-03     38.2524E-03    -521.090E-03    -125.968E-03    -324.725E-03     268.477E-03     198.790E-03     208.284E-03    -103.759E-03    -104.534E-03    -104.525E-03     208.278E-03    -103.763E-03     2.14145E-03    -150.878E+06    -153.017E+06    -301.081E+06    -152.789E+06    -300.946E+06    -151.241E+06    -3.06028E+06         36.1565
            1720     1.80253E-03     107.192E-03     128.117E-03     77.2896E-03    -383.713E-03     104.060E-03    -360.243E-03     77.8766E-03    -66.1023E-03     208.535E-03    -104.195E-03    -104.392E-03    -104.374E-03     208.520E-03    -104.198E-03     4.29335E-03    -140.947E+06    -150.319E+06    -269.243E+06    -150.474E+06    -269.088E+06    -140.947E+06    -4.20565E+06         36.1868
            1721     2.70277E-03     107.197E-03     105.281E-03     75.5114E-03    -358.795E-03     87.7953E-03    -350.576E-03     84.7770E-03     42.5599E-03     208.613E-03    -104.196E-03    -104.432E-03    -104.247E-03     208.579E-03    -104.347E-03     6.43788E-03    -118.706E+06    -143.652E+06    -256.468E+06    -143.980E+06    -256.140E+06    -118.706E+06    -5.93131E+06         36.2093
            1722     3.60464E-03     107.206E-03     84.6447E-03     62.1170E-03    -325.569E-03     60.0982E-03    -321.142E-03     82.2368E-03     11.8375E-03     208.667E-03    -104.249E-03    -104.452E-03    -104.184E-03     208.602E-03    -104.452E-03     8.93983E-03    -95.8573E+06    -134.899E+06    -232.887E+06    -135.536E+06    -232.250E+06    -95.8573E+06    -7.54099E+06         36.2506
            1723     4.50527E-03     107.216E-03     79.3479E-03     60.9918E-03    -319.184E-03     59.3274E-03    -315.487E-03     77.3148E-03     42.4361E-03     208.961E-03    -104.443E-03    -104.660E-03    -104.508E-03     208.862E-03    -104.495E-03     11.1423E-03    -75.2829E+06    -124.357E+06    -200.865E+06    -125.802E+06    -199.421E+06    -75.2829E+06    -9.86956E+06         36.3282
            1724     5.40570E-03     107.229E-03     86.9365E-03     66.5860E-03    -331.942E-03     76.6867E-03    -330.340E-03     75.2340E-03     7.77061E-03     209.322E-03    -104.614E-03    -104.853E-03    -104.711E-03     209.180E-03    -104.614E-03     13.2685E-03    -56.3469E+06    -113.313E+06    -181.527E+06    -115.646E+06    -179.194E+06    -56.3469E+06    -12.3143E+06         36.3929
            1725     6.30619E-03     107.244E-03     96.1238E-03     72.2080E-03    -345.435E-03     91.5791E-03    -344.656E-03     75.9742E-03    -993.349E-06     209.692E-03    -104.687E-03    -104.975E-03    -104.786E-03     209.502E-03    -104.687E-03     15.3970E-03    -37.8550E+06    -100.169E+06    -163.667E+06    -104.158E+06    -159.678E+06    -37.8550E+06    -14.2788E+06         36.4699
            1726     7.20688E-03     107.262E-03     94.5443E-03     72.5602E-03    -344.508E-03     87.4574E-03    -341.984E-03     77.1236E-03    -12.4505E-03     209.999E-03    -104.770E-03    -105.128E-03    -104.889E-03     209.761E-03    -104.771E-03     17.2786E-03    -19.5599E+06    -85.9553E+06    -137.370E+06    -92.4708E+06    -130.854E+06    -19.5599E+06    -16.0561E+06         36.6027
            1727     8.10645E-03     107.281E-03     89.3122E-03     72.7253E-03    -339.869E-03     81.1277E-03    -336.248E-03     77.2887E-03     22.7140E-03     210.058E-03    -104.922E-03    -105.198E-03    -104.899E-03     209.768E-03    -104.931E-03     19.0873E-03    -3.24492E+06    -72.0910E+06    -111.109E+06    -82.3098E+06    -100.890E+06    -3.24492E+06    -16.4688E+06         36.7449
            1728     9.00772E-03     107.304E-03     87.6250E-03     77.1624E-03    -342.015E-03     85.4168E-03    -339.807E-03     77.1624E-03     14.1367E-03     210.424E-03    -105.040E-03    -105.491E-03    -105.136E-03     210.078E-03    -105.048E-03     20.8958E-03     11.4107E+06    -59.8933E+06    -94.5748E+06    -72.3873E+06    -82.0808E+06     11.4107E+06    -16.4106E+06         36.9040
            1729     9.90765E-03     107.329E-03     88.0180E-03     76.2675E-03    -340.577E-03     85.9531E-03    -339.407E-03     77.1623E-03    -221.409E-06     210.751E-03    -105.127E-03    -105.672E-03    -105.261E-03     210.340E-03    -105.127E-03     22.7734E-03     26.0858E+06    -39.8599E+06    -77.6347E+06    -62.2998E+06    -55.1948E+06     26.0858E+06    -16.5233E+06         37.1566
            1730     10.8072E-03     107.356E-03     95.1483E-03     76.4799E-03    -346.677E-03     93.3801E-03    -345.804E-03     77.3747E-03     30.1390E-03     210.701E-03    -105.144E-03    -105.516E-03    -105.040E-03     210.224E-03    -105.144E-03     24.5121E-03     36.1555E+06    -26.3473E+06    -63.5685E+06    -52.6353E+06    -37.2805E+06     36.1555E+06    -16.3282E+06         37.7083
            1731     11.7081E-03     107.383E-03     109.794E-03     78.3653E-03    -362.678E-03     109.553E-03    -362.436E-03     78.3653E-03     8.42795E-03     210.692E-03    -105.138E-03    -105.453E-03    -104.892E-03     210.131E-03    -105.138E-03     26.5813E-03     43.7921E+06    -8.01860E+06    -51.5859E+06    -43.0944E+06    -16.5101E+06     43.7921E+06    -14.9573E+06         38.8617
            1732     12.6082E-03     107.416E-03     109.177E-03     79.6941E-03    -363.917E-03     109.059E-03    -363.798E-03     79.6941E-03     7.04563E-03     210.609E-03    -105.146E-03    -105.421E-03    -104.744E-03     209.931E-03    -105.146E-03     29.1999E-03     57.2858E+06     34.8565E+06    -36.3976E+06    -33.6463E+06     35.8375E+06     53.5535E+06    -12.6153E+06         40.7254
            1733     13.5096E-03     107.451E-03     96.6745E-03     80.3030E-03    -351.667E-03     96.4843E-03    -351.476E-03     80.3030E-03     15.5509E-03     210.528E-03    -105.138E-03    -105.390E-03    -104.572E-03     209.761E-03    -105.189E-03     31.0847E-03     109.993E+06     75.5844E+06    -25.1828E+06    -24.3614E+06     109.030E+06     75.7268E+06    -7.23578E+06         43.2565
            1734     14.4101E-03     107.488E-03     104.467E-03     80.5146E-03    -355.906E-03     104.279E-03    -355.718E-03     80.5146E-03     10.6579E-03     210.763E-03    -105.186E-03    -105.572E-03    -104.527E-03     209.768E-03    -105.237E-03     35.2296E-03     161.718E+06     95.9162E+06    -16.2059E+06    -16.1632E+06     161.675E+06     95.9162E+06    -2.45194E+06         46.1920
            1735     15.3105E-03     107.533E-03     117.023E-03     81.2329E-03    -367.937E-03     116.689E-03    -367.603E-03     81.2329E-03     17.2638E-03     210.530E-03    -104.922E-03    -105.586E-03    -104.285E-03     209.654E-03    -105.347E-03     32.6508E-03     173.024E+06     120.658E+06    -8.38878E+06    -8.37808E+06     173.013E+06     120.658E+06    -671.500E+03         48.8893
            1736     900.712E-06     108.419E-03     276.569E-03    -2.96184E-03    -446.546E-03    -149.666E-03    -282.963E-03     259.689E-03     144.936E-03     207.857E-03    -103.648E-03    -104.222E-03    -103.906E-03     207.849E-03    -103.957E-03     2.51155E-03    -152.484E+06    -155.490E+06    -296.058E+06    -154.926E+06    -295.985E+06    -153.121E+06    -969.615E+03         36.0997
            1737     1.80224E-03     108.422E-03     65.6435E-03     43.4776E-03    -278.645E-03     24.1599E-03    -242.448E-03     48.7640E-03    -67.7927E-03     207.748E-03    -103.794E-03    -103.982E-03    -103.816E-03     207.725E-03    -103.938E-03     5.12699E-03    -140.439E+06    -152.026E+06    -263.458E+06    -152.205E+06    -263.279E+06    -140.439E+06    -3.17044E+06         36.1354
            1738     2.70388E-03     108.428E-03     36.8427E-03     22.5978E-03    -229.995E-03     490.897E-06    -207.381E-03     36.3360E-03     975.776E-06     208.196E-03    -103.900E-03    -104.278E-03    -104.072E-03     208.151E-03    -104.060E-03     7.37793E-03    -118.521E+06    -144.376E+06    -250.007E+06    -144.817E+06    -249.566E+06    -118.521E+06    -6.67590E+06         36.1632
            1739     3.60482E-03     108.436E-03     51.3925E-03     20.6829E-03    -240.948E-03     35.5819E-03    -235.006E-03     30.5506E-03    -61.0679E-03     208.297E-03    -103.961E-03    -104.369E-03    -104.060E-03     208.223E-03    -104.196E-03     9.54669E-03    -96.5028E+06    -133.800E+06    -228.663E+06    -134.534E+06    -227.929E+06    -96.5028E+06    -8.01193E+06         36.2079
            1740     4.50631E-03     108.449E-03     69.5951E-03     32.7239E-03    -267.886E-03     66.0581E-03    -265.538E-03     33.9130E-03     2.98984E-03     208.324E-03    -104.120E-03    -104.336E-03    -104.104E-03     208.211E-03    -104.239E-03     11.8396E-03    -76.3389E+06    -123.909E+06    -195.451E+06    -125.069E+06    -194.291E+06    -76.3389E+06    -8.53879E+06         36.2900
            1741     5.40713E-03     108.461E-03     52.2181E-03     25.8077E-03    -243.523E-03     39.4833E-03    -241.852E-03     36.8712E-03     21.1192E-03     208.895E-03    -104.356E-03    -104.725E-03    -104.570E-03     208.740E-03    -104.357E-03     13.8812E-03    -56.4524E+06    -113.322E+06    -173.422E+06    -116.430E+06    -170.314E+06    -56.4524E+06    -12.4177E+06         36.3608
            1742     6.30794E-03     108.477E-03     37.4772E-03     16.7146E-03    -218.737E-03     17.7391E-03    -217.608E-03     35.3236E-03    -4.09037E-03     209.450E-03    -104.456E-03    -105.016E-03    -104.816E-03     209.249E-03    -104.456E-03     15.8437E-03    -38.4195E+06    -100.059E+06    -158.711E+06    -106.283E+06    -152.486E+06    -38.4195E+06    -17.6229E+06         36.4413
            1743     7.20809E-03     108.495E-03     51.7983E-03     26.4091E-03    -240.615E-03     41.7421E-03    -238.104E-03     33.9546E-03    -21.2861E-03     209.881E-03    -104.566E-03    -105.197E-03    -104.946E-03     209.629E-03    -104.566E-03     17.7773E-03    -20.2548E+06    -85.3942E+06    -136.124E+06    -94.3535E+06    -127.164E+06    -20.2548E+06    -18.9737E+06         36.5812
            1744     8.10885E-03     108.515E-03     64.6124E-03     35.1398E-03    -261.404E-03     60.2583E-03    -257.050E-03     35.1398E-03     17.5909E-03     210.261E-03    -104.771E-03    -105.539E-03    -105.234E-03     209.955E-03    -104.771E-03     19.6171E-03    -3.27822E+06    -70.1235E+06    -111.195E+06    -82.8364E+06    -98.4824E+06    -3.27822E+06    -18.4487E+06         36.7329
            1745     9.00775E-03     108.538E-03     56.8623E-03     36.6256E-03    -258.105E-03     53.6815E-03    -254.924E-03     36.6256E-03     13.1240E-03     210.427E-03    -104.939E-03    -105.639E-03    -105.276E-03     210.065E-03    -104.939E-03     21.3702E-03     11.4410E+06    -56.9652E+06    -95.2878E+06    -72.6213E+06    -79.6317E+06     11.4410E+06    -18.6345E+06         36.8883
            1746     9.90819E-03     108.563E-03     61.2152E-03     37.6909E-03    -266.617E-03     59.8913E-03    -265.294E-03     37.6909E-03    -3.36588E-03     210.302E-03    -105.027E-03    -105.391E-03    -104.966E-03     209.879E-03    -105.028E-03     23.0691E-03     25.9450E+06    -36.5264E+06    -79.2450E+06    -63.1635E+06    -52.6078E+06     25.9450E+06    -18.6360E+06         37.1334
            1747     10.8092E-03     108.589E-03     82.3658E-03     39.6353E-03    -286.615E-03     81.6418E-03    -285.891E-03     39.6353E-03     22.8207E-03     210.380E-03    -105.025E-03    -105.347E-03    -104.851E-03     209.886E-03    -105.027E-03     24.9416E-03     36.4882E+06    -21.4665E+06    -66.3269E+06    -53.5939E+06    -34.1996E+06     36.4882E+06    -19.5325E+06         37.6938
            1748     11.7092E-03     108.618E-03     86.3909E-03     42.2227E-03    -287.902E-03     86.2187E-03    -287.729E-03     42.2227E-03     5.53677E-03     210.568E-03    -105.024E-03    -105.490E-03    -104.899E-03     209.977E-03    -105.024E-03     27.2753E-03     43.4028E+06    -5.37477E+06    -55.2963E+06    -43.3310E+06    -17.3400E+06     43.4028E+06    -19.6487E+06         38.8623
            1749     12.6100E-03     108.650E-03     75.9022E-03     44.0997E-03    -278.696E-03     75.7431E-03    -278.537E-03     44.0997E-03     2.96503E-03     210.652E-03    -105.060E-03    -105.584E-03    -104.873E-03     209.941E-03    -105.060E-03     29.9321E-03     56.6311E+06     35.1656E+06    -37.9628E+06    -32.8429E+06     33.0937E+06     53.5831E+06    -17.2129E+06         40.7373
            1750     13.5100E-03     108.685E-03     78.8233E-03     45.3246E-03    -282.624E-03     78.6375E-03    -282.438E-03     45.3246E-03     3.16540E-03     210.683E-03    -105.112E-03    -105.598E-03    -104.804E-03     209.890E-03    -105.112E-03     31.6309E-03     102.909E+06     74.4075E+06    -24.4100E+06    -22.9100E+06     101.267E+06     74.5499E+06    -10.7963E+06         43.2775
            1751     14.4106E-03     108.722E-03     92.4805E-03     46.7924E-03    -298.243E-03     92.3947E-03    -298.157E-03     46.7924E-03    -6.54700E-03     210.769E-03    -105.145E-03    -105.652E-03    -104.633E-03     209.750E-03    -105.145E-03     35.6586E-03     154.968E+06     90.9754E+06    -14.9263E+06    -14.7739E+06     154.815E+06     90.9754E+06    -3.35016E+06         46.2198
            1752     15.3121E-03     108.767E-03     111.669E-03     49.0166E-03    -319.326E-03     111.416E-03    -319.073E-03     49.0166E-03     6.83978E-03     210.546E-03    -104.940E-03    -105.571E-03    -104.357E-03     209.654E-03    -105.261E-03     32.9222E-03     172.359E+06     115.823E+06    -7.89107E+06    -7.87949E+06     172.347E+06     115.823E+06    -670.355E+03         48.9212
            1753     901.966E-06     109.648E-03     234.029E-03    -14.6297E-03    -360.985E-03    -201.083E-03    -157.758E-03     217.256E-03     107.953E-03     206.760E-03    -103.213E-03    -103.559E-03    -103.222E-03     206.751E-03    -103.540E-03     3.22326E-03    -150.109E+06    -154.110E+06    -292.443E+06    -153.950E+06    -292.330E+06    -150.382E+06    -1.90112E+06         36.0265
            1754     1.80392E-03     109.651E-03     38.9946E-03    -4.30653E-03    -184.751E-03    -29.3684E-03    -121.087E-03     392.765E-06    -2.97343E-03     206.728E-03    -103.247E-03    -103.488E-03    -103.320E-03     206.700E-03    -103.387E-03     5.66843E-03    -138.304E+06    -148.604E+06    -258.791E+06    -148.771E+06    -258.624E+06    -138.304E+06    -2.73898E+06         36.0685
            1755     2.70573E-03     109.658E-03     13.8654E-03    -14.5641E-03    -148.796E-03    -27.2469E-03    -112.157E-03    -10.0916E-03     77.8057E-03     207.397E-03    -103.521E-03    -103.857E-03    -103.756E-03     207.340E-03    -103.565E-03     8.33802E-03    -119.279E+06    -142.818E+06    -242.318E+06    -143.201E+06    -241.935E+06    -119.279E+06    -5.49414E+06         36.1092
            1756     3.60626E-03     109.667E-03     10.2360E-03    -12.5728E-03    -149.575E-03    -4.93397E-03    -134.750E-03    -12.2275E-03    -20.2628E-03     207.929E-03    -103.724E-03    -104.257E-03    -104.098E-03     207.838E-03    -103.793E-03     10.5814E-03    -97.7648E+06    -134.402E+06    -224.000E+06    -135.304E+06    -223.098E+06    -97.7648E+06    -8.69626E+06         36.1620
            1757     4.50754E-03     109.677E-03     28.7161E-03    -9.58517E-03    -172.380E-03     14.8063E-03    -158.815E-03    -9.23993E-03     5.89111E-03     208.080E-03    -103.859E-03    -104.307E-03    -104.108E-03     207.950E-03    -103.928E-03     12.6959E-03    -76.3147E+06    -123.134E+06    -192.171E+06    -124.726E+06    -190.579E+06    -76.3147E+06    -9.84599E+06         36.2480
            1758     5.40913E-03     109.693E-03     30.0252E-03    -12.5331E-03    -171.174E-03     19.9675E-03    -168.414E-03    -5.23578E-03     32.3094E-03     208.493E-03    -104.096E-03    -104.522E-03    -104.351E-03     208.322E-03    -104.096E-03     14.6034E-03    -51.7787E+06    -109.262E+06    -163.248E+06    -112.825E+06    -159.685E+06    -51.7787E+06    -12.5733E+06         36.3235
            1759     6.30889E-03     109.709E-03     23.2722E-03    -17.8057E-03    -158.253E-03     6.96876E-03    -156.792E-03    -2.96292E-03     29.0170E-03     209.280E-03    -104.239E-03    -105.061E-03    -104.844E-03     209.063E-03    -104.239E-03     16.4688E-03    -31.4205E+06    -95.3144E+06    -149.426E+06    -102.368E+06    -142.373E+06    -31.4205E+06    -17.9571E+06         36.4059
            1760     7.20963E-03     109.727E-03     14.7613E-03    -16.3597E-03    -145.999E-03     175.651E-06    -145.190E-03    -2.58318E-03     20.2516E-03     209.897E-03    -104.360E-03    -105.392E-03    -105.121E-03     209.626E-03    -104.360E-03     18.4298E-03    -17.7761E+06    -81.8168E+06    -134.684E+06    -92.9891E+06    -123.512E+06    -17.7761E+06    -21.0764E+06         36.5469
            1761     8.10925E-03     109.748E-03     20.8652E-03    -8.76065E-03    -161.303E-03     5.19980E-03    -151.869E-03    -2.52960E-03     62.3513E-03     210.104E-03    -104.582E-03    -105.532E-03    -105.207E-03     209.779E-03    -104.582E-03     20.2049E-03    -3.62775E+06    -68.1580E+06    -112.095E+06    -83.3693E+06    -96.8836E+06    -3.62775E+06    -20.5430E+06         36.7048
            1762     9.00965E-03     109.772E-03     28.0054E-03    -1.75132E-03    -178.639E-03     18.2338E-03    -168.868E-03    -1.75132E-03     31.1814E-03     210.098E-03    -104.775E-03    -105.465E-03    -105.078E-03     209.712E-03    -104.775E-03     22.0486E-03     11.7510E+06    -54.8190E+06    -94.8022E+06    -73.7471E+06    -75.8740E+06     11.7510E+06    -19.7638E+06         36.8611
            1763     9.90987E-03     109.795E-03     39.5485E-03     261.108E-06    -192.169E-03     38.5753E-03    -191.196E-03     261.108E-06    -20.1286E-03     209.987E-03    -104.854E-03    -105.235E-03    -104.774E-03     209.528E-03    -104.856E-03     24.0163E-03     26.1308E+06    -33.4692E+06    -79.7113E+06    -63.9658E+06    -49.2147E+06     26.1308E+06    -21.0993E+06         37.1059
            1764     10.8104E-03     109.824E-03     51.9277E-03     3.22509E-03    -206.060E-03     51.5248E-03    -205.657E-03     3.22509E-03     11.4332E-03     210.093E-03    -104.858E-03    -105.295E-03    -104.761E-03     209.560E-03    -104.860E-03     25.8616E-03     36.5037E+06    -15.7866E+06    -67.3872E+06    -53.8875E+06    -29.2863E+06     36.5037E+06    -22.6075E+06         37.6786
            1765     11.7112E-03     109.852E-03     48.9672E-03     6.01215E-03    -202.382E-03     48.6565E-03    -202.071E-03     6.01215E-03     14.1242E-03     210.465E-03    -104.879E-03    -105.601E-03    -104.981E-03     209.846E-03    -104.879E-03     27.9325E-03     42.8042E+06    -1.14832E+06    -58.1591E+06    -44.1121E+06    -15.1953E+06     42.8042E+06    -24.4040E+06         38.8646
            1766     12.6116E-03     109.884E-03     55.6601E-03     8.39588E-03    -209.493E-03     55.6051E-03    -209.438E-03     8.39588E-03    -152.446E-06     210.761E-03    -104.935E-03    -105.815E-03    -105.065E-03     210.010E-03    -104.935E-03     30.7423E-03     54.4842E+06     32.7101E+06    -43.4493E+06    -35.1400E+06     28.7479E+06     50.1371E+06    -21.5349E+06         40.7538
            1767     13.5118E-03     109.921E-03     77.8489E-03     11.3256E-03    -235.229E-03     77.5530E-03    -234.933E-03     11.3256E-03     4.04350E-03     210.752E-03    -104.994E-03    -105.790E-03    -104.962E-03     209.924E-03    -104.994E-03     32.3327E-03     93.6298E+06     68.7487E+06    -29.0058E+06    -26.8923E+06     91.5164E+06     68.7487E+06    -14.6437E+06         43.3057
            1768     14.4127E-03     109.956E-03     85.4764E-03     14.7426E-03    -249.764E-03     85.2002E-03    -249.488E-03     14.7426E-03     4.77973E-03     210.819E-03    -105.016E-03    -105.834E-03    -104.790E-03     209.775E-03    -105.016E-03     36.1048E-03     145.423E+06     82.3586E+06    -17.4215E+06    -16.8453E+06     144.847E+06     82.3586E+06    -7.16313E+06         46.2565
            1769     15.3128E-03     110.003E-03     89.4351E-03     18.0579E-03    -259.826E-03     89.1507E-03    -259.541E-03     18.0579E-03    -3.87744E-03     210.811E-03    -105.034E-03    -105.780E-03    -104.743E-03     209.900E-03    -105.160E-03     33.2281E-03     170.760E+06     110.119E+06    -7.12679E+06    -7.08649E+06     170.720E+06     110.119E+06    -1.07488E+06         48.9615
            1770     902.396E-06     110.876E-03     170.583E-03    -947.996E-06    -294.965E-03    -240.815E-03    -14.2548E-03     129.740E-03     112.127E-03     205.512E-03    -102.590E-03    -102.934E-03    -102.903E-03     205.503E-03    -102.611E-03     2.96617E-03    -144.869E+06    -150.772E+06    -288.438E+06    -149.564E+06    -288.351E+06    -146.165E+06    -578.924E+03         35.9514
            1771     1.80456E-03     110.880E-03     23.7829E-03    -37.1969E-03    -113.704E-03    -33.7477E-03    -42.0701E-03    -51.3005E-03     12.9716E-03     205.905E-03    -102.801E-03    -103.116E-03    -103.086E-03     205.876E-03    -102.801E-03     5.81701E-03    -136.127E+06    -145.854E+06    -254.013E+06    -146.034E+06    -253.834E+06    -136.127E+06    -3.37805E+06         36.0006
            1772     2.70629E-03     110.887E-03     12.0551E-03    -34.0625E-03    -111.432E-03    -17.9424E-03    -72.5241E-03    -42.9725E-03     26.6925E-03     206.480E-03    -103.056E-03    -103.401E-03    -103.342E-03     206.421E-03    -103.056E-03     8.43640E-03    -116.333E+06    -138.665E+06    -234.985E+06    -139.049E+06    -234.601E+06    -116.333E+06    -5.42195E+06         36.0516
            1773     3.60920E-03     110.896E-03    -8.36439E-03    -40.1488E-03    -93.6621E-03    -45.6686E-03    -56.7032E-03    -39.8036E-03    -17.0802E-03     207.209E-03    -103.358E-03    -103.892E-03    -103.793E-03     207.110E-03    -103.358E-03     11.0398E-03    -90.6694E+06    -128.753E+06    -218.071E+06    -129.620E+06    -217.204E+06    -90.6694E+06    -8.56012E+06         36.1078
            1774     4.50926E-03     110.909E-03    -8.99110E-03    -43.2932E-03    -91.7088E-03    -64.0816E-03    -36.9636E-03    -42.9480E-03     26.3754E-03     207.907E-03    -103.583E-03    -104.378E-03    -104.232E-03     207.761E-03    -103.583E-03     13.4481E-03    -69.6188E+06    -117.559E+06    -187.779E+06    -119.561E+06    -185.776E+06    -69.6188E+06    -11.0623E+06         36.1930
            1775     5.40966E-03     110.922E-03     8.87584E-03    -44.2136E-03    -108.122E-03    -29.4521E-03    -69.7944E-03    -44.2136E-03     42.6046E-03     208.137E-03    -103.777E-03    -104.420E-03    -104.224E-03     207.940E-03    -103.777E-03     15.6093E-03    -49.3967E+06    -105.765E+06    -155.542E+06    -109.871E+06    -151.435E+06    -49.3967E+06    -13.2485E+06         36.2735
            1776     6.31164E-03     110.941E-03     6.73744E-03    -40.8570E-03    -108.702E-03    -3.74325E-03    -98.2212E-03    -40.8570E-03     22.8970E-03     208.848E-03    -103.954E-03    -104.897E-03    -104.643E-03     208.595E-03    -103.954E-03     17.7847E-03    -28.2699E+06    -92.4103E+06    -139.244E+06    -100.254E+06    -131.401E+06    -28.2699E+06    -17.1852E+06         36.3595
            1777     7.21093E-03     110.960E-03    -11.2154E-03    -44.1162E-03    -86.6570E-03    -22.6224E-03    -81.4811E-03    -37.8851E-03    -8.14892E-03     209.739E-03    -104.118E-03    -105.474E-03    -105.163E-03     209.428E-03    -104.118E-03     19.7585E-03    -13.3024E+06    -80.7595E+06    -129.476E+06    -91.6932E+06    -118.542E+06    -13.3024E+06    -20.2042E+06         36.5001
            1778     8.11143E-03     110.982E-03    -14.9220E-03    -43.3458E-03    -81.2182E-03    -33.1067E-03    -69.0268E-03    -37.3525E-03     23.1113E-03     209.695E-03    -104.343E-03    -105.327E-03    -104.963E-03     209.331E-03    -104.343E-03     21.3747E-03    -1.31239E+06    -66.7687E+06    -111.497E+06    -83.1736E+06    -95.0925E+06    -1.31239E+06    -20.5243E+06         36.6627
            1779     9.01177E-03     111.004E-03     1.48309E-03    -36.0402E-03    -102.419E-03    -6.68082E-03    -94.0173E-03    -36.2779E-03     15.2574E-03     209.525E-03    -104.517E-03    -105.106E-03    -104.685E-03     209.103E-03    -104.517E-03     22.9856E-03     12.3845E+06    -49.5362E+06    -93.6887E+06    -73.0631E+06    -70.1618E+06     12.3845E+06    -21.9946E+06         36.8255
            1780     9.91275E-03     111.029E-03     15.1035E-03    -33.5856E-03    -117.714E-03     7.37367E-03    -109.984E-03    -33.5856E-03     1.35109E-03     209.717E-03    -104.587E-03    -105.190E-03    -104.692E-03     209.220E-03    -104.587E-03     24.9750E-03     26.3230E+06    -27.7022E+06    -79.6984E+06    -62.6752E+06    -44.7254E+06     26.3230E+06    -23.6201E+06         37.0794
            1781     10.8133E-03     111.055E-03     14.2553E-03    -30.9766E-03    -119.611E-03     3.95105E-03    -109.307E-03    -30.9766E-03     35.7526E-03     210.083E-03    -104.630E-03    -105.577E-03    -105.002E-03     209.507E-03    -104.630E-03     26.9198E-03     36.7397E+06    -9.47406E+06    -67.8922E+06    -53.3357E+06    -24.0305E+06     36.7397E+06    -25.2142E+06         37.6686
            1782     11.7134E-03     111.085E-03     27.0061E-03    -28.3268E-03    -137.094E-03     23.0245E-03    -133.112E-03    -28.3268E-03     30.0242E-03     210.563E-03    -104.707E-03    -105.956E-03    -105.306E-03     209.913E-03    -104.707E-03     28.6490E-03     43.8517E+06     6.15095E+06    -59.7757E+06    -44.1817E+06    -9.44299E+06     43.8517E+06    -27.8917E+06         38.8725
            1783     12.6132E-03     111.118E-03     54.1977E-03    -24.3951E-03    -168.299E-03     53.6742E-03    -167.775E-03    -24.3951E-03     9.99335E-03     210.748E-03    -104.789E-03    -105.958E-03    -105.180E-03     209.970E-03    -104.789E-03     31.3075E-03     51.6309E+06     34.9220E+06    -45.6462E+06    -34.0610E+06     24.9274E+06     50.0403E+06    -26.9735E+06         40.7769
            1784     13.5141E-03     111.154E-03     66.9024E-03    -19.6029E-03    -185.453E-03     66.3738E-03    -184.924E-03    -19.6029E-03     15.7281E-03     210.865E-03    -104.864E-03    -106.035E-03    -105.173E-03     210.002E-03    -104.864E-03     33.0126E-03     82.4633E+06     66.8025E+06    -27.5747E+06    -22.7302E+06     77.6188E+06     66.8025E+06    -19.4505E+06         43.3425
            1785     14.4137E-03     111.191E-03     68.5972E-03    -15.0680E-03    -189.784E-03     67.9557E-03    -189.142E-03    -15.0680E-03     22.8759E-03     211.329E-03    -104.904E-03    -106.448E-03    -105.407E-03     210.289E-03    -104.904E-03     36.1566E-03     136.767E+06     79.8923E+06    -15.6413E+06    -14.7405E+06     135.866E+06     79.8923E+06    -9.97342E+06         46.3023
            1786     15.3147E-03     111.236E-03     68.0596E-03    -11.0852E-03    -191.848E-03     67.5565E-03    -191.345E-03    -11.0852E-03     5.19147E-03     211.382E-03    -105.102E-03    -106.295E-03    -105.405E-03     210.492E-03    -105.102E-03     32.9640E-03     167.602E+06     108.614E+06    -8.43658E+06    -8.34269E+06     167.508E+06     108.614E+06    -2.50776E+06         49.0095
            1787     903.080E-06     112.102E-03     154.569E-03     14.7915E-03    -282.039E-03    -257.347E-03     99.2084E-03     45.4598E-03     39.1531E-03     204.432E-03    -101.963E-03    -102.474E-03    -102.461E-03     204.418E-03    -101.963E-03     3.56162E-03    -145.863E+06    -150.051E+06    -286.155E+06    -148.713E+06    -286.046E+06    -147.309E+06    -1.68147E+06         35.8671
            1788     1.80554E-03     112.108E-03     55.4466E-03    -70.4335E-03    -97.2611E-03    -61.8096E-03     46.8228E-03    -97.2611E-03    -41.7723E-03     204.958E-03    -102.275E-03    -102.705E-03    -102.668E-03     204.920E-03    -102.275E-03     6.67491E-03    -132.466E+06    -143.849E+06    -248.175E+06    -143.832E+06    -248.041E+06    -132.617E+06    -2.83146E+06         35.9266
            1789     2.70785E-03     112.115E-03     41.1405E-03    -62.1614E-03    -95.9424E-03    -52.8589E-03     19.4726E-03    -83.5770E-03    -21.0411E-03     205.703E-03    -102.543E-03    -103.140E-03    -103.069E-03     205.632E-03    -102.543E-03     9.22669E-03    -111.823E+06    -136.506E+06    -227.431E+06    -137.003E+06    -226.934E+06    -111.823E+06    -6.29529E+06         35.9865
            1790     3.60885E-03     112.125E-03     33.8688E-03    -66.1375E-03    -94.9178E-03    -61.6559E-03     11.3959E-03    -76.9266E-03    -23.0228E-03     206.331E-03    -102.886E-03    -103.448E-03    -103.330E-03     206.212E-03    -102.886E-03     11.9919E-03    -89.3326E+06    -127.114E+06    -211.539E+06    -128.101E+06    -210.552E+06    -89.3326E+06    -8.94952E+06         36.0421
            1791     4.51175E-03     112.139E-03     23.2955E-03    -65.5398E-03    -89.4716E-03    -78.1079E-03     22.0791E-03    -75.6871E-03     3.14596E-03     206.899E-03    -103.156E-03    -103.770E-03    -103.595E-03     206.724E-03    -103.156E-03     14.6504E-03    -66.8326E+06    -115.875E+06    -182.203E+06    -117.867E+06    -180.211E+06    -66.8326E+06    -10.7522E+06         36.1216
            1792     5.41291E-03     112.155E-03     41.6664E-03    -76.3608E-03    -98.3850E-03    -92.8636E-03     37.4286E-03    -77.6444E-03     9.17588E-03     207.654E-03    -103.338E-03    -104.380E-03    -104.147E-03     207.421E-03    -103.338E-03     16.9960E-03    -46.3723E+06    -103.685E+06    -149.506E+06    -107.968E+06    -145.223E+06    -46.3723E+06    -12.8416E+06         36.2070
            1793     6.31281E-03     112.171E-03     39.4064E-03    -79.1609E-03    -92.5911E-03    -79.0993E-03     26.1755E-03    -79.4218E-03     2.04192E-03     208.319E-03    -103.558E-03    -104.829E-03    -104.528E-03     208.018E-03    -103.558E-03     19.3503E-03    -25.4641E+06    -90.8248E+06    -129.985E+06    -98.9505E+06    -121.859E+06    -25.4641E+06     -15.524E+06         36.2980
            1794     7.21438E-03     112.194E-03     9.92629E-03    -58.7959E-03    -79.3356E-03    -45.4664E-03    -4.72980E-03    -78.0090E-03    -9.29868E-03     208.875E-03    -103.760E-03    -105.025E-03    -104.668E-03     208.518E-03    -103.760E-03     21.1487E-03    -8.50291E+06    -77.9171E+06    -122.704E+06    -89.0354E+06    -111.586E+06    -8.50291E+06    -19.2131E+06         36.4395
            1795     8.11436E-03     112.213E-03    -10.9042E-03    -40.7887E-03    -74.5478E-03    -22.7440E-03    -29.6881E-03    -73.8087E-03     2.24324E-03     209.137E-03    -103.961E-03    -105.127E-03    -104.716E-03     208.727E-03    -103.961E-03     22.6598E-03     3.14561E+06    -60.8824E+06    -108.333E+06    -78.2146E+06    -91.0011E+06     3.14561E+06    -21.6437E+06         36.6128
            1796     9.01520E-03     112.237E-03     1.17057E-03    -46.9116E-03    -78.4142E-03    -15.0677E-03    -40.1575E-03    -68.9300E-03    -12.4961E-03     209.312E-03    -104.140E-03    -105.220E-03    -104.747E-03     208.839E-03    -104.140E-03     24.3574E-03     15.2260E+06    -41.2043E+06    -89.7516E+06    -68.2722E+06    -62.6837E+06     15.2260E+06    -24.0141E+06         36.7912
            1797     9.91564E-03     112.261E-03     7.68805E-03    -48.9271E-03    -83.4480E-03    -19.0845E-03    -40.7861E-03    -64.8165E-03     9.30941E-03     209.743E-03    -104.268E-03    -105.512E-03    -104.978E-03     209.208E-03    -104.268E-03     25.9265E-03     28.0329E+06    -23.5580E+06    -77.6301E+06    -59.4271E+06    -41.7610E+06     28.0329E+06    -25.0289E+06         37.0609
            1798     10.8161E-03     112.290E-03    -1.48344E-03    -46.3181E-03    -79.2077E-03    -18.3021E-03    -47.0957E-03    -61.6113E-03     52.1887E-03     210.184E-03    -104.369E-03    -105.934E-03    -105.327E-03     209.577E-03    -104.369E-03     27.6477E-03     39.4181E+06    -3.36418E+06    -66.0566E+06    -51.8788E+06    -17.5420E+06     39.4181E+06    -25.6802E+06         37.6679
            1799     11.7155E-03     112.320E-03     9.53335E-03    -44.5500E-03    -90.6721E-03     2.79501E-03    -70.3299E-03    -58.1538E-03     21.5497E-03     210.615E-03    -104.493E-03    -106.238E-03    -105.549E-03     209.926E-03    -104.493E-03     29.4820E-03     47.6212E+06     17.7776E+06    -60.2183E+06    -44.0856E+06     1.64494E+06     47.6212E+06    -31.2111E+06         38.8889
            1800     12.6160E-03     112.352E-03     29.0426E-03    -46.9809E-03    -107.096E-03     26.4406E-03    -97.7787E-03    -53.6959E-03    -3.43474E-03     211.053E-03    -104.619E-03    -106.461E-03    -105.658E-03     210.250E-03    -104.619E-03     31.8634E-03     50.9028E+06     37.7706E+06    -50.2200E+06    -34.4009E+06     22.2431E+06     50.6113E+06    -33.5940E+06         40.8077
            1801     13.5158E-03     112.388E-03     39.5876E-03    -48.2866E-03    -116.468E-03     39.1383E-03    -115.553E-03    -48.7524E-03     219.822E-06     211.373E-03    -104.740E-03    -106.677E-03    -105.805E-03     210.502E-03    -104.740E-03     33.2498E-03     69.7023E+06     61.4811E+06    -33.6515E+06    -25.8825E+06     60.8085E+06     62.6059E+06    -23.7873E+06         43.3858
            1802     14.4160E-03     112.427E-03     52.4177E-03    -43.7765E-03    -133.223E-03     51.9264E-03    -132.731E-03    -43.7765E-03     7.66805E-03     211.985E-03    -104.850E-03    -107.173E-03    -106.132E-03     210.945E-03    -104.850E-03     36.2632E-03     126.861E+06     80.7769E+06    -19.0933E+06    -17.9002E+06     125.668E+06     80.7769E+06    -10.9946E+06         46.3538
            1803     15.3135E-03     112.473E-03     69.9001E-03    -38.5182E-03    -151.778E-03     69.5629E-03    -151.441E-03    -38.5182E-03     7.22940E-03     211.834E-03    -105.082E-03    -106.754E-03    -105.875E-03     210.955E-03    -105.082E-03     32.7988E-03     163.668E+06     110.322E+06    -9.79654E+06    -9.65204E+06     163.523E+06     110.322E+06    -4.11770E+06         49.0635
            1804     903.512E-06     113.328E-03     198.523E-03    -8.03983E-03    -291.469E-03    -269.542E-03     184.738E-03    -16.1814E-03    -57.4606E-03     203.385E-03    -101.573E-03    -101.812E-03    -101.794E-03     203.368E-03    -101.573E-03     4.36157E-03    -142.182E+06    -144.000E+06    -278.931E+06    -143.855E+06    -278.682E+06    -142.576E+06    -4.27701E+06         35.7657
            1805     1.80658E-03     113.333E-03     138.168E-03    -108.594E-03    -133.305E-03    -94.6498E-03     124.223E-03    -133.305E-03    -70.6165E-03     203.616E-03    -101.694E-03    -101.939E-03    -101.892E-03     203.569E-03    -101.694E-03     7.37847E-03    -131.662E+06    -139.217E+06    -245.248E+06    -139.286E+06    -245.028E+06    -131.814E+06    -4.26590E+06         35.8282
            1806     2.70924E-03     113.342E-03     117.116E-03    -102.069E-03    -120.703E-03    -100.794E-03     115.701E-03    -120.563E-03     11.7698E-03     204.336E-03    -101.873E-03    -102.466E-03    -102.366E-03     204.237E-03    -101.873E-03     10.8811E-03    -110.463E+06    -133.354E+06    -220.771E+06    -133.665E+06    -220.460E+06    -110.463E+06    -4.61129E+06         35.8956
            1807     3.61205E-03     113.354E-03     118.564E-03    -105.669E-03    -119.901E-03    -107.398E-03     116.850E-03    -116.458E-03    -12.8868E-03     205.323E-03    -102.228E-03    -103.059E-03    -102.903E-03     205.167E-03    -102.228E-03     13.7923E-03    -86.5544E+06    -125.211E+06    -203.420E+06    -126.287E+06    -202.344E+06    -86.5544E+06    -8.42017E+06         35.9538
            1808     4.51354E-03     113.367E-03     108.882E-03    -103.610E-03    -118.164E-03    -105.676E-03     107.645E-03    -114.861E-03    -4.24887E-03     205.863E-03    -102.565E-03    -103.264E-03    -103.047E-03     205.645E-03    -102.565E-03     16.3086E-03    -64.2992E+06    -114.021E+06    -177.543E+06    -116.268E+06    -175.297E+06    -64.2992E+06    -11.3431E+06         36.0306
            1809     5.41592E-03     113.384E-03     113.231E-03    -102.456E-03    -126.366E-03    -113.818E-03     112.670E-03    -114.443E-03    -2.44165E-03     206.625E-03    -102.772E-03    -103.908E-03    -103.616E-03     206.333E-03    -102.772E-03     18.9581E-03    -42.6206E+06    -102.718E+06    -144.469E+06    -106.338E+06    -140.849E+06    -42.6206E+06    -11.4089E+06         36.1240
            1810     6.31688E-03     113.403E-03     104.686E-03    -91.8694E-03    -126.083E-03    -103.365E-03     104.260E-03    -114.160E-03    -3.47822E-03     207.504E-03    -103.006E-03    -104.615E-03    -104.256E-03     207.145E-03    -103.006E-03     21.1208E-03    -21.7889E+06    -88.6327E+06    -121.286E+06    -96.5975E+06    -113.321E+06    -21.7889E+06    -13.3642E+06         36.2231
            1811     7.21730E-03     113.423E-03     63.8972E-03    -65.3746E-03    -110.950E-03    -64.3947E-03     62.9174E-03    -110.950E-03     18.4210E-03     207.952E-03    -103.234E-03    -104.688E-03    -104.276E-03     207.541E-03    -103.234E-03     22.6450E-03    -5.46996E+06    -72.6823E+06    -114.253E+06    -86.6035E+06    -100.332E+06    -5.46996E+06    -19.4786E+06         36.3712
            1812     8.11931E-03     113.445E-03     44.5617E-03    -52.5489E-03    -104.892E-03    -39.8793E-03     31.8921E-03    -104.892E-03     49.5066E-03     208.449E-03    -103.439E-03    -104.938E-03    -104.475E-03     207.986E-03    -103.439E-03     24.0538E-03     6.43100E+06    -55.0996E+06    -105.871E+06    -75.9965E+06    -84.9739E+06     6.43100E+06    -24.4686E+06         36.5650
            1813     9.01948E-03     113.469E-03     51.1284E-03    -64.4754E-03    -99.2780E-03    -48.5092E-03     35.1623E-03    -99.2780E-03     24.5444E-03     209.247E-03    -103.659E-03    -105.610E-03    -105.082E-03     208.718E-03    -103.659E-03     25.7551E-03     18.8239E+06    -36.0275E+06    -87.7601E+06    -66.2761E+06    -57.5115E+06     18.8239E+06    -25.0325E+06         36.7687
            1814     9.91966E-03     113.495E-03     36.9154E-03    -56.1715E-03    -95.1159E-03    -45.5946E-03     26.3385E-03    -95.1159E-03    -4.25509E-03     210.010E-03    -103.894E-03    -106.172E-03    -105.582E-03     209.421E-03    -103.894E-03     27.2658E-03     31.6416E+06    -19.3533E+06    -75.1736E+06    -57.0543E+06    -37.4726E+06     31.6416E+06    -26.0767E+06         37.0570
            1815     10.8186E-03     113.523E-03     11.8352E-03    -38.8504E-03    -90.7368E-03    -23.0815E-03    -3.93367E-03    -90.7368E-03     18.7682E-03     210.305E-03    -104.083E-03    -106.316E-03    -105.664E-03     209.654E-03    -104.083E-03     28.6803E-03     43.6842E+06     2.06694E+06    -62.2297E+06    -46.9185E+06    -13.2443E+06     43.6842E+06    -26.6678E+06         37.6790
            1816     11.7195E-03     113.554E-03     3.89289E-03    -33.0865E-03    -85.8629E-03    -13.6451E-03    -15.5484E-03    -85.8629E-03    -5.49883E-03     210.873E-03    -104.257E-03    -106.710E-03    -105.980E-03     210.144E-03    -104.257E-03     30.3994E-03     54.9010E+06     30.4629E+06    -53.6144E+06    -40.1344E+06     16.9829E+06     54.9010E+06    -29.9430E+06         38.9142
            1817     12.6184E-03     113.586E-03     6.45280E-03    -37.4638E-03    -81.1692E-03    -6.32964E-03    -24.6814E-03    -81.1692E-03    -22.0908E-03     211.923E-03    -104.463E-03    -107.504E-03    -106.692E-03     211.111E-03    -104.463E-03     32.1554E-03     54.7549E+06     40.8722E+06    -53.7740E+06    -36.2814E+06     23.3796E+06     54.7549E+06    -35.4534E+06         40.8455
            1818     13.5169E-03     113.624E-03     19.4941E-03    -47.7729E-03    -84.4087E-03     15.4191E-03    -51.8679E-03    -76.2388E-03     1.37833E-03     212.251E-03    -104.658E-03    -107.644E-03    -106.783E-03     211.390E-03    -104.658E-03     33.1302E-03     62.9014E+06     52.5918E+06    -40.1378E+06    -27.8390E+06     42.4488E+06     60.7456E+06    -28.4865E+06         43.4338
            1819     14.4155E-03     113.663E-03     43.0217E-03    -59.4011E-03    -97.5519E-03     40.9451E-03    -84.3311E-03    -70.5454E-03     11.9226E-03     212.195E-03    -104.788E-03    -107.463E-03    -106.394E-03     211.126E-03    -104.788E-03     36.7440E-03     117.230E+06     74.1799E+06    -20.0770E+06    -17.2778E+06     112.774E+06     75.8360E+06    -15.2429E+06         46.4096
            1820     15.3157E-03     113.710E-03     67.5543E-03    -62.1185E-03    -119.651E-03     67.2181E-03    -117.420E-03    -64.0125E-03     1.68347E-03     211.804E-03    -105.023E-03    -106.782E-03    -105.889E-03     210.911E-03    -105.023E-03     32.8919E-03     156.825E+06     106.571E+06    -8.32883E+06    -7.96359E+06     156.459E+06     106.571E+06    -6.51968E+06         49.1239
            1821     903.690E-06     114.551E-03     174.943E-03    -37.7460E-03    -247.424E-03    -235.609E-03     159.319E-03    -33.9369E-03    -36.6908E-03     202.042E-03    -100.926E-03    -101.109E-03    -100.987E-03     202.020E-03    -101.027E-03     4.99227E-03    -134.281E+06    -135.643E+06    -268.189E+06    -135.365E+06    -267.965E+06    -134.783E+06    -4.11073E+06         35.6272
            1822     1.80772E-03     114.558E-03     206.330E-03    -129.494E-03    -186.796E-03    -168.554E-03     200.075E-03    -141.481E-03    -32.7028E-03     201.906E-03    -100.861E-03    -101.039E-03    -100.875E-03     201.843E-03    -100.961E-03     8.33149E-03    -128.474E+06    -133.928E+06    -243.706E+06    -134.235E+06    -243.398E+06    -128.474E+06    -5.51096E+06         35.6900
            1823     2.71211E-03     114.567E-03     210.021E-03    -142.898E-03    -172.487E-03    -163.607E-03     208.844E-03    -150.602E-03     5.49853E-03     202.499E-03    -101.028E-03    -101.481E-03    -101.353E-03     202.370E-03    -101.028E-03     12.3711E-03    -109.196E+06    -128.777E+06    -217.249E+06    -128.992E+06    -217.033E+06    -109.196E+06    -4.30138E+06         35.7625
            1824     3.61500E-03     114.580E-03     201.479E-03    -145.406E-03    -155.953E-03    -147.551E-03     200.181E-03    -152.510E-03    -25.6725E-03     203.680E-03    -101.327E-03    -102.295E-03    -102.098E-03     203.483E-03    -101.327E-03     15.4124E-03    -81.0918E+06    -119.627E+06    -192.841E+06    -120.635E+06    -191.833E+06    -81.0918E+06    -7.42730E+06         35.8251
            1825     4.51763E-03     114.594E-03     193.410E-03    -137.364E-03    -154.326E-03    -138.301E-03     191.043E-03    -151.023E-03     18.9783E-03     204.858E-03    -101.745E-03    -103.033E-03    -102.756E-03     204.581E-03    -101.745E-03     18.3633E-03    -57.4392E+06    -108.557E+06    -172.610E+06    -110.732E+06    -170.435E+06    -57.4392E+06    -11.4652E+06         35.9122
            1826     5.41959E-03     114.612E-03     163.430E-03    -116.370E-03    -147.404E-03    -114.332E-03     161.392E-03    -147.404E-03     38.3235E-03     205.496E-03    -102.044E-03    -103.469E-03    -103.106E-03     205.133E-03    -102.044E-03     21.0997E-03    -37.2773E+06    -96.3210E+06    -142.020E+06    -99.4532E+06    -138.887E+06    -37.2773E+06    -11.1058E+06         36.0261
            1827     6.32174E-03     114.633E-03     133.857E-03    -94.2580E-03    -141.594E-03    -93.1365E-03     132.736E-03    -141.594E-03     3.24283E-03     206.107E-03    -102.279E-03    -103.897E-03    -103.469E-03     205.679E-03    -102.279E-03     22.9971E-03    -16.7708E+06    -81.2802E+06    -112.709E+06    -88.8688E+06    -105.121E+06    -16.7708E+06    -12.4694E+06         36.1421
            1828     7.22306E-03     114.653E-03     124.192E-03    -88.8533E-03    -135.507E-03    -86.8000E-03     122.138E-03    -135.507E-03    -11.6149E-03     207.208E-03    -102.544E-03    -104.650E-03    -104.159E-03     206.716E-03    -102.544E-03     24.6939E-03     2.04939E+06    -64.0699E+06    -101.507E+06    -79.1483E+06    -86.4287E+06     2.04939E+06    -18.3186E+06         36.3079
            1829     8.12343E-03     114.676E-03     123.013E-03    -92.3480E-03    -130.376E-03    -84.3728E-03     115.038E-03    -130.376E-03     37.6472E-03     208.379E-03    -102.838E-03    -105.461E-03    -104.919E-03     207.838E-03    -102.838E-03     26.0212E-03     14.7723E+06    -48.7384E+06    -98.1215E+06    -70.5810E+06    -76.2788E+06     14.7723E+06    -24.4472E+06         36.5317
            1830     9.02445E-03     114.700E-03     110.630E-03    -89.3570E-03    -126.182E-03    -82.8681E-03     104.141E-03    -126.182E-03     45.0831E-03     209.234E-03    -103.146E-03    -106.075E-03    -105.490E-03     208.649E-03    -103.146E-03     27.1196E-03     25.0979E+06    -30.0039E+06    -85.5089E+06    -61.5224E+06    -53.9905E+06     25.0979E+06    -26.8371E+06         36.7617
            1831     9.92356E-03     114.728E-03     86.8906E-03    -70.8207E-03    -122.239E-03    -70.6830E-03     86.7529E-03    -122.239E-03    -3.40900E-03     209.955E-03    -103.454E-03    -106.561E-03    -105.917E-03     209.311E-03    -103.454E-03     28.5197E-03     37.4741E+06    -10.4579E+06    -71.2215E+06    -51.2370E+06    -30.4423E+06     37.4741E+06    -28.4802E+06         37.0649
            1832     10.8236E-03     114.756E-03     60.9435E-03    -49.0682E-03    -117.494E-03    -45.5415E-03     57.4168E-03    -117.494E-03     17.9029E-03     210.827E-03    -103.745E-03    -107.144E-03    -106.451E-03     210.134E-03    -103.745E-03     29.6638E-03     48.0425E+06     6.27031E+06    -59.5654E+06    -41.6220E+06    -11.6731E+06     48.0425E+06    -29.0721E+06         37.6994
            1833     11.7220E-03     114.787E-03     37.9856E-03    -31.4602E-03    -111.832E-03    -25.9539E-03     32.4793E-03    -111.832E-03     23.8257E-03     211.763E-03    -104.022E-03    -107.805E-03    -107.042E-03     211.000E-03    -104.022E-03     31.1875E-03     60.3628E+06     34.7252E+06    -45.1300E+06    -33.5519E+06     23.1471E+06     60.3628E+06    -27.0477E+06         38.9470
            1834     12.6203E-03     114.824E-03     20.6126E-03    -17.4691E-03    -105.858E-03    -12.1858E-03     15.3293E-03    -105.858E-03    -8.71462E-03     212.619E-03    -104.316E-03    -108.346E-03    -107.505E-03     211.778E-03    -104.316E-03     32.8113E-03     64.8056E+06     49.6072E+06    -41.8353E+06    -28.8026E+06     36.5746E+06     64.8056E+06    -30.4966E+06         40.8899
            1835     13.5178E-03     114.860E-03     22.9517E-03    -22.9673E-03    -99.5279E-03     10.1112E-03    -10.1268E-03    -99.5279E-03     13.3497E-03     212.806E-03    -104.566E-03    -108.295E-03    -107.401E-03     211.912E-03    -104.566E-03     33.8377E-03     62.6479E+06     48.5618E+06    -40.9036E+06    -24.2754E+06     31.9337E+06     62.6479E+06    -33.4893E+06         43.4888
            1836     14.4171E-03     114.899E-03     35.5610E-03    -41.2129E-03    -92.7558E-03     28.5819E-03    -34.2339E-03    -92.7558E-03     37.9907E-03     212.403E-03    -104.703E-03    -107.766E-03    -106.650E-03     211.287E-03    -104.703E-03     37.5775E-03     106.842E+06     62.8431E+06    -23.9410E+06    -15.9718E+06     92.8640E+06     68.8522E+06    -21.1922E+06         46.4731
            1837     15.3160E-03     114.946E-03     39.9651E-03    -49.4374E-03    -93.0635E-03     37.5498E-03    -54.1034E-03    -85.9823E-03     16.6215E-03     212.003E-03    -104.953E-03    -107.050E-03    -106.139E-03     211.092E-03    -104.953E-03     33.1428E-03     147.536E+06     102.737E+06    -8.44042E+06    -8.00690E+06     147.102E+06     102.737E+06    -7.32923E+06         49.1928
            1838     904.662E-06     115.773E-03     173.552E-03    -58.9762E-03    -231.071E-03    -229.715E-03     162.390E-03    -49.1694E-03     8.79532E-03     199.567E-03    -99.5791E-03    -99.9745E-03    -99.8251E-03     199.537E-03    -99.6981E-03     5.88634E-03    -131.964E+06    -134.208E+06    -260.270E+06    -134.110E+06    -260.109E+06    -132.224E+06    -3.77601E+06         35.4361
            1839     1.81024E-03     115.778E-03     265.713E-03    -155.463E-03    -220.182E-03    -218.571E-03     264.102E-03    -155.463E-03    -3.25198E-03     200.016E-03    -99.7496E-03    -100.254E-03    -100.072E-03     199.935E-03    -99.8501E-03     9.52839E-03    -121.548E+06    -131.243E+06    -238.962E+06    -131.507E+06    -238.698E+06    -121.548E+06    -5.18197E+06         35.5072
            1840     2.71433E-03     115.790E-03     278.945E-03    -174.692E-03    -208.389E-03    -206.110E-03     278.381E-03    -176.408E-03    -4.47908E-03     200.554E-03    -100.028E-03    -100.535E-03    -100.374E-03     200.393E-03    -100.028E-03     13.7844E-03    -102.925E+06    -123.690E+06    -214.753E+06    -124.158E+06    -214.286E+06    -102.925E+06    -6.05185E+06         35.5859
            1841     3.61897E-03     115.803E-03     251.184E-03    -166.933E-03    -182.725E-03    -169.128E-03     250.847E-03    -180.193E-03     11.6421E-03     201.535E-03    -100.244E-03    -101.242E-03    -100.990E-03     201.283E-03    -100.244E-03     17.3417E-03    -77.5662E+06    -112.762E+06    -183.664E+06    -113.906E+06    -182.520E+06    -77.5662E+06    -8.36918E+06         35.6528
            1842     4.52270E-03     115.820E-03     228.700E-03    -145.813E-03    -175.921E-03    -144.427E-03     227.314E-03    -175.921E-03     33.7182E-03     203.102E-03    -100.666E-03    -102.341E-03    -101.988E-03     202.748E-03    -100.666E-03     20.6719E-03    -51.2335E+06    -101.058E+06    -166.255E+06    -103.173E+06    -164.140E+06    -51.2335E+06    -11.4826E+06         35.7591
            1843     5.42467E-03     115.840E-03     208.219E-03    -129.964E-03    -169.622E-03    -128.205E-03     206.460E-03    -169.622E-03     30.4993E-03     204.147E-03    -101.062E-03    -103.067E-03    -102.619E-03     203.698E-03    -101.062E-03     23.3837E-03    -30.8060E+06    -87.4980E+06    -140.303E+06    -91.6464E+06    -136.155E+06    -30.8060E+06    -13.1897E+06         35.9090
            1844     6.32710E-03     115.859E-03     200.605E-03    -127.606E-03    -163.861E-03    -126.593E-03     199.591E-03    -163.861E-03     932.671E-06     204.843E-03    -101.383E-03    -103.532E-03    -103.011E-03     204.322E-03    -101.383E-03     25.2893E-03    -10.1384E+06    -72.0191E+06    -106.883E+06    -79.5639E+06    -99.3383E+06    -10.1384E+06    -13.7674E+06         36.0585
            1845     7.22991E-03     115.882E-03     200.907E-03    -130.540E-03    -159.732E-03    -129.246E-03     199.612E-03    -159.732E-03    -25.6342E-03     206.413E-03    -101.734E-03    -104.747E-03    -104.166E-03     205.833E-03    -101.734E-03     26.8336E-03     10.9348E+06    -57.1820E+06    -89.0100E+06    -70.1216E+06    -76.0704E+06     10.9348E+06    -15.1133E+06         36.2519
            1846     8.13027E-03     115.907E-03     181.262E-03    -115.307E-03    -156.004E-03    -113.814E-03     179.769E-03    -156.004E-03    -285.391E-06     208.334E-03    -102.147E-03    -106.155E-03    -105.523E-03     207.702E-03    -102.147E-03     28.1456E-03     24.6272E+06    -42.5526E+06    -84.2818E+06    -63.3819E+06    -63.4525E+06     24.6272E+06    -20.7130E+06         36.5071
            1847     9.02853E-03     115.932E-03     144.988E-03    -89.4630E-03    -151.090E-03    -88.6972E-03     144.222E-03    -151.090E-03     22.6898E-03     209.409E-03    -102.568E-03    -106.790E-03    -106.123E-03     208.741E-03    -102.568E-03     29.0021E-03     32.6583E+06    -22.9467E+06    -79.7571E+06    -55.8851E+06    -46.8187E+06     32.6583E+06    -27.5856E+06         36.7626
            1848     9.92892E-03     115.960E-03     121.034E-03    -72.9365E-03    -145.214E-03    -72.6091E-03     120.707E-03    -145.214E-03    -2.86403E-03     210.244E-03    -102.973E-03    -107.295E-03    -106.591E-03     209.539E-03    -102.973E-03     29.8654E-03     42.1347E+06    -5.17534E+06    -68.2314E+06    -48.1491E+06    -25.2577E+06     42.1347E+06    -29.2202E+06         37.0789
            1849     10.8274E-03     115.991E-03     110.321E-03    -66.8307E-03    -139.262E-03    -62.8463E-03     106.337E-03    -139.262E-03     24.8874E-03     211.563E-03    -103.382E-03    -108.225E-03    -107.477E-03     210.815E-03    -103.382E-03     30.8810E-03     51.3942E+06     10.8436E+06    -58.9228E+06    -40.9352E+06    -7.14401E+06     51.3942E+06    -30.3959E+06         37.7241
            1850     11.7248E-03     116.024E-03     85.2852E-03    -47.2792E-03    -133.135E-03    -42.6055E-03     80.6116E-03    -133.135E-03     37.2209E-03     212.485E-03    -103.767E-03    -108.777E-03    -107.959E-03     211.667E-03    -103.767E-03     32.3573E-03     61.6068E+06     35.1631E+06    -45.3770E+06    -31.4171E+06     21.2032E+06     61.6068E+06    -29.7586E+06         38.9844
            1851     12.6225E-03     116.059E-03     50.2693E-03    -15.2949E-03    -126.178E-03    -13.1612E-03     48.1356E-03    -126.178E-03     1.85338E-03     212.896E-03    -104.117E-03    -108.818E-03    -107.914E-03     211.992E-03    -104.117E-03     34.0467E-03     70.1844E+06     54.9815E+06    -31.8541E+06    -22.4390E+06     45.5664E+06     70.1844E+06    -26.7702E+06         40.9413
            1852     13.5211E-03     116.097E-03     41.9209E-03    -9.81903E-03    -118.627E-03     3.81337E-03     28.2885E-03    -118.627E-03     17.2257E-03     213.135E-03    -104.421E-03    -108.750E-03    -107.831E-03     212.217E-03    -104.421E-03     34.3354E-03     68.5539E+06     48.9189E+06    -33.5246E+06    -21.0151E+06     36.4094E+06     68.5539E+06    -28.6214E+06         43.5540
            1853     14.4186E-03     116.134E-03     36.9601E-03    -13.4593E-03    -111.350E-03     10.0388E-03     13.4620E-03    -111.350E-03     32.0258E-03     213.015E-03    -104.607E-03    -108.447E-03    -107.328E-03     211.896E-03    -104.607E-03     37.6764E-03     99.0755E+06     51.7323E+06    -28.8247E+06    -19.1217E+06     75.5125E+06     65.5923E+06    -24.6139E+06         46.5484
            1854     15.3179E-03     116.182E-03     32.7953E-03    -18.5026E-03    -104.314E-03     25.9948E-03    -11.7021E-03    -104.314E-03     12.3318E-03     212.581E-03    -104.865E-03    -107.713E-03    -106.773E-03     211.641E-03    -104.865E-03     33.8084E-03     132.666E+06     95.2081E+06    -11.1385E+06    -9.45830E+06     130.986E+06     95.2081E+06    -11.7400E+06         49.2730
            1855     907.730E-06     116.990E-03     302.330E-03    -122.892E-03    -282.085E-03    -262.332E-03     300.148E-03    -140.463E-03     64.5654E-03     196.627E-03    -98.0896E-03    -98.5264E-03    -98.3571E-03     196.590E-03    -98.2221E-03     6.01660E-03    -128.318E+06    -133.848E+06    -253.221E+06    -133.967E+06    -253.101E+06    -128.318E+06    -2.87698E+06         35.2076
            1856     1.81227E-03     116.999E-03     290.953E-03    -168.881E-03    -218.157E-03    -186.650E-03     289.316E-03    -198.753E-03     27.5826E-03     197.618E-03    -98.4983E-03    -99.1111E-03    -99.0142E-03     197.521E-03    -98.4983E-03     10.5168E-03    -111.705E+06    -125.956E+06    -231.269E+06    -126.372E+06    -230.853E+06    -111.705E+06    -5.72905E+06         35.2807
            1857     2.71822E-03     117.008E-03     292.512E-03    -181.852E-03    -205.569E-03    -191.643E-03     292.067E-03    -195.333E-03    -7.28323E-03     198.264E-03    -98.7861E-03    -99.4866E-03    -99.2911E-03     198.068E-03    -98.7861E-03     15.0416E-03    -95.6781E+06    -117.311E+06    -210.698E+06    -118.119E+06    -209.890E+06    -95.6781E+06    -8.26156E+06         35.3716
            1858     3.62363E-03     117.024E-03     289.332E-03    -184.908E-03    -196.536E-03    -187.151E-03     289.043E-03    -194.004E-03     13.3254E-03     199.178E-03    -98.9916E-03    -100.180E-03    -99.8641E-03     198.862E-03    -98.9916E-03     19.3443E-03    -75.7912E+06    -109.159E+06    -178.019E+06    -110.336E+06    -176.843E+06    -75.7912E+06    -8.76996E+06         35.4520
            1859     4.52782E-03     117.042E-03     277.081E-03    -172.223E-03    -193.652E-03    -173.667E-03     276.409E-03    -191.536E-03     30.3177E-03     200.587E-03    -99.3700E-03    -101.151E-03    -100.715E-03     200.151E-03    -99.3700E-03     22.8444E-03    -49.5428E+06    -98.5979E+06    -157.761E+06    -101.152E+06    -155.208E+06    -49.5428E+06    -11.6038E+06         35.5783
            1860     5.43232E-03     117.064E-03     266.463E-03    -161.450E-03    -190.061E-03    -162.979E-03     265.876E-03    -187.945E-03     8.95199E-03     202.077E-03    -99.8300E-03    -102.243E-03    -101.692E-03     201.525E-03    -99.8300E-03     25.8299E-03    -25.9862E+06    -83.5241E+06    -135.852E+06    -89.5213E+06    -129.855E+06    -25.9862E+06    -15.7370E+06         35.7710
            1861     6.33495E-03     117.085E-03     255.269E-03    -154.318E-03    -184.061E-03    -153.812E-03     254.762E-03    -184.061E-03     6.49486E-03     203.992E-03    -100.302E-03    -103.787E-03    -103.139E-03     203.344E-03    -100.302E-03     28.1586E-03    -6.31983E+06    -68.4832E+06    -106.585E+06    -77.5730E+06    -97.4954E+06    -6.31983E+06    -15.9600E+06         35.9720
            1862     7.23568E-03     117.110E-03     248.111E-03    -150.404E-03    -180.365E-03    -149.866E-03     247.573E-03    -180.365E-03     19.2842E-03     205.953E-03    -100.807E-03    -105.262E-03    -104.552E-03     205.243E-03    -100.807E-03     29.6311E-03     13.9842E+06    -53.6557E+06    -84.5374E+06    -65.9476E+06    -72.2455E+06     13.9842E+06    -14.6013E+06         36.1969
            1863     8.13611E-03     117.138E-03     230.882E-03    -135.729E-03    -176.504E-03    -134.867E-03     230.019E-03    -176.504E-03     25.8619E-03     207.755E-03    -101.341E-03    -106.409E-03    -105.666E-03     207.012E-03    -101.341E-03     30.4706E-03     31.8102E+06    -35.3195E+06    -71.0612E+06    -56.1498E+06    -50.2309E+06     31.8102E+06    -17.2319E+06         36.4738
            1864     9.03645E-03     117.165E-03     196.336E-03    -106.965E-03    -171.312E-03    -106.110E-03     195.482E-03    -171.312E-03     27.8512E-03     209.575E-03    -101.876E-03    -107.604E-03    -106.841E-03     208.813E-03    -101.876E-03     31.0518E-03     41.8760E+06    -18.4281E+06    -67.2704E+06    -50.2014E+06    -35.4972E+06     41.8760E+06    -23.0815E+06         36.7527
            1865     9.93360E-03     117.194E-03     162.857E-03    -80.7920E-03    -164.670E-03    -80.4654E-03     162.531E-03    -164.670E-03    -2.15368E-03     211.050E-03    -102.446E-03    -108.585E-03    -107.780E-03     210.246E-03    -102.446E-03     31.9949E-03     47.8742E+06    -3.40891E+06    -62.7306E+06    -45.1239E+06    -21.0156E+06     47.8742E+06    -26.9877E+06         37.0858
            1866     10.8314E-03     117.227E-03     145.190E-03    -70.3584E-03    -157.604E-03    -67.9882E-03     142.820E-03    -157.604E-03     21.4445E-03     212.098E-03    -102.982E-03    -109.136E-03    -108.271E-03     211.233E-03    -102.982E-03     33.2684E-03     55.9242E+06     17.6671E+06    -54.7453E+06    -38.4758E+06     1.39762E+06     55.9242E+06    -29.9632E+06         37.7449
            1867     11.7286E-03     117.260E-03     124.643E-03    -56.4120E-03    -150.624E-03    -53.0794E-03     121.310E-03    -150.624E-03     12.6348E-03     212.814E-03    -103.444E-03    -109.407E-03    -108.497E-03     211.903E-03    -103.444E-03     34.1924E-03     63.0544E+06     36.4317E+06    -46.8095E+06    -31.9776E+06     21.5998E+06     63.0544E+06    -31.6496E+06         39.0228
            1868     12.6262E-03     117.296E-03     94.3200E-03    -29.2343E-03    -143.262E-03    -27.7412E-03     92.8269E-03    -143.262E-03    -19.2043E-03     213.274E-03    -103.840E-03    -109.450E-03    -108.471E-03     212.296E-03    -103.840E-03     35.4653E-03     67.6731E+06     50.2455E+06    -35.6885E+06    -25.8712E+06     40.4282E+06     67.6731E+06    -26.4583E+06         40.9991
            1869     13.5232E-03     117.335E-03     71.1319E-03    -13.6426E-03    -135.561E-03    -12.3408E-03     69.8300E-03    -135.561E-03     8.12298E-03     213.638E-03    -104.202E-03    -109.436E-03    -108.457E-03     212.659E-03    -104.202E-03     35.4953E-03     71.6807E+06     51.0381E+06    -26.6479E+06    -19.1398E+06     43.5301E+06     71.6807E+06    -22.4443E+06         43.6307
            1870     14.4208E-03     117.371E-03     47.7478E-03    -2.05079E-03    -127.935E-03     2.20497E-03     43.4921E-03    -127.935E-03     20.4480E-03     213.863E-03    -104.463E-03    -109.407E-03    -108.247E-03     212.703E-03    -104.463E-03     38.4583E-03     93.3682E+06     52.7483E+06    -21.5246E+06    -14.2579E+06     71.2625E+06     67.5873E+06    -24.5955E+06         46.6387
            1871     15.3184E-03     117.418E-03     47.2102E-03    -8.69517E-03    -119.826E-03     35.1240E-03     3.39101E-03    -119.826E-03    -5.96889E-03     213.381E-03    -104.757E-03    -108.619E-03    -107.640E-03     212.401E-03    -104.757E-03     34.6482E-03     115.427E+06     86.7088E+06    -12.0285E+06    -9.05083E+06     110.864E+06     88.2932E+06    -16.8607E+06         49.3684
            1872     906.657E-06     118.205E-03     407.635E-03    -201.470E-03    -287.712E-03    -263.640E-03     403.940E-03    -221.848E-03     70.2944E-03     193.890E-03    -96.7674E-03    -97.1187E-03    -96.7998E-03     193.844E-03    -97.0398E-03     6.67710E-03    -122.816E+06    -128.069E+06    -245.824E+06    -127.912E+06    -245.759E+06    -123.038E+06    -1.50511E+06         34.9507
            1873     1.81567E-03     118.214E-03     334.901E-03    -187.661E-03    -231.624E-03    -186.610E-03     333.850E-03    -231.624E-03     15.6060E-03     194.324E-03    -96.9132E-03    -97.4078E-03    -97.1961E-03     194.200E-03    -97.0007E-03     11.7542E-03    -109.840E+06    -122.996E+06    -222.104E+06    -123.442E+06    -221.658E+06    -109.840E+06    -5.52098E+06         35.0118
            1874     2.72213E-03     118.225E-03     314.249E-03    -182.552E-03    -215.087E-03    -181.968E-03     313.664E-03    -215.087E-03    -10.9085E-03     195.426E-03    -97.2506E-03    -98.1998E-03    -97.9518E-03     195.178E-03    -97.2506E-03     16.7898E-03    -92.5819E+06    -115.220E+06    -204.070E+06    -116.295E+06    -202.995E+06    -92.5819E+06    -9.55483E+06         35.1239
            1875     3.62840E-03     118.242E-03     318.000E-03    -193.085E-03    -207.883E-03    -192.131E-03     317.045E-03    -207.883E-03    -27.2453E-03     196.519E-03    -97.5619E-03    -99.0107E-03    -98.6062E-03     196.115E-03    -97.5619E-03     21.6905E-03    -69.9701E+06    -104.825E+06    -175.909E+06    -106.153E+06    -174.581E+06    -69.9701E+06    -9.50200E+06         35.2406
            1876     4.53459E-03     118.262E-03     315.259E-03    -192.344E-03    -207.142E-03    -193.386E-03     314.186E-03    -205.026E-03     16.7800E-03     197.988E-03    -97.9281E-03    -100.094E-03    -99.5509E-03     197.444E-03    -97.9281E-03     25.3463E-03    -44.1995E+06    -92.4998E+06    -146.963E+06    -95.5193E+06    -143.943E+06    -44.1995E+06    -11.7561E+06         35.3927
            1877     5.43943E-03     118.285E-03     309.177E-03    -188.261E-03    -205.114E-03    -189.630E-03     308.430E-03    -202.998E-03     23.9276E-03     200.276E-03    -98.4840E-03    -101.816E-03    -101.153E-03     199.613E-03    -98.4840E-03     28.2075E-03    -20.5560E+06    -79.1976E+06    -128.736E+06    -85.6108E+06    -122.323E+06    -20.5560E+06    -16.3010E+06         35.6205
            1878     6.34303E-03     118.310E-03     295.830E-03    -175.022E-03    -200.313E-03    -174.476E-03     295.285E-03    -200.313E-03     15.4399E-03     202.867E-03    -99.1081E-03    -103.794E-03    -103.023E-03     202.096E-03    -99.1081E-03     30.6824E-03    -2.27524E+06    -64.6741E+06    -106.085E+06    -74.8829E+06    -95.8762E+06    -2.27524E+06    -17.3718E+06         35.8721
            1879     7.24405E-03     118.339E-03     271.416E-03    -151.246E-03    -195.924E-03    -149.708E-03     269.878E-03    -195.924E-03     2.53559E-03     205.213E-03    -99.7501E-03    -105.516E-03    -104.667E-03     204.364E-03    -99.7501E-03     32.4182E-03     15.7170E+06    -48.4072E+06    -84.0338E+06    -63.2952E+06    -69.1457E+06     15.7170E+06    -17.3031E+06         36.1248
            1880     8.14404E-03     118.367E-03     255.891E-03    -139.026E-03    -190.414E-03    -136.627E-03     253.491E-03    -190.414E-03     18.7109E-03     207.329E-03    -100.416E-03    -106.867E-03    -105.975E-03     206.437E-03    -100.416E-03     33.4018E-03     35.2406E+06    -30.5411E+06    -66.0582E+06    -52.0911E+06    -44.5082E+06     35.2406E+06    -16.8442E+06         36.4115
            1881     9.04237E-03     118.398E-03     247.854E-03    -133.426E-03    -185.109E-03    -132.056E-03     246.484E-03    -185.109E-03     26.7985E-03     209.497E-03    -101.088E-03    -108.280E-03    -107.363E-03     208.579E-03    -101.088E-03     34.0399E-03     49.5608E+06    -13.8373E+06    -54.3531E+06    -42.8279E+06    -25.3625E+06     49.5608E+06    -18.1447E+06         36.7110
            1882     9.94064E-03     118.429E-03     219.358E-03    -110.152E-03    -179.637E-03    -110.006E-03     219.212E-03    -179.637E-03    -10.2073E-03     211.428E-03    -101.814E-03    -109.565E-03    -108.610E-03     210.473E-03    -101.814E-03     34.9144E-03     56.2510E+06     838.426E+03    -50.4690E+06    -36.5552E+06    -13.0754E+06     56.2510E+06    -22.6636E+06         37.0678
            1883     10.8372E-03     118.462E-03     182.646E-03    -79.5419E-03    -172.899E-03    -77.6177E-03     180.722E-03    -172.899E-03     23.4813E-03     212.525E-03    -102.461E-03    -110.077E-03    -109.075E-03     211.523E-03    -102.461E-03     35.8829E-03     62.6320E+06     24.2586E+06    -45.2991E+06    -31.7507E+06     10.7102E+06     62.6320E+06    -27.1051E+06         37.7516
            1884     11.7342E-03     118.497E-03     160.010E-03    -62.9835E-03    -165.304E-03    -59.9792E-03     157.006E-03    -165.304E-03     11.7005E-03     213.120E-03    -102.985E-03    -110.137E-03    -109.110E-03     212.093E-03    -102.985E-03     36.3804E-03     65.9990E+06     33.6393E+06    -40.0608E+06    -28.1152E+06     21.6936E+06     65.9990E+06    -27.1069E+06         39.0580
            1885     12.6306E-03     118.533E-03     141.474E-03    -52.9150E-03    -157.897E-03    -51.5996E-03     140.159E-03    -157.897E-03    -24.1704E-03     213.688E-03    -103.439E-03    -110.234E-03    -109.137E-03     212.591E-03    -103.439E-03     37.5969E-03     65.9515E+06     43.4646E+06    -34.2512E+06    -25.4775E+06     34.6908E+06     65.9515E+06    -23.5867E+06         41.0627
            1886     13.5278E-03     118.572E-03     105.688E-03    -26.4445E-03    -150.414E-03    -26.1279E-03     105.372E-03    -150.414E-03    -7.39221E-03     214.232E-03    -103.875E-03    -110.344E-03    -109.239E-03     213.127E-03    -103.875E-03     37.7761E-03     70.6041E+06     56.6827E+06    -27.8454E+06    -20.2415E+06     49.0787E+06     70.6041E+06    -23.8262E+06         43.7210
            1887     14.4246E-03     118.611E-03     64.4071E-03     7.01396E-03    -141.955E-03     11.2925E-03     60.1285E-03    -141.955E-03     1.68206E-03     214.869E-03    -104.229E-03    -110.634E-03    -109.389E-03     213.623E-03    -104.229E-03     40.0598E-03     88.8618E+06     59.0965E+06    -20.3396E+06    -13.0718E+06     71.1154E+06     69.5751E+06    -24.8394E+06         46.7471
            1888     15.3215E-03     118.657E-03     56.2580E-03     5.58436E-03    -132.748E-03     32.6732E-03     29.1692E-03    -132.748E-03    -25.2976E-03     214.741E-03    -104.629E-03    -110.114E-03    -109.098E-03     213.724E-03    -104.629E-03     35.4442E-03     107.416E+06     77.6888E+06    -9.94237E+06    -6.62880E+06     93.6619E+06     88.1290E+06    -17.8143E+06         49.4816
            1889     909.670E-06     119.417E-03     425.549E-03    -218.920E-03    -272.515E-03    -257.687E-03     420.212E-03    -228.411E-03    -26.2781E-03     190.074E-03    -94.7685E-03    -95.2969E-03    -95.0724E-03     190.008E-03    -94.9269E-03     8.35699E-03    -121.997E+06    -124.365E+06    -240.428E+06    -123.507E+06    -240.346E+06    -122.937E+06    -1.89007E+06         34.6602
            1890     1.81822E-03     119.423E-03     386.985E-03    -216.235E-03    -237.570E-03    -215.832E-03     386.582E-03    -237.570E-03    -1.09177E-03     190.865E-03    -95.0405E-03    -95.8187E-03    -95.5573E-03     190.691E-03    -95.1280E-03     13.7264E-03    -110.697E+06    -120.855E+06    -213.427E+06    -120.898E+06    -213.179E+06    -110.901E+06    -4.28960E+06         34.7153
            1891     2.72775E-03     119.440E-03     360.601E-03    -202.186E-03    -227.682E-03    -200.974E-03     359.389E-03    -227.682E-03     16.7020E-03     192.223E-03    -95.4922E-03    -96.7258E-03    -96.4158E-03     191.913E-03    -95.4922E-03     18.7961E-03    -89.1223E+06    -114.735E+06    -194.719E+06    -115.758E+06    -193.697E+06    -89.1223E+06    -8.37971E+06         34.8515
            1892     3.63522E-03     119.456E-03     347.156E-03    -199.331E-03    -220.416E-03    -197.330E-03     345.154E-03    -220.416E-03     7.62763E-03     193.683E-03    -95.9149E-03    -97.8032E-03    -97.3236E-03     193.204E-03    -95.9149E-03     23.4736E-03    -66.5353E+06    -103.381E+06    -173.041E+06    -105.939E+06    -170.483E+06    -66.5353E+06    -12.2810E+06         35.0226
            1893     4.54239E-03     119.478E-03     337.811E-03    -198.824E-03    -215.803E-03    -197.328E-03     336.314E-03    -215.803E-03     27.4441E-03     195.810E-03    -96.3786E-03    -99.4714E-03    -98.8099E-03     195.148E-03    -96.3786E-03     27.8609E-03    -43.2780E+06    -90.4414E+06    -141.003E+06    -94.1746E+06    -137.270E+06    -43.2780E+06    -12.7213E+06         35.2113
            1894     5.44729E-03     119.504E-03     331.342E-03    -197.304E-03    -212.755E-03    -196.434E-03     330.471E-03    -212.755E-03     40.6407E-03     198.799E-03    -97.0609E-03    -101.687E-03    -100.877E-03     197.990E-03    -97.0609E-03     31.0760E-03    -18.3632E+06    -78.1103E+06    -119.468E+06    -84.2805E+06    -113.298E+06    -18.3632E+06    -14.2858E+06         35.4538
            1895     6.34975E-03     119.532E-03     330.592E-03    -195.111E-03    -210.437E-03    -194.546E-03     330.027E-03    -210.437E-03     31.3095E-03     201.402E-03    -97.8208E-03    -103.526E-03    -102.589E-03     200.465E-03    -97.8208E-03     33.6835E-03     1.38510E+06    -61.9084E+06    -102.924E+06    -74.3340E+06    -90.4982E+06     1.38510E+06    -17.9972E+06         35.7338
            1896     7.25226E-03     119.564E-03     308.693E-03    -172.500E-03    -207.253E-03    -171.231E-03     307.424E-03    -207.253E-03    -7.55703E-03     203.864E-03    -98.5986E-03    -105.261E-03    -104.230E-03     202.833E-03    -98.5986E-03     35.5562E-03     17.9127E+06    -45.2563E+06     -84.118E+06    -63.4235E+06    -65.9508E+06     17.9127E+06    -19.0873E+06         36.0078
            1897     8.15225E-03     119.596E-03     280.088E-03    -145.966E-03    -201.998E-03    -143.020E-03     277.142E-03    -201.998E-03     17.5547E-03     206.586E-03    -99.3892E-03    -107.205E-03    -106.110E-03     205.491E-03    -99.3892E-03     36.9375E-03     34.5693E+06    -28.2278E+06    -67.4563E+06    -52.7586E+06    -42.9255E+06     34.5693E+06    -18.6447E+06         36.3014
            1898     9.05141E-03     119.629E-03     265.922E-03    -132.342E-03    -195.760E-03    -130.141E-03     263.721E-03    -195.760E-03     24.7444E-03     209.059E-03    -100.181E-03    -108.873E-03    -107.739E-03     207.925E-03    -100.181E-03     37.8664E-03     49.9271E+06    -9.21083E+06    -52.4976E+06    -41.7706E+06    -19.9378E+06     49.9271E+06    -18.5662E+06         36.6231
            1899     9.94866E-03     119.663E-03     248.205E-03    -120.240E-03    -189.604E-03    -119.930E-03     247.896E-03    -189.604E-03    -18.8258E-03     211.152E-03    -100.981E-03    -110.142E-03    -108.993E-03     210.004E-03    -100.981E-03     38.3129E-03     60.8671E+06     5.61104E+06    -42.4490E+06    -32.3830E+06    -4.45503E+06     60.8671E+06    -19.5067E+06         37.0143
            1900     10.8449E-03     119.698E-03     217.397E-03    -98.1746E-03    -183.094E-03    -96.5179E-03     215.741E-03    -183.094E-03     25.6347E-03     212.570E-03    -101.718E-03    -110.846E-03    -109.679E-03     211.402E-03    -101.718E-03     38.7511E-03     67.9513E+06     26.0091E+06    -36.4413E+06    -27.1934E+06     16.7611E+06     67.9513E+06    -21.4237E+06         37.7388
            1901     11.7408E-03     119.733E-03     187.325E-03    -72.7537E-03    -175.732E-03    -70.8348E-03     185.406E-03    -175.732E-03     34.7196E-03     213.496E-03    -102.366E-03    -111.118E-03    -109.935E-03     212.313E-03    -102.366E-03     39.0865E-03     68.8040E+06     30.7183E+06    -32.6156E+06    -23.4795E+06     21.5822E+06     68.8040E+06    -21.5781E+06         39.0883
            1902     12.6378E-03     119.770E-03     164.897E-03    -59.3852E-03    -168.086E-03    -58.8845E-03     164.396E-03    -168.086E-03     8.61591E-03     214.292E-03    -102.931E-03    -111.352E-03    -110.129E-03     213.069E-03    -102.931E-03     39.8096E-03     69.1921E+06     44.2217E+06    -26.1098E+06    -18.0217E+06     36.1336E+06     69.1921E+06    -21.3044E+06         41.1315
            1903     13.5336E-03     119.811E-03     133.002E-03    -38.2120E-03    -160.382E-03    -37.9377E-03     132.727E-03    -160.382E-03     1.49200E-03     215.180E-03    -103.478E-03    -111.698E-03    -110.495E-03     213.977E-03    -103.478E-03     39.5718E-03     76.9296E+06     67.0324E+06    -19.9445E+06    -12.5675E+06     59.6553E+06     76.9296E+06    -23.9631E+06         43.8249
            1904     14.4291E-03     119.849E-03     93.7867E-03    -3.84571E-03    -151.883E-03    -974.971E-06     90.9160E-03    -151.883E-03     4.17013E-03     216.239E-03    -103.931E-03    -112.288E-03    -110.993E-03     214.944E-03    -103.931E-03     41.0959E-03     88.7876E+06     66.1780E+06    -15.2074E+06    -8.26393E+06     74.0759E+06     73.9463E+06    -24.2401E+06         46.8740
            1905     15.3241E-03     119.897E-03     68.2242E-03     14.9057E-03    -142.666E-03     21.3352E-03     61.7948E-03    -142.666E-03    -7.45034E-03     216.501E-03    -104.461E-03    -112.038E-03    -111.026E-03     215.490E-03    -104.461E-03     35.5039E-03     100.569E+06     62.1774E+06    -8.51777E+06    -4.94466E+06     73.4456E+06     85.7275E+06    -17.0008E+06         49.6121
            1906     912.148E-06     120.622E-03     429.789E-03    -215.619E-03    -266.626E-03    -238.831E-03     424.634E-03    -238.260E-03    -89.7259E-03     185.797E-03    -92.4776E-03    -93.3120E-03    -93.2431E-03     185.729E-03    -92.4776E-03     8.19740E-03    -120.011E+06    -122.474E+06    -235.096E+06    -121.855E+06    -234.998E+06    -120.729E+06    -3.25151E+06         34.3625
            1907     1.82339E-03     120.632E-03     404.852E-03    -220.948E-03    -236.639E-03    -220.413E-03     402.629E-03    -234.951E-03    -40.0375E-03     187.142E-03    -93.0731E-03    -94.0570E-03    -93.8579E-03     186.943E-03    -93.0731E-03     14.5869E-03    -110.745E+06    -119.078E+06    -208.602E+06    -119.012E+06    -208.464E+06    -110.950E+06    -3.46092E+06         34.4238
            1908     2.73220E-03     120.648E-03     385.294E-03    -211.455E-03    -228.270E-03    -209.955E-03     383.794E-03    -228.270E-03    -2.34237E-03     188.781E-03    -93.5699E-03    -95.1892E-03    -94.8195E-03     188.412E-03    -93.5699E-03     20.3083E-03    -88.7184E+06    -112.313E+06    -184.512E+06    -112.999E+06    -183.826E+06    -88.7184E+06    -6.16078E+06         34.5675
            1909     3.64183E-03     120.666E-03     370.853E-03    -205.231E-03    -222.801E-03    -203.449E-03     369.071E-03    -222.801E-03     20.3446E-03     191.059E-03    -94.1699E-03    -96.8929E-03    -96.3226E-03     190.489E-03    -94.1699E-03     25.4183E-03    -64.4633E+06    -103.632E+06    -163.753E+06    -106.175E+06    -161.210E+06    -64.4633E+06    -11.2808E+06         34.7805
            1910     4.54905E-03     120.692E-03     369.870E-03    -208.815E-03    -223.714E-03    -211.621E-03     368.562E-03    -219.600E-03     49.3871E-03     193.743E-03    -94.8371E-03    -98.9248E-03    -98.1245E-03     192.942E-03    -94.8371E-03     30.4471E-03    -43.2856E+06    -93.0029E+06    -139.194E+06    -97.4193E+06    -134.777E+06    -43.2856E+06    -13.1797E+06         35.0063
            1911     5.45469E-03     120.722E-03     361.427E-03    -205.763E-03    -222.206E-03    -208.887E-03     360.437E-03    -218.092E-03     43.3618E-03     196.524E-03    -95.5836E-03    -100.929E-03    -99.9249E-03     195.520E-03    -95.5836E-03     34.4075E-03    -19.8139E+06    -79.2201E+06    -113.187E+06    -86.6681E+06    -105.739E+06    -19.8139E+06    -13.2415E+06         35.2467
            1912     6.35936E-03     120.753E-03     334.906E-03    -187.739E-03    -215.399E-03    -187.126E-03     334.292E-03    -215.399E-03     32.6143E-03     199.526E-03    -96.4230E-03    -103.071E-03    -101.898E-03     198.354E-03    -96.4230E-03     37.5266E-03     2.59703E+06    -63.1473E+06    -96.1774E+06    -77.2356E+06    -82.0891E+06     2.59703E+06    -15.9966E+06         35.5333
            1913     7.26130E-03     120.787E-03     327.316E-03    -182.019E-03    -211.583E-03    -181.661E-03     326.957E-03    -211.583E-03     14.1756E-03     202.450E-03    -97.3064E-03    -105.127E-03    -103.841E-03     201.163E-03    -97.3064E-03     39.6453E-03     18.1525E+06    -45.1175E+06    -84.8487E+06    -67.9913E+06    -61.9749E+06     18.1525E+06    -19.2397E+06         35.8367
            1914     8.16253E-03     120.822E-03     315.322E-03    -172.514E-03    -207.690E-03    -170.301E-03     313.109E-03    -207.690E-03     40.2460E-03     205.298E-03    -98.1990E-03    -107.148E-03    -105.792E-03     203.942E-03    -98.1990E-03     41.0189E-03     32.3811E+06    -25.7718E+06    -70.8569E+06    -57.2981E+06    -39.3306E+06     32.3811E+06    -20.2119E+06         36.1504
            1915     9.06089E-03     120.859E-03     275.510E-03    -133.700E-03    -202.173E-03    -131.277E-03     273.088E-03    -202.173E-03     39.8587E-03     208.117E-03    -99.0917E-03    -109.105E-03    -107.707E-03     206.719E-03    -99.0917E-03     41.9526E-03     46.8557E+06    -7.41511E+06    -57.8948E+06    -47.8964E+06    -17.4135E+06     46.8557E+06    -19.8096E+06         36.4940
            1916     9.95818E-03     120.896E-03     249.866E-03    -111.640E-03    -194.985E-03    -111.398E-03     249.623E-03    -194.985E-03    -4.30648E-03     210.393E-03    -99.9560E-03    -110.463E-03    -109.057E-03     208.987E-03    -99.9560E-03     42.3212E-03     58.6326E+06     7.46678E+06    -47.4991E+06    -39.3106E+06    -721.723E+03     58.6326E+06    -19.3589E+06         36.9288
            1917     10.8550E-03     120.934E-03     242.362E-03    -112.661E-03    -188.149E-03    -111.462E-03     241.164E-03    -188.149E-03     26.7949E-03     212.276E-03    -100.787E-03    -111.471E-03    -110.070E-03     210.875E-03    -100.787E-03     42.4690E-03     67.7008E+06     25.3215E+06    -36.9766E+06    -30.9153E+06     19.2603E+06     67.7008E+06    -17.8926E+06         37.7105
            1918     11.7510E-03     120.970E-03     211.962E-03    -89.0901E-03    -181.495E-03    -87.1635E-03     210.035E-03    -181.495E-03     22.7513E-03     214.136E-03    -101.599E-03    -112.517E-03    -111.149E-03     212.767E-03    -101.599E-03     42.1733E-03     70.2878E+06     33.7574E+06    -31.1508E+06    -24.1813E+06     26.7880E+06     70.2878E+06    -19.1740E+06         39.1144
            1919     12.6449E-03     121.009E-03     166.250E-03    -50.6996E-03    -173.643E-03    -49.7343E-03     165.285E-03    -173.643E-03     62.2040E-06     215.577E-03    -102.326E-03    -113.238E-03    -111.887E-03     214.225E-03    -102.326E-03     42.0571E-03     70.2779E+06     48.4906E+06    -25.5500E+06    -17.6907E+06     40.6313E+06     70.2779E+06    -21.8994E+06         41.2036
            1920     13.5399E-03     121.050E-03     137.651E-03    -31.8995E-03    -164.968E-03    -31.6763E-03     137.428E-03    -164.968E-03     4.66399E-03     216.655E-03    -103.014E-03    -113.631E-03    -112.336E-03     215.359E-03    -103.014E-03     41.2649E-03     78.8925E+06     70.8165E+06    -17.8999E+06    -11.4846E+06     64.4013E+06     78.8925E+06    -22.8519E+06         43.9385
            1921     14.4336E-03     121.092E-03     121.390E-03    -20.9427E-03    -156.368E-03    -18.2974E-03     118.745E-03    -156.368E-03     25.7509E-03     217.907E-03    -103.627E-03    -114.274E-03    -112.917E-03     216.549E-03    -103.627E-03     42.3330E-03     88.4150E+06     71.2383E+06    -12.7092E+06    -7.42058E+06     77.5078E+06     76.8569E+06    -21.3797E+06         47.0143
            1922     15.3270E-03     121.138E-03     89.9265E-03     6.37448E-03    -147.580E-03     9.32686E-03     86.9741E-03    -147.580E-03     27.3764E-03     218.533E-03    -104.296E-03    -114.237E-03    -113.209E-03     217.504E-03    -104.296E-03     35.9669E-03     95.3816E+06     48.6844E+06    -8.30993E+06    -3.97223E+06     55.9048E+06     83.8234E+06    -14.6933E+06         49.7547
            1923     912.698E-06     121.822E-03     376.797E-03    -187.493E-03    -250.854E-03    -195.901E-03     374.772E-03    -240.421E-03    -30.1324E-03     182.490E-03    -90.9649E-03    -91.5269E-03    -91.4222E-03     182.411E-03    -90.9907E-03     8.40922E-03    -121.294E+06    -125.634E+06    -231.686E+06    -125.620E+06    -231.600E+06    -121.393E+06    -729.093E+03         34.0845
            1924     1.82508E-03     121.835E-03     397.668E-03    -213.047E-03    -238.328E-03    -227.786E-03     393.885E-03    -219.806E-03    -10.7091E-03     183.325E-03    -91.3038E-03    -92.0276E-03    -91.8082E-03     183.105E-03    -91.3038E-03     15.2267E-03    -112.255E+06    -121.906E+06    -203.053E+06    -122.210E+06    -202.750E+06    -112.255E+06    -3.77763E+06         34.1664
            1925     2.73842E-03     121.852E-03     402.630E-03    -211.533E-03    -237.033E-03    -224.149E-03     400.118E-03    -221.905E-03     10.4068E-03     185.324E-03    -91.7199E-03    -93.5934E-03    -93.1679E-03     184.899E-03    -91.7199E-03     21.5332E-03    -92.8169E+06    -113.627E+06    -177.031E+06    -114.430E+06    -176.228E+06    -92.8169E+06    -6.52351E+06         34.3014
            1926     3.64824E-03     121.875E-03     400.802E-03    -214.135E-03    -233.800E-03    -224.721E-03     400.066E-03    -222.478E-03    -2.53418E-03     188.263E-03    -92.4384E-03    -95.8317E-03    -95.1567E-03     187.588E-03    -92.4384E-03     27.5442E-03    -64.9674E+06    -104.247E+06    -154.662E+06    -105.722E+06    -153.186E+06    -64.9674E+06    -8.27783E+06         34.5081
            1927     4.55628E-03     121.903E-03     393.491E-03    -210.698E-03    -230.842E-03    -218.527E-03     392.924E-03    -222.446E-03     33.4628E-03     191.028E-03    -93.2630E-03    -97.7968E-03    -96.8416E-03     190.073E-03    -93.2630E-03     33.0389E-03    -40.4528E+06    -94.6541E+06    -132.812E+06    -98.2440E+06    -129.222E+06    -40.4528E+06    -10.3987E+06         34.7507
            1928     5.46356E-03     121.935E-03     379.206E-03    -207.756E-03    -225.421E-03    -210.924E-03     378.260E-03    -221.307E-03     10.3110E-03     193.796E-03    -94.0633E-03    -99.7878E-03    -98.5605E-03     192.568E-03    -94.0633E-03     37.8043E-03    -19.9396E+06    -81.2481E+06    -109.720E+06    -89.2094E+06    -101.758E+06    -19.9396E+06    -12.1139E+06         35.0026
            1929     6.36884E-03     121.972E-03     350.754E-03    -191.029E-03    -218.551E-03    -190.385E-03     350.111E-03    -218.551E-03    -12.4577E-03     197.101E-03    -94.9149E-03    -102.228E-03    -100.786E-03     195.659E-03    -94.9149E-03     41.3816E-03     831.500E+03    -63.6952E+06    -91.1004E+06    -79.3306E+06    -75.4650E+06     831.500E+03    -12.5238E+06         35.2947
            1930     7.27206E-03     122.010E-03     322.904E-03    -168.908E-03    -213.854E-03    -168.450E-03     322.447E-03    -213.854E-03    -11.6328E-03     200.622E-03    -95.8409E-03    -104.759E-03    -103.162E-03     199.025E-03    -95.8409E-03     43.9621E-03     18.8279E+06    -43.2803E+06    -81.2220E+06    -71.3707E+06    -53.1317E+06     18.8279E+06    -15.8616E+06         35.6300
            1931     8.17266E-03     122.048E-03     307.918E-03    -158.199E-03    -208.268E-03    -156.830E-03     306.549E-03    -208.268E-03     16.2867E-03     203.874E-03    -96.8175E-03    -107.036E-03    -105.332E-03     202.170E-03    -96.8175E-03     45.8120E-03     31.6506E+06    -24.9026E+06    -73.7089E+06    -63.7778E+06    -34.8338E+06     31.6506E+06    -19.4175E+06         35.9781
            1932     9.07265E-03     122.089E-03     289.633E-03    -144.012E-03    -202.451E-03    -142.878E-03     288.500E-03    -202.451E-03     31.2317E-03     206.752E-03    -97.8205E-03    -108.948E-03    -107.209E-03     205.013E-03    -97.8205E-03     46.6623E-03     43.5874E+06    -8.68409E+06    -63.3137E+06    -55.4532E+06    -16.5446E+06     43.5874E+06    -18.8926E+06         36.3470
            1933     9.97046E-03     122.129E-03     266.767E-03    -124.701E-03    -196.231E-03    -124.573E-03     266.640E-03    -196.231E-03     9.32017E-03     209.566E-03    -98.7891E-03    -110.758E-03    -109.052E-03     207.860E-03    -98.7891E-03     46.5839E-03     55.2841E+06     8.17580E+06    -53.5892E+06    -47.4401E+06     2.02673E+06     55.2841E+06    -18.3854E+06         36.8312
            1934     10.8668E-03     122.168E-03     249.295E-03    -111.189E-03    -189.725E-03    -110.209E-03     248.315E-03    -189.725E-03     31.1466E-03     212.339E-03    -99.7306E-03    -112.558E-03    -110.904E-03     210.685E-03    -99.7306E-03     46.2091E-03     63.6805E+06     25.1990E+06    -44.5350E+06    -39.3832E+06     20.0472E+06     63.6805E+06    -18.0888E+06         37.6767
            1935     11.7611E-03     122.210E-03     223.801E-03    -92.2814E-03    -182.936E-03    -90.7871E-03     222.307E-03    -182.936E-03     6.78130E-03     214.895E-03    -100.720E-03    -114.181E-03    -112.611E-03     213.324E-03    -100.720E-03     45.3295E-03     69.0176E+06     39.2144E+06    -36.6979E+06    -31.4514E+06     33.9679E+06     69.0176E+06    -19.0926E+06         39.1369
            1936     12.6548E-03     122.249E-03     182.052E-03    -56.0286E-03    -175.176E-03    -55.2260E-03     181.249E-03    -175.176E-03    -13.0883E-03     217.159E-03    -101.632E-03    -115.533E-03    -114.026E-03     215.651E-03    -101.632E-03     44.6746E-03     68.8349E+06     53.0809E+06    -30.9945E+06    -24.1465E+06     46.2329E+06     68.8349E+06    -22.8885E+06         41.2757
            1937     13.5462E-03     122.292E-03     151.910E-03    -31.4035E-03    -166.484E-03    -31.1671E-03     151.673E-03    -166.484E-03     7.05094E-03     218.659E-03    -102.498E-03    -116.151E-03    -114.752E-03     217.260E-03    -102.498E-03     43.1648E-03     74.9381E+06     68.5689E+06    -23.4122E+06    -17.1084E+06     62.2651E+06     74.9381E+06    -23.0599E+06         44.0558
            1938     14.4386E-03     122.335E-03     136.211E-03    -22.4359E-03    -157.768E-03    -18.7703E-03     132.545E-03    -157.768E-03    -1.66870E-03     219.916E-03    -103.305E-03    -116.624E-03    -115.199E-03     218.490E-03    -103.305E-03     43.6762E-03     86.8314E+06     70.8123E+06    -14.7232E+06    -10.2105E+06     78.2583E+06     74.8726E+06    -20.3457E+06         47.1599
            1939     15.3299E-03     122.385E-03     112.086E-03    -1.02793E-03    -149.060E-03     4.35582E-03     106.702E-03    -149.060E-03    -13.1314E-03     220.809E-03    -104.128E-03    -116.686E-03    -115.642E-03     219.764E-03    -104.128E-03     36.3207E-03     91.9936E+06     36.8686E+06    -10.4448E+06    -4.56302E+06     42.9455E+06     80.0348E+06    -14.1128E+06         49.9005
            1940     914.469E-06     123.020E-03     338.304E-03    -154.141E-03    -249.643E-03    -166.173E-03     337.542E-03    -236.849E-03    -17.6102E-03     179.827E-03    -89.8001E-03    -90.0256E-03    -89.8528E-03     179.741E-03    -89.8865E-03     8.99251E-03    -126.327E+06    -130.041E+06    -228.699E+06    -129.771E+06    -228.502E+06    -126.794E+06    -1.18699E+06         33.8378
            1941     1.82893E-03     123.033E-03     393.192E-03    -208.251E-03    -239.575E-03    -234.768E-03     388.385E-03    -208.251E-03    -22.1396E-03     180.665E-03    -90.0017E-03    -90.6718E-03    -90.4376E-03     180.431E-03    -90.0017E-03     15.6116E-03    -111.898E+06    -122.521E+06    -195.706E+06    -122.966E+06    -195.260E+06    -111.898E+06    -4.70895E+06         33.9295
            1942     2.74135E-03     123.052E-03     417.507E-03    -217.651E-03    -243.917E-03    -238.429E-03     412.716E-03    -218.347E-03    -17.0312E-03     182.381E-03    -90.3272E-03    -92.0421E-03    -91.5612E-03     181.901E-03    -90.3272E-03     22.6336E-03    -95.6620E+06    -117.946E+06    -171.837E+06    -118.675E+06    -171.107E+06    -95.6620E+06    -5.92208E+06         34.0608
            1943     3.65297E-03     123.079E-03     418.674E-03    -222.735E-03    -238.000E-03    -236.838E-03     418.209E-03    -223.432E-03     2.22469E-03     184.834E-03    -90.8819E-03    -93.9290E-03    -93.1343E-03     184.039E-03    -90.8819E-03     29.5360E-03    -72.0083E+06    -111.498E+06    -150.778E+06    -112.520E+06    -149.756E+06    -72.0083E+06    -6.14066E+06         34.2392
            1944     4.56373E-03     123.109E-03     401.271E-03    -211.205E-03    -232.019E-03    -218.418E-03     400.955E-03    -224.490E-03     25.0068E-03     187.770E-03    -91.6355E-03    -96.1521E-03    -95.0321E-03     186.651E-03    -91.6355E-03     35.4602E-03    -44.2067E+06    -98.9474E+06    -126.119E+06    -102.794E+06    -122.272E+06    -44.2067E+06    -7.53991E+06         34.4718
            1945     5.47246E-03     123.145E-03     371.489E-03    -195.109E-03    -221.539E-03    -194.149E-03     370.529E-03    -221.539E-03     11.0078E-03     191.011E-03    -92.4391E-03    -98.5569E-03    -97.1111E-03     189.565E-03    -92.4391E-03     40.7342E-03    -21.3915E+06    -85.1464E+06    -105.826E+06    -92.4551E+06    -98.5176E+06    -21.3915E+06    -9.37933E+06         34.7441
            1946     6.37898E-03     123.186E-03     356.785E-03    -190.978E-03    -217.134E-03    -189.501E-03     355.307E-03    -217.134E-03     8.71355E-03     194.340E-03    -93.3057E-03    -101.009E-03    -99.2741E-03     192.606E-03    -93.3057E-03     45.0653E-03    -1.77201E+06    -65.4387E+06    -90.3368E+06    -82.9534E+06    -72.8222E+06    -1.77201E+06     -9.1477E+06         35.0461
            1947     7.28382E-03     123.227E-03     335.042E-03    -172.588E-03    -212.379E-03    -171.285E-03     333.739E-03    -212.379E-03     14.5863E-03     198.018E-03    -94.2564E-03    -103.759E-03    -101.799E-03     196.058E-03    -94.2564E-03     48.4154E-03     18.3782E+06    -39.1671E+06    -78.4530E+06    -74.6029E+06    -43.0172E+06     18.3782E+06    -11.1371E+06         35.3953
            1948     8.18638E-03     123.272E-03     306.748E-03    -146.417E-03    -206.282E-03    -145.516E-03     305.846E-03    -206.282E-03     18.7202E-03     201.888E-03    -95.2714E-03    -106.595E-03    -104.496E-03     199.789E-03    -95.2714E-03     50.6617E-03     32.6303E+06    -22.3373E+06    -72.8122E+06    -66.8221E+06    -28.3274E+06     32.6303E+06    -15.8315E+06         35.7828
            1949     9.08568E-03     123.315E-03     292.364E-03    -138.076E-03    -199.737E-03    -137.720E-03     292.008E-03    -199.737E-03     16.8590E-03     205.433E-03    -96.3848E-03    -109.065E-03    -106.948E-03     203.316E-03    -96.3848E-03     51.3702E-03     42.5854E+06    -8.85898E+06    -64.7053E+06    -58.3240E+06    -15.2402E+06     42.5854E+06    -17.6028E+06         36.1968
            1950     9.98418E-03     123.360E-03     280.099E-03    -131.616E-03    -193.738E-03    -131.411E-03     279.894E-03    -193.738E-03     11.9746E-03     209.103E-03    -97.4853E-03    -111.649E-03    -109.600E-03     207.054E-03    -97.4853E-03     51.0500E-03     53.3888E+06     8.88046E+06    -54.2068E+06    -49.4912E+06     4.16484E+06     53.3888E+06    -16.2865E+06         36.7360
            1951     10.8792E-03     123.404E-03     247.081E-03    -104.521E-03    -187.330E-03    -103.552E-03     246.112E-03    -187.330E-03     32.5325E-03     212.736E-03    -98.5819E-03    -114.156E-03    -112.234E-03     210.814E-03    -98.5819E-03     49.9422E-03     62.4419E+06     28.8049E+06    -46.0701E+06    -41.5639E+06     24.2986E+06     62.4419E+06    -17.6200E+06         37.6412
            1952     11.7729E-03     123.447E-03     213.496E-03    -77.8857E-03    -179.806E-03    -76.9725E-03     212.583E-03    -179.806E-03     11.7160E-03     215.947E-03    -99.7569E-03    -116.202E-03    -114.421E-03     214.166E-03    -99.7569E-03     48.4946E-03     68.5929E+06     45.7146E+06    -38.0743E+06    -32.5656E+06     40.2059E+06     68.5929E+06    -20.7124E+06         39.1541
            1953     12.6639E-03     123.492E-03     203.509E-03    -72.0369E-03    -172.190E-03    -71.7294E-03     203.202E-03    -172.190E-03    -1.95443E-03     218.808E-03    -100.878E-03    -117.941E-03    -116.292E-03     217.159E-03    -100.878E-03     46.9909E-03     70.9441E+06     57.7426E+06    -31.5769E+06    -25.2922E+06     53.5901E+06     68.8118E+06    -22.9823E+06         41.3412
            1954     13.5543E-03     123.537E-03     182.552E-03    -57.0649E-03    -164.957E-03    -56.8588E-03     182.345E-03    -164.957E-03     10.2897E-03     220.882E-03    -101.971E-03    -118.917E-03    -117.454E-03     219.419E-03    -101.971E-03     44.4677E-03     75.8978E+06     69.3184E+06    -25.4001E+06    -18.7023E+06     64.7528E+06     73.7656E+06    -24.2693E+06         44.1666
            1955     14.4431E-03     123.581E-03     147.886E-03    -28.8064E-03    -157.262E-03    -25.8859E-03     144.965E-03    -157.262E-03    -5.41490E-03     222.394E-03    -102.966E-03    -119.438E-03    -117.971E-03     220.928E-03    -102.966E-03     44.6501E-03     83.0155E+06     67.9158E+06    -17.0278E+06    -11.4186E+06     74.2294E+06     71.0928E+06    -22.2921E+06         47.2980
            1956     15.3322E-03     123.632E-03     121.101E-03    -9.13290E-03    -148.967E-03    -4.61801E-03     116.586E-03    -148.967E-03    -17.6357E-03     223.237E-03    -103.966E-03    -119.275E-03    -118.215E-03     222.178E-03    -103.966E-03     36.7944E-03     85.7704E+06     31.9650E+06     -21.745E+06    -5.74160E+06     27.8843E+06     73.8476E+06    -14.7362E+06         50.0366
            1957     915.024E-06     124.215E-03     414.556E-03    -185.792E-03    -281.169E-03    -188.875E-03     413.589E-03    -277.120E-03    -5.86995E-03     177.825E-03    -88.7409E-03    -89.0892E-03    -88.9482E-03     177.745E-03    -88.8016E-03     8.56407E-03    -137.331E+06    -139.432E+06    -220.117E+06    -138.408E+06    -219.792E+06    -138.680E+06    -4.18814E+06         33.6467
            1958     1.82963E-03     124.227E-03     414.121E-03    -214.175E-03    -246.384E-03    -225.417E-03     410.872E-03    -231.893E-03    -50.5947E-03     178.361E-03    -88.9512E-03    -89.4153E-03    -89.1608E-03     178.106E-03    -88.9512E-03     15.9892E-03    -127.569E+06    -135.505E+06    -191.146E+06    -136.014E+06    -190.387E+06    -127.819E+06    -5.86258E+06         33.7100
            1959     2.74413E-03     124.249E-03     396.502E-03    -202.346E-03    -237.966E-03    -209.052E-03     392.766E-03    -227.524E-03    -39.2605E-03     179.648E-03    -89.1667E-03    -90.4587E-03    -89.9155E-03     179.104E-03    -89.1667E-03     23.8873E-03    -105.776E+06    -128.942E+06    -169.951E+06    -129.636E+06    -169.257E+06    -105.776E+06    -4.77948E+06         33.8272
            1960     3.65871E-03     124.278E-03     387.431E-03    -204.803E-03    -225.758E-03    -206.753E-03     386.134E-03    -222.511E-03     20.4970E-03     181.634E-03    -89.5616E-03    -92.0171E-03    -91.1303E-03     180.747E-03    -89.5616E-03     30.9630E-03    -80.0498E+06    -120.361E+06    -147.146E+06    -121.309E+06    -146.199E+06    -80.0498E+06    -4.46635E+06         33.9911
            1961     4.57090E-03     124.312E-03     374.879E-03    -195.774E-03    -221.577E-03    -198.625E-03     374.483E-03    -218.330E-03     24.7440E-03     184.409E-03    -90.1583E-03    -94.2549E-03    -92.9874E-03     183.141E-03    -90.1583E-03     37.3754E-03    -54.1661E+06    -106.210E+06    -125.199E+06    -112.268E+06    -119.141E+06    -54.1661E+06    -4.92149E+06         34.2057
            1962     5.48077E-03     124.352E-03     352.856E-03    -180.322E-03    -213.166E-03    -179.780E-03     352.314E-03    -213.166E-03     31.1308E-03     187.709E-03    -90.8445E-03    -96.8670E-03    -95.2085E-03     186.051E-03    -90.8445E-03     43.2382E-03    -29.1914E+06    -88.3982E+06    -108.727E+06    -103.434E+06    -93.6917E+06    -29.1914E+06    -6.26672E+06         34.4749
            1963     6.38952E-03     124.395E-03     341.047E-03    -171.900E-03    -207.313E-03    -170.751E-03     339.899E-03    -207.313E-03     38.8191E-03     191.232E-03    -91.6669E-03    -99.5198E-03    -97.5029E-03     189.215E-03    -91.6669E-03     48.1926E-03    -6.00636E+06    -64.1739E+06    -96.5131E+06    -91.4221E+06    -69.2649E+06    -6.00636E+06    -9.67043E+06         34.7845
            1964     7.29583E-03     124.442E-03     343.622E-03    -179.805E-03    -205.317E-03    -181.252E-03     342.648E-03    -202.896E-03     29.9416E-03     195.010E-03    -92.6094E-03    -102.448E-03    -100.135E-03     192.696E-03    -92.6094E-03     52.2038E-03     15.9359E+06    -34.5568E+06    -80.0846E+06    -77.1237E+06    -37.5177E+06     15.9359E+06    -10.7158E+06         35.1460
            1965     8.19958E-03     124.492E-03     332.298E-03    -171.544E-03    -202.116E-03    -173.406E-03     331.739E-03    -199.695E-03     16.6960E-03     199.383E-03    -93.6396E-03    -105.770E-03    -103.295E-03     196.909E-03    -93.6396E-03     54.6843E-03     32.5335E+06    -17.5814E+06    -69.1583E+06    -65.8997E+06    -20.8400E+06     32.5335E+06    -12.1764E+06         35.5729
            1966     9.10111E-03     124.540E-03     292.436E-03    -135.338E-03    -194.981E-03    -135.053E-03     292.151E-03    -194.981E-03     3.57886E-03     204.278E-03    -94.8041E-03    -109.436E-03    -106.939E-03     201.782E-03    -94.8041E-03     55.7086E-03     43.0863E+06    -6.73149E+06    -62.0827E+06    -57.4100E+06    -11.4042E+06     43.0863E+06    -15.2599E+06         36.0465
            1967     9.99788E-03     124.590E-03     257.050E-03    -108.704E-03    -188.189E-03    -108.571E-03     256.918E-03    -188.189E-03     6.39710E-03     208.969E-03    -96.0851E-03    -112.981E-03    -110.572E-03     206.560E-03    -96.0851E-03     55.4445E-03     52.7476E+06     11.0790E+06    -53.3888E+06    -48.3163E+06     6.00657E+06     52.7476E+06    -16.9428E+06         36.6436
            1968     10.8926E-03     124.639E-03     237.788E-03    -94.9313E-03    -180.797E-03    -94.6867E-03     237.543E-03    -180.797E-03     14.8163E-03     213.382E-03    -97.4267E-03    -116.053E-03    -113.832E-03     211.161E-03    -97.4267E-03     53.8536E-03     63.7216E+06     36.6125E+06    -42.3763E+06    -37.3597E+06     31.5959E+06     63.7216E+06    -18.7409E+06         37.6014
            1969     11.7837E-03     124.687E-03     223.040E-03    -84.4798E-03    -173.599E-03    -84.3130E-03     222.873E-03    -173.599E-03     3.26123E-03     217.527E-03    -98.7752E-03    -118.725E-03    -116.729E-03     215.531E-03    -98.7752E-03     51.6002E-03     70.1083E+06     52.7019E+06    -34.2919E+06    -28.4612E+06     46.8712E+06     70.1083E+06    -21.5461E+06         39.1602
            1970     12.6735E-03     124.736E-03     207.389E-03    -76.5876E-03    -166.811E-03    -76.4051E-03     207.206E-03    -166.811E-03    -10.1944E-03     220.691E-03    -100.127E-03    -120.545E-03    -118.772E-03     218.919E-03    -100.127E-03     49.0285E-03     72.8539E+06     61.7583E+06    -27.4943E+06    -21.5086E+06     58.1736E+06     70.4529E+06    -22.4944E+06         41.3896
            1971     13.5606E-03     124.784E-03     177.308E-03    -50.6349E-03    -159.820E-03    -50.2116E-03     176.884E-03    -159.820E-03    -10.5247E-03     223.084E-03    -101.461E-03    -121.621E-03    -120.088E-03     221.551E-03    -101.461E-03     45.8165E-03     78.4962E+06     73.2910E+06    -22.5540E+06    -16.6167E+06     70.4453E+06     75.4046E+06    -23.2155E+06         44.2561
            1972     14.4477E-03     124.830E-03     149.920E-03    -27.1287E-03    -151.968E-03    -22.5501E-03     145.342E-03    -151.968E-03     28.4386E-03     224.917E-03    -102.644E-03    -122.263E-03    -120.775E-03     223.429E-03    -102.644E-03     45.3433E-03     80.6423E+06     67.6860E+06    -18.8676E+06    -11.5474E+06     71.2085E+06     69.7996E+06    -24.8422E+06         47.4120
            1973     15.3340E-03     124.884E-03     127.019E-03    -13.5272E-03    -143.777E-03    -8.83326E-03     122.325E-03    -143.777E-03     42.7956E-03     225.492E-03    -103.825E-03    -121.668E-03    -120.604E-03     224.428E-03    -103.825E-03     37.2073E-03     79.2182E+06     29.2735E+06    -33.9447E+06    -4.81676E+06     10.2977E+06     69.0660E+06    -16.6305E+06         50.1472
            1974     915.304E-06     125.408E-03     459.808E-03    -183.690E-03    -316.062E-03    -183.211E-03     459.329E-03    -316.062E-03     6.33434E-03     176.106E-03    -87.7331E-03    -88.3874E-03    -88.2995E-03     176.018E-03    -87.7331E-03     8.71518E-03    -154.673E+06    -157.627E+06    -211.898E+06    -156.815E+06    -211.728E+06    -155.654E+06    -2.24609E+06         33.4851
            1975     1.83147E-03     125.420E-03     393.311E-03    -198.860E-03    -239.222E-03    -198.624E-03     393.074E-03    -239.222E-03     1.66825E-03     176.343E-03    -88.0281E-03    -88.3423E-03    -88.0696E-03     176.070E-03    -88.0281E-03     16.5648E-03    -148.494E+06    -157.300E+06    -185.682E+06    -158.294E+06    -184.437E+06    -148.744E+06    -4.45416E+06         33.5339
            1976     2.74769E-03     125.442E-03     369.666E-03    -192.604E-03    -223.379E-03    -191.891E-03     368.953E-03    -223.379E-03     23.6319E-03     177.360E-03    -88.1550E-03    -89.1989E-03    -88.6439E-03     176.805E-03    -88.1550E-03     24.0251E-03    -126.502E+06    -147.735E+06    -171.578E+06    -151.611E+06    -167.702E+06    -126.502E+06    -6.59062E+06         33.6290
            1977     3.66160E-03     125.474E-03     353.254E-03    -185.195E-03    -213.992E-03    -184.187E-03     352.247E-03    -213.992E-03     35.3477E-03     178.961E-03    -88.4593E-03    -90.4986E-03    -89.5798E-03     178.042E-03    -88.4593E-03     31.2304E-03    -98.0118E+06    -130.424E+06    -151.699E+06    -138.820E+06    -143.304E+06    -98.0118E+06    -6.98416E+06         33.7695
            1978     4.57586E-03     125.509E-03     341.300E-03    -178.504E-03    -207.007E-03    -178.138E-03     340.933E-03    -207.007E-03     12.9467E-03     181.214E-03    -88.9306E-03    -92.2688E-03    -90.9177E-03     179.863E-03    -88.9306E-03     38.2101E-03    -66.5738E+06    -112.674E+06    -131.300E+06    -124.590E+06    -119.384E+06    -66.5738E+06    -5.98364E+06         33.9632
            1979     5.48917E-03     125.555E-03     344.433E-03    -181.291E-03    -202.001E-03    -180.477E-03     343.619E-03    -202.001E-03    -6.84745E-03     184.196E-03    -89.4715E-03    -94.7323E-03    -92.9332E-03     182.397E-03    -89.4715E-03     44.5853E-03    -35.9539E+06    -85.1484E+06    -112.443E+06    -109.773E+06    -87.8179E+06    -35.9539E+06    -6.52332E+06         34.2187
            1980     6.39914E-03     125.601E-03     338.074E-03    -171.762E-03    -198.040E-03    -170.886E-03     337.198E-03    -198.040E-03    -17.3661E-03     187.919E-03    -90.1773E-03    -97.7260E-03    -95.5030E-03     185.696E-03    -90.1773E-03     50.1486E-03    -10.1361E+06    -54.6501E+06    -99.8306E+06    -95.7737E+06    -58.7070E+06    -10.1361E+06    -12.5456E+06         34.5384
            1981     7.30744E-03     125.653E-03     326.394E-03    -160.144E-03    -196.352E-03    -162.420E-03     326.249E-03    -193.931E-03    -5.89932E-03     192.104E-03    -91.0625E-03    -101.054E-03    -98.4656E-03     189.516E-03    -91.0625E-03     54.8178E-03     10.3820E+06    -33.1088E+06    -86.2080E+06    -81.2624E+06    -38.0543E+06     10.3820E+06    -14.9462E+06         34.9261
            1982     8.21312E-03     125.706E-03     313.184E-03    -153.865E-03    -192.166E-03    -156.192E-03     313.090E-03    -189.745E-03    -540.326E-06     197.055E-03    -92.1149E-03    -104.990E-03    -102.186E-03     194.251E-03    -92.1149E-03     57.9080E-03     28.9260E+06    -13.7786E+06    -70.3965E+06    -67.2856E+06    -16.8894E+06     28.9260E+06    -12.3778E+06         35.3875
            1983     9.11430E-03     125.762E-03     288.922E-03    -139.314E-03    -185.060E-03    -139.074E-03     288.682E-03    -185.060E-03     2.60568E-03     202.970E-03    -93.3245E-03    -109.584E-03    -106.710E-03     200.096E-03    -93.3245E-03     59.6321E-03     43.3454E+06     863.981E+03    -59.1840E+06    -54.7546E+06    -3.56544E+06     43.3454E+06    -14.9851E+06         35.9104
            1984     10.0117E-03     125.819E-03     253.590E-03    -109.641E-03    -179.093E-03    -109.345E-03     253.294E-03    -179.093E-03    -102.766E-06     208.835E-03    -94.7510E-03    -114.140E-03    -111.372E-03     206.067E-03    -94.7510E-03     59.4824E-03     54.8765E+06     18.4180E+06    -49.1627E+06    -42.4430E+06     11.6984E+06     54.8765E+06    -20.0291E+06         36.5561
            1985     10.9049E-03     125.874E-03     230.665E-03    -91.9570E-03    -172.199E-03    -91.2990E-03     230.007E-03    -172.199E-03     8.05429E-03     214.279E-03    -96.3246E-03    -118.067E-03    -115.528E-03     211.741E-03    -96.3246E-03     57.8200E-03     65.6661E+06     42.5277E+06    -38.3385E+06    -31.6419E+06     35.8311E+06     65.6661E+06    -21.8732E+06         37.5522
            1986     11.7949E-03     125.930E-03     219.777E-03    -85.7265E-03    -165.456E-03    -85.0408E-03     219.092E-03    -165.456E-03     7.12167E-03     219.096E-03    -97.8814E-03    -121.208E-03    -118.960E-03     216.847E-03    -97.8814E-03     55.0625E-03     72.1293E+06     53.9887E+06    -28.6645E+06    -23.0647E+06     48.3889E+06     72.1293E+06    -20.3083E+06         39.1453
            1987     12.6810E-03     125.983E-03     187.821E-03    -58.8367E-03    -158.468E-03    -57.7230E-03     186.708E-03    -158.468E-03    -1.33202E-03     222.720E-03    -99.4521E-03    -123.261E-03    -121.323E-03     220.782E-03    -99.4521E-03     51.5890E-03     77.3321E+06     62.9649E+06    -23.1973E+06    -18.4066E+06     62.2264E+06     73.2798E+06    -19.9514E+06         41.4082
            1988     13.5676E-03     126.035E-03     159.328E-03    -33.4942E-03    -150.609E-03    -32.0321E-03     157.866E-03    -150.609E-03     6.77311E-03     225.286E-03    -100.993E-03    -124.283E-03    -122.634E-03     223.637E-03    -100.993E-03     47.8396E-03     82.7386E+06     74.7281E+06    -19.4587E+06    -13.8886E+06     73.9008E+06     77.9957E+06    -22.3609E+06         44.3092
            1989     14.4513E-03     126.083E-03     147.132E-03    -24.5303E-03    -142.546E-03    -20.0498E-03     142.651E-03    -142.546E-03     20.2563E-03     227.109E-03    -102.349E-03    -124.736E-03    -123.189E-03     225.562E-03    -102.349E-03     46.5437E-03     80.5000E+06     68.3764E+06    -16.4027E+06    -9.09314E+06     69.9228E+06     71.6441E+06    -24.3641E+06         47.4855
            1990     15.3360E-03     126.136E-03     123.990E-03    -4.80858E-03    -134.482E-03     2.21810E-03     116.963E-03    -134.482E-03     11.3574E-03     227.619E-03    -103.690E-03    -123.923E-03    -122.847E-03     226.543E-03    -103.690E-03     37.5994E-03     74.7589E+06     28.9968E+06    -46.7899E+06    -5.62572E+06    -4.00201E+06     66.5936E+06    -17.5264E+06         50.2143
            1991     916.838E-06     126.597E-03     379.187E-03    -139.849E-03    -282.104E-03    -139.532E-03     376.938E-03    -280.172E-03    -56.4962E-03     174.443E-03    -86.8911E-03    -87.5553E-03    -87.4353E-03     174.363E-03    -86.9308E-03     8.34493E-03    -184.258E+06    -194.840E+06    -220.676E+06    -197.412E+06    -207.590E+06    -194.772E+06    -1.40075E+06         33.3491
            1992     1.83298E-03     126.611E-03     352.359E-03    -182.514E-03    -213.833E-03    -188.660E-03     349.829E-03    -205.157E-03    -8.55252E-03     175.101E-03    -87.2938E-03    -87.8552E-03    -87.5946E-03     174.841E-03    -87.2938E-03     16.0589E-03    -162.865E+06    -180.093E+06    -196.164E+06    -188.372E+06    -176.010E+06    -174.740E+06    -5.91140E+06         33.3999
            1993     2.74778E-03     126.635E-03     356.674E-03    -194.573E-03    -210.437E-03    -203.046E-03     355.577E-03    -200.867E-03     24.8024E-03     175.822E-03    -87.5253E-03    -88.3528E-03    -87.8039E-03     175.273E-03    -87.5253E-03     23.7685E-03    -141.640E+06    -157.080E+06    -183.069E+06    -175.730E+06    -158.786E+06    -147.273E+06    -11.4977E+06         33.4860
            1994     3.66472E-03     126.665E-03     350.230E-03    -188.023E-03    -204.008E-03    -191.949E-03     349.956E-03    -199.808E-03     8.29237E-03     177.003E-03    -87.7693E-03    -89.2799E-03    -88.3453E-03     176.069E-03    -87.7693E-03     31.2867E-03    -113.994E+06    -129.578E+06    -168.195E+06    -158.478E+06    -138.001E+06    -115.287E+06    -16.1949E+06         33.6070
            1995     4.57982E-03     126.704E-03     345.723E-03    -185.217E-03    -199.150E-03    -186.677E-03     345.462E-03    -197.430E-03     1.00426E-03     178.889E-03    -88.0703E-03    -90.8141E-03    -89.4461E-03     177.521E-03    -88.0703E-03     38.2076E-03    -80.4163E+06    -105.506E+06    -146.418E+06    -135.121E+06    -116.803E+06    -80.4163E+06    -18.0729E+06         33.7774
            1996     5.49363E-03     126.750E-03     340.219E-03    -180.521E-03    -195.233E-03    -180.228E-03     339.578E-03    -194.886E-03    -25.4589E-03     181.323E-03    -88.4759E-03    -92.8330E-03    -90.9976E-03     179.487E-03    -88.4759E-03     44.6200E-03    -46.4024E+06    -75.6806E+06    -120.560E+06    -110.679E+06    -85.5609E+06    -46.4024E+06    -17.2914E+06         34.0166
            1997     6.40706E-03     126.803E-03     322.141E-03    -158.403E-03    -190.950E-03    -157.580E-03     321.318E-03    -190.950E-03    -17.1009E-03     184.912E-03    -89.0621E-03    -95.8201E-03    -93.5246E-03     182.617E-03    -89.0621E-03     50.5248E-03    -15.0094E+06    -44.8576E+06    -97.8211E+06    -91.9818E+06    -50.6969E+06    -15.0094E+06    -15.4782E+06         34.3409
            1998     7.31673E-03     126.857E-03     287.833E-03    -127.291E-03    -184.459E-03    -126.965E-03     287.507E-03    -184.459E-03     7.11171E-03     189.689E-03    -89.8692E-03    -99.7705E-03    -97.0930E-03     187.012E-03    -89.8692E-03     55.4039E-03     7.99142E+06    -28.5209E+06    -85.7143E+06    -79.3783E+06    -34.8569E+06     7.99142E+06    -17.3987E+06         34.7538
            1999     8.22324E-03     126.918E-03     260.860E-03    -112.514E-03    -176.628E-03    -112.356E-03     260.701E-03    -176.628E-03     13.8999E-03     195.101E-03    -90.9137E-03    -104.223E-03    -101.254E-03     192.131E-03    -90.9137E-03     59.3216E-03     26.4694E+06    -10.3997E+06    -71.6968E+06    -64.8912E+06    -17.2053E+06     26.4694E+06    -18.1549E+06         35.2451
            2000     9.12589E-03     126.982E-03     261.745E-03    -122.940E-03    -169.919E-03    -122.669E-03     261.473E-03    -169.919E-03     18.1111E-03     201.364E-03    -92.1779E-03    -109.202E-03    -106.080E-03     198.242E-03    -92.1779E-03     61.9640E-03     44.2042E+06     12.2627E+06    -56.4095E+06    -50.0972E+06     5.95040E+06     44.2042E+06    -18.8819E+06         35.7997
            2001     10.0236E-03     127.047E-03     263.918E-03    -126.890E-03    -164.974E-03    -126.421E-03     263.448E-03    -164.974E-03     12.8395E-03     208.100E-03    -93.6687E-03    -114.504E-03    -111.435E-03     205.031E-03    -93.6687E-03     62.6028E-03     57.8463E+06     29.6321E+06    -46.7458E+06    -37.9326E+06     20.8189E+06     57.8463E+06    -23.8887E+06         36.4692
            2002     10.9161E-03     127.111E-03     242.242E-03    -107.064E-03    -160.197E-03    -105.659E-03     240.837E-03    -160.197E-03     27.8630E-03     214.563E-03    -95.3408E-03    -119.314E-03    -116.455E-03     211.705E-03    -95.3408E-03     61.4712E-03     68.1025E+06     43.1850E+06    -35.5759E+06    -26.9500E+06     34.5590E+06     68.1025E+06    -24.1386E+06         37.4822
            2003     11.8042E-03     127.172E-03     197.228E-03    -68.2744E-03    -153.904E-03    -64.8381E-03     193.791E-03    -153.904E-03     623.574E-06     220.131E-03    -97.0702E-03    -123.043E-03    -120.501E-03     217.589E-03    -97.0702E-03     58.7646E-03     74.4986E+06     50.3751E+06    -24.8767E+06    -19.7027E+06     45.2011E+06     74.4986E+06    -18.7471E+06         39.0967
            2004     12.6906E-03     127.231E-03     162.491E-03    -38.4040E-03    -146.045E-03    -35.2286E-03     159.315E-03    -146.045E-03    -16.6636E-03     224.527E-03    -98.8311E-03    -125.679E-03    -123.510E-03     222.357E-03    -98.8311E-03     54.8798E-03     84.9914E+06     67.5428E+06    -16.5458E+06    -12.7592E+06     69.1096E+06     79.6379E+06    -17.9198E+06         41.3829
            2005     13.5725E-03     127.286E-03     155.714E-03    -35.9517E-03    -138.227E-03    -34.7945E-03     154.557E-03    -138.227E-03     19.6017E-03     227.321E-03    -100.549E-03    -126.776E-03    -124.988E-03     225.532E-03    -100.549E-03     50.1075E-03     88.2771E+06     77.6986E+06    -12.1020E+06    -6.40337E+06     77.3535E+06     82.9236E+06    -21.9686E+06         44.3094
            2006     14.4564E-03     127.339E-03     143.522E-03    -29.3406E-03    -131.199E-03    -28.8462E-03     143.027E-03    -131.199E-03     7.66636E-03     229.076E-03    -102.067E-03    -126.999E-03    -125.358E-03     227.436E-03    -102.067E-03     48.2128E-03     81.4095E+06     70.2206E+06    -9.43162E+06    -4.08256E+06     70.8355E+06     75.4456E+06    -20.0106E+06         47.4987
            2007     15.3387E-03     127.393E-03     113.603E-03    -10.1282E-03    -124.250E-03    -6.95698E-03     110.432E-03    -124.250E-03    -21.7159E-03     229.834E-03    -103.549E-03    -126.274E-03    -125.172E-03     228.732E-03    -103.549E-03     37.9748E-03     74.1646E+06     34.0181E+06    -58.1196E+06    -2.50405E+06    -15.6336E+06     68.2007E+06    -14.5472E+06         50.2157
            2008     916.732E-06     127.787E-03     298.019E-03    -115.358E-03    -227.114E-03    -135.407E-03     295.067E-03    -204.113E-03    -62.5310E-03     173.849E-03    -86.7603E-03    -87.0828E-03    -86.8713E-03     173.770E-03    -86.8923E-03     8.57751E-03    -190.164E+06    -229.840E+06    -238.263E+06    -233.258E+06    -193.265E+06    -231.744E+06    -10.2115E+06         33.3022
            2009     1.83229E-03     127.801E-03     344.220E-03    -175.281E-03    -205.658E-03    -201.504E-03     340.699E-03    -175.913E-03    -36.7553E-03     174.201E-03    -86.8835E-03    -87.3688E-03    -87.0740E-03     173.949E-03    -86.9268E-03     15.6589E-03    -157.535E+06    -205.833E+06    -223.856E+06    -219.420E+06    -161.972E+06    -205.833E+06    -16.2067E+06         33.3398
            2010     2.75003E-03     127.824E-03     331.485E-03    -176.581E-03    -191.956E-03    -184.580E-03     329.913E-03    -182.385E-03    -3.28107E-03     175.047E-03    -87.1667E-03    -87.9423E-03    -87.4137E-03     174.518E-03    -87.1667E-03     23.3046E-03    -133.469E+06    -169.234E+06    -208.499E+06     -199.57E+06    -142.398E+06    -169.234E+06    -24.0398E+06         33.4123
            2011     3.66519E-03     127.856E-03     328.552E-03    -177.087E-03    -191.217E-03    -182.478E-03     324.985E-03    -182.259E-03     33.0181E-03     176.300E-03    -87.4791E-03    -88.8308E-03    -87.9595E-03     175.429E-03    -87.4791E-03     30.1524E-03    -107.818E+06    -133.857E+06    -190.796E+06    -176.293E+06    -124.013E+06    -132.166E+06    -30.7579E+06         33.5281
            2012     4.58117E-03     127.897E-03     330.391E-03    -176.833E-03    -187.722E-03    -178.906E-03     325.986E-03    -181.243E-03     65.9352E-03     177.666E-03    -87.7221E-03    -89.9676E-03    -88.6901E-03     176.389E-03    -87.7221E-03     36.7550E-03    -81.2147E+06    -104.324E+06    -173.126E+06    -152.910E+06    -105.873E+06    -99.8822E+06    -36.5212E+06         33.6894
            2013     5.49651E-03     127.945E-03     310.052E-03    -160.530E-03    -178.527E-03    -157.227E-03     306.401E-03    -178.179E-03     49.6955E-03     179.849E-03    -88.0509E-03    -91.8083E-03    -90.0914E-03     178.132E-03    -88.0509E-03     42.9502E-03    -54.4473E+06    -73.8795E+06    -149.266E+06    -126.986E+06    -84.2290E+06    -66.3776E+06    -37.9398E+06         33.9187
            2014     6.41010E-03     127.999E-03     284.685E-03    -140.245E-03    -172.627E-03    -137.113E-03     281.553E-03    -172.627E-03     54.1140E-03     183.157E-03    -88.5814E-03    -94.6023E-03    -92.4465E-03     181.002E-03    -88.5814E-03     48.6759E-03    -24.5716E+06    -39.8140E+06    -115.540E+06    -97.5859E+06    -53.6852E+06    -28.6546E+06    -31.8990E+06         34.2350
            2015     7.32141E-03     128.062E-03     263.376E-03    -124.412E-03    -166.174E-03    -123.723E-03     262.687E-03    -166.174E-03     27.6905E-03     187.894E-03    -89.3390E-03    -98.5683E-03    -96.0162E-03     185.341E-03    -89.3390E-03     53.8034E-03     6.09543E+06    -15.5124E+06    -84.6195E+06    -70.2232E+06    -29.4614E+06     5.64814E+06    -26.8275E+06         34.6441
            2016     8.22843E-03     128.128E-03     247.764E-03    -114.837E-03    -159.924E-03    -114.649E-03     247.576E-03    -159.924E-03     15.6221E-03     193.678E-03    -90.3723E-03    -103.329E-03    -100.442E-03     190.791E-03    -90.3723E-03     58.2607E-03     30.0891E+06     155.191E+03    -65.3969E+06    -49.8613E+06    -15.3804E+06     30.0891E+06    -27.2329E+06         35.1348
            2017     9.13187E-03     128.199E-03     235.574E-03    -106.803E-03    -154.138E-03    -106.356E-03     235.126E-03    -154.138E-03     2.92392E-03     199.808E-03    -91.5926E-03    -108.239E-03    -105.131E-03     196.699E-03    -91.5926E-03     61.5721E-03     50.6603E+06     22.3865E+06    -46.5144E+06    -32.7132E+06     8.58532E+06     50.6603E+06    -25.8038E+06         35.6906
            2018     10.0304E-03     128.272E-03     228.912E-03    -101.890E-03    -148.767E-03    -101.409E-03     228.430E-03    -148.767E-03     682.948E-06     206.443E-03    -93.0133E-03    -113.450E-03    -110.251E-03     203.244E-03    -93.0133E-03     63.6549E-03     67.4571E+06     39.6990E+06    -31.4272E+06    -20.7873E+06     29.0592E+06     67.4571E+06    -24.2769E+06         36.3597
            2019     10.9245E-03     128.346E-03     215.144E-03    -90.9483E-03    -143.473E-03    -90.1757E-03     214.371E-03    -143.473E-03     20.2274E-03     213.500E-03    -94.6549E-03    -118.873E-03    -115.772E-03     210.400E-03    -94.6549E-03     63.8693E-03     74.2758E+06     40.2175E+06    -25.0587E+06    -15.4078E+06     30.5666E+06     74.2758E+06    -22.2825E+06         37.3758
            2020     11.8136E-03     128.416E-03     189.981E-03    -69.1146E-03    -137.566E-03    -66.2827E-03     187.149E-03    -137.566E-03    -10.5183E-03     220.010E-03    -96.4099E-03    -123.567E-03    -120.752E-03     217.194E-03    -96.4099E-03     61.8906E-03     80.4343E+06     48.1460E+06    -15.1099E+06    -8.36551E+06     41.4016E+06     80.4343E+06    -18.1966E+06         39.0007
            2021     12.6973E-03     128.482E-03     166.400E-03    -48.7871E-03    -130.989E-03    -45.7614E-03     163.374E-03    -130.989E-03    -14.3149E-03     225.289E-03    -98.2465E-03    -127.020E-03    -124.555E-03     222.824E-03    -98.2465E-03     58.6320E-03     89.7949E+06     74.7703E+06    -5.76068E+06    -2.17867E+06     73.3168E+06     87.6664E+06    -16.3116E+06         41.2974
            2022     13.5803E-03     128.541E-03     140.907E-03    -27.6966E-03    -124.051E-03    -25.2882E-03     138.498E-03    -124.051E-03     24.7836E-03     229.162E-03    -100.114E-03    -129.061E-03    -127.101E-03     227.202E-03    -100.114E-03     52.6367E-03     91.8495E+06     82.1899E+06    -4.82788E+06    -1.70417E+06     81.1947E+06     89.7210E+06    -14.7877E+06         44.2353
            2023     14.4602E-03     128.594E-03     120.648E-03    -18.1454E-03    -117.069E-03    -15.9785E-03     118.481E-03    -117.069E-03     25.4697E-03     231.251E-03    -101.804E-03    -129.456E-03    -127.783E-03     229.578E-03    -101.804E-03     49.0056E-03     85.0923E+06     73.8693E+06    -4.96050E+06    -1.19384E+06     73.7946E+06     81.4004E+06    -15.4610E+06         47.4242
            2024     15.3414E-03     128.653E-03     106.010E-03    -14.7088E-03    -110.583E-03    -13.8757E-03     105.177E-03    -110.583E-03     7.69182E-03     231.839E-03    -103.412E-03    -128.423E-03    -127.333E-03     230.748E-03    -103.412E-03     37.8321E-03     72.5042E+06     38.0923E+06    -69.5141E+06     1.40835E+06    -29.1382E+06     68.8123E+06    -11.9053E+06         50.1219
            2025     915.574E-06     128.977E-03     277.945E-03    -127.080E-03    -188.920E-03    -135.986E-03     263.533E-03    -165.603E-03     62.1470E-03     174.691E-03    -87.1905E-03    -87.4957E-03    -87.3199E-03     174.608E-03    -87.2828E-03     9.09818E-03    -156.489E+06    -204.317E+06    -215.798E+06    -209.791E+06    -162.497E+06    -204.317E+06    -16.4918E+06         33.4002
            2026     1.83319E-03     128.991E-03     299.354E-03    -155.269E-03    -179.723E-03    -177.679E-03     297.943E-03    -155.902E-03    -20.5174E-03     175.341E-03    -87.3579E-03    -87.9835E-03    -87.7274E-03     175.128E-03    -87.4012E-03     14.5490E-03    -127.056E+06    -186.740E+06    -210.065E+06    -199.675E+06    -137.446E+06    -186.740E+06    -26.2625E+06         33.4402
            2027     2.74813E-03     129.016E-03     282.471E-03    -153.884E-03    -161.557E-03    -153.550E-03     280.268E-03    -159.688E-03     6.25076E-03     176.122E-03    -87.6491E-03    -88.4904E-03    -88.0715E-03     175.703E-03    -87.6491E-03     20.7441E-03    -102.733E+06    -160.063E+06    -201.935E+06    -186.312E+06    -118.355E+06    -160.063E+06    -35.4981E+06         33.4992
            2028     3.66429E-03     129.048E-03     278.777E-03    -151.634E-03    -163.335E-03    -152.196E-03     273.215E-03    -157.212E-03     68.6443E-03     176.963E-03    -87.9247E-03    -89.0334E-03    -88.3311E-03     176.260E-03    -87.9247E-03     26.9971E-03    -81.9837E+06    -129.667E+06    -192.318E+06    -170.149E+06    -104.153E+06    -129.667E+06    -43.8128E+06         33.5993
            2029     4.57933E-03     129.089E-03     272.229E-03    -148.349E-03    -159.673E-03    -148.063E-03     267.184E-03    -154.915E-03     64.6842E-03     178.342E-03    -88.1630E-03    -90.1571E-03    -89.1115E-03     177.297E-03    -88.1630E-03     33.2315E-03    -57.7092E+06    -98.0684E+06    -179.611E+06    -150.807E+06    -86.5132E+06    -98.0684E+06    -51.4606E+06         33.7552
            2030     5.49411E-03     129.139E-03     262.867E-03    -141.633E-03    -152.693E-03    -136.346E-03     256.750E-03    -151.862E-03     14.5795E-03     180.542E-03    -88.5265E-03    -91.9963E-03    -90.5853E-03     179.131E-03    -88.5265E-03     38.9390E-03    -37.3207E+06    -68.5647E+06    -166.026E+06    -129.645E+06    -73.7017E+06    -68.5647E+06    -57.6506E+06         33.9765
            2031     6.40682E-03     129.196E-03     255.561E-03    -138.111E-03    -149.245E-03    -133.101E-03     249.720E-03    -148.414E-03     1.77652E-03     183.545E-03    -89.0674E-03    -94.5057E-03    -92.7112E-03     181.751E-03    -89.0674E-03     44.3909E-03    -19.3459E+06    -40.8195E+06    -143.003E+06    -105.610E+06    -56.7388E+06    -40.8195E+06    -56.6728E+06         34.2653
            2032     7.31810E-03     129.262E-03     245.865E-03    -128.193E-03    -145.112E-03    -126.616E-03     244.288E-03    -145.112E-03    -11.1337E-03     187.463E-03    -89.7604E-03    -97.7391E-03    -95.5725E-03     185.296E-03    -89.7604E-03     49.3998E-03     5.25592E+06    -13.5131E+06    -110.169E+06    -78.8343E+06    -30.6296E+06    -8.96208E+06    -49.8964E+06         34.6266
            2033     8.22660E-03     129.337E-03     232.664E-03    -116.590E-03    -141.418E-03    -115.829E-03     231.902E-03    -141.418E-03     3.55411E-03     192.458E-03    -90.6925E-03    -101.771E-03    -99.2523E-03     189.939E-03    -90.6925E-03     54.1236E-03     28.8744E+06     9.69193E+06    -81.1077E+06    -52.6293E+06    -13.4166E+06     23.5046E+06    -43.8150E+06         35.0622
            2034     9.13000E-03     129.413E-03     213.350E-03    -101.219E-03    -136.902E-03    -99.3431E-03     211.474E-03    -136.902E-03     22.6085E-03     198.037E-03    -91.7822E-03    -106.258E-03    -103.407E-03     195.186E-03    -91.7822E-03     58.5972E-03     50.3177E+06     29.6286E+06    -55.9450E+06    -31.5258E+06     5.20946E+06     50.3177E+06    -38.4462E+06         35.5697
            2035     10.0312E-03     129.495E-03     187.964E-03    -75.3039E-03    -131.138E-03    -73.4554E-03     186.115E-03    -131.138E-03     16.4082E-03     204.193E-03    -93.0199E-03    -111.159E-03    -108.075E-03     201.110E-03    -93.0199E-03     62.0488E-03     69.8175E+06     38.2435E+06    -30.0755E+06    -14.8846E+06     23.0526E+06     69.8175E+06    -27.8297E+06         36.2137
            2036     10.9276E-03     129.577E-03     162.450E-03    -52.8622E-03    -124.297E-03    -52.5633E-03     162.151E-03    -124.297E-03     5.48412E-03     210.928E-03    -94.4989E-03    -116.422E-03    -113.308E-03     207.813E-03    -94.4989E-03     63.5439E-03     80.9975E+06     38.2614E+06    -13.3348E+06    -3.70929E+06     28.6358E+06     80.9975E+06    -19.2779E+06         37.2267
            2037     11.8180E-03     129.657E-03     161.633E-03    -55.6643E-03    -117.717E-03    -55.2757E-03     161.245E-03    -117.717E-03     2.70847E-03     217.859E-03    -96.1173E-03    -121.719E-03    -118.753E-03     214.893E-03    -96.1173E-03     63.1722E-03     85.9033E+06     41.1903E+06    -6.23551E+06    -289.399E+03     35.2442E+06     85.9033E+06    -14.5315E+06         38.8505
            2038     12.7053E-03     129.730E-03     162.998E-03    -57.4211E-03    -112.167E-03    -56.2612E-03     161.839E-03    -112.167E-03     14.7832E-03     224.400E-03    -97.8483E-03    -126.521E-03    -123.847E-03     221.726E-03    -97.8483E-03     60.9734E-03     94.9560E+06     70.3226E+06    -3.65203E+06    -1.70215E+06     70.8826E+06     92.4461E+06    -7.68138E+06         41.1380
            2039     13.5862E-03     129.799E-03     134.878E-03    -33.3316E-03    -106.663E-03    -30.8858E-03     132.432E-03    -106.663E-03     17.8097E-03     229.775E-03    -99.7211E-03    -130.048E-03    -127.889E-03     227.616E-03    -99.7211E-03     55.3592E-03     100.194E+06     86.2217E+06    -2.82765E+06    -1.53667E+06     87.4406E+06     97.6840E+06    -6.83831E+06         44.0605
            2040     14.4641E-03     129.856E-03     101.161E-03    -8.59654E-03    -100.469E-03    -6.35509E-03     98.9198E-03    -100.469E-03     16.6085E-03     233.026E-03    -101.526E-03    -131.502E-03    -129.728E-03     231.252E-03    -101.526E-03     50.6979E-03     91.0770E+06     73.9207E+06    -3.93253E+06    -1.36535E+06     73.5715E+06     88.8590E+06    -8.32015E+06         47.2285
            2041     15.3428E-03     129.910E-03     90.0079E-03    -3.79587E-03    -94.0790E-03     5.71716E-03     80.4949E-03    -94.0790E-03    -12.2536E-03     234.054E-03    -103.268E-03    -130.787E-03    -129.660E-03     232.926E-03    -103.268E-03     38.9525E-03     71.6986E+06     34.1169E+06    -78.4199E+06    -4.05237E+06    -38.0327E+06     69.4806E+06    -6.52066E+06         49.9015
            2042     916.618E-06     130.169E-03     233.492E-03    -108.078E-03    -157.020E-03    -93.3569E-03     216.523E-03    -154.772E-03     123.823E-03     178.641E-03    -89.0080E-03    -89.6256E-03    -89.2711E-03     178.591E-03    -89.3131E-03     6.56711E-03    -111.571E+06    -136.273E+06    -154.372E+06    -140.540E+06    -125.403E+06    -136.273E+06    -14.8961E+06         33.7569
            2043     1.82951E-03     130.185E-03     220.977E-03    -120.092E-03    -133.706E-03    -125.970E-03     217.109E-03    -123.960E-03     9.90313E-03     179.568E-03    -89.4737E-03    -90.0555E-03    -89.9283E-03     179.441E-03    -89.4737E-03     11.1498E-03    -88.7260E+06    -124.178E+06    -153.931E+06    -136.699E+06    -105.958E+06    -124.178E+06    -28.0897E+06         33.8006
            2044     2.74366E-03     130.210E-03     240.576E-03    -126.182E-03    -144.888E-03    -141.221E-03     236.909E-03    -126.182E-03     13.7081E-03     179.907E-03    -89.7266E-03    -90.1759E-03    -89.9312E-03     179.662E-03    -89.7266E-03     15.7605E-03    -64.8282E+06    -106.487E+06    -153.350E+06    -128.918E+06    -89.2599E+06    -106.487E+06    -38.6881E+06         33.8507
            2045     3.65796E-03     130.241E-03     240.144E-03    -128.777E-03    -142.656E-03    -139.729E-03     237.623E-03    -129.183E-03     54.3104E-03     180.457E-03    -89.9058E-03    -90.5528E-03    -90.1278E-03     180.032E-03    -89.9058E-03     20.8160E-03    -43.2967E+06    -82.4906E+06    -151.956E+06    -117.576E+06    -77.6761E+06    -82.4906E+06    -49.4340E+06         33.9319
            2046     4.57245E-03     130.284E-03     227.760E-03    -127.483E-03    -134.079E-03    -129.594E-03     225.431E-03    -129.639E-03     29.8975E-03     181.842E-03    -90.0962E-03    -91.7181E-03    -91.0746E-03     181.198E-03    -90.0962E-03     25.8929E-03    -22.6982E+06    -60.7133E+06    -146.459E+06    -104.928E+06    -64.2293E+06    -60.7133E+06    -57.6587E+06         34.0627
            2047     5.48464E-03     130.334E-03     230.982E-03    -126.990E-03    -136.256E-03    -129.468E-03     225.944E-03    -128.740E-03     2.29773E-03     183.721E-03    -90.4679E-03    -93.2710E-03    -92.3792E-03     182.829E-03    -90.4679E-03     30.6820E-03    -7.20791E+06    -41.2693E+06    -140.928E+06    -94.6491E+06    -53.4871E+06    -41.2693E+06    -63.2490E+06         34.2391
            2048     6.39665E-03     130.396E-03     224.140E-03    -121.765E-03    -132.715E-03    -122.696E-03     219.729E-03    -127.375E-03    -13.0365E-03     186.131E-03    -90.9640E-03    -95.1466E-03    -93.9610E-03     184.945E-03    -90.9640E-03     35.8245E-03     1.57560E+06    -26.3177E+06    -137.108E+06    -85.9512E+06    -49.5811E+06    -26.3177E+06    -66.4529E+06         34.4605
            2049     7.30545E-03     130.466E-03     198.823E-03    -101.865E-03    -124.178E-03    -99.1178E-03     196.076E-03    -124.178E-03     577.430E-06     188.870E-03    -91.4816E-03    -97.3219E-03    -95.7998E-03     187.348E-03    -91.4816E-03     41.2071E-03     18.0366E+06    -8.04164E+06    -121.708E+06    -74.3113E+06    -29.3600E+06    -8.04164E+06    -65.5217E+06         34.7353
            2050     8.21291E-03     130.543E-03     183.060E-03    -84.8207E-03    -118.913E-03    -80.6699E-03     178.910E-03    -118.913E-03     35.7419E-03     192.094E-03    -92.1554E-03    -99.8906E-03    -98.0213E-03     190.224E-03    -92.1554E-03     46.2850E-03     30.1455E+06     14.0777E+06    -101.989E+06    -59.2824E+06    -14.1887E+06     15.7051E+06    -61.0026E+06         35.0668
            2051     9.12042E-03     130.627E-03     176.974E-03    -83.1084E-03    -113.193E-03    -77.7551E-03     171.621E-03    -113.193E-03     68.7841E-03     196.289E-03    -93.0117E-03    -103.268E-03    -101.050E-03     194.070E-03    -93.0117E-03     51.0873E-03     44.3102E+06     33.1761E+06    -77.7334E+06    -41.2359E+06    -1.35740E+06     42.3461E+06    -52.3581E+06         35.4686
            2052     10.0224E-03     130.715E-03     166.815E-03    -74.5189E-03    -107.837E-03    -71.2751E-03     163.571E-03    -107.837E-03     50.5351E-03     201.376E-03    -93.9783E-03    -107.398E-03    -104.835E-03     198.813E-03    -93.9783E-03     55.8709E-03     63.3533E+06     34.8413E+06    -51.7054E+06    -24.0495E+06     7.18539E+06     63.3533E+06    -39.8126E+06         36.0522
            2053     10.9211E-03     130.806E-03     146.550E-03    -54.9250E-03    -102.375E-03    -54.4445E-03     146.069E-03    -102.375E-03     16.3156E-03     207.120E-03    -95.1084E-03    -112.005E-03    -109.212E-03     204.327E-03    -95.1084E-03     59.4012E-03     79.3601E+06     32.4412E+06    -24.8004E+06    -8.95815E+06     16.5990E+06     79.3601E+06    -24.3106E+06         37.0542
            2054     11.8174E-03     130.892E-03     128.729E-03    -43.9278E-03    -96.7938E-03    -43.4922E-03     128.294E-03    -96.7938E-03     10.3013E-03     213.963E-03    -96.3978E-03    -117.546E-03    -114.711E-03     211.128E-03    -96.3978E-03     61.0201E-03     89.0091E+06     33.1278E+06    -3.50677E+06     2.94516E+06     26.6758E+06     89.0091E+06    -11.6774E+06         38.6622
            2055     12.7057E-03     130.977E-03     124.787E-03    -41.9272E-03    -91.6347E-03    -40.7113E-03     123.572E-03    -91.6347E-03    -5.07372E-03     221.266E-03    -97.8686E-03    -123.369E-03    -120.680E-03     218.577E-03    -97.8686E-03     60.6100E-03     100.670E+06     58.1097E+06     8.18887E+06     11.9210E+06     56.3289E+06     98.7185E+06    -315.671E+03         40.9059
            2056     13.5900E-03     131.055E-03     117.354E-03    -36.4317E-03    -86.9791E-03    -35.3403E-03     116.263E-03    -86.9791E-03    -19.5597E-03     227.702E-03    -99.5505E-03    -128.144E-03    -125.870E-03     225.429E-03    -99.5505E-03     56.5379E-03     109.869E+06     91.1424E+06     5.35773E+06     9.70135E+06     88.9600E+06     107.708E+06     9.00877E+06         43.7636
            2057     14.4706E-03     131.118E-03     89.3199E-03    -13.8433E-03    -82.1709E-03    -13.2545E-03     88.7310E-03    -82.1709E-03    -1.36589E-03     233.084E-03    -101.316E-03    -131.762E-03    -129.914E-03     231.237E-03    -101.316E-03     51.7514E-03     102.393E+06     90.5069E+06    -3.29480E+06     962.641E+03     86.4594E+06     102.183E+06     4.90207E+06         46.8775
            2058     15.3472E-03     131.176E-03     70.2292E-03    -6.40241E-03    -76.9913E-03     3.23017E-03     60.5966E-03    -76.9913E-03    -22.8969E-03     235.967E-03    -103.115E-03    -132.852E-03    -131.732E-03     234.847E-03    -103.115E-03     38.9102E-03     74.8476E+06     45.5294E+06    -83.4445E+06     1.86908E+06    -39.7842E+06     74.8476E+06    -2.10549E+06         49.5355
            2059     909.904E-06     131.367E-03     187.669E-03    -77.4528E-03    -133.603E-03    -69.0700E-03     169.793E-03    -124.109E-03     98.5299E-03     188.145E-03    -93.7053E-03    -94.4412E-03    -93.8135E-03     188.132E-03    -94.3201E-03     3.02797E-03    -62.9182E+06    -73.9372E+06    -102.163E+06    -75.2236E+06    -90.8179E+06    -72.9771E+06    -13.3809E+06         34.5038
            2060     1.82228E-03     131.385E-03     188.860E-03    -96.3145E-03    -122.947E-03    -115.194E-03     184.975E-03    -100.182E-03    -10.1122E-03     187.509E-03    -93.3788E-03    -94.1223E-03    -93.4588E-03     187.470E-03    -94.0036E-03     5.37446E-03    -43.5057E+06    -62.2302E+06    -98.7294E+06    -71.7892E+06    -70.4458E+06    -62.2302E+06    -26.6747E+06         34.5229
            2061     2.73370E-03     131.409E-03     205.223E-03    -101.327E-03    -129.438E-03    -121.234E-03     202.016E-03    -106.323E-03    -39.6221E-03     187.560E-03    -93.5865E-03    -93.9704E-03    -93.5670E-03     187.480E-03    -93.9101E-03     7.79113E-03    -23.0171E+06    -48.7422E+06    -102.364E+06    -65.6567E+06    -59.7240E+06    -48.7422E+06    -38.7133E+06         34.5524
            2062     3.64474E-03     131.443E-03     189.699E-03    -95.4516E-03    -120.335E-03    -106.291E-03     188.431E-03    -108.227E-03    -4.64879E-03     188.322E-03    -93.9918E-03    -94.2824E-03    -94.1311E-03     188.179E-03    -94.0002E-03     10.9774E-03    -6.28878E+06    -33.8233E+06    -102.994E+06    -60.9770E+06    -48.3053E+06    -33.8233E+06    -47.6451E+06         34.6044
            2063     4.55425E-03     131.484E-03     178.284E-03    -95.3858E-03    -110.795E-03    -97.7108E-03     176.169E-03    -106.355E-03     34.6849E-03     189.003E-03    -94.1772E-03    -94.8621E-03    -94.6045E-03     188.779E-03    -94.2112E-03     14.0982E-03     5.81753E+06    -19.3971E+06    -105.043E+06    -57.2117E+06    -42.0133E+06    -19.3971E+06    -54.7257E+06         34.6802
            2064     5.46450E-03     131.539E-03     182.596E-03    -99.6680E-03    -110.890E-03    -102.822E-03     179.065E-03    -104.204E-03     44.4767E-03     189.889E-03    -94.4310E-03    -95.6054E-03    -95.2225E-03     189.563E-03    -94.4884E-03     17.5699E-03     13.7185E+06    -7.10613E+06    -103.097E+06    -53.2976E+06    -36.0812E+06    -7.10613E+06    -57.5435E+06         34.7747
            2065     6.37218E-03     131.601E-03     170.472E-03    -97.1884E-03    -106.791E-03    -97.5936E-03     166.368E-03    -102.281E-03     610.562E-06     191.047E-03    -94.6109E-03    -96.4070E-03    -95.7495E-03     190.571E-03    -94.7922E-03     21.6489E-03     19.3087E+06     5.29242E+06    -102.857E+06    -50.4387E+06    -33.1098E+06     5.29242E+06    -60.4071E+06         34.8930
            2066     7.28151E-03     131.672E-03     146.203E-03    -74.4347E-03    -98.5243E-03    -70.4969E-03     142.265E-03    -98.5243E-03     2.11675E-03     192.070E-03    -94.7209E-03    -97.2034E-03    -96.1982E-03     191.362E-03    -95.0185E-03     26.8124E-03     31.0234E+06     15.9209E+06    -99.4437E+06    -48.4207E+06    -19.9995E+06     15.9209E+06    -63.3595E+06         35.0461
            2067     8.18961E-03     131.751E-03     135.934E-03    -57.9686E-03    -92.8787E-03    -54.3997E-03     132.365E-03    -92.8787E-03     33.4799E-03     193.610E-03    -95.1973E-03    -98.3567E-03    -97.2587E-03     192.652E-03    -95.3374E-03     31.9270E-03     37.2482E+06     24.5474E+06    -92.8325E+06    -45.5615E+06    -11.0644E+06     25.5890E+06    -62.0953E+06         35.2312
            2068     9.09452E-03     131.838E-03     135.937E-03    -61.0619E-03    -87.4816E-03    -57.2110E-03     132.086E-03    -87.4816E-03     38.0415E-03     195.702E-03    -95.8044E-03    -99.9573E-03    -98.7217E-03     194.467E-03    -95.8044E-03     37.0795E-03     39.9771E+06     31.1459E+06    -84.6338E+06    -42.9696E+06    -8.55424E+06     38.0131E+06    -56.0770E+06         35.4801
            2069     10.0006E-03     131.930E-03     129.049E-03    -60.4693E-03    -83.0720E-03    -57.3204E-03     125.900E-03    -83.0720E-03     7.71578E-03     198.384E-03    -96.2865E-03    -102.165E-03    -100.594E-03     196.813E-03    -96.2865E-03     42.4889E-03     51.8158E+06     29.2822E+06    -70.9120E+06    -38.0907E+06    -3.53917E+06     51.8158E+06    -46.6736E+06         35.9634
            2070     10.9047E-03     132.026E-03     124.620E-03    -60.2206E-03    -79.3090E-03    -58.3397E-03     122.739E-03    -79.3090E-03    -11.7407E-03     202.524E-03    -96.8679E-03    -105.664E-03    -103.740E-03     200.601E-03    -96.8679E-03     47.8857E-03     66.7075E+06     26.0951E+06    -52.2355E+06    -25.7929E+06    -347.488E+03     66.7075E+06    -36.3537E+06         36.9223
            2071     11.8029E-03     132.123E-03     113.653E-03    -50.9889E-03    -75.8021E-03    -50.2897E-03     112.954E-03    -75.8021E-03    -10.7421E-03     208.312E-03    -97.6401E-03    -110.669E-03    -108.458E-03     206.101E-03    -97.6401E-03     52.6714E-03     82.5585E+06     30.3229E+06    -24.2707E+06    -6.26130E+06     12.3135E+06     82.5585E+06    -24.5802E+06         38.4794
            2072     12.6988E-03     132.216E-03     91.1765E-03    -30.0900E-03    -71.7672E-03    -28.4815E-03     89.5680E-03    -71.7672E-03    -12.8924E-03     215.106E-03    -98.6377E-03    -116.470E-03    -114.148E-03     212.784E-03    -98.6377E-03     55.1938E-03     94.3996E+06     36.1182E+06     3.51126E+06     10.8217E+06     28.8078E+06     94.3996E+06    -6.85101E+06         40.6348
            2073     13.5883E-03     132.303E-03     81.8697E-03    -21.4119E-03    -67.0995E-03    -13.1676E-03     73.6255E-03    -67.0995E-03    -30.0085E-03     222.761E-03    -99.9064E-03    -122.858E-03    -120.746E-03     220.650E-03    -99.9064E-03     53.7205E-03     107.285E+06     71.5798E+06     5.76872E+06     20.7125E+06     56.8459E+06     107.075E+06     23.1702E+06         43.3630
            2074     14.4706E-03     132.378E-03     73.7230E-03    -15.1754E-03    -62.4648E-03    -7.75370E-03     66.3013E-03    -62.4648E-03    -23.0570E-03     230.469E-03    -101.395E-03    -129.070E-03    -127.304E-03     228.704E-03    -101.395E-03     50.2121E-03     138.675E+06     109.155E+06    -4.53999E+06     13.8477E+06     112.430E+06     117.012E+06     32.1756E+06         46.3820
            2075     15.3479E-03     132.443E-03     65.2561E-03    -12.1291E-03    -58.4931E-03    -10.0496E-03     63.1767E-03    -58.4931E-03    -13.6746E-03     235.113E-03    -103.072E-03    -132.035E-03    -131.025E-03     234.103E-03    -103.072E-03     36.2745E-03     102.125E+06     53.5974E+06    -92.9383E+06    -2.72990E+06    -15.1582E+06     80.6718E+06     8.01623E+06         49.0609
            2076     904.024E-06     132.582E-03     152.522E-03    -42.5354E-03    -138.830E-03    -39.6210E-03     128.732E-03    -117.954E-03     97.2026E-03     203.104E-03    -101.212E-03    -101.907E-03    -101.224E-03     203.094E-03    -101.886E-03    -1.40331E-03    -7.73338E+06    -16.7773E+06    -62.3034E+06    -15.5938E+06    -55.4031E+06    -15.8172E+06    -14.1664E+06         35.6881
            2077     1.80853E-03     132.597E-03     170.422E-03    -84.0168E-03    -118.283E-03    -106.487E-03     158.626E-03    -84.0168E-03     62.3202E-03     201.482E-03    -100.209E-03    -101.305E-03    -100.197E-03     201.470E-03    -101.305E-03    -1.41173E-03     2.95905E+06    -12.3441E+06    -52.8399E+06    -14.5931E+06    -35.2878E+06    -12.3441E+06    -25.5056E+06         35.6739
            2078     2.71487E-03     132.621E-03     156.094E-03    -83.0864E-03    -102.955E-03    -92.6736E-03     152.290E-03    -89.5642E-03    -2.57954E-03     201.153E-03    -100.154E-03    -101.000E-03    -100.128E-03     201.127E-03    -101.000E-03    -2.18775E-03     9.64513E+06    -6.59984E+06    -60.2538E+06    -16.1515E+06    -34.4572E+06    -6.59984E+06    -33.1942E+06         35.6616
            2079     3.61960E-03     132.655E-03     131.563E-03    -71.3129E-03    -86.9013E-03    -67.7687E-03     128.019E-03    -86.9013E-03    -28.3904E-06     201.266E-03    -100.270E-03    -100.982E-03    -100.255E-03     201.222E-03    -100.953E-03    -1.93014E-03     18.8219E+06     4.48580E+06    -60.6889E+06    -18.2044E+06    -23.6626E+06     4.48580E+06    -38.7248E+06         35.6513
            2080     4.52483E-03     132.697E-03     129.233E-03    -69.9523E-03    -85.0286E-03    -68.7363E-03     125.241E-03    -82.2529E-03     42.0665E-03     201.075E-03    -100.095E-03    -101.050E-03    -100.059E-03     201.010E-03    -101.021E-03    -1.50974E-03     27.5812E+06     14.2907E+06    -65.3101E+06    -20.0301E+06    -20.8634E+06     17.4553E+06    -44.4844E+06         35.6502
            2081     5.42891E-03     132.750E-03     122.955E-03    -69.0658E-03    -81.9137E-03    -70.0262E-03     121.140E-03    -79.1380E-03     15.2249E-03     200.415E-03    -99.4058E-03    -101.087E-03    -99.3175E-03     200.327E-03    -101.087E-03    -27.8389E-06     32.7288E+06     18.1061E+06    -69.7948E+06    -21.0788E+06    -24.5330E+06     26.6519E+06    -46.6290E+06         35.6484
            2082     6.33481E-03     132.813E-03     115.044E-03    -62.5343E-03    -75.9822E-03    -59.0221E-03     111.532E-03    -75.9822E-03    -41.5414E-03     199.713E-03    -98.6442E-03    -101.065E-03    -98.5312E-03     199.600E-03    -101.065E-03     2.17587E-03     37.9463E+06     24.2187E+06    -67.3231E+06    -22.8278E+06    -16.7630E+06     34.4327E+06    -47.1886E+06         35.6474
            2083     7.23988E-03     132.882E-03     112.872E-03    -55.6428E-03    -72.1226E-03    -52.3871E-03     109.617E-03    -72.1226E-03    -35.0396E-03     198.992E-03    -98.0381E-03    -100.956E-03    -97.8805E-03     198.835E-03    -100.956E-03     5.17957E-03     45.6439E+06     30.6314E+06    -67.3413E+06     -26.084E+06    -7.83097E+06     42.8490E+06    -49.4252E+06         35.6620
            2084     8.14594E-03     132.964E-03     109.917E-03    -49.2518E-03    -68.1696E-03    -47.2576E-03     107.923E-03    -68.1696E-03     12.5811E-03     198.200E-03    -97.2831E-03    -100.921E-03    -97.1457E-03     197.970E-03    -100.828E-03     8.70320E-03     48.7011E+06     27.9039E+06    -68.4642E+06    -31.2171E+06    -6.75452E+06     46.1124E+06    -47.8797E+06         35.6871
            2085     9.05353E-03     133.050E-03     101.306E-03    -45.7250E-03    -64.3217E-03    -43.1780E-03     98.7592E-03    -64.3217E-03     21.6030E-03     197.741E-03    -96.7545E-03    -101.014E-03    -96.6946E-03     197.388E-03    -100.721E-03     12.8719E-03     46.7914E+06     19.9362E+06    -68.7817E+06    -37.6516E+06    -11.1939E+06     46.7914E+06    -42.0925E+06         35.7624
            2086     9.95978E-03     133.143E-03     89.2872E-03    -45.3956E-03    -60.7800E-03    -43.2470E-03     87.1386E-03    -60.7800E-03    -5.34250E-03     197.610E-03    -96.3405E-03    -101.355E-03    -96.6024E-03     197.125E-03    -100.608E-03     17.7198E-03     49.9369E+06     21.9335E+06    -66.3053E+06    -40.3224E+06    -4.04940E+06     49.9369E+06    -39.9258E+06         36.0807
            2087     10.8656E-03     133.241E-03     80.5154E-03    -39.6393E-03    -57.3753E-03    -36.9005E-03     77.7766E-03    -57.3753E-03    -12.4632E-03     198.512E-03    -96.0878E-03    -102.463E-03    -97.3388E-03     197.821E-03    -100.521E-03     24.0114E-03     54.3001E+06     22.5404E+06    -66.5325E+06    -39.8428E+06    -4.14929E+06     54.3001E+06    -40.4113E+06         36.9051
            2088     11.7725E-03     133.344E-03     69.8045E-03    -28.5106E-03    -53.5388E-03    -25.0127E-03     66.3067E-03    -53.5388E-03    -708.073E-06     200.851E-03    -96.4608E-03    -104.384E-03    -99.3373E-03     199.863E-03    -100.519E-03     31.1649E-03     56.7817E+06     14.6285E+06    -59.9857E+06    -40.3176E+06    -5.03955E+06     56.7817E+06    -31.2477E+06         38.3483
            2089     12.6746E-03     133.446E-03     64.0876E-03    -24.3116E-03    -56.0471E-03    -26.5963E-03     59.9764E-03    -49.6512E-03     18.6426E-03     205.559E-03    -98.5073E-03    -107.056E-03    -103.541E-03     204.264E-03    -100.727E-03     38.3229E-03     66.2593E+06     20.4375E+06    -42.6647E+06    -33.7593E+06     11.5321E+06     66.2593E+06    -20.9243E+06         40.3868
            2090     13.5724E-03     133.543E-03     65.8308E-03    -22.8711E-03    -52.5134E-03    -18.6623E-03     55.2262E-03    -46.1176E-03    -15.0193E-03     213.146E-03    -100.904E-03    -112.242E-03    -110.418E-03     211.664E-03    -101.246E-03     43.3633E-03     73.4442E+06     28.1657E+06    -41.0200E+06    -11.6858E+06    -1.16850E+06     73.4442E+06     2.45756E+06         42.9622
            2091     14.4626E-03     133.632E-03     65.0258E-03    -15.4057E-03    -42.5510E-03    -4.10928E-03     53.7294E-03    -42.5510E-03    -23.6801E-03     221.523E-03    -102.076E-03    -119.444E-03    -117.820E-03     219.899E-03    -102.076E-03     46.7945E-03     154.222E+06     87.7645E+06    -12.2783E+06     19.2428E+06     100.879E+06     109.586E+06     36.1610E+06         45.8852
            2092     15.3451E-03     133.706E-03     64.9526E-03    -15.9708E-03    -39.3094E-03    -4.52363E-03     53.5055E-03    -39.3094E-03    -20.9634E-03     228.887E-03    -103.270E-03    -125.621E-03    -124.543E-03     227.809E-03    -103.270E-03     36.6607E-03     153.568E+06     74.8685E+06     -73.155E+06     30.6876E+06     30.1080E+06     94.4858E+06     30.5887E+06         48.6240
            2093     894.575E-06     133.817E-03     108.866E-03     4.99529E-03    -149.824E-03     20.6968E-03     73.0098E-03    -129.669E-03     91.1098E-03     223.810E-03    -111.120E-03    -112.704E-03    -112.135E-03     223.765E-03    -111.644E-03    -7.25353E-03     50.6569E+06     42.7632E+06    -25.7077E+06     45.3592E+06    -21.7879E+06     44.1412E+06    -13.7286E+06         36.9827
            2094     1.79158E-03     133.830E-03     91.0492E-03    -53.7184E-03    -82.1463E-03    -52.1632E-03     61.0660E-03    -53.7184E-03     113.912E-03     222.435E-03    -110.767E-03    -111.688E-03    -110.685E-03     222.353E-03    -111.688E-03    -9.40531E-03     48.4444E+06     35.5676E+06    -18.6114E+06     37.1412E+06    -10.8663E+06     39.1258E+06    -17.0660E+06         36.9443
            2095     2.68635E-03     133.854E-03     92.3311E-03    -53.1617E-03    -76.6018E-03    -67.3265E-03     84.5374E-03    -54.6432E-03     20.9657E-03     221.704E-03    -110.274E-03    -111.451E-03    -110.125E-03     221.555E-03    -111.451E-03    -13.0037E-03     46.1780E+06     33.7967E+06    -25.7297E+06     28.5868E+06    -15.5391E+06     41.1974E+06    -20.3834E+06         36.8886
            2096     3.58330E-03     133.886E-03     101.433E-03    -54.8065E-03    -79.1672E-03    -71.7407E-03     96.8200E-03    -57.6197E-03    -8.46558E-03     220.530E-03    -109.343E-03    -111.242E-03    -109.102E-03     220.289E-03    -111.242E-03    -16.3889E-03     47.4263E+06     35.8871E+06    -22.7364E+06     22.0542E+06    -7.53704E+06     46.0599E+06    -23.4364E+06         36.8213
            2097     4.47960E-03     133.929E-03     88.4273E-03    -49.9208E-03    -68.7461E-03    -54.3188E-03     82.1875E-03    -58.1082E-03     28.7724E-03     218.759E-03    -107.861E-03    -110.969E-03    -107.531E-03     218.429E-03    -110.969E-03    -19.1073E-03     54.7112E+06     31.5172E+06    -23.6767E+06     13.8924E+06    -4.81727E+06     53.4766E+06    -24.9729E+06         36.7511
            2098     5.37780E-03     133.980E-03     64.3408E-03    -32.1715E-03    -57.5097E-03    -31.7034E-03     61.0971E-03    -54.7341E-03     19.4324E-03     216.849E-03    -106.191E-03    -110.669E-03    -105.787E-03     216.445E-03    -110.669E-03    -20.6968E-03     61.5982E+06     25.2141E+06    -33.6789E+06     5.60924E+06    -14.0741E+06     61.5982E+06    -26.4867E+06         36.6604
            2099     6.27733E-03     134.038E-03     61.2633E-03    -26.5502E-03    -49.5922E-03    -23.9056E-03     58.6187E-03    -49.5922E-03    -4.85306E-03     214.757E-03    -104.512E-03    -110.267E-03    -104.027E-03     214.271E-03    -110.267E-03    -21.8360E-03     65.8844E+06     25.6162E+06    -34.0598E+06    -1.50086E+06    -6.94273E+06     65.8844E+06    -28.2496E+06         36.5586
            2100     7.17803E-03     134.109E-03     77.1807E-03    -38.2076E-03    -46.2197E-03    -36.8000E-03     75.1539E-03    -45.6005E-03     348.788E-06     212.218E-03    -102.516E-03    -109.786E-03    -101.935E-03     211.637E-03    -109.786E-03    -22.6490E-03     70.2036E+06     23.8397E+06    -32.0050E+06    -8.80171E+06     636.473E+03     70.2036E+06    -27.4608E+06         36.4593
            2101     8.07965E-03     134.184E-03     77.7775E-03    -36.4635E-03    -43.5102E-03    -35.0963E-03     75.7911E-03    -42.8910E-03     21.2636E-03     209.119E-03    -99.9261E-03    -109.229E-03    -99.2884E-03     208.481E-03    -109.229E-03    -22.4925E-03     70.6291E+06     14.3617E+06    -37.0455E+06    -17.6758E+06    -5.00804E+06     70.6291E+06    -24.8606E+06         36.3558
            2102     8.98351E-03     134.269E-03     63.9919E-03    -27.1222E-03    -39.7684E-03    -22.7604E-03     59.6301E-03    -39.7684E-03     35.6905E-03     205.831E-03    -97.2623E-03    -108.549E-03    -96.6153E-03     205.184E-03    -108.549E-03    -21.2772E-03     67.3746E+06     7.99089E+06    -39.8907E+06    -22.7832E+06    -9.11664E+06     67.3746E+06    -22.8491E+06         36.2767
            2103     9.88965E-03     134.359E-03     54.7986E-03    -29.5743E-03    -36.4059E-03    -24.6103E-03     49.8346E-03    -36.4059E-03     29.2633E-03     202.817E-03    -95.0201E-03    -107.811E-03    -94.3437E-03     202.141E-03    -107.811E-03    -19.1999E-03     67.0753E+06     16.9804E+06    -42.1122E+06    -27.3255E+06     2.19369E+06     67.0753E+06    -23.4704E+06         36.3839
            2104     10.7987E-03     134.455E-03     42.8032E-03    -18.8403E-03    -33.0015E-03    -15.0208E-03     38.9838E-03    -33.0015E-03     20.7840E-03     199.850E-03    -92.8499E-03    -107.032E-03    -92.1189E-03     199.119E-03    -107.032E-03    -15.9076E-03     58.2215E+06     7.96591E+06    -48.9489E+06    -36.9199E+06    -4.06306E+06     58.2215E+06    -21.7271E+06         36.9889
            2105     11.7077E-03     134.556E-03     32.4534E-03    -5.42566E-03    -29.0094E-03    -1.11960E-03     28.1474E-03    -29.0094E-03     9.21828E-03     197.353E-03    -91.1802E-03    -106.186E-03    -90.4362E-03     196.609E-03    -106.186E-03    -10.9947E-03     46.1627E+06    -386.689E+03    -54.0850E+06    -45.0590E+06    -9.41270E+06     46.1627E+06    -19.1559E+06         38.2795
            2106     12.6215E-03     134.659E-03     39.8448E-03    -15.5870E-03    -35.8229E-03    -18.0355E-03     32.0352E-03    -25.5648E-03     26.0904E-03     196.653E-03    -91.2619E-03    -105.408E-03    -90.4401E-03     195.831E-03    -105.408E-03    -3.82478E-03     44.8278E+06     13.6676E+06    -55.8442E+06    -48.8211E+06     6.64450E+06     44.8278E+06    -18.9379E+06         40.2149
            2107     13.5315E-03     134.769E-03     50.0877E-03    -20.6691E-03    -38.3055E-03    -27.9840E-03     42.5591E-03    -23.4620E-03     6.19979E-03     198.805E-03    -92.5559E-03    -106.250E-03    -93.1766E-03     197.975E-03    -104.798E-03     5.09988E-03     33.0066E+06    -704.242E+03    -70.8318E+06    -47.8975E+06    -23.6386E+06     33.0066E+06    -17.1977E+06         42.6902
            2108     14.4383E-03     134.865E-03     51.6766E-03    -13.8898E-03    -29.0903E-03    -12.1808E-03     42.4057E-03    -21.5285E-03     6.48399E-03     203.309E-03    -94.1481E-03    -109.165E-03    -97.9874E-03     202.440E-03    -104.458E-03     14.6829E-03     85.6450E+06     38.8313E+06    -50.6821E+06    -29.2512E+06     45.2417E+06     57.8037E+06     685.853E+03         45.5698
            2109     15.3415E-03     134.958E-03     49.3045E-03    -14.1841E-03    -24.9604E-03     3.96278E-03     25.3846E-03    -19.1874E-03    -6.82442E-03     208.594E-03    -95.5771E-03    -113.030E-03    -103.556E-03     207.943E-03    -104.400E-03     13.7955E-03     102.688E+06     59.6298E+06    -68.4031E+06     471.622E+03     33.8133E+06     59.6298E+06     28.5858E+06         48.3694


