********************************************************************************
Field Output Report, written Tue May  6 15:50:43 2025

Source 1
---------

   ODB: D:/AISI_1020/Vel_20/1020_2a_8_rd_1500_cal_30_v_20_f_050.odb
   Step: Step-1
   Frame: Increment   6655808: Step Time =   0.8082

Loc 1 : Nodal values from source 1

Output sorted by column "Node Label".

Field Output reported at nodes for region: DIE_2A_8_D0_36-1.Region_1
   Computation algorithm: EXTRAPOLATE_COMPUTE_AVERAGE
   Averaged at nodes
   Averaging regions: ODB_REGIONS

      Node Label     COORD.COOR1     COORD.COOR2
                          @Loc 1          @Loc 1
-------------------------------------------------
               1     16.3673E-03     234.969E-03


Field Output reported at nodes for region: DIE_2A_8_D0_36-1.Region_2
   Computation algorithm: EXTRAPOLATE_COMPUTE_AVERAGE
   Averaged at nodes
   Averaging regions: ODB_REGIONS

      Node Label     COORD.COOR1     COORD.COOR2
                          @Loc 1          @Loc 1
-------------------------------------------------
               1     16.3673E-03     234.969E-03


Field Output reported at nodes for part: WIRE_1-1
   Computation algorithm: EXTRAPOLATE_COMPUTE_AVERAGE
   Averaged at nodes
   Averaging regions: ODB_REGIONS

      Node Label     COORD.COOR1     COORD.COOR2    ER.Max. Prin    ER.Mid. Prin    ER.Min. Prin         ER.ER11         ER.ER22         ER.ER33         ER.ER12    PE.Max. Prin    PE.Mid. Prin    PE.Min. Prin         PE.PE11         PE.PE22         PE.PE33         PE.PE12     S.Max. Prin     S.Mid. Prin     S.Min. Prin           S.S11           S.S22           S.S33           S.S12            TEMP
                          @Loc 1          @Loc 1          @Loc 1          @Loc 1          @Loc 1          @Loc 1          @Loc 1          @Loc 1          @Loc 1          @Loc 1          @Loc 1          @Loc 1          @Loc 1          @Loc 1          @Loc 1          @Loc 1          @Loc 1          @Loc 1          @Loc 1          @Loc 1          @Loc 1          @Loc 1          @Loc 1          @Loc 1
-----------------------------------------------------------------------------------------------------------------------------------------------------------------------------------------------------------------------------------------------------------------------------------------------------------------------------------------------------------------------------------------------------------------
               1     15.2823E-03     76.7912E-03     40.2243E-03    -5.77899E-03    -97.1714E-03     39.6563E-03    -96.6035E-03    -5.77899E-03     15.4328E-03     329.851E-03    -163.662E-03    -166.257E-03    -163.887E-03     328.531E-03    -164.713E-03     50.9782E-03     146.781E+06     108.531E+06    -5.08590E+06    -4.69427E+06     108.139E+06     146.781E+06    -6.35662E+06         69.1675
               2    -1.06901E-06     76.2055E-03     191.059E-03    -60.1015E-03    -195.705E-03     148.718E-03    -17.7605E-03    -195.705E-03     174.489E-03     325.453E-03    -161.671E-03    -163.797E-03    -162.999E-03     325.449E-03    -162.465E-03     2.22803E-03    -123.606E+06    -130.266E+06    -277.718E+06    -124.703E+06    -277.687E+06    -129.200E+06    -974.414E+03         45.5078
               3     651.219E-09    -141.561E-09     203.451E-03     167.969E-03    -456.182E-03     167.042E-03    -455.254E-03     203.451E-03    -48.0857E-03     370.721E-03    -184.809E-03    -185.888E-03    -185.888E-03     370.721E-03    -184.809E-03     988.303E-06    -74.2521E+06    -79.3013E+06    -271.990E+06    -74.2525E+06    -271.989E+06    -79.3013E+06    -261.535E+03         48.7800
               4     15.1761E-03    -141.561E-09     133.243E-03     73.2809E-03    -312.662E-03     72.9807E-03    -312.362E-03     133.243E-03     21.5193E-03     422.722E-03    -167.113E-03    -254.718E-03    -253.250E-03     421.254E-03    -167.113E-03     62.9936E-03     139.015E+06     95.7773E+06     1.03079E+06     1.76688E+06     95.0412E+06     139.015E+06    -8.31867E+06         74.2677
               5     15.3092E-03     153.385E-03     6.54040E-03    -4.20053E-03    -9.87567E-03    -9.48280E-03     6.14752E-03    -4.20053E-03    -5.01804E-03     275.667E-03    -111.529E-03    -164.323E-03    -111.481E-03     275.620E-03    -164.323E-03     8.61571E-03     112.824E+06     43.0377E+06    -24.2449E+06    -21.4636E+06     40.2563E+06     112.824E+06    -13.3940E+06         74.0722
               6     4.38204E-06     151.943E-03     114.876E-03    -58.8187E-03    -95.6205E-03    -87.8602E-03    -66.5789E-03     114.876E-03     30.0246E-03     377.919E-03    -186.377E-03    -191.531E-03    -191.436E-03     377.823E-03    -186.377E-03    -14.7301E-03     76.1760E+06     75.1580E+06    -18.2068E+06     75.7523E+06    -17.7830E+06     75.1580E+06    -6.30982E+06         48.2990
               7     14.4323E-03     76.7068E-03     38.8835E-03    -6.83938E-03    -94.1327E-03     38.4862E-03    -93.7354E-03    -6.83938E-03     10.7136E-03     330.103E-03    -163.944E-03    -166.273E-03    -163.894E-03     328.426E-03    -164.645E-03     57.1754E-03     139.173E+06     102.831E+06    -4.37502E+06    -4.16560E+06     102.622E+06     139.173E+06    -2.98972E+06         67.6411
               8     13.5792E-03     76.6296E-03     34.4300E-03    -8.93661E-03    -87.4599E-03     32.7169E-03    -85.7469E-03    -8.93661E-03    -13.7469E-03     329.261E-03    -163.731E-03    -165.667E-03    -162.830E-03     327.415E-03    -164.723E-03     59.9616E-03     110.472E+06     80.8768E+06    -10.7131E+06    -10.6043E+06     80.7679E+06     110.472E+06    -315.602E+03         64.0660
               9     12.7295E-03     76.5492E-03     25.3707E-03    -10.8229E-03    -77.2320E-03     21.2758E-03    -73.1371E-03    -10.8229E-03    -2.55063E-03     327.591E-03    -162.760E-03    -164.999E-03    -161.538E-03     326.281E-03    -164.910E-03     49.9624E-03     87.4424E+06     67.1699E+06    -14.3866E+06    -13.7911E+06     66.5744E+06     87.4424E+06     1.92513E+06         60.0261
              10     11.8790E-03     76.5049E-03     17.1838E-03    -12.3760E-03    -69.6832E-03     13.1428E-03    -65.6422E-03    -12.3760E-03     4.38404E-03     327.658E-03    -162.810E-03    -164.988E-03    -161.863E-03     326.710E-03    -164.988E-03     42.9810E-03     66.8110E+06     52.3222E+06    -31.7963E+06    -31.2344E+06     54.1679E+06     64.4034E+06     3.30007E+06         56.3052
              11     11.0270E-03     76.4544E-03     18.3805E-03    -14.0298E-03    -69.0495E-03     15.9980E-03    -66.6670E-03    -14.0298E-03    -5.44950E-03     328.713E-03    -163.610E-03    -165.264E-03    -162.949E-03     327.904E-03    -165.117E-03     39.6693E-03     54.2576E+06     42.5880E+06    -49.8240E+06    -48.4314E+06     46.0235E+06     49.4296E+06     6.33419E+06         53.1232
              12     10.1793E-03     76.4064E-03     19.9225E-03    -16.1963E-03    -67.9770E-03     16.9957E-03    -65.0502E-03    -16.1963E-03    -11.3387E-03     329.776E-03    -164.466E-03    -165.419E-03    -164.208E-03     329.229E-03    -165.130E-03     32.5824E-03     56.2887E+06     46.4322E+06    -47.1586E+06    -45.7068E+06     48.7415E+06     52.5276E+06     7.13765E+06         50.5113
              13     9.33317E-03     76.3674E-03     13.9785E-03    -18.6216E-03    -61.0084E-03     10.9060E-03    -57.9359E-03    -18.6216E-03    -4.53934E-03     329.712E-03    -164.542E-03    -165.203E-03    -164.340E-03     329.368E-03    -165.061E-03     25.9401E-03     44.9918E+06     24.2871E+06    -53.7581E+06    -53.4260E+06     25.2958E+06     43.6511E+06     1.40320E+06         48.5021
              14     8.47966E-03     76.3359E-03    -394.009E-06    -20.4093E-03    -44.5392E-03    -1.56099E-03    -43.1242E-03    -20.6573E-03     12.1414E-03     329.904E-03    -164.316E-03    -165.369E-03    -164.431E-03     329.661E-03    -165.012E-03     21.6616E-03     30.5608E+06    -13.4452E+06    -61.4376E+06    -60.0432E+06    -14.8396E+06     30.5608E+06     538.406E+03         47.1393
              15     7.63269E-03     76.3086E-03    -8.99457E-03    -21.2324E-03    -35.9872E-03    -19.2631E-03    -25.4706E-03    -21.4804E-03    -380.568E-06     331.140E-03    -164.650E-03    -166.094E-03    -165.748E-03     330.971E-03    -164.826E-03     17.9937E-03     15.9825E+06    -48.2999E+06    -72.2327E+06    -64.9502E+06    -55.5824E+06     15.9825E+06     2.23985E+06         46.4240
              16     6.78916E-03     76.2798E-03    -4.65608E-03    -21.8213E-03    -41.9457E-03    -26.5810E-03    -20.8207E-03    -21.0213E-03    -13.2255E-03     330.535E-03    -164.724E-03    -165.818E-03    -165.712E-03     330.429E-03    -164.724E-03     14.3311E-03    -1.16067E+06    -72.7265E+06    -98.0601E+06    -76.1729E+06    -94.6137E+06    -1.16067E+06     1.00813E+06         46.1494
              17     5.94038E-03     76.2610E-03     3.60285E-03    -21.2591E-03    -50.0913E-03    -20.7491E-03    -26.5394E-03    -20.4591E-03     5.45888E-03     329.020E-03    -164.461E-03    -164.911E-03    -164.587E-03     328.962E-03    -164.727E-03     10.4078E-03    -20.1569E+06    -85.2689E+06    -128.249E+06    -86.2375E+06    -127.280E+06    -20.1569E+06     2.16838E+06         46.0137
              18     5.08999E-03     76.2450E-03     5.82807E-03    -20.5265E-03    -51.0525E-03    -17.5600E-03    -27.6645E-03    -20.5265E-03     4.82375E-03     328.595E-03    -164.054E-03    -164.669E-03    -164.026E-03     328.566E-03    -164.669E-03     7.29682E-03    -41.4159E+06    -94.3792E+06    -158.627E+06    -95.0127E+06    -157.994E+06    -41.4159E+06     4.64408E+06         45.9074
              19     4.24280E-03     76.2336E-03     1.89821E-03    -20.7107E-03    -47.7550E-03    -19.9897E-03    -25.8671E-03    -20.7107E-03    -16.2855E-03     329.047E-03    -164.196E-03    -164.797E-03    -164.361E-03     329.026E-03    -164.610E-03     6.32870E-03    -64.5863E+06    -104.488E+06    -189.737E+06    -104.754E+06    -189.471E+06    -64.5863E+06     1.83843E+06         45.8189
              20     3.39473E-03     76.2245E-03     8.92303E-03    -20.1165E-03    -53.7514E-03    -24.6357E-03    -20.1927E-03    -20.1165E-03     14.2952E-03     329.460E-03    -164.316E-03    -165.074E-03    -164.993E-03     329.444E-03    -164.381E-03     5.38550E-03    -83.7156E+06    -113.080E+06    -214.113E+06    -113.479E+06    -213.714E+06    -83.7156E+06     967.401E+03         45.7232
              21     2.54773E-03     76.2184E-03     12.6670E-03    -17.5645E-03    -60.5107E-03    -29.1192E-03    -18.7245E-03    -17.5645E-03    -16.9723E-03     328.971E-03    -163.977E-03    -164.915E-03    -164.902E-03     328.958E-03    -163.977E-03     4.66884E-03    -100.087E+06    -117.814E+06    -233.113E+06    -118.339E+06    -232.588E+06    -100.087E+06     2.18499E+06         45.6292
              22     1.69931E-03     76.2145E-03     11.3090E-03    -15.7184E-03    -65.8394E-03    -15.2432E-03    -39.2873E-03    -15.7184E-03    -33.9986E-03     328.071E-03    -163.510E-03    -164.589E-03    -164.577E-03     328.060E-03    -163.510E-03     4.05003E-03    -115.709E+06    -123.870E+06    -250.593E+06    -122.904E+06    -250.328E+06    -116.940E+06     210.168E+03         45.5583
              23     851.024E-06     76.2090E-03     102.401E-03    -37.9608E-03    -132.920E-03     73.9165E-03    -36.6335E-03    -105.763E-03     88.3008E-03     326.615E-03    -162.456E-03    -164.166E-03    -163.764E-03     326.609E-03    -162.852E-03     2.70687E-03    -123.299E+06    -129.743E+06    -268.225E+06    -125.761E+06    -268.180E+06    -127.326E+06    -1.27968E+06         45.5195
              24     3.27311E-06     74.8253E-03     171.387E-03    -59.5987E-03    -179.733E-03     94.9509E-03    -63.9539E-03    -98.9421E-03     243.097E-03     328.289E-03    -163.096E-03    -165.195E-03    -165.195E-03     328.288E-03    -163.096E-03     797.901E-06    -131.796E+06    -134.572E+06    -281.062E+06    -134.745E+06    -280.889E+06    -131.796E+06     1.87242E+06         45.5081
              25    -2.03749E-06     73.4354E-03     119.970E-03    -44.5323E-03    -140.397E-03     23.7148E-03    -29.0677E-03    -59.6060E-03     236.565E-03     330.631E-03    -164.095E-03    -166.530E-03    -164.862E-03     330.630E-03    -165.762E-03    -102.046E-06    -125.124E+06    -130.040E+06    -271.399E+06    -130.304E+06    -271.134E+06    -125.124E+06     472.567E+03         45.5333
              26    -851.422E-09     72.0337E-03     106.139E-03    -9.91223E-03    -159.756E-03     49.8173E-03    -88.3604E-03    -24.9859E-03     191.401E-03     327.905E-03    -162.941E-03    -164.967E-03    -163.297E-03     327.902E-03    -164.608E-03     975.058E-06    -125.533E+06    -134.652E+06    -279.182E+06    -128.884E+06    -279.038E+06    -131.446E+06    -4.24601E+06         45.5490
              27     1.27775E-06     70.6570E-03     103.820E-03     32.0976E-03    -209.952E-03     71.7129E-03    -177.844E-03     32.0976E-03     177.011E-03     327.751E-03    -163.317E-03    -164.436E-03    -164.431E-03     327.746E-03    -163.317E-03     3.04400E-03    -126.754E+06    -136.319E+06    -288.544E+06    -130.634E+06    -288.316E+06    -132.667E+06     2.44523E+06         45.5700
              28    -42.0694E-09     69.2670E-03     75.6910E-03     43.6809E-03    -188.357E-03     63.1725E-03    -175.839E-03     43.6809E-03     109.296E-03     331.553E-03    -165.194E-03    -166.350E-03    -165.952E-03     331.551E-03    -165.590E-03     1.80039E-03    -127.353E+06    -132.938E+06    -279.932E+06    -131.209E+06    -279.727E+06    -129.286E+06     3.63305E+06         45.5907
              29    -738.065E-09     67.8698E-03     120.762E-03     36.4554E-03    -231.818E-03     49.8305E-03    -218.511E-03     94.0803E-03     29.4026E-03     332.394E-03    -165.501E-03    -166.906E-03    -165.498E-03     332.391E-03    -166.906E-03     1.81321E-03    -124.710E+06    -128.163E+06    -276.080E+06    -126.268E+06    -276.042E+06    -126.643E+06    -1.92231E+06         45.5730
              30    -1.01555E-06     66.4745E-03     178.502E-03     19.0275E-03    -284.340E-03     977.441E-06    -266.290E-03     178.502E-03     46.8872E-03     329.037E-03    -163.842E-03    -165.204E-03    -164.191E-03     329.033E-03    -164.851E-03     2.97604E-03    -130.844E+06    -134.139E+06    -283.010E+06    -132.405E+06    -282.970E+06    -132.619E+06    -1.21717E+06         45.5362
              31     1.51308E-06     65.0880E-03     263.607E-03    -17.6928E-03    -330.397E-03    -32.1573E-03    -315.932E-03     263.607E-03     93.1586E-03     326.369E-03    -162.560E-03    -163.814E-03    -163.807E-03     326.361E-03    -162.560E-03     3.82306E-03    -129.369E+06    -133.561E+06    -280.182E+06    -132.014E+06    -279.954E+06    -131.143E+06     4.50027E+06         45.5270
              32    -75.8257E-09     63.7103E-03     310.722E-03    -47.8282E-03    -352.671E-03    -91.8087E-03    -308.690E-03     310.722E-03     139.295E-03     326.656E-03    -162.847E-03    -163.826E-03    -163.821E-03     326.651E-03    -162.847E-03     1.77473E-03    -127.559E+06    -130.247E+06    -269.896E+06    -131.231E+06    -268.912E+06    -127.559E+06    -3.05346E+06         45.5440
              33     138.333E-09     62.3224E-03     322.113E-03    -50.3477E-03    -366.349E-03    -94.3701E-03    -322.327E-03     322.113E-03     132.388E-03     328.556E-03    -164.196E-03    -164.360E-03    -164.360E-03     328.555E-03    -164.196E-03     100.050E-06    -133.055E+06    -137.744E+06    -281.165E+06    -134.348E+06    -280.143E+06    -137.474E+06    -2.48599E+06         45.5778
              34    -115.191E-09     60.9327E-03     342.999E-03     17.0124E-03    -444.752E-03     4.06768E-03    -431.808E-03     342.999E-03     115.780E-03     331.719E-03    -165.366E-03    -166.343E-03    -165.451E-03     331.719E-03    -166.258E-03     990.203E-06    -124.754E+06    -133.015E+06    -277.681E+06    -128.867E+06    -277.410E+06    -129.173E+06     5.30819E+06         45.6229
              35    -1.44921E-06     59.5350E-03     261.116E-03     85.7202E-03    -427.338E-03     66.9830E-03    -408.601E-03     261.116E-03     191.172E-03     334.317E-03    -166.584E-03    -167.723E-03    -166.824E-03     334.310E-03    -167.476E-03     3.13237E-03    -123.739E+06    -133.302E+06    -265.265E+06    -127.635E+06    -265.212E+06    -129.460E+06    -1.07963E+06         45.6441
              36     1.71659E-06     58.1289E-03     204.463E-03     91.1981E-03    -379.735E-03     81.4236E-03    -369.961E-03     204.463E-03     132.893E-03     332.880E-03    -165.764E-03    -167.113E-03    -167.106E-03     332.873E-03    -165.764E-03     2.79459E-03    -128.455E+06    -140.554E+06    -273.596E+06    -134.948E+06    -273.482E+06    -134.175E+06     379.981E+03         45.6173
              37     205.093E-09     56.7525E-03     216.932E-03     143.085E-03    -444.267E-03     142.200E-03    -440.030E-03     213.580E-03     42.9183E-03     329.935E-03    -164.134E-03    -165.801E-03    -165.235E-03     329.934E-03    -164.699E-03     1.19893E-03    -125.552E+06    -135.369E+06    -275.227E+06    -132.092E+06    -275.067E+06    -128.990E+06    -451.768E+03         45.5625
              38    -1.27546E-06     55.3552E-03     183.207E-03     166.144E-03    -441.641E-03     168.823E-03    -440.968E-03     179.855E-03     233.278E-06     329.136E-03    -164.191E-03    -164.973E-03    -164.190E-03     329.134E-03    -164.973E-03     903.856E-06    -128.070E+06    -132.948E+06    -275.511E+06    -129.615E+06    -275.407E+06    -131.507E+06    -3.52685E+06         45.5050
              39     856.498E-09     53.9671E-03     181.326E-03     143.858E-03    -424.312E-03     159.383E-03    -416.080E-03     157.569E-03    -78.1305E-03     329.123E-03    -163.893E-03    -165.247E-03    -165.030E-03     329.123E-03    -164.109E-03     332.666E-06    -126.095E+06    -130.296E+06    -278.185E+06    -127.641E+06    -278.080E+06    -128.856E+06     1.79611E+06         45.4535
              40     984.605E-09     52.5839E-03     246.809E-03     93.5361E-03    -434.166E-03     237.716E-03    -425.073E-03     93.5361E-03    -140.779E-03     329.471E-03    -163.482E-03    -165.977E-03    -164.618E-03     329.469E-03    -164.839E-03     1.72452E-03    -125.829E+06    -132.777E+06    -272.587E+06    -130.110E+06    -272.492E+06    -128.590E+06     2.47276E+06         45.4181
              41    -3.32991E-06     51.1813E-03     287.221E-03     9.18662E-03    -387.497E-03     280.768E-03    -381.045E-03     9.18662E-03    -122.092E-03     328.384E-03    -162.882E-03    -165.482E-03    -162.877E-03     328.379E-03    -165.482E-03     3.10031E-03    -124.538E+06    -136.031E+06    -265.224E+06    -128.726E+06    -265.223E+06    -131.844E+06    -99.9886E+03         45.4090
              42     1.04394E-06     49.8008E-03     321.540E-03    -23.3489E-03    -380.584E-03     307.062E-03    -366.106E-03    -23.3489E-03    -198.853E-03     326.696E-03    -162.217E-03    -164.457E-03    -163.210E-03     326.691E-03    -163.459E-03     2.85111E-03    -120.578E+06    -128.959E+06    -266.323E+06    -121.724E+06    -266.253E+06    -127.884E+06    -2.10831E+06         45.4370
              43     588.165E-09     48.4183E-03     383.439E-03    -39.0756E-03    -414.425E-03     367.307E-03    -398.293E-03    -39.0756E-03    -223.805E-03     327.302E-03    -163.135E-03    -164.160E-03    -164.128E-03     327.297E-03    -163.162E-03     2.98892E-03    -121.452E+06    -128.401E+06    -276.770E+06    -128.476E+06    -276.695E+06    -121.452E+06    -1.61866E+06         45.4929
              44    -676.382E-09     47.0251E-03     313.058E-03    -23.3304E-03    -360.094E-03     299.593E-03    -346.629E-03    -23.3304E-03    -187.661E-03     328.903E-03    -164.338E-03    -164.565E-03    -164.332E-03     328.897E-03    -164.565E-03     3.37537E-03    -127.115E+06    -135.189E+06    -281.881E+06    -133.058E+06    -281.812E+06    -129.316E+06    -1.53450E+06         45.5454
              45     231.832E-09     45.6406E-03     177.992E-03     25.4344E-03    -289.671E-03     137.805E-03    -249.485E-03     25.4344E-03    -232.465E-03     330.217E-03    -164.957E-03    -165.249E-03    -164.955E-03     330.215E-03    -165.249E-03     818.795E-06    -123.880E+06    -133.340E+06    -277.621E+06    -124.108E+06    -277.393E+06    -133.340E+06     1.48012E+06         45.5979
              46    -556.673E-09     44.2529E-03     135.803E-03     53.4993E-03    -277.223E-03     57.0033E-03    -238.414E-03     93.4911E-03    -208.659E-03     332.752E-03    -166.184E-03    -166.557E-03    -166.464E-03     332.751E-03    -166.276E-03     405.454E-06    -113.811E+06    -132.560E+06    -272.038E+06    -125.466E+06    -271.873E+06    -121.070E+06     3.33851E+06         45.6576
              47     1.06396E-06     42.8490E-03     190.088E-03     18.5745E-03    -288.170E-03     12.6064E-03    -282.202E-03     190.088E-03    -79.2001E-03     335.952E-03    -167.756E-03    -168.214E-03    -168.211E-03     335.949E-03    -167.756E-03     2.19942E-03    -122.815E+06    -137.437E+06    -275.572E+06    -134.312E+06    -275.565E+06    -125.947E+06     337.504E+03         45.6916
              48    -887.472E-09     41.4509E-03     169.894E-03    -34.7937E-03    -226.512E-03    -36.3714E-03    -224.934E-03     169.894E-03    -33.7566E-03     336.840E-03    -168.258E-03    -168.617E-03    -168.433E-03     336.838E-03    -168.440E-03     1.58648E-03    -121.781E+06    -127.191E+06    -273.514E+06    -124.066E+06    -273.506E+06    -124.914E+06     1.05448E+06         45.6831
              49     510.807E-09     40.0516E-03     75.6990E-03    -15.2960E-03    -135.278E-03     792.647E-06    -133.537E-03     57.8701E-03     3.24502E-03     334.557E-03    -166.954E-03    -167.655E-03    -167.473E-03     334.557E-03    -167.136E-03     509.642E-06    -117.604E+06    -125.891E+06    -273.517E+06    -119.893E+06    -273.506E+06    -123.614E+06    -433.575E+03         45.6331
              50     195.503E-09     38.6542E-03     76.3251E-03     10.1970E-03    -153.716E-03     62.6647E-03    -140.056E-03     10.1970E-03     100.752E-03     329.684E-03    -164.452E-03    -165.261E-03    -164.970E-03     329.684E-03    -164.743E-03    -219.083E-06    -127.656E+06    -139.848E+06    -280.304E+06    -133.848E+06    -280.294E+06    -133.666E+06    -1.17059E+06         45.5434
              51    -687.397E-09     37.2776E-03     95.8473E-03    -32.2751E-03    -136.590E-03     27.7808E-03    -68.5231E-03    -32.2751E-03     160.675E-03     327.339E-03    -163.250E-03    -164.081E-03    -163.247E-03     327.336E-03    -164.081E-03     948.166E-06    -127.069E+06    -137.708E+06    -276.588E+06    -133.252E+06    -276.586E+06    -131.526E+06    -510.042E+03         45.4434
              52    -357.892E-09     35.8796E-03     56.0152E-03    -46.0989E-03    -83.8685E-03    -26.8375E-03    -23.3067E-03    -23.8080E-03     102.111E-03     328.509E-03    -163.913E-03    -164.580E-03    -163.902E-03     328.498E-03    -164.580E-03     4.36536E-03    -122.286E+06    -128.745E+06    -273.506E+06    -124.288E+06    -273.505E+06    -126.744E+06    -90.7562E+03         45.3715
              53     55.2094E-09     34.4877E-03     43.0305E-03    -35.1118E-03    -99.9130E-03    -42.7993E-03    -92.2255E-03     43.0305E-03     41.4035E-03     326.918E-03    -162.846E-03    -164.077E-03    -163.937E-03     326.905E-03    -162.973E-03     4.99432E-03    -126.234E+06    -129.073E+06    -277.332E+06    -128.282E+06    -277.285E+06    -127.072E+06    -1.78902E+06         45.3525
              54     1.67033E-06     33.1111E-03     58.6181E-03    -26.0568E-03    -118.719E-03    -91.3284E-03    -24.6242E-03     29.7947E-03     30.7374E-03     324.426E-03    -161.544E-03    -162.904E-03    -162.894E-03     324.416E-03    -161.544E-03     4.32078E-03    -132.371E+06    -135.363E+06    -284.809E+06    -134.594E+06    -284.741E+06    -133.209E+06    -631.395E+03         45.3839
              55    -1.30651E-06     31.7263E-03     56.4559E-03    -27.7262E-03    -102.750E-03    -74.3371E-03     39.6673E-03    -39.3509E-03     64.9174E-03     324.955E-03    -162.180E-03    -162.775E-03    -162.769E-03     324.949E-03    -162.180E-03     2.96160E-03    -133.411E+06    -140.399E+06    -288.182E+06    -135.610E+06    -288.137E+06    -138.245E+06    -94.6382E+03         45.4589
              56     1.71122E-06     30.3471E-03     49.1075E-03    -19.7739E-03    -107.797E-03     2.95591E-03     26.3777E-03    -107.797E-03     36.8711E-03     327.046E-03    -163.203E-03    -163.813E-03    -163.812E-03     327.045E-03    -163.203E-03     1.21106E-03    -129.339E+06    -134.592E+06    -290.613E+06    -129.799E+06    -290.572E+06    -134.173E+06    -2.54032E+06         45.5709
              57    -1.31692E-06     28.9605E-03     91.7650E-03    -7.92349E-03    -178.823E-03     82.7141E-03     1.12743E-03    -178.823E-03    -39.7492E-03     330.003E-03    -164.353E-03    -165.616E-03    -164.622E-03     330.002E-03    -165.345E-03     1.52198E-03    -130.765E+06    -133.964E+06    -292.149E+06    -134.017E+06    -292.097E+06    -130.765E+06     449.872E+03         45.7091
              58    -430.363E-09     27.5660E-03     142.003E-03    -39.5619E-03    -198.672E-03     106.208E-03    -3.76654E-03    -198.672E-03    -117.464E-03     333.298E-03    -165.788E-03    -167.481E-03    -165.785E-03     333.295E-03    -167.481E-03     2.36158E-03    -124.102E+06    -129.457E+06    -286.250E+06    -127.051E+06    -286.079E+06    -126.678E+06    -1.70637E+06         45.8718
              59    -874.649E-09     26.1677E-03     149.292E-03    -77.3651E-03    -154.506E-03     3.24040E-03     68.6864E-03    -154.506E-03    -183.506E-03     334.828E-03    -166.738E-03    -168.052E-03    -167.350E-03     334.826E-03    -167.438E-03     1.82439E-03    -123.001E+06    -129.606E+06    -289.513E+06    -123.332E+06    -289.181E+06    -129.606E+06     699.309E+03         46.0106
              60     1.74862E-06     24.7729E-03     96.7335E-03    -38.6442E-03    -137.564E-03    -76.9670E-03     48.6683E-03    -51.1761E-03    -176.830E-03     334.746E-03    -166.853E-03    -167.890E-03    -167.888E-03     334.744E-03    -166.853E-03     1.69291E-03    -126.336E+06    -140.423E+06    -293.258E+06    -136.634E+06    -293.019E+06    -130.364E+06     5.80198E+06         46.0906
              61    -950.981E-09     23.3766E-03     71.8741E-03     5.61380E-03    -153.265E-03    -123.507E-03    -20.0250E-03     67.7541E-03    -98.2154E-03     335.802E-03    -167.579E-03    -168.218E-03    -168.217E-03     335.800E-03    -167.579E-03     1.79982E-03    -115.998E+06    -133.937E+06    -282.953E+06    -126.162E+06    -282.848E+06    -123.878E+06    -520.234E+03         46.1317
              62     1.14911E-06     21.9780E-03     72.6538E-03     6.40830E-03    -158.561E-03    -153.672E-03     1.51959E-03     72.6538E-03    -52.3441E-03     337.286E-03    -168.223E-03    -169.051E-03    -169.051E-03     337.286E-03    -168.223E-03     670.708E-06    -121.930E+06    -135.287E+06    -280.232E+06    -127.489E+06    -280.150E+06    -129.810E+06    -1.09785E+06         46.1257
              63    -115.818E-09     20.5757E-03     58.7049E-03     4.47181E-03    -144.198E-03    -91.6154E-03    -48.1107E-03     58.7049E-03     276.785E-06     336.940E-03    -167.748E-03    -169.184E-03    -168.358E-03     336.940E-03    -168.573E-03     838.082E-06    -127.713E+06    -134.656E+06    -277.254E+06    -133.210E+06    -277.234E+06    -129.179E+06     1.19501E+06         46.0378
              64    -1.42639E-06     19.1752E-03     48.6717E-03    -6.94824E-03    -119.617E-03    -15.5376E-03    -111.028E-03     48.6717E-03     26.1052E-03     334.271E-03    -166.624E-03    -167.613E-03    -166.623E-03     334.270E-03    -167.613E-03     182.271E-06    -129.082E+06    -132.754E+06    -272.057E+06    -129.111E+06    -272.028E+06    -132.754E+06    -1.40948E+06         45.8352
              65     1.04166E-06     17.7843E-03     34.2499E-03    -13.2154E-03    -89.9428E-03     21.5575E-03    -82.7423E-03    -7.72348E-03     25.1061E-03     329.616E-03    -164.421E-03    -165.165E-03    -165.000E-03     329.616E-03    -164.585E-03    -1.20870E-03    -129.866E+06    -134.868E+06    -273.998E+06    -129.976E+06    -273.888E+06    -134.868E+06     1.03830E+06         45.4895
              66    -138.135E-09     16.3999E-03     90.9646E-03     800.319E-06    -148.804E-03     70.9103E-03    -128.750E-03     800.319E-06     132.380E-03     323.424E-03    -161.324E-03    -162.071E-03    -162.070E-03     323.423E-03    -161.324E-03    -1.48477E-03    -127.795E+06    -139.103E+06    -282.669E+06    -136.703E+06    -282.273E+06    -130.591E+06    -2.24348E+06         44.9981
              67     478.592E-09     15.0181E-03     115.416E-03     33.1386E-03    -231.997E-03     101.610E-03    -218.191E-03     33.1386E-03     106.394E-03     315.548E-03    -157.163E-03    -158.394E-03    -157.329E-03     315.548E-03    -158.227E-03    -1.07998E-03    -123.419E+06    -143.945E+06    -289.103E+06    -132.418E+06    -288.617E+06    -135.432E+06    -861.589E+03         44.3941
              68    -2.59954E-06     13.6600E-03     132.556E-03     367.342E-06    -218.197E-03     124.103E-03    -209.745E-03     367.342E-06     87.4110E-03     305.394E-03    -152.034E-03    -153.383E-03    -152.025E-03     305.385E-03    -153.383E-03    -3.08120E-03    -118.043E+06    -140.717E+06    -275.622E+06    -128.878E+06    -275.448E+06    -130.057E+06     4.29102E+06         43.7200
              69     2.18236E-06     12.3070E-03     114.677E-03     15.4528E-03    -215.708E-03     91.8825E-03    -194.036E-03     16.5758E-03     160.585E-03     293.505E-03    -146.283E-03    -147.211E-03    -146.916E-03     293.495E-03    -146.569E-03    -3.65247E-03    -132.824E+06    -147.874E+06    -275.916E+06    -143.569E+06    -275.832E+06    -137.214E+06    -1.97296E+06         43.0528
              70    -1.16146E-06     10.9750E-03     86.9643E-03     85.2287E-03    -260.376E-03     72.3517E-03    -246.886E-03     86.3517E-03     91.9609E-03     283.757E-03    -141.403E-03    -142.347E-03    -142.041E-03     283.753E-03    -141.704E-03    -2.58197E-03    -132.692E+06    -138.634E+06    -274.110E+06    -133.176E+06    -273.627E+06    -138.634E+06     2.84722E+06         42.5389
              71     449.763E-09     9.65719E-03     138.198E-03     127.166E-03    -349.907E-03     138.121E-03    -349.830E-03     127.166E-03     11.3538E-03     279.303E-03    -139.123E-03    -140.166E-03    -139.118E-03     279.299E-03    -140.166E-03    -2.58485E-03    -124.979E+06    -129.684E+06    -264.932E+06    -128.889E+06    -264.175E+06    -126.531E+06     389.986E+03         42.3157
              72    -1.72218E-06     8.33485E-03     155.116E-03     131.813E-03    -373.564E-03     132.967E-03    -364.299E-03     144.697E-03     93.9796E-03     280.888E-03    -139.476E-03    -141.392E-03    -140.649E-03     280.886E-03    -140.218E-03    -1.43567E-03    -130.142E+06    -135.388E+06    -277.962E+06    -133.660E+06    -277.599E+06    -132.234E+06    -4.02071E+06         42.4752
              73     3.65196E-06     7.00779E-03     147.309E-03     99.2830E-03    -340.904E-03     88.6773E-03    -330.299E-03     147.309E-03     123.492E-03     291.009E-03    -144.516E-03    -146.485E-03    -146.479E-03     291.003E-03    -144.516E-03     1.75835E-03    -122.688E+06    -129.823E+06    -282.139E+06    -127.758E+06    -282.112E+06    -124.780E+06     2.03101E+06         43.0867
              74    -2.29918E-06     5.66398E-03     174.331E-03     127.460E-03    -402.232E-03     109.767E-03    -384.538E-03     174.331E-03     173.751E-03     308.313E-03    -153.033E-03    -155.338E-03    -153.822E-03     308.307E-03    -154.543E-03     2.19176E-03    -101.068E+06    -111.952E+06    -274.586E+06    -106.312E+06    -274.384E+06    -106.909E+06    -2.90956E+06         44.1079
              75    -456.125E-09     4.29128E-03     232.851E-03     150.129E-03    -465.374E-03     129.315E-03    -444.560E-03     232.851E-03     212.527E-03     329.201E-03    -163.856E-03    -165.416E-03    -163.900E-03     329.195E-03    -165.366E-03     2.38485E-03    -86.0889E+06    -92.8816E+06    -275.359E+06    -87.3021E+06    -275.098E+06    -91.9301E+06    -1.32800E+06         45.3526
              76     388.697E-09     2.88557E-03     226.794E-03     135.218E-03    -448.701E-03     125.430E-03    -438.912E-03     226.794E-03     149.679E-03     351.135E-03    -175.397E-03    -175.745E-03    -175.737E-03     351.126E-03    -175.397E-03     4.11890E-03    -78.9664E+06    -84.2635E+06    -279.835E+06    -84.3448E+06    -279.754E+06    -78.9664E+06     3.28928E+06         46.6618
              77    -64.0157E-09     1.44760E-03     193.979E-03     155.655E-03    -439.870E-03     149.883E-03    -434.097E-03     193.979E-03     52.8096E-03     366.249E-03    -182.698E-03    -183.536E-03    -183.533E-03     366.247E-03    -182.698E-03     2.08107E-03    -74.3847E+06    -81.2549E+06    -276.085E+06    -78.7334E+06    -276.082E+06    -76.9093E+06     400.515E+03         48.0511
              78     830.355E-06    -141.561E-09     190.788E-03     166.947E-03    -447.122E-03     165.374E-03    -445.548E-03     190.788E-03    -60.5846E-03     369.667E-03    -184.379E-03    -185.278E-03    -184.917E-03     369.666E-03    -184.738E-03     1.58110E-03    -70.0615E+06    -76.9036E+06    -258.241E+06    -74.4251E+06    -258.195E+06    -72.5861E+06    -2.10579E+06         48.7008
              79     1.66151E-03    -141.561E-09     175.442E-03     165.952E-03    -437.005E-03     164.453E-03    -435.506E-03     175.442E-03    -58.1725E-03     366.057E-03    -181.923E-03    -184.091E-03    -181.920E-03     366.054E-03    -184.091E-03     2.36992E-03    -63.1199E+06    -72.1839E+06    -242.096E+06    -72.2595E+06    -242.021E+06    -63.1199E+06    -389.447E+03         48.4846
              80     2.49682E-03    -141.561E-09     173.078E-03     168.888E-03    -437.279E-03     169.227E-03    -436.818E-03     172.279E-03    -30.9653E-03     359.505E-03    -176.693E-03    -182.585E-03    -176.687E-03     359.499E-03    -182.585E-03     3.40271E-03    -60.3706E+06    -68.8178E+06    -229.179E+06    -68.8652E+06    -229.132E+06    -60.3706E+06     427.121E+03         48.1687
              81     3.33664E-03    -141.561E-09     172.373E-03     169.538E-03    -436.441E-03     169.881E-03    -435.985E-03     171.573E-03     12.1788E-03     350.878E-03    -170.289E-03    -180.493E-03    -170.276E-03     350.865E-03    -180.493E-03     5.11234E-03     -58.989E+06    -67.5370E+06    -210.640E+06    -67.6202E+06    -210.556E+06     -58.989E+06     945.567E+03         47.8230
              82     4.18275E-03    -141.561E-09     170.502E-03     162.606E-03    -427.391E-03     162.183E-03    -426.968E-03     170.502E-03     14.8863E-03     341.734E-03    -164.137E-03    -177.963E-03    -164.121E-03     341.718E-03    -177.963E-03     5.63805E-03    -57.4318E+06    -66.7081E+06    -188.691E+06    -66.7925E+06    -188.606E+06    -57.4318E+06     1.09000E+06         47.5972
              83     5.03498E-03    -141.561E-09     168.925E-03     161.198E-03    -422.556E-03     160.052E-03    -421.410E-03     168.925E-03    -42.6873E-03     333.162E-03    -158.417E-03    -175.052E-03    -158.399E-03     333.143E-03    -175.052E-03     5.96603E-03    -56.2228E+06    -62.8058E+06    -161.548E+06    -63.0048E+06    -161.349E+06    -56.2228E+06    -3.83651E+06         47.6613
              84     5.88969E-03    -141.561E-09     167.263E-03     155.492E-03    -416.773E-03     154.055E-03    -415.336E-03     167.263E-03    -55.1694E-03     325.372E-03    -153.245E-03    -172.013E-03    -153.221E-03     325.348E-03    -172.013E-03     6.73231E-03    -56.5618E+06    -59.1012E+06    -130.413E+06    -59.4092E+06    -130.105E+06    -56.5618E+06    -972.135E+03         48.1186
              85     6.75114E-03    -141.561E-09     164.723E-03     139.672E-03    -400.113E-03     139.321E-03    -399.763E-03     164.723E-03    -23.8502E-03     318.525E-03    -149.155E-03    -169.311E-03    -149.129E-03     318.500E-03    -169.311E-03     6.96481E-03    -52.9832E+06    -59.3144E+06    -96.8110E+06    -56.2636E+06    -93.9162E+06    -58.9288E+06    -4.32528E+06         48.9996
              86     7.61444E-03    -141.561E-09     161.512E-03     133.325E-03    -389.165E-03     133.180E-03    -389.021E-03     161.512E-03     6.58023E-03     313.862E-03    -146.824E-03    -166.959E-03    -146.796E-03     313.833E-03    -166.959E-03     7.20513E-03    -36.1642E+06    -53.3135E+06    -69.1960E+06    -50.1321E+06    -49.9508E+06    -58.5908E+06    -6.00294E+06         50.3000
              87     8.47877E-03    -141.561E-09     158.285E-03     126.754E-03    -381.031E-03     126.463E-03    -380.740E-03     158.285E-03     24.2031E-03     311.208E-03    -146.067E-03    -164.862E-03    -146.030E-03     311.171E-03    -164.862E-03     8.19012E-03     -685.69E+03    -46.7972E+06    -56.2241E+06    -46.7655E+06    -717.457E+03    -56.2241E+06    -834.813E+03         52.0055
              88     9.34168E-03    -141.561E-09     155.094E-03     121.486E-03    -374.658E-03     121.154E-03    -374.326E-03     155.094E-03     123.300E-06     309.180E-03    -145.949E-03    -163.133E-03    -145.911E-03     309.142E-03    -163.133E-03     8.36777E-03     31.3787E+06    -41.9248E+06    -47.3425E+06    -40.4764E+06     28.6622E+06    -46.0744E+06    -10.9760E+06         54.0964
              89     10.2082E-03    -141.561E-09     152.224E-03     121.745E-03    -370.308E-03     121.437E-03    -370.000E-03     152.224E-03    -24.5774E-03     306.138E-03    -144.728E-03    -161.583E-03    -144.711E-03     306.122E-03    -161.583E-03     4.25508E-03     48.6284E+06    -16.0580E+06    -31.7635E+06    -28.9181E+06     45.7831E+06    -16.0580E+06    -7.43725E+06         56.5469
              90     11.0761E-03    -141.561E-09     149.444E-03     112.832E-03    -358.011E-03     111.788E-03    -356.967E-03     149.444E-03    -40.3920E-03     307.289E-03    -147.401E-03    -160.385E-03    -147.372E-03     307.259E-03    -160.385E-03     5.63505E-03     61.1632E+06     15.0253E+06    -24.0005E+06    -23.8115E+06     60.9742E+06     15.0253E+06     1.35636E+06         59.3089
              91     11.9356E-03    -141.561E-09     146.280E-03     101.251E-03    -344.650E-03     99.7974E-03    -343.196E-03     146.280E-03    -50.5344E-03     317.528E-03    -155.655E-03    -162.292E-03    -157.912E-03     317.483E-03    -159.990E-03     9.12721E-03     69.5909E+06     41.4756E+06    -21.1628E+06    -20.1677E+06     68.5957E+06     41.4756E+06    -7.78724E+06         62.3032
              92     12.7823E-03    -141.561E-09     142.690E-03     85.6740E-03    -329.029E-03     85.0909E-03    -328.446E-03     142.690E-03    -17.1506E-03     331.500E-03    -160.697E-03    -171.286E-03    -171.240E-03     331.454E-03    -160.697E-03     9.52132E-03     95.6380E+06     75.2318E+06    -15.7635E+06    -13.7875E+06     81.5238E+06     87.3700E+06     637.013E+03         65.6308
              93     13.6204E-03    -141.561E-09     138.757E-03     71.4529E-03    -313.685E-03     71.3799E-03    -313.612E-03     138.757E-03     10.5395E-03     355.586E-03    -162.427E-03    -194.307E-03    -194.169E-03     355.448E-03    -162.427E-03     16.8062E-03     117.985E+06      88.361E+06    -20.7421E+06    -18.8352E+06     86.4541E+06     117.985E+06     14.2821E+06         69.3902
              94     14.4328E-03    -141.561E-09     134.986E-03     70.9368E-03    -310.784E-03     70.7432E-03    -310.591E-03     134.986E-03     16.4886E-03     397.695E-03    -165.297E-03    -232.692E-03    -231.851E-03     396.854E-03    -165.297E-03     42.6992E-03     128.995E+06     89.8903E+06    -13.6408E+06    -12.3778E+06     88.6272E+06     128.995E+06     2.87337E+06         72.8169
              95     15.2376E-03     1.56121E-03     132.953E-03     72.7856E-03    -305.846E-03     72.4325E-03    -305.493E-03     132.953E-03    -1.51103E-03     395.211E-03    -166.337E-03    -228.683E-03    -226.653E-03     393.180E-03    -166.337E-03     69.8645E-03     135.819E+06     94.1011E+06    -14.8272E+06    -14.3977E+06     93.6716E+06     135.819E+06    -2.21523E+06         73.7953
              96     15.2683E-03     3.01056E-03     130.993E-03     70.9018E-03    -292.430E-03     70.6909E-03    -292.219E-03     130.993E-03    -14.6424E-03     360.571E-03    -165.157E-03    -195.635E-03    -193.543E-03     358.479E-03    -165.157E-03     67.6944E-03     140.432E+06     98.4625E+06    -10.1081E+06    -10.0430E+06     98.3974E+06     140.432E+06     2.35619E+06         73.1328
              97     15.2739E-03     4.42453E-03     126.267E-03     71.2913E-03    -286.000E-03     71.2748E-03    -285.984E-03     126.267E-03    -4.85997E-03     351.650E-03    -164.513E-03    -186.879E-03    -185.467E-03     350.239E-03    -164.513E-03     54.9613E-03     150.865E+06     111.860E+06     6.47164E+06     6.89760E+06     111.434E+06     150.865E+06     5.35937E+06         72.8335
              98     15.2858E-03     5.83676E-03     119.231E-03     74.1049E-03    -288.365E-03     73.7099E-03    -287.970E-03     119.231E-03     14.3048E-03     348.820E-03    -164.119E-03    -184.305E-03    -183.299E-03     347.814E-03    -164.119E-03     45.9892E-03     148.969E+06     107.875E+06     852.963E+03     1.66620E+06     107.062E+06     148.969E+06     604.053E+03         72.6199
              99     15.2776E-03     7.26302E-03     111.298E-03     71.1517E-03    -277.407E-03     70.7633E-03    -277.019E-03     111.298E-03     17.9336E-03     343.869E-03    -164.163E-03    -179.749E-03    -178.850E-03     342.970E-03    -164.163E-03     43.2392E-03     141.183E+06     95.1540E+06    -7.17881E+06    -6.77876E+06     94.7540E+06     141.183E+06    -3.64192E+06         72.3951
             100     15.2855E-03     8.66275E-03     102.517E-03     63.9488E-03    -256.142E-03     63.8806E-03    -256.074E-03     102.517E-03     7.53296E-03     339.219E-03    -164.335E-03    -174.791E-03    -173.720E-03     338.148E-03    -164.335E-03     46.8553E-03     139.311E+06     94.3115E+06    -7.67978E+06    -7.58424E+06      94.216E+06     139.311E+06    -1.33960E+06         72.1545
             101     15.2789E-03     10.0702E-03     92.7493E-03     62.6998E-03    -242.611E-03     62.2170E-03    -242.128E-03     92.7493E-03     22.2290E-03     339.024E-03    -164.356E-03    -174.276E-03    -173.337E-03     338.085E-03    -164.356E-03     43.6444E-03     138.579E+06     95.3692E+06    -6.07826E+06    -5.80769E+06     95.0987E+06     138.579E+06    -5.16409E+06         71.9028
             102     15.2752E-03     11.4775E-03     82.3310E-03     64.0158E-03    -229.492E-03     63.3126E-03    -228.789E-03     82.3310E-03     3.06408E-03     335.858E-03    -164.621E-03    -171.520E-03    -170.385E-03     334.722E-03    -164.621E-03     47.1799E-03     140.327E+06     97.0649E+06    -4.39880E+06    -3.83889E+06     96.5050E+06     140.327E+06     1.12119E+06         71.6385
             103     15.2800E-03     12.8681E-03     69.7660E-03     58.2424E-03    -209.749E-03     57.5637E-03    -209.070E-03     69.7660E-03    -26.7755E-03     332.112E-03    -164.796E-03    -167.540E-03    -166.089E-03     330.661E-03    -164.796E-03     53.7587E-03     144.023E+06     99.1048E+06    -865.667E+03    -477.832E+03     98.7170E+06     144.023E+06     5.03571E+06         71.3880
             104     15.2812E-03     14.2614E-03     61.0121E-03     51.4259E-03    -199.775E-03     55.6376E-03    -199.181E-03     56.2066E-03    -3.74524E-03     332.993E-03    -164.675E-03    -168.155E-03    -166.964E-03     331.802E-03    -164.675E-03     48.6319E-03     142.030E+06     99.2247E+06    -3.13716E+06    -2.84599E+06     98.9335E+06     142.030E+06    -2.96021E+06         71.1518
             105     15.2726E-03     15.6606E-03     163.025E-03     44.5454E-03    -206.601E-03     162.486E-03    -206.062E-03     44.5454E-03    -7.67781E-03     334.080E-03    -164.848E-03    -169.287E-03    -168.138E-03     332.930E-03    -164.848E-03     47.9541E-03     132.433E+06     91.0223E+06    -11.0791E+06    -10.7328E+06     90.6759E+06     132.433E+06    -5.60978E+06         70.9163
             106     15.2726E-03     17.0590E-03     145.736E-03    -10.6108E-03    -356.159E-03    -116.980E-03    -136.115E-03     32.0617E-03    -38.5467E-03     330.895E-03    -163.901E-03    -167.096E-03    -164.609E-03     329.502E-03    -164.995E-03     52.5017E-03     125.490E+06     85.2575E+06    -17.4100E+06    -17.0554E+06     84.9029E+06     125.490E+06     1.96909E+06         70.6931
             107     15.2778E-03     18.4451E-03     19.8920E-03    -124.099E-03        -1.07373        -1.06748    -130.347E-03     19.8920E-03     108.557E-03     326.068E-03    -160.995E-03    -164.935E-03    -159.453E-03     324.526E-03    -164.935E-03     54.7110E-03     136.461E+06     96.6773E+06    -7.65001E+06    -7.28052E+06     96.3078E+06     136.461E+06     5.91427E+06         70.4954
             108     15.2788E-03     19.8309E-03     416.821E-03    -84.0968E-03        -1.06827    -409.464E-03    -343.308E-03     17.2221E-03     71.1350E-03     325.978E-03    -160.995E-03    -164.980E-03    -159.476E-03     324.459E-03    -164.980E-03     54.2977E-03     146.573E+06     107.275E+06     2.26570E+06     2.34849E+06     107.192E+06     146.573E+06     2.25669E+06         70.3350
             109     15.2764E-03     21.2150E-03         2.92099     101.177E-03    -241.105E-03         2.90153    -134.096E-03     13.6313E-03    -475.913E-03     327.319E-03    -162.561E-03    -164.992E-03    -161.107E-03     325.866E-03    -164.992E-03     53.2842E-03     147.116E+06     108.674E+06     3.82716E+06     4.05382E+06     108.447E+06     147.116E+06    -3.28072E+06         70.2244
             110     15.2783E-03     22.6004E-03         5.58175     121.254E-03    -1.32345E-03         5.56221     140.795E-03    -1.32345E-03    -289.013E-03     327.829E-03    -162.721E-03    -164.925E-03    -161.259E-03     326.367E-03    -164.925E-03     53.4824E-03     140.700E+06     100.883E+06    -6.56825E+06    -6.22479E+06     100.540E+06     140.700E+06    -922.588E+03         70.1661
             111     15.2751E-03     23.9915E-03         6.13478     29.1572E-03    -369.244E-03         6.12929    -328.721E-03    -5.87459E-03     366.581E-03     327.039E-03    -161.825E-03    -164.990E-03    -160.375E-03     325.588E-03    -164.990E-03     53.1762E-03     138.106E+06     97.0421E+06    -10.4688E+06    -10.2336E+06     96.8070E+06     138.106E+06     33.4637E+03         70.1515
             112     15.2784E-03     25.3702E-03         22.4378     105.518E-03        -2.58536         22.4091        -2.55672     105.518E-03         1.69205     324.529E-03    -159.236E-03    -165.111E-03    -157.686E-03     322.980E-03    -165.111E-03     54.6336E-03     152.416E+06     104.579E+06     9.29454E+06     9.69694E+06     104.177E+06     152.416E+06     965.404E+03         70.1749
             113     15.2813E-03     26.7536E-03         165.948         4.02746        -1.01361         165.092         2.55592         1.31389         23.1725     325.869E-03    -160.686E-03    -164.965E-03    -159.182E-03     324.365E-03    -164.965E-03     53.9285E-03     147.254E+06     112.464E+06    -2.53008E+06    -353.582E+03     110.288E+06     147.254E+06     15.0300E+06         70.2267
             114     15.2747E-03     28.1385E-03         170.346         3.85329        -22.4729         145.231         5.35611         1.13972        -25.7200     331.260E-03    -164.262E-03    -167.142E-03    -165.256E-03     330.032E-03    -164.919E-03     49.3042E-03     154.888E+06     136.246E+06    -11.6648E+06    -9.56813E+06     145.355E+06     143.683E+06     7.36693E+06         70.2831
             115     15.2724E-03     29.5324E-03         22.4145        -2.27032        -200.654        -176.599        -2.48756        -1.42420        -22.5771     331.706E-03    -164.695E-03    -167.109E-03    -165.593E-03     330.382E-03    -164.887E-03     51.1174E-03     158.565E+06     137.911E+06    -3.72992E+06    -1.02003E+06     146.406E+06     147.360E+06    -16.8530E+06         70.3338
             116     15.2845E-03     30.9241E-03        -2.73186        -4.66280        -358.422        -356.738        -6.34667        -2.73186         1.05286     328.650E-03    -163.796E-03    -164.744E-03    -162.358E-03     327.213E-03    -164.744E-03     53.1020E-03     142.336E+06     127.383E+06    -12.4745E+06    -6.20565E+06     121.114E+06     142.336E+06     3.54826E+06         70.3797
             117     15.2765E-03     32.3149E-03         19.9243        -2.42214        -211.183        -189.264        -3.07962        -1.33731         26.4644     330.119E-03    -164.053E-03    -166.216E-03    -164.165E-03     328.825E-03    -164.809E-03     50.5735E-03     162.633E+06     144.361E+06    -1.44401E+06     2.36920E+06     153.316E+06     149.866E+06     14.1471E+06         70.4124
             118     15.2737E-03     33.7061E-03         183.349         4.19127        -28.4314         152.303         5.46470         1.34168         23.5872     331.820E-03    -164.988E-03    -167.228E-03    -165.877E-03     330.469E-03    -164.988E-03     51.8243E-03     156.429E+06     137.245E+06    -9.58824E+06    -6.43795E+06     146.863E+06     143.661E+06    -16.9307E+06         70.4338
             119     15.2756E-03     35.0980E-03         184.046         4.23505        -1.09971         182.910         2.88575         1.38546        -26.8272     330.471E-03    -164.714E-03    -165.842E-03    -164.133E-03     329.057E-03    -165.008E-03     52.8929E-03     130.280E+06     99.6292E+06    -20.7719E+06    -17.6370E+06     96.4943E+06     130.280E+06    -13.6302E+06         70.4421
             120     15.2793E-03     36.4836E-03         25.8222     100.825E-03        -2.73921         25.8219        -2.73899     100.825E-03    -126.183E-03     331.939E-03    -164.577E-03    -167.256E-03    -165.526E-03     330.504E-03    -164.871E-03     53.4422E-03     132.960E+06     86.0634E+06    -8.44910E+06    -8.31286E+06     85.9272E+06     132.960E+06     3.47614E+06         70.4221
             121     15.2756E-03     37.8858E-03         7.27739     36.8296E-03    -372.754E-03         7.27220    -367.567E-03     36.8296E-03    -252.825E-03     333.701E-03    -164.925E-03    -169.168E-03    -167.756E-03     332.290E-03    -164.925E-03     53.1897E-03     139.427E+06     98.5629E+06    -10.4891E+06    -10.3810E+06     98.4549E+06     139.427E+06     2.81944E+06         70.3635
             122     15.2744E-03     39.2862E-03         6.09503     100.429E-03    -15.1671E-03         6.08529     55.4601E-03     39.5473E-03    -52.2219E-03     328.899E-03    -162.143E-03    -166.977E-03    -162.290E-03     327.188E-03    -165.119E-03     57.5728E-03     147.423E+06     111.147E+06     5.16791E+06     5.49207E+06     110.823E+06     147.423E+06     4.38710E+06         70.2767
             123     15.2811E-03     40.6565E-03         3.05272     111.008E-03    -274.679E-03         3.02114    -182.218E-03     50.1258E-03     487.048E-03     325.443E-03    -160.278E-03    -165.019E-03    -158.435E-03     323.599E-03    -165.019E-03     59.5937E-03     144.578E+06     109.119E+06     5.26231E+06     5.63597E+06     108.746E+06     144.578E+06     1.99898E+06         70.1891
             124     15.2798E-03     42.0441E-03     443.330E-03    -108.385E-03        -1.22015    -536.887E-03    -410.548E-03     62.2284E-03     153.926E-03     326.923E-03    -162.199E-03    -164.795E-03    -160.897E-03     325.621E-03    -164.795E-03     50.0564E-03     136.332E+06     98.4967E+06    -11.3326E+06    -11.2772E+06     98.4412E+06     136.332E+06    -1.71123E+06         70.1061
             125     15.2769E-03     43.4297E-03     72.2167E-03    -190.076E-03        -1.20534        -1.19524    -200.175E-03     72.2167E-03    -188.338E-03     327.356E-03    -162.993E-03    -164.824E-03    -161.780E-03     326.144E-03    -164.824E-03     48.5208E-03     138.344E+06     100.136E+06    -6.18573E+06    -6.10013E+06     100.051E+06     138.344E+06    -2.07847E+06         70.0303
             126     15.2796E-03     44.8147E-03     181.907E-03    -7.75729E-03    -405.864E-03    -132.665E-03    -182.971E-03     83.9220E-03    -52.8380E-03     330.707E-03    -163.820E-03    -167.235E-03    -164.756E-03     329.229E-03    -164.821E-03     54.1211E-03     138.239E+06     101.679E+06    -6.19814E+06    -6.06007E+06     101.541E+06     138.239E+06    -3.83254E+06         69.9740
             127     15.2761E-03     46.2235E-03     193.624E-03     81.5756E-03    -259.258E-03     179.236E-03    -258.934E-03     95.6383E-03     19.2278E-03     333.028E-03    -164.782E-03    -168.040E-03    -166.405E-03     331.393E-03    -164.782E-03     57.1200E-03     143.567E+06     106.711E+06    -1.59197E+06    -211.460E+03     105.331E+06     143.567E+06     6.79063E+06         69.9373
             128     15.2837E-03     47.6097E-03     105.077E-03     66.1643E-03    -262.783E-03     66.0052E-03    -262.624E-03     105.077E-03    -9.39050E-03     327.213E-03    -161.628E-03    -165.597E-03    -160.839E-03     325.579E-03    -164.752E-03     56.4603E-03     145.623E+06     111.530E+06     8.32490E+06     9.96627E+06     109.888E+06     145.623E+06     4.59552E+06         69.9278
             129     15.2823E-03     48.9885E-03     112.850E-03     60.0378E-03    -260.922E-03     59.5683E-03    -260.453E-03     112.850E-03    -24.2287E-03     327.151E-03    -161.621E-03    -165.907E-03    -161.392E-03     325.760E-03    -164.745E-03     52.0334E-03     128.512E+06     93.9290E+06    -10.8263E+06    -9.68037E+06     92.7830E+06     128.512E+06    -10.6901E+06         69.9514
             130     15.2744E-03     50.3795E-03     119.464E-03     69.2769E-03    -277.380E-03     68.9660E-03    -277.069E-03     119.464E-03    -14.1477E-03     332.790E-03    -164.860E-03    -168.213E-03    -166.870E-03     331.448E-03    -164.860E-03     51.7791E-03     131.104E+06     93.0522E+06    -16.5952E+06    -14.6412E+06     91.0982E+06     131.104E+06     792.556E+03         69.9870
             131     15.2786E-03     51.7827E-03     125.001E-03     67.0944E-03    -285.899E-03     66.4470E-03    -285.251E-03     125.001E-03    -20.8259E-03     330.634E-03    -163.788E-03    -167.190E-03    -164.627E-03     329.283E-03    -164.999E-03     51.7359E-03     136.610E+06     97.3668E+06    -10.8120E+06    -9.53941E+06     96.0942E+06     136.610E+06     4.73021E+06         70.0043
             132     15.2740E-03     53.1636E-03     129.508E-03     61.4025E-03    -281.802E-03     60.5609E-03    -280.961E-03     129.508E-03    -32.5165E-03     325.352E-03    -160.656E-03    -165.011E-03    -159.164E-03     323.859E-03    -165.011E-03     53.6145E-03     139.948E+06     98.9094E+06    -4.92893E+06    -4.70912E+06     98.6896E+06     139.948E+06    -1.06295E+06         70.0041
             133     15.2862E-03     54.5410E-03     132.103E-03     73.5673E-03    -291.872E-03     71.7583E-03    -290.063E-03     132.103E-03    -46.6450E-03     324.308E-03    -159.730E-03    -164.709E-03    -158.171E-03     322.750E-03    -164.709E-03     54.7690E-03     151.326E+06     109.984E+06     11.8663E+06     11.9371E+06     109.913E+06     151.326E+06     1.49757E+06         70.0102
             134     15.2845E-03     55.9273E-03     132.363E-03     70.7183E-03    -291.511E-03     68.5803E-03    -289.373E-03     132.363E-03    -53.9005E-03     331.164E-03    -162.753E-03    -168.896E-03    -165.816E-03     329.920E-03    -164.589E-03     49.5738E-03     142.511E+06     102.946E+06    -3.07457E+06    -2.67766E+06     102.549E+06     142.511E+06    -5.02978E+06         70.0135
             135     15.2721E-03     57.3398E-03     130.441E-03     73.5758E-03    -289.180E-03     68.7422E-03    -284.346E-03     130.441E-03    -75.7764E-03     335.989E-03    -164.793E-03    -171.447E-03    -170.114E-03     334.656E-03    -164.793E-03     51.7080E-03     137.287E+06     100.372E+06    -10.9582E+06    -9.98002E+06     99.3937E+06     137.287E+06     926.668E+03         69.9880
             136     15.2757E-03     58.7334E-03     125.864E-03     73.1054E-03    -285.410E-03     68.2784E-03    -280.583E-03     125.864E-03    -75.4223E-03     330.526E-03    -163.136E-03    -167.367E-03    -163.764E-03     328.807E-03    -165.019E-03     58.2364E-03     141.073E+06     105.341E+06    -1.07314E+06    -417.954E+03     104.686E+06     141.073E+06     3.70860E+06         69.9341
             137     15.2790E-03     60.1120E-03     120.132E-03     61.4588E-03    -268.594E-03     59.9716E-03    -267.107E-03     120.132E-03    -43.6476E-03     326.741E-03    -161.888E-03    -165.014E-03    -160.194E-03     325.047E-03    -165.014E-03     57.3678E-03     138.133E+06     99.5180E+06    -5.38868E+06    -5.29741E+06     99.4267E+06     138.133E+06    -899.979E+03         69.8609
             138     15.2804E-03     61.4995E-03     113.403E-03     70.4335E-03    -270.944E-03     68.3303E-03    -268.841E-03     113.403E-03    -53.4167E-03     329.403E-03    -163.611E-03    -165.969E-03    -163.500E-03     328.177E-03    -164.854E-03     48.7639E-03     134.603E+06     95.9692E+06    -13.4125E+06    -13.3063E+06     95.8630E+06     134.603E+06    -1.18009E+06         69.7772
             139     15.2735E-03     62.8832E-03     104.949E-03     75.2424E-03    -268.213E-03     74.1037E-03    -267.074E-03     104.949E-03    -26.2924E-03     331.709E-03    -164.865E-03    -167.107E-03    -166.172E-03     330.774E-03    -164.865E-03     43.1534E-03     134.132E+06     95.9567E+06    -11.4296E+06    -11.3413E+06     95.8684E+06     134.132E+06    -1.91257E+06         69.6973
             140     15.2777E-03     64.2850E-03     95.2944E-03     60.1871E-03    -237.780E-03     59.7511E-03    -237.344E-03     95.2944E-03    -13.0643E-03     327.723E-03    -161.851E-03    -166.130E-03    -161.865E-03     326.608E-03    -165.001E-03     46.5403E-03     142.612E+06     105.233E+06    -1.79967E+06    -1.54430E+06     104.978E+06     142.612E+06     4.03723E+06         69.6365
             141     15.2805E-03     65.6672E-03     84.5379E-03     48.8621E-03    -208.774E-03     48.2111E-03    -208.123E-03     84.5379E-03    -25.5745E-03     324.300E-03    -159.131E-03    -165.042E-03    -157.900E-03     323.069E-03    -165.042E-03     48.7182E-03     146.813E+06     111.797E+06     431.588E+03     936.684E+03     111.292E+06     146.813E+06     14.2643E+03         69.6020
             142     15.2762E-03     67.0475E-03     73.7578E-03     51.0208E-03    -196.081E-03     50.7408E-03    -195.801E-03     73.7578E-03    -5.15918E-03     326.103E-03    -160.951E-03    -164.909E-03    -159.558E-03     324.711E-03    -164.909E-03     51.8679E-03     139.609E+06     102.977E+06     872.455E+03     1.13089E+06     102.718E+06     139.609E+06    -4.30770E+06         69.5989
             143     15.2849E-03     68.4384E-03     64.4211E-03     53.9560E-03    -195.607E-03     54.4430E-03    -193.813E-03     62.1401E-03    -24.4947E-03     330.532E-03    -163.484E-03    -167.068E-03    -164.408E-03     329.071E-03    -164.682E-03     53.6919E-03     138.844E+06     99.4609E+06    -3.76043E+06    -3.72746E+06     99.4279E+06     138.844E+06    -1.78600E+06         69.6180
             144     15.2729E-03     69.8384E-03     59.6118E-03     48.7729E-03    -191.992E-03     57.0683E-03    -189.449E-03     48.7729E-03    -49.6057E-03     333.495E-03    -164.858E-03    -168.874E-03    -167.639E-03     332.260E-03    -164.858E-03     49.7258E-03     138.085E+06     99.4116E+06    -13.0568E+06    -12.8700E+06     99.2248E+06     138.085E+06     1.77483E+06         69.6174
             145     15.2764E-03     71.2304E-03     48.7286E-03     36.2326E-03    -160.344E-03     47.8734E-03    -159.489E-03     36.2326E-03    -23.7963E-03     331.060E-03    -164.592E-03    -166.810E-03    -164.850E-03     329.688E-03    -165.180E-03     51.9929E-03     139.762E+06     104.179E+06    -9.44499E+06    -9.28403E+06     104.018E+06     139.762E+06     3.01695E+06         69.5715
             146     15.2748E-03     72.6179E-03     42.4520E-03     25.2341E-03    -134.781E-03     41.5082E-03    -133.837E-03     25.2341E-03    -21.8859E-03     330.512E-03    -164.415E-03    -166.282E-03    -164.093E-03     328.910E-03    -165.003E-03     56.2852E-03     147.248E+06     111.829E+06     1.62618E+06     1.99838E+06     111.457E+06     147.248E+06     4.42130E+06         69.4801
             147     15.2791E-03     74.0168E-03     48.6320E-03     14.4495E-03    -128.028E-03     47.0662E-03    -126.463E-03     14.4495E-03    -33.0426E-03     329.700E-03    -163.758E-03    -165.917E-03    -163.314E-03     327.977E-03    -164.638E-03     58.2448E-03     145.446E+06     111.458E+06     3.75294E+06     4.12557E+06     111.085E+06     145.446E+06     4.23399E+06         69.3577
             148     15.2855E-03     75.3960E-03     46.4820E-03     4.02364E-03    -110.960E-03     45.2858E-03    -109.763E-03     4.02364E-03    -3.06186E-03     327.409E-03    -162.581E-03    -164.512E-03    -160.937E-03     325.765E-03    -164.512E-03     56.5704E-03     147.987E+06     113.087E+06     1.52014E+06     1.82531E+06     112.782E+06     147.987E+06    -4.27971E+06         69.2433
             149     15.2726E-03     78.1772E-03     34.1674E-03    -13.9978E-03    -87.9047E-03     33.2993E-03    -87.0366E-03    -13.9978E-03    -10.1059E-03     330.814E-03    -164.688E-03    -166.477E-03    -165.018E-03     329.600E-03    -164.932E-03     49.0619E-03     142.810E+06     106.278E+06    -5.58156E+06    -4.55776E+06     105.254E+06     142.810E+06     4.83609E+06         69.1380
             150     15.2800E-03     79.5655E-03     39.2461E-03    -19.7961E-03    -81.0043E-03     36.9697E-03    -78.7279E-03    -19.7961E-03    -32.6184E-03     328.523E-03    -163.818E-03    -165.081E-03    -162.658E-03     327.363E-03    -165.081E-03     47.7104E-03     135.884E+06     102.213E+06    -11.3620E+06    -9.86770E+06     100.719E+06     135.884E+06     1.35016E+06         69.1362
             151     15.2708E-03     80.9562E-03     45.3742E-03    -23.9866E-03    -79.6747E-03     43.7568E-03    -78.0573E-03    -23.9866E-03    -12.8737E-03     328.957E-03    -164.236E-03    -165.271E-03    -163.006E-03     327.712E-03    -165.255E-03     49.4047E-03     134.906E+06     101.460E+06    -13.9798E+06    -13.3203E+06     100.800E+06     134.906E+06    -3.32847E+06         69.1255
             152     15.2762E-03     82.3488E-03     37.6547E-03    -26.8346E-03    -73.7675E-03     35.8320E-03    -71.9449E-03    -26.8346E-03    -11.8262E-03     329.169E-03    -164.244E-03    -165.155E-03    -162.733E-03     327.642E-03    -165.139E-03     54.7711E-03     143.181E+06     113.597E+06     1.54147E+06     1.81949E+06     113.319E+06     143.181E+06     5.52305E+06         69.1002
             153     15.2786E-03     83.7338E-03     35.1042E-03    -27.6902E-03    -65.6127E-03     33.3522E-03    -63.8607E-03    -27.6902E-03    -22.5572E-03     328.559E-03    -163.875E-03    -164.876E-03    -162.454E-03     327.138E-03    -164.876E-03     52.6587E-03     148.239E+06     117.848E+06     2.94748E+06     3.18293E+06     117.612E+06     148.239E+06     1.25778E+06         69.0715
             154     15.2786E-03     85.1235E-03     5.49543E-03    -41.1105E-03    -94.8677E-03    -45.8167E-03    -57.8203E-03    -26.8457E-03    -4.41218E-03     329.436E-03    -164.672E-03    -164.831E-03    -163.498E-03     328.210E-03    -164.778E-03     49.1777E-03     145.277E+06     109.895E+06    -8.36018E+06    -8.16872E+06     109.703E+06     145.277E+06    -4.66581E+06         69.0470
             155     15.2799E-03     86.5109E-03     229.757E-03    -37.6535E-03    -143.749E-03     178.508E-03    -106.765E-03    -23.3888E-03     6.71514E-03     330.641E-03    -164.728E-03    -165.683E-03    -164.429E-03     329.387E-03    -164.728E-03     49.8377E-03     144.382E+06     109.258E+06    -11.3995E+06    -11.1566E+06     109.015E+06     144.382E+06    -185.305E+03         69.0367
             156     15.2811E-03     87.9090E-03     939.513E-03    -17.9047E-03    -87.2898E-03     934.729E-03    -82.5051E-03    -17.9047E-03    -108.558E-03     330.519E-03    -164.752E-03    -165.924E-03    -164.593E-03     329.188E-03    -164.752E-03     51.3180E-03     160.143E+06     125.160E+06     3.62895E+06     3.74569E+06     125.044E+06     160.143E+06     3.19944E+06         69.0343
             157     15.2799E-03     89.3028E-03     800.029E-03    -16.5553E-03    -357.025E-03     343.827E-03     99.1765E-03    -16.5553E-03    -70.9209E-03     330.912E-03    -164.786E-03    -166.406E-03    -164.981E-03     329.488E-03    -164.786E-03     53.1587E-03     153.983E+06     122.628E+06    -2.90066E+06    -2.88182E+06     122.609E+06     153.983E+06    -330.150E+03         69.0323
             158     15.2741E-03     90.6946E-03     100.835E-03    -238.358E-03        -1.98727        -1.96696    -146.352E-03    -11.4767E-03     371.176E-03     329.877E-03    -163.429E-03    -166.243E-03    -163.346E-03     328.444E-03    -164.893E-03     53.1710E-03     151.631E+06     122.119E+06    -6.13165E+06    -5.99392E+06     121.981E+06     151.631E+06     1.87472E+06         69.0355
             159     15.2818E-03     92.0764E-03     3.07253E-03    -304.585E-03        -3.27416        -3.24931    -329.437E-03     3.07253E-03     139.538E-03     325.792E-03    -160.597E-03    -164.951E-03    -159.233E-03     324.428E-03    -164.951E-03     51.4291E-03     160.573E+06     130.854E+06     1.08313E+06     1.29144E+06     130.646E+06     160.573E+06     433.189E+03         69.0465
             160     15.2796E-03     93.4551E-03     351.047E-03    -75.7536E-03        -4.52824        -4.52151     263.534E-03     5.02327E-03    -306.567E-03     326.338E-03    -161.296E-03    -164.894E-03    -160.151E-03     325.193E-03    -164.894E-03     47.0842E-03     164.447E+06     135.124E+06     4.71242E+06     4.79712E+06     135.040E+06     164.447E+06    -2.63052E+06         69.0560
             161     15.2802E-03     94.8458E-03         1.73841    -79.8173E-03        -20.2478        -20.2382         1.72881    -79.8173E-03    -917.463E-03     328.176E-03    -163.109E-03    -164.862E-03    -161.890E-03     326.956E-03    -164.862E-03     48.6613E-03     158.494E+06     130.658E+06    -2.37046E+06    -2.32264E+06     130.611E+06     158.494E+06    -2.06849E+06         69.0588
             162     15.2833E-03     96.2387E-03     456.632E-03        -3.36458        -134.303        -133.659        -2.53654        -1.01557        -17.7506     330.075E-03    -163.707E-03    -166.470E-03    -163.932E-03     328.583E-03    -164.752E-03     54.2886E-03     153.706E+06     130.564E+06    -10.0275E+06    -8.97768E+06     129.514E+06     153.706E+06     6.58023E+06         69.0632
             163     15.2796E-03     97.6323E-03         19.2263        -3.18088        -135.229        -114.480        -3.87156    -831.865E-03         21.4506     330.045E-03    -163.652E-03    -166.357E-03    -164.086E-03     328.762E-03    -164.639E-03     50.1340E-03     185.776E+06     160.831E+06     987.687E+03     3.42102E+06     173.117E+06     171.056E+06     20.4654E+06         69.0675
             164     15.2827E-03     99.0154E-03         137.611         2.81487        -17.3121         118.172         3.86803         1.07402         15.9600     327.947E-03    -163.052E-03    -164.702E-03    -161.851E-03     326.747E-03    -164.702E-03     48.3834E-03     170.975E+06     145.315E+06    -22.0937E+06    -18.9683E+06     156.909E+06     156.255E+06     664.942E+03         69.0773
             165     15.2799E-03     100.398E-03         126.094         2.73429    -959.869E-03         124.943         1.93204     993.446E-03        -21.0989     329.971E-03    -164.048E-03    -165.970E-03    -164.040E-03     328.704E-03    -164.711E-03     49.9858E-03     147.077E+06     127.026E+06    -21.8178E+06    -19.3864E+06     124.594E+06     147.077E+06    -18.5717E+06         69.0995
             166     15.2866E-03     101.799E-03         10.2469     66.6556E-03        -2.22877         10.1977        -2.17951     66.6556E-03         1.56385     329.429E-03    -163.922E-03    -165.812E-03    -163.803E-03     328.051E-03    -164.554E-03     51.9607E-03     171.488E+06     152.233E+06     2.34414E+06     3.44652E+06     151.130E+06     171.488E+06    -1.76490E+06         69.1191
             167     15.2881E-03     103.186E-03         3.11246     88.2404E-03    -380.150E-03         3.09521    -362.901E-03     88.2404E-03    -42.6128E-03     327.127E-03    -163.207E-03    -164.403E-03    -161.670E-03     325.590E-03    -164.403E-03     54.8114E-03     176.378E+06     156.760E+06     983.817E+03     1.40051E+06     156.344E+06     176.378E+06     3.42756E+06         69.1278
             168     15.2889E-03     104.573E-03         3.07130     118.059E-03    -32.9893E-03         3.05641     6.66127E-03     93.2947E-03    -108.113E-03     326.044E-03    -162.032E-03    -164.350E-03    -160.637E-03     324.649E-03    -164.350E-03     52.0930E-03     174.341E+06     157.736E+06     46.2987E+03      96.863E+03     157.685E+06     174.341E+06    -1.90651E+06         69.1279
             169     15.2888E-03     105.953E-03         1.86069     125.124E-03    -210.170E-03         1.83900    -163.713E-03     100.360E-03     349.765E-03     325.965E-03    -162.078E-03    -164.290E-03    -160.689E-03     324.575E-03    -164.290E-03     51.9843E-03     172.913E+06     159.282E+06    -3.72383E+06    -3.71745E+06     159.276E+06     172.913E+06     772.698E+03         69.1322
             170     15.2906E-03     107.339E-03     353.871E-03    -77.4386E-03    -923.288E-03    -378.787E-03    -374.135E-03     106.067E-03     105.068E-03     327.789E-03    -163.670E-03    -164.592E-03    -162.704E-03     326.359E-03    -164.127E-03     52.9731E-03     171.982E+06     160.541E+06    -4.82841E+06    -4.82186E+06     160.534E+06     171.982E+06     849.574E+03         69.1471
             171     15.2917E-03     108.733E-03     107.969E-03    -174.021E-03    -754.525E-03    -722.131E-03    -206.416E-03     107.969E-03    -134.095E-03     327.420E-03    -163.183E-03    -164.522E-03    -162.272E-03     326.044E-03    -164.057E-03     51.9129E-03     173.194E+06     163.308E+06    -4.39169E+06    -4.38054E+06     163.297E+06     173.194E+06     1.08874E+06         69.1648
             172     15.2929E-03     110.116E-03     108.015E-03    -101.778E-03    -221.112E-03    -190.165E-03    -132.726E-03     108.015E-03    -17.3159E-03     326.658E-03    -162.837E-03    -164.047E-03    -161.495E-03     325.316E-03    -164.047E-03     51.1844E-03     175.532E+06     167.598E+06    -5.07314E+06    -5.05982E+06     167.585E+06     175.532E+06     1.41635E+06         69.1898
             173     15.2935E-03     111.502E-03     105.800E-03    -185.550E-03    -879.162E-03    -871.707E-03    -193.005E-03     105.800E-03     137.676E-03     326.858E-03    -162.953E-03    -163.985E-03    -161.727E-03     325.632E-03    -163.985E-03     48.9182E-03     177.713E+06     171.237E+06    -5.11429E+06    -5.10590E+06     171.228E+06     177.713E+06     1.18392E+06         69.2344
             174     15.2954E-03     112.890E-03     480.262E-03    -71.7298E-03        -1.00959    -315.163E-03    -394.200E-03     108.310E-03     59.6411E-03     326.053E-03    -161.929E-03    -163.981E-03    -160.709E-03     324.834E-03    -163.981E-03     48.6994E-03     179.633E+06     172.833E+06    -5.52618E+06    -5.52013E+06     172.827E+06     179.633E+06     771.617E+03         69.3045
             175     15.2950E-03     114.278E-03         2.37601     149.408E-03    -210.528E-03         2.35829    -151.268E-03     107.864E-03    -402.624E-03     326.338E-03    -162.418E-03    -163.990E-03    -161.060E-03     324.980E-03    -163.990E-03     51.4548E-03     184.101E+06     178.555E+06    -3.49582E+06    -3.43767E+06     178.497E+06     184.101E+06     2.34724E+06         69.3959
             176     15.2961E-03     115.661E-03         3.89007     136.941E-03     7.91915E-03         3.86559     73.9411E-03     95.3980E-03    -103.488E-03     327.163E-03    -163.428E-03    -163.946E-03    -162.089E-03     325.824E-03    -163.946E-03     51.1655E-03     187.051E+06     184.016E+06    -5.03092E+06    -4.97209E+06     184.759E+06     186.248E+06     2.03666E+06         69.4951
             177     15.2957E-03     117.053E-03         5.13612     94.6477E-03    -576.073E-03         5.12606    -566.015E-03     94.6477E-03     433.463E-03     326.627E-03    -162.612E-03    -163.966E-03    -161.280E-03     325.294E-03    -163.966E-03     50.9740E-03     189.098E+06     184.843E+06    -4.53364E+06    -4.53276E+06     185.644E+06     188.296E+06    -391.624E+03         69.5932
             178     15.2963E-03     118.436E-03         22.3596     193.541E-03        -2.26484         22.3464        -2.25166     193.541E-03         1.13844     326.023E-03    -161.980E-03    -164.006E-03    -160.431E-03     324.473E-03    -164.006E-03     54.8403E-03     187.313E+06     181.605E+06    -5.98802E+06    -5.95451E+06     181.571E+06     187.313E+06    -1.91726E+06         69.6996
             179     15.2983E-03     119.824E-03         149.681         3.62897    -618.054E-03         148.951         2.48418         1.25709         20.0184     327.626E-03    -162.955E-03    -164.714E-03    -161.903E-03     325.789E-03    -163.929E-03     59.9473E-03     188.991E+06     184.090E+06    -11.0328E+06    -9.76447E+06     185.468E+06     186.345E+06     9.34583E+06         69.8219
             180     15.2986E-03     121.215E-03         152.996         3.46134        -18.8890          132.25         4.22857         1.08946        -23.3480     331.945E-03    -163.737E-03    -168.370E-03    -166.607E-03     330.182E-03    -163.737E-03     59.1645E-03     209.131E+06     185.595E+06    -11.6576E+06    -10.2403E+06     207.714E+06     185.595E+06     6.47867E+06         69.9558
             181     15.2963E-03     122.600E-03         21.4004        -3.57415        -156.053        -132.674        -4.44791        -1.10473        -20.3914     331.742E-03    -163.707E-03    -168.379E-03    -167.123E-03     330.486E-03    -163.707E-03     49.7450E-03     205.383E+06     178.777E+06    -15.1683E+06    -14.8722E+06     205.087E+06     178.777E+06    -8.05290E+06         70.0926
             182     15.3011E-03     123.994E-03     666.899E-03        -3.60184        -155.755        -154.834        -2.72402        -1.13242         22.0195     325.428E-03    -161.215E-03    -164.601E-03    -160.821E-03     324.211E-03    -163.777E-03     48.3496E-03     187.357E+06     176.285E+06    -7.67356E+06    -7.55630E+06     181.883E+06     181.641E+06    -3.94470E+06         70.2325
             183     15.3015E-03     125.375E-03         2.07007    -53.9032E-03        -22.9701        -22.9662         2.06610    -53.9032E-03    -241.382E-03     323.174E-03    -159.752E-03    -163.726E-03    -158.299E-03     321.720E-03    -163.726E-03     52.9081E-03     188.680E+06     179.721E+06    -2.57307E+06    -2.55524E+06     179.703E+06     188.680E+06     614.810E+03         70.3952
             184     15.3029E-03     126.754E-03     322.524E-03    -23.6182E-03        -5.18682        -5.16865     282.863E-03    -2.12259E-03     89.0700E-03     324.383E-03    -160.808E-03    -163.676E-03    -159.510E-03     323.085E-03    -163.676E-03     50.0542E-03     194.140E+06     186.728E+06    -141.958E+03    -122.612E+03     186.708E+06     194.140E+06     486.683E+03         70.6031
             185     15.3041E-03     128.139E-03    -6.33609E-03    -215.672E-03        -3.80226        -3.78284    -235.088E-03    -6.33609E-03     140.167E-03     324.286E-03    -160.753E-03    -163.644E-03    -159.590E-03     323.122E-03    -163.644E-03     47.4494E-03     195.084E+06     187.166E+06     1.47649E+06     1.51729E+06     187.125E+06     195.084E+06    -2.50130E+06         70.8753
             186     15.3040E-03     129.519E-03     151.279E-03    -206.327E-03        -2.29998        -2.27820    -58.3403E-03    -18.4863E-03    -379.980E-03     325.547E-03    -162.140E-03    -163.812E-03    -161.249E-03     324.417E-03    -163.573E-03     46.9046E-03     190.467E+06     181.755E+06    -3.55467E+06    -3.51550E+06     181.715E+06     190.467E+06    -1.27052E+06         71.2278
             187     15.3047E-03     130.906E-03     924.895E-03     19.3438E-03    -437.649E-03     361.655E-03     174.951E-03    -30.0159E-03    -108.719E-03     328.691E-03    -163.457E-03    -165.729E-03    -164.575E-03     327.537E-03    -163.457E-03     47.7013E-03     188.795E+06     175.533E+06    -5.02836E+06    -4.97653E+06     175.481E+06     188.795E+06    -1.51318E+06         71.6615
             188     15.3047E-03     132.303E-03         1.01907     10.8189E-03    -50.7277E-03         1.01510     2.60117E-03    -38.5407E-03     126.096E-03     332.352E-03    -163.331E-03    -169.457E-03    -168.047E-03     330.941E-03    -163.331E-03     53.0201E-03     188.092E+06     169.818E+06    -5.63107E+06    -5.57779E+06     169.764E+06     188.092E+06    -1.42162E+06         72.1619
             189     15.3056E-03     133.705E-03     273.079E-03    -47.1500E-03    -121.229E-03     161.883E-03    -10.0330E-03    -47.1500E-03     39.0906E-03     335.788E-03    -163.251E-03    -173.214E-03    -171.519E-03     334.093E-03    -163.251E-03     58.6372E-03     186.675E+06     166.840E+06    -6.61068E+06    -6.58897E+06     166.818E+06     186.675E+06    -562.518E+03         72.7160
             190     15.3057E-03     135.104E-03     50.3810E-03    -28.4177E-03    -114.796E-03    -89.6979E-03     49.7691E-03    -52.9037E-03     5.54375E-03     337.792E-03    -163.175E-03    -175.172E-03    -173.538E-03     336.158E-03    -163.175E-03     57.7419E-03     183.902E+06     161.779E+06    -5.07902E+06    -5.04325E+06     161.744E+06     183.902E+06    -2.44051E+06         73.2977
             191     15.3066E-03     136.503E-03     52.0303E-03    -619.904E-06    -57.0173E-03     483.058E-06     50.9273E-03    -57.0173E-03     15.0582E-03     338.940E-03    -163.097E-03    -176.368E-03    -174.865E-03     337.438E-03    -163.097E-03     55.5733E-03     178.586E+06     155.641E+06    -4.30637E+06    -4.28564E+06     155.620E+06     178.586E+06    -1.62050E+06         73.8466
             192     15.3062E-03     137.908E-03     53.2405E-03    -4.90977E-03    -60.8796E-03    -2.79882E-03     51.1295E-03    -60.8796E-03    -8.38532E-03     342.123E-03    -163.007E-03    -179.879E-03    -178.268E-03     340.512E-03    -163.007E-03     57.8965E-03     172.729E+06     149.260E+06    -5.66622E+06    -5.60787E+06     149.201E+06     172.729E+06    -2.45467E+06         74.2839
             193     15.3069E-03     139.323E-03     67.3422E-03    -8.98204E-03    -62.8308E-03    -6.99893E-03     65.3590E-03    -62.8308E-03    -7.18184E-03     344.304E-03    -162.917E-03    -182.276E-03    -180.780E-03     342.808E-03    -162.917E-03     55.9259E-03     168.441E+06     138.258E+06     925.100E+03     987.552E+03     138.196E+06     168.441E+06    -1.45870E+06         74.5558
             194     15.3066E-03     140.730E-03     66.1419E-03    -339.653E-06    -61.9627E-03     1.54644E-03     64.2558E-03    -61.9627E-03     20.0770E-03     345.114E-03    -162.852E-03    -182.964E-03    -181.697E-03     343.847E-03    -162.852E-03     51.6650E-03     156.030E+06     117.337E+06    -10.0152E+06    -9.82994E+06     117.152E+06     156.030E+06    -2.82048E+06         74.6753
             195     15.3065E-03     142.135E-03     64.4797E-03    -5.27331E-03    -59.9436E-03    -3.62918E-03     62.8356E-03    -59.9436E-03     7.38339E-03     348.188E-03    -162.767E-03    -185.945E-03    -184.702E-03     346.945E-03    -162.767E-03     51.4741E-03     153.791E+06     107.732E+06    -20.9000E+06    -20.7007E+06     107.532E+06     153.791E+06    -2.30495E+06         74.7005
             196     15.3074E-03     143.563E-03     74.3595E-03    -17.2290E-03    -56.8687E-03    -12.9656E-03     70.0961E-03    -56.8687E-03     22.1368E-03     351.382E-03    -162.667E-03    -189.068E-03    -187.581E-03     349.896E-03    -162.667E-03     56.4210E-03      170.82E+06     109.977E+06    -6.68560E+06    -6.44596E+06     109.737E+06      170.82E+06    -2.30564E+06         74.6811
             197     15.3087E-03     144.989E-03     76.8201E-03    -18.9082E-03    -50.5962E-03    -12.0076E-03     69.9195E-03    -50.5962E-03     49.2783E-03     354.020E-03    -162.526E-03    -191.604E-03    -189.830E-03     352.246E-03    -162.526E-03     62.1311E-03     177.628E+06     101.626E+06     444.981E+03     665.441E+03     101.406E+06     177.628E+06    -3.63719E+06         74.6464
             198     15.3093E-03     146.413E-03     59.7407E-03    -6.73624E-03    -42.9882E-03     632.021E-06     52.3725E-03    -42.9882E-03     38.6399E-03     355.005E-03    -162.434E-03    -192.899E-03    -191.275E-03     353.381E-03    -162.434E-03     59.4562E-03     176.946E+06     90.5477E+06     1.30877E+06     1.85152E+06     90.0050E+06     176.946E+06    -4.93844E+06         74.6003
             199     15.3108E-03     147.833E-03     44.6457E-03    -7.97536E-03    -36.3554E-03     6.44637E-03     30.2240E-03    -36.3554E-03     46.8295E-03     354.276E-03    -162.383E-03    -192.143E-03    -190.659E-03     352.792E-03    -162.383E-03     56.8632E-03     175.519E+06     80.1435E+06     3.32972E+06     3.93950E+06     79.5338E+06     175.519E+06    -3.19067E+06         74.5163
             200     15.3119E-03     149.258E-03     50.7019E-03    -21.4285E-03    -28.5676E-03    -6.02050E-03     35.1690E-03    -28.4428E-03     57.9281E-03     350.114E-03    -162.400E-03    -187.815E-03    -186.521E-03     348.820E-03    -162.400E-03     52.4984E-03     168.306E+06     71.1720E+06    -2.67717E+06    -2.18419E+06     70.6790E+06     168.306E+06    -2.50287E+06         74.3534
             201     15.3136E-03     150.665E-03     31.6522E-03    -16.6403E-03    -18.7005E-03    -1.77884E-03     16.6659E-03    -18.5756E-03     24.6558E-03     341.256E-03    -162.531E-03    -178.924E-03    -177.699E-03     340.031E-03    -162.531E-03     50.2571E-03     158.211E+06     60.6377E+06     852.617E+03     1.37510E+06     60.1153E+06     158.211E+06    -5.46679E+06         74.1548
             202     15.3141E-03     152.073E-03     7.98065E-03    -6.89588E-03    -11.6688E-03    -251.783E-06    -1.50102E-03    -8.83120E-03    -5.37297E-03     305.996E-03    -137.070E-03    -169.115E-03    -141.995E-03     305.272E-03    -163.467E-03     30.9954E-03     133.217E+06     48.6243E+06    -5.92372E+06    -4.43561E+06     47.1362E+06     133.217E+06    -8.12100E+06         74.0677
             203     14.3690E-03     153.301E-03     11.6561E-03    -4.85558E-03    -12.1829E-03     2.77049E-03    -3.29727E-03    -4.85558E-03     4.67374E-03     278.568E-03    -113.200E-03    -165.759E-03    -112.971E-03     278.340E-03    -165.759E-03    -8.41001E-03     96.9194E+06     16.0602E+06    -37.2987E+06    -17.4174E+06    -3.82115E+06     96.9194E+06    -11.4601E+06         72.2576
             204     13.4706E-03     153.167E-03     11.2173E-03    -881.068E-06    -11.0747E-03     9.49486E-03    -3.64837E-03    -6.58494E-03     7.79019E-03     282.050E-03    -114.103E-03    -168.468E-03    -113.121E-03     281.068E-03    -168.468E-03    -37.4885E-03     90.6786E+06    -965.842E+03    -23.9514E+06    -4.80422E+06    -20.1131E+06     90.6786E+06    -6.07248E+06         68.1461
             205     12.5746E-03     153.027E-03     7.35048E-03     1.72212E-03    -8.62749E-03     1.91614E-03     7.15647E-03    -8.62749E-03     1.85824E-03     286.690E-03    -115.783E-03    -171.266E-03    -113.372E-03     284.280E-03    -171.266E-03    -61.1654E-03     106.765E+06     14.2199E+06     2.29842E+06     4.22482E+06     12.2935E+06     106.765E+06     1.75265E+06         63.6756
             206     11.6877E-03     152.898E-03     22.2239E-03    -5.70753E-03    -17.4783E-03    -8.18920E-03     17.5805E-03    -10.3533E-03     22.9508E-03     297.598E-03    -123.717E-03    -174.133E-03    -119.941E-03     293.821E-03    -174.133E-03    -79.3023E-03     101.501E+06     14.8658E+06    -11.0096E+06     4.85756E+06    -1.00141E+06     101.501E+06    -3.12755E+06         59.4244
             207     10.8184E-03     152.762E-03     33.0583E-03    -11.5925E-03    -19.4636E-03    -14.8856E-03     28.4803E-03    -11.5925E-03     23.0263E-03     310.833E-03    -134.233E-03    -176.647E-03    -129.626E-03     306.226E-03    -176.647E-03    -90.0761E-03     101.956E+06     19.5300E+06    -13.6405E+06     11.6694E+06    -5.77996E+06     101.956E+06    -13.6790E+06         55.6187
             208     9.95919E-03     152.647E-03     17.3844E-03    -7.24230E-03    -13.6584E-03    -4.84057E-03     14.2367E-03    -12.9124E-03     162.322E-06     323.408E-03    -144.331E-03    -178.902E-03    -139.522E-03     318.599E-03    -178.902E-03    -94.3412E-03     116.483E+06     28.3797E+06    -12.9748E+06     22.5113E+06    -7.10644E+06     116.483E+06    -11.4474E+06         52.5688
             209     9.11067E-03     152.534E-03     5.90846E-03    -3.61659E-03    -14.9373E-03     220.139E-06     2.07174E-03    -14.9373E-03    -5.14170E-03     333.647E-03    -152.734E-03    -180.830E-03    -148.182E-03     329.096E-03    -180.830E-03    -93.6312E-03     124.385E+06     30.0568E+06    -7.16532E+06     28.5773E+06    -5.68583E+06     124.385E+06    -7.00632E+06         50.2006
             210     8.26619E-03     152.433E-03     20.2744E-03    -11.7758E-03    -17.6376E-03    -1.84147E-03     10.1289E-03    -17.4263E-03     21.0058E-03     341.354E-03    -158.843E-03    -182.386E-03    -154.603E-03     337.114E-03    -182.386E-03    -91.6838E-03     127.881E+06     34.0367E+06     155.633E+03      32.419E+06     1.77335E+06     127.881E+06    -7.09913E+06         48.4420
             211     7.42496E-03     152.336E-03     37.3104E-03    -20.0114E-03    -27.8579E-03    -8.77899E-03     18.2315E-03    -20.0114E-03     58.7452E-03     349.390E-03    -165.286E-03    -183.757E-03    -161.445E-03     345.550E-03    -183.757E-03    -88.5211E-03     126.623E+06     36.1436E+06    -3.87322E+06     34.6153E+06    -2.34490E+06     126.623E+06    -7.66032E+06         47.4463
             212     6.59209E-03     152.251E-03     49.4553E-03    -21.7123E-03    -44.7052E-03    -27.2433E-03     31.9934E-03    -21.7123E-03     72.1626E-03     356.332E-03    -171.272E-03    -184.913E-03    -168.047E-03     353.107E-03    -184.913E-03    -82.0799E-03     122.364E+06      39.916E+06    -1.57605E+06     38.1581E+06     181.820E+03     122.364E+06    -8.35748E+06         47.2110
             213     5.76267E-03     152.171E-03     46.5797E-03    -22.0608E-03    -42.8575E-03    -32.4297E-03     36.1519E-03    -22.0608E-03     56.6335E-03     361.108E-03    -175.242E-03    -185.929E-03    -172.588E-03     358.453E-03    -185.929E-03    -75.2243E-03     115.365E+06     47.5934E+06    -3.04179E+06     45.6338E+06    -1.08221E+06     115.365E+06    -9.75550E+06         47.3915
             214     4.93300E-03     152.115E-03     57.3368E-03    -20.9496E-03    -49.4277E-03    -41.2214E-03     49.1304E-03    -20.9496E-03     56.8779E-03     365.755E-03    -178.927E-03    -186.747E-03    -176.811E-03     363.639E-03    -186.747E-03    -67.4974E-03     108.236E+06     52.6295E+06    -3.75440E+06     51.1495E+06    -2.27447E+06     108.236E+06    -8.87713E+06         47.6401
             215     4.10767E-03     152.054E-03     71.5355E-03    -16.7679E-03    -60.7888E-03    -54.4945E-03     65.2412E-03    -16.7679E-03     51.4990E-03     369.512E-03    -182.064E-03    -187.234E-03    -180.494E-03     367.942E-03    -187.234E-03    -58.6552E-03     97.5593E+06     58.3805E+06    -3.88567E+06     56.7503E+06    -2.25541E+06     97.5593E+06    -9.81649E+06         47.8488
             216     3.28243E-03     152.013E-03     48.5476E-03    -10.0567E-03    -46.8041E-03    -41.4921E-03     43.2356E-03    -10.0567E-03     36.6633E-03     372.115E-03    -184.276E-03    -187.737E-03    -183.085E-03     370.924E-03    -187.737E-03    -51.2600E-03     91.2530E+06     66.3974E+06    -4.83901E+06     64.3432E+06    -2.78489E+06     91.2530E+06    -11.8831E+06         48.0103
             217     2.45861E-03     151.974E-03     34.6207E-03    -2.63524E-03    -32.3548E-03    -26.1271E-03     28.3930E-03    -2.63524E-03     9.89206E-03     374.030E-03    -185.687E-03    -188.296E-03    -184.859E-03     373.202E-03    -188.296E-03    -42.7694E-03     88.2656E+06     73.6062E+06    -6.01676E+06     71.9430E+06    -4.35353E+06     88.2656E+06    -11.3416E+06         48.1311
             218     1.63637E-03     151.953E-03     38.1405E-03     5.42493E-03    -22.3552E-03    -10.8575E-03     26.6429E-03     5.42493E-03    -41.2947E-03     376.396E-03    -187.487E-03    -188.833E-03    -187.085E-03     375.926E-03    -188.765E-03    -31.8949E-03     82.6191E+06     75.9597E+06    -6.61386E+06     74.6578E+06    -5.31193E+06     82.6191E+06    -10.2724E+06         48.2187
             219     819.629E-06     151.943E-03     77.2692E-03    -24.5920E-03    -56.8191E-03    -43.0531E-03    -23.3444E-03     62.2556E-03    -12.3648E-03     378.023E-03    -187.682E-03    -190.327E-03    -190.135E-03     377.832E-03    -187.682E-03    -20.1526E-03     77.6782E+06     74.7260E+06    -13.1658E+06     74.4401E+06    -12.3709E+06     77.1692E+06    -8.02188E+06         48.2771
             220    -310.037E-09     150.491E-03     101.679E-03     6.05149E-03    -111.867E-03    -89.2615E-03    -16.5544E-03     101.679E-03     92.8042E-03     359.575E-03    -178.130E-03    -181.438E-03    -181.350E-03     359.487E-03    -178.130E-03    -13.7749E-03     43.0332E+06     41.1930E+06    -27.8585E+06     41.2586E+06    -27.4151E+06     42.5242E+06    -5.41890E+06         47.4441
             221     1.38557E-06     149.075E-03     95.8707E-03     11.8556E-03    -113.236E-03    -68.6680E-03     68.0966E-03    -4.93821E-03     86.7658E-03     329.392E-03    -163.814E-03    -165.580E-03    -164.505E-03     329.352E-03    -164.849E-03    -6.59875E-03    -25.4637E+06    -29.7229E+06    -55.6238E+06    -29.6334E+06    -52.7852E+06    -28.3917E+06    -5.43328E+06         45.5796
             222    -3.16009E-06     147.699E-03     136.902E-03     779.277E-06    -145.563E-03     4.55205E-03     133.129E-03    -145.563E-03     37.3346E-03     309.148E-03    -153.819E-03    -155.336E-03    -153.819E-03     309.148E-03    -155.336E-03    -32.9457E-06    -84.9792E+06    -108.866E+06    -115.034E+06    -109.512E+06    -90.5015E+06    -108.866E+06    -9.21946E+06         43.8845
             223     2.30966E-06     146.341E-03     165.439E-03     48.2263E-03    -211.397E-03     73.4823E-03     140.183E-03    -211.397E-03     83.2078E-03     294.836E-03    -146.333E-03    -148.507E-03    -148.013E-03     294.824E-03    -146.815E-03     3.37916E-03    -135.638E+06    -195.417E+06    -200.927E+06    -196.199E+06    -137.493E+06    -198.290E+06    -8.72562E+06         42.7795
             224     446.656E-09     145.013E-03     229.434E-03     8.51894E-03    -254.199E-03     80.4124E-03     157.541E-03    -254.199E-03     206.354E-03     286.733E-03    -142.062E-03    -144.702E-03    -144.686E-03     286.716E-03    -142.062E-03     5.16231E-03    -170.991E+06    -255.109E+06    -261.110E+06    -257.693E+06    -171.535E+06    -257.982E+06    -6.82578E+06         42.1191
             225     1.15925E-06     143.680E-03     239.203E-03    -9.05654E-03    -249.669E-03     41.8294E-03     188.317E-03    -249.669E-03     135.795E-03     281.473E-03    -140.243E-03    -141.254E-03    -141.174E-03     281.456E-03    -140.306E-03     5.22843E-03    -191.502E+06    -240.893E+06    -246.282E+06    -242.748E+06    -192.774E+06    -243.154E+06    -5.85480E+06         41.7478
             226    -1.37696E-06     142.356E-03     147.048E-03     4.34291E-03    -174.917E-03     10.7191E-03     140.672E-03    -174.917E-03     18.9722E-03     277.440E-03    -137.259E-03    -140.181E-03    -137.210E-03     277.391E-03    -140.181E-03     8.71623E-03    -187.654E+06    -194.095E+06    -218.771E+06    -193.223E+06    -213.288E+06    -194.009E+06    -736.599E+03         41.5931
             227    -3.69710E-06     141.041E-03     127.365E-03    -25.3970E-03    -103.719E-03    -18.6431E-03     120.611E-03    -103.719E-03     14.2973E-03     278.806E-03    -137.714E-03    -141.102E-03    -137.674E-03     278.766E-03    -141.102E-03     7.42086E-03    -155.216E+06    -158.487E+06    -214.123E+06    -157.628E+06    -214.058E+06    -156.140E+06     78.1836E+03         41.6324
             228     2.67687E-06     139.719E-03     194.389E-03    -70.3193E-03    -113.492E-03    -93.6525E-03     190.362E-03    -86.1320E-03     27.2679E-03     281.835E-03    -138.791E-03    -143.083E-03    -142.542E-03     281.821E-03    -139.319E-03     4.74850E-03    -133.359E+06    -135.086E+06    -210.930E+06    -134.271E+06    -210.820E+06    -134.283E+06    -2.81053E+06         41.8114
             229     3.78839E-06     138.388E-03     268.061E-03    -103.668E-03    -161.612E-03    -157.689E-03     264.138E-03    -103.668E-03     17.0302E-03     284.607E-03    -139.801E-03    -144.839E-03    -144.787E-03     284.555E-03    -139.801E-03     8.87243E-03    -139.158E+06    -142.126E+06    -230.479E+06    -140.211E+06    -230.229E+06    -141.324E+06    -4.71183E+06         42.0896
             230    -1.68895E-06     137.056E-03     205.181E-03    -85.6786E-03    -142.458E-03    -140.376E-03     203.099E-03    -85.6786E-03    -8.48119E-03     288.810E-03    -142.741E-03    -146.074E-03    -143.958E-03     288.754E-03    -144.801E-03     9.43291E-03    -147.285E+06    -150.382E+06    -245.984E+06    -148.388E+06    -245.813E+06    -149.450E+06    -2.15399E+06         42.4255
             231    -1.98672E-06     135.723E-03     104.810E-03    -15.1481E-03    -118.120E-03    -33.9282E-03     97.3945E-03    -91.9245E-03    -2.28901E-03     292.436E-03    -145.044E-03    -147.392E-03    -145.022E-03     292.413E-03    -147.392E-03     6.20587E-03    -148.041E+06    -149.617E+06    -251.121E+06    -148.985E+06    -251.109E+06    -148.686E+06     190.176E+03         42.7807
             232     1.43449E-06     134.382E-03     107.993E-03     12.2919E-03    -141.782E-03     20.2130E-03     100.072E-03    -141.782E-03    -44.5217E-03     299.561E-03    -149.623E-03    -149.947E-03    -149.632E-03     299.534E-03    -149.911E-03     6.86352E-03    -155.638E+06    -157.815E+06    -267.596E+06    -157.350E+06    -267.417E+06    -156.282E+06    -3.63326E+06         43.1903
             233    -1.41652E-06     133.030E-03     147.330E-03     31.9834E-03    -206.028E-03     34.0784E-03     145.235E-03    -206.028E-03    -9.94361E-03     308.782E-03    -154.318E-03    -154.480E-03    -154.463E-03     308.765E-03    -154.318E-03     3.64955E-03    -163.482E+06    -167.993E+06    -282.272E+06    -165.201E+06    -282.086E+06    -166.460E+06    -2.38751E+06         43.6439
             234     1.52993E-06     131.660E-03     153.259E-03     47.0735E-03    -214.608E-03     71.2715E-03     129.061E-03    -214.608E-03     66.0622E-03     312.708E-03    -155.669E-03    -157.013E-03    -157.001E-03     312.697E-03    -155.669E-03     2.89767E-03    -162.475E+06    -169.063E+06    -287.921E+06    -166.144E+06    -287.862E+06    -165.452E+06    -925.909E+03         44.0390
             235     526.347E-09     130.291E-03     123.965E-03    -4.14146E-03    -132.835E-03     67.2916E-03     24.8065E-03    -105.110E-03     140.427E-03     312.317E-03    -154.401E-03    -157.888E-03    -155.602E-03     312.300E-03    -156.670E-03     5.55425E-03    -159.968E+06    -168.252E+06    -290.667E+06    -163.626E+06    -290.619E+06    -164.641E+06    -1.79427E+06         44.3454
             236    -4.53444E-06     128.929E-03     112.804E-03    -44.9633E-03    -93.4703E-03     50.5662E-03    -10.4504E-03    -65.7449E-03     170.374E-03     314.916E-03    -155.230E-03    -159.683E-03    -155.201E-03     314.887E-03    -159.683E-03     7.01116E-03    -158.195E+06    -168.203E+06    -297.742E+06    -163.531E+06    -297.741E+06    -162.868E+06     210.045E+03         44.6307
             237     784.711E-09     127.551E-03     149.868E-03    -31.7009E-03    -135.999E-03     39.4919E-03     78.6751E-03    -135.999E-03     167.880E-03     320.111E-03    -158.948E-03    -161.159E-03    -158.913E-03     320.076E-03    -161.159E-03     7.99226E-03    -160.656E+06    -168.724E+06    -309.534E+06    -166.117E+06    -309.406E+06    -163.390E+06    -2.76580E+06         44.9325
             238    -910.901E-09     126.169E-03     199.839E-03    -42.7977E-03    -185.173E-03     124.218E-03    -26.0366E-03    -126.314E-03     137.706E-03     322.124E-03    -160.380E-03    -161.745E-03    -161.706E-03     322.111E-03    -160.407E-03     4.50953E-03    -165.563E+06    -169.027E+06    -313.854E+06    -166.432E+06    -313.714E+06    -168.297E+06    -2.03944E+06         45.2169
             239     3.11680E-06     124.811E-03     249.595E-03    -99.5201E-03    -186.154E-03     223.452E-03    -160.011E-03    -99.5201E-03     191.665E-03     328.402E-03    -163.455E-03    -164.957E-03    -164.955E-03     328.401E-03    -163.455E-03     1.76759E-03    -162.868E+06    -164.324E+06    -315.094E+06    -163.617E+06    -315.074E+06    -163.595E+06     284.170E+03         45.4331
             240    -2.88104E-06     123.402E-03     251.442E-03    -111.253E-03    -164.780E-03     209.819E-03    -97.4047E-03    -137.006E-03     240.589E-03     334.272E-03    -166.500E-03    -167.786E-03    -166.661E-03     334.270E-03    -167.623E-03    -816.877E-06    -163.614E+06    -166.447E+06    -315.118E+06    -165.742E+06    -315.096E+06    -164.342E+06    -1.77989E+06         45.5344
             241     960.499E-09     122.000E-03     228.535E-03    -83.8459E-03    -180.824E-03     184.675E-03    -111.212E-03    -109.598E-03     244.076E-03     329.563E-03    -163.912E-03    -165.672E-03    -164.543E-03     329.556E-03    -165.035E-03     714.272E-06    -162.465E+06    -168.028E+06    -317.772E+06    -164.593E+06    -317.749E+06    -165.922E+06    -297.690E+03         45.5078
             242     16.4465E-09     120.619E-03     252.226E-03    -48.0572E-03    -244.736E-03     222.009E-03    -214.519E-03    -48.0572E-03     217.498E-03     325.660E-03    -162.190E-03    -163.486E-03    -163.477E-03     325.651E-03    -162.190E-03     4.04723E-03    -161.129E+06    -167.410E+06    -321.025E+06    -163.973E+06    -321.005E+06    -164.587E+06     1.76250E+06         45.4224
             243     1.10009E-06     119.238E-03     258.230E-03    -25.1107E-03    -279.935E-03     249.404E-03    -271.109E-03    -25.1107E-03     135.433E-03     325.731E-03    -162.037E-03    -163.702E-03    -162.691E-03     325.727E-03    -163.043E-03     2.34394E-03    -160.117E+06    -164.387E+06    -318.612E+06    -162.962E+06    -318.591E+06    -161.564E+06     185.576E+03         45.3507
             244    -2.86721E-06     117.851E-03     250.478E-03    -55.4446E-03    -236.751E-03     246.321E-03    -232.593E-03    -55.4446E-03     27.6054E-03     324.198E-03    -161.283E-03    -162.923E-03    -161.915E-03     324.197E-03    -162.289E-03     1.58306E-03    -157.283E+06    -159.983E+06    -318.658E+06    -158.552E+06    -318.641E+06    -158.730E+06     19.9088E+03         45.3036
             245     3.92426E-06     116.469E-03     284.316E-03    -42.7632E-03    -284.659E-03     283.232E-03    -283.575E-03    -42.7632E-03    -18.8386E-03     323.206E-03    -161.266E-03    -161.946E-03    -161.888E-03     323.196E-03    -161.313E-03     4.17348E-03    -155.542E+06    -158.027E+06    -319.750E+06    -156.809E+06    -319.735E+06    -156.775E+06     127.629E+03         45.2787
             246    -4.11482E-06     115.087E-03     272.037E-03     21.6565E-03    -347.982E-03     271.115E-03    -347.060E-03     21.6565E-03     41.1868E-03     323.209E-03    -161.322E-03    -161.895E-03    -161.312E-03     323.199E-03    -161.895E-03     3.84029E-03    -153.834E+06    -157.062E+06    -321.975E+06    -155.836E+06    -321.968E+06    -155.067E+06    -931.407E+03         45.2787
             247     3.16567E-06     113.710E-03     211.648E-03     40.4421E-03    -307.566E-03     206.675E-03    -302.594E-03     40.4421E-03    -32.8652E-03     323.458E-03    -161.232E-03    -162.237E-03    -161.230E-03     323.456E-03    -162.237E-03     2.11639E-03    -152.169E+06    -156.800E+06    -324.789E+06    -154.167E+06    -324.786E+06    -154.805E+06    -700.877E+03         45.3074
             248    -4.08847E-06     112.331E-03     206.563E-03     69.6075E-03    -335.349E-03     199.849E-03    -328.635E-03     69.6075E-03    -118.200E-03     326.734E-03    -163.041E-03    -163.699E-03    -163.218E-03     326.733E-03    -163.520E-03     1.20595E-03    -151.228E+06    -154.959E+06    -323.910E+06    -152.357E+06    -323.876E+06    -153.863E+06     1.15445E+06         45.3633
             249     4.33735E-06     110.944E-03     209.350E-03     96.0793E-03    -361.991E-03     206.269E-03    -358.910E-03     96.0793E-03    -78.6032E-03     330.859E-03    -164.865E-03    -165.998E-03    -165.997E-03     330.859E-03    -164.865E-03     560.876E-06    -150.208E+06    -152.002E+06    -320.978E+06    -152.045E+06    -320.935E+06    -150.208E+06     629.353E+03         45.4264
             250    -2.76968E-06     109.542E-03     216.281E-03     101.500E-03    -382.025E-03     212.161E-03    -377.904E-03     101.500E-03    -91.5912E-03     329.963E-03    -163.253E-03    -166.707E-03    -164.196E-03     329.952E-03    -165.754E-03     3.76462E-03    -146.905E+06    -147.884E+06    -319.333E+06    -147.626E+06    -319.310E+06    -147.186E+06     -29.707E+03         45.4677
             251    -1.54699E-06     108.156E-03     229.456E-03     61.3351E-03    -357.264E-03     225.828E-03    -353.636E-03     61.3351E-03    -71.6272E-03     328.754E-03    -161.549E-03    -167.196E-03    -164.684E-03     328.743E-03    -164.049E-03     4.07399E-03    -142.683E+06    -147.114E+06    -314.729E+06    -142.700E+06    -314.712E+06    -147.114E+06     1.69935E+06         45.4814
             252     6.70655E-06     106.769E-03     192.930E-03     20.5337E-03    -279.998E-03     192.398E-03    -279.465E-03     20.5337E-03    -24.4406E-03     328.074E-03    -162.186E-03    -165.879E-03    -165.330E-03     328.071E-03    -162.733E-03     2.18004E-03    -140.662E+06    -147.420E+06    -308.062E+06    -143.275E+06    -308.056E+06    -144.813E+06     688.188E+03         45.4759
             253    -7.57312E-06     105.392E-03     156.627E-03     76.4249E-03    -301.471E-03     142.108E-03    -300.832E-03     90.3048E-03    -10.3712E-03     327.006E-03    -162.845E-03    -164.153E-03    -162.843E-03     327.003E-03    -164.153E-03     213.571E-06    -140.643E+06    -145.123E+06    -305.713E+06     -145.14E+06    -305.697E+06    -140.643E+06     1.12115E+06         45.4589
             254     6.22333E-06     103.996E-03     166.297E-03     92.2727E-03    -318.868E-03     88.7387E-03    -315.334E-03     166.297E-03    -38.2048E-03     326.826E-03    -162.097E-03    -164.724E-03    -163.957E-03     326.820E-03    -162.858E-03     1.08542E-03    -140.068E+06    -144.317E+06    -305.486E+06    -141.959E+06    -305.469E+06    -142.443E+06     970.135E+03         45.4454
             255    -3.16146E-06     102.610E-03     159.464E-03     50.9594E-03    -259.854E-03     47.5312E-03    -256.426E-03     159.464E-03    -46.1204E-03     324.713E-03    -160.598E-03    -164.118E-03    -162.459E-03     324.708E-03    -162.253E-03     2.44290E-03    -137.276E+06    -143.396E+06    -303.454E+06    -137.278E+06    -303.452E+06    -143.396E+06     178.924E+03         45.4477
             256     141.923E-09     101.239E-03     140.511E-03     41.4623E-03    -230.179E-03     40.5920E-03    -229.308E-03     140.511E-03     24.3097E-03     327.690E-03    -162.977E-03    -164.735E-03    -163.079E-03     327.689E-03    -164.632E-03     1.28518E-03    -132.958E+06    -140.035E+06    -300.532E+06    -136.305E+06    -300.517E+06    -136.703E+06    -669.713E+03         45.4822
             257    -34.9725E-09     99.8388E-03     118.711E-03     30.0024E-03    -204.697E-03     6.26412E-03    -180.959E-03     118.711E-03     103.845E-03     330.983E-03    -165.413E-03    -165.580E-03    -165.514E-03     330.981E-03    -165.477E-03    -29.0417E-06    -134.803E+06    -140.593E+06    -299.059E+06    -140.608E+06    -299.044E+06    -134.803E+06    -668.260E+03         45.5283
             258    -83.0114E-09     98.4466E-03     135.013E-03     2.02964E-03    -191.920E-03    -26.1094E-03    -163.781E-03     135.013E-03     38.1409E-03     328.080E-03    -163.702E-03    -164.379E-03    -163.697E-03     328.075E-03    -164.379E-03     1.06741E-03    -133.868E+06    -141.855E+06    -298.659E+06    -136.350E+06    -298.635E+06    -139.396E+06     1.73627E+06         45.5461
             259    -1.09389E-06     97.0667E-03     226.120E-03    -57.5147E-03    -214.711E-03    -66.9134E-03    -205.312E-03     226.120E-03    -13.6299E-03     327.805E-03    -163.067E-03    -164.741E-03    -164.122E-03     327.799E-03    -163.681E-03     3.13571E-03    -129.884E+06    -145.074E+06    -303.718E+06    -139.598E+06    -303.666E+06    -135.412E+06    -170.620E+03         45.5462
             260     2.92925E-06     95.6663E-03     235.287E-03    -61.3833E-03    -214.051E-03    -157.198E-03    -118.237E-03     235.287E-03     50.7558E-03     327.565E-03    -162.974E-03    -164.592E-03    -164.587E-03     327.560E-03    -162.974E-03     2.95493E-03    -119.200E+06    -141.331E+06    -302.983E+06    -128.893E+06    -302.952E+06    -131.669E+06    -1.30419E+06         45.5473
             261    -2.22070E-06     94.2947E-03     190.001E-03    -26.2876E-03    -210.747E-03    -196.226E-03    -40.8086E-03     190.001E-03     85.1187E-03     326.698E-03    -162.087E-03    -164.611E-03    -162.640E-03     326.695E-03    -164.053E-03     1.96310E-03    -121.284E+06    -137.764E+06    -301.371E+06    -125.302E+06    -301.365E+06    -133.752E+06     923.414E+03         45.5640
             262    -1.15212E-06     92.9061E-03     155.572E-03    -34.7977E-03    -176.282E-03    -150.530E-03    -60.5502E-03     155.572E-03     107.787E-03     330.552E-03    -164.234E-03    -166.308E-03    -164.234E-03     330.552E-03    -166.308E-03     546.753E-06    -125.002E+06    -130.668E+06    -301.237E+06    -129.019E+06    -301.231E+06    -126.656E+06     763.412E+03         45.6083
             263     846.708E-09     91.5062E-03     99.3009E-03    -22.6621E-03    -127.475E-03    -113.359E-03    -36.7780E-03     99.3009E-03     62.3601E-03     332.548E-03    -166.033E-03    -166.517E-03    -166.405E-03     332.544E-03    -166.140E-03     2.38333E-03    -123.892E+06    -130.099E+06    -302.147E+06    -128.449E+06    -302.143E+06    -125.547E+06    -532.265E+03         45.6605
             264    -234.019E-09     90.1098E-03     64.8427E-03     15.9787E-03    -127.522E-03    -123.771E-03     21.2104E-03     55.8603E-03    -8.31920E-03     329.820E-03    -164.525E-03    -165.306E-03    -165.298E-03     329.813E-03    -164.525E-03     3.86940E-03    -135.008E+06    -140.684E+06    -303.572E+06    -140.702E+06    -303.554E+06    -135.008E+06     435.042E+03         45.6967
             265     840.928E-09     88.7274E-03     77.1691E-03     7.01655E-03    -125.534E-03    -120.151E-03     71.7863E-03     7.01655E-03    -64.7571E-03     328.711E-03    -164.107E-03    -164.604E-03    -164.600E-03     328.707E-03    -164.107E-03     1.50550E-03    -130.603E+06    -131.922E+06    -295.606E+06    -131.944E+06    -295.584E+06    -130.603E+06     197.727E+03         45.7135
             266    -760.553E-09     87.3460E-03     63.5062E-03     620.795E-06    -110.096E-03    -83.9762E-03     35.6716E-03     2.33595E-03    -100.345E-03     330.882E-03    -165.318E-03    -165.572E-03    -165.411E-03     330.882E-03    -165.479E-03    -183.704E-06    -123.508E+06    -128.488E+06    -292.560E+06    -123.727E+06    -292.535E+06    -128.292E+06     322.139E+03         45.7084
             267     340.826E-09     85.9409E-03     58.6042E-03    -7.47745E-03    -105.493E-03    -68.7648E-03     20.1604E-03    -5.76229E-03    -130.846E-03     332.583E-03    -165.930E-03    -166.664E-03    -166.501E-03     332.582E-03    -166.091E-03     1.32258E-03    -121.777E+06    -133.778E+06    -288.138E+06    -129.025E+06    -288.106E+06    -126.561E+06     2.24901E+06         45.6756
             268     655.937E-09     84.5515E-03     112.032E-03    -58.3597E-03    -110.317E-03    -88.6887E-03     90.4041E-03    -58.3597E-03    -127.913E-03     332.364E-03    -165.671E-03    -166.704E-03    -166.242E-03     332.363E-03    -166.131E-03     1.48863E-03    -123.252E+06    -138.081E+06    -286.138E+06    -130.537E+06    -286.070E+06    -130.864E+06    -978.102E+03         45.6430
             269    -1.59949E-06     83.1614E-03     111.784E-03    -55.7047E-03    -116.451E-03    -55.3593E-03     90.8127E-03    -95.8243E-03    -9.61749E-03     331.836E-03    -165.500E-03    -166.350E-03    -165.499E-03     331.835E-03    -166.350E-03    -226.482E-06    -123.128E+06    -136.599E+06    -290.431E+06    -129.081E+06    -290.336E+06    -130.740E+06    -220.640E+03         45.6474
             270     951.580E-09     81.7633E-03     107.816E-03    -14.6408E-03    -151.837E-03     21.4698E-03     71.7050E-03    -151.837E-03    -8.33434E-03     330.768E-03    -165.155E-03    -165.603E-03    -165.210E-03     330.764E-03    -165.545E-03     1.15026E-03    -116.980E+06    -127.124E+06    -284.906E+06    -122.882E+06    -284.862E+06    -121.266E+06     1.50515E+06         45.6643
             271    -983.747E-09     80.3747E-03     152.917E-03     16.4236E-03    -239.419E-03     84.2686E-03     85.0718E-03    -239.419E-03     15.0625E-03     330.781E-03    -165.328E-03    -165.430E-03    -165.380E-03     330.775E-03    -165.371E-03     3.66523E-03    -125.722E+06    -131.783E+06    -279.129E+06    -127.507E+06    -279.119E+06    -130.009E+06     452.376E+03         45.6482
             272     841.774E-09     78.9812E-03     188.473E-03     5.22904E-03    -265.357E-03     158.015E-03     35.6872E-03    -265.357E-03     77.6044E-03     331.531E-03    -165.621E-03    -165.917E-03    -165.865E-03     331.523E-03    -165.664E-03     4.04906E-03    -133.480E+06    -136.956E+06    -281.401E+06    -136.990E+06    -281.367E+06    -133.480E+06    -577.828E+03         45.6042
             273    -458.106E-09     77.5842E-03     208.656E-03    -34.1090E-03    -242.190E-03     173.481E-03     1.06595E-03    -242.190E-03     122.031E-03     328.462E-03    -163.723E-03    -164.768E-03    -163.966E-03     328.453E-03    -164.516E-03     4.19716E-03    -119.307E+06    -126.602E+06    -277.684E+06    -121.036E+06    -277.657E+06    -124.901E+06    -924.443E+03         45.5507
             274     14.4326E-03     75.3301E-03     47.6341E-03     3.03528E-03    -112.553E-03     46.8339E-03    -111.753E-03     3.03528E-03     3.92880E-03     328.086E-03    -163.397E-03    -164.638E-03    -161.567E-03     326.156E-03    -164.539E-03     61.1577E-03     134.093E+06     99.8838E+06    -3.44336E+06    -3.23753E+06     99.6779E+06     134.093E+06    -1.37379E+06         67.7175
             275     13.5831E-03     75.2341E-03     38.6200E-03     1.19239E-03    -103.812E-03     38.0851E-03    -103.277E-03     1.19239E-03    -3.48337E-03     327.475E-03    -162.799E-03    -164.934E-03    -161.147E-03     325.725E-03    -164.836E-03     57.8787E-03     105.003E+06     74.4906E+06    -15.3041E+06    -14.9387E+06     74.1252E+06     105.003E+06    -1.08838E+06         64.1396
             276     12.7281E-03     75.1755E-03     25.5414E-03    -172.035E-06    -91.3890E-03     22.5841E-03    -88.4318E-03    -172.035E-06     8.96076E-03     326.330E-03    -161.474E-03    -165.183E-03    -160.336E-03     325.192E-03    -165.183E-03     46.9715E-03     87.3955E+06     62.5740E+06    -23.8766E+06    -22.6472E+06     61.3446E+06     87.3955E+06     4.43613E+06         60.0891
             277     11.8719E-03     75.1110E-03     23.7350E-03    -1.24055E-03    -90.7082E-03     20.3430E-03    -87.3162E-03    -1.24055E-03     7.84538E-03     328.690E-03    -163.365E-03    -165.452E-03    -162.793E-03     327.893E-03    -165.227E-03     39.1170E-03     76.7937E+06     58.7431E+06    -30.2209E+06    -28.9518E+06     59.8817E+06     74.3861E+06     10.0767E+06         56.3581
             278     11.0266E-03     75.0657E-03     27.3793E-03    -2.70953E-03    -91.9347E-03     25.9496E-03    -90.5050E-03    -2.70953E-03     1.82096E-03     330.597E-03    -165.200E-03    -165.596E-03    -164.993E-03     330.007E-03    -165.213E-03     33.9320E-03     62.9735E+06     51.2571E+06    -42.0458E+06    -41.5296E+06     55.2286E+06     58.4858E+06     1.49549E+06         53.1720
             279     10.1781E-03     75.0114E-03     27.0495E-03    -4.62210E-03    -88.9070E-03     24.0030E-03    -85.8605E-03    -4.62210E-03    -8.58125E-03     329.895E-03    -164.748E-03    -165.467E-03    -164.499E-03     329.428E-03    -165.250E-03     30.0081E-03     55.7686E+06     47.4438E+06    -48.8472E+06    -46.7833E+06     48.8007E+06     52.3478E+06    -6.57654E+06         50.5548
             280     9.32862E-03     74.9775E-03     16.5073E-03    -6.30014E-03    -76.7436E-03     12.4585E-03    -72.6948E-03    -6.30014E-03    -5.04323E-03     330.183E-03    -164.415E-03    -165.945E-03    -164.878E-03     329.887E-03    -165.187E-03     23.9320E-03     49.2089E+06     25.8765E+06    -47.5876E+06    -45.4488E+06     25.0784E+06     47.8681E+06    -4.43316E+06         48.5383
             281     8.48411E-03     74.9459E-03     2.99380E-03    -7.23349E-03    -62.5377E-03     1.30955E-03    -60.8534E-03    -7.23349E-03     14.2881E-03     331.007E-03    -164.677E-03    -166.293E-03    -165.825E-03     330.810E-03    -164.948E-03     19.6504E-03     36.4129E+06    -14.9202E+06    -54.3372E+06    -53.5745E+06    -15.6828E+06     36.4129E+06    -392.767E+03         47.1677
             282     7.63793E-03     74.9116E-03     2.25180E-03    -7.89278E-03    -61.7401E-03     1.89765E-03    -61.3860E-03    -7.89278E-03    -2.95649E-03     330.587E-03    -164.376E-03    -165.880E-03    -165.430E-03     330.445E-03    -164.684E-03     16.7054E-03     18.0626E+06    -48.5981E+06    -71.5331E+06    -65.5692E+06    -54.5621E+06     18.0626E+06     3.88394E+06         46.4427
             283     6.78832E-03     74.8909E-03     6.00477E-03    -9.76720E-03    -64.1645E-03     3.32400E-03    -62.2838E-03    -8.96719E-03    -7.58943E-03     329.784E-03    -164.291E-03    -165.466E-03    -165.046E-03     329.671E-03    -164.598E-03     14.9396E-03    -1.91610E+06    -69.9730E+06    -99.3817E+06    -74.4490E+06    -94.9058E+06    -1.91610E+06     4.60415E+06         46.1615
             284     5.94059E-03     74.8705E-03     9.81063E-03    -10.6139E-03    -67.7221E-03    -6.66039E-03    -52.0511E-03    -9.81391E-03     33.1924E-03     329.013E-03    -164.447E-03    -164.918E-03    -164.696E-03     328.941E-03    -164.598E-03     11.4961E-03    -22.2130E+06    -85.6162E+06    -131.343E+06    -86.7785E+06    -130.181E+06    -22.2130E+06     2.86680E+06         46.0194
             285     5.09431E-03     74.8569E-03     3.39144E-03    -14.6307E-03    -56.5428E-03    -17.2019E-03    -41.2791E-03    -9.30107E-03     44.1532E-03     328.386E-03    -163.976E-03    -164.571E-03    -163.938E-03     328.348E-03    -164.571E-03     8.25804E-03    -41.5063E+06    -94.8996E+06    -159.009E+06    -95.4084E+06    -158.500E+06    -41.5063E+06     3.48090E+06         45.9015
             286     4.24284E-03     74.8463E-03    -4.78330E-03    -13.6959E-03    -49.7772E-03    -15.7605E-03    -44.7164E-03    -7.77944E-03    -6.54364E-03     328.515E-03    -163.979E-03    -164.567E-03    -163.951E-03     328.486E-03    -164.567E-03     6.94550E-03    -61.8606E+06    -101.445E+06    -185.444E+06    -101.559E+06    -185.330E+06    -61.8606E+06     3.00034E+06         45.8035
             287     3.39353E-03     74.8339E-03     9.86440E-03    -7.74833E-03    -69.2970E-03    -5.15013E-03    -54.8693E-03    -7.16150E-03     22.1566E-03     328.665E-03    -164.072E-03    -164.591E-03    -164.186E-03     328.651E-03    -164.463E-03     4.55301E-03    -84.2838E+06    -112.349E+06    -212.086E+06    -112.519E+06    -211.916E+06    -84.2838E+06     1.47192E+06         45.7095
             288     2.54406E-03     74.8307E-03     26.3345E-03    -7.87900E-03    -85.2937E-03    -4.76280E-03    -54.1963E-03    -7.87900E-03    -20.2545E-03     328.656E-03    -163.911E-03    -164.705E-03    -164.240E-03     328.645E-03    -164.364E-03     3.93452E-03    -99.9993E+06    -119.669E+06    -233.330E+06    -120.102E+06    -232.897E+06    -99.9993E+06    -340.814E+03         45.6295
             289     1.69617E-03     74.8237E-03     23.8521E-03    -7.25784E-03    -85.0005E-03    -11.7622E-03    -49.3862E-03    -7.25784E-03    -42.6786E-03     328.792E-03    -163.846E-03    -164.966E-03    -164.494E-03     328.779E-03    -164.305E-03     4.62153E-03    -109.645E+06    -123.459E+06    -247.843E+06    -122.666E+06    -247.406E+06    -110.876E+06     1.94121E+06         45.5663
             290     848.849E-06     74.8232E-03     93.7697E-03    -32.8673E-03    -129.163E-03     40.5285E-03    -56.2502E-03    -52.5390E-03     133.023E-03     328.576E-03    -163.413E-03    -165.164E-03    -164.906E-03     328.570E-03    -163.666E-03     2.63594E-03    -122.939E+06    -129.929E+06    -268.196E+06    -128.878E+06    -268.016E+06    -124.169E+06     2.77858E+06         45.5228
             291     14.4289E-03     73.9357E-03     45.6627E-03     13.8817E-03    -124.339E-03     44.1826E-03    -122.859E-03     13.8817E-03    -1.87056E-03     328.874E-03    -163.406E-03    -165.369E-03    -162.203E-03     326.933E-03    -164.631E-03     61.4769E-03     132.449E+06     100.937E+06    -4.36332E+06    -4.12556E+06     100.700E+06     132.449E+06     2.94173E+06         67.8472
             292     13.5765E-03     73.8523E-03     42.0324E-03     12.7686E-03    -121.412E-03     40.8139E-03    -120.193E-03     12.7686E-03     1.63376E-03     328.462E-03    -162.984E-03    -165.342E-03    -161.791E-03     326.742E-03    -164.814E-03     57.4409E-03     102.231E+06     77.1740E+06    -22.6589E+06    -21.7386E+06     76.2537E+06     102.231E+06     1.99712E+06         64.2849
             293     12.7253E-03     73.7889E-03     42.9186E-03     11.5314E-03    -123.275E-03     40.8170E-03    -121.173E-03     11.5314E-03     7.96482E-03     329.751E-03    -163.335E-03    -166.327E-03    -163.667E-03     328.724E-03    -164.968E-03     44.4585E-03     77.6539E+06     56.8014E+06     -40.729E+06    -38.4119E+06     54.4843E+06     77.6539E+06    -606.246E+03         60.2188
             294     11.8797E-03     73.7230E-03     38.3848E-03     10.1857E-03    -117.968E-03     35.5428E-03    -115.126E-03     10.1857E-03     2.28681E-03     329.659E-03    -163.572E-03    -166.056E-03    -164.079E-03     329.011E-03    -164.901E-03     35.3722E-03     80.1526E+06     63.5214E+06    -34.7876E+06    -32.5744E+06     61.3082E+06     80.1526E+06    -2.59123E+06         56.4594
             295     11.0301E-03     73.6678E-03     28.0571E-03     9.11450E-03    -106.639E-03     25.8140E-03    -104.396E-03     9.11450E-03    -4.41960E-03     328.859E-03    -164.045E-03    -165.147E-03    -163.812E-03     328.389E-03    -164.911E-03     30.2896E-03     79.2227E+06     67.8449E+06    -25.8556E+06    -24.8987E+06     71.9478E+06     74.1628E+06    -3.69326E+06         53.2471
             296     10.1821E-03     73.6273E-03     22.4140E-03     8.46576E-03    -99.4284E-03     19.0906E-03    -96.1050E-03     8.46576E-03    -6.08539E-03     328.841E-03    -164.283E-03    -164.987E-03    -163.927E-03     328.475E-03    -164.977E-03     26.7796E-03     53.3469E+06     45.7370E+06    -43.9310E+06    -41.6619E+06     48.8286E+06     47.9862E+06    -6.35491E+06         50.6051
             297     9.33241E-03     73.5838E-03     23.3307E-03     7.95482E-03    -98.5536E-03     18.3450E-03    -93.5679E-03     7.95482E-03     4.72646E-03     329.452E-03    -164.022E-03    -165.660E-03    -164.441E-03     329.174E-03    -164.963E-03     23.3098E-03     37.0581E+06     17.3050E+06    -59.4962E+06    -55.9361E+06     14.0458E+06     36.7573E+06    -6.67819E+06         48.5658
             298     8.48557E-03     73.5490E-03     24.4964E-03     7.08997E-03    -98.7579E-03     21.8041E-03    -96.0656E-03     7.08997E-03     27.3728E-03     329.982E-03    -164.205E-03    -165.797E-03    -164.977E-03     329.765E-03    -164.809E-03     20.6766E-03     28.5926E+06    -20.9170E+06    -63.6031E+06    -61.7992E+06    -22.7210E+06     28.5926E+06    -1.60962E+06         47.1685
             299     7.63710E-03     73.5255E-03     22.2002E-03     5.70889E-03    -96.2353E-03     22.1449E-03    -96.1800E-03     5.70889E-03     3.44229E-03     329.443E-03    -164.107E-03    -165.067E-03    -164.357E-03     329.271E-03    -164.645E-03     18.3901E-03     15.2545E+06    -53.9636E+06    -71.3037E+06    -68.0690E+06    -57.1982E+06     15.2545E+06     4.58059E+06         46.4236
             300     6.78781E-03     73.5004E-03     19.5417E-03     1.22419E-03    -89.9393E-03     15.6387E-03    -89.1344E-03     4.32233E-03    -7.92079E-03     329.072E-03    -163.972E-03    -165.014E-03    -164.226E-03     328.944E-03    -164.633E-03     15.7976E-03    -1.11485E+06    -71.8747E+06    -95.3720E+06    -76.4209E+06    -90.8259E+06    -1.11485E+06     6.88933E+06         46.1468
             301     5.94016E-03     73.4790E-03     16.6949E-03     313.602E-06    -86.0965E-03     9.36794E-03    -81.8676E-03     3.41173E-03     6.07955E-03     328.807E-03    -164.148E-03    -164.953E-03    -164.320E-03     328.729E-03    -164.703E-03     12.1703E-03    -23.5427E+06    -85.8758E+06    -130.411E+06    -87.0956E+06    -129.192E+06    -23.5427E+06     4.95209E+06         46.0163
             302     5.08951E-03     73.4707E-03     16.3806E-03    -2.56216E-03    -83.0210E-03     7.60239E-03    -79.5724E-03     2.76745E-03     13.4459E-03     329.144E-03    -164.371E-03    -164.948E-03    -164.594E-03     329.095E-03    -164.676E-03     9.84039E-03    -43.0882E+06    -96.4254E+06    -160.761E+06    -96.5646E+06    -160.622E+06    -43.0882E+06     1.12150E+06         45.9004
             303     4.24370E-03     73.4548E-03     10.6877E-03    -3.24063E-03    -77.1813E-03     865.199E-06    -73.2753E-03     2.67580E-03    -16.2350E-03     329.133E-03    -164.284E-03    -164.857E-03    -164.523E-03     329.101E-03    -164.585E-03     7.64056E-03    -60.2131E+06    -104.060E+06    -183.396E+06    -104.206E+06    -183.249E+06    -60.2131E+06     2.04128E+06         45.8063
             304     3.39562E-03     73.4486E-03     12.7643E-03     2.18132E-03    -85.1705E-03     4.02917E-03    -77.0222E-03     2.76815E-03     15.0189E-03     328.481E-03    -164.017E-03    -164.477E-03    -164.002E-03     328.467E-03    -164.477E-03     4.68259E-03    -81.3749E+06    -110.855E+06    -205.334E+06    -110.973E+06    -205.216E+06    -81.3749E+06     2.85617E+06         45.7203
             305     2.54647E-03     73.4411E-03     30.5637E-03    -491.813E-06    -100.570E-03     18.2726E-03    -88.2789E-03    -491.813E-06    -6.55662E-03     328.518E-03    -163.956E-03    -164.513E-03    -164.037E-03     328.510E-03    -164.424E-03     3.13859E-03    -102.994E+06    -118.308E+06    -231.965E+06    -118.549E+06    -231.724E+06    -102.994E+06     7.98510E+03         45.6449
             306     1.69628E-03     73.4374E-03     30.0945E-03    -8.29668E-03    -90.5176E-03     10.4572E-03    -70.8803E-03    -8.29668E-03    -5.80409E-03     328.562E-03    -163.892E-03    -164.662E-03    -163.978E-03     328.559E-03    -164.573E-03     2.21006E-03    -115.580E+06    -125.162E+06    -250.828E+06    -125.228E+06    -250.380E+06    -115.962E+06    -1.36026E+06         45.5846
             307     846.088E-06     73.4299E-03     70.2942E-03    -28.7571E-03    -107.538E-03     10.5600E-03    -40.2672E-03    -36.2939E-03     148.578E-03     329.533E-03    -163.921E-03    -165.614E-03    -164.303E-03     329.530E-03    -165.230E-03     996.958E-06    -121.562E+06    -128.775E+06    -263.578E+06    -128.757E+06    -263.213E+06    -121.945E+06    -244.605E+03         45.5454
             308     14.4299E-03     72.5485E-03     43.7626E-03     25.0261E-03    -136.973E-03     42.4632E-03    -135.673E-03     25.0261E-03     6.21184E-03     330.418E-03    -163.793E-03    -166.650E-03    -163.835E-03     328.681E-03    -164.872E-03     58.5317E-03     130.101E+06     97.9829E+06    -10.2643E+06    -10.0177E+06     97.7363E+06     130.101E+06     3.17139E+06         67.9841
             309     13.5767E-03     72.4704E-03     47.5589E-03     24.4514E-03    -142.427E-03     46.3549E-03    -141.223E-03     24.4514E-03     5.72893E-03     331.248E-03    -163.969E-03    -167.229E-03    -164.823E-03     329.628E-03    -164.754E-03     56.4731E-03     106.527E+06     81.7131E+06    -22.0364E+06    -21.3361E+06     81.0128E+06     106.527E+06     3.52215E+06         64.4381
             310     12.7323E-03     72.3856E-03     51.5694E-03     23.5136E-03    -146.118E-03     48.9071E-03    -143.455E-03     23.5136E-03     18.1365E-03     331.878E-03    -164.623E-03    -167.166E-03    -166.113E-03     330.825E-03    -164.623E-03     45.1145E-03     81.2242E+06     64.2296E+06    -34.2306E+06    -32.5797E+06     64.1121E+06     79.6910E+06    -2.64255E+06         60.3561
             311     11.8869E-03     72.3375E-03     44.6665E-03     22.4931E-03    -138.244E-03     41.8726E-03    -135.450E-03     22.4931E-03     22.5280E-03     329.655E-03    -163.750E-03    -165.870E-03    -164.413E-03     328.939E-03    -164.491E-03     37.4557E-03     66.7162E+06     58.0201E+06    -37.1797E+06    -35.4765E+06     57.8501E+06     65.1830E+06    -10.8250E+06         56.5627
             312     11.0344E-03     72.2804E-03     31.5009E-03     21.9062E-03    -124.376E-03     29.6010E-03    -122.551E-03     21.9814E-03     11.9525E-03     327.797E-03    -163.304E-03    -164.738E-03    -162.898E-03     327.221E-03    -164.568E-03     33.3632E-03     65.3028E+06     59.2734E+06    -34.4834E+06    -33.7539E+06     61.5237E+06     62.3230E+06    -6.06389E+06         53.3195
             313     10.1841E-03     72.2362E-03     25.5442E-03     21.9939E-03    -118.039E-03     23.4241E-03    -115.994E-03     22.0691E-03     4.83797E-03     328.306E-03    -163.918E-03    -164.656E-03    -163.501E-03     327.890E-03    -164.656E-03     28.5197E-03     55.8623E+06     47.8511E+06    -42.4789E+06    -42.1365E+06     54.5761E+06     48.7949E+06     2.58627E+06         50.6502
             314     9.33662E-03     72.1954E-03     31.8794E-03     22.0578E-03    -124.366E-03     29.6107E-03    -122.098E-03     22.0578E-03    -1.75423E-03     327.839E-03    -163.298E-03    -164.655E-03    -162.976E-03     327.517E-03    -164.655E-03     25.0330E-03     35.8603E+06     12.9262E+06    -53.9189E+06    -51.9941E+06     15.0890E+06     31.7727E+06     92.5834E+03         48.5835
             315     8.48436E-03     72.1613E-03     37.0055E-03     21.2401E-03    -128.182E-03     35.0177E-03    -126.339E-03     21.3845E-03     21.4783E-03     328.000E-03    -163.267E-03    -164.701E-03    -163.027E-03     327.760E-03    -164.701E-03     21.6921E-03     19.5892E+06    -30.3803E+06    -66.6531E+06    -64.5081E+06    -32.5252E+06     19.5892E+06    -4.33875E+06         47.1552
             316     7.63494E-03     72.1344E-03     28.1479E-03     20.5047E-03    -118.304E-03     26.1530E-03    -116.534E-03     20.7300E-03    -5.52891E-03     329.644E-03    -164.385E-03    -164.978E-03    -164.522E-03     329.479E-03    -164.676E-03     17.7130E-03     14.9699E+06    -53.8511E+06    -73.2425E+06    -70.5580E+06    -56.5356E+06     14.9699E+06     745.585E+03         46.3884
             317     6.78869E-03     72.1099E-03     21.6379E-03     17.7895E-03    -109.134E-03     16.9715E-03    -107.646E-03     20.9686E-03    -12.5884E-03     329.038E-03    -163.859E-03    -164.930E-03    -164.065E-03     328.942E-03    -164.628E-03     13.4969E-03    -5.45655E+06    -78.0392E+06    -97.7508E+06    -82.7639E+06    -93.0261E+06    -5.45655E+06     3.23398E+06         46.1117
             318     5.93708E-03     72.0936E-03     23.7619E-03     16.9103E-03    -111.142E-03     18.9836E-03    -111.102E-03     21.6486E-03     471.561E-06     328.247E-03    -163.701E-03    -164.806E-03    -163.637E-03     328.183E-03    -164.806E-03     11.0627E-03    -24.7817E+06    -90.7340E+06    -127.839E+06    -91.6560E+06    -126.917E+06    -24.7817E+06     2.30228E+06         45.9913
             319     5.09069E-03     72.0763E-03     34.3381E-03     19.4305E-03    -123.402E-03     32.6594E-03    -123.364E-03     21.0707E-03    -3.73692E-03     329.007E-03    -164.097E-03    -165.132E-03    -164.326E-03     328.964E-03    -164.861E-03     9.12724E-03    -42.0542E+06    -97.1574E+06    -155.634E+06    -97.5762E+06    -155.215E+06    -42.0542E+06     2.90796E+06         45.8851
             320     4.24222E-03     72.0665E-03     42.1614E-03     18.0765E-03    -130.148E-03     39.9768E-03    -127.964E-03     18.0765E-03    -25.9876E-03     329.192E-03    -164.047E-03    -165.082E-03    -164.287E-03     329.159E-03    -164.811E-03     7.90304E-03    -65.4538E+06    -107.152E+06    -184.313E+06    -107.573E+06    -183.892E+06    -65.4538E+06     1.93649E+06         45.8054
             321     3.39274E-03     72.0596E-03     34.2381E-03     14.1786E-03    -121.485E-03     28.7935E-03    -116.040E-03     14.1786E-03    -7.78777E-03     329.383E-03    -164.390E-03    -164.961E-03    -164.587E-03     329.358E-03    -164.740E-03     6.80638E-03    -83.8194E+06    -113.605E+06    -204.687E+06    -113.763E+06    -204.530E+06    -83.8194E+06     1.60118E+06         45.7355
             322     2.54471E-03     72.0528E-03     28.4616E-03     11.3078E-03    -112.391E-03     16.2150E-03    -100.512E-03     11.6754E-03    -19.3571E-03     329.612E-03    -164.481E-03    -165.115E-03    -165.087E-03     329.599E-03    -164.496E-03     4.67018E-03    -102.304E+06    -119.892E+06    -226.833E+06    -120.018E+06    -226.707E+06    -102.304E+06     2.73115E+06         45.6654
             323     1.69828E-03     72.0475E-03     28.2028E-03     4.05054E-03    -103.419E-03     10.6523E-03    -92.9364E-03     11.1183E-03    -16.9794E-03     328.982E-03    -163.947E-03    -165.054E-03    -164.829E-03     328.979E-03    -164.169E-03     2.22961E-03    -120.770E+06    -126.824E+06    -248.515E+06    -126.666E+06    -248.290E+06    -121.152E+06     128.810E+03         45.6011
             324     849.971E-06     72.0451E-03     66.2422E-03    -6.01428E-03    -127.782E-03     29.4983E-03    -90.2015E-03    -6.85102E-03     114.094E-03     328.203E-03    -163.243E-03    -164.967E-03    -163.909E-03     328.201E-03    -164.299E-03     1.03966E-03    -127.467E+06    -132.616E+06    -268.588E+06    -129.518E+06    -268.347E+06    -130.806E+06    -3.36882E+06         45.5603
             325     14.4206E-03     71.1579E-03     49.2317E-03     36.1971E-03    -160.409E-03     48.3625E-03    -159.540E-03     36.1971E-03     1.19502E-03     332.532E-03    -164.689E-03    -168.168E-03    -166.373E-03     331.031E-03    -164.982E-03     54.4149E-03     132.987E+06     97.8965E+06    -12.3133E+06    -12.1564E+06     97.7396E+06     132.987E+06     2.01001E+06         68.0836
             326     13.5811E-03     71.0701E-03     48.5862E-03     33.9657E-03    -157.626E-03     44.8822E-03    -156.193E-03     36.2361E-03    -3.97486E-03     332.356E-03    -164.640E-03    -168.022E-03    -166.487E-03     330.926E-03    -164.746E-03     52.9618E-03     113.203E+06     84.3016E+06    -18.2494E+06    -18.0708E+06     84.1230E+06     113.203E+06     359.827E+03         64.5452
             327     12.7321E-03     70.9988E-03     47.3057E-03     34.1355E-03    -155.946E-03     43.2034E-03    -154.114E-03     36.4060E-03    -3.62203E-03     329.091E-03    -163.576E-03    -165.692E-03    -163.730E-03     328.061E-03    -164.507E-03     44.7039E-03     88.1776E+06     70.3449E+06    -17.5316E+06    -17.3692E+06     76.4128E+06     81.9474E+06    -1.47714E+06         60.4461
             328     11.8811E-03     70.9410E-03     45.8839E-03     36.4951E-03    -154.972E-03     44.9211E-03    -154.010E-03     36.4951E-03     10.2037E-03     328.436E-03    -163.581E-03    -164.884E-03    -163.268E-03     327.646E-03    -164.407E-03     39.3757E-03     58.9249E+06     51.7186E+06    -32.4348E+06    -32.1505E+06     58.2785E+06     52.0806E+06    -3.78487E+06         56.6254
             329     11.0363E-03     70.8969E-03     43.7581E-03     36.4448E-03    -151.920E-03     43.0454E-03    -151.283E-03     36.5200E-03     1.08097E-03     329.075E-03    -164.165E-03    -164.879E-03    -163.780E-03     328.374E-03    -164.563E-03     37.0782E-03     47.4699E+06     45.3845E+06    -49.9806E+06    -49.6965E+06     45.8801E+06     46.6902E+06    -891.716E+03         53.3645
             330     10.1857E-03     70.8452E-03     42.6520E-03     36.5257E-03    -151.692E-03     41.3540E-03    -150.470E-03     36.6009E-03    -11.3461E-03     328.265E-03    -163.554E-03    -164.702E-03    -163.131E-03     327.724E-03    -164.583E-03     32.3415E-03     53.1530E+06     46.4546E+06    -49.0020E+06    -48.7708E+06     51.9780E+06     47.3983E+06    -69.6012E+03         50.6798
             331     9.33519E-03     70.8075E-03     42.0143E-03     32.3798E-03    -147.702E-03     36.7749E-03    -146.941E-03     36.8588E-03    -18.8068E-03     327.860E-03    -163.191E-03    -164.762E-03    -163.012E-03     327.512E-03    -164.593E-03     25.9653E-03     41.9940E+06     20.3356E+06    -54.8173E+06    -54.4268E+06     25.5341E+06     36.4050E+06     336.622E+03         48.5951
             332     8.48507E-03     70.7774E-03     39.7871E-03     31.4140E-03    -143.680E-03     32.9482E-03    -142.925E-03     37.4971E-03     12.6218E-03     328.340E-03    -163.544E-03    -164.795E-03    -163.465E-03     328.092E-03    -164.626E-03     22.0833E-03     21.5574E+06    -23.9079E+06    -68.1808E+06    -66.9300E+06    -25.1587E+06     21.5574E+06     2.04452E+06         47.1432
             333     7.63746E-03     70.7379E-03     40.3777E-03     36.5062E-03    -148.284E-03     36.5178E-03    -146.109E-03     38.1913E-03    -314.999E-06     328.923E-03    -163.902E-03    -164.746E-03    -163.908E-03     328.759E-03    -164.575E-03     17.5630E-03     2.68159E+06    -62.3628E+06    -86.4886E+06    -81.2722E+06    -67.5792E+06     2.68159E+06    -2.77818E+06         46.3537
             334     6.78863E-03     70.7236E-03     45.0716E-03     38.1706E-03    -154.762E-03     43.2618E-03    -153.033E-03     38.2516E-03    -6.61532E-03     328.946E-03    -163.820E-03    -164.878E-03    -164.020E-03     328.865E-03    -164.597E-03     12.4931E-03    -9.92760E+06    -80.4414E+06    -102.730E+06    -86.7909E+06    -96.3806E+06    -9.92760E+06    -1.80483E+06         46.0740
             335     5.94086E-03     70.7045E-03     48.9723E-03     35.8291E-03    -155.429E-03     46.7293E-03    -154.826E-03     37.4693E-03     16.7838E-03     328.186E-03    -163.464E-03    -164.880E-03    -163.509E-03     328.120E-03    -164.770E-03     11.3038E-03    -27.1904E+06    -90.4630E+06    -125.890E+06    -91.5191E+06    -124.834E+06    -27.1904E+06     870.866E+03         45.9671
             336     5.08945E-03     70.6869E-03     47.1533E-03     32.7202E-03    -149.411E-03     41.7721E-03    -147.816E-03     36.5062E-03     21.5517E-03     327.987E-03    -163.229E-03    -164.921E-03    -163.183E-03     327.941E-03    -164.921E-03     9.15777E-03    -48.5704E+06    -100.028E+06    -157.398E+06    -100.620E+06    -156.807E+06    -48.5704E+06     74.6507E+03         45.8759
             337     4.23914E-03     70.6794E-03     51.8314E-03     27.4002E-03    -150.331E-03     39.8856E-03    -146.743E-03     35.7585E-03    -13.8330E-03     329.086E-03    -163.964E-03    -165.027E-03    -163.941E-03     329.063E-03    -165.027E-03     6.47586E-03    -65.5963E+06    -105.755E+06    -182.628E+06    -106.589E+06    -181.793E+06    -65.5963E+06     1.57520E+06         45.8075
             338     3.39138E-03     70.6676E-03     50.2841E-03     27.9232E-03    -150.439E-03     36.7110E-03    -144.231E-03     35.2882E-03    -3.78176E-03     329.978E-03    -164.677E-03    -165.239E-03    -164.883E-03     329.962E-03    -165.017E-03     5.13238E-03    -84.4877E+06    -113.718E+06    -205.173E+06    -114.055E+06    -204.835E+06    -84.4877E+06     1.95289E+06         45.7442
             339     2.54465E-03     70.6619E-03     41.2305E-03     35.9125E-03    -149.768E-03     24.3288E-03    -134.387E-03     37.4326E-03    -32.9058E-03     330.088E-03    -164.706E-03    -165.391E-03    -165.306E-03     330.081E-03    -164.784E-03     3.81752E-03    -101.301E+06    -120.632E+06    -225.529E+06    -120.754E+06    -225.407E+06    -101.301E+06     1.65813E+06         45.6805
             340     1.69635E-03     70.6570E-03     50.3324E-03     36.4844E-03    -157.026E-03     28.2117E-03    -141.973E-03     43.5521E-03    -20.2430E-03     329.676E-03    -164.402E-03    -165.293E-03    -165.272E-03     329.672E-03    -164.418E-03     2.73281E-03    -115.769E+06    -124.727E+06    -242.937E+06    -124.789E+06    -242.875E+06    -115.769E+06     1.82457E+06         45.6207
             341     849.787E-06     70.6570E-03     81.3033E-03     33.0588E-03    -184.968E-03     55.0074E-03    -165.372E-03     39.7589E-03     125.447E-03     328.550E-03    -163.745E-03    -164.809E-03    -164.790E-03     328.546E-03    -163.761E-03     2.47440E-03    -124.635E+06    -131.166E+06    -269.922E+06    -128.352E+06    -269.779E+06    -127.591E+06     2.02446E+06         45.5810
             342     14.4365E-03     69.7591E-03     56.3751E-03     48.9987E-03    -185.884E-03     54.9770E-03    -184.485E-03     48.9987E-03    -17.9160E-03     332.610E-03    -164.709E-03    -168.115E-03    -166.637E-03     331.132E-03    -164.709E-03     53.8292E-03     131.153E+06     95.9581E+06    -11.4231E+06    -11.2937E+06     95.8287E+06     131.153E+06     815.782E+03         68.1238
             343     13.5861E-03     69.6766E-03     52.0747E-03     47.3746E-03    -177.557E-03     48.6169E-03    -176.370E-03     49.6451E-03    -12.2854E-03     330.407E-03    -164.524E-03    -166.057E-03    -164.413E-03     328.899E-03    -164.659E-03     54.0111E-03     113.794E+06     87.5949E+06    -12.0891E+06    -11.9178E+06     87.4237E+06     113.794E+06    -510.564E+03         64.5743
             344     12.7363E-03     69.6145E-03     51.5247E-03     44.2585E-03    -172.273E-03     42.7935E-03    -169.930E-03     50.6462E-03    -2.06607E-03     327.891E-03    -163.316E-03    -164.649E-03    -162.254E-03     326.829E-03    -164.649E-03     45.1167E-03     93.4053E+06     72.6721E+06    -16.4804E+06    -15.9131E+06     76.8018E+06     88.7083E+06     1.44617E+06         60.4714
             345     11.8834E-03     69.5557E-03     53.0343E-03     45.5980E-03    -172.843E-03     45.4950E-03    -171.444E-03     51.7387E-03     10.9661E-03     327.476E-03    -162.862E-03    -164.614E-03    -162.108E-03     326.694E-03    -164.586E-03     39.0937E-03     67.0039E+06     53.4515E+06    -29.0898E+06    -28.2125E+06     60.4306E+06     59.1474E+06     4.63023E+06         56.6504
             346     11.0298E-03     69.5031E-03     58.9465E-03     50.3448E-03    -182.917E-03     56.4532E-03    -182.447E-03     52.3683E-03    -1.27313E-03     328.833E-03    -163.919E-03    -164.830E-03    -163.394E-03     328.162E-03    -164.684E-03     36.1390E-03     52.2709E+06     48.7973E+06    -43.0521E+06    -42.3957E+06     51.6145E+06     48.7973E+06     1.89006E+06         53.3860
             347     10.1835E-03     69.4586E-03     60.0159E-03     51.6847E-03    -185.005E-03     58.6288E-03    -184.411E-03     52.4777E-03    -5.32774E-03     328.773E-03    -163.910E-03    -164.779E-03    -163.502E-03     328.247E-03    -164.661E-03     31.9086E-03     47.6750E+06     44.5647E+06    -55.7571E+06    -55.2988E+06     46.2226E+06     45.5587E+06    -1.44097E+06         50.6977
             348     9.33347E-03     69.4195E-03     54.7579E-03     46.5138E-03    -175.777E-03     48.0435E-03    -175.457E-03     52.9082E-03    -5.84439E-03     328.882E-03    -164.112E-03    -164.797E-03    -163.903E-03     328.501E-03    -164.625E-03     27.2420E-03     36.4279E+06     22.5111E+06    -65.2856E+06    -64.9214E+06     23.9492E+06     34.6256E+06     1.33033E+06         48.6087
             349     8.48822E-03     69.3822E-03     55.3136E-03     46.7716E-03    -176.215E-03     47.7193E-03    -175.682E-03     53.8329E-03     15.0717E-03     328.954E-03    -164.050E-03    -164.790E-03    -163.942E-03     328.674E-03    -164.618E-03     23.4129E-03     20.2046E+06    -18.3868E+06    -71.9236E+06    -70.3145E+06    -19.9959E+06     20.2046E+06     1.09549E+06         47.1509
             350     7.63718E-03     69.3563E-03     60.3883E-03     52.7662E-03    -186.131E-03     58.4172E-03    -185.619E-03     54.2259E-03     5.77721E-03     328.045E-03    -163.194E-03    -164.605E-03    -162.989E-03     327.840E-03    -164.605E-03     19.8895E-03     2.13414E+06    -55.7628E+06    -84.7010E+06    -75.4418E+06    -65.0221E+06     2.13414E+06    -1.26777E+06         46.3547
             351     6.78713E-03     69.3294E-03     63.7897E-03     53.6201E-03    -189.701E-03     63.4567E-03    -189.368E-03     53.6201E-03    -407.954E-06     328.680E-03    -163.742E-03    -164.845E-03    -163.729E-03     328.557E-03    -164.735E-03     15.2647E-03    -15.6691E+06    -77.6981E+06    -108.740E+06    -85.4499E+06    -100.988E+06    -15.6691E+06    -3.24143E+06         46.0730
             352     5.93893E-03     69.3174E-03     65.1023E-03     52.3365E-03    -190.183E-03     64.3783E-03    -189.459E-03     52.3365E-03     7.85519E-03     329.032E-03    -164.019E-03    -165.158E-03    -164.264E-03     328.956E-03    -164.837E-03     12.2630E-03    -33.9580E+06    -92.1172E+06    -133.670E+06    -94.8584E+06    -130.929E+06    -33.9580E+06    -3.46074E+06         45.9761
             353     5.08948E-03     69.3011E-03     61.2046E-03     49.0004E-03    -183.014E-03     57.2839E-03    -181.239E-03     51.1462E-03     22.6435E-03     328.740E-03    -163.746E-03    -165.088E-03    -163.909E-03     328.693E-03    -164.878E-03     9.22401E-03    -48.6369E+06    -98.4672E+06    -156.295E+06    -98.7902E+06    -155.972E+06    -48.6369E+06    -2.14766E+06         45.8965
             354     4.24178E-03     69.2873E-03     54.6751E-03     42.8776E-03    -169.403E-03     40.8996E-03    -164.644E-03     51.8946E-03    -13.7422E-03     329.354E-03    -164.370E-03    -164.933E-03    -164.353E-03     329.337E-03    -164.933E-03     5.61817E-03    -63.0277E+06    -105.825E+06    -181.216E+06    -106.492E+06    -180.548E+06    -63.0277E+06    -1.03014E+06         45.8271
             355     3.39363E-03     69.2787E-03     58.0068E-03     46.8624E-03    -178.523E-03     40.6135E-03    -169.154E-03     54.8860E-03     19.0898E-03     329.397E-03    -164.453E-03    -164.900E-03    -164.445E-03     329.389E-03    -164.900E-03     3.92652E-03    -81.6855E+06    -111.883E+06    -202.295E+06    -112.354E+06    -201.824E+06    -81.6855E+06     1.22710E+06         45.7547
             356     2.54380E-03     69.2708E-03     68.6290E-03     55.4099E-03    -197.436E-03     57.5264E-03    -187.486E-03     56.5623E-03     8.58575E-03     329.002E-03    -164.015E-03    -164.963E-03    -164.088E-03     328.997E-03    -164.885E-03     3.28287E-03    -103.140E+06    -119.136E+06    -224.750E+06    -119.342E+06    -224.545E+06    -103.140E+06     369.472E+03         45.6852
             357     1.69624E-03     69.2677E-03     69.9250E-03     55.0959E-03    -197.287E-03     60.3580E-03    -187.720E-03     55.0959E-03     7.49671E-03     329.447E-03    -164.261E-03    -165.197E-03    -164.334E-03     329.442E-03    -165.119E-03     3.05929E-03    -116.082E+06    -124.914E+06    -243.444E+06    -125.045E+06    -243.312E+06    -116.082E+06     413.597E+03         45.6302
             358     846.401E-06     69.2670E-03     70.6170E-03     48.7287E-03    -190.317E-03     58.8038E-03    -178.504E-03     48.7287E-03     105.715E-03     330.750E-03    -164.919E-03    -165.833E-03    -165.296E-03     330.746E-03    -165.453E-03     2.28350E-03    -123.296E+06    -129.599E+06    -265.550E+06    -128.764E+06    -265.418E+06    -124.262E+06     2.63656E+06         45.5988
             359     14.4301E-03     68.3675E-03     64.1032E-03     56.7943E-03    -198.062E-03     57.1047E-03    -196.933E-03     62.6633E-03    -2.58692E-03     330.048E-03    -164.027E-03    -165.991E-03    -163.577E-03     328.233E-03    -164.627E-03     59.5284E-03     130.062E+06     96.3856E+06    -4.13929E+06    -3.93484E+06     96.1811E+06     130.062E+06    -2.33423E+06         68.1104
             360     13.5792E-03     68.2914E-03     64.4321E-03     59.6714E-03    -200.184E-03     60.0660E-03    -199.806E-03     63.6601E-03     3.68576E-03     329.644E-03    -164.646E-03    -165.051E-03    -163.193E-03     327.816E-03    -164.676E-03     59.7165E-03     110.573E+06     86.9667E+06    -10.6795E+06    -10.2570E+06     86.5442E+06     110.573E+06    -1.08157E+06         64.5435
             361     12.7300E-03     68.2196E-03     65.9353E-03     58.3186E-03    -198.738E-03     58.0798E-03    -197.211E-03     64.6474E-03     15.9943E-03     329.732E-03    -164.365E-03    -165.371E-03    -163.776E-03     328.538E-03    -164.767E-03     48.1352E-03     83.7978E+06     66.8342E+06    -29.3722E+06    -28.6912E+06     66.1532E+06     83.7978E+06     2.05372E+06         60.4505
             362     11.8832E-03     68.1730E-03     66.5614E-03     57.1260E-03    -198.365E-03     56.5000E-03    -196.924E-03     65.7462E-03     16.8659E-03     329.157E-03    -163.783E-03    -165.423E-03    -163.651E-03     328.283E-03    -164.682E-03     41.4603E-03     70.7837E+06     57.9614E+06    -32.8073E+06    -31.4678E+06     59.1674E+06     68.2383E+06     8.02410E+06         56.6516
             363     11.0344E-03     68.1130E-03     69.4284E-03     55.5625E-03    -201.218E-03     57.7203E-03    -200.873E-03     66.9255E-03     3.63177E-03     328.444E-03    -163.641E-03    -164.992E-03    -163.322E-03     327.785E-03    -164.652E-03     35.6049E-03     66.2758E+06     58.0823E+06    -33.7477E+06    -31.3613E+06     60.9546E+06     61.0171E+06     10.0383E+06         53.3990
             364     10.1823E-03     68.0706E-03     70.5349E-03     59.1254E-03    -205.750E-03     61.2783E-03    -205.400E-03     68.0320E-03     5.63837E-03     328.486E-03    -163.856E-03    -164.707E-03    -163.400E-03     328.030E-03    -164.707E-03     29.9321E-03     54.2716E+06     48.9364E+06    -44.0067E+06    -42.4299E+06     50.0728E+06     51.5584E+06     5.13073E+06         50.7150
             365     9.33470E-03     68.0275E-03     70.6622E-03     65.6583E-03    -212.386E-03     67.3473E-03    -212.240E-03     68.8274E-03     605.686E-06     328.674E-03    -163.944E-03    -164.727E-03    -163.559E-03     328.285E-03    -164.724E-03     27.6024E-03     37.9626E+06     24.7134E+06    -52.0181E+06    -51.6710E+06     24.3663E+06     37.9626E+06     1.07007E+06         48.6289
             366     8.48305E-03     67.9942E-03     72.5957E-03     66.1943E-03    -215.228E-03     69.2732E-03    -214.991E-03     69.2802E-03     11.6161E-03     328.560E-03    -163.647E-03    -164.739E-03    -163.378E-03     328.288E-03    -164.736E-03     22.8443E-03     20.2624E+06    -22.4331E+06    -65.1629E+06    -63.7875E+06    -23.8085E+06     20.2624E+06    -2.60724E+06         47.1783
             367     7.63512E-03     67.9683E-03     73.7201E-03     64.1137E-03    -212.258E-03     67.1948E-03    -211.363E-03     69.7441E-03    -9.69431E-03     328.047E-03    -163.029E-03    -164.774E-03    -162.830E-03     327.848E-03    -164.774E-03     19.6344E-03     11.3843E+06    -52.1694E+06    -71.8906E+06    -65.7220E+06    -58.3380E+06     11.3843E+06    -1.00064E+06         46.3916
             368     6.78516E-03     67.9426E-03     73.7502E-03     65.9491E-03    -213.560E-03     68.5643E-03    -212.721E-03     70.2968E-03    -25.1181E-03     328.693E-03    -163.663E-03    -164.967E-03    -163.515E-03     328.544E-03    -164.967E-03     16.8674E-03    -10.3934E+06    -68.5526E+06    -100.698E+06    -75.0419E+06    -94.2090E+06    -10.3934E+06    -1.30948E+06         46.1066
             369     5.93616E-03     67.9248E-03     72.3782E-03     65.2571E-03    -213.643E-03     66.3465E-03    -213.366E-03     71.0115E-03    -9.25346E-03     330.332E-03    -164.847E-03    -165.729E-03    -165.415E-03     330.252E-03    -165.080E-03     12.4080E-03    -33.3583E+06    -89.9118E+06    -137.812E+06    -92.8520E+06    -134.871E+06    -33.3583E+06    -6.21692E+06         46.0008
             370     5.09096E-03     67.9104E-03     75.2194E-03     63.9239E-03    -215.002E-03     66.6399E-03    -214.529E-03     72.0303E-03     11.0284E-03     330.496E-03    -164.820E-03    -165.779E-03    -165.644E-03     330.450E-03    -164.910E-03     9.39971E-03    -45.4104E+06    -98.5413E+06    -156.270E+06    -99.2938E+06    -155.518E+06    -45.4104E+06    -2.47146E+06         45.9190
             371     4.24206E-03     67.8983E-03     81.9074E-03     68.8645E-03    -226.040E-03     73.8821E-03    -221.706E-03     72.5559E-03    -32.2884E-03     329.526E-03    -164.561E-03    -164.954E-03    -164.758E-03     329.503E-03    -164.734E-03     6.47956E-03    -67.8964E+06    -107.461E+06    -183.283E+06    -107.711E+06    -183.033E+06    -67.8964E+06    -1.65876E+06         45.8429
             372     3.39366E-03     67.8886E-03     84.7164E-03     71.1606E-03    -230.927E-03     77.8784E-03    -224.747E-03     71.8193E-03    -21.2363E-03     328.643E-03    -164.093E-03    -164.664E-03    -164.084E-03     328.634E-03    -164.664E-03     4.14386E-03    -86.9965E+06    -116.060E+06    -207.175E+06    -116.558E+06    -206.677E+06    -86.9965E+06    -3.54033E+06         45.7607
             373     2.54518E-03     67.8844E-03     84.7484E-03     69.6050E-03    -228.940E-03     78.9278E-03    -223.119E-03     69.6050E-03    -22.1574E-03     328.349E-03    -163.615E-03    -164.769E-03    -163.610E-03     328.344E-03    -164.769E-03     3.00598E-03    -101.944E+06    -118.821E+06    -223.346E+06    -119.297E+06    -222.871E+06    -101.944E+06    -248.805E+03         45.6803
             374     1.69331E-03     67.8784E-03     77.4456E-03     67.8632E-03    -221.584E-03     68.9744E-03    -213.113E-03     67.8632E-03     1.41279E-03     329.113E-03    -163.960E-03    -165.170E-03    -163.956E-03     329.110E-03    -165.170E-03     2.13479E-03    -119.475E+06    -126.639E+06    -244.297E+06    -125.894E+06    -243.974E+06    -120.544E+06    -476.938E+03         45.6159
             375     846.717E-06     67.8730E-03     94.9642E-03     52.0458E-03    -223.027E-03     54.7078E-03    -211.583E-03     80.8582E-03     62.0957E-03     331.102E-03    -164.931E-03    -166.179E-03    -164.929E-03     331.099E-03    -166.179E-03     1.85249E-03    -125.601E+06    -130.364E+06    -265.409E+06    -128.487E+06    -265.251E+06    -127.636E+06    -1.88903E+06         45.5818
             376     14.4264E-03     66.9858E-03     74.6829E-03     53.9873E-03    -200.442E-03     53.5877E-03    -200.043E-03     74.6829E-03     8.36826E-03     327.771E-03    -162.768E-03    -164.914E-03    -160.875E-03     325.873E-03    -164.908E-03     60.2736E-03     133.575E+06     99.9925E+06    -3.14934E+06    -2.78469E+06     99.6278E+06     133.575E+06    -2.92638E+06         68.0792
             377     13.5765E-03     66.8954E-03     76.5493E-03     57.4519E-03    -207.986E-03     57.1769E-03    -207.711E-03     76.5493E-03     13.0401E-03     330.429E-03    -164.896E-03    -165.660E-03    -163.584E-03     328.514E-03    -165.057E-03     60.9329E-03     110.746E+06     82.4683E+06    -12.7510E+06    -12.3613E+06     82.0786E+06     110.746E+06     692.493E+03         64.5002
             378     12.7279E-03     66.8343E-03     78.9903E-03     65.6481E-03    -219.474E-03     66.3214E-03    -219.332E-03     78.1751E-03     10.3611E-03     331.821E-03    -165.097E-03    -166.878E-03    -165.695E-03     330.638E-03    -165.097E-03     48.2356E-03     79.3517E+06     60.7436E+06    -27.6890E+06    -26.7354E+06     59.7899E+06     79.3517E+06     4.10950E+06         60.4213
             379     11.8789E-03     66.7753E-03     80.2354E-03     70.6525E-03    -228.270E-03     71.2876E-03    -228.090E-03     79.4202E-03     5.10924E-03     331.341E-03    -164.815E-03    -166.656E-03    -165.782E-03     330.467E-03    -164.815E-03     41.6166E-03     64.6637E+06     55.1584E+06    -38.8627E+06    -37.2449E+06     54.5142E+06     63.6900E+06     2.97325E+06         56.6465
             380     11.0319E-03     66.7265E-03     80.8326E-03     65.2047E-03    -226.847E-03     65.1439E-03    -226.786E-03     80.8326E-03    -1.75883E-03     329.757E-03    -164.477E-03    -165.491E-03    -164.553E-03     329.066E-03    -164.724E-03     36.7682E-03     67.0152E+06     59.3118E+06    -37.7640E+06    -35.5475E+06     60.6338E+06     63.4767E+06     4.78456E+06         53.4096
             381     10.1842E-03     66.6805E-03     82.4455E-03     69.2579E-03    -231.421E-03     69.2458E-03    -231.409E-03     82.4455E-03     1.32002E-03     328.573E-03    -163.846E-03    -164.913E-03    -163.453E-03     328.071E-03    -164.803E-03     31.3378E-03     63.6581E+06     56.1610E+06    -34.2642E+06    -32.7428E+06     59.2786E+06     59.0190E+06     6.18729E+06         50.7340
             382     9.33250E-03     66.6406E-03     85.4037E-03     77.9669E-03    -242.237E-03     79.7935E-03    -242.229E-03     83.5689E-03    -142.913E-06     328.019E-03    -163.270E-03    -164.843E-03    -162.874E-03     327.623E-03    -164.843E-03     27.8236E-03     46.1669E+06     27.9483E+06    -42.0017E+06    -41.4698E+06     29.4906E+06     44.0927E+06     1.81307E+06         48.6534
             383     8.48502E-03     66.6042E-03     87.6342E-03     80.1807E-03    -245.323E-03     82.4856E-03    -244.169E-03     84.1755E-03     25.5013E-03     328.376E-03    -163.349E-03    -164.889E-03    -163.083E-03     328.110E-03    -164.889E-03     22.4363E-03     30.0230E+06    -15.4454E+06    -52.8923E+06    -52.2800E+06    -16.0576E+06     30.0230E+06     1.17101E+06         47.2095
             384     7.63423E-03     66.5799E-03     86.6972E-03     75.8550E-03    -239.070E-03     75.5972E-03    -237.188E-03     85.0734E-03     15.5598E-03     328.954E-03    -163.639E-03    -165.087E-03    -163.659E-03     328.792E-03    -164.905E-03     17.7861E-03     8.07987E+06    -59.4971E+06    -78.2537E+06    -71.2907E+06    -66.4601E+06     8.07987E+06    -2.14037E+06         46.4299
             385     6.78385E-03     66.5555E-03     86.9339E-03     70.4140E-03    -235.031E-03     69.5768E-03    -234.193E-03     86.9339E-03    -10.7543E-03     329.297E-03    -164.147E-03    -165.187E-03    -164.210E-03     329.179E-03    -165.005E-03     14.9307E-03    -7.36123E+06    -76.3803E+06    -100.368E+06    -79.6569E+06    -97.0918E+06    -7.36123E+06     201.002E+03         46.1436
             386     5.93603E-03     66.5299E-03     89.3397E-03     74.2022E-03    -242.392E-03     73.9634E-03    -242.153E-03     89.3397E-03     8.56738E-03     329.824E-03    -164.552E-03    -165.568E-03    -164.928E-03     329.762E-03    -165.130E-03     10.6702E-03    -21.2163E+06    -77.1822E+06    -123.775E+06    -79.7311E+06    -121.226E+06    -21.2163E+06     4.03077E+06         46.0225
             387     5.08846E-03     66.5186E-03     95.0936E-03     82.1555E-03    -255.803E-03     85.5894E-03    -255.204E-03     91.0609E-03     27.5140E-03     330.512E-03    -164.696E-03    -165.968E-03    -165.624E-03     330.476E-03    -165.003E-03     8.44777E-03    -49.0345E+06    -95.5933E+06    -165.476E+06    -97.9709E+06    -163.098E+06    -49.0345E+06    -2.72294E+06         45.9242
             388     4.24283E-03     66.5069E-03     101.860E-03     87.9361E-03    -267.796E-03     97.5137E-03    -266.483E-03     90.9689E-03    -3.68823E-03     330.023E-03    -164.730E-03    -165.303E-03    -165.237E-03     330.003E-03    -164.776E-03     5.93528E-03    -68.4688E+06    -106.809E+06    -187.319E+06    -107.629E+06    -186.499E+06    -68.4688E+06    -3.15716E+06         45.8375
             389     3.39417E-03     66.5027E-03     100.567E-03     89.5311E-03    -266.735E-03     96.3756E-03    -262.543E-03     89.5311E-03     12.4225E-03     328.940E-03    -164.287E-03    -164.726E-03    -164.454E-03     328.933E-03    -164.551E-03     3.75460E-03    -88.8553E+06    -114.996E+06    -208.502E+06    -115.352E+06    -208.146E+06    -88.8553E+06    -2.18451E+06         45.7483
             390     2.54428E-03     66.4944E-03     94.7353E-03     86.1703E-03    -256.168E-03     84.5274E-03    -249.380E-03     89.5893E-03    -10.3870E-03     328.882E-03    -164.017E-03    -164.845E-03    -164.479E-03     328.877E-03    -164.378E-03     2.81388E-03    -104.899E+06    -123.726E+06    -229.688E+06    -124.168E+06    -229.246E+06    -104.899E+06    -2.27371E+06         45.6656
             391     1.69883E-03     66.4897E-03     97.2621E-03     87.9214E-03    -263.393E-03     88.0519E-03    -257.601E-03     91.3404E-03    -2.88276E-03     328.786E-03    -163.967E-03    -164.804E-03    -164.433E-03     328.784E-03    -164.335E-03     1.75255E-03    -115.353E+06    -125.842E+06    -241.966E+06    -125.399E+06    -241.340E+06    -116.422E+06     1.12053E+06         45.5938
             392     848.186E-06     66.4821E-03     140.309E-03     55.6186E-03    -279.745E-03     49.2003E-03    -268.374E-03     135.356E-03     65.2544E-03     328.774E-03    -163.849E-03    -164.932E-03    -164.199E-03     328.771E-03    -164.579E-03     2.32480E-03    -126.736E+06    -130.832E+06    -266.512E+06    -129.288E+06    -266.100E+06    -128.692E+06     435.407E+03         45.5488
             393     14.4229E-03     65.5987E-03     85.9162E-03     50.9762E-03    -212.130E-03     50.6064E-03    -211.760E-03     85.9162E-03    -9.85696E-03     326.776E-03    -161.750E-03    -165.038E-03    -159.929E-03     324.955E-03    -165.038E-03     58.7334E-03     130.790E+06     97.4141E+06    -8.81887E+06    -8.49960E+06     97.0948E+06     130.790E+06     1.50674E+06         68.0792
             394     13.5698E-03     65.5070E-03     88.5699E-03     59.1133E-03    -223.927E-03     58.9109E-03    -223.725E-03     88.5699E-03    -1.85143E-03     330.399E-03    -164.894E-03    -165.716E-03    -163.565E-03     328.581E-03    -165.227E-03     58.8605E-03     102.809E+06     73.1191E+06    -21.6392E+06    -21.5484E+06     73.0284E+06     102.809E+06     1.75479E+06         64.4991
             395     12.7225E-03     65.4361E-03     90.8936E-03     67.6078E-03    -237.278E-03     67.3539E-03    -237.024E-03     90.8936E-03     2.73374E-03     331.327E-03    -164.936E-03    -166.601E-03    -165.166E-03     330.287E-03    -165.331E-03     45.0528E-03     89.9989E+06     67.4643E+06    -23.0098E+06    -21.9412E+06     66.3957E+06     89.9989E+06     1.44017E+06         60.4259
             396     11.8786E-03     65.3832E-03     92.8669E-03     73.6901E-03    -248.649E-03     73.5923E-03    -248.551E-03     92.8669E-03     8.61463E-03     331.006E-03    -164.719E-03    -166.289E-03    -165.036E-03     330.149E-03    -165.114E-03     41.1042E-03     71.9520E+06     61.2593E+06    -29.7340E+06    -28.3076E+06     60.8065E+06     70.9783E+06    -2.35027E+06         56.6552
             397     11.0300E-03     65.3345E-03     94.5432E-03     80.7812E-03    -259.239E-03     80.7381E-03    -259.196E-03     94.5432E-03     6.16546E-03     330.730E-03    -165.042E-03    -165.671E-03    -164.913E-03     329.972E-03    -165.042E-03     38.5501E-03     58.0931E+06     54.3888E+06    -39.8749E+06    -39.0925E+06     55.0739E+06     56.6256E+06    -7.66652E+06         53.4208
             398     10.1809E-03     65.2903E-03     96.0102E-03     83.7160E-03    -262.572E-03     83.5153E-03    -262.371E-03     96.0102E-03    -3.33337E-03     329.561E-03    -164.417E-03    -165.289E-03    -164.071E-03     328.979E-03    -165.054E-03     33.7624E-03     54.2863E+06     50.2278E+06    -48.3402E+06    -47.8158E+06     52.5319E+06     51.4578E+06    -2.21808E+06         50.7502
             399     9.33367E-03     65.2538E-03     97.5011E-03     84.8387E-03    -263.808E-03     84.6590E-03    -263.628E-03     97.5011E-03    -10.3280E-03     328.616E-03    -163.668E-03    -165.038E-03    -163.186E-03     328.135E-03    -165.038E-03     30.6873E-03     42.0839E+06     28.4868E+06    -55.3400E+06    -54.6525E+06     30.1339E+06     39.7493E+06     6.29043E+06         48.6749
             400     8.48089E-03     65.2145E-03     100.476E-03     90.2134E-03    -270.964E-03     90.7841E-03    -269.911E-03     98.8518E-03     20.5045E-03     329.304E-03    -164.008E-03    -165.134E-03    -163.750E-03     328.974E-03    -165.061E-03     25.0480E-03     27.9988E+06    -11.6054E+06    -60.8139E+06    -60.1704E+06    -12.2489E+06     27.9988E+06     5.44680E+06         47.2361
             401     7.63353E-03     65.1904E-03     102.100E-03     93.5404E-03    -275.933E-03     94.3778E-03    -274.553E-03     99.8824E-03     15.0896E-03     330.780E-03    -164.697E-03    -165.844E-03    -165.327E-03     330.582E-03    -165.016E-03     19.6856E-03     8.17564E+06    -54.6281E+06    -79.6089E+06    -72.4184E+06    -61.8186E+06     8.17564E+06     1.76398E+06         46.4617
             402     6.78915E-03     65.1621E-03     101.802E-03     89.0142E-03    -272.688E-03     89.1718E-03    -272.251E-03     101.208E-03    -7.95143E-03     330.509E-03    -164.732E-03    -165.834E-03    -165.515E-03     330.377E-03    -164.919E-03     15.5862E-03    -8.00193E+06    -76.6479E+06    -103.639E+06    -81.1867E+06    -99.1004E+06    -8.00193E+06    -591.091E+03         46.1779
             403     5.93941E-03     65.1447E-03     103.051E-03     90.6681E-03    -276.491E-03     90.4942E-03    -276.317E-03     103.051E-03     2.97044E-03     328.935E-03    -164.239E-03    -165.100E-03    -164.333E-03     328.869E-03    -164.940E-03     11.1170E-03    -22.5285E+06    -84.6434E+06    -126.454E+06    -87.1749E+06    -123.923E+06    -22.5285E+06     4.58267E+06         46.0460
             404     5.08942E-03     65.1245E-03     108.231E-03     99.1243E-03    -288.832E-03     102.784E-03    -288.459E-03     104.199E-03     17.5456E-03     329.160E-03    -164.212E-03    -165.272E-03    -164.482E-03     329.123E-03    -164.965E-03     8.01538E-03    -45.4797E+06    -91.8925E+06    -160.169E+06    -94.4472E+06    -157.614E+06    -45.4797E+06     4.90001E+06         45.9247
             405     4.24119E-03     65.1169E-03     109.490E-03     102.867E-03    -292.177E-03     106.639E-03    -290.624E-03     104.164E-03    -13.0721E-03     329.898E-03    -164.636E-03    -165.339E-03    -165.072E-03     329.886E-03    -164.891E-03     4.64599E-03    -64.7867E+06    -102.505E+06    -187.325E+06    -103.856E+06    -185.974E+06    -64.7867E+06    -1.55312E+06         45.8217
             406     3.39355E-03     65.1125E-03     110.372E-03     103.853E-03    -291.915E-03     104.892E-03    -286.435E-03     103.853E-03     27.4102E-03     329.890E-03    -164.592E-03    -165.234E-03    -165.211E-03     329.883E-03    -164.608E-03     3.68601E-03    -83.0786E+06    -112.709E+06    -205.029E+06    -113.000E+06    -204.738E+06    -83.0786E+06     199.723E+03         45.7277
             407     2.54729E-03     65.1055E-03     110.934E-03     100.822E-03    -288.604E-03     101.421E-03    -282.511E-03     104.241E-03     16.8468E-03     329.292E-03    -164.116E-03    -165.076E-03    -165.071E-03     329.286E-03    -164.116E-03     3.34109E-03    -106.563E+06    -123.136E+06    -231.646E+06    -123.155E+06    -231.473E+06    -106.717E+06    -1.51833E+06         45.6490
             408     1.69690E-03     65.1000E-03     113.085E-03     94.8007E-03    -290.019E-03     97.2635E-03    -286.627E-03     107.230E-03    -22.7981E-03     328.354E-03    -163.713E-03    -164.637E-03    -164.633E-03     328.351E-03    -163.713E-03     2.67466E-03    -118.170E+06    -128.888E+06    -245.909E+06    -129.286E+06    -245.357E+06    -118.323E+06    -1.39429E+06         45.5846
             409     850.617E-06     65.0970E-03     191.057E-03     37.0081E-03    -313.490E-03     32.6514E-03    -304.745E-03     186.668E-03     61.3836E-03     327.164E-03    -163.050E-03    -164.125E-03    -164.119E-03     327.159E-03    -163.050E-03     3.19457E-03    -124.224E+06    -130.860E+06    -263.070E+06    -130.511E+06    -262.532E+06    -125.112E+06     3.15883E+06         45.5410
             410     14.4259E-03     64.2170E-03     96.5695E-03     63.3714E-03    -242.472E-03     63.0985E-03    -242.199E-03     96.5695E-03    -2.61112E-03     329.275E-03    -163.187E-03    -166.292E-03    -162.790E-03     327.520E-03    -164.935E-03     57.6599E-03     130.833E+06     96.6821E+06    -7.64805E+06    -7.28678E+06     96.3208E+06     130.833E+06     4.68447E+06         68.1290
             411     13.5771E-03     64.1140E-03     99.1200E-03     67.8690E-03    -250.643E-03     67.3256E-03    -250.100E-03     99.1200E-03     7.60571E-03     329.520E-03    -163.829E-03    -165.809E-03    -163.085E-03     327.889E-03    -164.922E-03     54.9932E-03     105.410E+06     79.2069E+06    -21.1775E+06    -20.7220E+06     78.7514E+06     105.410E+06     1.04253E+06         64.5655
             412     12.7285E-03     64.0461E-03     101.687E-03     69.8837E-03    -256.469E-03     69.2486E-03    -255.834E-03     101.687E-03     13.5074E-03     327.424E-03    -162.263E-03    -165.192E-03    -161.515E-03     326.582E-03    -165.098E-03     40.5411E-03     88.4603E+06     70.1377E+06    -26.1844E+06    -25.5875E+06     69.5408E+06     88.4603E+06    -5.51360E+06         60.4781
             413     11.8724E-03     63.9950E-03     104.244E-03     74.5822E-03    -263.965E-03     74.4329E-03    -263.816E-03     104.244E-03     11.1441E-03     328.017E-03    -162.612E-03    -165.358E-03    -161.846E-03     327.177E-03    -165.283E-03     40.4589E-03     75.1274E+06     64.3950E+06    -27.0861E+06    -26.6858E+06     63.9947E+06     75.1274E+06    -4.95320E+06         56.6838
             414     11.0236E-03     63.9389E-03     106.637E-03     82.2931E-03    -273.966E-03     82.2097E-03    -273.883E-03     106.637E-03     8.96564E-03     329.342E-03    -163.865E-03    -165.596E-03    -163.320E-03     328.595E-03    -165.395E-03     38.1462E-03     57.1499E+06     50.6703E+06    -39.3112E+06    -38.5809E+06     53.2686E+06     53.8212E+06    -1.01299E+06         53.4374
             415     10.1762E-03     63.9014E-03     108.811E-03     88.2404E-03    -281.380E-03     87.9734E-03    -281.113E-03     108.811E-03     3.56745E-03     330.001E-03    -164.387E-03    -165.919E-03    -164.273E-03     329.389E-03    -165.422E-03     34.7687E-03     43.5765E+06     39.8864E+06    -55.2913E+06    -54.5567E+06     42.8419E+06     39.8864E+06     1.03037E+06         50.7626
             416     9.32544E-03     63.8615E-03     110.969E-03     90.6011E-03    -285.019E-03     90.3927E-03    -284.810E-03     110.969E-03    -7.84498E-03     331.104E-03    -164.861E-03    -166.453E-03    -165.412E-03     330.610E-03    -165.407E-03     31.0017E-03     35.8922E+06     26.4069E+06    -63.9351E+06    -63.1315E+06     25.9648E+06     35.5307E+06     866.158E+03         48.6887
             417     8.48001E-03     63.8261E-03     113.260E-03     93.5945E-03    -289.944E-03     92.8315E-03    -289.181E-03     113.260E-03     16.4239E-03     331.519E-03    -164.994E-03    -166.461E-03    -165.884E-03     331.227E-03    -165.280E-03     23.5512E-03     24.3852E+06    -12.4049E+06    -67.2112E+06    -66.0197E+06    -13.5964E+06     24.3852E+06     2.04790E+06         47.2550
             418     7.63213E-03     63.7949E-03     115.986E-03     101.527E-03    -302.640E-03     100.939E-03    -301.458E-03     115.392E-03     1.38219E-03     331.290E-03    -164.835E-03    -166.139E-03    -165.738E-03     331.112E-03    -165.059E-03     18.4425E-03     11.5786E+06    -51.0125E+06    -74.6754E+06    -69.6522E+06    -56.0357E+06     11.5786E+06     2.24423E+06         46.4821
             419     6.78414E-03     63.7691E-03     120.189E-03     111.688E-03    -318.955E-03     114.793E-03    -318.455E-03     116.585E-03    -25.7041E-03     330.502E-03    -164.692E-03    -165.698E-03    -165.300E-03     330.376E-03    -164.964E-03     15.2080E-03    -6.08731E+06    -70.9948E+06    -100.826E+06    -78.5986E+06    -93.2227E+06    -6.08731E+06     1.55853E+06         46.1906
             420     5.93826E-03     63.7552E-03     120.078E-03     112.110E-03    -316.889E-03     115.045E-03    -316.815E-03     117.068E-03    -10.5779E-03     329.748E-03    -164.678E-03    -165.383E-03    -165.043E-03     329.664E-03    -164.933E-03     12.8305E-03    -28.4227E+06    -87.2110E+06    -134.148E+06    -91.3712E+06    -129.988E+06    -28.4227E+06    -58.1714E+03         46.0488
             421     5.09077E-03     63.7366E-03     118.497E-03     105.317E-03    -305.850E-03     105.201E-03    -305.734E-03     118.497E-03    -4.72290E-03     329.141E-03    -164.196E-03    -165.185E-03    -164.437E-03     329.093E-03    -164.896E-03     8.95958E-03    -41.1702E+06    -95.1953E+06    -154.742E+06    -96.9891E+06    -152.948E+06    -41.1702E+06     2.64886E+06         45.9181
             422     4.24128E-03     63.7266E-03     122.264E-03     106.374E-03    -308.602E-03     106.022E-03    -307.244E-03     121.258E-03    -28.0332E-03     329.140E-03    -164.189E-03    -164.988E-03    -164.319E-03     329.128E-03    -164.847E-03     4.72772E-03    -60.8208E+06    -103.245E+06    -181.184E+06    -104.166E+06    -180.263E+06    -60.8208E+06     4.33288E+06         45.8121
             423     3.39385E-03     63.7204E-03     129.166E-03     112.621E-03    -319.212E-03     115.747E-03    -317.079E-03     123.906E-03    -8.79865E-03     329.894E-03    -164.552E-03    -165.289E-03    -165.113E-03     329.882E-03    -164.717E-03     4.68004E-03    -83.0801E+06    -114.697E+06    -207.502E+06    -115.132E+06    -207.067E+06    -83.0801E+06     99.8827E+03         45.7231
             424     2.54539E-03     63.7162E-03     139.768E-03     119.009E-03    -338.113E-03     131.903E-03    -334.892E-03     123.653E-03    -29.6116E-03     329.667E-03    -164.349E-03    -165.257E-03    -165.248E-03     329.657E-03    -164.349E-03     4.23684E-03    -101.267E+06    -121.124E+06    -227.622E+06    -121.154E+06    -227.439E+06    -101.420E+06     926.299E+03         45.6460
             425     1.69916E-03     63.7127E-03     146.416E-03     109.594E-03    -340.421E-03     133.606E-03    -336.621E-03     118.604E-03    -30.3886E-03     328.663E-03    -163.882E-03    -164.806E-03    -164.801E-03     328.658E-03    -163.882E-03     3.03539E-03    -118.100E+06    -129.446E+06    -248.569E+06    -126.794E+06    -248.327E+06    -120.994E+06    -1.26835E+06         45.5876
             426     848.848E-06     63.7088E-03     228.753E-03     24.5157E-03    -341.425E-03     17.0231E-03    -317.981E-03     212.801E-03     87.0658E-03     327.457E-03    -163.266E-03    -164.202E-03    -164.198E-03     327.452E-03    -163.266E-03     2.22618E-03    -125.816E+06    -133.061E+06    -263.545E+06    -130.955E+06    -262.910E+06    -128.557E+06    -3.77087E+06         45.5545
             427     14.4308E-03     62.8316E-03     106.063E-03     77.9637E-03    -272.539E-03     77.3399E-03    -271.915E-03     106.063E-03    -9.05202E-03     331.520E-03    -164.786E-03    -166.931E-03    -165.067E-03     329.655E-03    -164.786E-03     58.7567E-03     129.023E+06     93.6638E+06    -13.3993E+06    -13.0878E+06     93.3522E+06     129.023E+06     551.041E+03         68.1964
             428     13.5832E-03     62.7171E-03     108.477E-03     76.1389E-03    -273.174E-03     75.6646E-03    -272.700E-03     108.477E-03     9.42410E-03     328.061E-03    -162.393E-03    -165.759E-03    -161.501E-03     326.144E-03    -164.735E-03     59.4483E-03     113.146E+06     86.9397E+06    -14.0638E+06    -13.5417E+06     86.4177E+06     113.146E+06     299.238E+03         64.6365
             429     12.7281E-03     62.6717E-03     111.269E-03     73.4381E-03    -273.036E-03     72.8062E-03    -272.404E-03     111.269E-03     3.51661E-03     325.682E-03    -160.799E-03    -165.010E-03    -159.747E-03     324.630E-03    -165.010E-03     44.9714E-03     88.5059E+06     74.5579E+06    -18.5751E+06    -18.0730E+06     74.0558E+06     88.5059E+06    -264.809E+03         60.5369
             430     11.8760E-03     62.6044E-03     114.242E-03     78.7760E-03    -279.730E-03     78.5580E-03    -279.512E-03     114.242E-03     240.805E-06     326.840E-03    -161.577E-03    -165.349E-03    -160.662E-03     325.926E-03    -165.349E-03     41.9947E-03     65.9695E+06     58.5306E+06    -32.5061E+06    -32.1022E+06     59.4083E+06     64.6880E+06     2.24325E+06         56.7260
             431     11.0232E-03     62.5542E-03     117.200E-03     83.6211E-03    -284.670E-03     83.5685E-03    -284.618E-03     117.200E-03     6.51595E-03     328.265E-03    -162.886E-03    -165.573E-03    -162.253E-03     327.620E-03    -165.561E-03     35.3664E-03     54.7848E+06     46.7720E+06    -44.9301E+06    -44.3898E+06     50.3479E+06     50.6685E+06     3.57027E+06         53.4659
             432     10.1688E-03     62.5093E-03     120.177E-03     88.2830E-03    -292.442E-03     88.1434E-03    -292.303E-03     120.177E-03     2.90445E-03     330.737E-03    -164.825E-03    -166.227E-03    -164.986E-03     330.268E-03    -165.598E-03     30.0551E-03     54.6489E+06     46.7050E+06    -46.6334E+06    -46.0816E+06     52.3448E+06     48.4573E+06     1.23727E+06         50.7802
             433     9.32594E-03     62.4642E-03     123.063E-03     96.1054E-03    -303.714E-03     95.9766E-03    -303.585E-03     123.063E-03    -6.46008E-03     332.345E-03    -165.504E-03    -167.041E-03    -166.688E-03     331.992E-03    -165.504E-03     26.1420E-03     44.3989E+06     24.1087E+06    -51.8202E+06    -51.1266E+06     26.7720E+06     41.0420E+06    -4.73010E+06         48.6970
             434     8.48085E-03     62.4307E-03     125.645E-03     105.048E-03    -316.231E-03     104.193E-03    -315.377E-03     125.645E-03     18.9754E-03     332.276E-03    -165.293E-03    -166.966E-03    -166.725E-03     332.035E-03    -165.293E-03     21.7709E-03     26.3149E+06    -16.5129E+06    -64.1075E+06    -62.7965E+06    -17.8238E+06     26.3149E+06      57.565E+03         47.2536
             435     7.63575E-03     62.4023E-03     127.911E-03     111.236E-03    -328.172E-03     110.183E-03    -327.120E-03     127.911E-03     9.51509E-03     330.784E-03    -164.774E-03    -165.847E-03    -165.465E-03     330.626E-03    -164.998E-03     17.4568E-03     6.75266E+06    -52.7874E+06    -79.0129E+06    -72.9037E+06    -58.8966E+06     6.75266E+06     2.53434E+06         46.4662
             436     6.78676E-03     62.3820E-03     132.915E-03     113.617E-03    -336.010E-03     116.305E-03    -335.688E-03     129.906E-03    -11.3508E-03     329.988E-03    -164.735E-03    -165.112E-03    -164.734E-03     329.882E-03    -165.007E-03     14.2395E-03    -7.36762E+06    -72.4966E+06    -103.020E+06    -78.6444E+06    -96.8725E+06    -7.36762E+06    -1.66048E+06         46.1589
             437     5.93633E-03     62.3599E-03     134.640E-03     119.362E-03    -340.172E-03     121.492E-03    -339.293E-03     131.630E-03     20.5915E-03     329.900E-03    -164.597E-03    -165.376E-03    -164.826E-03     329.830E-03    -165.077E-03     11.6057E-03    -20.5075E+06    -78.4168E+06    -129.820E+06    -84.8331E+06    -123.403E+06    -20.5075E+06    -53.1658E+03         46.0149
             438     5.08998E-03     62.3466E-03     133.563E-03     122.547E-03    -338.997E-03     121.781E-03    -338.135E-03     133.467E-03     10.2956E-03     329.193E-03    -163.939E-03    -165.335E-03    -164.180E-03     329.146E-03    -165.046E-03     9.34842E-03    -43.9171E+06    -97.0015E+06    -158.339E+06    -99.4969E+06    -155.843E+06    -43.9171E+06     701.907E+03         45.8964
             439     4.24177E-03     62.3384E-03     136.091E-03     122.299E-03    -339.920E-03     122.364E-03    -339.780E-03     135.886E-03    -8.22484E-03     329.261E-03    -164.170E-03    -165.030E-03    -164.158E-03     329.231E-03    -165.011E-03     7.50697E-03    -63.7608E+06    -109.572E+06    -182.177E+06    -109.941E+06    -181.808E+06    -63.7608E+06     2.02389E+06         45.8108
             440     3.39134E-03     62.3311E-03     142.408E-03     127.008E-03    -351.449E-03     130.187E-03    -350.513E-03     138.293E-03     19.2159E-03     329.925E-03    -164.802E-03    -165.114E-03    -164.923E-03     329.908E-03    -164.975E-03     5.65484E-03    -84.5144E+06    -115.275E+06    -205.923E+06    -115.555E+06    -205.643E+06    -84.5144E+06     1.61503E+06         45.7394
             441     2.54424E-03     62.3246E-03     152.447E-03     133.382E-03    -370.727E-03     145.777E-03    -368.701E-03     138.026E-03    -9.37899E-03     330.044E-03    -164.766E-03    -165.267E-03    -165.171E-03     330.035E-03    -164.854E-03     3.92266E-03    -101.222E+06    -121.469E+06    -228.231E+06    -121.649E+06    -228.051E+06    -101.222E+06     768.562E+03         45.6657
             442     1.69576E-03     62.3235E-03     157.754E-03     129.393E-03    -374.608E-03     152.777E-03    -371.625E-03     131.389E-03     13.3729E-03     329.658E-03    -164.512E-03    -165.165E-03    -165.081E-03     329.653E-03    -164.592E-03     2.81466E-03    -114.122E+06    -129.238E+06    -243.611E+06    -126.682E+06    -243.425E+06    -116.863E+06     2.07596E+06         45.6082
             443     849.334E-06     62.3220E-03     240.029E-03     35.8517E-03    -366.973E-03     27.9683E-03    -343.138E-03     224.078E-03     109.103E-03     329.008E-03    -164.324E-03    -164.685E-03    -164.683E-03     329.006E-03    -164.324E-03     1.22450E-03    -127.278E+06    -136.099E+06    -266.535E+06    -131.740E+06    -265.942E+06    -132.228E+06    -29.5718E+03         45.5831
             444     14.4291E-03     61.4263E-03     114.981E-03     71.0662E-03    -275.727E-03     69.8441E-03    -274.505E-03     114.981E-03    -19.4080E-03     328.915E-03    -163.330E-03    -165.618E-03    -162.262E-03     327.059E-03    -164.830E-03     59.1101E-03     129.023E+06     94.2387E+06    -11.3438E+06    -11.1321E+06     94.0270E+06     129.023E+06    -3.28269E+06         68.2683
             445     13.5755E-03     61.3455E-03     118.099E-03     77.8451E-03    -286.206E-03     77.5832E-03    -285.945E-03     118.099E-03     4.73541E-03     326.883E-03    -161.943E-03    -165.189E-03    -160.287E-03     324.996E-03    -164.958E-03     59.7151E-03     109.185E+06     82.4016E+06    -14.8506E+06    -14.3186E+06     81.8695E+06     109.185E+06     1.12080E+06         64.6956
             446     12.7222E-03     61.2777E-03     121.129E-03     83.4739E-03    -293.358E-03     83.2433E-03    -293.128E-03     121.129E-03    -8.32384E-03     327.541E-03    -162.673E-03    -165.274E-03    -161.518E-03     326.386E-03    -165.274E-03     47.3321E-03     88.2017E+06     71.0354E+06    -21.1095E+06    -20.1905E+06     70.1164E+06     88.2017E+06     8.71983E+06         60.5917
             447     11.8732E-03     61.2219E-03     124.091E-03     88.8817E-03    -299.835E-03     88.6176E-03    -299.571E-03     124.091E-03    -11.6773E-03     329.601E-03    -163.773E-03    -165.900E-03    -163.442E-03     328.751E-03    -165.381E-03     40.4468E-03     71.9337E+06     62.1220E+06    -30.2399E+06    -29.5456E+06     62.7093E+06     70.6522E+06     7.04069E+06         56.7785
             448     11.0212E-03     61.1664E-03     126.968E-03     95.6615E-03    -306.533E-03     95.1544E-03    -306.026E-03     126.968E-03     7.19409E-03     330.312E-03    -164.226E-03    -166.272E-03    -164.571E-03     329.756E-03    -165.371E-03     32.8293E-03     60.2198E+06     52.8234E+06    -42.0614E+06    -41.7393E+06     55.4648E+06     57.2562E+06    -482.072E+03         53.5103
             449     10.1799E-03     61.1120E-03     129.931E-03     96.6478E-03    -309.897E-03     96.0977E-03    -309.347E-03     129.931E-03     1.46216E-03     330.858E-03    -165.177E-03    -165.937E-03    -165.459E-03     330.512E-03    -165.310E-03     25.9645E-03     61.5083E+06     53.7223E+06    -40.6779E+06    -40.2817E+06     59.3597E+06     55.4746E+06    -5.94089E+06         50.8096
             450     9.32869E-03     61.0737E-03     132.843E-03     105.819E-03    -323.165E-03     105.616E-03    -322.962E-03     132.843E-03    -14.3612E-03     330.200E-03    -164.557E-03    -165.708E-03    -164.791E-03     329.943E-03    -165.217E-03     22.5022E-03     46.2306E+06     24.6848E+06    -48.9455E+06    -48.6472E+06     28.7381E+06     41.8789E+06    -4.09389E+06         48.7028
             451     8.48011E-03     61.0339E-03     135.131E-03     118.664E-03    -341.685E-03     118.238E-03    -341.259E-03     135.131E-03     15.9759E-03     329.654E-03    -163.837E-03    -165.709E-03    -164.198E-03     329.451E-03    -165.145E-03     19.5713E-03     23.3821E+06    -23.5899E+06    -67.5924E+06    -65.2351E+06    -25.9472E+06     23.3821E+06    -1.34273E+06         47.2264
             452     7.63132E-03     61.0123E-03     137.053E-03     121.135E-03    -347.361E-03     120.627E-03    -346.854E-03     137.053E-03     8.97659E-03     329.855E-03    -164.195E-03    -165.470E-03    -164.450E-03     329.695E-03    -165.055E-03     17.5620E-03     11.7175E+06    -52.2386E+06    -74.3817E+06    -69.6107E+06    -57.0095E+06     11.7175E+06     729.538E+03         46.4105
             453     6.78445E-03     60.9898E-03     139.362E-03     119.666E-03    -347.718E-03     119.288E-03    -347.341E-03     139.362E-03    -13.7577E-03     330.520E-03    -165.018E-03    -165.409E-03    -165.193E-03     330.384E-03    -165.098E-03     16.2634E-03    -7.41331E+06    -74.2962E+06    -101.806E+06    -80.1968E+06    -95.9056E+06    -7.41331E+06    -730.177E+03         46.1000
             454     5.93907E-03     60.9706E-03     141.833E-03     128.065E-03    -355.628E-03     126.312E-03    -353.874E-03     141.833E-03     34.3844E-03     329.350E-03    -164.092E-03    -165.425E-03    -164.235E-03     329.278E-03    -165.211E-03     11.6358E-03    -24.3563E+06    -87.3489E+06    -134.705E+06    -92.3280E+06    -129.726E+06    -24.3563E+06    -1.20136E+06         45.9736
             455     5.08709E-03     60.9588E-03     144.542E-03     140.115E-03    -367.463E-03     139.716E-03    -365.830E-03     143.308E-03     27.8042E-03     328.496E-03    -163.235E-03    -165.357E-03    -163.190E-03     328.450E-03    -165.357E-03     9.41320E-03    -44.8978E+06    -96.4996E+06    -156.714E+06    -98.9586E+06    -154.255E+06    -44.8978E+06     1.36673E+06         45.8776
             456     4.23694E-03     60.9482E-03     153.120E-03     142.614E-03    -380.974E-03     152.953E-03    -380.807E-03     142.614E-03    -8.44655E-03     329.959E-03    -164.353E-03    -165.509E-03    -164.331E-03     329.919E-03    -165.490E-03     8.89246E-03    -67.4566E+06    -107.271E+06    -183.859E+06    -107.477E+06    -183.653E+06    -67.4566E+06    -232.874E+03         45.8112
             457     3.39177E-03     60.9383E-03     157.335E-03     139.479E-03    -382.738E-03     156.397E-03    -381.800E-03     139.479E-03     28.5604E-03     330.881E-03    -165.330E-03    -165.540E-03    -165.376E-03     330.858E-03    -165.472E-03     6.39721E-03    -84.5311E+06    -114.247E+06    -204.712E+06    -114.299E+06    -204.660E+06    -84.5311E+06    -134.680E+03         45.7557
             458     2.54307E-03     60.9351E-03     146.664E-03     127.215E-03    -359.482E-03     133.858E-03    -357.522E-03     138.060E-03     1.73828E-03     330.617E-03    -165.173E-03    -165.451E-03    -165.214E-03     330.608E-03    -165.401E-03     3.90864E-03    -102.426E+06    -119.808E+06    -227.579E+06    -119.892E+06    -227.494E+06    -102.426E+06     929.311E+03         45.6950
             459     1.69535E-03     60.9307E-03     146.555E-03     117.265E-03    -352.882E-03     115.461E-03    -351.058E-03     146.536E-03     1.79212E-03     330.534E-03    -164.976E-03    -165.589E-03    -165.077E-03     330.530E-03    -165.484E-03     2.49008E-03    -115.577E+06    -126.418E+06    -243.412E+06    -126.544E+06    -243.286E+06    -115.577E+06     1.75970E+06         45.6456
             460     846.807E-06     60.9313E-03     248.657E-03     67.2376E-03    -404.044E-03     59.9904E-03    -396.797E-03     248.657E-03     84.3231E-03     331.239E-03    -165.178E-03    -166.059E-03    -165.325E-03     331.237E-03    -165.912E-03     1.36598E-03    -122.638E+06    -131.444E+06    -261.566E+06    -129.449E+06    -261.352E+06    -124.848E+06     4.11771E+06         45.6257
             461     14.4265E-03     60.0416E-03     122.077E-03     62.6332E-03    -272.886E-03     61.4634E-03    -271.716E-03     122.077E-03    -4.86583E-03     327.928E-03    -162.512E-03    -165.488E-03    -161.245E-03     326.126E-03    -164.953E-03     59.3025E-03     128.374E+06     94.6523E+06    -7.90648E+06    -7.16859E+06     93.9144E+06     128.374E+06     1.62464E+06         68.3577
             462     13.5736E-03     59.9609E-03     125.971E-03     69.3282E-03    -285.515E-03     68.8794E-03    -285.066E-03     125.971E-03     18.2296E-03     329.575E-03    -163.435E-03    -166.276E-03    -163.151E-03     328.046E-03    -165.031E-03     54.3943E-03     108.182E+06     81.3974E+06    -16.7321E+06    -15.7130E+06     80.3782E+06     108.182E+06     4.57757E+06         64.7928
             463     12.7241E-03     59.8890E-03     129.663E-03     82.2061E-03    -302.213E-03     82.1537E-03    -302.161E-03     129.663E-03     5.71843E-03     330.728E-03    -164.325E-03    -166.494E-03    -164.797E-03     329.860E-03    -165.155E-03     40.4977E-03     87.7206E+06     65.3766E+06    -31.1580E+06    -29.9733E+06     64.1919E+06     87.7206E+06     1.77299E+06         60.6828
             464     11.8749E-03     59.8281E-03     132.899E-03     95.8863E-03    -316.640E-03     95.5821E-03    -316.336E-03     132.899E-03    -10.7934E-03     331.327E-03    -164.911E-03    -166.326E-03    -165.674E-03     330.787E-03    -165.023E-03     32.3797E-03     78.1091E+06     63.5036E+06    -31.8183E+06    -30.9550E+06     62.6403E+06     78.1091E+06    -601.410E+03         56.8536
             465     11.0346E-03     59.7702E-03     135.687E-03     107.101E-03    -326.587E-03     105.945E-03    -325.431E-03     135.687E-03     12.6017E-03     330.212E-03    -164.486E-03    -165.927E-03    -165.080E-03     329.762E-03    -164.883E-03     29.8246E-03     72.6782E+06     64.0972E+06    -28.2971E+06    -28.0778E+06     67.8270E+06     68.7292E+06    -636.143E+03         53.5671
             466     10.1814E-03     59.7215E-03     138.178E-03     114.153E-03    -335.440E-03     112.439E-03    -333.726E-03     138.178E-03     2.41772E-03     328.669E-03    -163.806E-03    -165.185E-03    -163.815E-03     328.308E-03    -164.815E-03     26.5705E-03     56.4549E+06     51.3660E+06    -42.8739E+06    -42.5700E+06     56.1510E+06     51.3660E+06    -2.58439E+06         50.8421
             467     9.33522E-03     59.6833E-03     140.565E-03     117.432E-03    -344.037E-03     116.486E-03    -343.091E-03     140.565E-03    -31.5739E-03     327.977E-03    -163.226E-03    -164.821E-03    -162.945E-03     327.696E-03    -164.821E-03     23.3700E-03     41.2250E+06     25.8889E+06    -54.3335E+06    -54.2325E+06     26.9277E+06     40.0852E+06    -1.30179E+06         48.7068
             468     8.48472E-03     59.6474E-03     143.133E-03     117.716E-03    -347.998E-03     117.320E-03    -347.602E-03     143.133E-03     5.84145E-03     327.508E-03    -162.375E-03    -164.873E-03    -162.200E-03     327.333E-03    -164.873E-03     18.0380E-03     26.8100E+06    -18.1845E+06    -61.8129E+06    -59.8009E+06    -20.1964E+06     26.8100E+06    -2.98083E+06         47.1962
             469     7.63262E-03     59.6237E-03     146.139E-03     118.950E-03    -352.705E-03     118.439E-03    -352.194E-03     146.139E-03    -1.10426E-03     327.944E-03    -162.451E-03    -165.047E-03    -162.320E-03     327.813E-03    -165.047E-03     15.9344E-03     10.9687E+06    -58.8701E+06     -75.931E+06    -71.7337E+06    -63.0675E+06     10.9687E+06    -3.16057E+06         46.3517
             470     6.78315E-03     59.5944E-03     149.078E-03     130.346E-03    -365.645E-03     129.495E-03    -364.794E-03     149.078E-03    -37.8892E-03     328.952E-03    -163.381E-03    -165.514E-03    -163.457E-03     328.823E-03    -165.308E-03     15.8078E-03    -8.35065E+06    -80.4955E+06    -99.1583E+06    -84.1310E+06    -95.5229E+06    -8.35065E+06     3.02314E+06         46.0459
             471     5.93408E-03     59.5817E-03     153.995E-03     144.251E-03    -380.670E-03     145.928E-03    -379.139E-03     150.787E-03     4.86838E-03     329.341E-03    -163.918E-03    -165.721E-03    -164.048E-03     329.266E-03    -165.516E-03     12.0373E-03    -30.2564E+06    -90.4367E+06    -132.729E+06    -92.0057E+06    -131.160E+06    -30.2564E+06     14.1758E+03         45.9547
             472     5.08628E-03     59.5720E-03     159.116E-03     149.601E-03    -391.212E-03     156.125E-03    -389.400E-03     150.778E-03     235.463E-06     329.714E-03    -164.167E-03    -165.699E-03    -164.114E-03     329.661E-03    -165.699E-03     10.1526E-03    -46.9516E+06    -98.0308E+06    -157.428E+06    -98.9097E+06    -156.549E+06    -46.9516E+06    -1.23343E+06         45.8865
             473     4.23783E-03     59.5562E-03     163.982E-03     143.603E-03    -393.360E-03     156.926E-03    -392.391E-03     149.689E-03    -36.3080E-03     330.383E-03    -164.580E-03    -165.845E-03    -164.540E-03     330.342E-03    -165.845E-03     8.68931E-03    -66.5663E+06    -105.654E+06    -179.845E+06    -105.874E+06    -179.625E+06    -66.5663E+06     2.16155E+06         45.8218
             474     3.38742E-03     59.5462E-03     162.795E-03     135.520E-03    -385.088E-03     149.051E-03    -384.878E-03     149.054E-03     5.22807E-03     331.167E-03    -165.206E-03    -165.945E-03    -165.238E-03     331.149E-03    -165.895E-03     5.55338E-03    -86.2924E+06    -112.910E+06    -206.152E+06    -112.990E+06    -206.071E+06    -86.2924E+06     313.668E+03         45.7635
             475     2.54141E-03     59.5423E-03     159.675E-03     132.645E-03    -378.055E-03     140.134E-03    -376.806E-03     150.938E-03    -15.7541E-03     331.452E-03    -165.453E-03    -165.953E-03    -165.495E-03     331.445E-03    -165.903E-03     3.30522E-03    -103.470E+06    -121.627E+06    -226.563E+06    -121.663E+06    -226.527E+06    -103.470E+06     671.174E+03         45.7107
             476     1.69351E-03     59.5405E-03     172.745E-03     128.652E-03    -390.435E-03     143.379E-03    -388.344E-03     155.928E-03    -40.6443E-03     331.413E-03    -165.271E-03    -166.163E-03    -165.267E-03     331.409E-03    -166.163E-03     2.46537E-03    -118.098E+06    -125.876E+06    -243.440E+06    -125.915E+06    -243.401E+06    -118.098E+06     617.592E+03         45.6678
             477     846.137E-06     59.5369E-03     222.756E-03     105.970E-03    -415.427E-03     108.271E-03    -405.070E-03     210.098E-03     82.8053E-03     332.888E-03    -165.836E-03    -167.053E-03    -165.955E-03     332.884E-03    -166.930E-03     2.65080E-03    -123.613E+06    -129.548E+06    -257.978E+06    -126.722E+06    -257.945E+06    -126.473E+06    -1.00391E+06         45.6477
             478     14.4218E-03     58.6513E-03     127.720E-03     73.1712E-03    -287.786E-03     70.3090E-03    -284.924E-03     127.720E-03    -19.7510E-03     331.639E-03    -163.952E-03    -167.814E-03    -165.293E-03     330.059E-03    -164.894E-03     55.6971E-03     126.409E+06     92.8571E+06    -13.4805E+06    -12.1117E+06     91.4884E+06     126.409E+06     2.09785E+06         68.4482
             479     13.5780E-03     58.5679E-03     131.525E-03     74.3902E-03    -294.394E-03     73.6269E-03    -293.631E-03     131.525E-03     5.50450E-03     332.881E-03    -164.693E-03    -168.284E-03    -167.046E-03     331.643E-03    -164.693E-03     49.3362E-03     111.056E+06     82.1887E+06    -20.1985E+06    -19.1159E+06     81.1062E+06     111.056E+06    -998.018E+03         64.9064
             480     12.7352E-03     58.4933E-03     135.394E-03     81.5640E-03    -305.981E-03     80.9171E-03    -305.335E-03     135.394E-03     1.83067E-03     332.072E-03    -164.552E-03    -167.473E-03    -166.688E-03     331.286E-03    -164.552E-03     38.8434E-03     86.3785E+06      65.929E+06    -26.7449E+06    -26.1350E+06     67.2705E+06     84.4271E+06    -5.93637E+06         60.7880
             481     11.8918E-03     58.4376E-03     139.058E-03     93.4314E-03    -319.754E-03     92.7616E-03    -319.084E-03     139.058E-03    -2.62298E-03     329.746E-03    -164.065E-03    -165.646E-03    -164.698E-03     329.147E-03    -164.414E-03     33.9286E-03     67.3892E+06     57.6103E+06    -32.5831E+06    -31.9766E+06     58.9552E+06     65.4379E+06    -5.82868E+06         56.9310
             482     11.0360E-03     58.3804E-03     142.267E-03     108.068E-03    -336.481E-03     106.726E-03    -335.139E-03     142.267E-03     13.5411E-03     327.585E-03    -163.150E-03    -164.559E-03    -162.765E-03     327.045E-03    -164.405E-03     32.1189E-03     69.9989E+06     64.2236E+06    -29.7818E+06    -29.6821E+06     66.3909E+06     67.7318E+06    -259.648E+03         53.6178
             483     10.1884E-03     58.3373E-03     144.878E-03     121.812E-03    -353.213E-03     119.645E-03    -351.045E-03     144.878E-03    -2.82285E-03     326.588E-03    -162.376E-03    -164.460E-03    -161.971E-03     326.183E-03    -164.460E-03     28.1233E-03     56.7339E+06     50.9593E+06    -44.5358E+06    -44.2665E+06     55.4667E+06     51.9572E+06     2.76524E+06         50.8692
             484     9.33414E-03     58.2923E-03     147.225E-03     124.140E-03    -358.804E-03     122.715E-03    -357.379E-03     147.225E-03    -31.8623E-03     326.111E-03    -161.658E-03    -164.573E-03    -161.344E-03     325.797E-03    -164.573E-03     24.4682E-03     41.8182E+06     23.8341E+06    -53.4288E+06    -53.1773E+06     26.0923E+06     39.3086E+06     2.96532E+06         48.7134
             485     8.48498E-03     58.2621E-03     149.791E-03     124.264E-03    -361.801E-03     123.691E-03    -361.228E-03     149.791E-03     14.6575E-03     326.664E-03    -161.692E-03    -164.738E-03    -161.466E-03     326.437E-03    -164.738E-03     20.7183E-03     27.2208E+06    -16.8972E+06    -60.7537E+06    -59.3740E+06    -18.2769E+06     27.2208E+06     3.14500E+06         47.1852
             486     7.63569E-03     58.2358E-03     152.431E-03     131.166E-03    -370.120E-03     130.093E-03    -369.047E-03     152.431E-03     20.2883E-03     327.546E-03    -162.291E-03    -164.950E-03    -162.115E-03     327.370E-03    -164.950E-03     18.1483E-03     5.96546E+06    -57.5801E+06    -77.3032E+06    -72.5969E+06    -62.2864E+06     5.96546E+06     3.42532E+06         46.3295
             487     6.78256E-03     58.2107E-03     154.812E-03     138.537E-03    -377.357E-03     137.338E-03    -376.157E-03     154.812E-03    -9.12932E-03     327.296E-03    -162.047E-03    -165.336E-03    -161.945E-03     327.194E-03    -165.336E-03     13.8308E-03    -12.6727E+06    -79.4684E+06    -98.5690E+06    -81.0063E+06    -97.0311E+06    -12.6727E+06     853.941E+03         46.0260
             488     5.93083E-03     58.1891E-03     159.626E-03     148.242E-03    -389.834E-03     149.375E-03    -387.759E-03     156.418E-03     22.4229E-03     328.607E-03    -163.177E-03    -165.689E-03    -163.125E-03     328.555E-03    -165.689E-03     9.78256E-03    -31.8893E+06    -91.1088E+06    -131.474E+06    -91.3476E+06    -131.236E+06    -31.8893E+06    -1.50667E+06         45.9508
             489     5.08362E-03     58.1790E-03     164.309E-03     150.195E-03    -397.180E-03     154.971E-03    -394.755E-03     157.109E-03     15.0172E-03     331.056E-03    -165.059E-03    -166.078E-03    -165.267E-03     331.018E-03    -165.832E-03     8.23803E-03    -46.8051E+06    -97.0663E+06    -156.509E+06    -97.2856E+06    -156.289E+06    -46.8051E+06    -380.225E+03         45.8996
             490     4.23633E-03     58.1657E-03     162.479E-03     143.878E-03    -391.818E-03     146.946E-03    -390.895E-03     158.487E-03    -22.7409E-03     331.223E-03    -165.163E-03    -166.084E-03    -165.383E-03     331.196E-03    -165.837E-03     6.48537E-03    -62.9396E+06    -103.305E+06    -176.549E+06    -103.459E+06    -176.395E+06    -62.9396E+06     687.115E+03         45.8369
             491     3.39001E-03     58.1549E-03     165.339E-03     145.163E-03    -398.098E-03     147.716E-03    -396.713E-03     161.402E-03     34.3890E-03     330.635E-03    -164.760E-03    -165.848E-03    -164.753E-03     330.628E-03    -165.848E-03     3.25243E-03    -86.6871E+06    -115.977E+06    -204.707E+06    -116.124E+06    -204.560E+06    -86.6871E+06     585.749E+03         45.7636
             492     2.54036E-03     58.1492E-03     176.591E-03     154.781E-03    -420.298E-03     167.588E-03    -418.743E-03     162.229E-03     14.5530E-03     331.045E-03    -164.973E-03    -165.984E-03    -164.971E-03     331.044E-03    -165.984E-03     1.49178E-03    -104.589E+06    -123.622E+06    -226.265E+06    -123.650E+06    -226.237E+06    -104.589E+06     146.834E+03         45.6977
             493     1.69362E-03     58.1468E-03     179.653E-03     154.233E-03    -421.449E-03     175.557E-03    -419.690E-03     156.570E-03    -22.8413E-03     331.954E-03    -165.433E-03    -166.534E-03    -165.776E-03     331.953E-03    -166.190E-03     1.38830E-03    -118.573E+06    -127.771E+06    -240.774E+06    -127.792E+06    -240.753E+06    -118.573E+06    -1.21501E+06         45.6500
             494     845.528E-06     58.1445E-03     190.796E-03     119.168E-03    -394.695E-03     125.487E-03    -388.356E-03     178.138E-03     62.6056E-03     332.696E-03    -165.658E-03    -167.037E-03    -166.673E-03     332.692E-03    -166.018E-03     2.29574E-03    -127.182E+06    -135.257E+06    -260.937E+06    -132.465E+06    -260.868E+06    -130.042E+06    -647.463E+03         45.6245
             495     14.4347E-03     57.2518E-03     132.278E-03     76.1914E-03    -294.625E-03     73.0260E-03    -291.460E-03     132.278E-03    -14.8795E-03     334.091E-03    -164.641E-03    -169.667E-03    -168.333E-03     332.757E-03    -164.641E-03     51.5144E-03     132.848E+06     97.7570E+06    -11.7372E+06    -10.7322E+06     96.7520E+06     132.848E+06    -2.01207E+06         68.5079
             496     13.5889E-03     57.1744E-03     135.829E-03     85.1508E-03    -307.498E-03     83.9367E-03    -306.284E-03     135.829E-03     3.87571E-03     330.914E-03    -164.014E-03    -167.083E-03    -165.506E-03     329.575E-03    -164.252E-03     51.2651E-03     108.323E+06     83.5722E+06    -16.0853E+06    -15.4976E+06     82.9845E+06     108.323E+06    -4.28780E+06         64.9670
             497     12.7400E-03     57.0978E-03     139.174E-03     93.3484E-03    -317.668E-03     92.4316E-03    -316.751E-03     139.174E-03    -180.748E-06     329.478E-03    -163.855E-03    -165.746E-03    -164.333E-03     328.375E-03    -164.164E-03     46.1663E-03     81.1627E+06     66.3432E+06    -21.1446E+06    -20.9820E+06     68.1320E+06     79.2114E+06    -2.18209E+06         60.8357
             498     11.8871E-03     57.0512E-03     142.414E-03     99.6679E-03    -328.245E-03     98.5082E-03    -327.085E-03     142.414E-03    -5.34383E-03     328.857E-03    -163.839E-03    -165.021E-03    -163.750E-03     328.007E-03    -164.260E-03     40.8408E-03     67.4823E+06     59.3864E+06    -30.5062E+06    -30.3204E+06     61.1519E+06     65.5310E+06    -2.49001E+06         56.9655
             499     11.0413E-03     56.9950E-03     145.479E-03     110.988E-03    -345.023E-03     108.307E-03    -342.342E-03     145.479E-03     17.2911E-03     327.530E-03    -163.037E-03    -164.582E-03    -162.648E-03     326.829E-03    -164.269E-03     36.7798E-03     58.3275E+06     52.5593E+06    -41.8576E+06    -41.6535E+06     55.7317E+06     54.9510E+06    -828.341E+03         53.6433
             500     10.1874E-03     56.9509E-03     148.300E-03     118.433E-03    -354.923E-03     115.914E-03    -352.404E-03     148.300E-03     19.8793E-03     326.321E-03    -162.137E-03    -164.285E-03    -161.625E-03     325.809E-03    -164.285E-03     31.4408E-03     53.1284E+06     44.3783E+06    -48.2580E+06    -47.9285E+06     51.8010E+06     45.3762E+06     2.87825E+06         50.8869
             501     9.33926E-03     56.9086E-03     151.017E-03     122.543E-03    -362.287E-03     121.831E-03    -361.576E-03     151.017E-03    -10.3823E-03     325.525E-03    -161.151E-03    -164.449E-03    -160.801E-03     325.175E-03    -164.449E-03     25.6921E-03     41.2768E+06     20.8274E+06    -54.6962E+06    -54.3389E+06     24.8458E+06     36.9011E+06     3.51572E+06         48.7239
             502     8.48322E-03     56.8797E-03     153.302E-03     135.562E-03    -376.334E-03     135.050E-03    -375.822E-03     153.302E-03     19.7860E-03     326.483E-03    -161.629E-03    -164.718E-03    -161.392E-03     326.246E-03    -164.718E-03     21.2435E-03     25.2653E+06    -16.8205E+06    -63.3252E+06    -61.7725E+06    -18.3733E+06     25.2653E+06     6.20516E+06         47.1916
             503     7.63200E-03     56.8435E-03     154.757E-03     146.693E-03    -386.661E-03     145.725E-03    -385.693E-03     154.757E-03     19.4750E-03     328.086E-03    -163.063E-03    -164.830E-03    -162.903E-03     327.926E-03    -164.830E-03     17.0010E-03     9.13454E+06    -52.0881E+06    -74.0635E+06    -69.5992E+06    -56.5524E+06     9.13454E+06     5.58704E+06         46.3396
             504     6.78663E-03     56.8245E-03     155.901E-03     147.726E-03    -388.621E-03     146.066E-03    -386.960E-03     155.901E-03    -13.8806E-03     328.087E-03    -163.174E-03    -165.071E-03    -163.101E-03     328.015E-03    -165.071E-03     11.7789E-03    -11.3899E+06    -77.4937E+06    -97.2222E+06    -79.6225E+06    -95.0935E+06    -11.3899E+06     2.45909E+06         46.0349
             505     5.93620E-03     56.8032E-03     157.852E-03     142.107E-03    -384.460E-03     139.538E-03    -381.890E-03     157.852E-03     9.72221E-03     328.442E-03    -163.376E-03    -165.338E-03    -163.335E-03     328.401E-03    -165.338E-03     8.71079E-03    -29.3897E+06    -88.0997E+06    -127.849E+06    -88.9185E+06    -127.030E+06    -29.3897E+06    -449.886E+03         45.9415
             506     5.08537E-03     56.7839E-03     161.321E-03     138.617E-03    -385.230E-03     135.960E-03    -382.572E-03     161.321E-03     7.70131E-03     330.009E-03    -164.360E-03    -165.664E-03    -164.590E-03     329.992E-03    -165.418E-03     5.39312E-03    -46.1140E+06    -98.4732E+06    -155.750E+06    -98.8882E+06    -155.335E+06    -46.1140E+06    -2.63292E+06         45.8787
             507     4.24005E-03     56.7715E-03     165.943E-03     150.626E-03    -402.306E-03     149.936E-03    -400.661E-03     164.987E-03    -36.7853E-03     330.564E-03    -164.751E-03    -165.657E-03    -164.991E-03     330.558E-03    -165.411E-03     3.33940E-03    -64.0178E+06    -107.753E+06    -180.817E+06    -108.351E+06    -180.219E+06    -64.0178E+06     336.732E+03         45.8189
             508     3.39086E-03     56.7660E-03     173.371E-03     163.475E-03    -423.873E-03     168.924E-03    -422.130E-03     166.179E-03     9.90725E-03     329.889E-03    -164.416E-03    -165.367E-03    -164.413E-03     329.886E-03    -165.367E-03     2.60872E-03    -84.8422E+06    -115.907E+06    -202.594E+06    -116.291E+06    -202.209E+06    -84.8422E+06     2.06563E+06         45.7395
             509     2.54305E-03     56.7579E-03     177.435E-03     160.092E-03    -423.596E-03     170.532E-03    -421.535E-03     164.934E-03    -10.1955E-03     330.195E-03    -164.548E-03    -165.586E-03    -164.719E-03     330.193E-03    -165.414E-03     1.46743E-03    -105.871E+06    -123.168E+06    -224.752E+06    -123.195E+06    -224.725E+06    -105.871E+06     113.828E+03         45.6582
             510     1.69360E-03     56.7543E-03     172.538E-03     152.650E-03    -408.096E-03     157.409E-03    -406.589E-03     166.273E-03    -13.5353E-03     331.082E-03    -165.096E-03    -166.008E-03    -165.715E-03     331.082E-03    -165.388E-03     902.074E-06    -119.949E+06    -128.324E+06    -241.530E+06    -128.338E+06    -241.517E+06    -119.949E+06    -893.097E+03         45.6018
             511     849.863E-06     56.7455E-03     192.729E-03     147.024E-03    -422.917E-03     145.913E-03    -420.129E-03     191.053E-03     37.8957E-03     330.693E-03    -164.706E-03    -165.988E-03    -165.704E-03     330.692E-03    -164.989E-03     1.25529E-03    -125.699E+06    -133.558E+06    -261.447E+06    -131.924E+06    -261.362E+06    -127.418E+06    -539.185E+03         45.5722
             512     14.4381E-03     55.8617E-03     134.150E-03     75.4502E-03    -295.509E-03     73.5554E-03    -293.614E-03     134.150E-03    -2.35854E-03     330.560E-03    -163.564E-03    -167.206E-03    -164.546E-03     328.819E-03    -164.482E-03     57.6790E-03     132.958E+06     96.7679E+06    -5.69858E+06    -5.31761E+06     96.3869E+06     132.958E+06    -3.21159E+06         68.5164
             513     13.5871E-03     55.7823E-03     137.631E-03     84.6307E-03    -306.094E-03     83.6012E-03    -305.064E-03     137.631E-03     12.2606E-03     329.021E-03    -164.119E-03    -165.096E-03    -162.967E-03     327.130E-03    -164.357E-03     60.3917E-03     105.029E+06     82.5124E+06    -12.7932E+06    -12.5560E+06     82.2752E+06     105.029E+06    -790.587E+03         64.9508
             514     12.7328E-03     55.7184E-03     140.770E-03     98.0749E-03    -323.904E-03     97.5498E-03    -323.379E-03     140.770E-03     4.50374E-03     328.344E-03    -164.010E-03    -164.568E-03    -162.832E-03     326.998E-03    -164.400E-03     51.2461E-03     82.4001E+06     69.1969E+06    -23.4320E+06    -23.3462E+06     69.1111E+06     82.4001E+06     1.05931E+06         60.8198
             515     11.8859E-03     55.6542E-03     143.429E-03     110.261E-03    -340.445E-03     109.319E-03    -339.503E-03     143.429E-03    -5.33928E-03     329.113E-03    -164.298E-03    -164.884E-03    -163.778E-03     328.159E-03    -164.450E-03     43.0810E-03     67.7299E+06     57.5614E+06    -35.2507E+06    -34.9443E+06     59.4942E+06     65.4908E+06     2.29141E+06         56.9620
             516     11.0349E-03     55.6111E-03     146.005E-03     112.969E-03    -347.380E-03     110.560E-03    -344.971E-03     146.005E-03     16.0129E-03     328.687E-03    -163.965E-03    -164.891E-03    -163.654E-03     327.942E-03    -164.457E-03     38.2736E-03     53.7276E+06     47.0632E+06    -44.8802E+06    -44.4953E+06     52.5077E+06     47.8981E+06     3.09610E+06         53.6467
             517     10.1876E-03     55.5613E-03     149.043E-03     111.490E-03    -350.213E-03     109.024E-03    -347.747E-03     149.043E-03     14.8742E-03     327.722E-03    -163.380E-03    -164.441E-03    -162.781E-03     327.123E-03    -164.441E-03     34.0777E-03     50.2490E+06     42.4727E+06    -49.8427E+06    -49.7112E+06     50.1175E+06     42.4727E+06     1.56062E+06         50.8942
             518     9.33353E-03     55.5260E-03     152.319E-03     118.629E-03    -359.873E-03     117.520E-03    -358.763E-03     152.319E-03    -34.8940E-03     327.993E-03    -163.134E-03    -164.906E-03    -163.224E-03     327.630E-03    -164.454E-03     26.3712E-03       39.24E+06     19.1862E+06    -58.5669E+06    -57.9376E+06     22.7428E+06     35.0540E+06    -1.97524E+06         48.7346
             519     8.48760E-03     55.4896E-03     155.032E-03     133.899E-03    -375.741E-03     133.215E-03    -375.058E-03     155.032E-03    -5.31699E-03     327.923E-03    -162.880E-03    -164.947E-03    -163.118E-03     327.709E-03    -164.495E-03     20.3673E-03     27.2090E+06    -15.4828E+06    -64.5416E+06    -63.4008E+06    -16.6236E+06     27.2090E+06     1.41660E+06         47.2056
             520     7.63931E-03     55.4581E-03     156.898E-03     144.162E-03    -386.869E-03     143.826E-03    -386.533E-03     156.898E-03     2.96706E-03     327.488E-03    -162.888E-03    -164.523E-03    -162.753E-03     327.352E-03    -164.523E-03     15.9959E-03     12.0620E+06    -51.5570E+06    -72.3559E+06    -69.9246E+06    -53.9884E+06     12.0620E+06     3.23324E+06         46.3549
             521     6.78594E-03     55.4331E-03     158.366E-03     148.459E-03    -393.286E-03     147.333E-03    -392.160E-03     158.366E-03    -25.3462E-03     328.492E-03    -163.784E-03    -164.969E-03    -164.027E-03     328.417E-03    -164.651E-03     11.7608E-03    -7.45358E+06    -78.6142E+06    -94.6137E+06    -80.6306E+06    -92.5974E+06    -7.45358E+06     753.357E+03         46.0428
             522     5.93945E-03     55.4152E-03     160.474E-03     144.176E-03    -393.073E-03     141.338E-03    -390.235E-03     160.474E-03     15.5973E-03     328.932E-03    -164.262E-03    -165.060E-03    -164.535E-03     328.887E-03    -164.742E-03     9.29775E-03    -23.4097E+06    -85.6813E+06    -123.397E+06    -87.6554E+06    -121.423E+06    -23.4097E+06     3.83148E+06         45.9272
             523     5.09297E-03     55.3933E-03     163.662E-03     146.178E-03    -398.693E-03     143.048E-03    -395.489E-03     163.588E-03     165.785E-06     328.089E-03    -163.477E-03    -164.753E-03    -163.450E-03     328.062E-03    -164.753E-03     6.77326E-03    -48.6112E+06    -99.8299E+06    -158.527E+06    -101.186E+06    -157.170E+06    -48.6112E+06     1.38351E+06         45.8402
             524     4.24096E-03     55.3834E-03     167.597E-03     155.156E-03    -409.546E-03     153.859E-03    -407.219E-03     166.567E-03    -37.8107E-03     328.478E-03    -163.496E-03    -164.844E-03    -163.485E-03     328.468E-03    -164.844E-03     4.15223E-03    -69.2881E+06    -111.946E+06    -184.802E+06    -112.516E+06    -184.232E+06    -69.2881E+06    -484.459E+03         45.7700
             525     3.39275E-03     55.3748E-03     172.562E-03     155.295E-03    -413.561E-03     157.424E-03    -412.436E-03     169.308E-03     1.41820E-03     329.443E-03    -164.248E-03    -165.122E-03    -164.494E-03     329.438E-03    -164.871E-03     2.91235E-03    -83.3556E+06    -114.311E+06    -200.506E+06    -114.748E+06    -200.068E+06    -83.3556E+06     2.83309E+06         45.6923
             526     2.54376E-03     55.3689E-03     178.661E-03     158.837E-03    -422.305E-03     164.217E-03    -421.144E-03     172.120E-03    -1.95526E-03     329.702E-03    -164.531E-03    -165.190E-03    -165.023E-03     329.700E-03    -164.695E-03     1.98211E-03    -103.953E+06    -120.918E+06    -221.799E+06    -121.014E+06    -221.702E+06    -103.953E+06     2.03901E+06         45.6099
             527     1.69867E-03     55.3602E-03     185.021E-03     162.594E-03    -431.206E-03     172.224E-03    -429.694E-03     173.878E-03     12.8116E-03     329.205E-03    -164.374E-03    -164.844E-03    -164.720E-03     329.203E-03    -164.497E-03     1.42384E-03    -121.304E+06    -128.988E+06    -241.267E+06    -127.822E+06    -241.246E+06    -122.491E+06     555.732E+03         45.5462
             528     846.792E-06     55.3600E-03     185.657E-03     163.782E-03    -437.354E-03     171.465E-03    -436.461E-03     177.081E-03     16.6318E-03     328.973E-03    -164.184E-03    -164.800E-03    -164.286E-03     328.972E-03    -164.697E-03     1.02888E-03    -127.025E+06    -131.791E+06    -261.704E+06    -128.938E+06    -261.651E+06    -129.930E+06    -1.86243E+06         45.5138
             529     14.4269E-03     54.4798E-03     133.765E-03     77.8516E-03    -297.865E-03     76.4216E-03    -296.435E-03     133.765E-03    -3.21297E-03     326.853E-03    -162.108E-03    -164.812E-03    -160.057E-03     324.718E-03    -164.727E-03     63.8687E-03     132.269E+06     96.3574E+06    -1.19655E+06    -943.651E+03     96.1045E+06     132.269E+06     392.611E+03         68.4982
             530     13.5749E-03     54.3898E-03     136.972E-03     87.1518E-03    -309.480E-03     86.3524E-03    -308.680E-03     136.972E-03     6.01884E-03     330.714E-03    -164.790E-03    -166.093E-03    -163.865E-03     328.616E-03    -164.920E-03     63.6688E-03     101.663E+06     73.6323E+06    -22.6245E+06    -22.3671E+06     73.3749E+06     101.663E+06    -266.671E+03         64.9179
             531     12.7313E-03     54.3289E-03     139.891E-03     97.7846E-03    -322.616E-03     97.3256E-03    -322.158E-03     139.891E-03    -7.09371E-03     331.322E-03    -164.834E-03    -166.617E-03    -165.212E-03     329.996E-03    -164.914E-03     51.1759E-03     87.0860E+06     69.1754E+06    -26.7281E+06    -25.9573E+06     68.4046E+06     87.0860E+06     4.69182E+06         60.7981
             532     11.8793E-03     54.2650E-03     142.710E-03     101.862E-03    -331.986E-03     101.453E-03    -331.578E-03     142.710E-03    -6.85919E-03     329.597E-03    -164.268E-03    -165.467E-03    -164.085E-03     328.678E-03    -164.732E-03     42.1690E-03     68.8823E+06     60.5361E+06    -35.4674E+06    -33.8010E+06     61.1088E+06     66.6431E+06     2.70790E+06         56.9545
             533     11.0330E-03     54.2198E-03     145.878E-03     101.819E-03    -338.654E-03     101.094E-03    -337.929E-03     145.878E-03     7.09297E-03     329.074E-03    -164.248E-03    -165.130E-03    -163.941E-03     328.386E-03    -164.749E-03     36.8103E-03     55.3913E+06     50.3080E+06    -45.6372E+06    -44.4424E+06     53.2096E+06     51.2950E+06    -4.07376E+06         53.6444
             534     10.1809E-03     54.1755E-03     149.214E-03     111.458E-03    -352.386E-03     110.369E-03    -351.297E-03     149.214E-03     1.59394E-03     330.042E-03    -164.621E-03    -165.691E-03    -164.988E-03     329.458E-03    -164.741E-03     33.7703E-03     54.6472E+06     50.3968E+06    -46.5489E+06    -46.2821E+06     54.3804E+06     50.3968E+06    -2.22696E+06         50.8976
             535     9.33773E-03     54.1318E-03     152.140E-03     123.860E-03    -364.577E-03     122.841E-03    -363.559E-03     152.140E-03    -36.3710E-03     330.409E-03    -164.546E-03    -165.963E-03    -165.594E-03     330.043E-03    -164.548E-03     26.6771E-03     40.5906E+06     25.1910E+06    -54.9646E+06    -54.1596E+06     26.7793E+06     38.1974E+06    -790.024E+03         48.7444
             536     8.48986E-03     54.0997E-03     154.778E-03     128.595E-03    -369.877E-03     127.720E-03    -369.002E-03     154.778E-03     4.04563E-03     329.410E-03    -163.918E-03    -165.333E-03    -164.723E-03     329.181E-03    -164.299E-03     21.0987E-03     22.0786E+06    -19.6822E+06    -68.2045E+06    -64.9370E+06    -22.9497E+06     22.0786E+06    -2.79852E+06         47.2186
             537     7.63850E-03     54.0734E-03     157.460E-03     133.677E-03    -378.323E-03     132.801E-03    -377.447E-03     157.460E-03     9.26079E-03     328.197E-03    -163.430E-03    -164.652E-03    -163.702E-03     328.039E-03    -164.222E-03     17.5620E-03     11.9980E+06    -50.4455E+06    -77.1015E+06    -72.4998E+06    -55.0472E+06     11.9980E+06     1.77097E+06         46.3649
             538     6.79158E-03     54.0433E-03     159.871E-03     143.476E-03    -392.466E-03     142.855E-03    -391.846E-03     159.871E-03    -20.1094E-03     328.095E-03    -163.529E-03    -164.695E-03    -163.870E-03     327.997E-03    -164.256E-03     13.4702E-03    -5.26414E+06    -73.0792E+06    -94.6467E+06    -80.8361E+06    -86.8898E+06    -5.26414E+06     3.62703E+06         46.0441
             539     5.94334E-03     54.0229E-03     163.564E-03     153.712E-03    -409.087E-03     153.859E-03    -407.133E-03     161.462E-03     28.7088E-03     327.949E-03    -163.605E-03    -164.623E-03    -163.865E-03     327.891E-03    -164.306E-03     10.4456E-03    -27.6095E+06    -90.9415E+06    -126.104E+06    -92.5679E+06    -124.477E+06    -27.6095E+06     2.81956E+06         45.9157
             540     5.09220E-03     54.0093E-03     168.494E-03     160.222E-03    -420.585E-03     163.486E-03    -417.197E-03     161.842E-03    -4.28015E-03     327.692E-03    -163.350E-03    -164.428E-03    -163.400E-03     327.655E-03    -164.342E-03     8.31672E-03    -47.0483E+06    -98.1090E+06    -155.913E+06    -99.3855E+06    -154.637E+06    -47.0483E+06     4.09311E+06         45.8130
             541     4.24333E-03     53.9960E-03     172.939E-03     155.705E-03    -416.153E-03     165.122E-03    -413.907E-03     161.277E-03    -15.8197E-03     328.118E-03    -163.535E-03    -164.532E-03    -163.705E-03     328.104E-03    -164.348E-03     4.71587E-03    -68.1100E+06    -106.273E+06    -182.865E+06    -106.472E+06    -182.666E+06    -68.1100E+06    -795.297E+03         45.7287
             542     3.39373E-03     53.9853E-03     172.864E-03     147.235E-03    -404.325E-03     157.790E-03    -403.265E-03     161.249E-03     47.0419E-03     328.469E-03    -163.819E-03    -164.633E-03    -164.164E-03     328.465E-03    -164.283E-03     2.66825E-03    -84.1139E+06    -114.162E+06    -202.142E+06    -114.364E+06    -201.940E+06    -84.1139E+06    -1.48838E+06         45.6445
             543     2.54768E-03     53.9772E-03     170.856E-03     150.903E-03    -407.299E-03     158.864E-03    -406.514E-03     162.110E-03     33.6746E-03     328.164E-03    -163.617E-03    -164.536E-03    -163.935E-03     328.159E-03    -164.214E-03     2.84125E-03    -98.5460E+06    -119.325E+06    -220.316E+06    -119.463E+06    -220.178E+06    -98.5460E+06     1.41205E+06         45.5640
             544     1.69615E-03     53.9744E-03     172.853E-03     155.037E-03    -414.724E-03     165.157E-03    -413.701E-03     161.710E-03     38.8783E-03     328.223E-03    -163.817E-03    -164.415E-03    -163.948E-03     328.217E-03    -164.277E-03     3.10272E-03    -115.403E+06    -125.753E+06    -238.586E+06    -124.603E+06    -238.549E+06    -116.590E+06     1.50871E+06         45.4984
             545     849.873E-06     53.9703E-03     177.978E-03     148.437E-03    -419.348E-03     162.426E-03    -414.558E-03     159.200E-03    -12.2977E-03     328.870E-03    -164.001E-03    -164.866E-03    -164.632E-03     328.867E-03    -164.231E-03     1.71867E-03    -125.011E+06    -130.423E+06    -262.381E+06    -127.923E+06    -262.314E+06    -127.579E+06     1.37513E+06         45.4621
             546     14.4225E-03     53.0943E-03     131.228E-03     69.8546E-03    -291.262E-03     69.0656E-03    -290.473E-03     131.228E-03     154.214E-06     327.811E-03    -162.737E-03    -165.413E-03    -161.297E-03     326.002E-03    -165.044E-03     59.0267E-03     133.541E+06     96.1516E+06    -6.15563E+06    -5.23370E+06     95.2297E+06     133.541E+06     5.08296E+06         68.5021
             547     13.5721E-03     52.9997E-03     134.407E-03     84.8920E-03    -307.100E-03     84.2975E-03    -306.506E-03     134.407E-03     6.78051E-03     330.634E-03    -164.635E-03    -166.377E-03    -164.264E-03     328.974E-03    -165.088E-03     56.3817E-03     105.472E+06     79.7561E+06    -17.7615E+06    -16.8036E+06     78.7982E+06     105.472E+06     6.73071E+06         64.9341
             548     12.7226E-03     52.9287E-03     137.449E-03     88.1691E-03    -313.078E-03     87.9280E-03    -312.837E-03     137.449E-03    -10.0630E-03     330.687E-03    -164.246E-03    -166.588E-03    -164.734E-03     329.642E-03    -165.054E-03     45.1530E-03     80.4207E+06     67.3174E+06    -31.7864E+06    -28.7297E+06     64.2607E+06     80.4207E+06    -1.98568E+06         60.8083
             549     11.8811E-03     52.8764E-03     140.838E-03     89.2163E-03    -320.776E-03     88.9839E-03    -320.543E-03     140.838E-03    -13.9238E-03     329.966E-03    -164.135E-03    -165.902E-03    -164.239E-03     329.171E-03    -165.004E-03     39.4849E-03     78.5732E+06     71.2461E+06    -30.7254E+06    -26.3384E+06     66.8590E+06     78.5732E+06    -3.04574E+06         56.9545
             550     11.0277E-03     52.8307E-03     144.126E-03     104.744E-03    -340.606E-03     104.088E-03    -339.949E-03     144.126E-03     6.72481E-03     330.553E-03    -164.572E-03    -166.218E-03    -165.187E-03     329.906E-03    -164.956E-03     35.7680E-03     68.1273E+06     61.0717E+06    -34.8299E+06    -33.0991E+06     63.3269E+06     64.1414E+06    -2.45426E+06         53.6447
             551     10.1839E-03     52.7802E-03     146.562E-03     122.199E-03    -358.669E-03     121.694E-03    -358.164E-03     146.562E-03     12.2631E-03     331.047E-03    -164.772E-03    -166.451E-03    -165.916E-03     330.524E-03    -164.784E-03     32.1441E-03     50.9986E+06     44.8090E+06    -46.5295E+06    -46.1417E+06     50.6107E+06     44.8090E+06    -4.51820E+06         50.9021
             552     9.33427E-03     52.7386E-03     148.405E-03     127.228E-03    -363.423E-03     127.146E-03    -363.341E-03     148.405E-03    -10.0306E-03     330.200E-03    -164.563E-03    -165.681E-03    -165.299E-03     329.830E-03    -164.575E-03     26.9118E-03     39.0308E+06     22.5841E+06    -52.5192E+06    -52.0699E+06     24.3385E+06     36.8271E+06     650.202E+03         48.7520
             553     8.48665E-03     52.7097E-03     150.521E-03     125.364E-03    -362.659E-03     124.636E-03    -361.931E-03     150.521E-03     23.8340E-03     330.282E-03    -164.360E-03    -165.738E-03    -165.489E-03     330.033E-03    -164.360E-03     22.1178E-03     22.4897E+06    -17.8049E+06    -67.7667E+06    -63.4639E+06    -22.1078E+06     22.4897E+06     3.20430E+06         47.2291
             554     7.64288E-03     52.6818E-03     153.241E-03     126.485E-03    -368.335E-03     125.248E-03    -367.098E-03     153.241E-03     18.5426E-03     329.967E-03    -164.138E-03    -165.461E-03    -165.271E-03     329.777E-03    -164.138E-03     19.2609E-03     5.70858E+06    -51.8876E+06    -87.8051E+06    -77.5118E+06    -62.1809E+06     5.70858E+06     410.910E+03         46.3761
             555     6.79311E-03     52.6565E-03     156.178E-03     132.935E-03    -379.697E-03     132.209E-03    -378.971E-03     156.178E-03    -14.4060E-03     328.271E-03    -163.661E-03    -164.435E-03    -163.884E-03     328.134E-03    -164.076E-03     16.1363E-03    -7.58382E+06    -73.1327E+06    -99.8615E+06    -82.6942E+06    -90.3000E+06    -7.58382E+06     630.981E+03         46.0513
             556     5.94157E-03     52.6366E-03     160.465E-03     146.030E-03    -398.231E-03     147.476E-03    -397.575E-03     158.363E-03     13.6513E-03     327.663E-03    -163.436E-03    -164.360E-03    -163.608E-03     327.590E-03    -164.115E-03     11.7074E-03    -22.7200E+06    -85.0875E+06    -118.667E+06    -85.5121E+06    -118.242E+06    -22.7200E+06     1.64217E+06         45.9157
             557     5.09380E-03     52.6210E-03     165.539E-03     155.782E-03    -412.312E-03     160.510E-03    -410.462E-03     158.961E-03    -13.6217E-03     328.167E-03    -163.826E-03    -164.426E-03    -164.128E-03     328.134E-03    -164.089E-03     7.97958E-03    -42.7297E+06    -94.6374E+06    -151.320E+06    -95.0247E+06    -150.933E+06    -42.7297E+06     821.686E+03         45.7995
             558     4.24645E-03     52.6062E-03     169.527E-03     156.869E-03    -412.585E-03     166.797E-03    -410.926E-03     157.939E-03    -32.8508E-03     327.813E-03    -163.668E-03    -164.176E-03    -163.835E-03     327.791E-03    -163.986E-03     5.90728E-03    -64.2634E+06    -105.231E+06    -181.469E+06    -105.476E+06    -181.223E+06    -64.2634E+06    -490.693E+03         45.6997
             559     3.39886E-03     52.5994E-03     170.465E-03     155.049E-03    -407.826E-03     169.544E-03    -407.144E-03     155.289E-03     6.48007E-03     327.223E-03    -163.197E-03    -163.983E-03    -163.278E-03     327.205E-03    -163.885E-03     4.94939E-03    -84.1270E+06    -113.778E+06    -204.373E+06    -113.858E+06    -204.293E+06    -84.1270E+06    -1.47021E+06         45.6093
             560     2.54502E-03     52.5913E-03     161.205E-03     149.340E-03    -394.599E-03     155.537E-03    -392.731E-03     153.141E-03    -25.5743E-03     327.231E-03    -163.169E-03    -163.974E-03    -163.161E-03     327.224E-03    -163.974E-03     3.65715E-03    -99.8178E+06    -120.140E+06    -223.595E+06    -120.205E+06    -223.530E+06    -99.8178E+06    -1.51835E+06         45.5307
             561     1.69703E-03     52.5866E-03     155.846E-03     145.471E-03    -391.658E-03     143.650E-03    -389.837E-03     155.846E-03    -10.7286E-03     327.872E-03    -163.547E-03    -164.328E-03    -163.607E-03     327.866E-03    -164.262E-03     3.12120E-03    -113.161E+06    -124.501E+06    -238.775E+06    -124.554E+06    -238.722E+06    -113.161E+06     786.201E+03         45.4659
             562     847.007E-06     52.5787E-03     202.869E-03     119.658E-03    -416.562E-03     191.377E-03    -411.645E-03     126.233E-03    -50.5243E-03     328.947E-03    -163.672E-03    -165.265E-03    -164.302E-03     328.943E-03    -164.630E-03     2.59216E-03    -123.036E+06    -129.757E+06    -259.044E+06    -128.451E+06    -258.969E+06    -124.416E+06     2.50735E+06         45.4277
             563     14.4277E-03     51.7001E-03     126.577E-03     68.0451E-03    -286.567E-03     67.6086E-03    -286.130E-03     126.577E-03    -3.77525E-03     330.441E-03    -164.317E-03    -166.545E-03    -164.326E-03     328.827E-03    -164.923E-03     56.2879E-03     127.579E+06     91.2205E+06    -16.3517E+06    -14.1551E+06     89.0238E+06     127.579E+06     1.75561E+06         68.5176
             564     13.5810E-03     51.6110E-03     129.810E-03     71.8493E-03    -291.108E-03     71.7360E-03    -290.994E-03     129.810E-03     6.41061E-03     328.751E-03    -163.752E-03    -165.413E-03    -162.751E-03     327.222E-03    -164.885E-03     54.2461E-03     112.741E+06     87.6633E+06    -14.6965E+06    -12.9958E+06     85.9626E+06     112.741E+06     1.71136E+06         64.9642
             565     12.7311E-03     51.5391E-03     133.165E-03     78.5981E-03    -302.916E-03     78.5890E-03    -302.906E-03     133.165E-03     189.502E-06     327.538E-03    -162.827E-03    -164.968E-03    -161.850E-03     326.561E-03    -164.968E-03     43.2939E-03     87.4069E+06     75.1209E+06    -19.2071E+06    -16.4506E+06     74.8281E+06     84.9432E+06    -2.00936E+06         60.8241
             566     11.8730E-03     51.4875E-03     136.326E-03     92.0968E-03    -320.861E-03     91.9828E-03    -320.747E-03     136.326E-03    -8.31992E-03     329.141E-03    -163.949E-03    -165.337E-03    -163.508E-03     328.414E-03    -165.052E-03     37.7818E-03     69.6707E+06     62.8299E+06    -31.9889E+06    -27.5104E+06     61.6285E+06     66.3935E+06    -5.26035E+06         56.9537
             567     11.0306E-03     51.4342E-03     138.929E-03     106.456E-03    -335.882E-03     106.005E-03    -335.431E-03     138.929E-03     8.55497E-03     330.681E-03    -164.819E-03    -166.093E-03    -165.129E-03     329.990E-03    -165.091E-03     36.8935E-03     67.1064E+06     61.5640E+06    -34.4888E+06    -32.0405E+06     62.5755E+06     63.6466E+06     2.84785E+06         53.6414
             568     10.1826E-03     51.3879E-03     141.125E-03     114.241E-03    -343.734E-03     113.571E-03    -343.065E-03     141.125E-03     1.51182E-03     330.707E-03    -164.718E-03    -166.096E-03    -165.311E-03     330.111E-03    -164.907E-03     34.0881E-03     47.9502E+06     43.0144E+06    -46.4897E+06    -45.6487E+06     46.9063E+06     43.2174E+06     3.80316E+06         50.9003
             569     9.33467E-03     51.3517E-03     143.243E-03     119.035E-03    -350.128E-03     118.554E-03    -349.648E-03     143.243E-03    -23.7306E-03     330.429E-03    -164.765E-03    -165.688E-03    -165.269E-03     330.021E-03    -164.777E-03     28.1863E-03     33.1013E+06     16.3888E+06    -60.7393E+06    -60.4335E+06     18.1695E+06     31.0148E+06     1.34264E+06         48.7535
             570     8.48641E-03     51.3153E-03     145.214E-03     126.763E-03    -359.713E-03     126.083E-03    -359.033E-03     145.214E-03     3.15530E-03     330.631E-03    -164.610E-03    -165.840E-03    -165.568E-03     330.359E-03    -164.610E-03     23.0519E-03     25.2487E+06    -13.9874E+06    -69.1373E+06    -66.1533E+06    -16.9714E+06     25.2487E+06     2.62590E+06         47.2373
             571     7.63735E-03     51.2905E-03     146.993E-03     133.637E-03    -367.002E-03     132.682E-03    -365.909E-03     146.856E-03     2.92247E-03     330.469E-03    -164.317E-03    -165.682E-03    -165.486E-03     330.272E-03    -164.317E-03     19.6389E-03     8.27971E+06    -49.2347E+06    -79.6194E+06    -70.3567E+06    -58.4974E+06     8.27971E+06    -2.43577E+06         46.3916
             572     6.79080E-03     51.2692E-03     149.520E-03     134.011E-03    -369.939E-03     134.086E-03    -368.912E-03     148.417E-03    -20.2786E-03     329.734E-03    -164.131E-03    -165.418E-03    -165.171E-03     329.586E-03    -164.230E-03     16.9188E-03    -6.91756E+06    -75.4930E+06    -96.3942E+06    -78.8132E+06    -93.0739E+06    -6.91756E+06    -4.73082E+06         46.0702
             573     5.94412E-03     51.2482E-03     151.085E-03     137.164E-03    -374.394E-03     136.818E-03    -373.084E-03     150.119E-03     17.5348E-03     329.034E-03    -164.004E-03    -165.159E-03    -164.973E-03     328.947E-03    -164.103E-03     12.7767E-03    -21.9594E+06    -87.4306E+06    -121.397E+06    -87.8034E+06    -121.024E+06    -21.9594E+06    -733.890E+03         45.9286
             574     5.09598E-03     51.2296E-03     152.144E-03     138.675E-03    -376.622E-03     137.695E-03    -375.642E-03     152.144E-03     18.2477E-03     327.799E-03    -163.474E-03    -164.391E-03    -163.883E-03     327.759E-03    -163.942E-03     8.63804E-03    -41.3172E+06    -93.4751E+06    -150.498E+06    -94.0751E+06    -149.898E+06    -41.3172E+06     814.442E+03         45.7951
             575     4.24560E-03     51.2222E-03     154.852E-03     139.352E-03    -379.935E-03     138.970E-03    -379.553E-03     154.852E-03    -11.1080E-03     326.959E-03    -163.038E-03    -163.951E-03    -163.013E-03     326.929E-03    -163.946E-03     7.48067E-03    -64.0860E+06    -104.876E+06    -179.860E+06    -105.220E+06    -179.516E+06    -64.0860E+06     744.672E+03         45.6859
             576     3.39330E-03     51.2115E-03     160.862E-03     148.035E-03    -393.525E-03     150.085E-03    -392.013E-03     157.301E-03     17.0598E-03     327.400E-03    -163.378E-03    -164.057E-03    -163.485E-03     327.378E-03    -163.929E-03     6.04746E-03    -86.1336E+06    -114.987E+06    -205.061E+06    -115.104E+06    -204.944E+06    -86.1336E+06    -1.48637E+06         45.6011
             577     2.54825E-03     51.2058E-03     170.583E-03     153.732E-03    -408.859E-03     164.501E-03    -405.976E-03     156.931E-03    -245.937E-06     327.755E-03    -163.646E-03    -164.058E-03    -163.840E-03     327.746E-03    -163.855E-03     3.97275E-03    -102.252E+06    -119.806E+06    -224.558E+06    -119.960E+06    -224.405E+06    -102.252E+06    -1.60039E+06         45.5242
             578     1.69808E-03     51.1974E-03     170.373E-03     148.987E-03    -407.626E-03     164.547E-03    -405.503E-03     152.690E-03     6.53083E-03     327.541E-03    -163.502E-03    -164.037E-03    -163.654E-03     327.535E-03    -163.879E-03     3.03641E-03    -115.235E+06    -125.787E+06    -240.294E+06    -125.855E+06    -240.225E+06    -115.235E+06     267.098E+03         45.4579
             579     849.099E-06     51.1944E-03     226.057E-03     76.7796E-03    -394.142E-03     219.666E-03    -390.419E-03     79.4473E-03    -37.4835E-03     327.907E-03    -163.117E-03    -164.781E-03    -163.197E-03     327.903E-03    -164.697E-03     2.69609E-03    -123.133E+06    -132.501E+06    -256.356E+06    -128.869E+06    -256.335E+06    -126.786E+06     148.188E+03         45.4195
             580     14.4331E-03     50.3122E-03     120.855E-03     67.8660E-03    -280.436E-03     67.6645E-03    -280.234E-03     120.855E-03    -2.82883E-03     330.945E-03    -164.705E-03    -166.578E-03    -164.849E-03     329.253E-03    -164.743E-03     57.5708E-03     129.801E+06     95.7720E+06    -13.8532E+06    -11.8300E+06     93.7489E+06     129.801E+06    -2.02965E+06         68.4964
             581     13.5803E-03     50.2224E-03     123.698E-03     71.4824E-03    -287.668E-03     71.4358E-03    -287.621E-03     123.698E-03     4.18132E-03     327.754E-03    -163.062E-03    -164.919E-03    -161.529E-03     326.063E-03    -164.761E-03     57.2122E-03     116.140E+06     87.9460E+06    -13.0994E+06    -11.8062E+06     86.6527E+06     116.140E+06    -4.11514E+06         64.9378
             582     12.7261E-03     50.1570E-03     126.391E-03     83.8579E-03    -300.551E-03     83.8060E-03    -300.499E-03     126.391E-03    -5.51271E-03     327.425E-03    -162.670E-03    -164.987E-03    -161.537E-03     326.291E-03    -164.987E-03     46.8001E-03     96.6491E+06     75.4630E+06    -12.5009E+06    -11.8048E+06     77.2305E+06     94.1854E+06     1.96416E+06         60.8022
             583     11.8819E-03     50.0949E-03     128.771E-03     92.3304E-03    -310.923E-03     92.2482E-03    -310.840E-03     128.771E-03    -10.4458E-03     328.590E-03    -163.846E-03    -165.071E-03    -163.060E-03     327.805E-03    -165.071E-03     39.0987E-03     70.6074E+06     55.8724E+06    -27.8404E+06    -24.5628E+06     61.7976E+06     61.4047E+06     4.55592E+06         56.9404
             584     11.0266E-03     50.0463E-03     131.279E-03     92.2091E-03    -312.276E-03     91.8380E-03    -311.905E-03     131.279E-03     10.9901E-03     328.878E-03    -164.004E-03    -165.174E-03    -163.327E-03     328.201E-03    -165.174E-03     36.4147E-03     53.2315E+06     45.5014E+06    -47.3225E+06    -43.4810E+06     48.7027E+06     46.1888E+06     1.33632E+06         53.6308
             585     10.1760E-03     49.9960E-03     134.170E-03     95.1209E-03    -318.476E-03     94.4755E-03    -317.831E-03     134.170E-03     1.55720E-03     329.908E-03    -164.405E-03    -165.618E-03    -164.300E-03     329.331E-03    -165.146E-03     33.3491E-03     51.2355E+06     49.6356E+06    -50.2892E+06    -48.2693E+06     48.3253E+06     50.5258E+06     6.87884E+06         50.8912
             586     9.33000E-03     49.9562E-03     137.009E-03     106.210E-03    -333.555E-03     105.738E-03    -333.082E-03     137.009E-03    -20.8441E-03     330.835E-03    -164.876E-03    -165.873E-03    -165.333E-03     330.436E-03    -165.017E-03     27.9530E-03     37.6409E+06     26.2788E+06    -54.4464E+06    -52.9782E+06     25.2165E+06     37.2350E+06     4.94606E+06         48.7481
             587     8.48386E-03     49.9255E-03     139.103E-03     122.457E-03    -349.860E-03     121.897E-03    -349.301E-03     139.103E-03     2.20879E-03     330.755E-03    -164.872E-03    -165.583E-03    -165.282E-03     330.455E-03    -164.872E-03     24.2465E-03     23.3193E+06    -17.0339E+06    -61.5874E+06    -59.4063E+06    -19.2151E+06     23.3193E+06    -5.86712E+06         47.2367
             588     7.63712E-03     49.8982E-03     141.477E-03     135.952E-03    -364.222E-03     136.455E-03    -363.254E-03     140.006E-03     783.678E-06     330.949E-03    -164.677E-03    -165.887E-03    -165.680E-03     330.742E-03    -164.677E-03     20.0834E-03     15.6406E+06    -50.4788E+06    -68.2779E+06    -64.2661E+06    -54.4906E+06     15.6406E+06    -3.70381E+06         46.3987
             589     6.78877E-03     49.8773E-03     144.623E-03     139.834E-03    -370.309E-03     143.608E-03    -369.294E-03     139.834E-03    -23.8561E-03     330.989E-03    -164.547E-03    -166.400E-03    -166.249E-03     330.838E-03    -164.547E-03     17.2610E-03    -3.43523E+06    -72.5853E+06    -91.0645E+06    -75.3550E+06    -88.2948E+06    -3.43523E+06     837.425E+03         46.0829
             590     5.94248E-03     49.8546E-03     142.991E-03     135.304E-03    -362.538E-03     136.995E-03    -360.911E-03     139.673E-03     17.6408E-03     329.379E-03    -163.992E-03    -165.527E-03    -165.057E-03     329.275E-03    -164.358E-03     14.1378E-03    -27.7999E+06    -89.6398E+06    -128.518E+06    -90.1364E+06    -128.022E+06    -27.7999E+06    -2.59707E+06         45.9387
             591     5.09413E-03     49.8459E-03     142.107E-03     128.857E-03    -355.629E-03     128.466E-03    -353.925E-03     140.794E-03     13.2552E-03     327.979E-03    -163.419E-03    -164.545E-03    -163.649E-03     327.917E-03    -164.253E-03     10.8778E-03    -44.7932E+06    -98.5131E+06    -154.769E+06    -99.0619E+06    -154.221E+06    -44.7932E+06    -918.934E+03         45.8085
             592     4.24374E-03     49.8354E-03     144.462E-03     128.515E-03    -359.100E-03     128.832E-03    -358.105E-03     143.150E-03     776.566E-06     328.295E-03    -163.634E-03    -164.639E-03    -164.008E-03     328.254E-03    -164.224E-03     8.73753E-03    -64.7822E+06    -104.605E+06    -177.938E+06    -104.856E+06    -177.687E+06    -64.7822E+06     2.11457E+06         45.7106
             593     3.39759E-03     49.8235E-03     145.938E-03     135.972E-03    -369.639E-03     134.122E-03    -367.789E-03     145.938E-03     35.4811E-03     328.392E-03    -163.930E-03    -164.504E-03    -164.363E-03     328.373E-03    -164.052E-03     5.82740E-03    -85.7253E+06    -110.822E+06    -203.151E+06    -110.950E+06    -203.022E+06    -85.7253E+06    -842.113E+03         45.6298
             594     2.54585E-03     49.8166E-03     156.537E-03     143.338E-03    -387.255E-03     151.571E-03    -385.398E-03     146.446E-03     13.1056E-03     327.909E-03    -163.810E-03    -164.079E-03    -164.070E-03     327.899E-03    -163.810E-03     4.15821E-03    -104.029E+06    -119.407E+06    -225.142E+06    -119.607E+06    -224.941E+06    -104.029E+06    -1.54580E+06         45.5507
             595     1.69850E-03     49.8118E-03     161.004E-03     136.847E-03    -385.566E-03     152.108E-03    -383.144E-03     143.321E-03     38.7820E-03     327.670E-03    -163.623E-03    -164.059E-03    -164.050E-03     327.662E-03    -163.623E-03     3.94102E-03    -116.060E+06    -124.507E+06    -241.156E+06    -124.600E+06    -241.063E+06    -116.060E+06    -962.695E+03         45.4847
             596     849.527E-06     49.8051E-03     238.913E-03     52.6122E-03    -377.119E-03     223.473E-03    -367.943E-03     58.8763E-03    -59.4476E-03     327.167E-03    -162.873E-03    -164.290E-03    -163.662E-03     327.161E-03    -163.494E-03     3.27334E-03    -119.802E+06    -126.845E+06    -256.418E+06    -123.234E+06    -256.375E+06    -123.455E+06    -1.57649E+06         45.4477
             597     14.4281E-03     48.9162E-03     114.124E-03     64.2371E-03    -268.564E-03     63.9555E-03    -268.282E-03     114.124E-03    -8.66093E-03     328.381E-03    -163.097E-03    -165.552E-03    -162.246E-03     326.675E-03    -164.697E-03     57.5746E-03     128.712E+06     96.2061E+06    -7.86038E+06    -6.90229E+06     95.2480E+06     128.712E+06    -5.02207E+06         68.4471
             598     13.5800E-03     48.8412E-03     116.429E-03     76.8171E-03    -282.620E-03     76.6653E-03    -282.469E-03     116.429E-03    -2.41414E-03     328.771E-03    -163.874E-03    -165.088E-03    -162.522E-03     327.094E-03    -164.764E-03     57.0841E-03     112.798E+06     85.7584E+06    -12.0856E+06    -11.4129E+06     85.0857E+06     112.798E+06    -787.737E+03         64.8772
             599     12.7307E-03     48.7676E-03     118.409E-03     84.8491E-03    -289.876E-03     84.3903E-03    -289.417E-03     118.409E-03    -20.6437E-03     328.012E-03    -163.330E-03    -165.017E-03    -162.178E-03     326.810E-03    -164.966E-03     48.4704E-03     82.6099E+06     64.2785E+06    -27.1627E+06    -26.7874E+06     63.9032E+06     82.6099E+06     788.071E+03         60.7587
             600     11.8746E-03     48.7063E-03     120.362E-03     88.1220E-03    -295.079E-03     87.6350E-03    -294.592E-03     120.362E-03    -24.1535E-03     328.784E-03    -163.840E-03    -165.311E-03    -163.204E-03     327.936E-03    -165.098E-03     40.4713E-03     71.8757E+06     55.8652E+06    -31.3278E+06    -29.5055E+06     59.9685E+06     65.9501E+06     7.47366E+06         56.9189
             601     11.0298E-03     48.6592E-03     122.187E-03     97.1172E-03    -306.070E-03     96.3741E-03    -305.327E-03     122.187E-03     13.0504E-03     329.274E-03    -164.178E-03    -165.391E-03    -163.786E-03     328.669E-03    -165.178E-03     34.5298E-03     68.1295E+06     55.7560E+06    -35.2763E+06    -31.8908E+06     60.4775E+06     60.0225E+06     7.63171E+06         53.6210
             602     10.1808E-03     48.6053E-03     123.880E-03     98.7600E-03    -312.106E-03     98.1046E-03    -311.450E-03     123.880E-03     21.6637E-03     328.545E-03    -163.474E-03    -165.161E-03    -162.975E-03     328.046E-03    -165.161E-03     31.1304E-03     57.3195E+06     51.7954E+06    -44.3451E+06    -39.9481E+06     49.9858E+06     54.7322E+06     831.870E+03         50.8854
             603     9.32949E-03     48.5655E-03     125.824E-03     98.2331E-03    -315.039E-03     98.1732E-03    -314.979E-03     125.824E-03     221.036E-06     328.757E-03    -163.362E-03    -165.258E-03    -163.083E-03     328.389E-03    -165.169E-03     26.7777E-03     46.2796E+06     33.9566E+06    -46.1245E+06    -42.6059E+06     30.8439E+06     45.8737E+06    -808.399E+03         48.7408
             604     8.47986E-03     48.5333E-03     127.624E-03     110.280E-03    -326.455E-03     109.770E-03    -325.945E-03     127.624E-03     21.7433E-03     330.175E-03    -164.461E-03    -165.468E-03    -164.451E-03     329.887E-03    -165.190E-03     23.7816E-03     28.9875E+06    -13.1792E+06    -53.5936E+06    -52.1674E+06    -14.6054E+06     28.9875E+06    -751.864E+03         47.2269
             605     7.63151E-03     48.5068E-03     130.091E-03     118.393E-03    -336.342E-03     119.071E-03    -335.686E-03     128.757E-03     23.9586E-03     331.249E-03    -165.012E-03    -165.976E-03    -165.655E-03     331.012E-03    -165.096E-03     21.6365E-03     9.02067E+06    -59.6464E+06    -72.9612E+06    -69.0184E+06    -63.5892E+06     9.02067E+06    -986.961E+03         46.3885
             606     6.78686E-03     48.4819E-03     133.319E-03     117.170E-03    -336.840E-03     120.630E-03    -336.613E-03     129.632E-03    -2.81549E-03     330.891E-03    -164.805E-03    -166.079E-03    -165.673E-03     330.711E-03    -165.032E-03     18.7502E-03    -5.66584E+06    -74.4777E+06    -94.8675E+06    -77.2496E+06    -92.0955E+06    -5.66584E+06     1.16127E+06         46.0764
             607     5.93883E-03     48.4682E-03     134.707E-03     122.057E-03    -341.147E-03     125.358E-03    -340.161E-03     130.420E-03     22.2047E-03     329.544E-03    -164.344E-03    -165.374E-03    -164.589E-03     329.432E-03    -165.017E-03     14.7732E-03    -23.2715E+06    -83.2399E+06    -124.103E+06    -83.7725E+06    -123.571E+06    -23.2715E+06     981.872E+03         45.9494
             608     5.08820E-03     48.4575E-03     138.157E-03     128.695E-03    -352.512E-03     134.542E-03    -350.545E-03     130.343E-03    -3.99694E-03     329.751E-03    -164.550E-03    -165.255E-03    -164.727E-03     329.669E-03    -164.996E-03     12.7018E-03    -44.9285E+06    -95.4253E+06    -156.077E+06    -95.8692E+06    -155.634E+06    -44.9285E+06    -383.350E+03         45.8495
             609     4.24275E-03     48.4423E-03     135.399E-03     129.129E-03    -353.295E-03     133.383E-03    -351.670E-03     129.520E-03    -8.85219E-03     330.505E-03    -164.850E-03    -165.614E-03    -165.554E-03     330.444E-03    -164.850E-03     10.8520E-03    -61.8908E+06    -102.813E+06    -178.273E+06    -102.833E+06    -178.253E+06    -61.8908E+06    -113.279E+03         45.7687
             610     3.39391E-03     48.4349E-03     129.984E-03     123.427E-03    -343.718E-03     122.555E-03    -342.846E-03     129.984E-03     7.48467E-03     329.985E-03    -164.482E-03    -165.431E-03    -165.401E-03     329.954E-03    -164.482E-03     7.53167E-03    -80.3744E+06    -108.977E+06    -200.435E+06    -109.078E+06    -200.335E+06    -80.3744E+06     2.10979E+06         45.6852
             611     2.54761E-03     48.4282E-03     134.351E-03     114.046E-03    -337.186E-03     113.435E-03    -336.575E-03     134.351E-03    -30.8173E-03     328.932E-03    -164.049E-03    -164.815E-03    -164.803E-03     328.920E-03    -164.049E-03     4.71990E-03    -101.607E+06    -116.120E+06    -224.534E+06    -116.268E+06    -224.386E+06    -101.607E+06     746.026E+03         45.6014
             612     1.69755E-03     48.4232E-03     144.603E-03     119.507E-03    -353.753E-03     117.505E-03    -351.751E-03     144.603E-03     13.6058E-03     327.953E-03    -163.693E-03    -164.269E-03    -164.221E-03     327.946E-03    -163.734E-03     3.67674E-03    -117.470E+06    -121.562E+06    -241.781E+06    -121.689E+06    -241.653E+06    -117.470E+06    -2.58014E+06         45.5349
             613     849.421E-06     48.4180E-03     267.411E-03     45.1982E-03    -393.238E-03     246.703E-03    -383.486E-03     56.1540E-03    -83.3603E-03     327.428E-03    -163.332E-03    -164.099E-03    -164.038E-03     327.422E-03    -163.387E-03     3.30483E-03    -121.910E+06    -125.817E+06    -262.015E+06    -125.920E+06    -261.912E+06    -121.910E+06    -2.29785E+06         45.5010
             614     14.4270E-03     47.5344E-03     105.968E-03     67.2621E-03    -263.229E-03     67.1784E-03    -263.145E-03     105.968E-03    -6.28266E-03     327.866E-03    -162.402E-03    -165.346E-03    -161.476E-03     326.244E-03    -164.650E-03     56.1226E-03     123.169E+06     94.0839E+06    -7.65044E+06    -6.62378E+06     93.0572E+06     123.169E+06    -746.811E+03         68.4197
             615     13.5762E-03     47.4430E-03     107.645E-03     74.2666E-03    -267.021E-03     74.0037E-03    -266.758E-03     107.645E-03    -560.110E-06     328.435E-03    -163.533E-03    -164.910E-03    -162.390E-03     326.968E-03    -164.585E-03     53.3684E-03     92.6980E+06     72.4959E+06    -28.5170E+06    -26.5474E+06     70.5263E+06     92.6980E+06    -8.42407E+06         64.8485
             616     12.7267E-03     47.3831E-03     109.176E-03     80.1396E-03    -273.927E-03     79.5526E-03    -273.340E-03     109.176E-03    -6.51377E-03     328.667E-03    -163.772E-03    -165.029E-03    -162.874E-03     327.530E-03    -164.790E-03     47.0097E-03     79.3791E+06     64.9125E+06    -32.7027E+06    -30.6128E+06     62.8225E+06     79.3791E+06    -1.64941E+06         60.7409
             617     11.8793E-03     47.3168E-03     110.573E-03     86.3333E-03    -281.385E-03     85.8873E-03    -280.939E-03     110.573E-03    -13.5333E-03     328.838E-03    -163.520E-03    -165.431E-03    -163.081E-03     327.998E-03    -165.030E-03     40.3646E-03     71.3844E+06     61.2350E+06    -33.4417E+06    -33.1035E+06     60.8969E+06     71.3844E+06     3.06491E+06         56.9128
             618     11.0297E-03     47.2643E-03     111.662E-03     95.6036E-03    -289.534E-03     95.1261E-03    -289.057E-03     111.662E-03     6.86141E-03     328.662E-03    -163.574E-03    -165.362E-03    -163.103E-03     327.977E-03    -165.150E-03     36.5364E-03     70.4079E+06     64.2208E+06    -34.2116E+06    -31.6509E+06     64.0013E+06     68.0668E+06    -1.21330E+06         53.6184
             619     10.1806E-03     47.2210E-03     112.557E-03     98.6759E-03    -297.949E-03     97.6345E-03    -296.908E-03     112.557E-03    -693.996E-06     328.000E-03    -162.962E-03    -165.227E-03    -162.355E-03     327.393E-03    -165.227E-03     34.4410E-03     64.0826E+06     56.9692E+06    -38.5633E+06    -32.6165E+06     55.8864E+06     59.2186E+06    -321.337E+03         50.8822
             620     9.32845E-03     47.1768E-03     115.489E-03     100.274E-03    -304.864E-03     100.470E-03    -303.039E-03     113.467E-03    -36.6330E-03     327.970E-03    -162.567E-03    -165.308E-03    -162.110E-03     327.512E-03    -165.308E-03     29.6512E-03     46.5814E+06     29.7027E+06    -49.6941E+06    -45.9078E+06     28.4392E+06     44.0585E+06     2.06949E+06         48.7348
             621     8.47825E-03     47.1424E-03     116.336E-03     103.188E-03    -305.279E-03     103.879E-03    -303.948E-03     114.315E-03    -11.0570E-03     329.205E-03    -163.429E-03    -165.401E-03    -163.134E-03     328.911E-03    -165.401E-03     23.9532E-03     26.3064E+06    -13.8097E+06    -60.4437E+06    -60.0192E+06    -14.2342E+06     26.3064E+06     2.49649E+06         47.2158
             622     7.63045E-03     47.1146E-03     115.493E-03     99.6445E-03    -300.264E-03     99.4078E-03    -300.027E-03     115.493E-03     6.88442E-03     330.181E-03    -164.175E-03    -165.645E-03    -164.072E-03     329.935E-03    -165.502E-03     22.0162E-03     7.46054E+06    -56.5796E+06    -73.2357E+06    -68.9576E+06    -60.8576E+06     7.46054E+06     333.807E+03         46.3714
             623     6.78004E-03     47.0896E-03     117.364E-03     98.7598E-03    -301.062E-03     98.5856E-03    -300.888E-03     117.364E-03    -5.31494E-03     330.527E-03    -164.635E-03    -165.837E-03    -164.602E-03     330.350E-03    -165.694E-03     18.2213E-03    -7.48759E+06    -77.2014E+06    -95.8990E+06    -77.3380E+06    -95.7624E+06    -7.48759E+06    -243.719E+03         46.0673
             624     5.93113E-03     47.0794E-03     120.955E-03     108.645E-03    -314.067E-03     110.132E-03    -313.619E-03     119.021E-03     16.6753E-03     330.969E-03    -165.230E-03    -165.906E-03    -165.213E-03     330.868E-03    -165.823E-03     14.0213E-03    -24.1509E+06    -84.4986E+06    -124.702E+06     -84.958E+06    -124.243E+06    -24.1509E+06     39.1152E+03         45.9710
             625     5.08609E-03     47.0633E-03     126.224E-03     112.083E-03    -327.415E-03     117.439E-03    -326.270E-03     119.723E-03    -9.90531E-03     331.726E-03    -165.682E-03    -166.123E-03    -165.962E-03     331.646E-03    -165.762E-03     12.5562E-03    -42.8251E+06    -92.2529E+06    -153.892E+06    -92.7245E+06    -153.421E+06    -42.8251E+06    -746.255E+03         45.9017
             626     4.23741E-03     47.0532E-03     125.512E-03     114.608E-03    -334.142E-03     119.148E-03    -333.072E-03     119.902E-03    -18.3618E-03     331.852E-03    -165.594E-03    -166.222E-03    -166.170E-03     331.799E-03    -165.594E-03     10.0201E-03    -60.1212E+06    -102.014E+06    -179.335E+06    -102.041E+06    -179.309E+06    -60.1212E+06    -468.805E+03         45.8330
             627     3.39185E-03     47.0433E-03     125.472E-03     114.397E-03    -334.534E-03     119.313E-03    -333.993E-03     120.014E-03     13.4999E-03     331.482E-03    -165.254E-03    -166.157E-03    -166.131E-03     331.456E-03    -165.254E-03     6.97378E-03    -78.3647E+06    -111.236E+06    -200.585E+06    -111.331E+06    -200.489E+06    -78.3647E+06     1.23167E+06         45.7486
             628     2.54428E-03     47.0396E-03     130.743E-03     102.505E-03    -324.329E-03     110.985E-03    -323.932E-03     121.866E-03     8.38672E-03     330.614E-03    -164.802E-03    -165.733E-03    -165.719E-03     330.600E-03    -164.802E-03     5.25206E-03    -95.7903E+06    -115.264E+06    -220.614E+06    -115.373E+06    -220.505E+06    -95.7903E+06     1.99409E+06         45.6607
             629     1.69847E-03     47.0350E-03     132.113E-03     107.805E-03    -326.867E-03     111.473E-03    -326.072E-03     127.650E-03     19.9770E-03     329.297E-03    -164.374E-03    -164.913E-03    -164.860E-03     329.286E-03    -164.416E-03     4.51440E-03    -115.093E+06    -120.925E+06    -239.850E+06    -121.042E+06    -239.711E+06    -115.115E+06     801.627E+03         45.5901
             630     848.270E-06     47.0324E-03     222.354E-03     48.2446E-03    -348.593E-03     209.014E-03    -341.168E-03     54.1598E-03    -77.1299E-03     328.788E-03    -164.256E-03    -164.528E-03    -164.366E-03     328.780E-03    -164.411E-03     3.68105E-03    -126.982E+06    -131.118E+06    -265.823E+06    -130.144E+06    -265.675E+06    -128.104E+06    -968.344E+03         45.5537
             631     14.4353E-03     46.1361E-03     145.000E-03     25.3198E-03    -257.459E-03     73.6263E-03    -256.773E-03     96.0073E-03     16.4705E-03     330.457E-03    -163.954E-03    -166.289E-03    -164.089E-03     328.944E-03    -164.640E-03     54.6169E-03     131.535E+06     100.735E+06    -4.82852E+06    -3.95306E+06     99.8599E+06     131.535E+06     4.37886E+06         68.4411
             632     13.5829E-03     46.0713E-03     140.516E-03     26.2509E-03    -259.481E-03     69.0416E-03    -258.688E-03     96.9327E-03     6.24593E-03     328.003E-03    -163.410E-03    -164.561E-03    -162.109E-03     326.604E-03    -164.463E-03     52.2344E-03     103.418E+06     84.9769E+06    -17.4581E+06    -14.2871E+06     81.8060E+06     103.418E+06      -94.28E+03         64.8834
             633     12.7305E-03     45.9838E-03     140.983E-03     48.3760E-03    -262.206E-03     90.9610E-03    -261.207E-03     97.3990E-03     13.7319E-03     328.361E-03    -163.488E-03    -164.882E-03    -162.672E-03     327.278E-03    -164.616E-03     45.5172E-03     78.3642E+06     64.6113E+06    -37.9403E+06    -30.2902E+06     59.3154E+06     76.0099E+06    -9.09270E+06         60.7723
             634     11.8808E-03     45.9336E-03     108.058E-03     51.3888E-03    -255.965E-03     59.7440E-03    -254.696E-03     98.4330E-03     1.19841E-03     327.240E-03    -162.100E-03    -165.105E-03    -161.485E-03     326.437E-03    -164.917E-03     39.5805E-03     68.8868E+06     58.8395E+06    -40.1668E+06    -35.4352E+06     56.4622E+06     66.5326E+06    -9.42501E+06         56.9333
             635     11.0268E-03     45.8750E-03     109.680E-03     72.7940E-03    -255.605E-03     81.5670E-03    -254.754E-03     100.056E-03    -3.39521E-03     326.206E-03    -161.151E-03    -165.176E-03    -160.450E-03     325.505E-03    -165.176E-03     36.6493E-03     62.5626E+06      57.561E+06    -39.5438E+06    -37.5735E+06     58.2293E+06     59.9241E+06    -3.63634E+06         53.6278
             636     10.1744E-03     45.8336E-03     101.434E-03     76.6957E-03    -269.613E-03     75.6902E-03    -268.607E-03     101.434E-03    -9.64114E-03     327.676E-03    -162.386E-03    -165.368E-03    -161.787E-03     327.077E-03    -165.368E-03     34.1464E-03     52.9634E+06     47.7928E+06    -52.1076E+06    -48.6556E+06     49.5023E+06     47.8019E+06     3.31843E+06         50.8842
             637     9.32671E-03     45.7879E-03     104.389E-03     97.2757E-03    -284.537E-03     97.4597E-03    -282.699E-03     102.367E-03    -39.9934E-03     329.076E-03    -163.472E-03    -165.403E-03    -162.992E-03     328.596E-03    -165.403E-03     30.2630E-03     38.4183E+06     26.7166E+06    -56.4410E+06    -54.6245E+06     27.4230E+06     35.8954E+06     6.79189E+06         48.7337
             638     8.47716E-03     45.7549E-03     104.630E-03     96.0207E-03    -286.578E-03     96.2065E-03    -284.742E-03     102.608E-03    -929.103E-06     329.037E-03    -163.041E-03    -165.585E-03    -162.757E-03     328.753E-03    -165.585E-03     23.5305E-03     23.5799E+06    -14.2773E+06    -61.8754E+06    -60.4907E+06    -15.6620E+06     23.5799E+06    -665.990E+03         47.2107
             639     7.62508E-03     45.7240E-03     104.142E-03     94.1310E-03    -284.214E-03     94.3077E-03    -283.411E-03     103.163E-03     12.4404E-03     329.017E-03    -162.889E-03    -165.869E-03    -162.667E-03     328.794E-03    -165.869E-03     20.7858E-03     11.2792E+06    -52.7467E+06    -72.1566E+06    -69.1318E+06    -55.7715E+06     11.2792E+06    -255.722E+03         46.3632
             640     6.77677E-03     45.7000E-03     104.826E-03     96.3292E-03    -288.474E-03     97.0906E-03    -288.256E-03     103.846E-03    -6.44564E-03     330.282E-03    -164.096E-03    -166.163E-03    -163.953E-03     330.139E-03    -166.163E-03     16.3992E-03    -8.57627E+06    -76.5135E+06    -95.8559E+06    -79.3299E+06    -93.0395E+06    -8.57627E+06     1.20110E+06         46.0654
             641     5.92981E-03     45.6822E-03     104.703E-03     96.2893E-03    -288.547E-03     96.0125E-03    -288.270E-03     104.703E-03     11.8237E-03     331.712E-03    -165.402E-03    -166.478E-03    -165.402E-03     331.628E-03    -166.395E-03     12.8885E-03    -26.5368E+06    -86.5091E+06    -125.810E+06    -86.8724E+06    -125.447E+06    -26.5368E+06    -1.07519E+06         45.9833
             642     5.08151E-03     45.6694E-03     106.420E-03     92.0381E-03    -287.160E-03     91.4551E-03    -286.577E-03     106.420E-03    -6.64210E-03     332.498E-03    -166.031E-03    -166.596E-03    -166.152E-03     332.423E-03    -166.401E-03     12.1863E-03    -44.1197E+06    -94.8600E+06    -153.877E+06    -95.3017E+06    -153.435E+06    -44.1197E+06    -2.29823E+06         45.9286
             643     4.23696E-03     45.6577E-03     109.779E-03     96.2108E-03    -297.381E-03     96.8314E-03    -296.958E-03     108.735E-03    -19.7926E-03     332.823E-03    -166.206E-03    -166.600E-03    -166.456E-03     332.771E-03    -166.297E-03     9.99087E-03    -64.4609E+06    -105.536E+06    -181.806E+06    -105.687E+06    -181.654E+06    -64.4609E+06    -2.08336E+06         45.8713
             644     3.38906E-03     45.6505E-03     120.047E-03     104.964E-03    -315.985E-03     115.670E-03    -315.659E-03     109.016E-03     14.4544E-03     332.418E-03    -165.932E-03    -166.409E-03    -166.207E-03     332.393E-03    -166.108E-03     6.96892E-03    -81.8158E+06    -112.008E+06    -202.553E+06    -112.061E+06    -202.500E+06    -81.8158E+06    -964.954E+03         45.7942
             645     2.54226E-03     45.6461E-03     129.487E-03     103.994E-03    -324.745E-03     128.878E-03    -324.136E-03     103.994E-03     12.8595E-03     332.032E-03    -165.739E-03    -166.198E-03    -166.007E-03     332.017E-03    -165.916E-03     5.37172E-03    -97.0406E+06    -118.671E+06    -222.037E+06    -118.703E+06    -222.005E+06    -97.0406E+06     160.628E+03         45.7141
             646     1.69328E-03     45.6451E-03     119.364E-03     93.0324E-03    -300.140E-03     116.473E-03    -298.472E-03     94.2558E-03     28.5871E-03     331.995E-03    -165.634E-03    -166.342E-03    -166.332E-03     331.984E-03    -165.634E-03     4.12354E-03    -111.133E+06    -123.864E+06    -237.833E+06    -123.955E+06    -237.720E+06    -111.155E+06     2.99789E+06         45.6483
             647     848.071E-06     45.6417E-03     142.939E-03     55.8339E-03    -283.166E-03     120.248E-03    -261.698E-03     57.0573E-03    -83.9354E-03     331.086E-03    -165.198E-03    -165.879E-03    -165.728E-03     331.081E-03    -165.345E-03     2.05582E-03    -121.076E+06    -129.390E+06    -260.770E+06    -124.840E+06    -260.568E+06    -125.827E+06     3.01625E+06         45.6090
             648     14.4296E-03     44.7518E-03     264.558E-03    -16.5378E-03    -332.986E-03     51.1215E-03    -220.723E-03     84.6353E-03    -34.6060E-03     331.098E-03    -164.242E-03    -166.962E-03    -164.808E-03     329.444E-03    -164.742E-03     57.1271E-03     132.267E+06     98.2134E+06    -9.38374E+06    -9.15254E+06     97.9822E+06     132.267E+06    -616.418E+03         68.4865
             649     13.5819E-03     44.6756E-03     259.107E-03    -32.8727E-03    -292.427E-03     98.2345E-03    -249.021E-03     84.5934E-03     26.2914E-03     330.953E-03    -164.620E-03    -166.273E-03    -164.579E-03     329.259E-03    -164.620E-03     57.8510E-03     118.716E+06     92.5076E+06    -12.0403E+06    -10.3703E+06     90.8376E+06     118.716E+06     4.27290E+06         64.9408
             650     12.7344E-03     44.6024E-03     181.278E-03    -13.4360E-03    -284.104E-03     35.8536E-03    -237.319E-03     85.2033E-03     3.33617E-03     328.194E-03    -162.979E-03    -165.298E-03    -162.411E-03     326.987E-03    -164.658E-03     48.1118E-03     90.3323E+06     75.1331E+06    -23.7070E+06    -14.8149E+06     71.0059E+06     85.5674E+06     230.879E+03         60.8230
             651     11.8802E-03     44.5470E-03     148.396E-03     33.9697E-03    -247.893E-03     88.1671E-03    -239.975E-03     86.2805E-03    -15.5715E-03     326.142E-03    -161.394E-03    -164.828E-03    -160.548E-03     325.295E-03    -164.828E-03     40.5231E-03     57.5678E+06     45.9608E+06    -41.4056E+06    -33.6789E+06     47.7449E+06     48.0571E+06    -6.34086E+06         56.9679
             652     11.0292E-03     44.4937E-03     98.7004E-03     55.2540E-03    -250.553E-03     62.4405E-03    -245.693E-03     86.6546E-03     8.47723E-03     326.680E-03    -161.715E-03    -165.086E-03    -161.046E-03     326.011E-03    -165.086E-03     35.8125E-03     51.6267E+06     40.4963E+06    -46.1990E+06    -45.2610E+06     46.7830E+06     44.4020E+06    -556.598E+03         53.6537
             653     10.1761E-03     44.4459E-03     96.5055E-03     71.6381E-03    -252.785E-03     79.4994E-03    -251.520E-03     87.3791E-03    -4.32260E-03     327.633E-03    -162.404E-03    -165.305E-03    -161.911E-03     327.141E-03    -165.305E-03     30.8712E-03     50.1941E+06     44.3327E+06    -52.4472E+06    -51.8014E+06     47.7297E+06     46.1512E+06     1.46995E+06         50.9042
             654     9.32444E-03     44.3960E-03     94.1791E-03     74.4488E-03    -249.428E-03     81.0180E-03    -249.292E-03     87.4739E-03     3.22300E-03     328.181E-03    -162.620E-03    -165.414E-03    -162.259E-03     327.821E-03    -165.414E-03     25.9618E-03     34.9467E+06     27.9811E+06    -61.5719E+06    -61.1169E+06     29.0900E+06     33.3827E+06    -1.45879E+06         48.7464
             655     8.47604E-03     44.3648E-03     88.1086E-03     73.1900E-03    -248.475E-03     72.2438E-03    -247.528E-03     88.1086E-03     25.3674E-03     328.744E-03    -162.872E-03    -165.642E-03    -162.655E-03     328.528E-03    -165.642E-03     20.5149E-03     22.4627E+06    -11.8272E+06    -65.9374E+06    -64.0641E+06    -13.7005E+06     22.4627E+06    -524.424E+03         47.2159
             656     7.62749E-03     44.3369E-03     89.8886E-03     82.6102E-03    -256.856E-03     82.5337E-03    -255.800E-03     88.9089E-03     19.9536E-03     329.204E-03    -163.130E-03    -165.880E-03    -162.971E-03     329.044E-03    -165.880E-03     17.5643E-03     9.97080E+06    -53.8003E+06    -73.2752E+06    -70.6177E+06    -56.4577E+06     9.97080E+06          757.75         46.3615
             657     6.77607E-03     44.3085E-03     90.4530E-03     80.9796E-03    -259.336E-03     81.7342E-03    -259.111E-03     89.4733E-03    -13.4773E-03     329.304E-03    -163.131E-03    -166.194E-03    -163.032E-03     329.205E-03    -166.194E-03     13.6639E-03    -7.61306E+06    -76.2465E+06    -93.7982E+06    -80.5081E+06    -89.5367E+06    -7.61306E+06     40.7286E+03         46.0582
             658     5.92654E-03     44.2896E-03     94.6785E-03     82.3837E-03    -264.136E-03     86.5532E-03    -263.620E-03     89.9933E-03     6.94137E-03     330.288E-03    -163.993E-03    -166.593E-03    -163.924E-03     330.220E-03    -166.593E-03     11.4659E-03    -27.2346E+06    -90.6864E+06    -125.803E+06    -90.8322E+06    -125.657E+06    -27.2346E+06     280.219E+03         45.9732
             659     5.07991E-03     44.2741E-03     98.3170E-03     83.2389E-03    -267.427E-03     90.8887E-03    -266.740E-03     89.9806E-03     1.53569E-03     331.964E-03    -165.306E-03    -166.830E-03    -165.241E-03     331.899E-03    -166.830E-03     11.3133E-03    -46.4974E+06    -98.0475E+06    -154.738E+06    -98.3017E+06    -154.484E+06    -46.4974E+06     420.672E+03         45.9195
             660     4.23105E-03     44.2624E-03     94.7723E-03     82.6417E-03    -262.904E-03     86.8601E-03    -262.409E-03     90.0584E-03    -5.59681E-03     333.055E-03    -166.059E-03    -166.971E-03    -166.035E-03     333.008E-03    -166.948E-03     9.16477E-03    -66.2525E+06    -104.413E+06    -179.925E+06    -104.597E+06    -179.741E+06    -66.2525E+06    -1.69496E+06         45.8711
             661     3.38579E-03     44.2559E-03     97.2337E-03     81.5788E-03    -263.034E-03     87.8594E-03    -262.678E-03     90.5973E-03     18.2947E-03     333.396E-03    -166.351E-03    -167.004E-03    -166.352E-03     333.374E-03    -166.981E-03     6.30869E-03    -85.8705E+06    -112.840E+06    -205.062E+06    -112.886E+06    -205.016E+06    -85.8705E+06    -1.67286E+06         45.8090
             662     2.53785E-03     44.2542E-03     107.236E-03     75.9615E-03    -273.069E-03     92.0972E-03    -272.589E-03     90.6201E-03     6.28812E-03     334.052E-03    -166.683E-03    -167.294E-03    -167.042E-03     334.039E-03    -166.923E-03     4.81244E-03    -102.259E+06    -119.772E+06    -226.630E+06    -119.794E+06    -226.607E+06    -102.259E+06    -1.24635E+06         45.7444
             663     1.69362E-03     44.2478E-03     110.158E-03     77.9648E-03    -281.201E-03     98.4240E-03    -279.159E-03     87.6567E-03     32.5006E-03     333.973E-03    -166.504E-03    -167.443E-03    -167.288E-03     333.969E-03    -166.654E-03     2.45694E-03    -112.388E+06    -122.903E+06    -238.689E+06    -122.998E+06    -238.594E+06    -112.388E+06    -806.412E+03         45.6938
             664     847.460E-06     44.2478E-03     121.843E-03     69.2322E-03    -280.086E-03     80.7425E-03    -258.981E-03     89.2281E-03    -68.1467E-03     333.086E-03    -166.163E-03    -166.917E-03    -166.720E-03     333.086E-03    -166.359E-03     745.627E-06    -114.612E+06    -127.656E+06    -256.742E+06    -124.185E+06    -256.584E+06    -118.241E+06     1.67393E+06         45.6653
             665     14.4239E-03     43.3633E-03     649.079E-03    -57.4662E-03    -700.427E-03     15.0507E-03    -197.546E-03     73.6801E-03    -112.337E-03     329.058E-03    -163.348E-03    -165.813E-03    -162.799E-03     327.516E-03    -164.820E-03     54.6533E-03     129.706E+06     95.7104E+06    -10.6887E+06    -10.6290E+06     95.6507E+06     129.706E+06    -1.72396E+06         68.5355
             666     13.5780E-03     43.2762E-03     647.316E-03    -59.9686E-03    -556.759E-03     164.239E-03    -205.568E-03     71.9177E-03     16.7640E-03     330.498E-03    -164.025E-03    -166.420E-03    -163.883E-03     328.800E-03    -164.864E-03     57.8273E-03     106.637E+06     80.2216E+06    -21.4538E+06    -21.0235E+06     79.7912E+06     106.637E+06    -5.13983E+06         64.9790
             667     12.7294E-03     43.2170E-03     381.959E-03    -57.4378E-03    -581.900E-03    -104.457E-03    -227.370E-03     74.4485E-03    -21.8542E-03     329.616E-03    -163.776E-03    -166.001E-03    -163.558E-03     328.374E-03    -164.977E-03     49.1783E-03     95.5049E+06     74.7522E+06    -17.9721E+06    -14.4504E+06     73.6410E+06     93.0943E+06     5.05924E+06         60.8597
             668     11.8781E-03     43.1605E-03     381.756E-03    -7.15458E-03    -302.255E-03     234.409E-03    -236.308E-03     74.2456E-03    -9.82842E-03     328.809E-03    -163.492E-03    -165.454E-03    -163.072E-03     327.926E-03    -164.992E-03     41.5909E-03     76.6791E+06     61.7794E+06    -22.3333E+06    -18.0880E+06     64.6905E+06     69.5226E+06     11.6906E+06         57.0077
             669     11.0273E-03     43.1052E-03     121.383E-03    -9.72599E-03    -298.467E-03    -24.0102E-03    -234.474E-03     71.6742E-03     9.97174E-03     329.103E-03    -164.129E-03    -165.217E-03    -163.681E-03     328.409E-03    -164.972E-03     36.8145E-03     46.7482E+06     37.7866E+06    -44.4591E+06    -41.2983E+06     39.3717E+06     42.0023E+06    -3.97928E+06         53.6935
             670     10.1816E-03     43.0550E-03     129.542E-03     60.1250E-03    -228.419E-03     114.645E-03    -226.525E-03     73.1274E-03    -26.3681E-03     328.592E-03    -163.586E-03    -165.352E-03    -163.340E-03     328.100E-03    -165.107E-03     30.9259E-03     47.1027E+06     41.6840E+06    -49.7354E+06    -47.6748E+06     41.1874E+06     45.5388E+06    -7.33599E+06         50.9397
             671     9.33202E-03     43.0126E-03     78.7267E-03     45.3148E-03    -216.589E-03     49.7186E-03    -214.287E-03     72.0215E-03    -13.6145E-03     326.970E-03    -161.811E-03    -165.264E-03    -161.494E-03     326.653E-03    -165.264E-03     24.5972E-03     43.3096E+06       32.46E+06    -54.3092E+06    -53.2627E+06     32.9775E+06     41.7456E+06     564.323E+03         48.7723
             672     8.47769E-03     42.9751E-03     75.4116E-03     58.4036E-03    -219.378E-03     57.5098E-03    -216.583E-03     73.5106E-03    -25.6500E-03     327.754E-03    -162.102E-03    -165.444E-03    -161.888E-03     327.540E-03    -165.444E-03     20.3534E-03     20.2664E+06    -10.9726E+06    -68.0733E+06    -65.9868E+06    -13.0592E+06     20.2664E+06     697.826E+03         47.2302
             673     7.62889E-03     42.9441E-03     78.0247E-03     68.5141E-03    -227.354E-03     71.6322E-03    -226.626E-03     74.1779E-03    -2.20051E-03     329.281E-03    -163.302E-03    -165.665E-03    -163.151E-03     329.130E-03    -165.665E-03     17.0757E-03     11.2645E+06    -48.9084E+06    -73.0051E+06    -69.3286E+06    -52.5848E+06     11.2645E+06    -3.06706E+06         46.3632
             674     6.78119E-03     42.9222E-03     80.1476E-03     67.0098E-03    -231.404E-03     72.9308E-03    -231.306E-03     74.1284E-03    -7.04866E-03     328.862E-03    -162.834E-03    -165.959E-03    -162.746E-03     328.774E-03    -165.959E-03     12.9664E-03     203.461E+03    -71.0232E+06    -86.9132E+06    -73.2353E+06    -84.7011E+06     203.461E+03    -1.72717E+06         46.0478
             675     5.92931E-03     42.8998E-03     82.3595E-03     70.2005E-03    -235.564E-03     78.3291E-03    -234.934E-03     73.6010E-03     12.5279E-03     329.139E-03    -163.081E-03    -166.368E-03    -163.026E-03     329.084E-03    -166.368E-03     10.2411E-03    -24.8136E+06    -86.3704E+06    -123.323E+06    -86.4215E+06    -123.272E+06    -24.8136E+06    -46.5797E+03         45.9529
             676     5.07802E-03     42.8808E-03     80.9733E-03     71.8974E-03    -237.558E-03     79.4701E-03    -236.597E-03     72.4403E-03     3.75938E-03     330.670E-03    -164.102E-03    -166.768E-03    -164.066E-03     330.634E-03    -166.768E-03     7.96366E-03    -45.2617E+06    -96.5107E+06    -156.086E+06    -96.5990E+06    -155.998E+06    -45.2617E+06    -321.877E+03         45.8920
             677     4.23190E-03     42.8665E-03     76.5143E-03     68.4517E-03    -229.109E-03     72.5835E-03    -228.330E-03     71.6037E-03    -13.0764E-03     331.928E-03    -164.766E-03    -167.121E-03    -164.748E-03     331.909E-03    -167.121E-03     5.39722E-03    -63.9738E+06    -103.756E+06    -180.410E+06    -103.846E+06    -180.320E+06    -63.9738E+06    -262.630E+03         45.8475
             678     3.38254E-03     42.8619E-03     73.8445E-03     62.4239E-03    -217.750E-03     62.0284E-03    -216.291E-03     72.7818E-03    -10.5228E-03     333.594E-03    -166.221E-03    -167.354E-03    -166.218E-03     333.586E-03    -167.349E-03     3.94711E-03    -84.3024E+06    -111.515E+06    -205.432E+06    -111.526E+06    -205.421E+06    -84.3024E+06    -693.324E+03         45.7988
             679     2.53814E-03     42.8532E-03     78.0166E-03     56.2316E-03    -219.876E-03     54.4487E-03    -218.093E-03     78.0166E-03    -18.7113E-03     334.654E-03    -166.933E-03    -167.710E-03    -167.251E-03     334.648E-03    -167.385E-03     3.23860E-03    -102.091E+06    -117.192E+06    -226.513E+06    -117.226E+06    -226.479E+06    -102.091E+06    -1.73366E+06         45.7481
             680     1.69221E-03     42.8516E-03     89.5593E-03     64.9081E-03    -245.795E-03     64.5437E-03    -243.575E-03     87.7039E-03     25.9408E-03     334.407E-03    -166.668E-03    -167.728E-03    -166.985E-03     334.405E-03    -167.408E-03     1.90854E-03    -114.241E+06    -119.883E+06    -240.301E+06    -119.984E+06    -240.200E+06    -114.241E+06    -3.40885E+06         45.7108
             681     844.521E-06     42.8546E-03     143.640E-03     47.8113E-03    -276.787E-03     45.1629E-03    -272.283E-03     141.785E-03    -7.42880E-03     335.091E-03    -167.259E-03    -167.839E-03    -167.486E-03     335.089E-03    -167.610E-03     1.64730E-03    -120.805E+06    -129.353E+06    -260.526E+06    -127.861E+06    -260.452E+06    -122.371E+06    -1.91947E+06         45.6941
             682     14.4321E-03     41.9724E-03     695.629E-03    -41.0847E-03    -765.720E-03     99.7007E-03    -271.486E-03     60.6088E-03     180.383E-03     327.280E-03    -162.394E-03    -164.806E-03    -160.827E-03     325.712E-03    -164.806E-03     54.9161E-03     129.279E+06     97.2182E+06    -6.80058E+06    -6.72518E+06     97.1428E+06     129.279E+06    -1.90538E+06         68.6060
             683     13.5745E-03     41.8944E-03     543.494E-03    -24.6675E-03    -647.402E-03    -26.7873E-03    -163.261E-03     61.4730E-03    -86.7072E-03     328.411E-03    -163.459E-03    -164.920E-03    -161.868E-03     326.820E-03    -164.920E-03     55.5903E-03     104.314E+06     82.7720E+06    -12.3050E+06    -11.6579E+06     82.1250E+06     104.314E+06     99.3254E+03         65.0385
             684     12.7218E-03     41.8214E-03     570.740E-03    -6.73262E-03    -626.749E-03     86.8010E-03    -212.563E-03     63.0211E-03    -57.1510E-03     330.445E-03    -164.734E-03    -165.731E-03    -164.334E-03     329.395E-03    -165.082E-03     44.8991E-03     78.9597E+06     62.0032E+06    -34.7455E+06    -32.8234E+06      60.081E+06     78.9597E+06    -2.68527E+06         60.9140
             685     11.8779E-03     41.7707E-03     527.799E-03    -56.4803E-03    -449.934E-03     171.484E-03    -207.731E-03     57.6324E-03     103.140E-03     331.104E-03    -165.098E-03    -165.951E-03    -165.161E-03     330.338E-03    -165.123E-03     38.8372E-03     84.1955E+06     68.9705E+06    -30.0691E+06    -27.7268E+06     66.6282E+06     84.1955E+06    -1.25645E+06         57.0614
             686     11.0316E-03     41.7145E-03     239.536E-03    -55.0907E-03    -416.593E-03    -98.1656E-03    -193.005E-03     59.0220E-03    -48.6298E-03     329.987E-03    -164.713E-03    -165.469E-03    -164.415E-03     329.266E-03    -165.046E-03     37.7006E-03     72.2670E+06     61.5507E+06    -27.3089E+06    -21.6496E+06     58.4590E+06     69.6994E+06     4.95569E+06         53.7418
             687     10.1809E-03     41.6629E-03     240.561E-03     4.80013E-03    -204.866E-03     170.442E-03    -189.994E-03     60.0474E-03     12.5825E-03     329.024E-03    -164.138E-03    -165.282E-03    -163.836E-03     328.477E-03    -165.037E-03     32.6372E-03     43.6078E+06     36.9986E+06    -45.9019E+06    -41.1887E+06     34.8530E+06     41.0402E+06     1.03578E+06         50.9781
             688     9.33095E-03     41.6264E-03     62.7550E-03    -354.936E-06    -203.008E-03    -13.2241E-03    -185.667E-03     58.2837E-03    -9.67148E-03     328.154E-03    -163.352E-03    -165.111E-03    -162.988E-03     327.789E-03    -165.111E-03     26.6523E-03     40.5986E+06     27.1941E+06    -53.7392E+06    -52.0637E+06     25.5186E+06     40.5986E+06    -1.64967E+06         48.8008
             689     8.48229E-03     41.5893E-03     74.5552E-03     57.4730E-03    -204.125E-03     67.0885E-03    -200.050E-03     60.8643E-03    -42.2300E-03     327.700E-03    -162.491E-03    -165.242E-03    -162.240E-03     327.450E-03    -165.242E-03     22.0485E-03     31.1943E+06     790.985E+03    -63.6307E+06    -58.3466E+06    -4.49307E+06     31.1943E+06     2.81517E+06         47.2482
             690     7.63046E-03     41.5549E-03     71.4102E-03     59.6179E-03    -208.760E-03     70.6368E-03    -207.987E-03     59.6179E-03    -1.80519E-03     328.128E-03    -162.569E-03    -165.394E-03    -162.414E-03     327.974E-03    -165.394E-03     17.1615E-03     12.7378E+06    -39.7556E+06    -76.8052E+06    -64.7829E+06    -51.7778E+06     12.7378E+06    -1.80698E+06         46.3715
             691     6.77983E-03     41.5310E-03     64.9746E-03     58.1564E-03    -206.450E-03     64.5321E-03    -206.180E-03     58.3284E-03    -9.82126E-03     329.401E-03    -163.568E-03    -165.710E-03    -163.617E-03     329.315E-03    -165.574E-03     12.8189E-03    -1.82484E+06    -68.9193E+06    -94.6167E+06    -71.9750E+06    -91.5611E+06    -1.82484E+06    -5.39718E+06         46.0455
             692     5.93207E-03     41.5113E-03     61.6086E-03     56.3338E-03    -199.323E-03     59.9397E-03    -198.856E-03     57.5353E-03    -4.94382E-03     329.906E-03    -164.153E-03    -165.959E-03    -164.239E-03     329.857E-03    -165.823E-03     9.58212E-03    -18.5445E+06    -80.6534E+06    -121.475E+06    -80.8186E+06    -121.310E+06    -18.5445E+06    -30.3639E+03         45.9317
             693     5.08528E-03     41.4876E-03     57.9171E-03     51.7674E-03    -193.012E-03     51.2918E-03    -192.339E-03     57.7204E-03    -10.2574E-03     329.441E-03    -163.555E-03    -166.125E-03    -163.537E-03     329.422E-03    -166.125E-03     5.62797E-03    -40.4079E+06    -90.4573E+06    -155.242E+06    -90.6741E+06    -155.025E+06    -40.4079E+06    -2.16479E+06         45.8537
             694     4.23302E-03     41.4798E-03     59.7704E-03     46.0210E-03    -189.884E-03     45.2338E-03    -188.900E-03     59.5737E-03    -12.0664E-03     330.285E-03    -163.720E-03    -166.508E-03    -163.715E-03     330.279E-03    -166.508E-03     3.12691E-03    -60.7896E+06    -100.992E+06    -183.059E+06    -101.233E+06    -182.819E+06    -60.7896E+06    -3.54189E+06         45.8061
             695     3.38563E-03     41.4634E-03     65.5811E-03     51.2293E-03    -198.184E-03     52.7642E-03    -196.236E-03     62.0977E-03    -24.2303E-03     331.869E-03    -164.942E-03    -166.866E-03    -164.944E-03     331.866E-03    -166.861E-03     2.08525E-03    -79.4998E+06    -109.225E+06    -204.186E+06    -109.290E+06    -204.122E+06    -79.4998E+06    -1.70759E+06         45.7642
             696     2.53821E-03     41.4580E-03     72.4889E-03     56.0990E-03    -210.714E-03     63.0963E-03    -208.448E-03     63.2255E-03    -30.0042E-03     332.674E-03    -165.486E-03    -167.189E-03    -165.490E-03     332.673E-03    -167.184E-03     1.25223E-03    -99.8292E+06    -116.066E+06    -226.208E+06    -116.096E+06    -226.178E+06    -99.8292E+06    -1.64267E+06         45.7269
             697     1.68978E-03     41.4565E-03     76.3561E-03     50.6964E-03    -209.815E-03     61.3151E-03    -207.878E-03     63.8003E-03     20.5822E-03     334.142E-03    -166.484E-03    -167.661E-03    -166.483E-03     334.141E-03    -167.661E-03     1.25191E-03    -114.967E+06    -121.396E+06    -245.263E+06    -121.450E+06    -245.208E+06    -114.967E+06    -1.46220E+06         45.7002
             698     845.335E-06     41.4524E-03     123.913E-03     6.57679E-03    -216.369E-03     11.4817E-03    -214.498E-03     117.137E-03     7.03233E-03     336.114E-03    -167.842E-03    -168.294E-03    -167.929E-03     336.113E-03    -168.206E-03     1.42781E-03    -120.791E+06    -125.311E+06    -263.496E+06    -123.789E+06    -263.452E+06    -122.357E+06    -59.7906E+03         45.6858
             699     14.4234E-03     40.5881E-03         1.54441    -49.0472E-03        -1.43203     247.027E-03    -226.802E-03     43.1094E-03     355.383E-03     328.690E-03    -162.016E-03    -166.561E-03    -161.710E-03     326.767E-03    -164.943E-03     61.3476E-03     128.662E+06     97.6505E+06    -5.68157E+06    -5.43261E+06     97.4016E+06     128.662E+06    -682.711E+03         68.6973
             700     13.5766E-03     40.5063E-03     881.633E-03    -70.1137E-03        -1.48923    -486.258E-03    -243.933E-03     52.4837E-03    -76.6064E-03     330.776E-03    -164.309E-03    -166.723E-03    -164.546E-03     329.221E-03    -164.930E-03     54.9256E-03     105.913E+06     83.2775E+06    -18.2198E+06    -17.7101E+06     82.7678E+06     105.913E+06     2.32976E+06         65.1409
             701     12.7302E-03     40.4305E-03         1.09204     47.5678E-03    -578.483E-03     678.966E-03    -165.405E-03     47.5678E-03     41.5078E-03     329.309E-03    -164.225E-03    -165.331E-03    -163.627E-03     328.348E-03    -164.968E-03     43.1428E-03     78.2818E+06     59.2572E+06    -27.3725E+06    -25.5675E+06     65.3848E+06     70.3492E+06    -3.24486E+06         61.0057
             702     11.8784E-03     40.3776E-03     261.692E-03    -9.20840E-03    -692.155E-03    -334.475E-03    -144.504E-03     39.3082E-03     57.3208E-03     330.115E-03    -164.289E-03    -165.744E-03    -164.268E-03     329.318E-03    -164.969E-03     39.4335E-03     63.5842E+06     46.4144E+06    -36.0658E+06    -34.5201E+06     54.5568E+06     53.8962E+06    -10.0320E+06         57.1301
             703     11.0285E-03     40.3241E-03     357.374E-03     2.48022E-03    -405.492E-03     83.9342E-03    -180.569E-03     50.9968E-03    -110.528E-03     330.480E-03    -164.705E-03    -165.685E-03    -164.696E-03     329.800E-03    -165.014E-03     36.4912E-03     67.6793E+06     53.4825E+06    -41.9414E+06    -38.7416E+06     54.6057E+06     63.3563E+06     1.98525E+06         53.7946
             704     10.1796E-03     40.2756E-03     342.857E-03    -47.1170E-03    -247.643E-03     182.601E-03    -178.040E-03     43.5372E-03     87.0654E-03     329.276E-03    -164.198E-03    -165.124E-03    -163.803E-03     328.797E-03    -165.039E-03     30.4081E-03     60.0310E+06     50.4677E+06    -38.9851E+06    -35.8267E+06     50.7450E+06     56.5953E+06     5.03543E+06         51.0183
             705     9.33186E-03     40.2339E-03     84.4905E-03    -48.1360E-03    -242.264E-03    -74.1914E-03    -174.237E-03     42.5182E-03    -14.0712E-03     329.214E-03    -164.380E-03    -165.093E-03    -164.110E-03     328.878E-03    -165.026E-03     25.7193E-03     43.2649E+06     24.1718E+06    -45.3829E+06    -44.2491E+06     23.9060E+06     42.3969E+06    -5.01840E+06         48.8291
             706     8.48346E-03     40.2010E-03     96.7761E-03     44.9828E-03    -178.768E-03     92.9204E-03    -174.913E-03     44.9828E-03    -15.4273E-03     329.015E-03    -164.137E-03    -165.089E-03    -163.968E-03     328.778E-03    -165.022E-03     21.4107E-03     33.8154E+06    -5.15763E+06    -60.4741E+06    -53.8871E+06    -11.7446E+06     33.8154E+06    -4.19051E+06         47.2648
             707     7.63418E-03     40.1683E-03     52.5200E-03     34.5039E-03    -168.035E-03     43.5087E-03    -166.592E-03     42.0721E-03     27.9057E-03     328.384E-03    -163.311E-03    -164.956E-03    -163.177E-03     328.250E-03    -164.956E-03     16.0225E-03     15.9316E+06     -39.171E+06    -76.0787E+06    -61.8711E+06    -53.3786E+06     15.9316E+06    -1.70616E+06         46.3750
             708     6.78432E-03     40.1407E-03     42.8213E-03     32.9253E-03    -162.597E-03     33.0445E-03    -162.090E-03     42.1944E-03     3.12349E-03     329.221E-03    -163.856E-03    -165.159E-03    -163.918E-03     329.147E-03    -165.023E-03     11.8851E-03    -5.01559E+06    -73.0203E+06    -100.043E+06    -75.7858E+06    -97.2771E+06    -5.01559E+06    -2.91595E+06         46.0356
             709     5.93794E-03     40.1160E-03     43.9681E-03     40.4346E-03    -166.471E-03     40.8313E-03    -165.522E-03     42.6222E-03     5.50427E-03     329.467E-03    -164.363E-03    -165.357E-03    -164.457E-03     329.426E-03    -165.222E-03     8.88835E-03    -16.9139E+06    -82.8311E+06    -124.131E+06    -83.0941E+06    -123.868E+06    -16.9139E+06    -265.639E+03         45.9092
             710     5.08771E-03     40.1015E-03     47.3502E-03     37.3787E-03    -167.092E-03     39.7964E-03    -164.948E-03     42.7888E-03     18.5389E-03     328.923E-03    -163.892E-03    -165.317E-03    -163.871E-03     328.901E-03    -165.317E-03     6.28269E-03    -38.0434E+06    -90.1982E+06    -153.795E+06    -90.8171E+06    -153.176E+06    -38.0434E+06     672.032E+03         45.8164
             711     4.24031E-03     40.0855E-03     51.1439E-03     32.9003E-03    -164.747E-03     38.7021E-03    -162.706E-03     43.3010E-03     22.8425E-03     329.132E-03    -163.641E-03    -165.508E-03    -163.629E-03     329.121E-03    -165.508E-03     4.41780E-03    -60.0188E+06    -99.3974E+06    -181.226E+06    -100.032E+06    -180.592E+06    -60.0188E+06     593.213E+03         45.7541
             712     3.39076E-03     40.0740E-03     51.4976E-03     37.4750E-03    -170.721E-03     44.7394E-03    -169.874E-03     43.3867E-03    -2.66087E-03     329.413E-03    -163.557E-03    -165.886E-03    -163.551E-03     329.408E-03    -165.886E-03     2.52422E-03    -80.9771E+06    -110.047E+06    -204.813E+06    -110.176E+06    -204.684E+06    -80.9771E+06    -1.80332E+06         45.7073
             713     2.53972E-03     40.0670E-03     51.5562E-03     38.3822E-03    -168.284E-03     46.8224E-03    -167.461E-03     42.2928E-03    -1.21012E-03     330.669E-03    -164.335E-03    -166.334E-03    -164.335E-03     330.668E-03    -166.334E-03     768.567E-06    -99.9794E+06    -118.165E+06    -227.122E+06    -118.234E+06    -227.052E+06    -99.9794E+06    -1.17556E+06         45.6732
             714     1.69250E-03     40.0606E-03     55.0288E-03     35.6253E-03    -163.820E-03     48.4529E-03    -160.720E-03     39.1015E-03     4.19011E-03     332.684E-03    -165.919E-03    -166.761E-03    -165.919E-03     332.684E-03    -166.761E-03     418.218E-06    -115.787E+06    -124.127E+06    -247.384E+06    -124.157E+06    -247.354E+06    -115.787E+06     412.177E+03         45.6500
             715     845.286E-06     40.0538E-03     66.3629E-03     10.7180E-03    -151.199E-03     26.1886E-03    -147.607E-03     47.3011E-03    -6.64355E-03     334.076E-03    -166.798E-03    -167.313E-03    -167.057E-03     334.076E-03    -167.054E-03     541.682E-06    -119.901E+06    -125.774E+06    -264.970E+06    -122.786E+06    -264.953E+06    -122.906E+06    -194.799E+03         45.6364
             716     14.4214E-03     39.1945E-03         3.05874    -68.8548E-03        -2.74121     310.365E-03    -92.6868E-03     30.9998E-03    -110.681E-03     330.499E-03    -163.106E-03    -167.532E-03    -163.846E-03     328.693E-03    -164.986E-03     59.5362E-03     132.572E+06     99.7895E+06    -7.47525E+06    -7.19671E+06     99.5110E+06     132.572E+06     3.15743E+06         68.7940
             717     13.5790E-03     39.1026E-03         2.19577    -89.6920E-03        -2.83314    -550.672E-03    -216.998E-03     40.6035E-03     38.0550E-03     330.990E-03    -164.546E-03    -166.754E-03    -164.877E-03     329.529E-03    -164.962E-03     53.2094E-03     102.810E+06     79.7149E+06    -22.2390E+06    -21.9746E+06     79.4505E+06     102.810E+06     244.144E+03         65.2452
             718     12.7285E-03     39.0514E-03         2.18351    -38.3703E-03        -1.35519     931.610E-03    -169.829E-03     28.1681E-03     186.617E-03     329.350E-03    -164.281E-03    -165.532E-03    -163.837E-03     328.358E-03    -164.985E-03     44.1891E-03     85.4141E+06     66.4682E+06    -18.7058E+06    -17.9104E+06     73.6055E+06     77.4815E+06     1.26466E+06         61.0979
             719     11.8764E-03     38.9846E-03     434.104E-03    -36.7467E-03        -1.40164    -874.785E-03    -159.293E-03     29.7918E-03    -130.690E-03     329.660E-03    -164.163E-03    -165.654E-03    -164.176E-03     328.861E-03    -164.843E-03     39.4171E-03     60.7315E+06     48.1232E+06    -36.2544E+06    -35.3014E+06     57.2165E+06     50.6852E+06    -1.47044E+06         57.2029
             720     11.0314E-03     38.9318E-03     662.452E-03     41.5132E-03    -250.117E-03     569.313E-03    -156.978E-03     41.5132E-03    -42.2409E-03     330.531E-03    -164.809E-03    -165.421E-03    -164.849E-03     329.960E-03    -164.809E-03     33.5357E-03     50.2267E+06     42.8911E+06    -53.4980E+06    -51.1943E+06     43.7916E+06     47.0225E+06    -12.6747E+06         53.8514
             721     10.1844E-03     38.8857E-03     239.419E-03    -65.1115E-03    -326.425E-03    -24.5805E-03    -150.149E-03     22.6129E-03     114.480E-03     329.678E-03    -164.463E-03    -165.097E-03    -164.270E-03     329.253E-03    -164.865E-03     28.8158E-03     59.1645E+06     48.1349E+06    -49.2381E+06    -46.4436E+06     47.2989E+06     57.2060E+06    -12.0017E+06         51.0614
             722     9.33292E-03     38.8449E-03     139.440E-03    -58.0154E-03    -308.418E-03    -93.9936E-03    -162.709E-03     29.7090E-03    -85.2139E-03     329.046E-03    -164.296E-03    -164.997E-03    -164.110E-03     328.733E-03    -164.870E-03     24.8051E-03     51.0137E+06     33.5877E+06    -46.4963E+06    -45.4406E+06     33.4001E+06     50.1456E+06    -2.97130E+06         48.8585
             723     8.48540E-03     38.8063E-03     143.282E-03     29.6097E-03    -155.770E-03     139.035E-03    -151.522E-03     29.6097E-03    -24.2233E-03     329.694E-03    -164.545E-03    -165.173E-03    -164.781E-03     329.481E-03    -164.723E-03     20.2361E-03     31.0093E+06    -10.3902E+06    -56.4361E+06    -53.5498E+06    -13.2764E+06     31.0093E+06    -5.03216E+06         47.2792
             724     7.63853E-03     38.7801E-03     28.2945E-03     13.5720E-03    -134.679E-03     15.1703E-03    -132.335E-03     24.3528E-03     16.2393E-03     329.572E-03    -164.307E-03    -164.961E-03    -164.662E-03     329.441E-03    -164.476E-03     16.0241E-03     7.36634E+06    -57.1915E+06    -77.9694E+06    -72.5406E+06    -62.6203E+06     7.36634E+06    -2.75449E+06         46.3688
             725     6.79083E-03     38.7503E-03     28.7444E-03     12.8522E-03    -133.161E-03     15.3710E-03    -132.098E-03     25.1619E-03    -4.75829E-03     328.345E-03    -163.507E-03    -164.578E-03    -163.514E-03     328.249E-03    -164.475E-03     13.5428E-03    -7.03897E+06    -74.4184E+06    -98.2689E+06    -78.7694E+06    -93.9179E+06    -7.03897E+06     1.91337E+06         46.0095
             726     5.93896E-03     38.7292E-03     30.2599E-03     23.3985E-03    -135.671E-03     27.5281E-03    -134.872E-03     25.3314E-03     10.3871E-03     327.850E-03    -163.391E-03    -164.673E-03    -163.332E-03     327.791E-03    -164.673E-03     10.5708E-03    -19.9409E+06    -82.4780E+06    -126.516E+06    -82.7281E+06    -126.266E+06    -19.9409E+06    -1.24022E+06         45.8794
             727     5.09136E-03     38.7113E-03     32.7688E-03     24.0338E-03    -139.107E-03     30.3831E-03    -137.126E-03     24.4379E-03     26.0295E-03     328.665E-03    -164.158E-03    -164.734E-03    -164.123E-03     328.630E-03    -164.734E-03     8.08515E-03    -38.8638E+06    -94.1861E+06    -154.082E+06    -94.6914E+06    -153.577E+06    -38.8638E+06     2.45638E+06         45.7854
             728     4.24227E-03     38.6987E-03     36.1152E-03     22.5936E-03    -140.417E-03     34.1133E-03    -138.415E-03     22.5936E-03     11.8361E-03     328.731E-03    -163.963E-03    -164.749E-03    -163.946E-03     328.714E-03    -164.749E-03     5.68675E-03    -62.1710E+06    -104.170E+06    -180.029E+06    -104.674E+06    -179.525E+06    -62.1710E+06     4.91868E+06         45.7109
             729     3.39216E-03     38.6872E-03     27.8031E-03     16.5737E-03    -127.276E-03     21.4378E-03    -125.604E-03     21.2666E-03    -19.0164E-03     328.582E-03    -163.623E-03    -164.885E-03    -163.663E-03     328.574E-03    -164.837E-03     3.78566E-03    -83.0155E+06    -111.309E+06    -203.815E+06    -111.426E+06    -203.698E+06    -83.0155E+06     1.32864E+06         45.6503
             730     2.54455E-03     38.6758E-03     23.6667E-03     9.79556E-03    -111.233E-03     8.51318E-03    -109.951E-03     23.6667E-03    -8.40778E-03     329.384E-03    -164.265E-03    -165.053E-03    -164.361E-03     329.381E-03    -164.954E-03     2.21068E-03    -100.775E+06    -119.085E+06    -226.361E+06    -119.178E+06    -226.268E+06    -100.775E+06     163.979E+03         45.6006
             731     1.69616E-03     38.6668E-03     32.7636E-03     16.8149E-03    -119.976E-03     16.3508E-03    -116.141E-03     29.3921E-03    -29.6825E-03     330.058E-03    -164.744E-03    -165.313E-03    -165.057E-03     330.057E-03    -164.999E-03     1.06099E-03    -116.843E+06    -125.406E+06    -245.312E+06    -125.447E+06    -245.271E+06    -116.843E+06     453.592E+03         45.5647
             732     848.530E-06     38.6614E-03     57.8492E-03     18.0148E-03    -144.008E-03     43.8954E-03    -133.453E-03     21.4137E-03     15.9236E-03     330.000E-03    -164.628E-03    -165.388E-03    -165.149E-03     330.000E-03    -164.867E-03     271.500E-06    -125.868E+06    -133.899E+06    -266.163E+06    -130.919E+06    -266.139E+06    -128.873E+06    -363.963E+03         45.5472
             733     14.4363E-03     37.8067E-03         3.67956    -894.243E-06        -3.33470     497.457E-03    -176.684E-03     23.1906E-03     14.5783E-03     331.071E-03    -164.378E-03    -166.938E-03    -164.825E-03     329.396E-03    -164.817E-03     57.4079E-03     134.092E+06     98.2195E+06    -7.63985E+06    -7.47580E+06     98.0554E+06     134.092E+06     3.47477E+06         68.8850
             734     13.5759E-03     37.7167E-03         2.71091     49.6995E-03        -3.17367    -475.323E-03     37.3967E-03     24.8647E-03     132.389E-03     328.606E-03    -163.836E-03    -164.863E-03    -162.435E-03     327.205E-03    -164.863E-03     51.3645E-03     109.123E+06     89.9155E+06    -15.0142E+06    -14.6363E+06     90.5073E+06     108.153E+06     2.68532E+06         65.3348
             735     12.7277E-03     37.6557E-03         2.66765    -34.6115E-03        -2.00990     685.321E-03    -79.8668E-03     17.6887E-03    -187.925E-03     329.753E-03    -164.253E-03    -165.630E-03    -164.117E-03     328.829E-03    -164.842E-03     42.6135E-03     83.2463E+06     73.3521E+06    -35.0643E+06    -32.7828E+06     72.0402E+06     82.2766E+06    -1.90855E+06         61.1757
             736     11.8852E-03     37.5947E-03         1.13524    -74.8899E-03        -2.08890    -847.844E-03    -207.034E-03     26.3299E-03    -125.652E-03     330.470E-03    -164.701E-03    -165.874E-03    -165.059E-03     329.655E-03    -164.701E-03     39.8830E-03     78.5950E+06     65.9576E+06    -31.7483E+06    -29.0799E+06     63.6475E+06     78.2366E+06    -7.74171E+06         57.2689
             737     11.0331E-03     37.5421E-03         1.18160     6.29855E-03    -374.129E-03     933.835E-03    -142.041E-03     21.9778E-03     172.367E-03     329.860E-03    -164.567E-03    -165.160E-03    -164.463E-03     329.283E-03    -164.687E-03     33.6307E-03     67.1437E+06     58.8489E+06    -27.2712E+06    -24.9964E+06     58.0229E+06     65.6949E+06    -11.2839E+06         53.9041
             738     10.1832E-03     37.4947E-03     53.7977E-03    -68.9623E-03    -489.863E-03    -402.029E-03    -106.083E-03     3.08527E-03     28.4134E-03     329.607E-03    -164.527E-03    -165.178E-03    -164.612E-03     329.161E-03    -164.647E-03     29.5650E-03     47.8748E+06     35.8411E+06    -45.7871E+06    -43.3804E+06     34.5248E+06     46.7843E+06    -11.1673E+06         51.1004
             739     9.33807E-03     37.4558E-03     173.603E-03    -33.7634E-03    -284.999E-03    -43.3865E-03    -124.377E-03     22.6050E-03    -119.742E-03     329.332E-03    -164.405E-03    -165.233E-03    -164.736E-03     329.006E-03    -164.577E-03     25.2434E-03     37.5825E+06     19.1510E+06    -58.6271E+06    -57.7414E+06     18.2653E+06     37.5825E+06    -4.84548E+06         48.8856
             740     8.48796E-03     37.4161E-03     174.162E-03     17.8131E-03    -130.498E-03     169.708E-03    -126.045E-03     17.8131E-03    -1.75839E-03     328.985E-03    -163.877E-03    -164.949E-03    -164.248E-03     328.760E-03    -164.353E-03     20.9073E-03     24.3026E+06    -12.9943E+06    -65.1974E+06    -65.0231E+06    -13.1686E+06     24.3026E+06     1.01765E+06         47.2932
             741     7.64070E-03     37.3885E-03     16.8137E-03     6.75781E-03    -124.587E-03     9.80407E-03    -120.790E-03     9.97047E-03     14.9168E-03     329.140E-03    -163.877E-03    -164.919E-03    -164.456E-03     328.980E-03    -164.180E-03     17.6382E-03     8.17741E+06    -52.1010E+06    -72.4683E+06    -70.1617E+06    -54.4076E+06     8.17741E+06     3.62618E+06         46.3674
             742     6.79145E-03     37.3629E-03     14.8899E-03     4.50110E-03    -109.697E-03     8.52555E-03    -108.646E-03     9.81429E-03    -13.5396E-03     328.495E-03    -163.627E-03    -164.732E-03    -164.112E-03     328.387E-03    -164.138E-03     14.4688E-03    -15.7852E+06    -76.9241E+06    -101.867E+06    -82.7507E+06    -96.0407E+06    -15.7852E+06     165.930E+03         45.9936
             743     5.94269E-03     37.3432E-03     13.3334E-03     6.56195E-03    -100.456E-03     8.84955E-03    -99.1611E-03     9.75090E-03    -11.2264E-03     327.611E-03    -163.327E-03    -164.405E-03    -163.498E-03     327.545E-03    -164.168E-03     11.3711E-03    -32.8884E+06    -92.8416E+06    -135.756E+06    -93.3805E+06    -135.217E+06    -32.8884E+06    -3.53348E+06         45.8548
             744     5.09197E-03     37.3217E-03     13.3795E-03     8.47549E-03    -105.269E-03     10.1606E-03    -103.185E-03     9.61001E-03    -19.8305E-03     327.737E-03    -163.634E-03    -164.234E-03    -163.598E-03     327.700E-03    -164.234E-03     8.20319E-03    -41.7724E+06    -96.8592E+06    -155.060E+06    -96.9692E+06    -154.950E+06    -41.7724E+06    -601.242E+03         45.7579
             745     4.24421E-03     37.3086E-03     14.8746E-03     8.02895E-03    -107.313E-03     11.8370E-03    -105.443E-03     9.19589E-03    -11.8284E-03     328.293E-03    -163.824E-03    -164.414E-03    -163.998E-03     328.276E-03    -164.223E-03     5.51772E-03    -59.0316E+06    -103.354E+06    -175.756E+06    -103.535E+06    -175.576E+06    -59.0316E+06     2.07859E+06         45.6785
             746     3.39666E-03     37.2976E-03     15.6078E-03     3.67606E-03    -103.765E-03     7.52674E-03    -101.063E-03     9.05525E-03    -22.4805E-03     328.533E-03    -163.887E-03    -164.512E-03    -164.370E-03     328.521E-03    -164.017E-03     4.79100E-03    -81.6484E+06    -111.168E+06    -198.921E+06    -111.330E+06    -198.760E+06    -81.6484E+06     3.55739E+06         45.6050
             747     2.54725E-03     37.2850E-03     28.8096E-03    -1.71008E-03    -107.327E-03     13.7530E-03    -102.231E-03     8.25046E-03     4.24004E-03     328.053E-03    -163.797E-03    -164.182E-03    -164.173E-03     328.045E-03    -163.797E-03     3.92314E-03    -103.138E+06    -119.284E+06    -225.935E+06    -119.357E+06    -225.861E+06    -103.138E+06     1.66842E+06         45.5364
             748     1.69884E-03     37.2797E-03     29.1242E-03    -4.59477E-03    -98.4664E-03     15.2233E-03    -93.6667E-03     4.50629E-03     9.61466E-03     327.537E-03    -163.487E-03    -164.055E-03    -163.822E-03     327.530E-03    -163.713E-03     3.35065E-03    -115.386E+06    -124.004E+06    -245.725E+06    -124.029E+06    -245.699E+06    -115.386E+06     609.224E+03         45.4823
             749     850.222E-06     37.2715E-03     57.4898E-03    -18.6725E-03    -111.396E-03     18.4715E-03    -75.7766E-03    -15.2736E-03     65.7010E-03     327.377E-03    -163.237E-03    -164.141E-03    -163.494E-03     327.372E-03    -163.879E-03     2.25674E-03    -123.702E+06    -131.799E+06    -264.341E+06    -129.585E+06    -264.326E+06    -125.931E+06     403.393E+03         45.4519
             750     14.4275E-03     36.4181E-03         12.9925    -41.4978E-03        -9.99806         4.65097        -1.65649    -41.4978E-03         3.28229     331.741E-03    -164.580E-03    -167.099E-03    -165.078E-03     329.914E-03    -164.773E-03     59.8966E-03     131.097E+06     98.8971E+06    -9.28589E+06    -9.19943E+06     98.8107E+06     131.097E+06     1.59345E+06         68.9473
             751     13.5864E-03     36.3322E-03         3.58181     15.3358E-03        -8.72800        -4.98343    -113.846E-03    -33.5839E-03         1.85122     330.980E-03    -164.215E-03    -166.834E-03    -164.593E-03     329.350E-03    -164.826E-03     55.6316E-03     123.505E+06     107.759E+06    -6.47904E+06    -4.27409E+06     106.524E+06     122.535E+06    -4.18678E+06         65.4032
             752     12.7327E-03     36.2671E-03         3.50399     29.3411E-03        -1.61798         1.76609     87.2924E-03     61.9694E-03        -1.70585     330.019E-03    -164.049E-03    -166.058E-03    -164.338E-03     329.019E-03    -164.769E-03     44.1553E-03     102.304E+06     79.8252E+06    -5.16917E+06    -604.428E+03     76.2301E+06     101.335E+06    -12.1382E+06         61.2390
             753     11.8795E-03     36.1995E-03         1.29669    -57.4486E-03        -1.58109    -234.476E-03    -123.337E-03     15.9695E-03     74.9436E-03     329.651E-03    -164.319E-03    -165.397E-03    -164.269E-03     328.831E-03    -164.627E-03     40.0326E-03     84.5926E+06     60.1240E+06    -6.96261E+06    -4.20590E+06     57.3673E+06     84.5926E+06    -10.6796E+06         57.3176
             754     11.0357E-03     36.1513E-03         1.27698    -27.4288E-03    -623.716E-03     721.511E-03    -91.9349E-03    -3.74238E-03     229.384E-03     329.736E-03    -164.371E-03    -165.477E-03    -164.609E-03     329.141E-03    -164.645E-03     34.1616E-03     66.4742E+06     56.3253E+06    -21.3659E+06    -19.3242E+06     54.2836E+06     66.4742E+06     3.36615E+06         53.9414
             755     10.1870E-03     36.1065E-03     18.1399E-03    -56.1971E-03    -694.644E-03    -605.140E-03    -120.234E-03    -7.32756E-03    -108.263E-03     329.707E-03    -164.337E-03    -165.541E-03    -164.950E-03     329.237E-03    -164.457E-03     30.4475E-03     45.3554E+06     35.6294E+06    -40.0529E+06    -38.2127E+06     37.0411E+06     42.1035E+06     6.57444E+06         51.1296
             756     9.33704E-03     36.0600E-03     174.396E-03    -3.13596E-03    -176.855E-03     89.3268E-03    -108.839E-03     13.9173E-03    -47.1804E-03     329.309E-03    -164.319E-03    -165.186E-03    -164.844E-03     328.967E-03    -164.319E-03     25.7563E-03     33.9874E+06     8.50825E+06    -52.3325E+06    -51.9439E+06     11.3715E+06     30.7356E+06    -1.62356E+06         48.9070
             757     8.49143E-03     36.0323E-03     142.728E-03    -5.06543E-03    -92.8372E-03     131.030E-03    -90.0106E-03     3.80545E-03     24.2583E-03     328.569E-03    -163.847E-03    -164.562E-03    -164.021E-03     328.331E-03    -164.150E-03     21.6034E-03     23.6308E+06    -17.4179E+06    -63.0057E+06    -62.7159E+06    -17.7077E+06     23.6308E+06    -1.17311E+06         47.3060
             758     7.63915E-03     35.9980E-03     5.95062E-03    -11.5693E-03    -98.9677E-03    -5.73798E-03    -96.1500E-03    -2.69844E-03     13.8886E-03     328.373E-03    -163.609E-03    -164.441E-03    -163.842E-03     328.201E-03    -164.036E-03     18.1951E-03     9.06124E+06    -49.7002E+06    -75.6747E+06    -71.5949E+06    -53.7800E+06     9.06124E+06     517.378E+03         46.3743
             759     6.79244E-03     35.9748E-03     9.19171E-03    -5.40791E-03    -90.3465E-03     5.54152E-03    -88.7968E-03    -3.30739E-03     7.91192E-03     328.950E-03    -163.898E-03    -164.949E-03    -164.721E-03     328.844E-03    -164.020E-03     14.3913E-03    -10.6862E+06    -75.6780E+06    -100.475E+06    -81.3721E+06    -94.7805E+06    -10.6862E+06     1.18697E+06         45.9946
             760     5.94511E-03     35.9551E-03     7.26051E-03    -7.32144E-03    -79.5356E-03     2.08407E-03    -77.1441E-03    -4.53655E-03     6.52885E-03     328.397E-03    -163.760E-03    -164.758E-03    -164.545E-03     328.324E-03    -163.901E-03     11.8710E-03    -34.7778E+06    -90.4200E+06    -133.647E+06    -92.5048E+06    -131.562E+06    -34.7778E+06    -442.284E+03         45.8460
             761     5.09703E-03     35.9360E-03     9.74767E-03    -6.21669E-03    -82.8110E-03    -2.39700E-03    -71.3967E-03    -5.48624E-03     8.76984E-03     327.126E-03    -163.257E-03    -163.974E-03    -163.395E-03     327.082E-03    -163.792E-03     8.94278E-03    -52.2028E+06    -101.546E+06    -160.126E+06    -101.808E+06    -159.864E+06    -52.2028E+06    -2.40455E+06         45.7393
             762     4.24558E-03     35.9204E-03     11.4668E-03    -7.34071E-03    -82.4917E-03    -4.12297E-03    -68.0688E-03    -6.17377E-03     36.5251E-03     327.448E-03    -163.303E-03    -164.054E-03    -163.634E-03     327.424E-03    -163.698E-03     6.71359E-03    -63.9563E+06    -106.018E+06    -179.020E+06    -106.225E+06    -178.813E+06    -63.9563E+06    -334.950E+03         45.6494
             763     3.39686E-03     35.9087E-03     6.42897E-03    -8.65151E-03    -78.2996E-03     74.9526E-06    -73.0664E-03    -7.53066E-03     13.5629E-03     327.738E-03    -163.502E-03    -164.182E-03    -164.167E-03     327.723E-03    -163.502E-03     5.36698E-03    -82.7364E+06    -111.997E+06    -200.273E+06    -112.193E+06    -200.077E+06    -82.7364E+06     514.723E+03         45.5674
             764     2.54912E-03     35.9007E-03     12.4606E-03    -11.6094E-03    -80.3484E-03     3.07668E-03    -71.6020E-03    -10.9719E-03     18.9059E-03     326.746E-03    -163.077E-03    -163.664E-03    -163.417E-03     326.733E-03    -163.311E-03     4.87821E-03    -100.521E+06    -117.723E+06    -222.544E+06    -117.763E+06    -222.504E+06    -100.521E+06     1.39629E+06         45.4940
             765     1.69893E-03     35.8923E-03     15.8912E-03    -17.3392E-03    -73.5577E-03    -3.43626E-03    -54.8677E-03    -16.7017E-03     669.860E-06     326.134E-03    -162.666E-03    -163.466E-03    -162.682E-03     326.122E-03    -163.439E-03     4.67707E-03    -114.185E+06    -123.524E+06    -244.154E+06    -123.536E+06    -244.142E+06    -114.185E+06     547.834E+03         45.4302
             766     847.427E-06     35.8883E-03     34.6689E-03    -33.0653E-03    -75.1654E-03    -17.8790E-03    -33.7630E-03    -21.9199E-03     26.5461E-03     327.309E-03    -163.216E-03    -164.088E-03    -163.206E-03     327.299E-03    -164.088E-03     4.36941E-03    -121.060E+06    -127.686E+06    -263.467E+06    -125.459E+06    -263.465E+06    -123.288E+06    -261.615E+03         45.3864
             767     14.4279E-03     35.0236E-03         93.5710         1.22689        -40.1714         53.3611         1.46327    -197.907E-03         2.09706     331.805E-03    -164.743E-03    -167.072E-03    -165.164E-03     330.044E-03    -164.890E-03     58.8328E-03     135.321E+06     118.357E+06    -9.78157E+06    -3.04952E+06     112.300E+06     134.645E+06    -19.5106E+06         68.9664
             768     13.5750E-03     34.9379E-03         5.48819    -775.167E-03        -40.3351        -34.4188    -428.085E-03    -775.167E-03         14.7965     333.043E-03    -164.893E-03    -168.176E-03    -166.505E-03     331.371E-03    -164.893E-03     57.2188E-03     124.594E+06     104.057E+06     6.19589E+06     13.4264E+06     97.5015E+06     123.919E+06    -18.4561E+06         65.4234
             769     12.7345E-03     34.8760E-03         4.20686     128.767E-03        -1.19000         3.46180    -436.695E-03     120.523E-03    -766.698E-03     331.867E-03    -164.659E-03    -167.410E-03    -166.117E-03     330.728E-03    -164.814E-03     47.4264E-03     100.842E+06     69.7215E+06     1.64206E+06     8.25794E+06     63.1056E+06     100.842E+06     2.75137E+06         61.2626
             770     11.8882E-03     34.8157E-03     860.273E-03     13.2859E-03    -514.274E-03     356.487E-03     5.88678E-03    -3.08867E-03     159.688E-03     329.865E-03    -164.264E-03    -165.805E-03    -164.655E-03     329.023E-03    -164.572E-03     40.3914E-03     71.7864E+06     54.9608E+06    -22.2427E+06    -16.6080E+06     51.0983E+06     70.0141E+06     13.4711E+06         57.3418
             771     11.0326E-03     34.7592E-03     590.930E-03    -27.7436E-03    -592.117E-03     64.4483E-03    -73.6422E-03    -19.7364E-03    -45.8767E-03     329.558E-03    -164.363E-03    -165.235E-03    -164.490E-03     328.966E-03    -164.516E-03     34.1435E-03     50.4836E+06     44.7873E+06    -42.0048E+06    -39.2367E+06     43.7915E+06     48.7113E+06     10.1539E+06         53.9633
             772     10.1869E-03     34.7148E-03     143.669E-03    -24.3095E-03    -632.798E-03    -366.904E-03    -138.362E-03    -8.17243E-03    -187.721E-03     329.549E-03    -164.353E-03    -165.183E-03    -164.706E-03     329.072E-03    -164.353E-03     30.6155E-03     49.8374E+06     44.7184E+06    -47.3921E+06    -45.4788E+06     46.8325E+06     45.8100E+06     8.52254E+06         51.1483
             773     9.34021E-03     34.6736E-03     198.456E-03    -1.69830E-03    -123.925E-03     180.742E-03    -106.210E-03    -1.69830E-03     100.479E-03     328.656E-03    -164.175E-03    -164.522E-03    -164.128E-03     328.296E-03    -164.209E-03     26.4937E-03     40.5308E+06     21.8399E+06    -50.6060E+06    -50.1678E+06     25.4289E+06     36.5035E+06     2.78099E+06         48.9215
             774     8.48880E-03     34.6400E-03     45.1098E-03    -22.4825E-03    -73.6795E-03     20.7932E-03    -59.7792E-03    -12.0662E-03     27.6742E-03     328.901E-03    -164.033E-03    -164.670E-03    -164.379E-03     328.644E-03    -164.067E-03     22.3221E-03     22.7638E+06    -18.7782E+06    -61.8008E+06    -61.5035E+06    -19.0755E+06     22.7638E+06     431.007E+03         47.3165
             775     7.64389E-03     34.6106E-03    -3.97482E-03    -23.9012E-03    -63.3433E-03    -22.5165E-03    -55.2179E-03    -13.4849E-03    -18.7326E-03     328.677E-03    -163.800E-03    -164.582E-03    -164.281E-03     328.500E-03    -163.923E-03     18.5733E-03     4.53377E+06    -56.0648E+06    -78.1050E+06    -74.1348E+06    -60.0350E+06     4.53377E+06    -8.32392E+03         46.3791
             776     6.79248E-03     34.5845E-03     10.5165E-03    -14.3809E-03    -76.0931E-03     5.22207E-03    -70.7988E-03    -14.3809E-03    -4.45765E-03     328.122E-03    -163.656E-03    -164.481E-03    -164.068E-03     327.993E-03    -163.940E-03     15.7564E-03    -9.46103E+06    -74.6673E+06    -101.324E+06    -81.0369E+06    -94.9542E+06    -9.46103E+06    -1.30587E+06         45.9944
             777     5.94468E-03     34.5631E-03     11.0496E-03    -17.5240E-03    -74.3053E-03     7.30846E-03    -70.5641E-03    -17.5240E-03     98.7826E-06     328.285E-03    -163.740E-03    -164.769E-03    -164.519E-03     328.196E-03    -163.901E-03     13.1175E-03    -26.5152E+06    -82.3482E+06    -130.065E+06    -87.5011E+06    -124.912E+06    -26.5152E+06     2.57548E+06         45.8450
             778     5.09596E-03     34.5498E-03     12.3563E-03    -20.7933E-03    -67.6135E-03    -4.39240E-03    -50.8647E-03    -20.7933E-03     841.172E-06     328.098E-03    -163.513E-03    -164.665E-03    -164.464E-03     328.042E-03    -163.657E-03     10.5106E-03    -50.6284E+06    -95.3513E+06    -158.758E+06    -97.4536E+06    -156.656E+06    -50.6284E+06     2.02832E+06         45.7342
             779     4.24813E-03     34.5339E-03     16.3147E-03    -23.3782E-03    -67.2407E-03    -12.4500E-03    -38.4759E-03    -23.3782E-03     3.90429E-03     327.331E-03    -163.077E-03    -164.130E-03    -163.787E-03     327.297E-03    -163.387E-03     7.97577E-03    -71.0661E+06    -108.238E+06    -185.696E+06    -108.453E+06    -185.481E+06    -71.0661E+06    -2.99456E+06         45.6365
             780     3.39920E-03     34.5227E-03     8.49290E-03    -24.9457E-03    -59.6064E-03    -21.9355E-03    -29.1780E-03    -24.9457E-03    -17.6114E-03     326.567E-03    -162.993E-03    -163.511E-03    -163.207E-03     326.548E-03    -163.278E-03     5.91050E-03    -86.3128E+06    -115.845E+06    -205.238E+06    -115.960E+06    -205.123E+06    -86.3128E+06    -2.38052E+06         45.5497
             781     2.54845E-03     34.5161E-03    -3.59745E-03    -23.4329E-03    -52.0852E-03    -38.2188E-03    -18.1013E-03    -22.7953E-03     3.18718E-03     326.254E-03    -162.845E-03    -163.398E-03    -163.032E-03     326.241E-03    -163.199E-03     4.72486E-03    -101.619E+06    -120.732E+06    -223.059E+06    -120.742E+06    -223.049E+06    -101.619E+06     410.647E+03         45.4730
             782     1.69816E-03     34.5083E-03    -1.17396E-03    -20.2084E-03    -57.3326E-03    -37.0659E-03    -27.0112E-03    -14.6379E-03    -7.25593E-03     326.195E-03    -162.641E-03    -163.545E-03    -162.990E-03     326.186E-03    -163.187E-03     3.89330E-03    -116.577E+06    -124.784E+06    -241.713E+06    -124.795E+06    -241.702E+06    -116.577E+06     561.749E+03         45.4074
             783     849.502E-06     34.5019E-03     24.9683E-03    -27.0109E-03    -81.8395E-03    -35.0799E-03    -65.7955E-03     16.9933E-03     1.31140E-03     326.602E-03    -162.724E-03    -163.877E-03    -163.492E-03     326.592E-03    -163.099E-03     4.27441E-03    -124.485E+06    -127.735E+06    -263.648E+06    -127.342E+06    -263.623E+06    -124.904E+06    -996.256E+03         45.3655
             784     14.4248E-03     33.6317E-03         111.989         1.30513        -60.2894         49.9940         3.13052    -119.664E-03        -7.69831     332.371E-03    -164.929E-03    -167.551E-03    -165.943E-03     330.763E-03    -164.929E-03     56.4229E-03     134.531E+06     124.045E+06    -37.1784E+06    -30.3293E+06     124.255E+06     127.472E+06    -23.1211E+06         68.9549
             785     13.5810E-03     33.5456E-03         22.6595    -742.961E-03        -48.8757        -26.0328    -183.444E-03    -742.961E-03        -16.5050     331.772E-03    -164.661E-03    -167.080E-03    -165.329E-03     330.294E-03    -164.934E-03     53.7517E-03     82.8129E+06     68.5026E+06    -66.8691E+06    -61.5590E+06     63.8679E+06     82.1374E+06    -14.7084E+06         65.4064
             786     12.7265E-03     33.4798E-03         3.49581     105.675E-03        -2.83068         1.27209    -551.853E-03     50.5635E-03         2.87402     330.945E-03    -164.553E-03    -166.549E-03    -165.154E-03     329.822E-03    -164.826E-03     47.1794E-03     57.2101E+06     41.3369E+06    -71.7328E+06    -66.4899E+06     38.2496E+06     55.0546E+06     3.30785E+06         61.2467
             787     11.8815E-03     33.4199E-03         1.16768     38.7667E-03    -622.593E-03     605.591E-03    -5.39599E-03    -16.3446E-03    -110.146E-03     331.625E-03    -164.625E-03    -167.191E-03    -166.235E-03     330.668E-03    -164.625E-03     43.3603E-03     59.9854E+06     51.9085E+06    -62.1472E+06    -55.5561E+06     49.2452E+06     56.0576E+06     5.49258E+06         57.3358
             788     11.0395E-03     33.3756E-03     203.667E-03    -18.0402E-03    -847.382E-03    -555.004E-03    -88.7109E-03    -18.0402E-03    -310.611E-03     330.568E-03    -164.552E-03    -166.190E-03    -165.505E-03     329.882E-03    -164.552E-03     36.7532E-03     58.2500E+06     51.2640E+06    -46.6153E+06    -44.9076E+06     52.0739E+06     55.7324E+06     4.15350E+06         53.9673
             789     10.1880E-03     33.3205E-03     441.446E-03    -6.75001E-03    -314.067E-03     220.505E-03    -93.1257E-03    -6.75001E-03    -157.460E-03     328.696E-03    -164.275E-03    -164.634E-03    -163.946E-03     328.174E-03    -164.440E-03     31.8920E-03     54.7153E+06     50.7437E+06    -44.4381E+06    -43.9229E+06     51.7493E+06     53.1945E+06     2.53386E+06         51.1562
             790     9.33708E-03     33.2890E-03     241.434E-03    -22.9593E-03    -189.332E-03     119.633E-03    -67.5305E-03    -22.9593E-03     201.813E-03     328.549E-03    -164.113E-03    -164.570E-03    -163.977E-03     328.155E-03    -164.312E-03     27.8141E-03     37.9107E+06     29.0607E+06    -53.5951E+06    -52.8099E+06     29.0510E+06     37.1352E+06     4.68242E+06         48.9304
             791     8.49043E-03     33.2474E-03    -12.7181E-03    -26.7628E-03    -150.976E-03    -119.292E-03    -45.9476E-03    -25.2174E-03     37.1714E-03     328.962E-03    -163.997E-03    -164.781E-03    -164.325E-03     328.671E-03    -164.161E-03     23.7648E-03     19.7506E+06    -17.1164E+06    -64.9727E+06    -64.2919E+06    -17.7972E+06     19.7506E+06     5.06415E+06         47.3266
             792     7.64026E-03     33.2222E-03     12.9018E-03    -23.3020E-03    -50.9667E-03    -3.25761E-03    -36.3526E-03    -21.7566E-03    -44.6225E-03     329.040E-03    -163.890E-03    -164.893E-03    -164.559E-03     328.837E-03    -164.021E-03     19.9812E-03     8.99124E+06    -53.1053E+06    -70.5659E+06    -68.6874E+06    -54.9839E+06     8.99124E+06     2.56611E+06         46.3883
             793     6.79403E-03     33.1978E-03     15.4249E-03    -24.0460E-03    -61.1342E-03    -6.09804E-03    -39.6112E-03    -24.0460E-03    -23.3746E-03     328.190E-03    -163.813E-03    -164.470E-03    -164.163E-03     328.044E-03    -163.975E-03     16.8089E-03    -11.2698E+06    -72.3382E+06    -100.059E+06    -78.9820E+06    -93.4157E+06    -11.2698E+06    -175.097E+03         46.0021
             794     5.94269E-03     33.1778E-03     5.09954E-03    -25.9524E-03    -60.3071E-03    -16.7359E-03    -38.4717E-03    -25.9524E-03     8.44764E-03     327.715E-03    -163.759E-03    -164.243E-03    -163.941E-03     327.621E-03    -163.967E-03     13.5699E-03    -29.5512E+06    -88.4520E+06    -135.249E+06    -92.9700E+06    -130.731E+06    -29.5512E+06    -35.0042E+03         45.8550
             795     5.09535E-03     33.1586E-03     2.03318E-03    -27.6687E-03    -51.3329E-03    -15.7621E-03    -33.5376E-03    -27.6687E-03    -10.6659E-03     328.327E-03    -163.771E-03    -164.647E-03    -164.531E-03     328.261E-03    -163.821E-03     11.2712E-03    -44.3989E+06    -95.3597E+06    -155.998E+06    -98.2700E+06    -153.087E+06    -44.3989E+06     2.70074E+06         45.7488
             796     4.24874E-03     33.1479E-03     7.76123E-03    -29.6952E-03    -53.4781E-03    -19.4884E-03    -26.2285E-03    -29.6952E-03    -15.0705E-03     327.946E-03    -163.355E-03    -164.477E-03    -164.261E-03     327.902E-03    -163.526E-03     9.31610E-03    -66.9376E+06    -105.174E+06    -182.187E+06    -105.630E+06    -181.730E+06    -66.9376E+06     497.739E+03         45.6557
             797     3.39752E-03     33.1388E-03     8.05045E-03    -30.2592E-03    -52.8605E-03    -29.9377E-03    -14.3025E-03    -30.8290E-03    -16.9626E-03     326.991E-03    -162.998E-03    -163.901E-03    -163.588E-03     326.964E-03    -163.283E-03     7.19828E-03    -88.8470E+06    -116.520E+06    -206.130E+06    -116.562E+06    -206.088E+06    -88.8470E+06    -845.640E+03         45.5683
             798     2.54850E-03     33.1281E-03     178.222E-06    -29.5923E-03    -47.6596E-03    -34.9718E-03    -11.9397E-03    -30.1622E-03     10.4582E-03     326.608E-03    -162.937E-03    -163.660E-03    -163.529E-03     326.596E-03    -163.057E-03     4.55440E-03    -106.706E+06    -124.035E+06    -226.242E+06    -124.091E+06    -226.186E+06    -106.706E+06    -1.28612E+06         45.4841
             799     1.70048E-03     33.1247E-03     8.62103E-03    -34.0762E-03    -53.8614E-03    -30.3757E-03    -19.7978E-03    -29.1431E-03    -2.27680E-03     326.272E-03    -162.721E-03    -163.551E-03    -163.543E-03     326.263E-03    -162.721E-03     3.97198E-03    -119.880E+06    -127.875E+06    -241.538E+06    -127.935E+06    -241.479E+06    -119.880E+06    -1.21435E+06         45.4195
             800     850.861E-06     33.1146E-03     37.9489E-03    -32.4144E-03    -88.3014E-03    -58.6581E-03    -24.5532E-03     444.428E-06    -5.90408E-03     325.215E-03    -162.036E-03    -163.189E-03    -163.178E-03     325.204E-03    -162.036E-03     4.50038E-03    -128.802E+06    -132.055E+06    -265.986E+06    -131.680E+06    -265.942E+06    -129.220E+06    -698.604E+03         45.3901
             801     14.4294E-03     32.2389E-03         66.2912    -315.668E-03        -119.993        -52.5038        -1.74066     226.746E-03        -8.81219     330.345E-03    -163.948E-03    -166.411E-03    -163.871E-03     328.694E-03    -164.838E-03     56.7525E-03     146.385E+06     130.305E+06    -22.1564E+06    -15.1354E+06     136.393E+06     133.276E+06     15.9832E+06         68.9260
             802     13.5773E-03     32.1544E-03         57.2976     753.494E-03        -21.8466         35.4055     45.5082E-03     753.494E-03        -18.2843     330.505E-03    -164.190E-03    -166.318E-03    -163.930E-03     328.900E-03    -164.973E-03     55.8088E-03     94.5028E+06     82.6997E+06    -58.4420E+06    -40.4176E+06     71.4004E+06     87.7777E+06    -2.87726E+06         65.3686
             803     12.7320E-03     32.0947E-03         3.04822    -138.573E-03        -7.56791        -4.64635     126.664E-03    -138.573E-03         3.64239     330.331E-03    -164.641E-03    -165.840E-03    -164.427E-03     329.190E-03    -164.913E-03     47.4468E-03     62.8877E+06     45.3767E+06    -60.6762E+06    -44.9190E+06     31.7751E+06     60.7322E+06    -22.6260E+06         61.2147
             804     11.8784E-03     32.0264E-03         2.06137    -64.1949E-03        -1.52289     677.369E-03    -184.928E-03    -18.1616E-03    -169.771E-03     330.654E-03    -164.282E-03    -166.549E-03    -165.130E-03     329.717E-03    -164.764E-03     42.9471E-03     58.0875E+06     40.6610E+06    -49.2631E+06    -45.0999E+06     39.5805E+06     55.0048E+06    -18.0072E+06         57.3147
             805     11.0315E-03     31.9748E-03     535.102E-03    -55.7661E-03        -1.44375    -871.746E-03    -82.9407E-03    -9.73272E-03    -241.623E-03     330.727E-03    -164.298E-03    -166.787E-03    -165.593E-03     330.015E-03    -164.780E-03     37.4949E-03     52.7164E+06     46.6113E+06    -48.6809E+06    -46.0294E+06     46.2174E+06     50.4587E+06    -9.53039E+06         53.9546
             806     10.1853E-03     31.9412E-03     801.516E-03     15.0610E-03    -81.4956E-03     760.382E-03    -16.7936E-03    -8.50693E-03    -74.8962E-03     329.696E-03    -164.490E-03    -165.624E-03    -164.884E-03     329.122E-03    -164.655E-03     33.6142E-03     48.3877E+06     43.4794E+06    -52.3381E+06     -50.108E+06     44.3278E+06     45.3092E+06     1.02107E+06         51.1532
             807     9.33690E-03     31.8914E-03     228.618E-03    -18.5466E-03    -284.625E-03    -12.1696E-03    -20.2697E-03    -42.1146E-03     129.323E-03     328.867E-03    -164.020E-03    -165.004E-03    -164.090E-03     328.429E-03    -164.497E-03     29.2314E-03     35.9903E+06     26.0655E+06    -60.2561E+06    -58.7492E+06     26.3065E+06     34.2423E+06     5.59363E+06         48.9363
             808     8.48781E-03     31.8635E-03     2.83886E-03    -34.2930E-03    -274.662E-03    -223.920E-03    -47.9023E-03    -34.2930E-03     18.6952E-03     328.938E-03    -163.899E-03    -164.751E-03    -163.985E-03     328.613E-03    -164.340E-03     25.2393E-03     23.8612E+06    -8.22498E+06    -64.0901E+06    -63.2007E+06    -9.11429E+06     23.8612E+06     4.09395E+06         47.3398
             809     7.63933E-03     31.8295E-03     43.5585E-03    -25.7710E-03    -52.4528E-03     34.1761E-03    -40.4152E-03    -28.4262E-03    -29.8592E-03     329.114E-03    -163.943E-03    -164.821E-03    -164.265E-03     328.876E-03    -164.260E-03     21.5563E-03     6.01719E+06    -54.9023E+06    -77.6563E+06    -74.1231E+06    -58.4355E+06     6.01719E+06     1.41769E+06         46.4102
             810     6.79069E-03     31.8079E-03     26.0155E-03    -30.8954E-03    -52.3223E-03    -9.16587E-03    -14.4858E-03    -33.5506E-03    -9.55542E-03     329.028E-03    -164.094E-03    -164.994E-03    -164.635E-03     328.856E-03    -164.281E-03     18.3196E-03    -8.81787E+06    -74.6477E+06    -97.6217E+06    -80.3430E+06    -91.9264E+06    -8.81787E+06     3.49613E+06         46.0310
             811     5.94443E-03     31.7900E-03     5.76160E-03    -34.7116E-03    -50.9013E-03    -41.7604E-03    -3.37930E-03    -34.7116E-03     26.2022E-03     328.604E-03    -164.195E-03    -164.639E-03    -164.465E-03     328.475E-03    -164.241E-03     15.7104E-03    -28.8549E+06    -85.3525E+06    -127.678E+06    -87.8870E+06    -125.144E+06    -28.8549E+06     2.51034E+06         45.8899
             812     5.09372E-03     31.7712E-03     3.92040E-03    -34.0137E-03    -48.0576E-03    -37.8451E-03    -6.29211E-03    -34.0137E-03     15.4663E-03     328.011E-03    -163.866E-03    -164.248E-03    -163.839E-03     327.934E-03    -164.198E-03     12.1065E-03    -49.0701E+06    -100.521E+06    -159.652E+06    -101.960E+06    -158.212E+06    -49.0701E+06    -1.48243E+06         45.7929
             813     4.24273E-03     31.7602E-03     8.73607E-03    -33.7429E-03    -50.0704E-03    -34.0727E-03    -7.26169E-03    -33.7429E-03     14.5823E-03     328.439E-03    -163.689E-03    -164.602E-03    -164.271E-03     328.393E-03    -163.976E-03     9.41064E-03    -64.9556E+06    -108.377E+06    -180.113E+06    -109.080E+06    -179.410E+06    -64.9556E+06     1.45869E+06         45.7076
             814     3.39784E-03     31.7509E-03     4.84882E-03    -32.8878E-03    -43.7111E-03    -24.3642E-03    -12.2853E-03    -35.1005E-03    -5.59495E-03     328.508E-03    -163.598E-03    -164.823E-03    -164.792E-03     328.477E-03    -163.598E-03     7.64264E-03    -86.5730E+06    -116.206E+06    -203.361E+06    -116.321E+06    -203.246E+06    -86.5730E+06     1.96752E+06         45.6267
             815     2.54928E-03     31.7442E-03     4.35503E-03    -35.9503E-03    -39.9808E-03    -20.0103E-03    -11.7863E-03    -39.7795E-03     14.1523E-03     327.438E-03    -163.245E-03    -164.251E-03    -164.231E-03     327.419E-03    -163.245E-03     5.97568E-03    -105.668E+06    -123.976E+06    -226.001E+06    -124.060E+06    -225.917E+06    -105.668E+06    -628.329E+03         45.5483
             816     1.69927E-03     31.7361E-03     25.4592E-03    -45.3931E-03    -53.9285E-03    -31.3877E-03     4.53486E-03    -47.0094E-03    -18.5456E-03     326.535E-03    -162.876E-03    -163.677E-03    -163.665E-03     326.522E-03    -162.876E-03     4.83368E-03    -121.907E+06    -131.669E+06    -242.791E+06    -131.725E+06    -242.735E+06    -121.907E+06    -1.75121E+06         45.4892
             817     850.189E-06     31.7340E-03     48.4703E-03    -39.3248E-03    -83.5546E-03    -56.7036E-03     27.4317E-03    -45.1371E-03    -6.84498E-03     325.545E-03    -162.431E-03    -163.122E-03    -163.114E-03     325.537E-03    -162.431E-03     3.70061E-03    -131.436E+06    -138.197E+06    -269.153E+06    -135.813E+06    -269.121E+06    -133.852E+06    -692.020E+03         45.4641
             818     14.4295E-03     30.8562E-03         73.5777    -605.218E-03        -180.749        -104.581        -3.55560     360.255E-03         1.57971     328.750E-03    -163.808E-03    -164.936E-03    -162.175E-03     326.975E-03    -164.793E-03     58.7624E-03     158.032E+06     142.155E+06     12.2183E+06     22.3910E+06     140.383E+06     149.631E+06     4.78420E+06         68.8919
             819     13.5766E-03     30.7674E-03         75.8274         1.49016        -11.5850         64.0013     241.040E-03         1.49016     600.281E-03     330.120E-03    -164.485E-03    -165.716E-03    -163.573E-03     328.488E-03    -164.996E-03     56.0158E-03     135.961E+06     122.894E+06     11.3789E+06     40.7090E+06     102.313E+06     127.212E+06     5.39814E+06         65.3351
             820     12.7252E-03     30.6974E-03         3.27523    -232.566E-03        -10.1857        -7.39489     484.456E-03    -232.566E-03    -462.975E-03     330.781E-03    -164.833E-03    -166.007E-03    -164.788E-03     329.708E-03    -164.979E-03     45.9693E-03     87.8207E+06     59.1412E+06    -14.5502E+06     9.25716E+06     35.6824E+06     87.4722E+06    -80.6784E+03         61.1887
             821     11.8827E-03     30.6396E-03         2.36668    -85.0635E-03        -1.76376     769.556E-03    -230.292E-03    -21.4026E-03     76.9642E-03     329.132E-03    -163.906E-03    -165.350E-03    -163.462E-03     328.236E-03    -164.899E-03     41.9141E-03     64.0276E+06     36.9367E+06    -27.3125E+06    -23.1996E+06     33.7509E+06     63.1004E+06    -963.083E+03         57.2951
             822     11.0283E-03     30.5864E-03     628.841E-03    -76.3899E-03        -1.64244    -976.300E-03    -100.956E-03    -12.7290E-03     122.203E-03     329.093E-03    -163.799E-03    -165.646E-03    -163.729E-03     328.411E-03    -165.034E-03     36.5110E-03     42.3354E+06     38.0240E+06    -51.3739E+06    -47.5677E+06     36.3783E+06     40.1749E+06    -1.61313E+06         53.9383
             823     10.1815E-03     30.5416E-03     892.295E-03     20.1093E-03    -42.6057E-03     877.682E-03     5.05693E-03    -12.9398E-03     11.7787E-03     330.006E-03    -164.492E-03    -165.883E-03    -164.846E-03     329.456E-03    -164.979E-03     32.9924E-03     37.3420E+06     33.1822E+06    -65.1623E+06    -62.5949E+06     34.7746E+06     33.1822E+06    -2.28566E+06         51.1451
             824     9.33412E-03     30.5071E-03     219.975E-03    -17.6548E-03    -297.008E-03    -38.4576E-03    -5.52685E-03    -50.7040E-03    -57.0658E-03     329.420E-03    -164.387E-03    -165.137E-03    -164.193E-03     328.933E-03    -164.844E-03     30.9184E-03     34.0021E+06     24.5407E+06    -68.4991E+06    -67.0500E+06     26.0180E+06     31.0757E+06     495.471E+03         48.9408
             825     8.48378E-03     30.4691E-03     12.4658E-03    -40.9993E-03    -303.386E-03    -247.806E-03    -43.1148E-03    -40.9993E-03     406.591E-06     329.287E-03    -164.010E-03    -164.868E-03    -163.829E-03     328.910E-03    -164.672E-03     27.1146E-03     18.0828E+06    -11.2656E+06    -74.0217E+06    -73.4074E+06    -11.8799E+06     18.0828E+06    -92.2187E+03         47.3578
             826     7.63617E-03     30.4412E-03     44.1516E-03    -23.8607E-03    -50.6270E-03     33.2169E-03    -29.0085E-03    -34.5444E-03     20.2052E-03     329.449E-03    -164.180E-03    -164.878E-03    -164.105E-03     329.177E-03    -164.682E-03     23.0662E-03     3.81652E+06    -52.2932E+06    -81.5540E+06    -77.5195E+06    -56.3277E+06     3.81652E+06     555.869E+03         46.4428
             827     6.78656E-03     30.4190E-03     17.8207E-03    -26.5497E-03    -44.0082E-03    -8.45920E-03    -3.87857E-03    -40.3994E-03     811.103E-06     329.610E-03    -164.613E-03    -165.133E-03    -164.731E-03     329.407E-03    -164.812E-03     19.9390E-03    -12.8886E+06    -80.0484E+06    -100.305E+06    -86.8903E+06    -93.4628E+06    -12.8886E+06     648.044E+03         46.0797
             828     5.93772E-03     30.3952E-03     11.3884E-03    -39.4038E-03    -48.1478E-03    -41.0505E-03     7.45705E-03    -42.5698E-03     3.22874E-03     329.708E-03    -164.753E-03    -165.137E-03    -164.984E-03     329.568E-03    -164.765E-03     16.4114E-03    -30.2389E+06    -91.0780E+06    -125.283E+06    -93.0215E+06    -123.340E+06    -30.2389E+06     1.77058E+06         45.9554
             829     5.09162E-03     30.3857E-03     18.3709E-03    -42.3004E-03    -51.3836E-03    -47.5845E-03     14.5718E-03    -42.3004E-03     7.03895E-03     329.322E-03    -164.416E-03    -164.951E-03    -164.568E-03     329.234E-03    -164.711E-03     13.0213E-03    -47.4848E+06    -96.5615E+06    -153.051E+06    -97.1368E+06    -152.476E+06    -47.4848E+06     796.902E+03         45.8701
             830     4.24418E-03     30.3690E-03     18.5860E-03    -39.7171E-03    -52.3431E-03    -44.1110E-03     12.3213E-03    -41.6846E-03     7.36728E-03     329.225E-03    -164.122E-03    -164.996E-03    -164.510E-03     329.169E-03    -164.552E-03     10.2852E-03    -68.6523E+06    -110.832E+06    -183.156E+06    -111.512E+06    -182.477E+06    -68.6523E+06    -1.33072E+06         45.7884
             831     3.39321E-03     30.3609E-03     15.6128E-03    -38.6788E-03    -50.6655E-03    -35.9827E-03     4.54037E-03    -42.2892E-03    -10.9993E-03     329.181E-03    -164.154E-03    -164.982E-03    -164.803E-03     329.149E-03    -164.302E-03     7.63776E-03    -86.2632E+06    -118.986E+06    -202.732E+06    -119.246E+06    -202.471E+06    -86.2632E+06     193.643E+03         45.7126
             832     2.54589E-03     30.3550E-03     18.8213E-03    -39.4611E-03    -49.9889E-03    -32.8379E-03     7.36621E-03    -45.1571E-03     20.4960E-03     328.782E-03    -164.037E-03    -164.795E-03    -164.775E-03     328.762E-03    -164.037E-03     6.18115E-03    -103.979E+06    -123.433E+06    -223.548E+06    -123.469E+06    -223.511E+06    -103.979E+06     1.26088E+06         45.6472
             833     1.69859E-03     30.3510E-03     26.6425E-03    -43.0937E-03    -52.8277E-03    -40.5055E-03     20.6725E-03    -49.4458E-03     6.89349E-03     328.111E-03    -163.729E-03    -164.388E-03    -164.376E-03     328.099E-03    -163.729E-03     4.81340E-03    -120.335E+06    -129.525E+06    -243.732E+06    -129.530E+06    -243.727E+06    -120.335E+06     277.741E+03         45.5993
             834     849.429E-06     30.3475E-03     41.1444E-03    -33.4271E-03    -83.1197E-03    -23.6082E-03     27.9435E-03    -79.7378E-03     4.87141E-03     327.410E-03    -163.387E-03    -164.019E-03    -164.015E-03     327.406E-03    -163.387E-03     2.49991E-03    -128.196E+06    -133.203E+06    -270.734E+06    -130.807E+06    -270.713E+06    -130.613E+06    -1.36497E+06         45.5767
             835     14.4267E-03     29.4675E-03         62.6282    -296.103E-03        -116.994        -53.2097        -1.57905     126.955E-03         9.90511     331.735E-03    -164.778E-03    -167.180E-03    -165.422E-03     330.073E-03    -164.874E-03     57.0862E-03     135.945E+06     122.055E+06    -31.8696E+06    -28.4550E+06     125.918E+06     128.667E+06    -16.0080E+06         68.8577
             836     13.5791E-03     29.3765E-03         52.5151     724.385E-03        -23.0837         29.5959    -164.503E-03     724.385E-03         17.2452     329.966E-03    -163.904E-03    -166.237E-03    -163.624E-03     328.388E-03    -164.939E-03     55.2178E-03     95.9053E+06     88.6986E+06    -61.7569E+06    -50.0201E+06     78.9860E+06     93.8810E+06     2.72797E+06         65.3161
             837     12.7326E-03     29.3090E-03         3.13077    -103.814E-03        -6.46232        -3.45796     134.869E-03    -112.276E-03        -3.89782     328.247E-03    -163.185E-03    -165.144E-03    -162.171E-03     327.130E-03    -165.041E-03     46.5968E-03     79.9688E+06     54.3999E+06    -49.1039E+06    -37.6126E+06     51.6661E+06     71.2113E+06     18.9518E+06         61.1665
             838     11.8759E-03     29.2500E-03         2.02803    -38.2441E-03        -1.17205     911.874E-03    -65.0655E-03    -29.0789E-03     149.404E-03     328.758E-03    -163.823E-03    -165.143E-03    -162.864E-03     327.799E-03    -165.143E-03     43.2328E-03     64.8029E+06     36.9207E+06    -45.7833E+06    -42.3447E+06     41.8910E+06     56.3940E+06     13.5001E+06         57.2697
             839     11.0303E-03     29.1972E-03     316.426E-03    -48.1358E-03        -1.24268    -882.677E-03    -61.2028E-03    -30.5082E-03     329.257E-03     328.410E-03    -163.537E-03    -165.326E-03    -162.802E-03     327.675E-03    -165.326E-03     37.8988E-03     46.8787E+06     40.2520E+06    -53.7265E+06    -51.9219E+06     39.0955E+06     46.2306E+06     7.15287E+06         53.9208
             840     10.1771E-03     29.1503E-03     590.186E-03    -10.1321E-03    -157.347E-03     492.344E-03    -50.0233E-03    -19.6133E-03     105.234E-03     328.251E-03    -163.297E-03    -165.327E-03    -162.728E-03     327.682E-03    -165.327E-03     33.3695E-03     41.0112E+06     38.9753E+06    -56.9117E+06    -56.1891E+06     40.2667E+06     38.9971E+06    -1.84684E+06         51.1367
             841     9.32721E-03     29.1157E-03     258.934E-03    -36.9113E-03    -231.229E-03     71.6159E-03    -34.4296E-03    -46.3925E-03    -194.998E-03     329.491E-03    -164.286E-03    -165.352E-03    -163.784E-03     328.989E-03    -165.352E-03     31.4746E-03     31.5943E+06     20.9495E+06    -65.4748E+06    -64.6868E+06     21.5274E+06     30.2283E+06    -5.19681E+06         48.9451
             842     8.48078E-03     29.0792E-03     15.5145E-03    -44.6370E-03    -222.170E-03    -184.446E-03    -22.2093E-03    -44.6370E-03    -21.5474E-03     330.084E-03    -164.500E-03    -165.290E-03    -164.099E-03     329.682E-03    -165.290E-03     27.9740E-03     17.2049E+06    -15.5231E+06    -71.6979E+06    -71.1304E+06    -16.0906E+06     17.2049E+06    -3.35005E+06         47.3808
             843     7.63013E-03     29.0537E-03     25.1163E-03    -24.2664E-03    -53.1696E-03    -5.35126E-03    -7.38130E-03    -39.5872E-03     42.4128E-03     330.351E-03    -164.712E-03    -165.267E-03    -164.422E-03     330.062E-03    -165.267E-03     23.9121E-03     2.30865E+06    -54.4995E+06    -80.1693E+06    -79.1749E+06    -55.4939E+06     2.30865E+06    -1.95398E+06         46.4875
             844     6.78331E-03     29.0256E-03     3.49912E-03    -20.0822E-03    -43.3887E-03    -13.8700E-03    -2.71307E-03    -43.3887E-03     1.11392E-03     330.542E-03    -165.255E-03    -165.469E-03    -165.041E-03     330.328E-03    -165.468E-03     20.4258E-03    -12.7019E+06    -80.0093E+06    -98.4776E+06    -87.2262E+06    -91.2607E+06    -12.7019E+06    -1.33557E+06         46.1429
             845     5.93628E-03     29.0090E-03     7.98130E-03    -35.0550E-03    -46.2870E-03    -32.4321E-03     5.31860E-03    -46.2472E-03     9.78522E-03     330.304E-03    -165.063E-03    -165.463E-03    -164.930E-03     330.171E-03    -165.463E-03     16.1789E-03    -30.4841E+06    -94.3565E+06    -126.190E+06    -94.9161E+06    -125.631E+06    -30.4841E+06    -2.86256E+06         46.0326
             846     5.08630E-03     28.9906E-03     18.3887E-03    -41.0237E-03    -50.3870E-03    -38.6185E-03     13.6540E-03    -48.0575E-03     7.31678E-03     330.510E-03    -164.910E-03    -165.582E-03    -165.002E-03     330.412E-03    -165.391E-03     13.8435E-03    -50.9567E+06    -104.169E+06    -153.670E+06    -104.487E+06    -153.353E+06    -50.9567E+06    -181.437E+03         45.9604
             847     4.23904E-03     28.9813E-03     22.8977E-03    -43.8119E-03    -52.1816E-03    -42.5102E-03     19.0212E-03    -49.6068E-03     423.522E-06     330.701E-03    -164.940E-03    -165.657E-03    -165.234E-03     330.630E-03    -165.293E-03     11.7537E-03    -71.2887E+06    -111.190E+06    -181.970E+06    -111.663E+06    -181.496E+06    -71.2887E+06     842.175E+03         45.8889
             848     3.39282E-03     28.9703E-03     34.2710E-03    -47.2297E-03    -63.8662E-03    -58.5364E-03     30.9086E-03    -49.1972E-03    -7.26115E-03     330.347E-03    -164.966E-03    -165.410E-03    -165.222E-03     330.307E-03    -165.114E-03     8.59942E-03    -89.0482E+06    -116.988E+06    -203.626E+06    -117.343E+06    -203.271E+06    -89.0482E+06    -1.40066E+06         45.8189
             849     2.54411E-03     28.9654E-03     32.4959E-03    -43.3494E-03    -66.2023E-03    -59.3648E-03     28.0950E-03    -45.7860E-03     6.03299E-03     330.154E-03    -164.937E-03    -165.269E-03    -165.251E-03     330.135E-03    -164.937E-03     5.90537E-03    -107.596E+06    -124.795E+06    -223.480E+06    -124.875E+06    -223.400E+06    -107.596E+06    -1.25916E+06         45.7598
             850     1.69566E-03     28.9601E-03     15.5853E-03    -39.1952E-03    -50.3560E-03    -42.2634E-03     12.2284E-03    -43.9309E-03     2.59948E-03     329.924E-03    -164.704E-03    -165.221E-03    -165.086E-03     329.914E-03    -164.830E-03     4.28513E-03    -121.015E+06    -128.588E+06    -243.366E+06    -128.603E+06    -243.351E+06    -121.015E+06    -376.214E+03         45.7232
             851     848.465E-06     28.9587E-03     50.8680E-03    -23.8318E-03    -111.974E-03     22.8256E-03     3.81776E-03    -111.581E-03    -26.5659E-03     329.843E-03    -164.444E-03    -165.383E-03    -164.757E-03     329.839E-03    -165.066E-03     2.46118E-03    -128.225E+06    -131.524E+06    -271.245E+06    -131.556E+06    -271.214E+06    -128.225E+06    -130.645E+03         45.7113
             852     14.4283E-03     28.0721E-03         100.906         1.17426        -55.3277         43.9740         2.96141    -182.518E-03         5.22982     331.398E-03    -164.455E-03    -167.163E-03    -164.947E-03     329.727E-03    -165.000E-03     57.0067E-03     135.123E+06     122.912E+06    -27.2790E+06    -23.1094E+06     125.347E+06     128.518E+06     13.6207E+06         68.8042
             853     13.5809E-03     27.9874E-03         17.8664    -701.301E-03        -46.1422        -27.9420    -333.829E-03    -701.301E-03         15.9773     329.518E-03    -163.466E-03    -166.184E-03    -162.779E-03     327.779E-03    -165.132E-03     58.1631E-03     96.5072E+06     72.6612E+06    -46.7804E+06    -42.1006E+06     68.9833E+06     95.5054E+06     4.54183E+06         65.2601
             854     12.7230E-03     27.9270E-03         3.07270     105.380E-03        -2.05013         1.63544    -559.369E-03     51.8862E-03        -2.03397     327.809E-03    -162.686E-03    -165.221E-03    -161.400E-03     326.523E-03    -165.221E-03     50.1156E-03     77.4246E+06     40.8003E+06    -52.4060E+06    -48.9128E+06      45.716E+06     69.0156E+06    -699.341E+03         61.1167
             855     11.8764E-03     27.8599E-03         1.21826     23.8063E-03    -368.575E-03     845.086E-03     58.0887E-03    -29.6880E-03    -57.8407E-03     328.124E-03    -163.053E-03    -165.356E-03    -162.001E-03     327.072E-03    -165.356E-03     45.2561E-03     67.1091E+06     46.7651E+06    -50.0331E+06    -47.9751E+06     53.9865E+06     57.8297E+06     5.08717E+06         57.2316
             856     11.0246E-03     27.8088E-03     309.445E-03    -47.8026E-03    -771.811E-03    -411.443E-03    -51.6205E-03    -47.1063E-03     133.486E-03     328.042E-03    -162.870E-03    -165.613E-03    -162.063E-03     327.235E-03    -165.613E-03     39.6876E-03     53.7165E+06     48.8963E+06    -46.9968E+06    -46.1955E+06     49.0875E+06     52.7241E+06    -3.21575E+06         53.8953
             857     10.1750E-03     27.7673E-03     240.860E-03    -30.3633E-03    -448.472E-03    -119.872E-03    -88.4365E-03    -29.6670E-03     182.579E-03     328.512E-03    -163.089E-03    -165.693E-03    -162.436E-03     327.859E-03    -165.693E-03     35.7168E-03     44.7696E+06     43.9121E+06    -51.7416E+06    -51.0225E+06     44.0287E+06     43.9338E+06    -3.03291E+06         51.1257
             858     9.32408E-03     27.7234E-03     233.107E-03    -31.5224E-03    -118.924E-03     161.373E-03    -43.8209E-03    -34.8922E-03    -154.612E-03     329.398E-03    -163.683E-03    -165.733E-03    -163.168E-03     328.883E-03    -165.733E-03     31.7081E-03     34.3349E+06     21.2674E+06    -56.9982E+06    -56.5616E+06     21.5445E+06     33.6212E+06    -2.93811E+06         48.9503
             859     8.47317E-03     27.6896E-03     32.4895E-03    -39.1434E-03    -107.919E-03    -64.2831E-03    -7.77708E-03    -42.5132E-03    -30.7284E-03     330.578E-03    -164.449E-03    -165.793E-03    -164.064E-03     330.192E-03    -165.793E-03     27.5138E-03     23.6724E+06    -15.3290E+06    -63.3916E+06    -62.9221E+06    -15.7985E+06     23.6724E+06    -4.46538E+06         47.4057
             860     7.62742E-03     27.6604E-03     11.3102E-03    -34.5945E-03    -56.2830E-03    -31.8575E-03    -5.78842E-03    -41.9214E-03     21.9421E-03     331.353E-03    -165.095E-03    -165.868E-03    -164.793E-03     331.052E-03    -165.868E-03     24.4450E-03     4.48255E+06    -57.2531E+06    -77.2197E+06    -76.6634E+06    -57.8094E+06     4.48255E+06    -1.46004E+06         46.5353
             861     6.77849E-03     27.6323E-03     1.55689E-03    -26.8653E-03    -44.4258E-03    -13.5088E-03    -11.7997E-03    -44.4258E-03    -5.13170E-03     331.141E-03    -165.176E-03    -166.112E-03    -164.943E-03     330.907E-03    -166.112E-03     21.4299E-03    -12.7303E+06    -81.6029E+06    -98.4596E+06    -85.2953E+06    -94.7672E+06    -12.7303E+06    -2.71243E+06         46.2077
             862     5.92997E-03     27.6144E-03     6.99360E-03    -32.8743E-03    -48.4773E-03    -19.0516E-03    -6.82908E-03    -48.4773E-03     31.7167E-03     331.375E-03    -165.393E-03    -166.229E-03    -165.238E-03     331.220E-03    -166.229E-03     17.3499E-03    -29.2682E+06    -91.5829E+06    -127.432E+06    -92.2760E+06    -126.739E+06    -29.2682E+06    -3.36371E+06         46.1099
             863     5.08361E-03     27.6015E-03     17.1263E-03    -42.9025E-03    -52.3905E-03    -34.2031E-03     8.13581E-03    -52.0993E-03     16.8629E-03     331.767E-03    -165.566E-03    -166.220E-03    -165.468E-03     331.669E-03    -166.220E-03     13.9257E-03    -53.0868E+06    -103.511E+06    -156.396E+06    -103.671E+06    -156.236E+06    -53.0868E+06    -1.75990E+06         46.0568
             864     4.23513E-03     27.5868E-03     27.9769E-03    -50.2862E-03    -57.6172E-03    -49.1416E-03     23.3288E-03    -54.1136E-03     4.30425E-03     332.032E-03    -165.641E-03    -166.348E-03    -165.751E-03     331.968E-03    -166.174E-03     11.1526E-03    -70.8157E+06    -109.373E+06    -180.268E+06    -109.671E+06    -179.969E+06    -70.8157E+06    -603.137E+03         46.0046
             865     3.38729E-03     27.5801E-03     36.0291E-03    -51.0797E-03    -66.7613E-03    -59.0473E-03     31.2322E-03    -53.9968E-03    -1.81306E-03     332.154E-03    -165.836E-03    -166.326E-03    -166.107E-03     332.116E-03    -166.017E-03     8.50362E-03    -88.9077E+06    -115.224E+06    -203.857E+06    -115.616E+06    -203.464E+06    -88.9077E+06    -89.9491E+03         45.9457
             866     2.54101E-03     27.5727E-03     38.7046E-03    -49.3551E-03    -67.9308E-03    -58.6239E-03     32.3891E-03    -52.3465E-03     11.1007E-03     331.898E-03    -165.805E-03    -166.115E-03    -165.979E-03     331.878E-03    -165.922E-03     6.10381E-03    -106.651E+06    -120.653E+06    -224.511E+06    -120.798E+06    -224.366E+06    -106.651E+06    -1.13979E+06         45.8928
             867     1.69482E-03     27.5691E-03     36.7543E-03    -50.1890E-03    -62.2565E-03    -54.5723E-03     29.1444E-03    -50.2632E-03     28.8329E-03     331.759E-03    -165.673E-03    -166.111E-03    -165.724E-03     331.751E-03    -166.051E-03     3.96994E-03    -119.207E+06    -125.149E+06    -244.447E+06    -125.182E+06    -244.414E+06    -119.207E+06    -953.414E+03         45.8650
             868     846.128E-06     27.5679E-03     86.9275E-03    -44.3846E-03    -129.901E-03     25.3532E-03     11.2287E-03    -123.940E-03    -52.3977E-03     332.527E-03    -165.706E-03    -166.814E-03    -165.702E-03     332.523E-03    -166.814E-03     2.74252E-03    -124.826E+06    -129.096E+06    -270.952E+06    -127.905E+06    -270.855E+06    -126.115E+06    -755.531E+03         45.8666
             869     14.4258E-03     26.6797E-03         84.8221         1.17730        -33.9659         50.6925         1.52039    -179.481E-03        -3.05596     327.059E-03    -161.868E-03    -165.103E-03    -160.007E-03     325.198E-03    -165.103E-03     59.8931E-03     142.767E+06     122.662E+06     6.12724E+06     10.3431E+06     121.157E+06     140.057E+06     15.7221E+06         68.7324
             870     13.5702E-03     26.6037E-03         5.14270    -756.371E-03        -33.9317        -28.7253    -63.7626E-03    -756.371E-03        -13.6424     329.308E-03    -163.879E-03    -165.454E-03    -162.144E-03     327.508E-03    -165.388E-03     59.0589E-03     116.352E+06     94.2835E+06     3.63649E+06     10.2863E+06     90.3441E+06     113.642E+06     13.5839E+06         65.1734
             871     12.7260E-03     26.5353E-03         3.39312     71.7492E-03        -1.14960         2.55854    -318.951E-03     75.6863E-03         1.15582     329.744E-03    -164.287E-03    -165.616E-03    -163.071E-03     328.463E-03    -165.550E-03     50.2214E-03     91.4849E+06     49.5636E+06    -12.4765E+06     -8.6088E+06     45.6959E+06     91.4849E+06     2.16146E+06         61.0480
             872     11.8715E-03     26.4751E-03         1.02120    -22.6120E-03    -703.786E-03     324.121E-03    -8.30974E-03    -21.0138E-03    -152.352E-03     327.820E-03    -162.416E-03    -165.671E-03    -161.382E-03     326.787E-03    -165.671E-03     44.8433E-03     82.2663E+06     52.8674E+06    -19.6762E+06    -19.2172E+06     53.2788E+06     81.3958E+06    -2.61111E+06         57.1888
             873     11.0189E-03     26.4215E-03     907.172E-03    -44.9720E-03    -631.820E-03     303.278E-03    -26.2828E-03    -46.6146E-03    -180.680E-03     327.591E-03    -162.000E-03    -165.933E-03    -161.180E-03     326.771E-03    -165.933E-03     39.9814E-03     62.9620E+06     55.7138E+06    -31.7559E+06    -30.1519E+06     55.3926E+06     61.6792E+06     863.166E+03         53.8678
             874     10.1682E-03     26.3765E-03     57.0332E-03    -39.9494E-03    -661.680E-03    -536.829E-03    -68.5148E-03    -39.2530E-03     155.648E-03     329.442E-03    -163.537E-03    -166.077E-03    -162.860E-03     328.766E-03    -166.077E-03     36.4126E-03     47.4780E+06     44.8886E+06    -45.9571E+06    -43.9417E+06     45.4625E+06     44.8886E+06    -2.12976E+06         51.1142
             875     9.32021E-03     26.3340E-03     160.644E-03    -22.4311E-03    -75.9780E-03     134.621E-03    -46.5856E-03    -25.8009E-03    -13.3649E-03     329.989E-03    -163.703E-03    -166.125E-03    -163.182E-03     329.467E-03    -166.125E-03     31.9326E-03     38.8133E+06     22.4919E+06    -53.9602E+06    -53.2545E+06     23.9631E+06     36.6363E+06    -3.83202E+06         48.9562
             876     8.47168E-03     26.2993E-03     87.1374E-03    -34.3983E-03    -50.9324E-03     57.7879E-03    -18.2131E-03    -37.7682E-03    -15.4197E-03     330.592E-03    -163.939E-03    -166.251E-03    -163.535E-03     330.187E-03    -166.251E-03     28.2164E-03     24.4058E+06    -20.3095E+06    -62.9239E+06    -62.6946E+06    -20.5387E+06     24.4058E+06    -1.16758E+06         47.4273
             877     7.62107E-03     26.2652E-03    -2.71766E-03    -41.3883E-03    -53.2498E-03    -36.1036E-03    -18.3625E-03    -42.8896E-03     17.8961E-03     331.623E-03    -164.791E-03    -166.496E-03    -164.480E-03     331.312E-03    -166.496E-03     24.7130E-03     8.15991E+06    -57.2516E+06    -73.5399E+06    -70.7108E+06    -60.0807E+06     8.15991E+06    -774.178E+03         46.5742
             878     6.77362E-03     26.2441E-03     616.217E-06    -37.4573E-03    -44.4906E-03    -25.1354E-03    -11.7057E-03    -44.4906E-03     279.962E-06     331.854E-03    -165.238E-03    -166.794E-03    -165.010E-03     331.626E-03    -166.794E-03     21.2525E-03    -7.85726E+06    -73.0058E+06    -96.1659E+06    -75.7007E+06    -93.4710E+06    -7.85726E+06    -1.74670E+06         46.2670
             879     5.92543E-03     26.2196E-03     8.39053E-03    -36.9278E-03    -47.3227E-03    -24.2438E-03    -4.29349E-03    -47.3227E-03     17.6247E-03     332.556E-03    -165.847E-03    -166.974E-03    -165.692E-03     332.401E-03    -166.974E-03     17.3371E-03    -27.1235E+06    -84.8185E+06    -130.057E+06    -85.9295E+06    -128.946E+06    -27.1235E+06    -2.70702E+06         46.1898
             880     5.07846E-03     26.2062E-03     11.9793E-03    -41.7707E-03    -50.6155E-03    -33.3373E-03     3.25474E-03    -50.3243E-03     5.65200E-03     333.489E-03    -166.474E-03    -167.030E-03    -166.379E-03     333.394E-03    -167.030E-03     13.7384E-03    -46.4547E+06    -94.8845E+06    -154.903E+06    -95.1572E+06    -154.631E+06    -46.4547E+06    -2.03946E+06         46.1591
             881     4.23242E-03     26.1928E-03     20.9562E-03    -48.6675E-03    -55.7573E-03    -43.9629E-03     13.0331E-03    -52.5388E-03    -2.38706E-03     333.719E-03    -166.580E-03    -166.978E-03    -166.518E-03     333.657E-03    -166.978E-03     10.9014E-03    -67.0135E+06    -103.973E+06    -179.874E+06    -104.125E+06    -179.722E+06    -67.0135E+06    -1.17031E+06         46.1230
             882     3.38577E-03     26.1829E-03     26.4201E-03    -51.7130E-03    -59.2625E-03    -43.2590E-03     13.5142E-03    -54.8107E-03    -17.5427E-03     333.604E-03    -166.457E-03    -166.980E-03    -166.511E-03     333.574E-03    -166.895E-03     7.69687E-03    -87.1093E+06    -112.633E+06    -204.341E+06    -112.917E+06    -204.058E+06    -87.1093E+06    -1.32632E+06         46.0704
             883     2.53897E-03     26.1764E-03     29.3221E-03    -51.4189E-03    -60.6918E-03    -41.6586E-03     18.0373E-03    -59.1673E-03     729.780E-06     333.531E-03    -166.486E-03    -167.020E-03    -166.556E-03     333.516E-03    -166.935E-03     5.41198E-03    -104.161E+06    -118.049E+06    -225.962E+06    -118.218E+06    -225.793E+06    -104.161E+06    -55.6079E+03         46.0259
             884     1.69120E-03     26.1747E-03     47.3545E-03    -51.2484E-03    -71.5298E-03    -50.4307E-03     40.9687E-03    -65.9617E-03     26.5447E-03     333.923E-03    -166.706E-03    -167.247E-03    -166.880E-03     333.916E-03    -167.067E-03     3.48847E-03    -116.508E+06    -123.162E+06    -246.179E+06    -123.226E+06    -246.115E+06    -116.508E+06    -170.943E+03         46.0052
             885     846.107E-06     26.1716E-03     104.325E-03    -63.7190E-03    -117.740E-03    -27.5071E-03     62.5446E-03    -112.171E-03    -84.7456E-03     334.571E-03    -166.796E-03    -167.770E-03    -167.280E-03     334.568E-03    -167.283E-03     2.19189E-03    -121.190E+06    -126.865E+06    -271.034E+06    -123.756E+06    -270.841E+06    -124.492E+06     49.1065E+03         46.0067
             886     14.4213E-03     25.3028E-03         11.3260    -36.9630E-03        -8.06441         4.80459        -1.54300    -36.9630E-03        -2.06617     325.957E-03    -160.814E-03    -165.147E-03    -159.042E-03     324.186E-03    -165.147E-03     58.4776E-03     136.522E+06     103.525E+06    -4.56707E+06    -3.87955E+06     104.546E+06     134.814E+06     3.32905E+06         68.6781
             887     13.5714E-03     25.2096E-03         3.11126    -22.0184E-03        -6.81454        -3.56220    -97.3691E-03    -65.7411E-03        -1.90016     328.031E-03    -162.683E-03    -165.470E-03    -161.129E-03     326.411E-03    -165.405E-03     55.8512E-03     107.370E+06     93.7252E+06    -19.5581E+06    -16.4107E+06     95.1559E+06     102.792E+06     6.89301E+06         65.1178
             888     12.7174E-03     25.1457E-03         2.98812    -2.57553E-03        -1.73958         1.15385     84.1559E-03     7.95713E-03         1.29580     328.374E-03    -162.802E-03    -165.801E-03    -161.680E-03     327.186E-03    -165.736E-03     48.1729E-03     88.1349E+06     65.1808E+06    -15.5007E+06    -12.7204E+06     65.2700E+06     85.2654E+06     4.65281E+06         60.9998
             889     11.8701E-03     25.0869E-03         1.20539    -67.5659E-03        -1.73308    -473.927E-03    -105.680E-03    -15.6495E-03     79.6099E-03     328.124E-03    -162.402E-03    -165.964E-03    -161.391E-03     327.113E-03    -165.964E-03     44.3695E-03     78.7971E+06     47.5252E+06    -16.1820E+06    -15.7681E+06     47.1114E+06     78.7971E+06     1.92433E+06         57.1546
             890     11.0174E-03     25.0379E-03         1.22869    -28.2204E-03    -469.023E-03     789.684E-03    -27.6783E-03    -30.5594E-03    -280.532E-03     328.284E-03    -162.390E-03    -166.268E-03    -161.560E-03     327.454E-03    -166.268E-03     40.2727E-03     71.8474E+06     54.5694E+06    -24.8120E+06    -23.6877E+06     53.7355E+06     71.5571E+06     6.03643E+06         53.8490
             891     10.1665E-03     24.9823E-03     6.30293E-03    -41.0701E-03    -576.976E-03    -536.059E-03    -34.6145E-03    -41.0701E-03     16.6986E-03     328.937E-03    -162.733E-03    -166.416E-03    -162.063E-03     328.267E-03    -166.416E-03     36.1515E-03     59.7487E+06     51.6016E+06    -33.9361E+06    -32.2658E+06     53.9746E+06     55.7054E+06     4.19970E+06         51.1085
             892     9.31600E-03     24.9452E-03     136.710E-03    -22.2059E-03    -173.402E-03     20.6229E-03    -57.3150E-03    -22.2059E-03     66.7850E-03     330.228E-03    -163.481E-03    -166.551E-03    -162.962E-03     329.709E-03    -166.551E-03     31.9269E-03     40.7128E+06     19.0180E+06    -47.2969E+06    -46.2599E+06     21.7340E+06     36.9599E+06     1.05384E+06         48.9629
             893     8.46573E-03     24.9065E-03     134.991E-03    -32.0076E-03    -57.1880E-03     126.746E-03    -48.9434E-03    -32.0076E-03    -19.5664E-03     331.305E-03    -164.110E-03    -166.759E-03    -163.701E-03     330.896E-03    -166.759E-03     28.3862E-03     23.4421E+06    -23.7440E+06    -58.6559E+06    -57.7963E+06    -24.6036E+06     23.4421E+06     128.571E+03         47.4490
             894     7.61766E-03     24.8754E-03    -7.05934E-03    -39.1536E-03    -51.0844E-03    -26.1117E-03    -30.5655E-03    -40.6202E-03    -297.430E-06     331.985E-03    -164.622E-03    -167.032E-03    -164.325E-03     331.688E-03    -167.032E-03     24.1557E-03     13.7355E+06    -51.3355E+06    -67.7468E+06    -62.2552E+06    -56.8272E+06     13.7355E+06    -2.14388E+06         46.6130
             895     6.76872E-03     24.8473E-03    -765.421E-06    -40.0026E-03    -45.3910E-03    -37.2204E-03    -7.35121E-03    -41.5875E-03     3.98201E-03     332.638E-03    -165.425E-03    -167.387E-03    -165.221E-03     332.434E-03    -167.387E-03     20.0876E-03    -3.89866E+06    -70.8544E+06    -92.2209E+06    -72.2467E+06    -90.8286E+06    -3.89866E+06    -119.866E+03         46.3215
             896     5.92212E-03     24.8280E-03     5.25824E-03    -39.1977E-03    -43.9925E-03    -38.5674E-03     2.65131E-03    -42.0159E-03     8.26440E-03     333.424E-03    -166.032E-03    -167.604E-03    -165.888E-03     333.280E-03    -167.604E-03     16.8373E-03    -26.6474E+06    -83.5033E+06    -128.685E+06    -84.5528E+06    -127.635E+06    -26.6474E+06     525.806E+03         46.2562
             897     5.07473E-03     24.8076E-03     1.70617E-03    -36.7745E-03    -45.2766E-03    -31.3770E-03    -5.80288E-03    -43.1651E-03     2.65205E-03     334.541E-03    -166.807E-03    -167.699E-03    -166.719E-03     334.453E-03    -167.699E-03     13.0383E-03    -45.9673E+06    -94.7771E+06    -159.788E+06    -95.5254E+06    -159.040E+06    -45.9673E+06    -1.64396E+06         46.2347
             898     4.22889E-03     24.7970E-03     7.38601E-03    -41.7975E-03    -47.9639E-03    -29.7316E-03    -6.97499E-03    -45.6688E-03     2.80655E-03     335.103E-03    -167.193E-03    -167.661E-03    -167.142E-03     335.052E-03    -167.661E-03     10.0629E-03    -65.2321E+06    -102.513E+06    -181.083E+06    -102.649E+06    -180.946E+06    -65.2321E+06    -766.789E+03         46.2069
             899     3.38287E-03     24.7862E-03     22.4039E-03    -48.2092E-03    -53.3355E-03    -38.8766E-03     8.12550E-03    -48.3897E-03    -26.8621E-03     335.105E-03    -167.185E-03    -167.786E-03    -167.273E-03     335.074E-03    -167.668E-03     7.68116E-03    -83.9609E+06    -108.708E+06    -204.371E+06    -108.835E+06    -204.244E+06    -83.9609E+06     445.752E+03         46.1621
             900     2.53614E-03     24.7826E-03     24.9372E-03    -45.1674E-03    -59.8240E-03    -47.5365E-03     17.4068E-03    -49.9245E-03    -17.2126E-03     335.411E-03    -167.298E-03    -168.107E-03    -167.763E-03     335.400E-03    -167.631E-03     4.39700E-03    -103.821E+06    -120.623E+06    -228.775E+06    -120.757E+06    -228.641E+06    -103.821E+06     235.748E+03         46.1225
             901     1.69152E-03     24.7761E-03     19.0228E-03    -38.0019E-03    -60.8640E-03    -43.1280E-03     15.9259E-03    -52.6410E-03     7.44307E-03     335.323E-03    -167.332E-03    -167.979E-03    -167.868E-03     335.320E-03    -167.441E-03     1.76772E-03    -115.447E+06    -124.395E+06    -243.687E+06    -124.450E+06    -243.632E+06    -115.447E+06     441.337E+03         46.1012
             902     846.138E-06     24.7737E-03     57.5179E-03    -36.9323E-03    -98.8350E-03    -56.7568E-03     31.5875E-03    -53.0803E-03    -88.0311E-03     334.878E-03    -167.092E-03    -167.790E-03    -167.789E-03     334.877E-03    -167.092E-03     1.19347E-03    -122.127E+06    -131.867E+06    -271.915E+06    -130.005E+06    -271.763E+06    -124.141E+06     2.72956E+06         46.0938
             903     14.4264E-03     23.9124E-03         3.06087    -22.3526E-03        -3.02142     235.987E-03    -205.544E-03    -13.3482E-03     152.026E-03     327.457E-03    -162.330E-03    -165.048E-03    -160.606E-03     325.733E-03    -165.048E-03     57.8235E-03     137.922E+06     102.084E+06    -8.98066E+06    -8.36463E+06     101.468E+06     137.922E+06     2.74112E+06         68.6597
             904     13.5732E-03     23.8280E-03         2.46326     7.61959E-03        -2.85134    -361.266E-03    -9.60802E-03    -9.58293E-03    -157.748E-03     327.064E-03    -161.790E-03    -165.378E-03    -160.236E-03     325.510E-03    -165.378E-03     54.4507E-03     118.080E+06     93.7396E+06    -13.5151E+06    -11.5039E+06     94.5979E+06     115.211E+06     4.34683E+06         65.1059
             905     12.7209E-03     23.7597E-03         2.44461    -4.12977E-03        -1.73008     758.168E-03    -23.4234E-03    -24.3459E-03    -12.6713E-03     326.180E-03    -160.630E-03    -165.734E-03    -159.611E-03     325.161E-03    -165.734E-03     44.4223E-03     84.0397E+06     70.9485E+06    -25.0250E+06    -23.4397E+06     72.2328E+06     81.1701E+06     2.40414E+06         60.9891
             906     11.8626E-03     23.7015E-03     769.929E-03    -41.2276E-03        -1.79032    -925.491E-03    -118.404E-03    -17.7210E-03     180.936E-03     327.134E-03    -161.348E-03    -166.000E-03    -160.468E-03     326.254E-03    -166.000E-03     41.3045E-03     63.2562E+06     50.6207E+06    -36.8169E+06    -35.8174E+06     51.2825E+06     61.5949E+06    -1.19852E+06         57.1463
             907     11.0150E-03     23.6438E-03     894.568E-03    -14.1173E-03    -227.610E-03     742.519E-03    -75.5607E-03    -14.1173E-03    -87.5019E-03     328.027E-03    -162.006E-03    -166.415E-03    -161.235E-03     327.255E-03    -166.415E-03     38.7140E-03     57.5883E+06     44.5746E+06    -41.0526E+06    -39.5679E+06     44.7511E+06     55.9270E+06    -4.91478E+06         53.8464
             908     10.1634E-03     23.5973E-03     91.7833E-03    -39.8956E-03    -364.170E-03    -244.681E-03    -33.4752E-03    -34.1264E-03    -88.6835E-03     328.270E-03    -161.818E-03    -166.702E-03    -161.156E-03     327.607E-03    -166.702E-03     35.9522E-03     56.6181E+06     49.1279E+06    -39.6227E+06    -38.4490E+06     50.0564E+06     54.5158E+06     2.37058E+06         51.1110
             909     9.31150E-03     23.5488E-03     99.3180E-03    -27.4342E-03    -241.358E-03    -97.0593E-03    -50.7499E-03    -21.6650E-03     67.2408E-03     330.080E-03    -163.092E-03    -166.938E-03    -162.572E-03     329.560E-03    -166.938E-03     31.8812E-03     42.5068E+06     27.0017E+06    -44.8693E+06    -43.9687E+06     28.2033E+06     40.4045E+06     7.92148E+06         48.9705
             910     8.46408E-03     23.5142E-03     102.852E-03    -24.4128E-03    -53.8977E-03     100.974E-03    -52.0196E-03    -24.4128E-03     197.978E-06     332.152E-03    -164.587E-03    -167.138E-03    -164.218E-03     331.783E-03    -167.138E-03     26.9598E-03     27.6380E+06    -15.5141E+06    -52.8795E+06    -51.8548E+06    -16.5388E+06     27.6380E+06     1.39514E+06         47.4670
             911     7.61501E-03     23.4810E-03    -11.5003E-03    -31.1316E-03    -49.1608E-03    -19.2005E-03    -41.4606E-03    -31.1316E-03    -14.4047E-03     332.644E-03    -164.866E-03    -167.339E-03    -164.594E-03     332.373E-03    -167.339E-03     23.1840E-03     13.3834E+06    -53.1107E+06    -67.6587E+06    -64.7173E+06    -56.0522E+06     13.3834E+06    -225.629E+03         46.6444
             912     6.76731E-03     23.4536E-03    -3.77308E-03    -32.2139E-03    -52.2407E-03    -21.2795E-03    -34.7343E-03    -32.2139E-03    -9.81942E-03     333.092E-03    -165.434E-03    -167.718E-03    -165.245E-03     332.902E-03    -167.718E-03     19.2750E-03    -9.36452E+06    -77.8273E+06    -97.9053E+06    -80.8226E+06      -94.91E+06    -9.36452E+06     2.14168E+06         46.3590
             913     5.91912E-03     23.4297E-03     6.13597E-03    -33.8821E-03    -50.8333E-03    -17.2369E-03    -27.4605E-03    -33.8821E-03    -4.38414E-03     334.119E-03    -166.245E-03    -167.982E-03    -166.122E-03     333.996E-03    -167.982E-03     15.6011E-03    -28.8801E+06    -88.7688E+06    -130.051E+06    -89.9068E+06    -128.913E+06    -28.8801E+06     4.40380E+06         46.2903
             914     5.07312E-03     23.4111E-03     1.08439E-03    -35.7704E-03    -45.5140E-03    -25.9204E-03    -18.5092E-03    -35.7704E-03     278.413E-06     335.050E-03    -166.868E-03    -168.085E-03    -166.795E-03     334.977E-03    -168.085E-03     11.8410E-03    -46.8104E+06    -94.2913E+06    -159.430E+06    -94.9031E+06    -158.818E+06    -46.8104E+06     953.262E+03         46.2666
             915     4.22691E-03     23.3995E-03    -1.40401E-03    -36.9953E-03    -42.1336E-03    -32.2059E-03    -11.3317E-03    -36.9953E-03     17.6005E-03     335.837E-03    -167.419E-03    -168.289E-03    -167.560E-03     335.803E-03    -168.114E-03     8.02548E-03    -64.4613E+06    -102.641E+06    -183.108E+06    -102.803E+06    -182.946E+06    -64.4613E+06    -1.60458E+06         46.2462
             916     3.38027E-03     23.3907E-03     5.10587E-03    -37.5200E-03    -45.2193E-03    -36.6438E-03    -3.46960E-03    -37.5200E-03    -3.49428E-03     336.172E-03    -167.804E-03    -168.361E-03    -168.081E-03     336.155E-03    -168.068E-03     5.43227E-03    -82.0513E+06    -111.958E+06    -204.758E+06    -112.110E+06    -204.605E+06    -82.0513E+06     3.24631E+06         46.2069
             917     2.53703E-03     23.3814E-03     6.63697E-03    -36.6394E-03    -48.4478E-03    -42.2755E-03     464.716E-06    -36.6394E-03    -6.32358E-03     336.173E-03    -167.705E-03    -168.436E-03    -168.174E-03     336.165E-03    -167.960E-03     3.74929E-03    -98.9610E+06    -115.808E+06    -226.034E+06    -115.955E+06    -225.887E+06    -98.9610E+06     2.77591E+06         46.1626
             918     1.69254E-03     23.3794E-03     2.44800E-03    -33.7507E-03    -50.3533E-03    -41.4638E-03    -6.44142E-03    -33.7507E-03     30.2350E-03     335.841E-03    -167.594E-03    -168.213E-03    -167.992E-03     335.836E-03    -167.810E-03     2.68062E-03    -113.740E+06    -120.905E+06    -243.067E+06    -120.935E+06    -243.037E+06    -113.740E+06     1.44563E+06         46.1389
             919     845.880E-06     23.3785E-03     36.7858E-03    -13.1036E-03    -103.260E-03    -81.5769E-03    -15.9676E-03     17.9665E-03    -25.4958E-03     335.678E-03    -167.651E-03    -168.017E-03    -168.014E-03     335.675E-03    -167.652E-03     1.98309E-03    -118.457E+06    -129.736E+06    -267.926E+06    -125.871E+06    -267.850E+06    -122.396E+06     956.069E+03         46.1339
             920     14.4248E-03     22.5299E-03         2.77888    -16.9640E-03        -2.40664     378.259E-03    -10.3293E-03    -12.6622E-03    -7.99799E-03     327.865E-03    -162.721E-03    -164.954E-03    -160.941E-03     326.086E-03    -164.954E-03     58.7414E-03     134.618E+06     100.114E+06    -6.93999E+06    -6.73001E+06     99.9042E+06     134.618E+06    -1.12817E+06         68.6751
             921     13.5736E-03     22.4383E-03         1.70845    -68.1301E-03        -2.47177    -687.317E-03    -141.597E-03    -2.53952E-03     108.639E-03     326.970E-03    -161.792E-03    -165.230E-03    -160.202E-03     325.380E-03    -165.230E-03     54.9435E-03     116.655E+06     91.8421E+06    -12.9211E+06    -11.7296E+06     90.6506E+06     116.655E+06     3.19280E+06         65.1238
             922     12.7205E-03     22.3778E-03         1.73035    -29.5419E-03    -903.088E-03     903.701E-03    -94.6561E-03    -11.3216E-03    -183.987E-03     326.331E-03    -160.916E-03    -165.578E-03    -159.869E-03     325.284E-03    -165.578E-03     45.0264E-03     88.1768E+06     72.9921E+06    -28.3211E+06    -26.9880E+06     71.6590E+06     88.1768E+06     5.54158E+06         61.0114
             923     11.8717E-03     22.3143E-03     234.519E-03    -35.3506E-03    -998.599E-03    -692.295E-03    -90.0047E-03    -17.1304E-03     48.0849E-03     326.346E-03    -160.580E-03    -165.895E-03    -159.686E-03     325.452E-03    -165.895E-03     41.4785E-03     66.2635E+06     59.3385E+06    -36.1774E+06    -34.0147E+06     59.1344E+06     64.3050E+06     2.78986E+06         57.1700
             924     11.0148E-03     22.2576E-03     453.427E-03    -5.64685E-03    -220.517E-03     330.803E-03    -97.8929E-03    -5.64685E-03     82.0413E-03     326.780E-03    -160.789E-03    -166.333E-03    -160.073E-03     326.065E-03    -166.333E-03     37.2553E-03     48.0785E+06     43.9568E+06    -44.1791E+06    -41.6519E+06     45.2211E+06     44.2870E+06    -2.33967E+06         53.8658
             925     10.1625E-03     22.2087E-03     217.066E-03    -39.2939E-03    -228.032E-03     44.1210E-03    -73.3379E-03    -21.0436E-03    -124.633E-03     328.423E-03    -162.021E-03    -166.737E-03    -161.433E-03     327.834E-03    -166.737E-03     33.8528E-03     40.6582E+06     37.2540E+06    -53.8907E+06    -52.9154E+06     38.1117E+06     38.8252E+06    -2.96565E+06         51.1254
             926     9.31203E-03     22.1595E-03     40.4018E-03    -37.1767E-03    -197.151E-03    -116.638E-03    -58.3620E-03    -18.9263E-03     19.0002E-03     329.688E-03    -162.751E-03    -167.054E-03    -162.304E-03     329.242E-03    -167.054E-03     29.4496E-03     39.3802E+06     30.5201E+06    -56.9835E+06    -56.4584E+06     29.9950E+06     39.3802E+06     1.55141E+06         48.9798
             927     8.46144E-03     22.1168E-03     46.4347E-03    -17.3314E-03    -50.9135E-03     43.3085E-03    -47.7874E-03    -17.3314E-03     30.9403E-03     331.284E-03    -163.690E-03    -167.208E-03    -163.372E-03     330.966E-03    -167.208E-03     24.9693E-03     24.0490E+06    -10.3594E+06    -63.4504E+06    -63.0195E+06    -10.7904E+06     24.0490E+06     3.21821E+06         47.4681
             928     7.61459E-03     22.0876E-03    -15.5987E-03    -23.1094E-03    -48.1173E-03    -20.7891E-03    -45.8666E-03    -20.1697E-03     9.87287E-03     332.981E-03    -165.066E-03    -167.409E-03    -164.834E-03     332.749E-03    -167.409E-03     21.3773E-03     5.33772E+06    -56.8963E+06    -75.4368E+06    -72.9724E+06    -59.3606E+06     5.33772E+06     2.00594E+06         46.6388
             929     6.76538E-03     22.0581E-03    -10.0285E-03    -23.2622E-03    -56.8942E-03    -14.2135E-03    -55.6489E-03    -20.3225E-03     103.467E-06     333.771E-03    -166.003E-03    -167.760E-03    -165.845E-03     333.613E-03    -167.760E-03     17.5150E-03    -9.17535E+06    -78.4520E+06    -97.7899E+06    -81.1676E+06    -95.0744E+06    -9.17535E+06     1.77057E+06         46.3517
             930     5.91971E-03     22.0322E-03     2.59407E-03    -21.9460E-03    -60.6947E-03    -1.71601E-03    -56.3846E-03    -21.9460E-03    -1.23799E-03     334.252E-03    -166.380E-03    -167.954E-03    -166.289E-03     334.161E-03    -167.954E-03     13.2452E-03    -25.8220E+06    -86.5621E+06    -128.757E+06    -87.2045E+06    -128.115E+06    -25.8220E+06     2.99233E+06         46.2792
             931     5.07271E-03     22.0141E-03    -1.49915E-03    -24.0474E-03    -49.6397E-03    -13.7692E-03    -37.3696E-03    -24.0474E-03    -1.77722E-03     334.887E-03    -166.677E-03    -168.090E-03    -166.627E-03     334.837E-03    -168.090E-03     9.92857E-03    -44.7108E+06    -94.9266E+06    -157.486E+06    -95.0787E+06    -157.334E+06    -44.7108E+06     854.225E+03         46.2518
             932     4.22637E-03     21.9984E-03    -9.89040E-03    -25.5914E-03    -40.8620E-03    -26.7255E-03    -25.1030E-03    -24.5152E-03    -4.74571E-03     335.931E-03    -167.499E-03    -168.339E-03    -167.648E-03     335.904E-03    -168.164E-03     6.99833E-03    -61.4715E+06    -104.108E+06    -181.117E+06    -104.300E+06    -180.925E+06    -61.4715E+06     1.83764E+06         46.2296
             933     3.38369E-03     21.9897E-03    -6.56209E-03    -25.6314E-03    -45.6698E-03    -21.5464E-03    -31.7617E-03    -24.5552E-03    -12.7832E-03     336.024E-03    -167.814E-03    -168.190E-03    -167.978E-03     336.013E-03    -168.015E-03     4.59007E-03    -80.0406E+06    -110.930E+06    -201.954E+06    -111.238E+06    -201.645E+06    -80.0406E+06     2.42040E+06         46.1870
             934     2.53572E-03     21.9840E-03    -6.39216E-03    -26.5464E-03    -49.9719E-03    -16.4380E-03    -39.9260E-03    -26.5464E-03    -20.6115E-03     335.499E-03    -167.454E-03    -168.024E-03    -167.447E-03     335.492E-03    -168.024E-03     3.20401E-03    -97.6660E+06    -115.598E+06    -223.197E+06    -115.806E+06    -222.989E+06    -97.6660E+06     1.78918E+06         46.1440
             935     1.68797E-03     21.9802E-03     6.11663E-03    -31.1067E-03    -63.5736E-03    -19.4824E-03    -37.9746E-03    -31.1067E-03     32.3849E-03     335.977E-03    -167.687E-03    -168.284E-03    -167.727E-03     335.971E-03    -168.238E-03     2.01411E-03    -113.490E+06    -121.960E+06    -242.919E+06    -122.020E+06    -242.859E+06    -113.490E+06     1.74269E+06         46.1247
             936     844.545E-06     21.9773E-03     47.9294E-03    -13.7998E-03    -117.991E-03    -87.3798E-03    -15.8043E-03     19.3230E-03     17.9457E-03     336.913E-03    -168.161E-03    -168.736E-03    -168.618E-03     336.910E-03    -168.276E-03     1.07083E-03    -121.037E+06    -129.813E+06    -265.057E+06    -125.929E+06    -265.001E+06    -124.977E+06    -237.358E+03         46.1245
             937     14.4266E-03     21.1397E-03         1.51462     3.68273E-03        -1.14710     513.481E-03    -141.258E-03    -1.01979E-03    -380.929E-03     327.340E-03    -162.449E-03    -164.997E-03    -160.691E-03     325.582E-03    -164.997E-03     58.3606E-03     131.121E+06     97.5198E+06    -8.22841E+06    -8.04417E+06     97.3355E+06     131.121E+06    -2.68949E+06         68.7325
             938     13.5739E-03     21.0539E-03     589.557E-03    -37.8460E-03        -1.23537    -528.987E-03    -155.898E-03     1.22442E-03     78.8543E-03     326.256E-03    -161.336E-03    -165.135E-03    -159.733E-03     324.654E-03    -165.135E-03     55.2151E-03     104.475E+06     82.6560E+06    -22.6955E+06    -22.4243E+06     82.3848E+06     104.475E+06    -303.214E+03         65.1788
             939     12.7216E-03     20.9908E-03     760.580E-03     2.09225E-03    -392.478E-03     485.837E-03    -117.735E-03     2.09225E-03     19.0376E-03     326.092E-03    -160.820E-03    -165.496E-03    -159.652E-03     324.924E-03    -165.496E-03     47.6151E-03     79.3775E+06     63.7538E+06    -32.5815E+06    -32.1508E+06     67.5144E+06     75.1861E+06     1.68293E+06         61.0637
             940     11.8665E-03     20.9281E-03     225.147E-03    -27.3693E-03    -452.183E-03    -163.314E-03    -83.0380E-03    -8.05359E-03    -75.9779E-03     327.486E-03    -161.607E-03    -165.918E-03    -160.577E-03     326.455E-03    -165.918E-03     44.7047E-03     67.7886E+06     57.3442E+06    -33.7499E+06    -32.1919E+06     60.2748E+06     63.3000E+06     5.61084E+06         57.2184
             941     11.0163E-03     20.8760E-03     225.614E-03    -20.7363E-03    -328.759E-03    -19.1218E-03    -103.338E-03    -1.42066E-03     97.8829E-03     328.715E-03    -162.740E-03    -166.264E-03    -161.988E-03     327.964E-03    -166.264E-03     38.2830E-03     63.6323E+06     58.3541E+06    -34.2888E+06    -30.6393E+06     56.8347E+06     61.5022E+06     12.1131E+06         53.9078
             942     10.1651E-03     20.8154E-03     219.384E-03    -32.3427E-03    -151.267E-03     140.037E-03    -97.6939E-03    -6.56976E-03    -57.9856E-03     329.379E-03    -163.274E-03    -166.431E-03    -162.752E-03     328.857E-03    -166.431E-03     31.8419E-03     48.8125E+06     43.6727E+06    -47.0917E+06    -44.5768E+06     44.8239E+06     45.1464E+06     4.64927E+06         51.1563
             943     9.31656E-03     20.7707E-03     16.8117E-03    -35.7616E-03    -132.523E-03    -60.0698E-03    -81.4141E-03    -9.98867E-03    -11.3912E-03     329.276E-03    -162.691E-03    -166.623E-03    -162.328E-03     328.913E-03    -166.623E-03     26.6448E-03     35.3316E+06     20.7349E+06    -58.2118E+06    -58.0089E+06     22.3651E+06     33.4984E+06    -3.32265E+06         48.9924
             944     8.46550E-03     20.7284E-03     29.2479E-03    -9.18297E-03    -76.8591E-03     27.0587E-03    -74.6699E-03    -9.18297E-03     25.1620E-03     330.408E-03    -163.164E-03    -166.826E-03    -162.906E-03     330.151E-03    -166.826E-03     22.3342E-03     20.7868E+06    -14.9535E+06    -67.3556E+06    -66.7487E+06    -15.5605E+06     20.7868E+06    -728.640E+03         47.4550
             945     7.61449E-03     20.6925E-03     820.001E-06    -14.1129E-03    -66.3209E-03    -3.47536E-03    -64.9652E-03    -11.1732E-03     8.10655E-03     332.369E-03    -164.831E-03    -167.083E-03    -164.672E-03     332.210E-03    -167.083E-03     17.4969E-03     7.62568E+06    -52.6481E+06    -74.4981E+06    -71.6186E+06    -55.5277E+06     7.62568E+06    -162.530E+03         46.5962
             946     6.76993E-03     20.6609E-03    -9.87902E-03    -15.7913E-03    -59.6206E-03    -15.4266E-03    -58.7255E-03    -11.1388E-03     5.52124E-03     333.196E-03    -165.863E-03    -167.362E-03    -165.760E-03     333.093E-03    -167.362E-03     14.1176E-03    -7.52863E+06    -78.5902E+06    -95.1675E+06    -79.8072E+06    -93.9505E+06    -7.52863E+06     22.2649E+03         46.2879
             947     5.92179E-03     20.6358E-03    -4.78031E-03    -12.1956E-03    -62.1092E-03    -13.7776E-03    -54.8246E-03    -10.4829E-03     30.6249E-03     333.531E-03    -166.186E-03    -167.477E-03    -166.125E-03     333.470E-03    -167.477E-03     10.8147E-03    -25.4050E+06    -89.0312E+06    -128.857E+06    -89.3300E+06    -128.558E+06    -25.4050E+06    -1.99973E+06         46.2076
             948     5.07517E-03     20.6158E-03    -3.62690E-03    -10.3359E-03    -60.4289E-03    -13.3279E-03    -51.2562E-03    -9.80759E-03     38.6233E-03     334.155E-03    -166.485E-03    -167.607E-03    -166.456E-03     334.125E-03    -167.607E-03     7.45251E-03    -42.6322E+06    -96.4735E+06    -156.969E+06    -97.3940E+06    -156.049E+06    -42.6322E+06     1.76402E+06         46.1672
             949     4.22906E-03     20.5999E-03    -3.75631E-03    -10.7339E-03    -58.2205E-03    -11.5589E-03    -52.0223E-03    -9.12939E-03    -5.78615E-03     334.315E-03    -166.495E-03    -167.669E-03    -166.480E-03     334.300E-03    -167.669E-03     5.00142E-03    -61.7958E+06    -103.333E+06    -180.124E+06    -104.371E+06    -179.086E+06    -61.7958E+06     3.00346E+06         46.1252
             950     3.38049E-03     20.5902E-03     4.01455E-03    -10.4849E-03    -70.5220E-03    -4.31883E-03    -63.2648E-03    -9.40872E-03    -35.9392E-03     334.599E-03    -166.814E-03    -167.707E-03    -166.807E-03     334.591E-03    -167.707E-03     3.28637E-03    -80.3181E+06    -111.231E+06    -202.730E+06    -111.718E+06    -202.243E+06    -80.3181E+06    -1.18723E+06         46.0817
             951     2.53671E-03     20.5854E-03     4.95547E-03    -12.0394E-03    -72.0673E-03     386.691E-06    -67.4986E-03    -12.0394E-03    -24.9126E-03     335.261E-03    -167.336E-03    -167.922E-03    -167.437E-03     335.257E-03    -167.817E-03     2.17922E-03    -96.5400E+06    -118.799E+06    -222.173E+06    -118.922E+06    -222.050E+06    -96.5400E+06     700.501E+03         46.0539
             952     1.69248E-03     20.5809E-03     9.14012E-03    -25.2015E-03    -68.4537E-03    -9.63139E-03    -59.3674E-03    -15.5163E-03     18.8303E-03     335.568E-03    -167.500E-03    -168.074E-03    -167.603E-03     335.566E-03    -167.969E-03     1.25577E-03    -112.162E+06    -123.708E+06    -239.277E+06    -123.787E+06    -239.198E+06    -112.162E+06     1.86212E+06         46.0406
             953     845.035E-06     20.5769E-03     37.9634E-03    -15.9253E-03    -107.777E-03    -54.6544E-03    -51.9605E-03     20.8765E-03     26.6370E-03     336.278E-03    -167.650E-03    -168.617E-03    -167.954E-03     336.276E-03    -168.312E-03     873.673E-06    -124.425E+06    -130.825E+06    -262.787E+06    -130.141E+06    -262.738E+06    -125.158E+06     1.32103E+06         46.0377
             954     14.4254E-03     19.7550E-03     630.934E-03    -37.3818E-03    -644.688E-03     158.508E-03    -222.922E-03     13.2777E-03    -111.271E-03     326.528E-03    -161.572E-03    -165.021E-03    -159.735E-03     324.691E-03    -165.021E-03     59.5299E-03     130.349E+06     95.3672E+06    -9.68101E+06    -9.28214E+06     94.9683E+06     130.349E+06     2.46036E+06         68.8438
             955     13.5728E-03     19.6701E-03     435.931E-03    -23.5334E-03    -508.201E-03     7.37459E-03    -112.953E-03     9.77536E-03    -4.73065E-03     326.582E-03    -161.704E-03    -165.135E-03    -160.047E-03     324.925E-03    -165.135E-03     56.1164E-03     95.7042E+06     75.7977E+06    -26.2492E+06    -25.5084E+06     75.0569E+06     95.7042E+06     852.787E+03         65.2883
             956     12.7183E-03     19.6069E-03     377.292E-03    -22.5536E-03    -482.883E-03    -13.6271E-06    -138.885E-03     10.7552E-03     76.7772E-03     327.227E-03    -161.967E-03    -165.476E-03    -160.871E-03     326.130E-03    -165.476E-03     46.1567E-03     79.1784E+06     67.9744E+06    -23.8211E+06    -23.2173E+06     71.5619E+06     74.9870E+06     314.634E+03         61.1647
             957     11.8665E-03     19.5418E-03     364.619E-03    -39.0525E-03    -295.745E-03     152.690E-03    -129.248E-03     6.37951E-03    -65.0036E-03     329.463E-03    -163.744E-03    -165.806E-03    -162.890E-03     328.593E-03    -165.790E-03     41.0234E-03     67.2941E+06     58.5576E+06    -32.8982E+06    -32.6642E+06     62.6602E+06     62.9575E+06     522.010E+03         57.3068
             958     11.0176E-03     19.4788E-03     114.692E-03    -40.0855E-03    -268.088E-03    -89.9369E-03    -108.891E-03     5.34652E-03     20.5032E-03     330.453E-03    -164.802E-03    -165.961E-03    -164.206E-03     329.840E-03    -165.944E-03     34.5575E-03     59.6402E+06     56.2386E+06    -46.0732E+06    -42.2323E+06     52.5429E+06     59.4949E+06     933.657E+03         53.9804
             959     10.1720E-03     19.4287E-03     116.373E-03    -7.57023E-03    -113.791E-03     94.5185E-03    -105.227E-03     5.72160E-03    -7.55685E-03     329.679E-03    -163.960E-03    -165.955E-03    -163.524E-03     329.243E-03    -165.955E-03     29.1550E-03     59.4519E+06     55.8649E+06    -43.6381E+06    -38.7533E+06     53.2722E+06     57.1598E+06     5.57409E+06         51.2056
             960     9.31983E-03     19.3810E-03     11.8516E-03    -12.4329E-03    -105.139E-03    -11.7557E-03    -97.0930E-03     3.12879E-03    -23.1225E-03     329.706E-03    -163.657E-03    -165.953E-03    -163.346E-03     329.395E-03    -165.953E-03     24.6617E-03     43.3539E+06     27.0861E+06    -47.8041E+06    -46.7378E+06     28.3119E+06     41.0618E+06     4.17009E+06         49.0111
             961     8.47187E-03     19.3374E-03     23.3241E-03     1.11722E-03    -98.3334E-03     20.7837E-03    -98.0629E-03     3.38709E-03     5.28413E-03     330.742E-03    -164.247E-03    -166.062E-03    -164.038E-03     330.533E-03    -166.062E-03     20.0433E-03     26.0566E+06    -15.6689E+06    -59.4923E+06    -58.8464E+06    -16.3147E+06     26.0566E+06    -528.009E+03         47.4375
             962     7.62529E-03     19.2972E-03     18.3377E-03     2.20401E-03    -96.4490E-03     15.6509E-03    -93.7622E-03     2.20401E-03    -19.8232E-03     331.045E-03    -164.407E-03    -166.236E-03    -164.293E-03     330.932E-03    -166.236E-03     14.7977E-03     10.2042E+06    -54.3230E+06    -72.6481E+06    -71.3817E+06    -55.5894E+06     10.2042E+06     886.250E+03         46.5354
             963     6.77401E-03     19.2656E-03     6.35128E-03     270.450E-06    -89.0631E-03     82.3151E-06    -84.5069E-03     1.98320E-03    -34.4581E-03     331.237E-03    -164.884E-03    -166.467E-03    -164.822E-03     331.175E-03    -166.467E-03     10.7159E-03    -6.12770E+06    -77.7384E+06    -94.5608E+06    -80.3462E+06    -91.9530E+06    -6.12770E+06     276.947E+03         46.1840
             964     5.92695E-03     19.2406E-03     5.13733E-03     1.21582E-03    -86.9007E-03    -3.91298E-03    -79.5632E-03     2.92857E-03    -2.50440E-03     331.795E-03    -165.409E-03    -166.573E-03    -165.376E-03     331.762E-03    -166.573E-03     7.57445E-03    -25.5097E+06    -90.0949E+06    -128.649E+06    -91.0910E+06    -127.653E+06    -25.5097E+06    -412.219E+03         46.0709
             965     5.08065E-03     19.2191E-03     10.1986E-03     3.26625E-03    -90.4978E-03     2.25641E-03    -83.0839E-03     3.79456E-03     23.6306E-03     332.239E-03    -165.508E-03    -166.632E-03    -165.494E-03     332.226E-03    -166.632E-03     4.97848E-03    -45.4063E+06    -98.3213E+06    -158.831E+06    -100.207E+06    -156.946E+06    -45.4063E+06     860.745E+03         46.0050
             966     4.23315E-03     19.2063E-03     17.0475E-03     2.84031E-03    -94.9307E-03     10.4103E-03    -88.8218E-03     3.36862E-03    -589.435E-06     332.330E-03    -165.446E-03    -166.673E-03    -165.442E-03     332.326E-03    -166.673E-03     2.51481E-03    -63.9778E+06    -105.338E+06    -182.353E+06    -106.941E+06    -180.750E+06    -63.9778E+06     41.6142E+03         45.9444
             967     3.38585E-03     19.1947E-03     15.9421E-03     1.83108E-03    -94.3788E-03     8.00315E-03    -86.5941E-03     1.98524E-03    -25.2955E-03     332.573E-03    -165.697E-03    -166.779E-03    -165.696E-03     332.572E-03    -166.779E-03     547.800E-06    -84.4695E+06    -115.042E+06    -203.414E+06    -115.646E+06    -202.810E+06    -84.4695E+06    -790.885E+03         45.8890
             968     2.53715E-03     19.1861E-03     8.31568E-03     1.03820E-03    -85.8139E-03     1.65968E-03    -79.3120E-03     1.19235E-03     4.77336E-03     333.283E-03    -166.238E-03    -167.047E-03    -166.340E-03     333.280E-03    -166.942E-03    -20.3928E-06    -102.575E+06    -122.822E+06    -224.790E+06    -122.946E+06    -224.665E+06    -102.575E+06    -1.28756E+06         45.8574
             969     1.69077E-03     19.1849E-03     10.2090E-03    -5.82514E-03    -83.0986E-03    -7.00628E-03    -75.5685E-03     3.86009E-03     41.5808E-03     334.014E-03    -166.659E-03    -167.358E-03    -166.969E-03     334.010E-03    -167.044E-03     353.011E-06    -114.908E+06    -126.551E+06    -239.590E+06    -126.629E+06    -239.512E+06    -114.908E+06     751.053E+03         45.8469
             970     845.824E-06     19.1797E-03     32.0852E-03    -9.86330E-03    -102.162E-03    -14.4083E-03    -93.1637E-03     27.6319E-03     37.3277E-03     334.288E-03    -166.713E-03    -167.550E-03    -166.920E-03     334.286E-03    -167.342E-03     400.851E-06    -124.321E+06    -129.930E+06    -257.751E+06    -128.154E+06    -257.691E+06    -126.158E+06     835.514E+03         45.8403
             971     14.4229E-03     18.3716E-03     481.583E-03    -49.2867E-03    -607.963E-03    -64.0187E-03    -134.357E-03     22.7090E-03     87.5179E-03     326.910E-03    -161.973E-03    -165.024E-03    -160.156E-03     325.093E-03    -165.024E-03     59.3114E-03     129.654E+06     94.6721E+06    -7.79571E+06    -7.31987E+06     94.1963E+06     129.654E+06     5.49297E+06         69.0114
             972     13.5699E-03     18.2816E-03     479.578E-03    -40.0408E-03    -375.100E-03     182.391E-03    -138.657E-03     20.7044E-03    -8.13004E-03     328.993E-03    -163.444E-03    -165.743E-03    -162.421E-03     327.440E-03    -165.212E-03     54.3204E-03     106.896E+06     84.0198E+06    -14.0675E+06    -13.0458E+06     82.9981E+06     106.896E+06     3.47900E+06         65.4633
             973     12.7225E-03     18.2182E-03     207.527E-03    -40.8103E-03    -385.670E-03    -93.5104E-03    -145.378E-03     19.9349E-03     16.6755E-03     331.558E-03    -164.480E-03    -167.093E-03    -165.293E-03     330.645E-03    -165.367E-03     42.4767E-03     89.7133E+06     73.8819E+06    -21.8104E+06    -20.8502E+06     72.9217E+06     89.7133E+06     4.16241E+06         61.3302
             974     11.8752E-03     18.1474E-03     207.646E-03    -6.35499E-03    -182.634E-03     144.532E-03    -145.637E-03     19.7614E-03     29.8471E-03     331.389E-03    -165.015E-03    -166.504E-03    -165.564E-03     330.726E-03    -165.292E-03     36.0651E-03     74.5398E+06     65.9523E+06    -29.6076E+06    -29.2609E+06     65.7508E+06     74.3946E+06     1.82561E+06         57.4489
             975     11.0286E-03     18.0896E-03     43.2831E-03    -9.03040E-03    -168.870E-03    -16.0792E-03    -135.624E-03     17.0860E-03    -7.68044E-03     329.141E-03    -164.273E-03    -165.257E-03    -163.830E-03     328.682E-03    -165.241E-03     30.0169E-03     52.3995E+06     50.6282E+06    -45.6423E+06    -43.9843E+06     50.2362E+06     51.1334E+06    -8.49931E+06         54.0893
             976     10.1756E-03     18.0362E-03     49.6122E-03     17.6733E-03    -130.982E-03     46.0464E-03    -127.416E-03     17.6733E-03     8.26454E-03     329.140E-03    -163.906E-03    -165.549E-03    -163.840E-03     328.793E-03    -165.268E-03     26.0224E-03     45.7706E+06     43.5629E+06    -57.5049E+06    -54.3439E+06     41.9816E+06     44.1909E+06    -5.85668E+06         51.2754
             977     9.32940E-03     17.9897E-03     23.0290E-03     11.3205E-03    -119.030E-03     15.6962E-03    -117.371E-03     16.9949E-03    -9.04298E-03     330.114E-03    -164.557E-03    -165.604E-03    -164.764E-03     329.877E-03    -165.159E-03     21.4631E-03     44.1752E+06     32.9173E+06    -56.4430E+06    -54.6380E+06     31.5712E+06     43.7163E+06     3.34945E+06         49.0402
             978     8.48157E-03     17.9432E-03     20.5974E-03     10.4655E-03    -112.605E-03     12.4486E-03    -111.737E-03     17.7461E-03     11.8137E-03     330.199E-03    -164.677E-03    -165.250E-03    -164.744E-03     330.055E-03    -165.040E-03     16.5331E-03     30.0282E+06    -7.40595E+06    -61.5767E+06    -60.8494E+06    -8.13331E+06     30.0282E+06     5.10946E+06         47.4198
             979     7.63177E-03     17.9075E-03     24.4863E-03     16.3428E-03    -118.286E-03     18.6613E-03    -114.502E-03     18.3843E-03    -713.428E-06     329.887E-03    -164.309E-03    -165.276E-03    -164.515E-03     329.811E-03    -164.995E-03     11.6210E-03     10.8179E+06    -51.8403E+06    -73.9471E+06    -72.9268E+06    -52.8605E+06     10.8179E+06     4.12437E+06         46.4628
             980     6.78536E-03     17.8745E-03     24.5492E-03     18.3125E-03    -123.558E-03     18.1834E-03    -117.628E-03     18.7478E-03    -11.6515E-03     329.280E-03    -164.211E-03    -165.269E-03    -164.415E-03     329.249E-03    -165.034E-03     7.12819E-03    -8.25125E+06    -77.5929E+06    -98.3172E+06    -82.1846E+06    -93.7255E+06    -8.25125E+06     474.627E+03         46.0535
             981     5.93693E-03     17.8501E-03     28.5313E-03     18.6213E-03    -128.122E-03     24.7041E-03    -124.295E-03     18.6213E-03     5.79917E-03     328.917E-03    -164.089E-03    -165.062E-03    -164.080E-03     328.908E-03    -165.062E-03     3.58248E-03    -26.4448E+06    -89.2660E+06    -127.996E+06    -90.1060E+06    -127.156E+06    -26.4448E+06     694.891E+03         45.8872
             982     5.08705E-03     17.8290E-03     39.1531E-03     16.7348E-03    -135.562E-03     36.4329E-03    -132.842E-03     16.7348E-03     29.4943E-03     329.108E-03    -163.932E-03    -165.086E-03    -163.927E-03     329.103E-03    -165.086E-03     951.183E-06    -45.7677E+06    -98.1490E+06    -156.939E+06    -99.3433E+06    -155.745E+06    -45.7677E+06    -216.556E+03         45.7834
             983     4.23830E-03     17.8141E-03     33.7147E-03     13.4221E-03    -127.336E-03     31.3120E-03    -124.934E-03     13.4221E-03     18.5632E-03     329.690E-03    -164.452E-03    -165.083E-03    -164.464E-03     329.686E-03    -165.065E-03    -729.003E-06    -67.1027E+06    -109.066E+06    -183.928E+06    -110.126E+06    -182.869E+06    -67.1027E+06    -1.58501E+06         45.6991
             984     3.39111E-03     17.8025E-03     16.9016E-03     10.2082E-03    -109.281E-03     12.0401E-03    -105.880E-03     11.6681E-03    -14.2349E-03     330.041E-03    -164.669E-03    -165.276E-03    -164.919E-03     330.036E-03    -165.022E-03    -2.09824E-03    -84.5463E+06    -114.345E+06    -201.515E+06    -114.913E+06    -200.948E+06    -84.5463E+06    -641.020E+03         45.6180
             985     2.54382E-03     17.7968E-03     12.9912E-03     11.1109E-03    -103.224E-03     5.22717E-03    -97.3322E-03     12.9835E-03    -1.28930E-03     329.826E-03    -164.455E-03    -165.374E-03    -164.829E-03     329.821E-03    -164.995E-03    -3.10523E-03    -104.724E+06    -122.209E+06    -224.665E+06    -122.326E+06    -224.549E+06    -104.724E+06    -1.62195E+06         45.5572
             986     1.69527E-03     17.7875E-03     24.7508E-03     13.2654E-03    -112.400E-03     16.2996E-03    -104.361E-03     13.6781E-03     28.1944E-03     329.938E-03    -164.658E-03    -165.286E-03    -165.004E-03     329.933E-03    -164.935E-03    -2.99740E-03    -120.741E+06    -131.186E+06    -242.438E+06    -131.392E+06    -242.232E+06    -120.741E+06    -2.59566E+06         45.5251
             987     848.160E-06     17.7846E-03     34.7138E-03    -83.8346E-06    -105.458E-03     23.4189E-03    -96.9087E-03     2.66215E-03     30.5995E-03     329.887E-03    -164.633E-03    -165.239E-03    -165.129E-03     329.884E-03    -164.740E-03    -1.96148E-03    -127.262E+06    -133.957E+06    -260.562E+06    -131.684E+06    -260.334E+06    -129.763E+06    -1.06275E+06         45.5025
             988     14.4251E-03     16.9864E-03     192.450E-03    -23.1147E-03    -272.204E-03     24.5137E-03    -160.014E-03     32.6325E-03     10.7075E-03     330.949E-03    -163.993E-03    -167.259E-03    -164.710E-03     329.392E-03    -164.985E-03     55.3953E-03     130.662E+06     94.7449E+06    -8.01635E+06    -7.70902E+06     94.4375E+06     130.662E+06     2.67147E+06         69.2271
             989     13.5747E-03     16.8936E-03     167.767E-03    -29.8486E-03    -200.735E-03     80.5329E-03    -175.348E-03     31.9987E-03    -2.32928E-03     331.845E-03    -164.562E-03    -167.468E-03    -165.728E-03     330.550E-03    -165.006E-03     49.9592E-03     120.664E+06     93.6153E+06    -5.40337E+06    -4.74810E+06     92.9601E+06     120.664E+06     4.19836E+06         65.6988
             990     12.7285E-03     16.8187E-03     94.8820E-03    -9.09418E-03    -190.653E-03     25.2111E-03    -161.384E-03     31.3070E-03    -4.60028E-03     332.590E-03    -164.924E-03    -167.603E-03    -166.795E-03     331.782E-03    -164.924E-03     40.1229E-03     89.0872E+06     66.4713E+06    -25.3293E+06    -24.7071E+06     65.8490E+06     89.0872E+06     3.01053E+06         61.5448
             991     11.8864E-03     16.7553E-03     74.7393E-03     18.2310E-03    -165.323E-03     55.6827E-03    -159.231E-03     31.1957E-03     29.5591E-03     331.255E-03    -164.629E-03    -166.801E-03    -166.054E-03     330.585E-03    -164.706E-03     36.3773E-03     80.1563E+06     65.4817E+06    -27.1469E+06    -26.4843E+06     64.8191E+06     80.1563E+06     2.16014E+06         57.6197
             992     11.0352E-03     16.7034E-03     44.7245E-03     27.2093E-03    -157.575E-03     39.1704E-03    -155.315E-03     30.5033E-03     13.3606E-03     330.098E-03    -163.942E-03    -166.475E-03    -165.435E-03     329.622E-03    -164.505E-03     30.4180E-03     69.9851E+06     63.5130E+06    -29.2675E+06    -27.8427E+06     65.2539E+06     66.8194E+06     5.22234E+06         54.2193
             993     10.1885E-03     16.6479E-03     38.5766E-03     27.3005E-03    -153.260E-03     32.7257E-03    -150.703E-03     30.5945E-03     4.45753E-03     330.257E-03    -163.762E-03    -166.678E-03    -165.892E-03     329.958E-03    -164.249E-03     24.2194E-03     41.7189E+06     36.0322E+06    -51.1756E+06    -49.6153E+06     37.6376E+06     38.5532E+06    -1.68346E+06         51.3653
             994     9.34037E-03     16.5955E-03     41.7310E-03     27.2580E-03    -152.670E-03     37.7630E-03    -152.107E-03     30.6626E-03     2.00829E-03     330.095E-03    -163.930E-03    -166.173E-03    -166.002E-03     329.924E-03    -163.930E-03     17.8800E-03     36.0482E+06     21.2197E+06    -61.1506E+06    -59.7091E+06     19.7782E+06     36.0482E+06    -6.39095E+06         49.0843
             995     8.49319E-03     16.5563E-03     39.9396E-03     25.5860E-03    -149.270E-03     33.6060E-03    -147.947E-03     30.5967E-03     28.0828E-03     329.378E-03    -163.578E-03    -165.617E-03    -165.542E-03     329.304E-03    -163.578E-03     11.5195E-03     33.7808E+06    -2.87580E+06    -63.9402E+06    -62.7510E+06    -4.06504E+06     33.7808E+06     1.87372E+06         47.4087
             996     7.64666E-03     16.5152E-03     37.8252E-03     28.4971E-03    -147.002E-03     34.1666E-03    -145.385E-03     30.5387E-03     24.8640E-03     328.337E-03    -163.312E-03    -164.915E-03    -164.888E-03     328.310E-03    -163.312E-03     6.50114E-03     13.8928E+06    -45.6052E+06    -72.7780E+06    -69.7882E+06    -48.5949E+06     13.8928E+06     3.56813E+06         46.3834
             997     6.79806E-03     16.4874E-03     37.3362E-03     29.7843E-03    -148.132E-03     35.2524E-03    -146.483E-03     30.2196E-03     23.3525E-03     326.950E-03    -162.970E-03    -164.230E-03    -164.097E-03     326.942E-03    -163.095E-03     2.43435E-03    -8.16622E+06    -76.5373E+06    -95.5638E+06    -79.6634E+06    -92.4377E+06    -8.16622E+06     1.22856E+06         45.9011
             998     5.94837E-03     16.4609E-03     40.6719E-03     28.2293E-03    -150.475E-03     36.8116E-03    -147.914E-03     29.5285E-03     19.2510E-03     325.952E-03    -162.545E-03    -163.555E-03    -163.181E-03     325.945E-03    -162.912E-03    -1.05883E-03    -26.0889E+06    -87.9036E+06    -126.698E+06    -88.0476E+06    -126.554E+06    -26.0889E+06    -466.188E+03         45.6740
             999     5.09977E-03     16.4420E-03     45.4251E-03     19.6626E-03    -149.660E-03     33.0478E-03    -146.414E-03     28.7941E-03     23.4456E-03     325.734E-03    -162.314E-03    -163.382E-03    -162.934E-03     325.722E-03    -162.750E-03    -4.24149E-03    -44.5847E+06    -96.2256E+06    -156.199E+06    -96.4381E+06    -155.986E+06    -44.5847E+06     75.4754E+03         45.5171
            1000     4.25000E-03     16.4255E-03     39.7400E-03     15.7676E-03    -141.336E-03     23.9518E-03    -138.909E-03     29.1284E-03     8.58903E-03     325.497E-03    -162.285E-03    -163.138E-03    -162.921E-03     325.473E-03    -162.478E-03    -6.12847E-03    -65.0619E+06    -103.226E+06    -179.464E+06    -103.567E+06    -179.123E+06    -65.0619E+06    -1.12448E+06         45.3812
            1001     3.39967E-03     16.4131E-03     34.6556E-03     23.8124E-03    -142.478E-03     24.0815E-03    -138.739E-03     30.6467E-03    -43.9686E-03     325.253E-03    -162.244E-03    -162.898E-03    -162.871E-03     325.226E-03    -162.244E-03    -6.70746E-03    -84.5278E+06    -114.045E+06    -203.720E+06    -114.400E+06    -203.366E+06    -84.5278E+06    -3.23820E+06         45.2578
            1002     2.55092E-03     16.4061E-03     38.1735E-03     30.0434E-03    -146.898E-03     30.8325E-03    -141.275E-03     31.7618E-03    -14.6932E-03     324.829E-03    -162.005E-03    -162.810E-03    -162.790E-03     324.809E-03    -162.005E-03    -5.88114E-03    -99.1857E+06    -121.028E+06    -225.233E+06    -121.162E+06    -225.099E+06    -99.1857E+06    -305.023E+03         45.1583
            1003     1.70230E-03     16.4029E-03     42.1498E-03     23.6877E-03    -138.988E-03     30.1620E-03    -135.945E-03     32.6329E-03     2.86015E-03     323.772E-03    -161.679E-03    -162.106E-03    -162.071E-03     323.762E-03    -161.704E-03    -4.27042E-03    -114.557E+06    -126.237E+06    -240.777E+06    -124.995E+06    -240.577E+06    -115.998E+06    -742.574E+03         45.0812
            1004     850.465E-06     16.3990E-03     68.7411E-03     8.51467E-03    -141.513E-03     49.6356E-03    -130.940E-03     17.0472E-03     52.8896E-03     323.258E-03    -161.415E-03    -161.834E-03    -161.805E-03     323.255E-03    -161.440E-03    -2.45009E-03    -126.007E+06    -135.900E+06    -266.028E+06    -133.442E+06    -265.647E+06    -128.846E+06    -2.45100E+06         45.0229
            1005     14.4283E-03     15.5874E-03     103.449E-03     8.44909E-03    -195.346E-03     67.1181E-03    -194.775E-03     44.2088E-03    -5.16511E-03     334.430E-03    -164.725E-03    -169.967E-03    -168.529E-03     332.993E-03    -164.725E-03     53.3987E-03     127.207E+06     89.3340E+06    -14.7691E+06    -14.1624E+06     88.7273E+06     127.207E+06    -3.80335E+06         69.4621
            1006     13.5882E-03     15.5020E-03     77.2444E-03     8.57707E-03    -184.028E-03     41.0293E-03    -183.572E-03     44.3368E-03     3.56201E-03     333.067E-03    -164.574E-03    -168.722E-03    -167.335E-03     331.680E-03    -164.574E-03     52.0773E-03     113.993E+06     86.6515E+06    -15.7726E+06    -14.7823E+06     85.6612E+06     113.993E+06     1.74934E+06         65.9418
            1007     12.7405E-03     15.4269E-03     77.5264E-03     28.3408E-03    -181.401E-03     60.3131E-03    -180.465E-03     44.6187E-03    -3.21653E-03     330.684E-03    -164.403E-03    -166.327E-03    -165.333E-03     329.690E-03    -164.403E-03     44.0976E-03     90.2852E+06     70.9978E+06    -17.5773E+06    -16.9063E+06     73.6791E+06     86.9329E+06     3.35284E+06         61.7608
            1008     11.8857E-03     15.3682E-03     57.5370E-03     25.6785E-03    -176.801E-03     37.2518E-03    -175.910E-03     45.0730E-03    -9.23459E-03     331.867E-03    -164.159E-03    -167.923E-03    -167.151E-03     331.094E-03    -164.159E-03     38.8197E-03     70.7604E+06     57.1901E+06    -28.5073E+06    -27.9419E+06     59.9771E+06     67.4081E+06     3.95687E+06         57.7946
            1009     11.0425E-03     15.3052E-03     60.5147E-03     39.3322E-03    -178.621E-03     53.7584E-03    -178.275E-03     45.7427E-03    -8.88460E-03     333.808E-03    -163.801E-03    -170.390E-03    -169.942E-03     333.361E-03    -163.801E-03     29.4008E-03     67.9636E+06     61.0148E+06    -34.0474E+06    -32.7705E+06     61.7830E+06     65.9187E+06     7.59125E+06         54.3618
            1010     10.2000E-03     15.2545E-03     54.0071E-03     42.6301E-03    -183.842E-03     49.7777E-03    -182.907E-03     45.9241E-03    -26.1105E-03     332.750E-03    -163.084E-03    -169.760E-03    -169.529E-03     332.520E-03    -163.084E-03     21.1301E-03     60.0886E+06     54.3332E+06    -35.3524E+06    -34.1531E+06     56.4408E+06     56.7816E+06     5.47189E+06         51.4729
            1011     9.35514E-03     15.2076E-03     62.1773E-03     45.6266E-03    -189.940E-03     61.2435E-03    -189.006E-03     45.6266E-03    -18.6840E-03     330.651E-03    -162.291E-03    -168.041E-03    -167.930E-03     330.540E-03    -162.291E-03     14.0857E-03     41.1369E+06     23.5554E+06    -48.8586E+06    -47.8086E+06     23.7674E+06     39.8749E+06    -638.167E+03         49.1458
            1012     8.51027E-03     15.1623E-03     65.4571E-03     44.3893E-03    -192.110E-03     64.5336E-03    -191.187E-03     44.3893E-03     18.2839E-03     328.745E-03    -161.684E-03    -166.764E-03    -166.733E-03     328.714E-03    -161.684E-03     7.09669E-03     26.7725E+06    -14.3382E+06    -66.3205E+06    -60.9259E+06    -19.7328E+06     26.7725E+06    -4.96941E+06         47.4131
            1013     7.66312E-03     15.1323E-03     58.0843E-03     43.0141E-03    -183.744E-03     56.7024E-03    -182.362E-03     43.0141E-03     2.95974E-03     326.492E-03    -161.213E-03    -165.253E-03    -165.246E-03     326.485E-03    -161.213E-03     1.98024E-03     16.9605E+06    -42.0387E+06    -73.7223E+06    -64.9471E+06    -50.8138E+06     16.9605E+06     370.157E+03         46.3184
            1014     6.81443E-03     15.1004E-03     49.8884E-03     42.1574E-03    -176.773E-03     48.9628E-03    -175.847E-03     42.1574E-03    -16.5507E-03     324.439E-03    -160.722E-03    -164.013E-03    -164.005E-03     324.430E-03    -160.722E-03    -2.52474E-03     514.571E+03    -65.5598E+06    -89.3376E+06    -72.5726E+06    -82.3248E+06     514.571E+03     4.39210E+06         45.7577
            1015     5.96618E-03     15.0775E-03     45.2860E-03     36.0529E-03    -166.115E-03     37.9023E-03    -165.011E-03     42.3331E-03    -5.30483E-03     323.171E-03    -160.163E-03    -163.172E-03    -163.143E-03     323.142E-03    -160.163E-03    -6.73675E-03    -24.8771E+06    -85.3743E+06    -123.300E+06    -85.4653E+06    -123.209E+06    -24.8771E+06     1.30484E+06         45.4495
            1016     5.11535E-03     15.0567E-03     44.5711E-03     25.6638E-03    -155.060E-03     24.3941E-03    -153.791E-03     44.5711E-03     6.45473E-03     321.822E-03    -159.559E-03    -162.204E-03    -162.146E-03     321.764E-03    -159.559E-03    -9.90409E-03    -45.7634E+06    -95.3281E+06    -155.589E+06    -95.3481E+06    -155.569E+06    -45.7634E+06     225.199E+03         45.2116
            1017     4.26562E-03     15.0428E-03     50.4771E-03     29.9203E-03    -167.173E-03     31.6508E-03    -166.502E-03     48.0759E-03     10.4955E-03     320.139E-03    -158.900E-03    -161.143E-03    -161.068E-03     320.064E-03    -158.900E-03    -11.5970E-03    -63.0062E+06    -104.272E+06    -178.093E+06    -104.345E+06    -178.020E+06    -63.0062E+06     769.461E+03         44.9985
            1018     3.41436E-03     15.0361E-03     55.9279E-03     43.9438E-03    -183.997E-03     48.5018E-03    -182.648E-03     50.0202E-03    -22.4205E-03     318.298E-03    -158.340E-03    -159.835E-03    -159.761E-03     318.225E-03    -158.340E-03    -11.5888E-03    -85.8959E+06    -114.164E+06    -201.394E+06    -114.442E+06    -201.116E+06    -85.8959E+06     978.273E+03         44.8018
            1019     2.56087E-03     15.0290E-03     56.6394E-03     48.2433E-03    -185.692E-03     50.4805E-03    -181.518E-03     50.2276E-03     14.6900E-03     316.738E-03    -157.970E-03    -158.742E-03    -158.673E-03     316.681E-03    -157.983E-03    -10.0241E-03    -104.999E+06    -122.431E+06    -227.969E+06    -122.926E+06    -227.475E+06    -104.999E+06    -2.06163E+06         44.6376
            1020     1.70709E-03     15.0269E-03     56.2541E-03     41.6651E-03    -180.483E-03     40.8376E-03    -176.751E-03     53.3489E-03     20.4230E-03     315.908E-03    -157.784E-03    -158.127E-03    -158.084E-03     315.878E-03    -157.797E-03    -7.04458E-03    -115.746E+06    -129.272E+06    -242.458E+06    -128.141E+06    -242.147E+06    -117.187E+06    -1.01720E+06         44.5126
            1021     854.156E-06     15.0232E-03     85.9540E-03     34.5678E-03    -204.363E-03     68.1681E-03    -196.824E-03     44.8152E-03     36.8753E-03     315.597E-03    -157.446E-03    -158.152E-03    -157.612E-03     315.589E-03    -157.978E-03    -3.10658E-03    -121.440E+06    -137.734E+06    -266.486E+06    -130.552E+06    -266.220E+06    -128.888E+06     665.985E+03         44.4269
            1022     14.4344E-03     14.1942E-03     59.8367E-03     52.8666E-03    -198.186E-03     55.7277E-03    -197.816E-03     56.6057E-03    -1.27063E-03     332.961E-03    -164.512E-03    -168.544E-03    -166.850E-03     331.266E-03    -164.512E-03     57.3955E-03     123.304E+06     87.5628E+06    -11.9261E+06    -11.4755E+06     87.1122E+06     123.304E+06    -4.19578E+06         69.6892
            1023     13.5857E-03     14.1006E-03     58.4356E-03     53.3131E-03    -195.009E-03     54.1710E-03    -194.919E-03     57.4875E-03    -1.29588E-03     333.454E-03    -164.406E-03    -169.262E-03    -167.555E-03     331.746E-03    -164.406E-03     57.7785E-03     98.8655E+06     75.8400E+06    -23.4789E+06    -21.9006E+06     74.2617E+06     98.8655E+06    -3.50139E+06         66.1533
            1024     12.7361E-03     14.0473E-03     58.7373E-03     49.4445E-03    -191.384E-03     49.2390E-03    -191.059E-03     58.6174E-03     9.32119E-03     334.303E-03    -164.106E-03    -170.606E-03    -169.554E-03     333.250E-03    -164.106E-03     45.6467E-03     88.7887E+06     71.4652E+06    -23.6669E+06    -22.0780E+06     73.2286E+06     85.4364E+06     2.97076E+06         61.9635
            1025     11.8951E-03     13.9671E-03     60.0206E-03     48.3834E-03    -192.397E-03     48.0005E-03    -192.014E-03     60.0206E-03     7.01297E-03     335.157E-03    -163.516E-03    -172.159E-03    -171.476E-03     334.474E-03    -163.516E-03     36.5212E-03     73.3915E+06     61.9132E+06    -27.9712E+06    -27.5550E+06     66.1437E+06     68.7449E+06     5.39062E+06         57.9854
            1026     11.0546E-03     13.9064E-03     64.3967E-03     55.8494E-03    -203.333E-03     58.8942E-03    -203.121E-03     61.1393E-03     806.358E-06     335.478E-03    -162.926E-03    -173.066E-03    -172.706E-03     335.119E-03    -162.926E-03     26.6602E-03     62.6118E+06     58.5233E+06    -36.9593E+06    -36.8320E+06     59.6903E+06     61.3175E+06     643.841E+03         54.5241
            1027     10.2133E-03     13.8562E-03     70.7031E-03     61.3674E-03    -215.960E-03     70.1851E-03    -215.442E-03     61.3674E-03    -6.92715E-03     334.119E-03    -161.860E-03    -172.557E-03    -172.377E-03     333.939E-03    -161.860E-03     18.7577E-03     60.5417E+06     55.9738E+06    -42.1057E+06    -41.8112E+06     59.0001E+06     57.2208E+06     1.97123E+06         51.5958
            1028     9.37274E-03     13.8122E-03     73.3679E-03     57.9344E-03    -217.103E-03     69.5675E-03    -216.433E-03     61.0652E-03    -10.6798E-03     331.555E-03    -160.666E-03    -170.671E-03    -170.589E-03     331.473E-03    -160.666E-03     12.5416E-03     45.8065E+06     30.2004E+06    -46.0849E+06    -45.6167E+06     33.0531E+06     42.4856E+06     5.29981E+06         49.2221
            1029     8.52738E-03     13.7761E-03     72.5273E-03     55.8967E-03    -212.835E-03     66.9258E-03    -212.139E-03     60.8024E-03     15.3416E-03     328.723E-03    -159.690E-03    -168.835E-03    -168.810E-03     328.698E-03    -159.690E-03     4.77398E-03     24.0194E+06    -17.6965E+06    -59.2957E+06    -54.5154E+06    -22.4768E+06     24.0194E+06    -1.79897E+06         47.4354
            1030     7.68179E-03     13.7436E-03     70.3469E-03     58.7588E-03    -213.892E-03     67.1672E-03    -212.487E-03     60.5337E-03    -9.13447E-03     325.592E-03    -158.769E-03    -166.899E-03    -166.890E-03     325.582E-03    -158.769E-03    -2.69511E-03     12.2548E+06    -49.7264E+06    -75.6592E+06    -66.9878E+06    -58.3978E+06     12.2548E+06    -2.62193E+06         46.2817
            1031     6.83468E-03     13.7195E-03     64.8721E-03     58.7314E-03    -209.500E-03     62.0426E-03    -208.371E-03     60.4321E-03    -28.6320E-03     322.476E-03    -157.821E-03    -165.015E-03    -164.976E-03     322.437E-03    -157.821E-03    -7.72569E-03    -151.194E+03    -65.5237E+06    -91.3730E+06    -74.9809E+06    -81.9158E+06    -151.194E+03     4.41937E+06         45.6462
            1032     5.98547E-03     13.6974E-03     64.4004E-03     54.2029E-03    -204.875E-03     57.3783E-03    -204.534E-03     60.8846E-03    -583.474E-06     319.827E-03    -156.765E-03    -163.344E-03    -163.258E-03     319.740E-03    -156.765E-03    -12.3778E-03    -20.7790E+06    -81.0821E+06    -118.994E+06    -82.9427E+06    -117.133E+06    -20.7790E+06     6.04346E+06         45.2342
            1033     5.13764E-03     13.6824E-03     69.2595E-03     51.7843E-03    -208.879E-03     58.9079E-03    -208.304E-03     61.5601E-03     13.4021E-03     316.890E-03    -155.699E-03    -161.212E-03    -161.082E-03     316.760E-03    -155.699E-03    -15.5371E-03    -43.7574E+06    -92.7699E+06    -151.313E+06    -93.4357E+06    -150.647E+06    -43.7574E+06     4.33368E+06         44.8832
            1034     4.28432E-03     13.6720E-03     68.8788E-03     53.3234E-03    -209.269E-03     59.3218E-03    -208.555E-03     62.1666E-03     5.68953E-03     313.602E-03    -154.584E-03    -158.849E-03    -158.700E-03     313.454E-03    -154.584E-03    -16.5947E-03    -66.3281E+06    -106.036E+06    -178.832E+06    -106.205E+06    -178.663E+06    -66.3281E+06     2.00915E+06         44.5701
            1035     3.43041E-03     13.6670E-03     65.5437E-03     56.9732E-03    -207.969E-03     57.9368E-03    -206.532E-03     63.1425E-03    -26.4387E-03     310.348E-03    -153.663E-03    -156.542E-03    -156.404E-03     310.210E-03    -153.663E-03    -15.8555E-03    -84.6719E+06    -114.191E+06    -198.410E+06    -114.380E+06    -198.221E+06    -84.6719E+06     2.05351E+06         44.2843
            1036     2.57466E-03     13.6633E-03     65.6615E-03     61.1907E-03    -212.999E-03     59.1810E-03    -210.076E-03     64.7479E-03     8.33970E-03     307.498E-03    -153.096E-03    -154.404E-03    -154.287E-03     307.393E-03    -153.108E-03    -13.7366E-03    -104.110E+06    -118.550E+06    -223.052E+06    -119.248E+06    -222.354E+06    -104.110E+06     1.46690E+06         44.0398
            1037     1.71640E-03     13.6620E-03     71.8191E-03     62.3714E-03    -224.935E-03     66.2349E-03    -222.502E-03     65.5226E-03     12.9594E-03     306.041E-03    -152.816E-03    -153.227E-03    -153.156E-03     305.983E-03    -152.829E-03    -10.0190E-03    -120.267E+06    -129.173E+06    -247.444E+06    -128.635E+06    -246.763E+06    -121.486E+06    -1.27088E+06         43.8609
            1038     858.041E-06     13.6593E-03     104.339E-03     31.1469E-03    -225.431E-03     97.7983E-03    -220.605E-03     32.8617E-03     24.7668E-03     305.586E-03    -152.402E-03    -153.193E-03    -152.498E-03     305.565E-03    -153.076E-03    -5.37025E-03    -121.586E+06    -138.730E+06    -265.596E+06    -131.689E+06    -265.412E+06    -128.811E+06     646.357E+03         43.7557
            1039     14.4315E-03     12.8008E-03     71.2337E-03     62.1313E-03    -215.782E-03     62.5471E-03    -215.370E-03     70.4055E-03    -19.8381E-03     333.413E-03    -164.518E-03    -169.032E-03    -167.270E-03     331.650E-03    -164.518E-03     59.0298E-03     129.822E+06     93.4590E+06    -3.95637E+06    -3.74308E+06     93.2457E+06     129.822E+06     3.33436E+06         69.9287
            1040     13.5807E-03     12.7158E-03     72.9831E-03     66.2625E-03    -222.598E-03     67.5655E-03    -222.518E-03     71.6006E-03    -7.78100E-03     336.734E-03    -164.211E-03    -172.633E-03    -171.112E-03     335.213E-03    -164.211E-03     54.3283E-03     96.8311E+06     78.6322E+06    -18.7713E+06    -18.0073E+06     77.8682E+06     96.8311E+06    -3.63216E+06         66.3974
            1041     12.7451E-03     12.6328E-03     75.6012E-03     66.7575E-03    -226.919E-03     69.4635E-03    -226.641E-03     72.6173E-03     8.03767E-03     339.043E-03    -163.654E-03    -175.761E-03    -174.918E-03     338.200E-03    -163.654E-03     41.3907E-03     74.7950E+06     62.1240E+06    -37.7684E+06    -35.5526E+06     59.9081E+06     74.7950E+06    -7.54405E+06         62.2013
            1042     11.9093E-03     12.5724E-03     78.5210E-03     68.1833E-03    -232.040E-03     73.0331E-03    -231.760E-03     73.3909E-03     11.0164E-03     337.869E-03    -162.785E-03    -175.573E-03    -174.963E-03     337.259E-03    -162.785E-03     35.1994E-03     76.9108E+06     61.8695E+06    -35.6004E+06    -34.0281E+06     61.5914E+06     75.6165E+06    -1.63864E+06         58.2011
            1043     11.0650E-03     12.5057E-03     77.6440E-03     69.1835E-03    -232.153E-03     72.6665E-03    -231.986E-03     73.9941E-03     5.04182E-03     335.557E-03    -161.870E-03    -174.069E-03    -173.697E-03     335.185E-03    -161.870E-03     27.0581E-03     72.6219E+06     61.1490E+06    -31.5713E+06    -31.2977E+06     66.1775E+06     67.3198E+06     2.60315E+06         54.7039
            1044     10.2257E-03     12.4563E-03     77.8312E-03     64.7543E-03    -228.925E-03     67.4324E-03    -228.562E-03     74.7894E-03    -5.73535E-03     334.249E-03    -160.573E-03    -173.843E-03    -173.668E-03     334.074E-03    -160.573E-03     18.5193E-03     55.8560E+06     47.6547E+06    -39.5957E+06    -39.0101E+06     53.1359E+06     49.7893E+06    -1.17550E+06         51.7307
            1045     9.38367E-03     12.4213E-03     78.2320E-03     60.1047E-03    -226.017E-03     61.7152E-03    -225.535E-03     76.1397E-03    -7.60221E-03     332.879E-03    -159.175E-03    -173.577E-03    -173.505E-03     332.807E-03    -159.175E-03     11.3495E-03     42.8372E+06     29.1686E+06    -47.3000E+06    -46.5933E+06     30.5208E+06     40.7784E+06     800.153E+03         49.3089
            1046     8.54432E-03     12.3836E-03     77.8294E-03     64.7189E-03    -231.197E-03     64.3679E-03    -230.846E-03     77.8294E-03     7.31594E-03     330.030E-03    -157.680E-03    -172.134E-03    -172.114E-03     330.010E-03    -157.680E-03     2.19988E-03     27.3609E+06    -11.3560E+06    -56.2665E+06    -55.5493E+06    -12.0732E+06     27.3609E+06     4.91875E+06         47.4700
            1047     7.70241E-03     12.3602E-03     81.0758E-03     73.2503E-03    -242.613E-03     74.8587E-03    -242.192E-03     79.0463E-03    -5.54372E-03     326.019E-03    -156.193E-03    -169.944E-03    -169.921E-03     325.997E-03    -156.193E-03    -6.08066E-03     8.08137E+06    -52.1278E+06    -68.9010E+06    -64.4180E+06    -56.6108E+06     8.08137E+06     1.23049E+06         46.2581
            1048     6.85732E-03     12.3388E-03     84.0156E-03     76.4417E-03    -248.216E-03     80.6110E-03    -247.834E-03     79.4649E-03    -7.59153E-03     321.353E-03    -154.659E-03    -167.060E-03    -166.979E-03     321.273E-03    -154.659E-03    -11.9889E-03    -7.27755E+06    -73.0719E+06    -91.1295E+06    -76.5311E+06    -87.6703E+06    -7.27755E+06     1.07739E+06         45.5501
            1049     6.01044E-03     12.3229E-03     90.2945E-03     77.2079E-03    -254.837E-03     88.5515E-03    -254.794E-03     78.9085E-03     1.88600E-03     315.985E-03    -153.011E-03    -163.134E-03    -162.977E-03     315.828E-03    -153.011E-03    -17.1094E-03    -18.6428E+06    -82.6329E+06    -116.094E+06    -84.5660E+06    -114.161E+06    -18.6428E+06     5.27867E+06         45.0382
            1050     5.15783E-03     12.3129E-03     95.5061E-03     76.8817E-03    -260.563E-03     94.6217E-03    -259.678E-03     76.8817E-03     16.0485E-03     310.973E-03    -151.584E-03    -159.376E-03    -159.169E-03     310.766E-03    -151.584E-03    -19.6124E-03    -39.4442E+06    -91.8903E+06    -146.785E+06    -92.9233E+06    -145.752E+06    -39.4442E+06     7.01895E+06         44.5687
            1051     4.30553E-03     12.3100E-03     86.3110E-03     70.8704E-03    -248.315E-03     80.5458E-03    -246.598E-03     74.9187E-03     24.2037E-03     306.401E-03    -150.130E-03    -156.004E-03    -155.795E-03     306.191E-03    -150.130E-03    -19.6166E-03    -64.1093E+06    -100.275E+06    -173.217E+06    -100.957E+06    -172.535E+06    -64.1093E+06     5.46596E+06         44.1437
            1052     3.44787E-03     12.3087E-03     78.8679E-03     69.2434E-03    -239.110E-03     71.0708E-03    -236.935E-03     74.8647E-03    -22.4325E-03     301.995E-03    -148.876E-03    -152.918E-03    -152.740E-03     301.817E-03    -148.876E-03    -17.9698E-03    -85.9665E+06    -110.384E+06    -196.928E+06    -110.726E+06    -196.586E+06    -85.9665E+06     2.45639E+06         43.7700
            1053     2.58794E-03     12.3086E-03     87.7336E-03     72.3376E-03    -250.797E-03     82.6152E-03    -247.252E-03     73.9105E-03     10.6275E-03     298.433E-03    -148.012E-03    -150.484E-03    -150.355E-03     298.304E-03    -148.012E-03    -15.1436E-03    -103.524E+06    -120.259E+06    -221.376E+06    -120.619E+06    -221.016E+06    -103.524E+06     2.70602E+06         43.4635
            1054     1.72699E-03     12.3111E-03     89.0066E-03     67.8965E-03    -247.656E-03     86.2492E-03    -244.899E-03     67.8965E-03     38.9125E-03     295.878E-03    -147.345E-03    -148.566E-03    -148.495E-03     295.807E-03    -147.345E-03    -11.0146E-03    -112.226E+06    -122.169E+06    -242.092E+06    -121.674E+06    -241.368E+06    -113.444E+06     3.56754E+06         43.2383
            1055     863.717E-06     12.3118E-03     98.6569E-03     39.3869E-03    -225.602E-03     86.7111E-03    -214.217E-03     39.9484E-03     79.8450E-03     294.160E-03    -146.690E-03    -147.473E-03    -147.305E-03     294.134E-03    -146.833E-03    -6.16336E-03    -124.237E+06    -135.706E+06    -265.375E+06    -132.726E+06    -264.942E+06    -127.651E+06     249.355E+03         43.1003
            1056     14.4291E-03     11.4052E-03     83.2569E-03     63.3337E-03    -230.849E-03     62.9029E-03    -230.419E-03     83.2569E-03     793.748E-06     337.609E-03    -164.377E-03    -173.568E-03    -172.079E-03     336.120E-03    -164.377E-03     54.3276E-03     132.136E+06     93.0554E+06    -8.81433E+06    -8.43393E+06     92.6750E+06     132.136E+06    -179.004E+03         70.1979
            1057     13.5976E-03     11.3061E-03     85.5704E-03     69.6639E-03    -240.006E-03     70.0136E-03    -239.801E-03     85.0161E-03     3.98773E-03     339.608E-03    -163.917E-03    -175.963E-03    -174.536E-03     338.181E-03    -163.917E-03     53.4386E-03     111.798E+06     86.6238E+06    -13.1242E+06    -12.0168E+06     85.5164E+06     111.798E+06     4.08236E+06         66.6870
            1058     12.7547E-03     11.2337E-03     89.3610E-03     81.6495E-03    -254.636E-03     84.6293E-03    -254.491E-03     86.2361E-03     3.36852E-03     339.519E-03    -163.090E-03    -176.472E-03    -175.549E-03     338.595E-03    -163.090E-03     43.4424E-03     82.7621E+06     70.6290E+06    -21.1685E+06    -18.8796E+06     69.6567E+06     81.4455E+06     256.480E+03         62.4693
            1059     11.9124E-03     11.1638E-03     92.1078E-03     84.3650E-03    -262.988E-03     89.5989E-03    -262.951E-03     86.8366E-03    -1.32754E-03     338.981E-03    -161.980E-03    -177.173E-03    -176.491E-03     338.299E-03    -161.980E-03     37.2474E-03     64.8119E+06     50.3606E+06    -36.9993E+06    -34.0851E+06     53.4351E+06     58.8231E+06    -10.9030E+06         58.4277
            1060     11.0787E-03     11.1091E-03     90.2664E-03     78.6028E-03    -258.805E-03     81.2497E-03    -258.752E-03     87.5659E-03    -4.70213E-03     337.167E-03    -160.880E-03    -176.674E-03    -176.297E-03     336.789E-03    -160.880E-03     27.2688E-03     65.7589E+06     50.4524E+06    -39.3185E+06    -37.1788E+06     56.9927E+06     57.0789E+06    -7.36172E+06         54.8946
            1061     10.2357E-03     11.0631E-03     89.0573E-03     71.2058E-03    -250.469E-03     70.9634E-03    -250.227E-03     89.0573E-03    -14.0456E-03     335.065E-03    -159.382E-03    -175.763E-03    -175.606E-03     334.908E-03    -159.382E-03     17.4098E-03     56.6454E+06     47.2106E+06    -40.0161E+06    -38.5037E+06     52.5427E+06     49.8008E+06     192.426E+03         51.8809
            1062     9.39936E-03     11.0220E-03     91.0787E-03     72.1936E-03    -252.750E-03     71.7527E-03    -252.309E-03     91.0787E-03    -7.62151E-03     333.681E-03    -157.662E-03    -175.781E-03    -175.733E-03     333.632E-03    -157.662E-03     8.93410E-03     36.2263E+06     22.2558E+06    -51.8869E+06    -50.6672E+06     23.8729E+06     33.3896E+06     3.39521E+06         49.4093
            1063     8.56085E-03     10.9941E-03     92.8890E-03     80.3338E-03    -261.271E-03     79.8225E-03    -260.759E-03     92.8890E-03     12.9909E-03     330.817E-03    -155.802E-03    -174.704E-03    -174.693E-03     330.807E-03    -155.802E-03     1.17137E-06     26.2290E+06    -10.4981E+06    -56.6581E+06    -55.8377E+06    -11.3185E+06     26.2290E+06     4.90010E+06         47.5109
            1064     7.72015E-03     10.9734E-03     94.2987E-03     84.1431E-03    -265.449E-03     83.8620E-03    -265.168E-03     94.2987E-03     11.1576E-03     326.138E-03    -153.833E-03    -172.255E-03    -172.223E-03     326.106E-03    -153.833E-03    -7.43849E-03     11.9282E+06    -45.7170E+06    -66.6236E+06    -63.4808E+06    -48.8597E+06     11.9282E+06     5.87845E+06         46.2296
            1065     6.87914E-03     10.9610E-03     98.5322E-03     89.9757E-03    -273.777E-03     93.2951E-03    -273.666E-03     95.1014E-03    -1.83586E-03     319.613E-03    -151.841E-03    -168.038E-03    -167.953E-03     319.528E-03    -151.841E-03    -12.5787E-03    -9.57769E+06    -71.3400E+06    -93.4161E+06    -77.6956E+06    -87.0604E+06    -9.57769E+06     5.84101E+06         45.4505
            1066     6.03195E-03     10.9540E-03     106.847E-03     94.4107E-03    -286.655E-03     106.680E-03    -286.489E-03     94.4107E-03    -7.04650E-03     312.226E-03    -149.795E-03    -162.581E-03    -162.438E-03     312.082E-03    -149.795E-03    -16.2355E-03    -26.8850E+06    -88.3438E+06    -120.361E+06    -90.1101E+06    -118.595E+06    -26.8850E+06     4.07193E+06         44.8663
            1067     5.18061E-03     10.9534E-03     110.007E-03     92.1669E-03    -288.659E-03     108.864E-03    -287.517E-03     92.1669E-03     21.9222E-03     305.601E-03    -148.007E-03    -157.543E-03    -157.353E-03     305.411E-03    -148.007E-03    -18.5077E-03    -42.1081E+06    -96.1056E+06    -144.916E+06    -96.8682E+06    -144.154E+06    -42.1081E+06     5.76969E+06         44.3196
            1068     4.32194E-03     10.9574E-03     107.134E-03     89.1148E-03    -283.467E-03     105.459E-03    -281.792E-03     89.1148E-03     40.8114E-03     299.993E-03    -146.333E-03    -153.419E-03    -153.213E-03     299.787E-03    -146.333E-03    -19.2490E-03    -60.6667E+06    -100.964E+06    -168.110E+06    -101.977E+06    -167.097E+06    -60.6667E+06     7.87627E+06         43.8184
            1069     3.46239E-03     10.9608E-03     99.7796E-03     85.9580E-03    -274.429E-03     97.7127E-03    -272.362E-03     85.9580E-03    -18.7219E-03     294.861E-03    -144.807E-03    -149.903E-03    -149.718E-03     294.677E-03    -144.807E-03    -18.0813E-03    -84.2500E+06    -110.270E+06    -190.396E+06    -110.934E+06    -189.732E+06    -84.2500E+06     6.46362E+06         43.3738
            1070     2.59969E-03     10.9672E-03     98.1416E-03     79.6344E-03    -266.100E-03     91.6422E-03    -262.932E-03     82.9656E-03    -22.2145E-03     290.325E-03    -143.621E-03    -146.772E-03    -146.640E-03     290.193E-03    -143.621E-03    -15.0430E-03    -104.366E+06    -121.456E+06    -219.241E+06    -121.756E+06    -218.942E+06    -104.366E+06     2.38133E+06         43.0177
            1071     1.73500E-03     10.9732E-03     94.9851E-03     72.7363E-03    -256.285E-03     85.1317E-03    -253.866E-03     80.1715E-03     31.7463E-03     287.081E-03    -142.735E-03    -144.402E-03    -144.334E-03     287.013E-03    -142.735E-03    -10.5721E-03    -115.023E+06    -130.002E+06    -240.029E+06    -130.332E+06    -239.698E+06    -115.023E+06     1.89823E+06         42.7619
            1072     868.675E-06     10.9767E-03     87.1917E-03     77.9450E-03    -254.105E-03     75.0562E-03    -246.635E-03     82.6106E-03     67.6820E-03     284.778E-03    -141.891E-03    -142.900E-03    -142.727E-03     284.757E-03    -142.042E-03    -5.35087E-03    -124.550E+06    -134.716E+06    -259.285E+06    -132.298E+06    -258.733E+06    -127.521E+06     3.90969E+06         42.5980
            1073     14.4452E-03     10.0032E-03     93.9031E-03     64.8445E-03    -244.298E-03     64.5243E-03    -243.978E-03     93.9031E-03     10.1735E-03     339.480E-03    -164.091E-03    -175.423E-03    -173.751E-03     337.807E-03    -164.091E-03     56.8533E-03     128.375E+06     91.7755E+06    -11.6414E+06    -11.1310E+06     91.2652E+06     128.375E+06    -1.19563E+06         70.4661
            1074     13.5958E-03     9.90246E-03     96.1709E-03     70.5989E-03    -251.511E-03     70.3791E-03    -251.291E-03     96.1709E-03     2.50051E-03     340.427E-03    -163.432E-03    -177.222E-03    -175.467E-03     338.672E-03    -163.432E-03     58.9132E-03     110.198E+06     85.1075E+06    -19.6236E+06    -17.1948E+06     82.6786E+06     110.198E+06     1.07271E+06         66.9566
            1075     12.7584E-03     9.82979E-03     98.3665E-03     77.9886E-03    -261.323E-03     77.9191E-03    -261.113E-03     98.2255E-03     5.22925E-03     340.512E-03    -162.515E-03    -178.077E-03    -177.116E-03     339.551E-03    -162.515E-03     44.4353E-03     95.2653E+06     79.9673E+06    -13.9772E+06    -11.8798E+06     79.1865E+06     93.9487E+06     712.769E+03         62.7279
            1076     11.9222E-03     9.75916E-03     100.248E-03     81.1081E-03    -267.648E-03     81.0643E-03    -267.463E-03     100.107E-03     6.12661E-03     339.680E-03    -161.275E-03    -178.498E-03    -177.847E-03     339.029E-03    -161.275E-03     36.3935E-03     72.8014E+06     60.2755E+06    -19.5850E+06    -17.3699E+06     66.7003E+06     64.1615E+06    -1.93521E+06         58.6642
            1077     11.0830E-03     9.70542E-03     102.013E-03     82.9511E-03    -275.489E-03     82.7893E-03    -275.327E-03     102.013E-03     6.16955E-03     338.741E-03    -159.994E-03    -179.082E-03    -178.727E-03     338.386E-03    -159.994E-03     26.6468E-03     50.8940E+06     40.2167E+06    -40.6678E+06    -37.8256E+06     44.6977E+06     43.5708E+06    -8.28280E+06         55.1026
            1078     10.2522E-03     9.66297E-03     106.080E-03     90.8770E-03    -288.146E-03     93.2188E-03    -288.009E-03     103.601E-03    -6.04750E-03     336.762E-03    -158.294E-03    -178.687E-03    -178.519E-03     336.594E-03    -158.294E-03     18.1965E-03     45.8903E+06     38.6205E+06    -50.8846E+06    -49.6139E+06     41.2655E+06     41.9747E+06    -1.65688E+06         52.0533
            1079     9.41259E-03     9.62465E-03     107.057E-03     97.4183E-03    -294.407E-03     99.6693E-03    -294.180E-03     104.579E-03     95.8955E-06     333.417E-03    -156.245E-03    -176.971E-03    -176.913E-03     333.359E-03    -156.245E-03     9.23894E-03     36.9823E+06     22.8406E+06    -55.0785E+06    -54.4112E+06     26.0890E+06     33.0666E+06     4.90779E+06         49.5309
            1080     8.57474E-03     9.60110E-03     105.395E-03     97.9387E-03    -291.798E-03     97.5079E-03    -291.368E-03     105.395E-03     20.9440E-03     329.289E-03    -154.233E-03    -174.645E-03    -174.639E-03     329.283E-03    -154.233E-03     604.082E-06     21.6461E+06    -12.4794E+06    -64.4574E+06    -63.5472E+06    -13.3896E+06     21.6461E+06     5.27826E+06         47.5618
            1081     7.73679E-03     9.58782E-03     107.785E-03     98.2001E-03    -291.336E-03     99.3702E-03    -290.982E-03     106.260E-03     18.8119E-03     323.478E-03    -152.110E-03    -171.147E-03    -171.128E-03     323.460E-03    -152.110E-03    -4.57720E-03     8.33197E+06    -47.2717E+06    -78.2139E+06    -74.7586E+06    -50.7270E+06     8.33197E+06     8.49413E+06         46.1901
            1082     6.89207E-03     9.58772E-03     109.434E-03     99.3039E-03    -294.100E-03     101.605E-03    -293.967E-03     107.000E-03     932.408E-06     316.227E-03    -150.094E-03    -166.475E-03    -166.435E-03     316.187E-03    -150.094E-03    -7.67854E-03    -11.3029E+06    -71.8635E+06    -93.6690E+06    -82.0931E+06    -83.4394E+06    -11.3029E+06     9.19933E+06         45.3333
            1083     6.04319E-03     9.58955E-03     112.475E-03     93.5197E-03    -294.951E-03     97.7629E-03    -294.756E-03     108.036E-03    -5.13976E-03     309.285E-03    -148.061E-03    -161.550E-03    -161.490E-03     309.225E-03    -148.061E-03    -9.90602E-03    -28.5386E+06    -84.3886E+06    -117.520E+06    -87.0426E+06    -114.866E+06    -28.5386E+06     6.28902E+06         44.7240
            1084     5.18985E-03     9.59949E-03     116.481E-03     92.0545E-03    -298.519E-03     98.6389E-03    -298.189E-03     109.566E-03     8.21584E-03     302.823E-03    -146.056E-03    -156.746E-03    -156.661E-03     302.738E-03    -146.056E-03    -11.9467E-03    -42.8219E+06    -96.0763E+06    -146.038E+06    -96.5576E+06    -145.557E+06    -42.8219E+06     4.05655E+06         44.1816
            1085     4.33414E-03     9.61120E-03     122.543E-03     102.869E-03    -313.482E-03     114.902E-03    -312.729E-03     109.756E-03    -8.52071E-03     296.587E-03    -144.185E-03    -152.163E-03    -152.053E-03     296.476E-03    -144.185E-03    -13.2212E-03    -59.4138E+06    -108.391E+06    -168.186E+06    -108.976E+06    -167.601E+06    -59.4138E+06     5.09347E+06         43.6724
            1086     3.47285E-03     9.62321E-03     120.580E-03     107.530E-03    -314.396E-03     119.104E-03    -312.920E-03     107.530E-03    -34.8913E-03     290.722E-03    -142.532E-03    -148.123E-03    -148.012E-03     290.611E-03    -142.532E-03    -13.0274E-03    -75.1264E+06    -114.476E+06    -182.988E+06    -115.000E+06    -182.463E+06    -75.1264E+06     5.67174E+06         43.2022
            1087     2.60819E-03     9.63701E-03     111.826E-03     92.0200E-03    -290.420E-03     93.8190E-03    -288.570E-03     108.177E-03    -43.3963E-03     285.700E-03    -141.227E-03    -144.557E-03    -144.475E-03     285.618E-03    -141.227E-03    -11.1665E-03    -96.0511E+06    -120.238E+06    -211.050E+06    -120.650E+06    -210.638E+06    -96.0511E+06     4.87745E+06         42.8169
            1088     1.73974E-03     9.64557E-03     116.904E-03     91.8144E-03    -296.676E-03     90.3931E-03    -295.255E-03     116.904E-03    -7.38933E-03     282.040E-03    -140.284E-03    -141.773E-03    -141.730E-03     281.996E-03    -140.284E-03    -8.14297E-03    -118.059E+06    -130.483E+06    -240.193E+06    -130.222E+06    -240.054E+06    -118.459E+06     587.468E+03         42.5429
            1089     870.113E-06     9.65257E-03     130.796E-03     116.348E-03    -333.344E-03     121.324E-03    -332.804E-03     125.281E-03     23.7593E-03     279.935E-03    -139.510E-03    -140.420E-03    -139.884E-03     279.921E-03    -140.031E-03    -4.46198E-03    -125.820E+06    -133.043E+06    -256.607E+06    -132.271E+06    -256.204E+06    -126.996E+06    -1.00926E+06         42.3743
            1090     14.4356E-03     8.60163E-03     103.808E-03     69.5911E-03    -263.053E-03     69.5100E-03    -262.972E-03     103.808E-03    -565.402E-06     341.261E-03    -163.896E-03    -177.310E-03    -175.581E-03     339.532E-03    -163.896E-03     58.5082E-03     131.619E+06     94.3913E+06    -9.94648E+06    -9.05769E+06     93.5025E+06     131.619E+06    -1.57584E+06         70.7218
            1091     13.6022E-03     8.49640E-03     106.348E-03     76.2504E-03    -271.944E-03     76.1762E-03    -271.870E-03     106.348E-03    -8.42202E-03     342.171E-03    -162.965E-03    -179.250E-03    -177.573E-03     340.494E-03    -162.965E-03     57.4730E-03     110.524E+06     89.4501E+06    -14.9868E+06    -13.0979E+06     87.5612E+06     110.524E+06    -5.99556E+06         67.2203
            1092     12.7664E-03     8.42014E-03     108.962E-03     75.4283E-03    -274.699E-03     75.3480E-03    -274.619E-03     108.962E-03     236.951E-06     340.946E-03    -161.936E-03    -179.180E-03    -178.274E-03     340.040E-03    -161.936E-03     43.3308E-03     81.4265E+06     70.6028E+06    -28.4676E+06    -27.0516E+06     69.7774E+06     80.8359E+06    -7.94360E+06         62.9933
            1093     11.9300E-03     8.35817E-03     111.761E-03     77.6879E-03    -280.690E-03     77.5215E-03    -280.524E-03     111.761E-03     8.79483E-03     340.117E-03    -160.729E-03    -179.511E-03    -178.826E-03     339.432E-03    -160.729E-03     37.4021E-03     65.9976E+06     56.0663E+06    -33.7870E+06    -32.7485E+06     58.2695E+06     62.7559E+06     2.17265E+06         58.9211
            1094     11.0953E-03     8.30095E-03     114.342E-03     89.0371E-03    -295.244E-03     88.8587E-03    -295.066E-03     114.342E-03     4.74639E-03     338.734E-03    -159.374E-03    -179.600E-03    -179.192E-03     338.326E-03    -159.374E-03     28.6311E-03     56.7129E+06     46.8139E+06    -34.0873E+06    -32.5284E+06     50.2518E+06     51.7161E+06     6.24117E+06         55.3412
            1095     10.2563E-03     8.26018E-03     118.620E-03     101.444E-03    -310.990E-03     103.741E-03    -310.809E-03     116.142E-03    -9.55922E-03     336.628E-03    -157.475E-03    -179.243E-03    -179.029E-03     336.414E-03    -157.475E-03     20.5848E-03     46.2984E+06     36.7619E+06    -46.2787E+06    -45.3025E+06     39.2104E+06     42.8738E+06     2.29402E+06         52.2611
            1096     9.42445E-03     8.22966E-03     119.622E-03     109.496E-03    -318.117E-03     111.646E-03    -317.788E-03     117.144E-03     774.214E-06     331.677E-03    -155.355E-03    -176.050E-03    -175.948E-03     331.575E-03    -155.355E-03     13.2142E-03     37.0889E+06     25.5827E+06    -59.1114E+06    -58.4400E+06     25.9901E+06     36.0101E+06     5.53065E+06         49.6896
            1097     8.58547E-03     8.21248E-03     119.049E-03     113.231E-03    -320.719E-03     114.337E-03    -320.484E-03     117.707E-03     13.7597E-03     324.923E-03    -153.471E-03    -171.081E-03    -171.031E-03     324.872E-03    -153.471E-03     7.63879E-03     18.3201E+06    -9.69660E+06    -70.0104E+06    -68.2123E+06    -11.4947E+06     18.3201E+06     9.13690E+06         47.6445
            1098     7.73926E-03     8.20921E-03     120.813E-03     114.644E-03    -323.348E-03     117.422E-03    -323.261E-03     117.947E-03     6.47173E-03     318.858E-03    -151.709E-03    -166.914E-03    -166.881E-03     318.825E-03    -151.709E-03     4.82269E-03     3.57375E+06    -50.4733E+06    -78.8612E+06    -75.7263E+06    -53.6083E+06     3.57375E+06     6.23269E+06         46.1621
            1099     6.89196E-03     8.21500E-03     119.810E-03     111.121E-03    -318.972E-03     112.431E-03    -318.758E-03     118.286E-03    -4.39176E-03     313.454E-03    -150.107E-03    -163.658E-03    -163.635E-03     313.431E-03    -150.107E-03     2.53485E-03    -6.00597E+06    -73.4302E+06    -88.4045E+06    -82.1519E+06    -79.6827E+06    -6.00597E+06     4.40173E+06         45.2229
            1100     6.04205E-03     8.23041E-03     120.229E-03     96.7386E-03    -307.492E-03     96.1827E-03    -306.937E-03     120.229E-03     9.01987E-03     308.037E-03    -148.366E-03    -160.117E-03    -160.096E-03     308.016E-03    -148.366E-03    -63.3284E-06    -20.3474E+06    -86.5794E+06    -110.678E+06    -89.0821E+06    -108.175E+06    -20.3474E+06     5.55442E+06         44.6354
            1101     5.18892E-03     8.24503E-03     124.583E-03     91.2770E-03    -306.533E-03     90.7677E-03    -306.023E-03     124.583E-03     22.4824E-03     302.557E-03    -146.600E-03    -156.011E-03    -155.987E-03     302.533E-03    -146.600E-03    -1.98430E-03    -36.2079E+06    -95.7741E+06    -142.480E+06    -96.4049E+06    -141.849E+06    -36.2079E+06     2.52877E+06         44.1603
            1102     4.33101E-03     8.26716E-03     131.306E-03     105.938E-03    -326.070E-03     107.039E-03    -325.322E-03     129.457E-03    -3.78747E-03     297.020E-03    -144.918E-03    -151.916E-03    -151.894E-03     296.998E-03    -144.918E-03    -2.99075E-03    -52.8679E+06    -106.117E+06    -166.911E+06    -106.484E+06    -166.544E+06    -52.8679E+06    -563.836E+03         43.7064
            1103     3.46980E-03     8.28822E-03     136.070E-03     119.798E-03    -345.358E-03     121.984E-03    -344.313E-03     132.839E-03     4.84695E-03     291.652E-03    -143.367E-03    -148.214E-03    -148.196E-03     291.634E-03    -143.367E-03    -3.32367E-03    -71.5210E+06    -115.212E+06    -184.752E+06    -115.621E+06    -184.344E+06    -71.5210E+06    -162.155E+03         43.2868
            1104     2.60538E-03     8.30685E-03     144.496E-03     117.651E-03    -350.828E-03     125.656E-03    -349.939E-03     135.602E-03     2.41722E-03     287.272E-03    -142.119E-03    -145.203E-03    -145.187E-03     287.256E-03    -142.119E-03    -3.43453E-03    -88.9178E+06    -117.767E+06    -207.609E+06    -117.942E+06    -207.434E+06    -88.9178E+06     1.84713E+06         42.9362
            1105     1.73953E-03     8.32261E-03     151.635E-03     120.687E-03    -356.701E-03     133.407E-03    -356.128E-03     138.342E-03    -3.01174E-03     283.795E-03    -141.143E-03    -142.671E-03    -142.659E-03     283.783E-03    -141.143E-03    -3.17516E-03    -107.999E+06    -122.006E+06    -232.804E+06    -121.740E+06    -232.670E+06    -108.399E+06     1.43399E+06         42.6817
            1106     870.064E-06     8.33212E-03     153.114E-03     130.854E-03    -367.908E-03     137.127E-03    -363.191E-03     142.124E-03     55.9420E-03     281.546E-03    -140.090E-03    -141.442E-03    -141.066E-03     281.541E-03    -140.462E-03    -2.15822E-03    -124.296E+06    -130.833E+06    -260.653E+06    -129.589E+06    -260.451E+06    -125.742E+06    -2.19260E+06         42.5276
            1107     14.4478E-03     7.18912E-03     112.726E-03     71.9158E-03    -279.357E-03     71.6790E-03    -279.120E-03     112.726E-03     4.73095E-03     344.195E-03    -163.601E-03    -180.494E-03    -178.883E-03     342.584E-03    -163.601E-03     56.3623E-03     136.758E+06     99.5650E+06    -4.59008E+06    -3.83829E+06     98.8132E+06     136.758E+06    -5.21552E+06         70.9744
            1108     13.6118E-03     7.08673E-03     115.702E-03     73.9951E-03    -284.656E-03     73.8316E-03    -284.492E-03     115.702E-03     911.411E-06     343.230E-03    -162.499E-03    -180.566E-03    -178.875E-03     341.539E-03    -162.499E-03     58.1968E-03     110.438E+06     87.8528E+06    -12.6043E+06    -12.0058E+06     87.2542E+06     110.438E+06    -2.22301E+06         67.4932
            1109     12.7712E-03     7.02195E-03     118.811E-03     77.9810E-03    -291.525E-03     77.8476E-03    -291.391E-03     118.811E-03     7.45037E-03     341.008E-03    -161.383E-03    -179.628E-03    -178.701E-03     340.081E-03    -161.383E-03     43.6819E-03     74.3569E+06     63.5775E+06    -30.9347E+06    -30.4312E+06     63.6647E+06     73.7663E+06    -368.995E+03         63.2772
            1110     11.9347E-03     6.94790E-03     121.687E-03     89.6973E-03    -303.546E-03     89.6726E-03    -303.521E-03     121.687E-03     2.26903E-03     338.786E-03    -160.242E-03    -178.742E-03    -178.053E-03     338.098E-03    -160.242E-03     37.5499E-03     56.7295E+06     49.2091E+06    -43.2446E+06    -41.8506E+06     50.7501E+06     53.7945E+06    -4.01550E+06         59.2098
            1111     11.0981E-03     6.90198E-03     124.067E-03     99.8346E-03    -314.659E-03     99.6570E-03    -314.482E-03     124.067E-03     4.08913E-03     336.666E-03    -158.948E-03    -177.994E-03    -177.478E-03     336.150E-03    -158.948E-03     32.4015E-03       57.13E+06     47.1379E+06    -43.9327E+06    -41.8817E+06     49.7771E+06     52.4398E+06     4.74459E+06         55.6283
            1112     10.2643E-03     6.85560E-03     126.248E-03     101.647E-03    -319.779E-03     101.372E-03    -319.504E-03     126.248E-03    -5.41247E-03     333.043E-03    -157.206E-03    -175.802E-03    -175.478E-03     332.718E-03    -157.206E-03     24.9600E-03     51.4894E+06     38.0477E+06    -48.3583E+06    -46.1257E+06     42.7452E+06     44.5593E+06     13.4734E+06         52.5311
            1113     9.42289E-03     6.83668E-03     128.305E-03     108.778E-03    -329.134E-03     108.300E-03    -328.655E-03     128.305E-03     8.64466E-03     326.318E-03    -155.522E-03    -170.576E-03    -170.392E-03     326.134E-03    -155.522E-03     18.8925E-03     38.3905E+06     17.8617E+06    -56.5732E+06    -54.9137E+06     20.7865E+06     33.8061E+06     10.1109E+06         49.9197
            1114     8.57651E-03     6.83150E-03     131.279E-03     115.088E-03    -337.714E-03     116.045E-03    -337.330E-03     129.938E-03     15.6168E-03     319.836E-03    -154.224E-03    -165.433E-03    -165.272E-03     319.674E-03    -154.224E-03     17.2636E-03     29.9452E+06    -5.54779E+06    -58.9630E+06    -57.8310E+06    -6.67981E+06     29.9452E+06     6.20100E+06         47.8081
            1115     7.72846E-03     6.83791E-03     132.661E-03     116.855E-03    -341.752E-03     118.147E-03    -341.703E-03     131.319E-03    -7.84678E-03     315.691E-03    -153.117E-03    -162.346E-03    -162.203E-03     315.548E-03    -153.117E-03     15.7563E-03     17.5622E+06    -42.1543E+06    -69.2237E+06    -67.7753E+06    -43.6027E+06     17.5622E+06     2.77224E+06         46.2251
            1116     6.87720E-03     6.84629E-03     132.476E-03     123.855E-03    -348.780E-03     123.544E-03    -348.469E-03     132.476E-03    -21.5883E-03     312.318E-03    -152.061E-03    -160.188E-03    -160.074E-03     312.204E-03    -152.061E-03     13.6976E-03     4.59183E+06    -70.4374E+06    -89.6670E+06    -80.0026E+06    -80.1018E+06     4.59183E+06    -2.09204E+06         45.2039
            1117     6.02543E-03     6.86800E-03     139.035E-03     124.053E-03    -355.037E-03     129.139E-03    -354.198E-03     133.109E-03     6.69873E-03     308.674E-03    -150.959E-03    -157.964E-03    -157.871E-03     308.581E-03    -150.959E-03     11.8307E-03    -10.4716E+06    -85.7384E+06    -113.597E+06    -89.5832E+06    -109.752E+06    -10.4716E+06    -2.53532E+06         44.6339
            1118     5.17091E-03     6.89322E-03     142.809E-03     118.017E-03    -352.063E-03     126.337E-03    -351.386E-03     133.812E-03     26.8088E-03     305.084E-03    -149.922E-03    -155.374E-03    -155.296E-03     305.007E-03    -149.922E-03     10.3074E-03    -29.5104E+06    -93.7268E+06    -138.653E+06    -94.6846E+06    -137.695E+06    -29.5104E+06    -2.04153E+06         44.2500
            1119     4.31391E-03     6.92144E-03     139.226E-03     115.284E-03    -343.176E-03     117.892E-03    -342.712E-03     136.154E-03     21.1781E-03     301.850E-03    -148.866E-03    -153.006E-03    -152.949E-03     301.793E-03    -148.866E-03     8.36201E-03    -49.6646E+06    -96.5376E+06    -164.861E+06    -97.0059E+06    -164.393E+06    -49.6646E+06    -5.19727E+06         43.9161
            1120     3.45471E-03     6.94838E-03     140.746E-03     119.536E-03    -349.371E-03     118.676E-03    -348.510E-03     140.746E-03     38.6688E-03     298.781E-03    -147.773E-03    -150.963E-03    -150.927E-03     298.745E-03    -147.773E-03     6.27897E-03    -69.6885E+06    -103.139E+06    -189.863E+06    -103.636E+06    -189.365E+06    -69.6885E+06    -6.12972E+06         43.6325
            1121     2.59337E-03     6.97203E-03     154.774E-03     134.197E-03    -379.189E-03     145.190E-03    -378.660E-03     143.253E-03     20.2851E-03     295.682E-03    -146.847E-03    -148.798E-03    -148.780E-03     295.664E-03    -146.847E-03     4.29166E-03    -85.8003E+06    -111.174E+06    -213.871E+06    -111.408E+06    -213.638E+06    -85.8003E+06    -3.62893E+06         43.3996
            1122     1.72966E-03     6.98885E-03     161.769E-03     136.913E-03    -386.650E-03     161.242E-03    -386.123E-03     136.913E-03     18.6473E-03     293.220E-03    -146.135E-03    -147.121E-03    -147.113E-03     293.211E-03    -146.135E-03     2.65613E-03    -99.3160E+06    -116.317E+06    -231.283E+06    -116.346E+06    -231.254E+06    -99.3160E+06     297.904E+03         43.2272
            1123     866.015E-06     7.00360E-03     152.416E-03     115.069E-03    -357.885E-03     122.589E-03    -352.071E-03     139.082E-03     81.4036E-03     291.653E-03    -145.158E-03    -146.500E-03    -146.494E-03     291.647E-03    -145.158E-03     1.83044E-03    -114.334E+06    -123.930E+06    -259.711E+06    -122.914E+06    -259.681E+06    -115.380E+06     1.98336E+06         43.1223
            1124     14.4499E-03     5.78178E-03     120.814E-03     74.3037E-03    -291.070E-03     73.9442E-03    -290.711E-03     120.814E-03    -3.47047E-03     347.551E-03    -163.429E-03    -183.966E-03    -182.328E-03     345.913E-03    -163.429E-03     57.4108E-03     134.101E+06     99.0106E+06    -5.84739E+06    -5.38411E+06     98.5473E+06     134.101E+06     1.76316E+06         71.2068
            1125     13.6083E-03     5.68113E-03     124.101E-03     77.0856E-03    -296.687E-03     76.7922E-03    -296.393E-03     124.101E-03    -6.60381E-03     344.966E-03    -162.085E-03    -182.975E-03    -181.348E-03     343.339E-03    -162.085E-03     57.0509E-03     104.770E+06     80.9722E+06    -20.1543E+06    -19.9144E+06     80.7323E+06     104.770E+06     605.034E+03         67.7522
            1126     12.7787E-03     5.60497E-03     127.345E-03     86.0082E-03    -307.673E-03     85.7520E-03    -307.417E-03     127.345E-03    -707.211E-06     341.412E-03    -160.928E-03    -180.581E-03    -179.843E-03     340.674E-03    -160.928E-03     38.3466E-03     83.0497E+06     67.2777E+06    -26.7481E+06    -26.4497E+06     66.9793E+06     83.0497E+06    -161.134E+03         63.5808
            1127     11.9421E-03     5.55573E-03     130.137E-03     98.9565E-03    -321.501E-03     98.7133E-03    -321.257E-03     130.137E-03    -10.1399E-03     336.154E-03    -159.784E-03    -176.562E-03    -176.055E-03     335.648E-03    -159.784E-03     31.9540E-03     65.3430E+06     55.8655E+06    -33.7952E+06    -31.2920E+06     55.7067E+06     62.9986E+06     2.45695E+06         59.5570
            1128     11.1004E-03     5.49731E-03     132.611E-03     104.050E-03    -327.080E-03     103.794E-03    -326.824E-03     132.611E-03     1.51745E-03     330.875E-03    -158.494E-03    -172.632E-03    -172.187E-03     330.430E-03    -158.494E-03     29.4071E-03      46.686E+06     40.1559E+06    -49.6402E+06    -46.5958E+06     40.5276E+06     43.2699E+06     3.82991E+06         56.0037
            1129     10.2570E-03     5.46242E-03     135.194E-03     104.749E-03    -330.154E-03     103.817E-03    -329.222E-03     135.194E-03    -16.6782E-03     324.801E-03    -157.460E-03    -167.361E-03    -167.076E-03     324.517E-03    -157.460E-03     22.8956E-03     46.7727E+06     34.0849E+06    -56.6854E+06    -53.6704E+06     36.7260E+06     41.1167E+06     1.22208E+06         52.9144
            1130     9.41050E-03     5.45634E-03     137.902E-03     109.404E-03    -337.662E-03     108.326E-03    -336.584E-03     137.902E-03    -7.60438E-03     318.446E-03    -156.257E-03    -162.188E-03    -161.420E-03     318.225E-03    -156.804E-03     20.4204E-03     50.6782E+06     24.2124E+06    -55.3854E+06    -52.8764E+06     26.2877E+06     46.0938E+06    -1.99983E+06         50.2865
            1131     8.55871E-03     5.45973E-03     140.684E-03     111.938E-03    -345.876E-03     111.636E-03    -345.574E-03     140.684E-03     14.4649E-03     315.062E-03    -155.074E-03    -160.080E-03    -158.463E-03     314.781E-03    -156.410E-03     22.8490E-03     40.4811E+06    -5.80673E+06    -62.1594E+06    -61.6205E+06    -6.34567E+06     40.4811E+06     1.20967E+06         48.1342
            1132     7.70520E-03     5.46560E-03     143.431E-03     119.139E-03    -358.793E-03     119.076E-03    -358.731E-03     143.431E-03    -2.18354E-03     313.487E-03    -154.325E-03    -159.132E-03    -156.991E-03     313.174E-03    -156.153E-03     23.9733E-03     28.1882E+06    -36.0270E+06    -68.8242E+06    -67.6659E+06    -37.1852E+06     28.1882E+06     2.64732E+06         46.4832
            1133     6.85180E-03     5.48469E-03     145.393E-03     134.126E-03    -374.763E-03     133.949E-03    -374.587E-03     145.393E-03    -10.3034E-03     312.224E-03    -153.884E-03    -158.176E-03    -155.942E-03     311.925E-03    -155.818E-03     23.2480E-03     7.99998E+06    -58.6047E+06    -85.5778E+06    -69.9137E+06    -74.2687E+06     7.99998E+06    -5.09431E+06         45.3705
            1134     5.99505E-03     5.50507E-03     151.915E-03     140.011E-03    -385.562E-03     145.319E-03    -384.945E-03     145.990E-03     13.1491E-03     311.356E-03    -153.872E-03    -157.495E-03    -155.475E-03     311.092E-03    -155.628E-03     21.7817E-03    -14.0482E+06    -72.4802E+06    -115.534E+06    -76.3401E+06    -111.674E+06    -14.0482E+06    -11.0655E+06         44.7660
            1135     5.13921E-03     5.53422E-03     154.485E-03     141.000E-03    -388.351E-03     149.015E-03    -387.369E-03     145.488E-03     3.83501E-03     310.921E-03    -154.171E-03    -157.032E-03    -155.445E-03     310.708E-03    -155.546E-03     19.6294E-03    -33.7525E+06    -81.7534E+06    -143.269E+06    -83.7921E+06    -141.230E+06    -33.7525E+06    -10.2705E+06         44.4919
            1136     4.28354E-03     5.56403E-03     155.939E-03     139.505E-03    -386.174E-03     150.212E-03    -385.213E-03     144.271E-03    -19.6708E-03     310.833E-03    -154.437E-03    -156.516E-03    -155.519E-03     310.669E-03    -155.270E-03     17.2178E-03    -52.6465E+06    -87.1116E+06    -169.040E+06    -87.9248E+06    -168.226E+06    -52.6465E+06    -7.67021E+06         44.3578
            1137     3.42835E-03     5.59307E-03     158.023E-03     134.464E-03    -383.480E-03     148.772E-03    -382.397E-03     142.632E-03    -10.3539E-03     310.508E-03    -154.431E-03    -156.016E-03    -155.416E-03     310.396E-03    -154.919E-03     14.1070E-03    -69.4870E+06    -91.1650E+06    -194.362E+06    -91.5773E+06    -193.950E+06    -69.4870E+06    -5.16974E+06         44.2748
            1138     2.57242E-03     5.62122E-03     152.993E-03     129.314E-03    -376.388E-03     139.485E-03    -375.755E-03     142.189E-03    -13.2134E-03     309.743E-03    -154.462E-03    -155.253E-03    -155.019E-03     309.677E-03    -154.631E-03     10.6435E-03    -85.0781E+06    -98.9039E+06    -221.037E+06    -98.7946E+06    -220.775E+06    -85.4492E+06    -3.98919E+06         44.2087
            1139     1.71500E-03     5.64262E-03     154.911E-03     129.108E-03    -377.797E-03     140.166E-03    -377.293E-03     143.350E-03     11.6332E-03     308.970E-03    -154.355E-03    -154.624E-03    -154.596E-03     308.941E-03    -154.355E-03     6.79915E-03    -96.1584E+06    -105.062E+06    -237.067E+06    -104.777E+06    -236.981E+06    -96.5296E+06    -2.21764E+06         44.1541
            1140     856.909E-06     5.65567E-03     166.760E-03     130.474E-03    -393.503E-03     128.691E-03    -384.167E-03     159.208E-03     102.065E-03     308.469E-03    -153.615E-03    -154.885E-03    -154.121E-03     308.460E-03    -154.370E-03     3.42239E-03    -101.010E+06    -109.641E+06    -257.881E+06    -106.848E+06    -257.753E+06    -103.931E+06    -1.76572E+06         44.1195
            1141     14.4449E-03     4.36240E-03     127.932E-03     76.0565E-03    -294.776E-03     75.7234E-03    -294.443E-03     127.932E-03    -253.489E-06     352.406E-03    -163.700E-03    -188.795E-03    -186.922E-03     350.533E-03    -163.700E-03     62.8529E-03     133.370E+06     97.2797E+06    -8.14777E+06    -7.79099E+06     96.9229E+06     133.370E+06     2.19941E+06         71.4164
            1142     13.6247E-03     4.27113E-03     131.200E-03     84.7576E-03    -308.259E-03     84.3627E-03    -307.864E-03     131.200E-03     4.42087E-03     349.070E-03    -162.204E-03    -187.401E-03    -185.512E-03     347.181E-03    -162.204E-03     62.2227E-03     108.816E+06     83.1975E+06    -20.2075E+06    -19.7537E+06     82.7437E+06     108.816E+06    -330.342E+03         67.9819
            1143     12.7862E-03     4.19793E-03     134.296E-03     92.5118E-03    -318.617E-03     92.3287E-03    -318.434E-03     134.296E-03    -4.15595E-03     340.922E-03    -160.746E-03    -180.595E-03    -179.603E-03     339.931E-03    -160.746E-03     43.1451E-03     82.9576E+06     68.3882E+06    -27.9094E+06    -26.8070E+06     67.2858E+06     82.9576E+06     3.68092E+06         63.8879
            1144     11.9493E-03     4.15664E-03     137.328E-03     96.8385E-03    -326.748E-03     96.6076E-03    -326.517E-03     137.328E-03    -11.9065E-03     333.782E-03    -159.413E-03    -174.327E-03    -173.583E-03     333.037E-03    -159.413E-03     37.3264E-03     60.5894E+06     52.9512E+06    -42.0609E+06    -39.3329E+06     50.2232E+06     60.5894E+06     6.60064E+06         59.9727
            1145     11.1075E-03     4.10989E-03     140.399E-03     103.064E-03    -335.747E-03     102.774E-03    -335.458E-03     140.399E-03     2.75431E-03     325.500E-03    -158.491E-03    -166.833E-03    -166.074E-03     324.845E-03    -158.594E-03     33.8072E-03     54.0596E+06     48.3933E+06    -43.8810E+06    -41.7444E+06     47.3284E+06     52.9879E+06     2.88505E+06         56.5161
            1146     10.2552E-03     4.08710E-03     143.272E-03     112.880E-03    -347.913E-03     111.936E-03    -346.969E-03     143.272E-03    -14.7086E-03     316.180E-03    -155.783E-03    -160.298E-03    -157.422E-03     315.861E-03    -158.340E-03     23.7068E-03     50.5228E+06     41.2556E+06    -46.3950E+06    -44.8688E+06     41.9681E+06     48.2841E+06    -6.07014E+06         53.4874
            1147     9.39442E-03     4.08740E-03     145.893E-03     119.206E-03    -357.695E-03     117.884E-03    -356.373E-03     145.893E-03    -709.974E-06     311.278E-03    -152.750E-03    -158.588E-03    -152.503E-03     310.961E-03    -158.519E-03     23.6268E-03     41.4295E+06     25.8234E+06    -56.9765E+06    -54.7917E+06     24.8056E+06     40.2624E+06    -10.9264E+06         50.8826
            1148     8.53436E-03     4.09009E-03     148.413E-03     124.068E-03    -367.099E-03     123.515E-03    -366.546E-03     148.413E-03     24.0698E-03     310.642E-03    -151.885E-03    -159.045E-03    -151.497E-03     310.254E-03    -159.045E-03     26.6546E-03     26.5235E+06    -4.91608E+06    -63.3817E+06    -61.0053E+06    -7.29248E+06     26.5235E+06    -6.32470E+06         48.7229
            1149     7.67495E-03     4.10096E-03     150.909E-03     128.126E-03    -375.122E-03     128.096E-03    -375.092E-03     150.909E-03     6.96161E-03     311.303E-03    -151.743E-03    -159.798E-03    -151.330E-03     310.890E-03    -159.798E-03     27.6204E-03     12.7045E+06    -30.5887E+06    -68.4440E+06    -58.8499E+06    -40.1828E+06     12.7045E+06    -8.02383E+06         47.0310
            1150     6.81444E-03     4.11654E-03     153.552E-03     131.128E-03    -379.782E-03     130.887E-03    -379.540E-03     153.552E-03    -6.63275E-03     313.196E-03    -152.710E-03    -160.563E-03    -152.316E-03     312.803E-03    -160.563E-03     27.0444E-03    -3.83858E+06    -47.0735E+06    -82.0112E+06    -57.2044E+06    -71.8803E+06    -3.83858E+06    -10.3372E+06         45.8303
            1151     5.95773E-03     4.13907E-03     156.404E-03     135.891E-03    -387.435E-03     135.012E-03    -386.556E-03     156.404E-03     14.6453E-03     315.981E-03    -154.611E-03    -161.381E-03    -154.265E-03     315.635E-03    -161.381E-03     25.4385E-03    -25.3357E+06    -59.7477E+06    -113.494E+06    -61.9018E+06     -111.34E+06    -25.3357E+06    -9.67301E+06         45.1503
            1152     5.10170E-03     4.16652E-03     158.738E-03     148.288E-03    -402.498E-03     147.078E-03    -401.289E-03     158.738E-03     4.04520E-03     318.823E-03    -156.698E-03    -162.251E-03    -156.419E-03     318.543E-03    -162.251E-03     23.0337E-03    -44.8272E+06    -67.5619E+06    -150.473E+06    -69.5360E+06    -148.499E+06    -44.8272E+06    -11.1668E+06         44.9472
            1153     4.24854E-03     4.19293E-03     169.354E-03     157.575E-03    -419.339E-03     167.076E-03    -418.115E-03     158.628E-03    -17.1470E-03     321.747E-03    -158.902E-03    -162.923E-03    -158.682E-03     321.527E-03    -162.923E-03     20.5147E-03    -58.7864E+06    -75.8385E+06    -178.070E+06    -76.5822E+06    -177.326E+06    -58.7864E+06    -7.51989E+06         45.0191
            1154     3.39648E-03     4.22274E-03     173.402E-03     152.257E-03    -416.232E-03     168.560E-03    -415.015E-03     155.882E-03    -16.0831E-03     324.517E-03    -160.964E-03    -163.468E-03    -160.811E-03     324.364E-03    -163.468E-03     17.1053E-03    -70.9613E+06    -81.3837E+06    -202.011E+06    -81.5876E+06    -201.808E+06    -70.9613E+06    -3.62131E+06         45.1465
            1155     2.54569E-03     4.24840E-03     162.102E-03     140.906E-03    -397.072E-03     146.964E-03    -396.335E-03     155.307E-03    -33.0587E-03     326.659E-03    -162.618E-03    -164.042E-03    -162.592E-03     326.566E-03    -163.976E-03     13.3318E-03    -77.7811E+06    -82.7807E+06    -223.999E+06    -82.5399E+06    -223.868E+06    -78.1522E+06    -1.53538E+06         45.2431
            1156     1.69775E-03     4.27008E-03     162.354E-03     139.201E-03    -397.589E-03     138.307E-03    -396.695E-03     162.354E-03    -32.5952E-03     327.984E-03    -163.664E-03    -164.370E-03    -163.712E-03     327.937E-03    -164.275E-03     9.24332E-03    -83.4012E+06    -86.2084E+06    -240.409E+06    -85.6248E+06    -240.319E+06    -84.0752E+06    -1.47055E+06         45.3044
            1157     849.641E-06     4.28430E-03     200.531E-03     146.793E-03    -436.003E-03     135.689E-03    -424.899E-03     200.531E-03     85.4073E-03     328.825E-03    -163.946E-03    -164.915E-03    -163.984E-03     328.809E-03    -164.861E-03     4.67286E-03    -86.8065E+06    -91.1792E+06    -260.473E+06    -88.1079E+06    -260.321E+06    -90.0300E+06    -1.79163E+06         45.3400
            1158     14.4377E-03     2.92785E-03     132.613E-03     79.2581E-03    -302.634E-03     78.9094E-03    -302.285E-03     132.613E-03    -2.36258E-03     359.761E-03    -164.203E-03    -195.813E-03    -193.800E-03     357.748E-03    -164.203E-03     65.5667E-03     131.728E+06     95.9485E+06    -9.20539E+06    -8.90282E+06     95.6459E+06     131.728E+06     1.56312E+06         71.6986
            1159     13.6036E-03     2.85213E-03     135.665E-03     91.1836E-03    -320.087E-03     90.8764E-03    -319.780E-03     135.665E-03     11.7136E-03     352.557E-03    -162.426E-03    -190.547E-03    -189.023E-03     351.032E-03    -162.426E-03     52.6057E-03     107.602E+06     83.7880E+06    -16.9201E+06    -16.4768E+06     83.3447E+06     107.602E+06     2.32736E+06         68.2516
            1160     12.7765E-03     2.79290E-03     138.582E-03     94.7152E-03    -328.851E-03     94.5134E-03    -328.649E-03     138.582E-03     15.0071E-03     339.118E-03    -160.822E-03    -178.666E-03    -177.909E-03     338.361E-03    -160.822E-03     33.0622E-03     84.3790E+06     70.6066E+06    -28.6207E+06    -27.5914E+06     69.5773E+06     84.3790E+06     7.70138E+06         64.2539
            1161     11.9361E-03     2.76659E-03     141.694E-03     96.7008E-03    -334.563E-03     96.5178E-03    -334.380E-03     141.694E-03     13.9932E-03     328.092E-03    -159.302E-03    -168.697E-03    -167.607E-03     327.409E-03    -159.709E-03     33.2563E-03     66.6977E+06     58.1797E+06    -36.5702E+06    -35.3595E+06     59.2508E+06     64.4160E+06     2.76049E+06         60.5472
            1162     11.0880E-03     2.72433E-03     144.918E-03     104.274E-03    -345.667E-03     103.901E-03    -345.294E-03     144.918E-03     23.1206E-03     319.450E-03    -156.822E-03    -162.400E-03    -159.066E-03     318.801E-03    -159.507E-03     32.9217E-03     56.8819E+06     38.5344E+06    -41.4220E+06    -39.7721E+06     51.2531E+06     42.5134E+06    -6.77376E+06         57.2794
            1163     10.2335E-03     2.72632E-03     148.036E-03     112.295E-03    -356.130E-03     111.813E-03    -355.648E-03     148.036E-03     5.49853E-03     311.873E-03    -151.953E-03    -159.819E-03    -151.608E-03     311.528E-03    -159.819E-03     24.6000E-03     51.2034E+06     26.3839E+06    -39.3111E+06    -38.0080E+06     47.4053E+06     28.8790E+06    -3.49238E+06         54.3642
            1164     9.37087E-03     2.72547E-03     150.968E-03     120.932E-03    -367.825E-03     120.350E-03    -367.243E-03     150.968E-03     1.59527E-03     308.782E-03    -148.065E-03    -160.523E-03    -147.702E-03     308.419E-03    -160.523E-03     25.6535E-03     33.8519E+06     9.20786E+06    -41.9791E+06    -40.8251E+06     29.4445E+06     12.4612E+06    -5.54691E+06         51.8220
            1165     8.50744E-03     2.72673E-03     153.609E-03     129.632E-03    -380.904E-03     129.168E-03    -380.440E-03     153.609E-03     9.86860E-03     309.289E-03    -147.434E-03    -161.748E-03    -147.075E-03     308.930E-03    -161.748E-03     25.4469E-03     10.2140E+06    -14.1127E+06    -52.6335E+06    -45.1704E+06    -5.61647E+06    -5.74527E+06    -15.4402E+06         49.6848
            1166     7.64331E-03     2.73535E-03     156.052E-03     134.326E-03    -388.076E-03     134.278E-03    -388.028E-03     156.052E-03    -2.46285E-03     311.648E-03    -148.382E-03    -163.336E-03    -148.055E-03     311.320E-03    -163.336E-03     24.2636E-03    -12.5478E+06    -31.2703E+06    -65.5010E+06    -48.0659E+06    -43.8992E+06    -17.3540E+06    -16.6831E+06         47.9756
            1167     6.78231E-03     2.74712E-03     158.711E-03     135.912E-03    -390.645E-03     135.482E-03    -390.216E-03     158.711E-03     1.46899E-03     315.672E-03    -150.651E-03    -165.038E-03    -150.369E-03     315.390E-03    -165.038E-03     22.5637E-03    -28.4060E+06    -46.9382E+06    -86.9465E+06    -53.1473E+06    -80.7374E+06    -28.4060E+06    -12.9497E+06         46.7175
            1168     5.92221E-03     2.76546E-03     161.684E-03     141.608E-03    -397.293E-03     140.334E-03    -396.019E-03     161.684E-03     31.0063E-03     320.694E-03    -153.836E-03    -166.746E-03    -153.594E-03     320.453E-03    -166.746E-03     21.0116E-03    -39.3236E+06    -55.4838E+06    -119.538E+06    -57.2161E+06    -117.806E+06    -39.3236E+06    -8.28603E+06         45.9473
            1169     5.06752E-03     2.78402E-03     164.248E-03     153.037E-03    -410.496E-03     151.842E-03    -409.301E-03     164.248E-03     12.1389E-03     326.316E-03    -157.607E-03    -168.594E-03    -157.400E-03     326.108E-03    -168.594E-03     19.7092E-03    -51.2943E+06    -61.3950E+06    -155.412E+06    -61.7709E+06    -155.036E+06    -51.2943E+06    -4.52301E+06         45.6882
            1170     4.21475E-03     2.80715E-03     168.418E-03     155.148E-03    -417.327E-03     156.295E-03    -416.345E-03     166.288E-03     8.07142E-03     332.146E-03    -161.843E-03    -170.415E-03    -161.672E-03     331.976E-03    -170.415E-03     18.0485E-03    -60.5693E+06    -65.9821E+06    -185.610E+06    -66.1926E+06    -185.399E+06    -60.5693E+06    -3.64017E+06         45.8175
            1171     3.36662E-03     2.82970E-03     170.614E-03     157.177E-03    -418.928E-03     158.612E-03    -418.234E-03     168.484E-03     25.5200E-03     337.872E-03    -166.020E-03    -172.005E-03    -165.898E-03     337.750E-03    -172.005E-03     15.4729E-03    -65.9833E+06    -68.9891E+06    -206.814E+06    -69.0867E+06    -206.716E+06    -65.9833E+06    -2.65494E+06         46.0818
            1172     2.52253E-03     2.85161E-03     173.599E-03     164.476E-03    -428.141E-03     167.575E-03    -427.661E-03     170.020E-03     303.668E-06     342.897E-03    -169.556E-03    -173.367E-03    -169.478E-03     342.819E-03    -173.367E-03     12.4910E-03    -68.3587E+06    -72.3190E+06    -226.796E+06    -72.4124E+06    -226.702E+06    -68.3587E+06    -759.487E+03         46.3208
            1173     1.67905E-03     2.86739E-03     178.248E-03     162.169E-03    -431.930E-03     168.079E-03    -430.672E-03     171.080E-03    -9.44596E-03     346.818E-03    -172.374E-03    -174.456E-03    -172.331E-03     346.775E-03    -174.456E-03     9.13758E-03    -68.7798E+06    -74.3643E+06    -241.238E+06    -74.1265E+06    -241.173E+06    -69.0826E+06     1.20573E+06         46.5018
            1174     837.964E-06     2.88111E-03     202.886E-03     146.429E-03    -438.435E-03     144.296E-03    -432.712E-03     199.297E-03     63.9953E-03     349.846E-03    -174.517E-03    -175.327E-03    -174.674E-03     349.829E-03    -175.153E-03     5.68002E-03    -74.0542E+06    -79.5903E+06    -262.145E+06    -79.3615E+06    -262.071E+06    -74.3570E+06     2.48100E+06         46.6192
            1175     14.4287E-03     1.48776E-03     134.622E-03     76.2208E-03    -310.595E-03     75.9845E-03    -310.358E-03     134.622E-03    -1.85142E-03     381.128E-03    -164.898E-03    -216.578E-03    -215.250E-03     379.799E-03    -164.898E-03     52.5699E-03     127.097E+06     90.1522E+06    -14.7981E+06    -13.9570E+06     89.3112E+06     127.097E+06     4.40244E+06         72.3477
            1176     13.6208E-03     1.41770E-03     137.970E-03     83.6054E-03    -320.862E-03     83.5214E-03    -320.778E-03     137.970E-03     3.34585E-03     354.564E-03    -162.434E-03    -192.881E-03    -192.519E-03     354.202E-03    -162.434E-03     24.6652E-03     111.236E+06     85.3992E+06    -17.0396E+06    -15.9069E+06     84.2665E+06     111.236E+06     9.03248E+06         68.9035
            1177     12.7855E-03     1.39112E-03     141.291E-03     92.3108E-03    -332.776E-03     91.8725E-03    -332.338E-03     141.291E-03     1.18879E-03     334.402E-03    -160.797E-03    -173.981E-03    -173.913E-03     334.334E-03    -160.797E-03     11.3534E-03     93.2082E+06     75.3739E+06    -20.4281E+06    -19.3502E+06     78.4299E+06     89.0742E+06     1.70462E+06         65.0514
            1178     11.9364E-03     1.37899E-03     144.538E-03     100.783E-03    -344.947E-03     99.8793E-03    -344.043E-03     144.538E-03    -13.2759E-03     320.526E-03    -157.482E-03    -163.301E-03    -160.567E-03     320.367E-03    -160.056E-03     14.6475E-03     74.3849E+06     54.0961E+06    -22.5192E+06    -21.9320E+06     69.8482E+06     58.0455E+06    -2.45434E+06         61.6011
            1179     11.0771E-03     1.35458E-03     147.670E-03     109.158E-03    -354.885E-03     108.440E-03    -354.167E-03     147.670E-03    -7.46642E-03     311.087E-03    -151.169E-03    -160.242E-03    -150.996E-03     310.915E-03    -160.242E-03     14.4131E-03     57.9534E+06     20.5160E+06    -30.4442E+06    -29.1349E+06     56.6441E+06     20.5160E+06    -4.52247E+06         58.5281
            1180     10.2129E-03     1.36001E-03     150.742E-03     114.521E-03    -362.125E-03     114.105E-03    -361.709E-03     150.742E-03    -10.8236E-03     308.386E-03    -147.381E-03    -161.118E-03    -147.267E-03     308.272E-03    -161.118E-03     11.8137E-03     46.0342E+06    -7.46634E+06    -39.1069E+06    -36.4623E+06     43.3896E+06    -7.46634E+06    -8.47350E+06         55.7219
            1181     9.35090E-03     1.36215E-03     153.942E-03     118.349E-03    -369.507E-03     118.075E-03    -369.233E-03     153.942E-03    -8.15086E-03     309.247E-03    -146.578E-03    -162.406E-03    -146.410E-03     309.079E-03    -162.406E-03     15.8399E-03     35.5278E+06    -21.3476E+06    -40.6121E+06    -36.7573E+06     33.7478E+06    -23.4224E+06    -7.54159E+06         53.2451
            1182     8.48567E-03     1.36450E-03     157.162E-03     126.497E-03    -380.534E-03     126.313E-03    -380.350E-03     157.162E-03     6.59864E-03     310.512E-03    -146.136E-03    -164.023E-03    -145.977E-03     310.353E-03    -164.023E-03     15.3724E-03     4.41713E+06    -34.5979E+06    -51.3459E+06    -41.0285E+06    -1.18688E+06    -39.3113E+06    -9.27028E+06         51.1397
            1183     7.62179E-03     1.36588E-03     160.100E-03     135.859E-03    -393.292E-03     135.749E-03    -393.182E-03     160.100E-03    -2.06863E-03     313.323E-03    -147.221E-03    -166.015E-03    -147.089E-03     313.191E-03    -166.015E-03     13.9779E-03    -31.1215E+06    -47.6514E+06    -67.7873E+06    -49.8105E+06    -49.6087E+06    -47.1410E+06    -10.8424E+06         49.4312
            1184     6.75906E-03     1.37176E-03     162.690E-03     143.870E-03    -401.968E-03     143.486E-03    -401.585E-03     162.690E-03    -2.36161E-03     317.949E-03    -149.646E-03    -168.192E-03    -149.539E-03     317.841E-03    -168.192E-03     12.8430E-03    -47.7796E+06    -55.0273E+06    -92.6211E+06    -55.1789E+06    -89.4967E+06    -50.7525E+06    -7.41111E+06         48.1422
            1185     5.89985E-03     1.38313E-03     164.834E-03     153.490E-03    -410.330E-03     152.107E-03    -408.947E-03     164.834E-03    -926.211E-06     324.057E-03    -153.294E-03    -170.575E-03    -153.205E-03     323.968E-03    -170.575E-03     11.9380E-03    -54.0478E+06    -58.9861E+06    -128.440E+06    -60.1936E+06    -127.233E+06    -54.0478E+06    -4.70509E+06         47.2930
            1186     5.04242E-03     1.39308E-03     166.635E-03     157.524E-03    -415.584E-03     156.217E-03    -414.278E-03     166.635E-03    -17.7467E-03     331.367E-03    -158.150E-03    -173.277E-03    -158.072E-03     331.289E-03    -173.277E-03     11.1518E-03    -55.6534E+06    -62.4262E+06    -159.801E+06    -62.5346E+06    -159.693E+06    -55.6534E+06    -2.35838E+06         46.9016
            1187     4.19153E-03     1.40564E-03     169.028E-03     154.465E-03    -416.923E-03     153.796E-03    -416.254E-03     169.028E-03     4.94205E-03     339.322E-03    -163.661E-03    -175.959E-03    -163.595E-03     339.255E-03    -175.959E-03     10.4597E-03    -57.3395E+06    -63.7295E+06    -188.199E+06    -63.7936E+06    -188.135E+06    -57.3395E+06    -352.196E+03         46.9210
            1188     3.34516E-03     1.41918E-03     172.039E-03     162.939E-03    -427.701E-03     162.912E-03    -427.274E-03     171.640E-03     19.2155E-03     347.386E-03    -169.228E-03    -178.299E-03    -169.175E-03     347.334E-03    -178.299E-03     9.39520E-03    -60.4448E+06    -66.3742E+06    -209.341E+06    -66.4404E+06    -209.275E+06    -60.4448E+06    -79.1128E+03         47.1858
            1189     2.50261E-03     1.43296E-03     176.454E-03     170.692E-03    -437.662E-03     174.189E-03    -437.180E-03     172.475E-03    -155.385E-06     354.994E-03    -174.665E-03    -180.234E-03    -174.630E-03     354.959E-03    -180.234E-03     7.49639E-03    -62.7939E+06    -68.9040E+06    -228.935E+06    -68.9385E+06    -228.900E+06    -62.7939E+06    -62.9887E+03         47.5120
            1190     1.66589E-03     1.44295E-03     179.104E-03     167.190E-03    -437.581E-03     173.241E-03    -436.463E-03     171.936E-03    -7.92049E-03     360.940E-03    -179.164E-03    -181.719E-03    -179.147E-03     360.922E-03    -181.719E-03     5.19223E-03    -64.0853E+06    -72.4392E+06    -242.125E+06    -72.5164E+06    -242.048E+06    -64.0853E+06     358.974E+03         47.7921
            1191     832.151E-06     1.44945E-03     186.406E-03     160.605E-03    -438.190E-03     160.620E-03    -434.616E-03     182.817E-03     17.1690E-03     364.798E-03    -181.854E-03    -182.927E-03    -182.267E-03     364.792E-03    -182.509E-03     3.00558E-03    -69.6577E+06    -77.8364E+06    -259.712E+06    -76.6298E+06    -259.656E+06    -70.9200E+06     356.983E+03         47.9817
            1192     848.736E-06     77.5962E-03     125.637E-03    -35.0703E-03    -160.281E-03     67.0358E-03     2.36001E-03    -139.111E-03     62.6593E-03     328.197E-03    -163.605E-03    -164.608E-03    -163.926E-03     328.192E-03    -164.282E-03     2.07727E-03    -119.744E+06    -125.744E+06    -266.663E+06    -123.074E+06    -266.537E+06    -122.541E+06     298.171E+03         45.5583
            1193     1.69808E-03     77.6002E-03     30.9946E-03    -35.6248E-03    -64.4430E-03    -35.3119E-03     2.16374E-03    -35.9251E-03    -27.6341E-03     327.671E-03    -163.293E-03    -164.386E-03    -163.709E-03     327.670E-03    -163.968E-03     896.191E-06    -118.076E+06    -126.227E+06    -251.249E+06    -126.399E+06    -251.078E+06    -118.076E+06    -90.4421E+03         45.5868
            1194     2.54659E-03     77.6077E-03     14.8501E-03    -32.4869E-03    -48.0231E-03    -34.3041E-03     4.29855E-03    -35.6543E-03    -29.7651E-03     328.259E-03    -163.574E-03    -164.588E-03    -164.163E-03     328.251E-03    -163.990E-03     3.49854E-03    -103.830E+06    -119.921E+06    -235.488E+06    -120.289E+06    -235.120E+06    -103.830E+06     69.6538E+03         45.6525
            1195     3.39453E-03     77.6151E-03     11.6314E-03    -32.3544E-03    -44.2721E-03    -38.8026E-03     9.71296E-03    -35.9053E-03    -3.97083E-03     329.503E-03    -164.306E-03    -165.174E-03    -165.138E-03     329.488E-03    -164.328E-03     5.23426E-03    -82.0027E+06    -110.879E+06    -211.955E+06    -111.450E+06    -211.384E+06    -82.0027E+06     1.75792E+06         45.7493
            1196     4.24209E-03     77.6229E-03     14.9601E-03    -33.9957E-03    -46.0644E-03    -35.0012E-03     6.15100E-03    -36.2499E-03    -20.0475E-03     329.904E-03    -164.627E-03    -165.220E-03    -165.189E-03     329.882E-03    -164.635E-03     6.50482E-03    -62.4595E+06    -105.352E+06    -189.660E+06    -105.788E+06    -189.224E+06    -62.4595E+06     1.86833E+06         45.8428
            1197     5.09114E-03     77.6352E-03     18.7334E-03    -34.1283E-03    -50.2587E-03    -29.0530E-03    -901.923E-06    -35.6986E-03    -858.507E-06     329.834E-03    -164.607E-03    -165.223E-03    -164.978E-03     329.801E-03    -164.819E-03     8.06341E-03    -43.3671E+06    -95.5185E+06    -162.551E+06    -95.6943E+06    -162.376E+06    -43.3671E+06     1.11966E+06         45.9206
            1198     5.93811E-03     77.6489E-03     13.2963E-03    -30.4373E-03    -49.6443E-03    -27.0116E-03    -5.00637E-03    -34.7674E-03    -4.43865E-03     329.679E-03    -164.570E-03    -165.384E-03    -164.911E-03     329.622E-03    -164.985E-03     10.4386E-03    -23.2854E+06    -85.2096E+06    -128.906E+06    -85.3894E+06    -128.727E+06    -23.2854E+06     1.02042E+06         46.0031
            1199     6.78474E-03     77.6744E-03     4.04515E-03    -27.6616E-03    -43.4824E-03    -21.8809E-03    -11.5356E-03    -33.6823E-03    -15.8150E-03     329.117E-03    -163.761E-03    -165.390E-03    -164.108E-03     328.988E-03    -164.914E-03     15.5720E-03    -4.98209E+06    -76.0584E+06    -99.3994E+06    -78.9662E+06    -96.4915E+06    -4.98209E+06     1.76935E+06         46.1034
            1200     7.63546E-03     77.6992E-03    -3.89346E-03    -26.8418E-03    -35.1438E-03    -14.2004E-03    -19.5489E-03    -32.1297E-03     4.86969E-03     328.700E-03    -163.178E-03    -165.089E-03    -163.313E-03     328.472E-03    -164.726E-03     21.0213E-03     9.31508E+06    -56.6083E+06    -79.0572E+06    -73.2573E+06    -62.4081E+06     9.31508E+06     2.35025E+06         46.3602
            1201     8.48598E-03     77.7254E-03     724.325E-06    -26.5413E-03    -37.5153E-03    -7.13636E-03    -26.0574E-03    -30.1386E-03     17.2351E-03     328.800E-03    -163.745E-03    -164.722E-03    -163.418E-03     328.473E-03    -164.722E-03     25.2247E-03     27.6012E+06    -11.5154E+06    -66.1549E+06    -64.1572E+06    -13.5131E+06     27.6012E+06     6.06192E+06         47.0868
            1202     9.33044E-03     77.7582E-03     8.90526E-03    -27.9421E-03    -44.1130E-03    -4.47626E-03    -30.5722E-03    -28.1014E-03    -1.69666E-03     328.985E-03    -164.148E-03    -164.788E-03    -163.727E-03     328.483E-03    -164.707E-03     30.7772E-03     41.5921E+06     26.7172E+06    -58.9534E+06    -57.4533E+06     25.2171E+06     41.5921E+06     8.06027E+06         48.4650
            1203     10.1806E-03     77.7980E-03     7.56475E-03    -26.2456E-03    -45.7985E-03    -5.44329E-03    -32.6311E-03    -26.4048E-03    -8.29545E-03     328.309E-03    -163.522E-03    -164.781E-03    -162.952E-03     327.657E-03    -164.699E-03     35.4077E-03     48.4829E+06     39.7549E+06    -51.0231E+06    -48.5057E+06     39.6579E+06     46.0625E+06     5.50359E+06         50.4833
            1204     11.0345E-03     77.8378E-03     9.05761E-03    -24.8722E-03    -46.8732E-03     314.969E-06    -38.1305E-03    -24.8722E-03     254.204E-06     327.251E-03    -162.668E-03    -164.715E-03    -161.832E-03     326.415E-03    -164.715E-03     40.2253E-03     61.0433E+06     51.2276E+06    -37.1572E+06    -34.3594E+06     52.4372E+06     57.0358E+06     5.83038E+06         53.1041
            1205     11.8866E-03     77.8912E-03     20.9148E-03    -22.7916E-03    -59.1164E-03     17.7341E-03    -55.9357E-03    -22.7916E-03     3.86210E-03     328.403E-03    -163.499E-03    -165.034E-03    -162.999E-03     327.502E-03    -164.633E-03     41.9452E-03     76.7009E+06     61.6199E+06    -24.0458E+06    -23.1692E+06     62.3304E+06     75.1138E+06     4.36227E+06         56.2946
            1206     12.7359E-03     77.9414E-03     34.6127E-03    -19.9773E-03    -75.1087E-03     31.4389E-03    -71.9349E-03    -19.9773E-03    -1.94327E-03     330.461E-03    -164.559E-03    -166.038E-03    -164.795E-03     329.293E-03    -164.634E-03     46.9981E-03     90.3949E+06     70.5692E+06    -20.0449E+06    -19.8421E+06     70.3665E+06     90.3949E+06    -1.83278E+06         60.0266
            1207     13.5876E-03     78.0131E-03     31.6936E-03    -17.2606E-03    -75.2132E-03     27.6159E-03    -71.1356E-03    -17.2606E-03     2.46669E-03     332.053E-03    -164.665E-03    -167.571E-03    -165.831E-03     330.314E-03    -164.665E-03     58.2234E-03     110.024E+06     84.4293E+06    -19.4626E+06    -18.3932E+06     83.3599E+06     110.024E+06    -6.97672E+06         64.0679
            1208     14.4294E-03     78.1092E-03     30.2884E-03    -15.0378E-03    -79.8953E-03     27.3156E-03    -76.9225E-03    -15.0378E-03     13.0605E-03     331.891E-03    -164.676E-03    -167.473E-03    -165.769E-03     330.310E-03    -164.798E-03     55.6553E-03     133.106E+06     99.7641E+06    -11.5442E+06    -10.0791E+06     98.2990E+06     133.106E+06    -2.20132E+06         67.6243
            1209     846.197E-06     78.9859E-03     128.225E-03    -25.2540E-03    -173.286E-03     49.3380E-03     40.8939E-03    -160.547E-03     55.6232E-03     330.516E-03    -164.960E-03    -165.564E-03    -165.081E-03     330.511E-03    -165.437E-03     2.39366E-03    -128.805E+06    -132.130E+06    -271.377E+06    -132.371E+06    -271.135E+06    -128.805E+06    -705.802E+03         45.6103
            1210     1.69473E-03     78.9886E-03     59.1217E-03    -54.7914E-03    -69.2718E-03    -52.4207E-03     42.5708E-03    -55.0916E-03    -13.8921E-03     329.074E-03    -164.126E-03    -165.001E-03    -164.149E-03     329.072E-03    -164.976E-03     984.122E-06    -116.968E+06    -125.160E+06    -251.808E+06    -125.441E+06    -251.528E+06    -116.968E+06     1.29114E+06         45.6358
            1211     2.54577E-03     78.9926E-03     41.7046E-03    -49.5498E-03    -55.0694E-03    -42.1955E-03     31.9981E-03    -52.7173E-03    -6.83826E-03     328.657E-03    -163.884E-03    -164.692E-03    -163.902E-03     328.650E-03    -164.668E-03     2.16825E-03    -100.998E+06    -121.519E+06    -233.424E+06    -121.741E+06    -233.202E+06    -100.998E+06     1.55046E+06         45.6879
            1212     3.39527E-03     79.0061E-03     29.8178E-03    -43.8956E-03    -50.7550E-03    -40.4350E-03     25.4464E-03    -49.8442E-03     21.7099E-03     328.804E-03    -163.813E-03    -164.963E-03    -164.083E-03     328.793E-03    -164.682E-03     3.39541E-03    -83.3058E+06    -114.602E+06    -213.859E+06    -115.094E+06    -213.367E+06    -83.3058E+06     118.564E+03         45.7588
            1213     4.24276E-03     79.0137E-03     26.9483E-03    -43.3497E-03    -48.0750E-03    -41.4778E-03     25.0764E-03    -48.0750E-03    -12.3546E-03     329.461E-03    -164.291E-03    -165.203E-03    -164.703E-03     329.442E-03    -164.771E-03     5.72349E-03    -64.4676E+06    -105.180E+06    -190.722E+06    -105.637E+06    -190.265E+06    -64.4676E+06     1.01827E+06         45.8356
            1214     5.08908E-03     79.0259E-03     29.4409E-03    -41.6059E-03    -53.6305E-03    -40.2774E-03     21.4154E-03    -46.9334E-03     19.0170E-03     329.998E-03    -164.684E-03    -165.296E-03    -165.070E-03     329.947E-03    -164.859E-03     9.53004E-03    -46.2320E+06    -96.0312E+06    -164.735E+06    -96.2506E+06    -164.516E+06    -46.2320E+06    -465.962E+03         45.9083
            1215     5.93561E-03     79.0432E-03     20.6194E-03    -34.5638E-03    -52.3056E-03    -33.7528E-03     13.1113E-03    -45.6086E-03     22.4991E-03     329.366E-03    -164.256E-03    -165.235E-03    -164.446E-03     329.271E-03    -164.949E-03     13.2560E-03    -27.9278E+06    -85.9444E+06    -134.366E+06    -87.5944E+06    -132.716E+06    -27.9278E+06     2.30074E+06         45.9751
            1216     6.78624E-03     79.0598E-03     9.77146E-03    -30.7175E-03    -43.4187E-03    -20.4885E-03    -457.574E-06    -43.4187E-03    -7.77396E-03     327.849E-03    -163.004E-03    -164.844E-03    -162.859E-03     327.705E-03    -164.844E-03     16.7237E-03    -7.87409E+06    -78.3248E+06    -101.827E+06    -81.7900E+06    -98.3615E+06    -7.87409E+06     5.60650E+06         46.0476
            1217     7.63838E-03     79.0839E-03     1.97340E-03    -24.7698E-03    -40.5228E-03    -11.9144E-03    -10.8820E-03    -40.5228E-03    -5.39224E-03     326.707E-03    -161.826E-03    -164.500E-03    -161.618E-03     326.499E-03    -164.500E-03     20.0271E-03     11.8535E+06    -57.5717E+06    -78.0628E+06    -73.2028E+06    -62.4318E+06     11.8535E+06     4.11673E+06         46.2950
            1218     8.48773E-03     79.1157E-03    -1.87980E-03    -21.4747E-03    -38.7648E-03    -12.7496E-03    -11.5290E-03    -37.8407E-03     9.71733E-03     326.509E-03    -161.910E-03    -164.284E-03    -161.594E-03     326.193E-03    -164.284E-03     24.6123E-03     26.6427E+06    -17.6691E+06    -65.8878E+06    -63.2435E+06    -20.3134E+06     26.6427E+06     7.25091E+06         47.0393
            1219     9.34194E-03     79.1456E-03     1.13626E-03    -26.4904E-03    -36.8444E-03    -17.3041E-03    -8.97406E-03    -35.9204E-03     2.73003E-03     326.836E-03    -162.605E-03    -164.198E-03    -162.087E-03     326.318E-03    -164.198E-03     31.2499E-03     42.3279E+06     24.5953E+06    -58.2563E+06    -56.6455E+06     25.6827E+06     39.6296E+06     9.15267E+06         48.4393
            1220     10.1916E-03     79.1869E-03     2.61759E-03    -27.8873E-03    -38.1206E-03    -14.3971E-03    -14.5654E-03    -34.4278E-03     3.93280E-03     328.156E-03    -163.273E-03    -164.827E-03    -163.294E-03     327.520E-03    -164.170E-03     35.0585E-03     52.5513E+06     45.1429E+06    -49.2826E+06    -48.0526E+06     46.6112E+06     49.8530E+06     1.12396E+06         50.4710
            1221     11.0382E-03     79.2236E-03     8.48784E-03    -29.4190E-03    -42.4358E-03     1.19466E-03    -32.0791E-03    -32.4826E-03     10.6171E-03     329.678E-03    -163.717E-03    -165.963E-03    -164.700E-03     328.968E-03    -164.271E-03     37.3196E-03     59.6995E+06     53.6786E+06    -37.3775E+06    -34.8600E+06     53.7174E+06     57.1432E+06    -3.75645E+06         53.0976
            1222     11.8869E-03     79.2805E-03     18.4784E-03    -29.7984E-03    -49.3261E-03     14.3936E-03    -45.2413E-03    -29.7984E-03     17.6361E-03     331.248E-03    -164.238E-03    -167.140E-03    -166.157E-03     330.494E-03    -164.467E-03     38.6723E-03     73.4709E+06     60.3231E+06    -32.9854E+06    -31.1005E+06     60.9944E+06     70.9146E+06    -483.910E+03         56.2903
            1223     12.7335E-03     79.3343E-03     26.0581E-03    -26.9480E-03    -59.0218E-03     18.4489E-03    -51.4126E-03    -26.9480E-03     4.90731E-03     333.287E-03    -164.829E-03    -168.734E-03    -167.877E-03     332.430E-03    -164.829E-03     41.2889E-03     99.7608E+06     77.1544E+06    -20.7235E+06    -20.0613E+06     76.4922E+06     99.7608E+06     2.96194E+06         60.0275
            1224     13.5738E-03     79.4100E-03     32.9634E-03    -24.1885E-03    -69.7998E-03     26.2850E-03    -63.1213E-03    -24.1885E-03     4.71764E-03     332.811E-03    -164.784E-03    -168.277E-03    -166.627E-03     331.340E-03    -164.964E-03     53.3908E-03     118.361E+06     91.7548E+06    -14.5196E+06    -12.2172E+06     89.4524E+06     118.361E+06     1.84192E+06         64.0722
            1225     14.4239E-03     79.5009E-03     39.0386E-03    -21.2982E-03    -78.7070E-03     35.0657E-03    -74.7341E-03    -21.2982E-03     5.76606E-03     329.969E-03    -164.185E-03    -166.043E-03    -163.680E-03     328.418E-03    -164.996E-03     54.8199E-03     126.405E+06     94.9783E+06    -16.9774E+06    -14.5051E+06     92.5060E+06     126.405E+06     30.7213E+03         67.6254
            1226     848.352E-06     80.3783E-03     107.434E-03    -20.3187E-03    -152.408E-03     22.8657E-03     63.8230E-03    -151.981E-03     43.7269E-03     330.984E-03    -165.203E-03    -165.773E-03    -165.572E-03     330.979E-03    -165.399E-03     2.46112E-03    -125.293E+06    -131.040E+06    -268.938E+06    -129.068E+06    -268.766E+06    -127.436E+06    -993.601E+03         45.6504
            1227     1.69611E-03     80.3784E-03     61.3814E-03    -57.5384E-03    -65.7704E-03    -48.2145E-03     47.5667E-03    -61.2796E-03     5.19281E-03     331.176E-03    -165.317E-03    -165.911E-03    -165.733E-03     331.174E-03    -165.493E-03     1.70140E-03    -117.399E+06    -125.241E+06    -253.905E+06    -125.632E+06    -253.513E+06    -117.399E+06    -2.30464E+06         45.6686
            1228     2.54047E-03     80.3859E-03     60.7601E-03    -57.9824E-03    -65.5000E-03    -57.7558E-03     53.0159E-03    -57.9824E-03    -8.04026E-03     330.472E-03    -164.904E-03    -165.557E-03    -164.973E-03     330.466E-03    -165.482E-03     2.22434E-03    -102.528E+06    -117.849E+06    -238.071E+06    -118.190E+06    -237.730E+06    -102.528E+06     1.32617E+06         45.7103
            1229     3.38904E-03     80.3912E-03     52.1883E-03    -55.2412E-03    -61.2655E-03    -54.9980E-03     48.3184E-03    -57.6388E-03     20.8284E-03     328.930E-03    -163.588E-03    -165.324E-03    -163.580E-03     328.922E-03    -165.324E-03     2.86580E-03    -83.7426E+06    -112.887E+06    -214.441E+06    -113.390E+06    -213.939E+06    -83.7426E+06     2.92409E+06         45.7577
            1230     4.24077E-03     80.4034E-03     43.2423E-03    -52.9632E-03    -56.9781E-03    -51.2090E-03     41.3144E-03    -56.8044E-03    -16.8117E-03     328.243E-03    -163.119E-03    -165.146E-03    -163.133E-03     328.223E-03    -165.112E-03     5.66541E-03    -66.1204E+06    -106.529E+06    -192.255E+06    -107.255E+06    -191.529E+06    -66.1204E+06    -257.911E+03         45.8086
            1231     5.09058E-03     80.4168E-03     34.1172E-03    -44.1687E-03    -55.1720E-03    -41.3544E-03     31.3029E-03    -55.1720E-03    -3.99985E-03     328.055E-03    -163.213E-03    -164.896E-03    -163.196E-03     328.004E-03    -164.863E-03     9.50503E-03    -47.9550E+06    -97.6098E+06    -168.063E+06    -98.3593E+06    -167.313E+06    -47.9550E+06     220.078E+03         45.8723
            1232     5.94170E-03     80.4313E-03     22.4322E-03    -33.5225E-03    -52.5539E-03    -30.7826E-03     19.6923E-03    -52.5539E-03     537.656E-06     327.922E-03    -163.255E-03    -164.683E-03    -163.163E-03     327.829E-03    -164.683E-03     12.9826E-03    -27.3313E+06    -87.0795E+06    -140.645E+06    -89.1116E+06    -138.612E+06    -27.3313E+06     3.82420E+06         45.9412
            1233     6.78961E-03     80.4487E-03     19.8178E-03    -31.9345E-03    -49.8449E-03    -29.9444E-03     17.8277E-03    -49.8449E-03    -15.1022E-03     328.156E-03    -163.520E-03    -164.563E-03    -163.386E-03     328.022E-03    -164.563E-03     16.1159E-03    -5.35247E+06    -72.9911E+06    -103.162E+06    -77.1054E+06    -99.0480E+06    -5.35247E+06     5.80584E+06         46.0175
            1234     7.63666E-03     80.4707E-03     17.1742E-03    -29.8737E-03    -47.6166E-03    -28.1362E-03     15.4367E-03    -47.6166E-03    -3.85044E-03     327.254E-03    -162.702E-03    -164.312E-03    -162.534E-03     327.086E-03    -164.312E-03     18.0805E-03     14.5638E+06    -54.3555E+06    -74.1626E+06    -67.9164E+06    -60.6016E+06     14.5638E+06     6.63488E+06         46.2705
            1235     8.49131E-03     80.4961E-03     8.49078E-03    -23.9819E-03    -45.4167E-03    -20.4679E-03     4.97679E-03    -45.4167E-03     8.59955E-03     325.965E-03    -161.664E-03    -164.176E-03    -161.440E-03     325.741E-03    -164.176E-03     20.6663E-03     26.1412E+06    -24.9857E+06    -64.6163E+06    -62.4759E+06    -27.1261E+06     26.1412E+06     7.01025E+06         47.0219
            1236     9.34113E-03     80.5329E-03     1.86302E-03    -20.7245E-03    -43.0156E-03    -13.9644E-03    -4.89707E-03    -43.0156E-03     842.342E-06     326.202E-03    -162.206E-03    -164.080E-03    -161.913E-03     325.909E-03    -164.080E-03     23.6605E-03     46.6588E+06     23.2987E+06    -50.7417E+06    -50.0431E+06     27.6682E+06     41.5907E+06     5.84413E+06         48.4267
            1237     10.1928E-03     80.5710E-03     1.68541E-03    -24.6544E-03    -40.4616E-03    -6.58785E-03    -16.3812E-03    -40.4616E-03    -12.4369E-03     328.665E-03    -163.528E-03    -164.957E-03    -164.027E-03     328.275E-03    -164.069E-03     27.3436E-03     65.7151E+06     56.8713E+06    -40.4737E+06    -40.2225E+06     61.6883E+06     60.6470E+06     2.66717E+06         50.4597
            1238     11.0403E-03     80.6224E-03     5.19803E-03    -26.9892E-03    -41.7102E-03     2.38409E-03    -28.1917E-03    -37.6937E-03    -13.6689E-03     331.772E-03    -164.254E-03    -167.292E-03    -166.777E-03     331.257E-03    -164.254E-03     31.8048E-03     65.9743E+06     56.7672E+06    -43.0165E+06    -41.8449E+06     56.5647E+06     65.0051E+06    -3.39079E+06         53.0835
            1239     11.8835E-03     80.6697E-03     8.27979E-03    -29.9171E-03    -40.6359E-03     4.12231E-03    -31.4205E-03    -34.9750E-03     7.24264E-03     333.515E-03    -164.555E-03    -168.954E-03    -168.239E-03     332.800E-03    -164.555E-03     37.5359E-03     72.0167E+06     58.8507E+06    -37.9816E+06    -36.8220E+06     58.6602E+06     71.0475E+06    -3.49912E+06         56.2711
            1240     12.7257E-03     80.7396E-03     17.5136E-03    -32.4194E-03    -47.3600E-03     9.65337E-03    -39.4997E-03    -32.4194E-03    -9.55081E-03     333.481E-03    -164.939E-03    -168.661E-03    -167.671E-03     332.491E-03    -164.939E-03     44.3368E-03     86.1254E+06     69.7332E+06    -27.4591E+06    -26.6337E+06     68.9079E+06     86.1254E+06     1.20901E+06         60.0070
            1241     13.5744E-03     80.8004E-03     34.9767E-03    -29.4493E-03    -67.1263E-03     28.1352E-03    -60.2848E-03    -29.4493E-03    -4.54712E-03     331.641E-03    -164.873E-03    -166.858E-03    -165.102E-03     330.064E-03    -165.052E-03     55.2823E-03     110.538E+06     86.4232E+06    -17.5026E+06    -15.9327E+06     84.8533E+06     110.538E+06     6.16894E+06         64.0566
            1242     14.4262E-03     80.8863E-03     44.4656E-03    -25.8734E-03    -78.0982E-03     41.6479E-03    -75.2806E-03    -25.8734E-03     13.6869E-03     329.643E-03    -164.459E-03    -165.488E-03    -163.161E-03     328.005E-03    -165.148E-03     56.3351E-03     132.504E+06     100.323E+06    -11.4126E+06    -10.2906E+06     99.2015E+06     132.504E+06     3.35846E+06         67.6140
            1243     848.016E-06     81.7687E-03     95.8804E-03    -38.0659E-03    -118.232E-03    -27.4918E-03     77.4796E-03    -110.405E-03     5.73652E-03     331.046E-03    -165.172E-03    -165.868E-03    -165.538E-03     331.038E-03    -165.494E-03     2.13084E-03    -117.551E+06    -124.608E+06    -270.109E+06    -122.542E+06    -270.032E+06    -119.694E+06     2.66815E+06         45.6642
            1244     1.69312E-03     81.7741E-03     82.6916E-03    -65.4421E-03    -79.9498E-03    -71.4904E-03     78.2901E-03    -69.5000E-03    -23.6566E-03     331.640E-03    -165.472E-03    -166.178E-03    -166.041E-03     331.630E-03    -165.600E-03     3.41869E-03    -112.517E+06    -122.146E+06    -251.526E+06    -122.566E+06    -251.105E+06    -112.517E+06       1.993E+06         45.6763
            1245     2.54272E-03     81.7768E-03     73.4113E-03    -62.3813E-03    -73.9897E-03    -61.4548E-03     67.3193E-03    -68.8243E-03    -43.7073E-03     331.186E-03    -165.292E-03    -165.943E-03    -165.518E-03     331.179E-03    -165.709E-03     3.55969E-03    -102.472E+06    -118.730E+06    -241.061E+06    -119.324E+06    -240.467E+06    -102.472E+06    -1.21805E+06         45.7161
            1246     3.39048E-03     81.7827E-03     57.1154E-03    -52.8279E-03    -68.7820E-03    -53.4683E-03     55.0398E-03    -66.0661E-03    -7.40577E-03     329.927E-03    -164.379E-03    -165.556E-03    -164.367E-03     329.915E-03    -165.556E-03     4.51856E-03    -87.9705E+06    -110.154E+06    -219.128E+06    -110.647E+06    -218.635E+06    -87.9705E+06     1.47411E+06         45.7655
            1247     4.23838E-03     81.7890E-03     47.2806E-03    -50.3706E-03    -63.3492E-03    -49.7088E-03     46.4451E-03    -63.1755E-03    -8.26304E-03     328.669E-03    -163.246E-03    -165.380E-03    -163.227E-03     328.651E-03    -165.380E-03     5.91396E-03    -63.6371E+06    -102.993E+06    -191.454E+06    -104.373E+06    -190.074E+06    -63.6371E+06     4.47106E+06         45.8090
            1248     5.08978E-03     81.8034E-03     43.0302E-03    -46.7687E-03    -60.5193E-03    -44.6072E-03     40.8687E-03    -60.5193E-03     3.31553E-03     327.384E-03    -162.413E-03    -165.077E-03    -162.391E-03     327.362E-03    -165.077E-03     6.41658E-03    -41.8670E+06    -97.8583E+06    -168.127E+06    -99.5127E+06    -166.472E+06    -41.8670E+06     2.00107E+06         45.8654
            1249     5.93969E-03     81.8161E-03     35.3907E-03    -39.5744E-03    -57.7090E-03    -36.6578E-03     32.4740E-03    -57.7090E-03     7.49347E-03     327.112E-03    -162.438E-03    -164.745E-03    -162.395E-03     327.070E-03    -164.745E-03     8.72291E-03    -26.2577E+06    -89.0630E+06    -143.170E+06    -89.7021E+06    -142.531E+06    -26.2577E+06    -13.5796E+03         45.9441
            1250     6.79060E-03     81.8384E-03     26.9606E-03    -32.4282E-03    -54.7392E-03    -30.6308E-03     25.1631E-03    -54.7392E-03    -4.42401E-03     327.480E-03    -162.799E-03    -164.479E-03    -162.711E-03     327.391E-03    -164.479E-03     12.7236E-03    -10.1257E+06    -74.4659E+06    -113.364E+06    -77.0316E+06    -110.798E+06    -10.1257E+06     897.149E+03         46.0416
            1251     7.64156E-03     81.8590E-03     26.8409E-03    -34.1403E-03    -52.2452E-03    -33.5010E-03     26.2016E-03    -52.2452E-03     9.64617E-03     328.358E-03    -163.373E-03    -164.686E-03    -163.638E-03     328.229E-03    -164.292E-03     15.7345E-03     12.8379E+06    -48.7165E+06    -80.2016E+06    -64.4104E+06    -64.5078E+06     12.8379E+06     6.02256E+06         46.3054
            1252     8.48603E-03     81.8829E-03     24.4479E-03    -34.3444E-03    -50.4087E-03    -33.2466E-03     23.3500E-03    -50.4087E-03     12.1218E-03     329.195E-03    -163.771E-03    -165.430E-03    -164.566E-03     329.022E-03    -164.463E-03     18.3996E-03     32.9805E+06    -18.8963E+06    -57.3576E+06    -54.7474E+06    -21.5065E+06     32.9805E+06     6.55068E+06         47.0435
            1253     9.33658E-03     81.9187E-03     11.3515E-03    -24.8044E-03    -48.1710E-03    -15.9929E-03     2.53995E-03    -48.1710E-03    -5.65551E-03     329.143E-03    -164.039E-03    -165.379E-03    -164.572E-03     328.928E-03    -164.631E-03     20.5904E-03     50.5312E+06     24.1187E+06    -47.4077E+06    -46.8448E+06     27.9069E+06     46.1801E+06     4.43844E+06         48.4259
            1254     10.1833E-03     81.9620E-03     2.39104E-03    -21.0125E-03    -45.0852E-03    -3.52280E-03    -15.0987E-03    -45.0852E-03    -16.3629E-03     329.548E-03    -164.453E-03    -165.076E-03    -164.558E-03     329.248E-03    -164.671E-03     24.1780E-03     67.5042E+06     60.1879E+06    -39.7294E+06    -39.2829E+06     64.0924E+06     63.1532E+06     4.27875E+06         50.4420
            1255     11.0316E-03     82.0123E-03    -169.617E-06    -21.4294E-03    -41.9751E-03    -2.88415E-03    -18.7149E-03    -41.9751E-03    -7.63960E-03     330.934E-03    -164.624E-03    -166.115E-03    -165.492E-03     330.457E-03    -164.770E-03     30.4920E-03     77.1901E+06     67.6893E+06    -33.4538E+06    -33.0973E+06     67.3328E+06     77.1901E+06     3.59603E+06         53.0558
            1256     11.8783E-03     82.0719E-03     10.1687E-03    -29.3261E-03    -43.8154E-03     6.23795E-03    -30.2388E-03    -38.9720E-03     17.6414E-03     331.031E-03    -164.046E-03    -167.025E-03    -165.443E-03     330.302E-03    -164.899E-03     37.7068E-03     73.6230E+06     58.4758E+06    -37.1649E+06    -36.8462E+06     58.1571E+06     73.6230E+06     742.236E+03         56.2401
            1257     12.7278E-03     82.1284E-03     25.3891E-03    -35.5774E-03    -54.0409E-03     20.1475E-03    -48.7993E-03    -35.5774E-03    -16.8784E-06     330.244E-03    -164.222E-03    -166.176E-03    -164.262E-03     329.098E-03    -164.989E-03     47.2021E-03     77.7895E+06     58.7117E+06    -36.1769E+06    -35.1569E+06     57.6917E+06     77.7895E+06    -94.1593E+03         59.9781
            1258     13.5769E-03     82.1937E-03     30.2731E-03    -31.9879E-03    -62.2329E-03     25.1964E-03    -57.1562E-03    -31.9879E-03     3.10253E-03     331.044E-03    -164.947E-03    -166.297E-03    -164.617E-03     329.364E-03    -164.947E-03     57.4780E-03     106.342E+06     81.0323E+06    -21.3826E+06    -20.5630E+06     80.2126E+06     106.342E+06     1.66753E+06         64.0298
            1259     14.4225E-03     82.2761E-03     34.4388E-03    -28.5317E-03    -68.6231E-03     30.6629E-03    -64.8472E-03    -28.5317E-03     16.6579E-03     330.522E-03    -164.575E-03    -166.204E-03    -164.023E-03     328.788E-03    -165.022E-03     58.4541E-03     132.638E+06     103.003E+06    -6.42672E+06    -6.27679E+06     102.853E+06     132.638E+06     3.24819E+06         67.5878
            1260     846.757E-06     83.1585E-03     107.533E-03    -62.4945E-03    -104.366E-03    -67.0743E-03     93.9732E-03    -86.2263E-03     20.7429E-03     331.209E-03    -165.279E-03    -165.939E-03    -165.273E-03     331.203E-03    -165.939E-03     1.55094E-03    -123.276E+06    -131.505E+06    -277.164E+06    -127.782E+06    -277.081E+06    -127.082E+06     1.36207E+06         45.6511
            1261     1.69788E-03     83.1662E-03     98.2261E-03    -72.5908E-03    -86.1567E-03    -76.4336E-03     92.4917E-03    -76.5795E-03    -4.27845E-03     330.508E-03    -164.876E-03    -165.649E-03    -165.051E-03     330.500E-03    -165.464E-03     3.20524E-03    -114.840E+06    -122.689E+06    -254.715E+06    -122.918E+06    -254.486E+06    -114.840E+06     4.32592E+06         45.6719
            1262     2.54212E-03     83.1709E-03     77.5877E-03    -64.3279E-03    -75.9378E-03    -60.2055E-03     71.7148E-03    -74.1873E-03    -32.2483E-03     330.677E-03    -164.866E-03    -165.797E-03    -165.231E-03     330.673E-03    -165.427E-03     2.80687E-03    -96.8556E+06    -118.288E+06    -235.926E+06    -118.859E+06    -235.355E+06    -96.8556E+06     2.73452E+06         45.7199
            1263     3.39078E-03     83.1708E-03     56.8190E-03    -50.4497E-03    -68.9273E-03    -45.6713E-03     52.0406E-03    -68.9273E-03     11.6127E-03     330.839E-03    -165.154E-03    -165.683E-03    -165.329E-03     330.829E-03    -165.497E-03     4.15102E-03    -82.1772E+06    -113.638E+06    -220.689E+06    -114.222E+06    -220.106E+06    -82.1772E+06    -1.85505E+06         45.7810
            1264     4.23893E-03     83.1823E-03     50.2636E-03    -49.4992E-03    -64.2949E-03    -47.1868E-03     47.9512E-03    -64.2949E-03     3.82504E-03     329.948E-03    -164.453E-03    -165.514E-03    -164.439E-03     329.934E-03    -165.514E-03     5.36250E-03    -64.8044E+06    -100.903E+06    -198.741E+06    -102.177E+06    -197.467E+06    -64.8044E+06    -56.0915E+03         45.8358
            1265     5.08610E-03     83.1884E-03     49.2338E-03    -49.4096E-03    -61.4109E-03    -47.3893E-03     47.2136E-03    -61.4109E-03     3.81671E-03     328.643E-03    -163.451E-03    -165.346E-03    -163.421E-03     328.613E-03    -165.346E-03     7.06471E-03    -41.9119E+06    -90.6862E+06    -168.203E+06    -93.2381E+06    -165.651E+06    -41.9119E+06     4.13861E+06         45.8965
            1266     5.93641E-03     83.2060E-03     46.3630E-03    -47.3029E-03    -59.1823E-03    -44.3348E-03     43.3950E-03    -59.1823E-03     3.12345E-03     328.152E-03    -163.114E-03    -165.102E-03    -163.071E-03     328.109E-03    -165.102E-03     8.93538E-03    -18.9756E+06    -83.3951E+06    -136.477E+06    -84.9231E+06    -134.949E+06    -18.9756E+06     2.75193E+06         45.9896
            1267     6.78657E-03     83.2215E-03     37.8771E-03    -41.9239E-03    -57.0434E-03    -39.6992E-03     35.6523E-03    -57.0434E-03    -2.41203E-03     328.285E-03    -163.098E-03    -164.849E-03    -163.045E-03     328.231E-03    -164.849E-03     10.1731E-03    -6.24878E+06    -77.0366E+06    -111.979E+06    -77.8446E+06    -111.171E+06    -6.24878E+06    -2.87699E+06         46.1122
            1268     7.63677E-03     83.2475E-03     27.7890E-03    -34.3477E-03    -54.7840E-03    -33.2561E-03     26.6975E-03    -54.7840E-03     15.5143E-03     329.033E-03    -163.576E-03    -165.102E-03    -163.883E-03     328.946E-03    -164.708E-03     12.8850E-03     5.99879E+06    -58.6486E+06    -86.2502E+06    -69.9650E+06    -74.9338E+06     5.99879E+06    -852.425E+03         46.3781
            1269     8.48650E-03     83.2784E-03     17.4911E-03    -27.0622E-03    -52.3079E-03    -26.2717E-03     16.7005E-03    -52.3079E-03     8.45333E-03     330.494E-03    -164.529E-03    -166.063E-03    -165.494E-03     330.323E-03    -164.927E-03     17.9374E-03     33.5964E+06    -15.9015E+06    -58.0923E+06    -55.1164E+06    -18.8774E+06     33.5964E+06     3.83856E+06         47.0866
            1270     9.32831E-03     83.3118E-03     11.4741E-03    -24.4231E-03    -49.6243E-03    -19.1830E-03     6.23395E-03    -49.6243E-03    -12.2732E-03     331.345E-03    -165.207E-03    -166.526E-03    -166.244E-03     331.064E-03    -165.207E-03     23.4493E-03     49.9758E+06     24.9652E+06    -48.7622E+06    -48.5892E+06     26.7734E+06     47.9946E+06     1.87882E+06         48.4358
            1271     10.1763E-03     83.3533E-03     7.62122E-03    -23.2654E-03    -46.7524E-03    -11.2198E-03    -4.42439E-03    -46.7524E-03    -2.21557E-03     330.824E-03    -165.219E-03    -165.876E-03    -165.412E-03     330.420E-03    -165.278E-03     27.9946E-03     60.2020E+06     52.0929E+06    -41.3286E+06    -40.3533E+06     55.4418E+06     55.8778E+06     7.05567E+06         50.4292
            1272     11.0252E-03     83.4027E-03     8.07327E-03    -25.8544E-03    -43.5203E-03     1.70197E-03    -19.4831E-03    -43.5203E-03     5.26077E-03     329.555E-03    -164.371E-03    -165.279E-03    -163.796E-03     328.958E-03    -165.258E-03     34.1062E-03     76.0358E+06     67.3630E+06    -29.9143E+06    -27.7878E+06     67.5795E+06     73.6928E+06     12.1940E+06         53.0286
            1273     11.8761E-03     83.4619E-03     18.5800E-03    -34.6381E-03    -45.5391E-03     14.0477E-03    -35.8168E-03    -39.8282E-03     15.3502E-03     327.888E-03    -162.758E-03    -165.174E-03    -162.070E-03     327.199E-03    -165.174E-03     36.6799E-03     75.5272E+06     61.0916E+06    -35.8999E+06    -34.2075E+06     59.3992E+06     75.5272E+06     6.37285E+06         56.2066
            1274     12.7297E-03     83.5101E-03     25.4317E-03    -36.1074E-03    -51.7939E-03     17.0486E-03    -43.4109E-03    -36.1074E-03    -2.98448E-03     328.127E-03    -162.970E-03    -165.076E-03    -161.971E-03     327.074E-03    -165.021E-03     44.5609E-03     85.2990E+06     65.0534E+06    -32.3060E+06    -31.2080E+06     63.9554E+06     85.2990E+06     4.07284E+06         59.9374
            1275     13.5803E-03     83.5909E-03     28.1052E-03    -32.7081E-03    -57.7252E-03     19.4700E-03    -49.0900E-03    -32.7081E-03     273.590E-06     329.706E-03    -163.941E-03    -165.735E-03    -163.241E-03     328.109E-03    -164.838E-03     55.9315E-03     108.068E+06     82.4085E+06    -18.5553E+06    -17.9571E+06     81.8102E+06     108.068E+06     4.03336E+06         63.9847
            1276     14.4297E-03     83.6662E-03     32.8822E-03    -29.3882E-03    -63.3909E-03     28.3193E-03    -58.8280E-03    -29.3882E-03     13.5526E-03     329.336E-03    -163.876E-03    -165.654E-03    -163.131E-03     327.748E-03    -164.811E-03     55.6964E-03     131.373E+06     101.625E+06    -7.66379E+06    -7.51504E+06     101.476E+06     131.373E+06     1.46588E+06         67.5517
            1277     847.617E-06     84.5530E-03     88.5477E-03    -56.0444E-03    -90.7017E-03    -62.5797E-03     64.0977E-03    -59.7164E-03    -17.5105E-03     331.984E-03    -165.672E-03    -166.322E-03    -165.958E-03     331.983E-03    -166.035E-03     1.17782E-03    -123.742E+06    -133.516E+06    -278.777E+06    -129.758E+06    -278.728E+06    -127.549E+06    -589.663E+03         45.6495
            1278     1.69199E-03     84.5555E-03     54.5212E-03    -51.3963E-03    -63.9475E-03    -41.7760E-03     38.1435E-03    -57.1901E-03     26.4640E-03     330.315E-03    -164.651E-03    -165.695E-03    -164.650E-03     330.314E-03    -165.695E-03     1.07148E-03    -116.608E+06    -124.442E+06    -259.046E+06    -124.462E+06    -259.025E+06    -116.608E+06     271.953E+03         45.6761
            1279     2.54558E-03     84.5600E-03     56.7449E-03    -48.7092E-03    -70.5218E-03    -60.1490E-03     51.9104E-03    -54.2474E-03     3.72763E-03     329.673E-03    -164.118E-03    -165.519E-03    -164.300E-03     329.669E-03    -165.333E-03     2.48042E-03    -99.7679E+06    -117.945E+06    -236.747E+06    -118.131E+06    -236.561E+06    -99.7679E+06     2.45333E+06         45.7266
            1280     3.39117E-03     84.5664E-03     71.9753E-03    -51.9795E-03    -82.7406E-03    -73.7424E-03     68.2166E-03    -57.2190E-03     41.4031E-03     330.668E-03    -164.995E-03    -165.654E-03    -165.282E-03     330.655E-03    -165.355E-03     4.92457E-03    -77.8834E+06    -111.468E+06    -215.237E+06    -112.059E+06    -214.646E+06    -77.8834E+06     2.12872E+06         45.7934
            1281     4.23794E-03     84.5717E-03     70.4228E-03    -56.8976E-03    -75.7260E-03    -70.5083E-03     68.5659E-03    -60.2583E-03     10.6119E-03     330.856E-03    -165.085E-03    -165.857E-03    -165.403E-03     330.841E-03    -165.523E-03     5.41383E-03    -62.9668E+06    -104.560E+06    -196.559E+06    -105.208E+06    -195.912E+06    -62.9668E+06    -3.11017E+06         45.8632
            1282     5.08849E-03     84.5786E-03     60.8642E-03    -54.9907E-03    -65.5729E-03    -59.1379E-03     60.5416E-03    -61.1030E-03    -3.64065E-03     330.230E-03    -164.670E-03    -165.759E-03    -164.864E-03     330.203E-03    -165.539E-03     6.42271E-03    -45.8498E+06    -92.7167E+06    -170.619E+06    -94.2324E+06    -169.104E+06    -45.8498E+06     730.169E+03         45.9352
            1283     5.93578E-03     84.5953E-03     51.1700E-03    -50.3224E-03    -60.0523E-03    -47.5189E-03     48.3666E-03    -60.0523E-03    -18.3645E-03     329.693E-03    -164.344E-03    -165.434E-03    -164.301E-03     329.650E-03    -165.434E-03     8.74287E-03    -21.9767E+06    -83.7451E+06    -137.374E+06    -85.2462E+06    -135.873E+06    -21.9767E+06     4.95643E+06         46.0354
            1284     6.78306E-03     84.6123E-03     40.0422E-03    -43.3890E-03    -58.0680E-03    -40.4179E-03     37.0712E-03    -58.0680E-03    -16.9218E-03     330.214E-03    -164.579E-03    -165.307E-03    -164.495E-03     330.130E-03    -165.307E-03     12.3366E-03    -3.50636E+06    -78.3877E+06    -105.072E+06    -79.3341E+06    -104.125E+06    -3.50636E+06     622.142E+03         46.1656
            1285     7.62934E-03     84.6385E-03     23.6649E-03    -30.9007E-03    -55.4369E-03    -27.9272E-03     20.6914E-03    -55.4369E-03     1.16118E-03     330.196E-03    -164.585E-03    -165.293E-03    -164.454E-03     330.065E-03    -165.293E-03     15.6321E-03     10.6343E+06    -63.1399E+06    -77.7287E+06    -70.4433E+06    -70.4254E+06     10.6343E+06    -1.98937E+06         46.4268
            1286     8.47798E-03     84.6657E-03     9.51713E-03    -19.2418E-03    -51.9534E-03    -13.3776E-03     3.65296E-03    -51.9534E-03     5.02944E-03     329.387E-03    -163.903E-03    -165.513E-03    -163.843E-03     329.158E-03    -165.344E-03     20.4898E-03     22.0259E+06    -27.8255E+06    -64.6827E+06    -63.7650E+06    -28.7431E+06     22.0259E+06     779.361E+03         47.1160
            1287     9.33079E-03     84.7093E-03     8.77061E-03    -21.7862E-03    -48.4008E-03    -13.7670E-03     751.408E-06    -48.4008E-03    -7.02209E-03     330.068E-03    -164.362E-03    -165.992E-03    -164.554E-03     329.689E-03    -165.421E-03     27.2605E-03     38.9839E+06     20.6460E+06    -55.9125E+06    -55.3860E+06     20.1195E+06     38.9839E+06     5.11139E+06         48.4468
            1288     10.1760E-03     84.7450E-03     12.1591E-03    -23.9956E-03    -45.2582E-03    -9.34159E-03    -2.49496E-03    -45.2582E-03    -2.82486E-03     330.844E-03    -165.231E-03    -165.998E-03    -165.265E-03     330.313E-03    -165.434E-03     32.3114E-03     52.7837E+06     45.5462E+06    -49.5461E+06    -48.4833E+06     48.7286E+06     48.5386E+06     7.42622E+06         50.4273
            1289     11.0236E-03     84.7949E-03     13.3231E-03    -29.3225E-03    -45.6633E-03    -5.66514E-03    -13.7260E-03    -42.2716E-03    -6.07069E-03     328.918E-03    -163.687E-03    -165.482E-03    -163.138E-03     328.207E-03    -165.319E-03     37.2913E-03     60.8220E+06     53.1491E+06    -44.1699E+06    -42.1724E+06     55.6010E+06     56.3727E+06     11.3046E+06         53.0164
            1290     11.8746E-03     84.8448E-03     27.6713E-03    -35.1171E-03    -43.3086E-03     11.6359E-03    -23.3993E-03    -38.9910E-03    -786.660E-06     327.516E-03    -162.395E-03    -165.217E-03    -161.518E-03     326.640E-03    -165.217E-03     40.8626E-03     77.9621E+06     66.6173E+06    -27.8157E+06    -25.5507E+06     64.5566E+06     77.7578E+06     13.1808E+06         56.1855
            1291     12.7236E-03     84.9004E-03     20.9433E-03    -32.5184E-03    -54.3865E-03     4.77842E-03    -34.9498E-03    -35.7903E-03    -13.9222E-03     328.283E-03    -163.125E-03    -165.051E-03    -161.853E-03     327.011E-03    -165.051E-03     48.9392E-03     93.4049E+06     77.6558E+06    -18.7383E+06    -16.8340E+06     75.7515E+06     93.4049E+06     10.8232E+06         59.9071
            1292     13.5754E-03     84.9746E-03     52.0543E-03    -32.2684E-03    -67.7561E-03     35.2670E-03    -50.9689E-03    -32.2684E-03    -4.26946E-03     328.608E-03    -163.637E-03    -164.946E-03    -161.984E-03     326.816E-03    -164.808E-03     58.8141E-03     112.533E+06     88.7337E+06    -15.6173E+06    -14.6674E+06     87.7839E+06     112.533E+06     4.41548E+06         63.9512
            1293     14.4285E-03     85.0564E-03     53.9811E-03    -35.6121E-03    -80.3082E-03     25.1937E-03    -58.6531E-03    -28.4798E-03     25.6796E-03     329.011E-03    -164.256E-03    -164.909E-03    -162.810E-03     327.400E-03    -164.744E-03     55.6283E-03     137.078E+06     103.420E+06    -8.87821E+06    -8.72860E+06     103.270E+06     137.078E+06    -2.22694E+06         67.5235
            1294     846.191E-06     85.9494E-03     56.7165E-03    -23.4957E-03    -90.3174E-03    -56.4946E-03     22.0361E-03    -22.6381E-03    -64.4644E-03     332.015E-03    -165.699E-03    -166.324E-03    -165.984E-03     332.014E-03    -166.038E-03     1.05288E-03    -121.392E+06    -129.631E+06    -277.835E+06    -127.266E+06    -277.809E+06    -123.784E+06     837.572E+03         45.6800
            1295     1.69590E-03     85.9471E-03     47.1323E-03    -38.8687E-03    -68.3381E-03    -46.9129E-03     27.8289E-03    -40.9905E-03    -24.0029E-03     331.114E-03    -165.027E-03    -166.103E-03    -165.287E-03     331.114E-03    -165.843E-03     697.070E-06    -118.018E+06    -125.170E+06    -258.873E+06    -125.190E+06    -258.853E+06    -118.018E+06    -862.208E+03         45.7019
            1296     2.54085E-03     85.9474E-03     56.4371E-03    -43.6795E-03    -73.5331E-03    -65.7016E-03     50.7273E-03    -45.8013E-03    -25.1863E-03     330.309E-03    -164.434E-03    -165.860E-03    -164.693E-03     330.307E-03    -165.599E-03     1.49709E-03    -105.148E+06    -118.503E+06    -240.947E+06    -118.516E+06    -240.934E+06    -105.148E+06    -356.111E+03         45.7463
            1297     3.39310E-03     85.9571E-03     73.6460E-03    -52.2909E-03    -82.8809E-03    -77.3780E-03     68.1432E-03    -52.2909E-03    -15.2911E-03     330.085E-03    -164.437E-03    -165.589E-03    -164.542E-03     330.077E-03    -165.475E-03     2.83533E-03    -86.1567E+06    -110.823E+06    -218.400E+06    -111.119E+06    -218.104E+06    -86.1567E+06     3.84246E+06         45.8088
            1298     4.24111E-03     85.9642E-03     62.4832E-03    -50.7398E-03    -73.0476E-03    -63.6834E-03     58.5648E-03    -56.1856E-03    -16.7642E-03     330.998E-03    -165.112E-03    -165.912E-03    -165.467E-03     330.984E-03    -165.543E-03     4.44162E-03    -62.1435E+06    -106.509E+06    -190.950E+06    -107.516E+06    -189.942E+06    -62.1435E+06     6.26490E+06         45.8829
            1299     5.08353E-03     85.9732E-03     52.5741E-03    -49.8456E-03    -60.8423E-03    -50.1252E-03     48.3838E-03    -56.3724E-03     15.8225E-03     331.160E-03    -165.444E-03    -165.927E-03    -165.676E-03     331.136E-03    -165.670E-03     6.47216E-03    -43.1342E+06    -101.353E+06    -168.947E+06    -102.179E+06    -168.121E+06    -43.1342E+06     1.08527E+06         45.9618
            1300     5.93205E-03     85.9841E-03     52.4655E-03    -51.0597E-03    -58.3613E-03    -47.3009E-03     45.5389E-03    -55.1936E-03     22.7341E-03     330.336E-03    -164.960E-03    -165.630E-03    -164.901E-03     330.277E-03    -165.630E-03     10.0395E-03    -32.0332E+06    -93.8927E+06    -143.260E+06    -94.2384E+06    -142.914E+06    -32.0332E+06    -649.986E+03         46.0578
            1301     6.78197E-03     86.0043E-03     39.4067E-03    -41.7211E-03    -56.8582E-03    -40.9645E-03     35.4823E-03    -53.6905E-03     13.0133E-03     330.445E-03    -164.811E-03    -165.510E-03    -164.691E-03     330.325E-03    -165.510E-03     15.0561E-03    -10.3474E+06    -79.8205E+06    -106.304E+06    -82.6860E+06    -103.439E+06    -10.3474E+06     4.53605E+06         46.1757
            1302     7.63095E-03     86.0312E-03     25.0859E-03    -33.8718E-03    -51.5135E-03    -29.3435E-03     20.5576E-03    -51.5135E-03     9.70774E-03     330.488E-03    -164.663E-03    -165.464E-03    -164.495E-03     330.321E-03    -165.464E-03     18.1355E-03     7.54438E+06    -65.9993E+06    -80.2049E+06    -74.6543E+06    -71.5500E+06     7.54438E+06     3.11002E+06         46.4305
            1303     8.47877E-03     86.0568E-03     16.9253E-03    -27.6881E-03    -48.7735E-03    -21.0858E-03     10.3230E-03    -48.7735E-03     8.49644E-03     329.597E-03    -163.981E-03    -165.474E-03    -163.713E-03     329.328E-03    -165.474E-03     22.6646E-03     17.1011E+06    -34.0256E+06    -69.7778E+06    -69.0888E+06    -34.7146E+06     17.1011E+06     3.04787E+06         47.1195
            1304     9.32730E-03     86.0932E-03     8.75689E-03    -24.7824E-03    -45.7884E-03    -12.9154E-03    -3.11015E-03    -45.7884E-03    -8.59586E-03     328.394E-03    -163.076E-03    -165.426E-03    -162.680E-03     327.998E-03    -165.426E-03     27.8502E-03     35.2706E+06     16.9720E+06    -65.0534E+06    -63.6069E+06     18.3092E+06     32.4868E+06     10.3430E+06         48.4492
            1305     10.1796E-03     86.1428E-03     8.32993E-03    -21.4766E-03    -42.4084E-03     378.493E-06    -13.5252E-03    -42.4084E-03    -11.6733E-03     327.949E-03    -162.753E-03    -165.422E-03    -162.337E-03     327.392E-03    -165.281E-03     32.8472E-03     48.0697E+06     42.7462E+06    -59.1758E+06    -58.2690E+06     46.5251E+06     43.3839E+06     8.14552E+06         50.4291
            1306     11.0283E-03     86.1821E-03     15.2739E-03    -25.9271E-03    -42.4528E-03    -1.65359E-03    -12.3913E-03    -39.0610E-03     6.11392E-03     327.863E-03    -162.867E-03    -165.202E-03    -162.263E-03     327.119E-03    -165.061E-03     38.1486E-03     49.0661E+06     41.7393E+06    -52.8052E+06    -52.4961E+06     48.3596E+06     42.1367E+06     4.93619E+06         53.0183
            1307     11.8804E-03     86.2297E-03     19.5875E-03    -32.1842E-03    -50.3758E-03    -3.81628E-03    -22.8521E-03    -36.3041E-03     596.248E-06     327.844E-03    -163.146E-03    -164.937E-03    -162.152E-03     326.850E-03    -164.937E-03     43.8709E-03     68.6077E+06     58.9475E+06    -34.2608E+06    -33.3361E+06     63.0501E+06     63.5804E+06     7.42536E+06         56.1846
            1308     12.7332E-03     86.2918E-03     56.4374E-03    -29.4208E-03    -64.6825E-03     34.1245E-03    -39.0977E-03    -32.6926E-03     17.1123E-03     328.557E-03    -163.725E-03    -164.985E-03    -162.414E-03     327.246E-03    -164.985E-03     50.2748E-03     96.3559E+06      81.298E+06    -17.3700E+06    -15.2404E+06     79.1685E+06     96.3559E+06     4.94159E+06         59.9028
            1309     13.5837E-03     86.3579E-03     83.2403E-03    -29.3519E-03    -128.589E-03    -1.66016E-03    -43.6890E-03    -29.3519E-03     9.60948E-03     329.004E-03    -164.302E-03    -164.979E-03    -162.556E-03     327.118E-03    -164.840E-03     60.1221E-03     124.440E+06     96.6264E+06    -8.44559E+06    -6.58367E+06     94.7645E+06     124.440E+06     3.47547E+06         63.9449
            1310     14.4318E-03     86.4502E-03     151.366E-03    -33.0158E-03    -163.991E-03     56.2757E-03    -76.0329E-03    -25.8834E-03    -6.15225E-03     329.849E-03    -164.693E-03    -165.311E-03    -163.521E-03     328.059E-03    -164.693E-03     58.7056E-03     144.344E+06     109.393E+06    -5.52696E+06    -5.00820E+06     108.874E+06     144.344E+06     2.30051E+06         67.5147
            1311     847.775E-06     87.3371E-03     68.5442E-03    -24.6085E-03    -94.4212E-03    -75.8967E-03     49.1621E-03    -23.7509E-03    -65.2651E-03     330.935E-03    -165.130E-03    -165.809E-03    -165.495E-03     330.934E-03    -165.443E-03     644.250E-06    -123.187E+06    -126.789E+06    -279.607E+06    -124.292E+06    -279.588E+06    -125.703E+06     866.223E+03         45.7135
            1312     1.69442E-03     87.3401E-03     77.6333E-03    -54.2179E-03    -79.9498E-03    -71.7528E-03     69.4363E-03    -54.2179E-03    -26.7571E-03     331.732E-03    -165.347E-03    -166.388E-03    -166.154E-03     331.731E-03    -165.579E-03     1.25306E-03    -119.231E+06    -125.343E+06    -259.481E+06    -125.279E+06    -259.421E+06    -119.355E+06     1.37807E+06         45.7376
            1313     2.54241E-03     87.3417E-03     67.9120E-03    -52.8503E-03    -73.9396E-03    -61.2032E-03     61.3134E-03    -58.9882E-03    -9.91912E-03     332.175E-03    -165.571E-03    -166.572E-03    -166.266E-03     332.174E-03    -165.876E-03     1.29732E-03    -107.083E+06    -122.714E+06    -244.449E+06    -122.779E+06    -244.384E+06    -107.083E+06     540.158E+03         45.7842
            1314     3.38676E-03     87.3450E-03     41.4645E-03    -40.2142E-03    -62.0529E-03    -37.7564E-03     33.9383E-03    -56.9845E-03    -18.7508E-03     330.885E-03    -164.645E-03    -166.143E-03    -164.846E-03     330.879E-03    -165.936E-03     2.29695E-03    -88.6374E+06    -115.918E+06    -224.224E+06    -116.035E+06    -224.107E+06    -88.6374E+06     2.06094E+06         45.8399
            1315     4.23659E-03     87.3551E-03     24.3609E-03    -31.2917E-03    -53.6051E-03    -28.6520E-03     20.3269E-03    -52.2108E-03    -20.7002E-03     329.770E-03    -163.890E-03    -165.805E-03    -163.909E-03     329.753E-03    -165.769E-03     4.97892E-03    -66.0558E+06    -105.643E+06    -196.926E+06    -106.452E+06    -196.117E+06    -66.0558E+06     6.72339E+06         45.8982
            1316     5.08847E-03     87.3673E-03     26.3295E-03    -34.6165E-03    -48.1789E-03    -28.6658E-03     20.3788E-03    -48.1789E-03     8.80008E-03     330.283E-03    -164.693E-03    -165.707E-03    -164.721E-03     330.253E-03    -165.649E-03     7.45149E-03    -46.1385E+06    -99.3229E+06    -170.065E+06    -100.695E+06    -168.693E+06    -46.1385E+06     6.43553E+06         45.9682
            1317     5.93508E-03     87.3746E-03     35.4447E-03    -41.4911E-03    -48.4607E-03    -28.7194E-03     19.5052E-03    -45.2929E-03     9.18227E-03     331.105E-03    -165.439E-03    -165.895E-03    -165.622E-03     331.038E-03    -165.646E-03     10.9463E-03    -27.5409E+06    -92.7729E+06    -138.752E+06    -93.9072E+06    -137.618E+06    -27.5409E+06     3.17709E+06         46.0640
            1318     6.78114E-03     87.3966E-03     30.0156E-03    -40.0963E-03    -46.4274E-03    -31.9489E-03     18.7004E-03    -43.2596E-03     6.92461E-03     330.446E-03    -164.688E-03    -165.798E-03    -164.798E-03     330.329E-03    -165.570E-03     15.1649E-03    -12.2003E+06    -83.3873E+06    -109.606E+06    -86.1496E+06    -106.843E+06    -12.2003E+06     4.31918E+06         46.1775
            1319     7.62919E-03     87.4208E-03     26.5959E-03    -38.5173E-03    -48.2580E-03    -41.1675E-03     23.2808E-03    -42.2927E-03     25.7794E-03     329.970E-03    -164.259E-03    -165.397E-03    -164.090E-03     329.801E-03    -165.397E-03     18.1054E-03     -861.36E+03    -70.9664E+06    -89.3729E+06    -80.8755E+06    -79.4638E+06     -861.36E+03     4.76952E+06         46.4254
            1320     8.47924E-03     87.4475E-03     21.2803E-03    -32.9442E-03    -47.7062E-03    -36.1023E-03     18.4732E-03    -41.7410E-03     14.2894E-03     329.851E-03    -164.235E-03    -165.432E-03    -163.974E-03     329.591E-03    -165.432E-03     22.4424E-03     15.6501E+06    -35.3663E+06    -74.2342E+06    -72.0788E+06    -37.5218E+06     15.6501E+06     7.06976E+06         47.1137
            1321     9.32664E-03     87.4867E-03     4.18219E-03    -22.9422E-03    -40.1728E-03    -16.5210E-03    -2.23898E-03    -40.1728E-03    -12.2120E-03     327.677E-03    -162.402E-03    -165.400E-03    -162.010E-03     327.285E-03    -165.400E-03     27.5558E-03     36.5103E+06     15.7453E+06    -63.6322E+06    -61.1670E+06     16.0638E+06     33.7266E+06     13.8511E+06         48.4453
            1322     10.1783E-03     87.5207E-03    -6.71200E-03    -24.2087E-03    -42.1399E-03    -13.5455E-03    -21.6364E-03    -37.8788E-03    -3.44746E-03     326.111E-03    -161.136E-03    -165.152E-03    -160.602E-03     325.577E-03    -165.152E-03     32.1340E-03     50.1262E+06     43.9910E+06    -55.2178E+06    -53.5718E+06     47.2149E+06     45.2562E+06     11.3844E+06         50.4275
            1323     11.0349E-03     87.5726E-03     64.6501E-03    -28.2517E-03    -49.4033E-03     56.0878E-03    -35.8949E-03    -33.1978E-03     26.5575E-03     327.513E-03    -162.734E-03    -164.954E-03    -162.131E-03     326.910E-03    -164.954E-03     34.2185E-03     58.1664E+06     48.0360E+06    -46.0582E+06    -45.6923E+06     54.5795E+06     51.2571E+06     3.76094E+06         53.0188
            1324     11.8820E-03     87.6170E-03     56.3067E-03    -29.8669E-03    -163.639E-03    -64.5356E-03    -41.9489E-03    -30.7149E-03     2.21260E-03     328.736E-03    -164.029E-03    -164.838E-03    -163.274E-03     327.981E-03    -164.838E-03     38.1986E-03     79.8309E+06     66.7876E+06    -28.4737E+06    -28.1040E+06     71.2409E+06     75.0079E+06     3.12253E+06         56.1837
            1325     12.7296E-03     87.6808E-03     245.476E-03    -26.6310E-03    -165.333E-03     123.314E-03    -43.1713E-03    -26.6310E-03     14.6016E-03     328.190E-03    -163.605E-03    -164.779E-03    -162.574E-03     327.159E-03    -164.779E-03     44.8085E-03     92.7942E+06     80.2912E+06    -23.8978E+06    -23.0891E+06     79.4824E+06     92.7942E+06    -2.74801E+06         59.9006
            1326     13.5796E-03     87.7458E-03     247.674E-03    -37.7336E-03    -385.517E-03    -101.644E-03    -50.2050E-03    -23.7282E-03     21.9463E-03     328.276E-03    -163.828E-03    -164.628E-03    -162.187E-03     326.634E-03    -164.627E-03     56.0622E-03     106.212E+06     84.4804E+06    -24.2753E+06    -23.2489E+06     83.4540E+06     106.212E+06    -2.47654E+06         63.9436
            1327     14.4331E-03     87.8368E-03     458.336E-03    -35.9564E-03    -400.710E-03     112.183E-03    -68.5634E-03    -21.9509E-03    -67.2581E-03     329.686E-03    -164.606E-03    -165.223E-03    -163.462E-03     327.955E-03    -164.636E-03     58.0158E-03     141.187E+06     109.071E+06    -7.34784E+06    -6.89930E+06     108.622E+06     141.187E+06     4.11429E+06         67.5132
            1328     848.947E-06     88.7307E-03     66.9412E-03    -23.3173E-03    -92.3916E-03    -87.5641E-03     63.2651E-03    -24.4688E-03    -17.5596E-03     330.086E-03    -164.539E-03    -165.546E-03    -165.542E-03     330.083E-03    -164.539E-03     1.97065E-03    -128.067E+06    -131.541E+06    -283.134E+06    -131.446E+06    -283.104E+06    -128.192E+06     1.19240E+06         45.7224
            1329     1.69583E-03     88.7322E-03     51.5511E-03    -50.0149E-03    -57.5571E-03    -47.1427E-03     45.2878E-03    -54.1661E-03     30.1664E-03     331.786E-03    -165.298E-03    -166.483E-03    -166.479E-03     331.783E-03    -165.298E-03     2.43988E-03    -118.396E+06    -127.400E+06    -261.216E+06    -127.340E+06    -261.152E+06    -118.520E+06     2.03782E+06         45.7531
            1330     2.54084E-03     88.7370E-03     35.3428E-03    -40.6496E-03    -51.6949E-03    -34.4042E-03     27.1897E-03    -49.7873E-03     27.2525E-03     332.023E-03    -165.589E-03    -166.385E-03    -166.218E-03     332.019E-03    -165.752E-03     2.58569E-03    -104.645E+06    -124.258E+06    -244.736E+06    -124.531E+06    -244.463E+06    -104.645E+06     3.00645E+06         45.8042
            1331     3.38923E-03     88.7391E-03     17.3714E-03    -28.3506E-03    -48.5889E-03    -28.8077E-03     14.3605E-03    -45.1209E-03     10.2994E-03     331.440E-03    -165.162E-03    -166.143E-03    -165.413E-03     331.430E-03    -165.881E-03     4.26716E-03    -88.6871E+06    -119.549E+06    -226.146E+06    -119.851E+06    -225.844E+06    -88.6871E+06     1.79565E+06         45.8598
            1332     4.23720E-03     88.7430E-03     16.8177E-03    -26.5817E-03    -50.2427E-03    -32.5775E-03     14.6258E-03    -42.0550E-03     7.36799E-03     330.125E-03    -164.135E-03    -165.868E-03    -164.171E-03     330.106E-03    -165.812E-03     6.16511E-03    -73.2961E+06    -110.534E+06    -205.479E+06    -110.715E+06    -205.299E+06    -73.2961E+06     1.90416E+06         45.9085
            1333     5.08588E-03     88.7552E-03     20.5238E-03    -32.2975E-03    -45.2500E-03    -32.4736E-03     15.8162E-03    -40.3662E-03     7.23958E-03     329.631E-03    -164.013E-03    -165.686E-03    -164.004E-03     329.601E-03    -165.664E-03     7.45151E-03    -50.9632E+06    -96.8349E+06    -175.652E+06    -97.5305E+06    -174.956E+06    -50.9632E+06     5.79236E+06         45.9665
            1334     5.93424E-03     88.7714E-03     17.9211E-03    -34.5711E-03    -38.5171E-03    -22.8156E-03     6.16558E-03    -38.5171E-03    -22.2180E-03     330.435E-03    -164.725E-03    -165.832E-03    -164.910E-03     330.370E-03    -165.582E-03     10.8472E-03    -24.1694E+06    -83.7184E+06    -140.310E+06    -86.6502E+06    -137.379E+06    -24.1694E+06     10.3994E+06         46.0588
            1335     6.78118E-03     88.7878E-03     13.0632E-03    -31.9756E-03    -36.3143E-03    -19.7857E-03     873.242E-06    -36.3143E-03    -29.4144E-03     330.269E-03    -164.503E-03    -165.718E-03    -164.613E-03     330.151E-03    -165.490E-03     15.1467E-03    -6.71204E+06    -79.0500E+06    -110.994E+06    -83.0232E+06    -107.021E+06    -6.71204E+06     9.53450E+06         46.1744
            1336     7.63199E-03     88.8083E-03     14.4531E-03    -31.0374E-03    -43.8458E-03    -24.6061E-03    -1.16589E-03    -34.6580E-03    -9.13489E-03     329.923E-03    -164.271E-03    -165.363E-03    -164.049E-03     329.701E-03    -165.363E-03     20.5927E-03     6.93504E+06    -67.8430E+06    -85.4142E+06    -76.2543E+06    -77.0029E+06     6.93504E+06     5.80820E+06         46.4214
            1337     8.47785E-03     88.8424E-03     15.5915E-03    -30.4453E-03    -46.9475E-03    -19.3111E-03    -9.22139E-03    -33.2687E-03    -13.9239E-03     329.236E-03    -163.712E-03    -165.354E-03    -163.424E-03     328.948E-03    -165.354E-03     23.7335E-03     17.9279E+06    -41.6995E+06    -70.0965E+06    -68.2458E+06    -43.5503E+06     17.9279E+06     5.98899E+06         47.1069
            1338     9.33032E-03     88.8678E-03     18.8611E-03    -22.6466E-03    -35.2578E-03     6.83208E-03    -15.2446E-03    -30.6308E-03    -12.0105E-03     327.878E-03    -162.684E-03    -165.181E-03    -162.320E-03     327.515E-03    -165.181E-03     26.4573E-03     32.7516E+06     6.43322E+06    -59.2859E+06    -57.8721E+06     6.75886E+06     31.0122E+06     7.28324E+06         48.4392
            1339     10.1822E-03     88.9106E-03    -1.25765E-03    -25.7043E-03    -88.5602E-03    -60.8713E-03    -24.7338E-03    -29.9171E-03    -284.987E-06     327.873E-03    -162.861E-03    -165.055E-03    -162.357E-03     327.369E-03    -165.055E-03     31.3424E-03     56.6515E+06     51.0705E+06    -43.4039E+06    -42.1083E+06     53.6007E+06     52.8258E+06     8.49901E+06         50.4220
            1340     11.0273E-03     88.9558E-03     162.008E-03    -26.9195E-03    -104.118E-03     102.721E-03    -45.7787E-03    -25.9715E-03    -11.2816E-03     328.278E-03    -163.358E-03    -165.040E-03    -162.744E-03     327.664E-03    -165.040E-03     34.4618E-03     72.2043E+06     65.3336E+06    -34.5470E+06    -33.5663E+06     66.4391E+06     70.1180E+06     6.94923E+06         53.0123
            1341     11.8782E-03     89.0123E-03     171.639E-03    -22.7342E-03    -294.279E-03    -79.3953E-03    -43.2439E-03    -22.7342E-03     51.7267E-03     328.449E-03    -163.581E-03    -164.923E-03    -162.772E-03     327.640E-03    -164.923E-03     39.4467E-03      78.431E+06     70.6831E+06    -28.9407E+06    -27.7032E+06     69.5112E+06     78.3654E+06     1.42701E+06         56.1789
            1342     12.7293E-03     89.0655E-03     325.512E-03    -22.2284E-03    -330.128E-03     47.3382E-03    -51.9537E-03    -22.2284E-03    -68.8461E-03     328.355E-03    -163.667E-03    -164.848E-03    -162.540E-03     327.228E-03    -164.848E-03     46.8296E-03     90.9575E+06     77.9952E+06    -24.0796E+06    -22.1456E+06     76.1267E+06     90.8919E+06     2.72111E+06         59.8988
            1343     13.5814E-03     89.1346E-03     406.154E-03    -31.0290E-03    -412.077E-03     65.7065E-03    -85.6343E-03    -17.0235E-03     7.17836E-03     329.281E-03    -164.067E-03    -165.338E-03    -162.947E-03     327.533E-03    -164.710E-03     58.2014E-03     111.834E+06     89.4017E+06    -23.6037E+06    -22.2293E+06     88.0274E+06     111.834E+06     2.42281E+06         63.9419
            1344     14.4295E-03     89.2226E-03     475.378E-03    -29.3690E-03    -524.657E-03    -65.1672E-03     1.88240E-03    -15.3635E-03     101.578E-03     330.674E-03    -164.674E-03    -166.141E-03    -164.306E-03     328.868E-03    -164.704E-03     59.4513E-03     139.106E+06     110.108E+06    -12.3202E+06    -12.2632E+06     110.051E+06     139.106E+06    -1.83221E+06         67.5108
            1345     848.655E-06     90.1205E-03     49.5722E-03    -6.55402E-03    -93.7730E-03    -75.1896E-03     12.1994E-03     12.2354E-03    -26.4287E-03     330.274E-03    -164.654E-03    -165.631E-03    -165.478E-03     330.269E-03    -164.801E-03     3.22471E-03    -129.785E+06    -135.529E+06    -287.347E+06    -135.335E+06    -287.325E+06    -130.001E+06     857.135E+03         45.7047
            1346     1.69495E-03     90.1266E-03     15.5555E-03    -24.5980E-03    -47.6385E-03    -18.3205E-03    -9.61141E-03    -28.7491E-03    -11.9649E-03     330.679E-03    -164.852E-03    -165.819E-03    -165.485E-03     330.675E-03    -165.183E-03     2.47990E-03    -117.999E+06    -127.993E+06    -261.570E+06    -127.810E+06    -261.538E+06    -118.215E+06     1.12988E+06         45.7338
            1347     2.54380E-03     90.1292E-03    -1.87746E-03    -22.4074E-03    -34.0070E-03    -21.2888E-03    -11.5959E-03    -25.4072E-03     7.72452E-03     330.703E-03    -164.982E-03    -165.678E-03    -165.328E-03     330.700E-03    -165.328E-03     2.66812E-03    -104.116E+06    -121.470E+06    -246.909E+06    -121.771E+06    -246.608E+06    -104.116E+06     1.58390E+06         45.7866
            1348     3.39151E-03     90.1297E-03     9.19912E-03    -26.5017E-03    -41.5150E-03    -41.0027E-03     8.68679E-03    -26.5017E-03    -8.38652E-03     331.053E-03    -165.279E-03    -165.708E-03    -165.537E-03     331.045E-03    -165.443E-03     3.78146E-03    -87.9688E+06    -113.949E+06    -228.113E+06    -114.618E+06    -227.444E+06    -87.9688E+06     3.06220E+06         45.8507
            1349     4.23796E-03     90.1372E-03     18.1980E-03    -29.5054E-03    -47.7207E-03    -41.8884E-03     12.3657E-03    -29.5054E-03    -3.11672E-03     331.052E-03    -165.297E-03    -165.694E-03    -165.388E-03     331.031E-03    -165.582E-03     6.17860E-03    -68.3981E+06    -108.117E+06    -202.655E+06    -108.569E+06    -202.202E+06    -68.3981E+06     3.36774E+06         45.9110
            1350     5.08504E-03     90.1445E-03     11.2419E-03    -29.9602E-03    -38.8034E-03    -27.0459E-03    -97.9428E-06    -30.3779E-03     6.22764E-03     330.073E-03    -164.578E-03    -165.618E-03    -164.532E-03     330.027E-03    -165.618E-03     9.33623E-03    -49.6764E+06    -100.224E+06    -177.466E+06    -100.330E+06    -177.359E+06    -49.6764E+06     1.40383E+06         45.9702
            1351     5.93541E-03     90.1613E-03     7.38393E-03    -29.0706E-03    -36.3064E-03    -25.6977E-03    -2.61513E-03    -29.6803E-03     8.70214E-03     329.183E-03    -163.940E-03    -165.504E-03    -163.870E-03     329.113E-03    -165.504E-03     11.6336E-03    -34.6484E+06    -89.0255E+06    -155.626E+06    -91.0452E+06    -153.606E+06    -34.6484E+06     3.89879E+06         46.0509
            1352     6.78578E-03     90.1780E-03     7.97211E-03    -26.1790E-03    -37.0158E-03    -19.9860E-03    -6.55364E-03    -28.6831E-03     6.40760E-03     329.623E-03    -164.212E-03    -165.330E-03    -164.109E-03     329.520E-03    -165.330E-03     14.0705E-03    -8.54546E+06    -70.0270E+06    -121.182E+06    -77.7659E+06    -113.443E+06    -8.54546E+06     12.6875E+06         46.1540
            1353     7.63175E-03     90.2003E-03     7.93093E-03    -24.4182E-03    -42.4822E-03    -4.95877E-03    -27.2805E-03    -26.7302E-03     5.58950E-03     329.527E-03    -163.965E-03    -165.255E-03    -163.771E-03     329.333E-03    -165.255E-03     19.0553E-03     17.9080E+06    -54.8098E+06    -82.2719E+06    -67.0738E+06    -70.0079E+06     17.9080E+06     12.1478E+06         46.3973
            1354     8.48416E-03     90.2312E-03     2.50543E-03    -24.5540E-03    -51.6146E-03    -6.95791E-03    -42.2701E-03    -24.4352E-03    -12.8892E-03     328.838E-03    -163.506E-03    -165.211E-03    -163.254E-03     328.586E-03    -165.211E-03     22.0695E-03     28.1454E+06    -38.4646E+06    -62.0462E+06    -59.9766E+06    -40.5343E+06     28.1454E+06     2.05808E+06         47.0898
            1355     9.33092E-03     90.2583E-03     65.7370E-03    -19.7380E-03    -45.8502E-03     61.6544E-03    -41.8865E-03    -19.6192E-03    -9.78927E-03     329.260E-03    -164.047E-03    -165.166E-03    -163.829E-03     328.937E-03    -165.062E-03     25.0332E-03     37.7144E+06     4.66655E+06    -51.5149E+06    -50.9709E+06     5.86199E+06     35.9749E+06     546.665E+03         48.4298
            1356     10.1780E-03     90.2991E-03     60.9925E-03    -19.9931E-03    -189.649E-03    -101.265E-03    -28.3395E-03    -19.0452E-03     18.8991E-03     328.599E-03    -163.542E-03    -165.131E-03    -163.158E-03     328.110E-03    -165.027E-03     30.8824E-03     55.7631E+06     46.7003E+06    -44.4979E+06    -44.0038E+06     50.6137E+06     51.3557E+06     4.92906E+06         50.4155
            1357     11.0313E-03     90.3480E-03     206.705E-03    -21.0710E-03    -198.053E-03     34.8688E-03    -27.1646E-03    -20.1231E-03    -68.6253E-03     327.642E-03    -162.821E-03    -164.992E-03    -162.131E-03     326.952E-03    -164.992E-03     36.6088E-03     73.4371E+06     66.2198E+06    -33.0863E+06    -32.2459E+06     68.0473E+06     70.7692E+06     6.56721E+06         53.0092
            1358     11.8819E-03     90.3951E-03     292.543E-03    -12.4981E-03    -221.563E-03     132.881E-03    -61.9006E-03    -12.4981E-03     58.6407E-03     328.485E-03    -163.382E-03    -165.143E-03    -162.808E-03     327.642E-03    -164.873E-03     40.5342E-03     77.8681E+06      69.124E+06    -30.7793E+06    -28.4657E+06     66.8760E+06     77.8026E+06     5.67612E+06         56.1799
            1359     12.7332E-03     90.4550E-03     207.128E-03    -16.8385E-03    -583.698E-03    -314.088E-03    -62.4831E-03    -16.8385E-03    -15.4375E-03     329.647E-03    -164.311E-03    -165.327E-03    -163.703E-03     328.648E-03    -164.935E-03     44.1026E-03     95.3471E+06     78.4356E+06    -25.7719E+06    -22.4656E+06     75.1949E+06     95.2815E+06     4.57261E+06         59.9010
            1360     13.5806E-03     90.5219E-03     876.512E-03    -11.4680E-03    -465.825E-03     467.210E-03    -56.5228E-03    -11.4680E-03    -63.5271E-03     330.931E-03    -164.808E-03    -166.295E-03    -164.584E-03     329.329E-03    -164.917E-03     55.5890E-03     124.758E+06     98.1389E+06    -14.2074E+06    -12.2106E+06     96.1421E+06     124.758E+06     4.59059E+06         63.9428
            1361     14.4298E-03     90.6179E-03     798.584E-03    -117.338E-03        -1.06913    -273.266E-03    -110.719E-03    -3.89787E-03     276.217E-03     330.841E-03    -164.119E-03    -166.782E-03    -164.291E-03     329.081E-03    -164.851E-03     58.7586E-03     143.198E+06     113.652E+06    -9.53058E+06    -9.05114E+06     113.173E+06     143.198E+06     3.15030E+06         67.5124
            1362     846.060E-06     91.5112E-03     67.9898E-03    -16.8713E-03    -105.528E-03    -66.2851E-03    -32.2348E-03     44.1102E-03    -28.7253E-03     330.877E-03    -164.958E-03    -165.928E-03    -165.143E-03     330.874E-03    -165.740E-03     2.43958E-03    -123.693E+06    -127.545E+06    -287.841E+06    -126.506E+06    -287.837E+06    -124.737E+06    -563.822E+03         45.6660
            1363     1.69620E-03     91.5168E-03     14.3563E-03    -13.0863E-03    -58.0594E-03    -21.1201E-03    -22.5829E-03    -13.0863E-03    -56.0408E-03     329.311E-03    -164.189E-03    -165.133E-03    -164.186E-03     329.308E-03    -165.133E-03     2.30379E-03    -118.811E+06    -123.490E+06    -264.510E+06    -123.295E+06    -264.489E+06    -119.027E+06     702.720E+03         45.6954
            1364     2.54445E-03     91.5175E-03    -6.92621E-03    -16.7277E-03    -32.5283E-03    -26.5196E-03    -12.9349E-03    -16.7277E-03    -2.30087E-03     329.991E-03    -164.775E-03    -165.174E-03    -164.956E-03     329.988E-03    -164.990E-03     2.33963E-03    -104.562E+06    -119.281E+06    -247.847E+06    -119.417E+06    -247.710E+06    -104.562E+06     819.260E+03         45.7555
            1365     3.39153E-03     91.5236E-03     2.56464E-03    -19.4242E-03    -40.4832E-03    -27.9546E-03    -9.96393E-03    -19.4242E-03    -20.1665E-03     330.394E-03    -164.966E-03    -165.398E-03    -165.200E-03     330.387E-03    -165.158E-03     3.45340E-03    -86.1626E+06    -112.902E+06    -230.813E+06    -113.413E+06    -230.302E+06    -86.1626E+06     1.61327E+06         45.8315
            1366     4.24012E-03     91.5265E-03     7.64376E-03    -20.2711E-03    -44.4446E-03    -18.3830E-03    -18.4178E-03    -20.2711E-03    -31.5509E-03     330.319E-03    -164.975E-03    -165.351E-03    -165.007E-03     330.295E-03    -165.295E-03     6.53983E-03    -65.2564E+06    -103.177E+06    -204.603E+06    -103.740E+06    -204.040E+06    -65.2564E+06     4.05265E+06         45.9070
            1367     5.08829E-03     91.5376E-03    -629.750E-06    -19.1970E-03    -37.4822E-03    -9.40075E-03    -28.7112E-03    -19.1970E-03    -16.1894E-03     330.168E-03    -164.991E-03    -165.353E-03    -164.951E-03     330.120E-03    -165.345E-03     9.69936E-03    -47.0255E+06    -98.2541E+06    -175.278E+06    -98.7586E+06    -174.774E+06    -47.0255E+06     3.78057E+06         45.9764
            1368     5.93453E-03     91.5483E-03     3.11902E-03    -17.5547E-03    -44.2448E-03    -7.52230E-03    -33.6035E-03    -17.5547E-03     7.92635E-03     329.809E-03    -164.623E-03    -165.448E-03    -164.665E-03     329.733E-03    -165.330E-03     11.9738E-03    -30.7541E+06    -91.9840E+06    -152.685E+06    -92.4226E+06    -152.246E+06    -30.7541E+06    -160.774E+03         46.0540
            1369     6.78285E-03     91.5681E-03     17.5251E-03    -15.6055E-03    -55.5820E-03     1.38528E-03    -39.4421E-03    -15.6055E-03    -5.33039E-03     329.474E-03    -164.110E-03    -165.302E-03    -164.112E-03     329.367E-03    -165.193E-03     14.3501E-03    -11.6373E+06    -74.7626E+06    -126.340E+06    -79.0222E+06    -122.080E+06    -11.6373E+06     4.33183E+06         46.1404
            1370     7.63360E-03     91.5919E-03     12.4437E-03    -17.4568E-03    -52.6044E-03    -1.83123E-03    -42.1372E-03    -13.6491E-03     3.41642E-03     329.050E-03    -163.680E-03    -165.078E-03    -163.514E-03     328.884E-03    -165.078E-03     17.8651E-03     10.4166E+06    -53.5239E+06    -90.4767E+06    -66.4121E+06    -77.5885E+06     10.4166E+06     12.7919E+06         46.3723
            1371     8.48079E-03     91.6162E-03    -7.04958E-03    -18.5685E-03    -76.1124E-03    -44.8748E-03    -42.5729E-03    -14.2826E-03    -17.9696E-03     328.966E-03    -163.783E-03    -165.102E-03    -163.536E-03     328.720E-03    -165.102E-03     21.8659E-03     30.1250E+06    -24.0319E+06    -68.6599E+06    -61.1059E+06    -31.5859E+06     30.1250E+06     10.5497E+06         47.0724
            1372     9.33132E-03     91.6530E-03     131.845E-03    -11.0066E-03    -81.6715E-03     101.203E-03    -51.5082E-03    -10.5285E-03    -41.3527E-03     329.078E-03    -164.076E-03    -165.238E-03    -163.823E-03     328.721E-03    -165.134E-03     26.3274E-03     44.1423E+06     15.0355E+06    -59.3099E+06    -57.1602E+06     12.8858E+06     44.1423E+06     6.28322E+06         48.4227
            1373     10.1800E-03     91.6884E-03     139.747E-03    -20.0562E-03    -222.946E-03    -44.2219E-03    -52.3090E-03    -6.72435E-03     56.4600E-03     328.776E-03    -163.533E-03    -165.480E-03    -163.480E-03     328.289E-03    -165.047E-03     30.9042E-03     53.1786E+06     42.2343E+06    -49.0939E+06    -48.8011E+06     45.1490E+06     49.9711E+06     2.48216E+06         50.4124
            1374     11.0305E-03     91.7296E-03     96.0463E-03    -27.4394E-03    -303.693E-03    -172.832E-03    -48.1467E-03    -14.1076E-03    -66.4065E-03     328.796E-03    -163.571E-03    -165.324E-03    -163.308E-03     328.186E-03    -164.977E-03     34.5793E-03     63.6620E+06     55.9675E+06    -44.3049E+06    -43.3684E+06     58.2386E+06     60.4544E+06     4.66505E+06         53.0067
            1375     11.8803E-03     91.7893E-03     586.010E-03    -2.31739E-03    -167.236E-03     489.693E-03    -70.9190E-03    -2.31739E-03    -35.8399E-03     329.668E-03    -164.362E-03    -165.293E-03    -163.935E-03     328.953E-03    -165.005E-03     37.5221E-03     84.4237E+06     70.8572E+06    -33.5356E+06    -31.2414E+06     68.5631E+06     84.4237E+06     8.45264E+06         56.1760
            1376     12.7254E-03     91.8442E-03     491.584E-03    -33.4022E-03        -1.10281    -563.483E-03    -78.3940E-03    -2.75435E-03     157.652E-03     330.588E-03    -164.893E-03    -165.709E-03    -164.530E-03     329.627E-03    -165.109E-03     43.2249E-03     97.8286E+06     79.8227E+06    -25.6154E+06    -23.0295E+06     77.2369E+06     97.8286E+06     5.31173E+06         59.8972
            1377     13.5754E-03     91.9137E-03         1.52551    -36.3241E-03        -1.08252     478.059E-03    -65.7216E-03    -5.67624E-03    -75.4632E-03     331.050E-03    -165.052E-03    -166.171E-03    -164.442E-03     329.321E-03    -165.052E-03     57.5045E-03     116.639E+06     94.3389E+06    -18.8411E+06    -17.2488E+06     92.7465E+06     116.639E+06     5.73991E+06         63.9426
            1378     14.4226E-03     92.0089E-03         1.52547    -147.473E-03        -1.67371    -104.116E-03    -197.954E-03     6.35585E-03    -68.2489E-03     328.467E-03    -162.749E-03    -165.716E-03    -161.716E-03     326.644E-03    -164.927E-03     59.2200E-03     147.286E+06     119.053E+06    -4.92207E+06    -4.40880E+06     118.540E+06     147.286E+06     4.40412E+06         67.5191
            1379     847.091E-06     92.9047E-03     91.1196E-03    -19.5575E-03    -128.327E-03    -84.0107E-03    -48.3818E-03     75.6274E-03     2.23725E-03     329.814E-03    -163.940E-03    -165.871E-03    -164.252E-03     329.812E-03    -165.558E-03     1.59814E-03    -125.049E+06    -129.261E+06    -288.498E+06    -128.453E+06    -288.478E+06    -125.876E+06     842.446E+03         45.6179
            1380     1.69605E-03     92.9019E-03     16.6189E-03    -7.23380E-03    -65.6947E-03    -18.9337E-03    -30.1421E-03    -7.23380E-03    -30.7312E-03     329.073E-03    -164.017E-03    -165.065E-03    -164.325E-03     329.068E-03    -164.752E-03     3.12386E-03    -119.603E+06    -125.745E+06    -268.672E+06    -125.776E+06    -268.641E+06    -119.603E+06     1.37868E+06         45.6567
            1381     2.54439E-03     92.9113E-03     6.84244E-03    -10.6852E-03    -50.1962E-03    -14.0197E-03    -29.3340E-03    -10.6852E-03     25.9359E-03     329.244E-03    -164.418E-03    -164.763E-03    -164.442E-03     329.238E-03    -164.731E-03     3.55884E-03    -103.124E+06    -120.287E+06    -248.518E+06    -120.392E+06    -248.413E+06    -103.124E+06     3.21147E+06         45.7258
            1382     3.39313E-03     92.9112E-03     12.3401E-03    -9.59186E-03    -57.0199E-03     3.14825E-03    -47.8280E-03    -9.59186E-03    -3.41356E-03     329.839E-03    -164.516E-03    -165.252E-03    -164.891E-03     329.829E-03    -164.868E-03     4.28456E-03    -84.2680E+06    -115.330E+06    -228.784E+06    -115.491E+06    -228.623E+06    -84.2680E+06     1.66668E+06         45.8096
            1383     4.24143E-03     92.9181E-03     15.8709E-03    -6.18951E-03    -65.2883E-03     10.9810E-03    -60.3983E-03    -6.18951E-03    -3.85468E-03     330.003E-03    -164.607E-03    -165.366E-03    -164.942E-03     329.985E-03    -165.013E-03     5.80486E-03    -69.8157E+06    -107.968E+06    -213.137E+06    -108.319E+06    -212.786E+06    -69.8157E+06    -210.163E+03         45.8926
            1384     5.08930E-03     92.9278E-03     8.49590E-03    -3.81785E-03    -61.1201E-03     2.34537E-03    -54.9696E-03    -3.81785E-03     22.4665E-03     329.502E-03    -164.547E-03    -165.095E-03    -164.516E-03     329.463E-03    -165.086E-03     8.45028E-03    -48.4133E+06    -93.9508E+06    -180.262E+06    -94.8733E+06    -179.340E+06    -48.4133E+06     5.12080E+06         45.9683
            1385     5.93870E-03     92.9414E-03     7.32349E-03    -4.32314E-03    -60.7327E-03     516.191E-06    -55.3706E-03    -2.87795E-03     24.3500E-03     329.693E-03    -164.676E-03    -165.188E-03    -164.712E-03     329.611E-03    -165.071E-03     12.5421E-03    -22.0119E+06    -84.2486E+06    -146.385E+06    -86.1643E+06    -144.469E+06    -22.0119E+06     8.23485E+06         46.0538
            1386     6.78547E-03     92.9588E-03     17.7131E-03    -3.17729E-03    -65.9004E-03     9.64077E-03    -59.2732E-03    -1.73210E-03    -10.5013E-03     329.683E-03    -164.423E-03    -165.107E-03    -164.450E-03     329.561E-03    -164.958E-03     15.4869E-03    -7.93406E+06    -80.5725E+06    -126.734E+06    -82.2185E+06    -125.088E+06    -7.93406E+06     1.31763E+06         46.1478
            1387     7.63415E-03     92.9774E-03     14.7783E-03    -4.30849E-03    -61.6985E-03     5.29173E-03    -56.0196E-03    -500.831E-06    -5.10532E-03     329.250E-03    -163.942E-03    -164.883E-03    -163.796E-03     329.065E-03    -164.843E-03     18.9116E-03     468.975E+03    -68.7120E+06    -99.8351E+06    -75.4726E+06    -93.0745E+06     468.975E+03     3.59357E+06         46.3800
            1388     8.48482E-03     93.0098E-03    -829.981E-06    -24.8764E-03    -114.098E-03    -81.6507E-03    -54.3064E-03    -3.84715E-03    -19.9065E-03     329.247E-03    -164.185E-03    -164.941E-03    -163.919E-03     328.981E-03    -164.941E-03     22.8485E-03      25.498E+06    -27.2955E+06    -70.4844E+06    -61.6518E+06    -36.1282E+06      25.498E+06     15.4939E+06         47.0751
            1389     9.33229E-03     93.0390E-03     185.253E-03    -19.6712E-03    -125.029E-03     108.752E-03    -65.7503E-03    -2.44957E-03    -59.3386E-03     329.027E-03    -164.184E-03    -165.097E-03    -163.860E-03     328.703E-03    -165.097E-03     25.1198E-03     50.1496E+06     25.8368E+06    -51.9005E+06    -48.3392E+06     22.2755E+06     50.1496E+06     11.4582E+06         48.4224
            1390     10.1837E-03     93.0789E-03     222.676E-03    -5.04028E-03    -168.051E-03     134.977E-03    -93.6838E-03     8.29155E-03     74.8436E-03     329.801E-03    -164.483E-03    -165.424E-03    -164.396E-03     329.364E-03    -165.074E-03     29.1252E-03     56.3643E+06     49.3555E+06    -48.0203E+06    -46.8115E+06     48.6864E+06     55.8247E+06     6.57307E+06         50.4109
            1391     11.0280E-03     93.1240E-03     27.5942E-03    -26.5885E-03    -513.344E-03    -422.169E-03    -88.1516E-03    -2.01817E-03     46.6740E-03     330.600E-03    -165.055E-03    -165.528E-03    -164.904E-03     329.976E-03    -165.055E-03     34.9981E-03     65.1154E+06     58.1813E+06    -44.4780E+06    -42.4539E+06     56.6967E+06     64.5758E+06     10.6158E+06         53.0023
            1392     11.8746E-03     93.1767E-03         1.04675    -4.74871E-03    -411.963E-03     682.887E-03    -59.3349E-03     6.48980E-03    -69.1483E-03     329.730E-03    -164.532E-03    -165.202E-03    -163.837E-03     328.911E-03    -165.078E-03     40.0681E-03     76.1720E+06     67.1824E+06    -40.9863E+06    -38.7970E+06     65.7435E+06     75.4216E+06     9.92564E+06         56.1697
            1393     12.7289E-03     93.2358E-03         1.04969    -95.8719E-03        -1.63640    -549.652E-03    -145.291E-03     12.3541E-03    -48.4745E-03     329.480E-03    -164.155E-03    -165.409E-03    -163.230E-03     328.348E-03    -165.201E-03     46.9737E-03     87.5240E+06     75.7406E+06    -36.9881E+06    -34.6023E+06     74.1052E+06     86.7736E+06     5.93545E+06         59.8932
            1394     13.5766E-03     93.3056E-03         2.02353    -101.212E-03        -1.69347     407.866E-03    -186.029E-03     7.01381E-03     128.406E-03     329.743E-03    -164.475E-03    -165.449E-03    -162.913E-03     327.813E-03    -165.081E-03     60.9423E-03     116.611E+06     97.4386E+06    -19.7309E+06    -18.5472E+06     96.2548E+06     116.611E+06     3.92632E+06         63.9444
            1395     14.4304E-03     93.3952E-03         2.20214    -27.7786E-03        -2.34856    -251.428E-03     64.6221E-03     12.6098E-03     10.2011E-03     327.952E-03    -162.967E-03    -165.031E-03    -161.302E-03     326.126E-03    -164.870E-03     58.6379E-03     150.892E+06     124.028E+06    -2.19773E+06    -2.08204E+06     123.912E+06     150.892E+06     787.569E+03         67.5266
            1396     851.021E-06     94.2901E-03     114.431E-03    -11.6527E-03    -152.401E-03    -90.4609E-03    -55.6538E-03     96.4919E-03    -6.57518E-03     327.802E-03    -162.958E-03    -164.841E-03    -163.854E-03     327.798E-03    -163.942E-03     2.34102E-03    -122.195E+06    -133.489E+06    -290.002E+06    -127.277E+06    -289.981E+06    -128.429E+06     1.58421E+06         45.5780
            1397     1.69705E-03     94.2954E-03     35.6734E-03     5.57804E-03    -95.3016E-03     15.8727E-03    -75.5009E-03     5.57804E-03    -12.5993E-03     328.643E-03    -163.903E-03    -164.744E-03    -164.617E-03     328.637E-03    -164.024E-03     3.21409E-03    -116.312E+06    -126.771E+06    -270.372E+06    -126.811E+06    -270.333E+06    -116.312E+06     2.30377E+06         45.6229
            1398     2.54615E-03     94.2954E-03     30.2116E-03     9.91081E-03    -96.1269E-03     20.0705E-03    -85.9857E-03     9.91081E-03     36.1822E-03     328.707E-03    -164.000E-03    -164.625E-03    -164.336E-03     328.698E-03    -164.282E-03     4.03221E-03    -101.817E+06    -120.517E+06    -252.272E+06    -120.599E+06    -252.190E+06    -101.817E+06     3.12372E+06         45.6961
            1399     3.39537E-03     94.3029E-03     27.1821E-03     8.27703E-03    -93.0955E-03     20.2404E-03    -90.5274E-03     12.6506E-03    -6.64195E-03     329.658E-03    -164.349E-03    -165.211E-03    -165.036E-03     329.644E-03    -164.509E-03     5.20455E-03    -83.6266E+06    -112.909E+06    -229.896E+06    -113.054E+06    -229.750E+06    -83.6266E+06     3.96964E+06         45.7839
            1400     4.24103E-03     94.3095E-03     24.4651E-03     4.50365E-03    -86.2336E-03     12.8809E-03    -83.7736E-03     13.6278E-03     677.211E-06     330.083E-03    -164.625E-03    -165.371E-03    -165.213E-03     330.065E-03    -164.766E-03     5.82480E-03    -63.8323E+06    -107.855E+06    -207.458E+06    -108.136E+06    -207.177E+06    -63.8323E+06     1.67196E+06         45.8689
            1401     5.08970E-03     94.3156E-03     23.7791E-03     8.82039E-03    -89.2487E-03     12.4810E-03    -82.7012E-03     13.5710E-03     2.21608E-03     329.251E-03    -164.304E-03    -165.055E-03    -164.418E-03     329.217E-03    -164.908E-03     7.82989E-03    -49.7724E+06    -101.443E+06    -188.353E+06    -102.158E+06    -187.638E+06    -49.7724E+06      261.27E+03         45.9463
            1402     5.93844E-03     94.3318E-03     21.0344E-03     12.1416E-03    -92.8609E-03     13.0041E-03    -86.2757E-03     13.5868E-03     6.62634E-03     328.545E-03    -163.865E-03    -164.866E-03    -163.797E-03     328.476E-03    -164.866E-03     11.5083E-03    -32.3570E+06    -87.4970E+06    -158.160E+06    -89.2829E+06    -156.374E+06    -32.3570E+06     5.19666E+06         46.0393
            1403     6.78850E-03     94.3488E-03     17.6257E-03     12.3141E-03    -81.4651E-03     13.8454E-03    -79.1300E-03     13.7593E-03     17.5831E-03     329.278E-03    -164.203E-03    -164.929E-03    -164.283E-03     329.170E-03    -164.740E-03     14.5577E-03    -7.57106E+06    -74.9068E+06    -128.309E+06    -79.7278E+06    -123.488E+06    -7.57106E+06     8.43146E+06         46.1519
            1404     7.63588E-03     94.3689E-03     19.8388E-03     14.2175E-03    -78.4307E-03     17.3912E-03    -75.9830E-03     14.2175E-03     26.8663E-03     330.030E-03    -164.498E-03    -165.185E-03    -164.797E-03     329.866E-03    -164.722E-03     17.9271E-03     10.6006E+06    -67.5945E+06    -96.1812E+06    -73.6111E+06    -90.1646E+06     10.6006E+06     5.93751E+06         46.3968
            1405     8.48345E-03     94.3966E-03     13.0536E-03    -36.4623E-03    -143.592E-03    -92.8392E-03    -83.7703E-03     9.60887E-03     8.68917E-03     329.672E-03    -164.366E-03    -165.093E-03    -164.398E-03     329.430E-03    -164.818E-03     21.7458E-03     21.1970E+06    -45.0654E+06    -65.7908E+06    -61.3886E+06    -49.4676E+06     21.1970E+06     4.77226E+06         47.0853
            1406     9.33268E-03     94.4341E-03     191.361E-03    -37.7683E-03    -153.744E-03     84.9078E-03    -93.3618E-03     8.30278E-03    -59.4193E-03     329.679E-03    -164.643E-03    -165.033E-03    -164.432E-03     329.363E-03    -164.929E-03     24.8155E-03     39.3894E+06     9.74100E+06    -57.5302E+06    -53.7232E+06     9.40279E+06     35.9206E+06     10.4219E+06         48.4235
            1407     10.1776E-03     94.4663E-03     338.091E-03     24.6712E-03    -125.362E-03     324.131E-03    -111.403E-03     24.6712E-03     11.7472E-03     329.827E-03    -164.772E-03    -165.158E-03    -164.420E-03     329.350E-03    -165.033E-03     30.2398E-03     60.7794E+06     54.6589E+06    -51.3550E+06    -48.6107E+06     55.3833E+06     57.3106E+06     16.0494E+06         50.4095
            1408     11.0299E-03     94.5187E-03     147.319E-03    -33.7789E-03    -737.710E-03    -523.324E-03    -117.803E-03     16.9576E-03     132.900E-03     329.311E-03    -164.208E-03    -165.167E-03    -163.653E-03     328.629E-03    -165.040E-03     36.5584E-03     69.3068E+06     64.6520E+06    -37.9034E+06    -36.4600E+06     63.2158E+06     69.2996E+06     9.97067E+06         53.0022
            1409     11.8802E-03     94.5650E-03         1.23531    -34.0351E-03    -697.970E-03     574.913E-03    -88.3112E-03     16.7014E-03     2.90563E-03     328.775E-03    -163.735E-03    -165.067E-03    -162.906E-03     327.840E-03    -164.961E-03     42.6352E-03      74.431E+06     62.1889E+06    -32.5645E+06    -31.2772E+06     61.6592E+06     73.6734E+06     8.65610E+06         56.1728
            1410     12.7259E-03     94.6255E-03         1.22688    -84.2161E-03        -2.65582        -1.27463    -231.889E-03    -6.63795E-03        -1.02094     329.307E-03    -163.934E-03    -165.473E-03    -163.092E-03     328.025E-03    -165.033E-03     50.0888E-03     94.9736E+06     81.8796E+06     -29.001E+06    -24.6488E+06     79.1963E+06     93.3048E+06     13.6306E+06         59.8968
            1411     13.5800E-03     94.6914E-03         6.15847    -19.4585E-03        -2.74803         3.41208    -79.2127E-03     58.1196E-03         1.43018     329.536E-03    -164.231E-03    -165.359E-03    -162.836E-03     327.702E-03    -164.919E-03     59.7045E-03     124.968E+06     111.865E+06    -18.7271E+06    -15.4249E+06     109.481E+06     124.049E+06     5.50237E+06         63.9469
            1412     14.4290E-03     94.7840E-03         7.03785     43.2948E-03        -10.2500        -4.19632     984.171E-03     43.2948E-03         1.92158     328.616E-03    -163.728E-03    -164.792E-03    -162.007E-03     326.895E-03    -164.792E-03     57.3476E-03     148.629E+06     124.745E+06    -8.72926E+06    -8.52580E+06     124.542E+06     148.629E+06    -2.16345E+06         67.5293
            1413     848.662E-06     95.6812E-03     149.894E-03    -21.5151E-03    -174.851E-03    -61.7262E-03    -121.128E-03     136.382E-03    -7.68295E-03     327.328E-03    -162.936E-03    -164.395E-03    -164.050E-03     327.325E-03    -163.279E-03     1.82925E-03    -121.873E+06    -137.162E+06    -291.927E+06    -128.934E+06    -291.905E+06    -130.122E+06    -559.470E+03         45.5570
            1414     1.69913E-03     95.6808E-03     56.8861E-03     21.3749E-03    -133.046E-03     32.3251E-03    -123.581E-03     36.4707E-03     1.23641E-03     327.529E-03    -163.298E-03    -164.253E-03    -163.908E-03     327.526E-03    -163.641E-03     1.68586E-03    -120.177E+06    -130.423E+06    -273.312E+06    -128.451E+06    -273.268E+06    -122.192E+06     1.60904E+06         45.5945
            1415     2.54739E-03     95.6849E-03     44.4842E-03     24.0063E-03    -125.587E-03     29.0774E-03    -120.761E-03     34.5868E-03     15.6910E-03     328.587E-03    -163.900E-03    -164.630E-03    -164.623E-03     328.580E-03    -163.900E-03     3.52556E-03    -105.632E+06    -123.635E+06    -254.580E+06    -123.700E+06    -254.515E+06    -105.632E+06     2.73064E+06         45.6645
            1416     3.39413E-03     95.6916E-03     34.9608E-03     16.4218E-03    -110.472E-03     17.7706E-03    -108.827E-03     31.9668E-03    -23.7678E-03     329.013E-03    -164.100E-03    -164.766E-03    -164.614E-03     328.998E-03    -164.236E-03     5.30714E-03    -86.2096E+06    -115.357E+06    -233.053E+06    -115.469E+06    -232.941E+06    -86.2096E+06     3.23053E+06         45.7534
            1417     4.24459E-03     95.7012E-03     28.5065E-03     11.9284E-03    -100.800E-03     10.9813E-03    -99.8525E-03     28.5065E-03    -13.7418E-03     329.250E-03    -164.330E-03    -164.773E-03    -164.615E-03     329.228E-03    -164.467E-03     6.56424E-03    -64.0941E+06    -107.185E+06    -206.754E+06    -107.783E+06    -206.156E+06    -64.0941E+06     6.45843E+06         45.8418
            1418     5.09081E-03     95.7079E-03     31.3559E-03     20.2792E-03    -110.052E-03     22.5255E-03    -107.439E-03     26.4965E-03    -27.9103E-03     329.574E-03    -164.537E-03    -165.181E-03    -165.007E-03     329.537E-03    -164.674E-03     8.34696E-03    -43.5063E+06    -101.385E+06    -183.536E+06    -102.146E+06    -182.775E+06    -43.5063E+06     3.45211E+06         45.9275
            1419     5.93924E-03     95.7178E-03     34.3488E-03     26.4971E-03    -119.313E-03     31.8442E-03    -116.947E-03     26.6351E-03    -12.7400E-03     329.158E-03    -164.154E-03    -165.248E-03    -164.580E-03     329.097E-03    -164.760E-03     10.9561E-03    -34.0124E+06    -94.9543E+06     -162.71E+06    -95.2618E+06    -162.402E+06    -34.0124E+06    -1.27346E+06         46.0302
            1420     6.78854E-03     95.7367E-03     41.2914E-03     27.9475E-03    -120.587E-03     40.6504E-03    -119.946E-03     27.9475E-03     250.036E-06     328.952E-03    -163.989E-03    -165.009E-03    -164.223E-03     328.853E-03    -164.676E-03     13.8708E-03    -15.4540E+06    -80.3524E+06    -129.814E+06    -83.6677E+06    -126.499E+06    -15.4540E+06     6.12345E+06         46.1443
            1421     7.63671E-03     95.7634E-03     47.7650E-03     29.8736E-03    -120.076E-03     46.4114E-03    -118.723E-03     29.8736E-03     4.88169E-03     329.544E-03    -164.368E-03    -165.126E-03    -164.634E-03     329.386E-03    -164.702E-03     17.5604E-03     11.0480E+06    -66.1299E+06    -94.2120E+06    -70.3083E+06    -90.0337E+06     11.0480E+06     8.87179E+06         46.3884
            1422     8.48354E-03     95.7872E-03     33.7156E-03    -44.4603E-03    -151.337E-03    -69.4411E-03    -118.954E-03     26.3137E-03     3.31444E-03     329.534E-03    -164.344E-03    -165.051E-03    -164.353E-03     329.268E-03    -164.776E-03     22.6589E-03     22.8572E+06    -42.8005E+06    -72.0262E+06    -63.6311E+06    -51.1955E+06     22.8572E+06     4.00868E+06         47.0812
            1423     9.33253E-03     95.8215E-03     144.218E-03    -48.1185E-03    -143.389E-03     38.9189E-03    -108.864E-03     22.6555E-03    -24.0846E-03     329.189E-03    -164.164E-03    -164.852E-03    -163.873E-03     328.794E-03    -164.748E-03     27.8303E-03     34.6054E+06    -3.38807E+06    -64.4395E+06    -61.7991E+06    -2.55970E+06     31.1367E+06     9.10901E+06         48.4236
            1424     10.1835E-03     95.8624E-03     376.808E-03     37.6255E-03    -105.930E-03     370.415E-03    -99.5366E-03     37.6255E-03    -55.6721E-03     329.320E-03    -164.357E-03    -165.022E-03    -164.006E-03     328.777E-03    -164.829E-03     32.5944E-03     60.0413E+06     36.8380E+06    -50.6358E+06    -48.4128E+06     47.5330E+06     47.1233E+06     14.2859E+06         50.4115
            1425     11.0300E-03     95.9035E-03     252.989E-03    -46.6950E-03    -693.052E-03    -393.845E-03    -128.281E-03     35.3685E-03     62.5168E-03     328.583E-03    -163.794E-03    -165.002E-03    -163.211E-03     327.913E-03    -164.914E-03     36.2917E-03     75.6831E+06     62.2586E+06    -36.0077E+06    -35.0733E+06     70.7807E+06     66.2267E+06     9.15137E+06         53.0062
            1426     11.8814E-03     95.9547E-03     995.738E-03    -51.1877E-03    -727.578E-03     351.793E-03    -165.696E-03     30.8758E-03     67.4454E-03     327.601E-03    -163.070E-03    -164.782E-03    -162.202E-03     326.733E-03    -164.782E-03     40.9569E-03     77.1272E+06     63.3667E+06    -35.1495E+06    -34.8414E+06     63.0657E+06       77.12E+06     1.72250E+06         56.1793
            1427     12.7366E-03     96.0122E-03         1.26038    -43.7757E-03        -3.79887        -2.61456     76.0715E-03    -43.7757E-03    -696.038E-03     328.676E-03    -163.732E-03    -165.219E-03    -162.865E-03     327.369E-03    -164.779E-03     50.3152E-03     93.9871E+06     73.9926E+06    -25.6300E+06    -21.0146E+06     70.2957E+06     93.0687E+06     3.42853E+06         59.9055
            1428     13.5794E-03     96.0873E-03         28.0516     603.502E-03        -5.10480         23.0623    -115.470E-03     603.502E-03         10.5127     329.915E-03    -164.400E-03    -165.479E-03    -163.250E-03     328.018E-03    -164.733E-03     60.9438E-03     136.033E+06     119.178E+06    -4.78712E+06     3.13568E+06     115.659E+06     131.629E+06     12.6913E+06         63.9556
            1429     14.4316E-03     96.1642E-03         28.0057        -1.01368        -68.5462        -40.1667        -1.54835     160.824E-03         2.29886     329.940E-03    -164.058E-03    -165.828E-03    -163.373E-03     328.090E-03    -164.663E-03     60.1137E-03     158.252E+06     139.884E+06    -2.55871E+06     1.45580E+06     139.355E+06     154.766E+06     11.8447E+06         67.5353
            1430     847.974E-06     97.0647E-03     146.364E-03    -5.08054E-03    -192.661E-03    -13.1450E-03    -184.596E-03     146.364E-03    -37.9214E-03     327.719E-03    -163.085E-03    -164.641E-03    -163.987E-03     327.715E-03    -163.735E-03     2.36053E-03    -129.861E+06    -142.672E+06    -292.588E+06    -137.926E+06    -292.554E+06    -134.639E+06    -790.378E+03         45.5517
            1431     1.69792E-03     97.0668E-03     59.9251E-03     38.5026E-03    -155.822E-03     33.2289E-03    -150.548E-03     59.9251E-03    -14.5307E-03     327.917E-03    -163.499E-03    -164.433E-03    -164.078E-03     327.914E-03    -163.851E-03     1.85621E-03    -125.906E+06    -135.972E+06    -274.993E+06    -134.008E+06    -274.942E+06    -127.921E+06    -410.014E+03         45.5803
            1432     2.54645E-03     97.0742E-03     49.3029E-03     27.9689E-03    -134.422E-03     25.5502E-03    -132.004E-03     49.3029E-03     5.54595E-03     328.164E-03    -163.730E-03    -164.394E-03    -164.112E-03     328.159E-03    -164.007E-03     2.81605E-03    -111.228E+06    -128.001E+06    -256.394E+06    -128.048E+06    -256.347E+06    -111.228E+06     715.399E+03         45.6410
            1433     3.39606E-03     97.0802E-03     45.7068E-03     27.9218E-03    -133.837E-03     29.1224E-03    -132.917E-03     43.5858E-03    -18.9295E-03     328.129E-03    -163.708E-03    -164.342E-03    -163.878E-03     328.118E-03    -164.161E-03     4.42087E-03    -89.9164E+06    -120.565E+06    -235.130E+06    -120.583E+06    -235.113E+06    -89.9164E+06     1.11784E+06         45.7248
            1434     4.24393E-03     97.0875E-03     48.9119E-03     34.3295E-03    -146.478E-03     40.9770E-03    -145.997E-03     41.7834E-03    -8.43332E-03     328.422E-03    -164.021E-03    -164.291E-03    -164.056E-03     328.402E-03    -164.236E-03     6.18503E-03    -71.3218E+06    -111.840E+06    -214.573E+06    -112.289E+06    -214.124E+06    -71.3218E+06     3.52200E+06         45.8161
            1435     5.09406E-03     97.0993E-03     46.7220E-03     35.7148E-03    -142.804E-03     40.2738E-03    -142.356E-03     41.7145E-03     6.24344E-03     329.174E-03    -164.387E-03    -164.925E-03    -164.863E-03     329.142E-03    -164.418E-03     7.84601E-03    -46.9331E+06    -98.9994E+06    -182.247E+06    -100.312E+06    -180.935E+06    -46.9331E+06     7.49949E+06         45.9113
            1436     5.94025E-03     97.1095E-03     42.2572E-03     31.1821E-03    -130.809E-03     31.7175E-03    -130.180E-03     41.0927E-03     14.7349E-03     330.092E-03    -164.637E-03    -165.618E-03    -165.556E-03     330.030E-03    -164.637E-03     10.8383E-03    -26.4829E+06    -93.7785E+06    -157.403E+06    -95.1765E+06    -156.005E+06    -26.4829E+06     6.39855E+06         46.0254
            1437     6.78598E-03     97.1274E-03     52.8716E-03     35.7568E-03    -140.233E-03     47.0038E-03    -139.605E-03     40.9964E-03    -2.78048E-03     329.610E-03    -164.386E-03    -165.169E-03    -164.803E-03     329.498E-03    -164.641E-03     14.6727E-03    -16.4193E+06    -88.0595E+06    -135.269E+06    -88.9732E+06    -134.355E+06    -16.4193E+06     368.110E+03         46.1397
            1438     7.63625E-03     97.1505E-03     65.7030E-03     42.8374E-03    -156.880E-03     65.3204E-03    -156.498E-03     42.8374E-03    -9.19089E-03     328.548E-03    -163.826E-03    -164.682E-03    -163.657E-03     328.379E-03    -164.682E-03     18.1420E-03     1.62250E+06    -71.0298E+06    -100.599E+06    -74.8368E+06    -96.7922E+06     1.62250E+06     2.34129E+06         46.3775
            1439     8.48709E-03     97.1794E-03     54.3664E-03    -8.72001E-03    -162.227E-03    -790.937E-06    -158.001E-03     42.2114E-03    -4.08415E-03     328.488E-03    -163.801E-03    -164.672E-03    -163.550E-03     328.237E-03    -164.672E-03     22.0490E-03     18.3714E+06    -42.2056E+06    -77.4505E+06    -66.9741E+06    -52.6819E+06     18.3714E+06     10.4240E+06         47.0742
            1440     9.33542E-03     97.2091E-03     95.8708E-03    -10.7244E-03    -145.802E-03     34.2419E-03    -135.104E-03     40.2070E-03     47.9908E-03     328.552E-03    -163.904E-03    -164.590E-03    -163.523E-03     328.171E-03    -164.590E-03     27.1664E-03     35.6998E+06    -3.01426E+06    -56.7383E+06    -53.4953E+06    -6.25726E+06     35.6998E+06     9.15496E+06         48.4233
            1441     10.1839E-03     97.2501E-03     252.461E-03     47.8292E-03    -139.979E-03     227.867E-03    -115.386E-03     47.8292E-03    -61.3698E-03     328.522E-03    -163.864E-03    -164.745E-03    -163.426E-03     327.997E-03    -164.657E-03     32.1062E-03     61.4366E+06     32.0413E+06    -47.1923E+06    -45.7651E+06     43.8383E+06     48.2124E+06     11.0312E+06         50.4150
            1442     11.0343E-03     97.2957E-03     197.087E-03    -41.7865E-03    -388.929E-03    -147.337E-03    -134.410E-03     48.1197E-03    -59.8508E-03     329.007E-03    -164.032E-03    -165.313E-03    -164.017E-03     328.375E-03    -164.696E-03     35.2803E-03     79.1840E+06     52.8403E+06    -50.1011E+06    -48.5612E+06     73.8273E+06     56.6571E+06     13.1329E+06         53.0112
            1443     11.8827E-03     97.3395E-03     507.727E-03    -44.6919E-03    -452.331E-03     162.580E-03    -197.090E-03     45.2144E-03    -52.2518E-03     327.947E-03    -163.352E-03    -165.125E-03    -163.141E-03     327.207E-03    -164.595E-03     38.0743E-03     83.0142E+06     68.4109E+06    -46.2090E+06    -45.6620E+06     77.9203E+06     72.9578E+06     4.49679E+06         56.1824
            1444     12.7294E-03     97.4002E-03         1.37888    -7.74436E-03        -3.02661        -1.81234     164.605E-03    -7.74436E-03         1.53308     327.354E-03    -163.121E-03    -164.667E-03    -161.945E-03     326.178E-03    -164.667E-03     47.3690E-03     88.4987E+06     76.4005E+06    -42.4897E+06     -40.721E+06     75.3856E+06     87.7450E+06    -5.02805E+06         59.9094
            1445     13.5886E-03     97.4722E-03         36.3924     549.561E-03        -15.0969         21.3662    -70.7469E-03     549.561E-03        -12.8472     329.911E-03    -164.080E-03    -165.917E-03    -163.692E-03     328.275E-03    -164.670E-03     56.3214E-03     112.529E+06     88.6385E+06    -38.6569E+06    -32.7055E+06     86.1728E+06     109.043E+06    -150.208E+03         63.9617
            1446     14.4368E-03     97.5582E-03         45.1141        -1.00830        -79.8233        -33.5928        -2.29090     166.202E-03        -3.76237     330.763E-03    -164.081E-03    -166.680E-03    -164.684E-03     329.260E-03    -164.575E-03     53.8240E-03     158.010E+06     132.262E+06    -17.6273E+06    -12.0172E+06     137.497E+06     147.165E+06     15.0779E+06         67.5406
            1447     851.255E-06     98.4523E-03     97.8163E-03     28.0714E-03    -181.378E-03     13.8618E-03    -163.982E-03     94.6292E-03    -9.48755E-03     328.334E-03    -163.711E-03    -164.628E-03    -164.083E-03     328.330E-03    -164.252E-03     1.37069E-03    -132.099E+06    -139.876E+06    -289.844E+06    -137.140E+06    -289.817E+06    -134.863E+06     1.09800E+06         45.5503
            1448     1.69665E-03     98.4571E-03     67.1344E-03     48.4852E-03    -173.252E-03     57.1430E-03    -169.587E-03     54.8119E-03    -19.3695E-03     328.427E-03    -163.837E-03    -164.584E-03    -164.209E-03     328.424E-03    -164.208E-03     2.20808E-03    -124.859E+06    -134.925E+06    -274.354E+06    -134.964E+06    -274.315E+06    -124.859E+06    -1.01833E+06         45.5762
            1449     2.54534E-03     98.4603E-03     74.4042E-03     45.7622E-03    -179.150E-03     63.2254E-03    -178.724E-03     56.5157E-03     8.92313E-03     328.013E-03    -163.724E-03    -164.239E-03    -163.718E-03     328.007E-03    -164.239E-03     3.23861E-03    -112.234E+06    -128.818E+06    -259.465E+06    -128.842E+06    -259.441E+06    -112.234E+06    -1.31298E+06         45.6317
            1450     3.39481E-03     98.4672E-03     69.0718E-03     51.7975E-03    -181.208E-03     62.1525E-03    -180.689E-03     58.1976E-03    -6.50711E-03     328.004E-03    -163.759E-03    -164.227E-03    -163.749E-03     327.993E-03    -164.227E-03     4.49223E-03    -94.3139E+06    -122.344E+06    -239.828E+06    -122.464E+06    -239.708E+06    -94.3139E+06     1.81807E+06         45.7086
            1451     4.24458E-03     98.4753E-03     65.6198E-03     48.8801E-03    -174.805E-03     55.3743E-03    -174.171E-03     58.4913E-03    -9.92576E-03     328.293E-03    -163.979E-03    -164.265E-03    -163.960E-03     328.274E-03    -164.265E-03     6.06748E-03    -72.4067E+06    -113.945E+06    -216.524E+06    -114.076E+06    -216.393E+06    -72.4067E+06     2.02536E+06         45.7977
            1452     5.09191E-03     98.4868E-03     64.5620E-03     45.5590E-03    -168.236E-03     51.7561E-03    -167.667E-03     57.7958E-03     4.01459E-03     328.490E-03    -164.163E-03    -164.495E-03    -164.275E-03     328.454E-03    -164.346E-03     8.23160E-03    -53.1876E+06    -104.719E+06    -189.963E+06    -105.554E+06    -189.128E+06    -53.1876E+06     3.92514E+06         45.8925
            1453     5.94156E-03     98.5021E-03     64.1700E-03     47.4240E-03    -167.854E-03     53.8853E-03    -167.342E-03     57.1967E-03     3.41926E-03     329.002E-03    -164.242E-03    -164.955E-03    -164.670E-03     328.936E-03    -164.462E-03     11.1809E-03    -29.5538E+06    -92.1753E+06    -157.029E+06    -93.5568E+06    -155.648E+06    -29.5538E+06     7.35412E+06         46.0044
            1454     6.79002E-03     98.5181E-03     64.3315E-03     51.2922E-03    -172.606E-03     58.1676E-03    -172.376E-03     57.2263E-03    -10.3620E-03     329.402E-03    -164.229E-03    -165.009E-03    -164.648E-03     329.277E-03    -164.466E-03     15.4367E-03    -10.9239E+06    -82.6030E+06    -130.192E+06    -84.0594E+06    -128.736E+06    -10.9239E+06     3.60337E+06         46.1271
            1455     7.63687E-03     98.5378E-03     64.5701E-03     50.3225E-03    -176.396E-03     56.3973E-03    -175.400E-03     57.4989E-03     8.37660E-03     329.093E-03    -163.976E-03    -164.845E-03    -164.138E-03     328.908E-03    -164.498E-03     19.0521E-03    -1.43487E+06    -76.5713E+06    -105.177E+06    -80.6601E+06    -101.088E+06    -1.43487E+06     3.03647E+06         46.3783
            1456     8.48586E-03     98.5662E-03     83.9740E-03     42.3548E-03    -172.880E-03     66.6877E-03    -171.442E-03     58.2029E-03     22.4593E-03     328.514E-03    -163.674E-03    -164.685E-03    -163.578E-03     328.269E-03    -164.536E-03     21.8490E-03     13.4010E+06    -54.5685E+06    -77.0843E+06    -69.3558E+06     -62.297E+06     13.4010E+06     6.70343E+06         47.0749
            1457     9.33573E-03     98.5998E-03     96.9554E-03     45.5916E-03    -181.188E-03     71.7403E-03    -170.009E-03     59.6280E-03     81.9119E-03     328.245E-03    -163.800E-03    -164.516E-03    -163.459E-03     327.905E-03    -164.516E-03     25.7197E-03     30.9988E+06    -9.13755E+06    -63.3854E+06    -59.3708E+06    -13.1521E+06     30.9988E+06     10.3978E+06         48.4208
            1458     10.1860E-03     98.6382E-03     109.260E-03     9.48352E-03    -252.044E-03    -15.7930E-03    -175.004E-03     57.4968E-03    -66.6297E-03     327.876E-03    -163.670E-03    -164.564E-03    -163.197E-03     327.403E-03    -164.564E-03     30.3231E-03     50.5068E+06     33.8183E+06    -59.5840E+06    -57.1201E+06     37.5185E+06     44.3426E+06     13.4739E+06         50.4145
            1459     11.0361E-03     98.6834E-03     265.728E-03    -34.2856E-03    -251.191E-03     100.377E-03    -176.524E-03     56.3983E-03    -112.770E-03     327.969E-03    -163.392E-03    -165.056E-03    -163.278E-03     327.326E-03    -164.526E-03     35.3869E-03     74.3756E+06     52.3407E+06    -52.7357E+06    -50.0044E+06     71.6443E+06     52.3407E+06     16.6358E+06         53.0149
            1460     11.8811E-03     98.7372E-03     315.493E-03    -13.7263E-03    -399.526E-03    -10.0616E-03    -143.778E-03     56.0805E-03    -98.1894E-03     328.182E-03    -163.442E-03    -165.416E-03    -163.626E-03     327.401E-03    -164.450E-03     39.1245E-03     97.0441E+06     76.0266E+06    -39.0919E+06    -36.2183E+06     94.1704E+06     76.0266E+06      17.355E+06         56.1900
            1461     12.7348E-03     98.7783E-03         2.54327     76.4277E-03        -1.65126         1.34925    -479.709E-03     98.8938E-03         1.80820     329.675E-03    -163.898E-03    -166.287E-03    -164.262E-03     328.418E-03    -164.667E-03     49.0848E-03     101.579E+06     85.4384E+06    -37.9448E+06    -35.7751E+06     88.4154E+06     96.4326E+06     12.6816E+06         59.9147
            1462     13.5779E-03     98.8672E-03         16.5588    -495.852E-03        -36.5896        -19.9429    -87.7911E-03    -495.852E-03        -10.9359     331.515E-03    -164.415E-03    -167.200E-03    -165.080E-03     329.734E-03    -164.754E-03     58.7498E-03     115.236E+06     87.4257E+06    -49.7704E+06    -47.3336E+06     92.0146E+06     108.210E+06    -4.12972E+06         63.9630
            1463     14.4231E-03     98.9486E-03         82.9332     839.651E-03        -43.8981         37.6359         2.26965    -30.7735E-03        -4.89006     329.800E-03    -163.843E-03    -165.930E-03    -163.566E-03     328.261E-03    -164.668E-03     54.0393E-03     152.231E+06     122.585E+06    -38.1382E+06    -35.3038E+06     134.136E+06     137.846E+06    -8.98466E+06         67.5458
            1464     844.762E-06     99.8416E-03     92.9900E-03     40.5567E-03    -191.289E-03     31.8198E-03    -179.365E-03     89.8028E-03     48.0588E-03     329.559E-03    -164.403E-03    -165.165E-03    -164.453E-03     329.558E-03    -165.113E-03     454.741E-06    -132.539E+06    -136.341E+06    -289.916E+06    -136.380E+06    -289.877E+06    -132.539E+06    -553.018E+03         45.5336
            1465     1.69744E-03     99.8444E-03     75.5011E-03     57.8204E-03    -193.538E-03     69.8472E-03    -192.776E-03     62.7123E-03    -4.25790E-03     327.865E-03    -163.350E-03    -164.510E-03    -163.348E-03     327.863E-03    -164.510E-03     1.56334E-03    -125.152E+06    -132.301E+06    -275.071E+06    -132.360E+06    -275.011E+06    -125.152E+06     62.8943E+03         45.5648
            1466     2.54694E-03     99.8487E-03     90.7534E-03     68.1877E-03    -218.910E-03     89.9516E-03    -218.109E-03     68.1877E-03    -2.13470E-03     327.857E-03    -163.615E-03    -164.249E-03    -163.609E-03     327.851E-03    -164.249E-03     3.22219E-03    -111.713E+06    -130.269E+06    -261.000E+06    -130.353E+06    -260.916E+06    -111.713E+06     1.38524E+06         45.6251
            1467     3.39536E-03     99.8542E-03     85.9928E-03     69.4261E-03    -213.691E-03     82.2535E-03    -213.555E-03     73.0287E-03     1.29612E-03     328.146E-03    -163.887E-03    -164.251E-03    -163.872E-03     328.131E-03    -164.251E-03     5.30079E-03    -94.5817E+06    -123.351E+06    -242.429E+06    -123.563E+06    -242.217E+06    -94.5817E+06     1.83904E+06         45.6991
            1468     4.24337E-03     99.8633E-03     73.1037E-03     61.7787E-03    -191.485E-03     61.5439E-03    -191.250E-03     73.1037E-03    -4.57710E-03     328.282E-03    -163.913E-03    -164.269E-03    -163.886E-03     328.255E-03    -164.269E-03     7.18961E-03    -73.0432E+06    -113.868E+06    -216.029E+06    -114.212E+06    -215.686E+06    -73.0432E+06     3.17118E+06         45.7837
            1469     5.09348E-03     99.8749E-03     74.3731E-03     63.9066E-03    -194.766E-03     66.3884E-03    -194.504E-03     71.6290E-03    -3.42995E-03     328.116E-03    -163.983E-03    -164.326E-03    -163.939E-03     328.073E-03    -164.326E-03     9.17356E-03    -53.2710E+06    -106.581E+06    -191.434E+06    -106.770E+06    -191.246E+06    -53.2710E+06     2.73860E+06         45.8737
            1470     5.94138E-03     99.8906E-03     82.9152E-03     72.1038E-03    -211.461E-03     82.6907E-03    -211.236E-03     72.1038E-03    -4.96620E-03     327.817E-03    -163.936E-03    -164.355E-03    -163.872E-03     327.753E-03    -164.355E-03     11.1677E-03    -35.3523E+06    -96.5815E+06    -163.256E+06    -96.8524E+06    -162.985E+06    -35.3523E+06     2.93262E+06         45.9765
            1471     6.79140E-03     99.9055E-03     81.1549E-03     66.2458E-03    -210.064E-03     73.7876E-03    -209.539E-03     73.0876E-03    -22.2317E-03     328.339E-03    -164.009E-03    -164.475E-03    -164.098E-03     328.231E-03    -164.277E-03     14.3503E-03    -15.4039E+06    -85.9517E+06    -130.341E+06    -86.9289E+06    -129.364E+06    -15.4039E+06     5.79244E+06         46.0999
            1472     7.64032E-03     99.9312E-03     72.0000E-03     49.3408E-03    -194.298E-03     47.9913E-03    -192.949E-03     72.0000E-03    -3.20194E-03     329.079E-03    -164.141E-03    -164.570E-03    -164.316E-03     328.908E-03    -164.223E-03     18.2611E-03     1.31545E+06    -77.2810E+06    -103.084E+06    -79.5944E+06    -100.771E+06     1.31545E+06     6.27595E+06         46.3638
            1473     8.48760E-03     99.9539E-03     143.566E-03     57.7235E-03    -184.784E-03     125.940E-03    -182.976E-03     73.5409E-03     8.14181E-03     329.139E-03    -164.138E-03    -164.735E-03    -164.213E-03     328.869E-03    -164.390E-03     22.8985E-03     15.4867E+06    -56.9681E+06    -81.7867E+06    -73.1234E+06    -65.6314E+06     15.4867E+06     6.90948E+06         47.0673
            1474     9.33614E-03     99.9899E-03     147.209E-03     29.7020E-03    -209.030E-03     92.1112E-03    -201.415E-03     77.1844E-03     17.5817E-03     328.841E-03    -164.136E-03    -164.799E-03    -164.042E-03     328.492E-03    -164.543E-03     26.2283E-03     26.9995E+06    -19.1960E+06    -70.6059E+06    -67.3203E+06    -22.4816E+06     26.9995E+06     10.5446E+06         48.4137
            1475     10.1846E-03     100.025E-03     66.0752E-03    -91.7610E-03    -351.541E-03    -223.465E-03    -219.837E-03     66.0752E-03    -77.1921E-03     327.930E-03    -163.671E-03    -164.622E-03    -163.268E-03     327.467E-03    -164.563E-03     29.9042E-03     43.1872E+06     26.4282E+06    -56.9854E+06    -54.6077E+06     26.4397E+06     40.7981E+06     12.4601E+06         50.4096
            1476     11.0338E-03     100.073E-03     574.085E-03    -45.5979E-03    -308.542E-03     336.281E-03    -181.092E-03     64.7559E-03    -23.0019E-03     326.550E-03    -162.500E-03    -164.476E-03    -161.862E-03     325.912E-03    -164.476E-03     35.1384E-03     72.9751E+06     57.7499E+06    -41.5819E+06    -39.1886E+06     70.2899E+06     58.0418E+06     13.5107E+06         53.0159
            1477     11.8911E-03     100.120E-03     576.995E-03    -4.76510E-03    -778.206E-03    -158.708E-03    -114.934E-03     67.6654E-03     32.9495E-03     327.921E-03    -163.108E-03    -165.378E-03    -163.287E-03     327.104E-03    -164.382E-03     39.8889E-03     97.2110E+06     77.9418E+06    -27.6038E+06    -24.4500E+06     91.7251E+06     80.2739E+06     17.0673E+06         56.1993
            1478     12.7332E-03     100.181E-03         3.68375     74.9936E-03        -1.21334         2.78668    -388.691E-03     147.424E-03    -573.222E-03     331.128E-03    -164.611E-03    -166.945E-03    -165.675E-03     329.858E-03    -164.611E-03     49.7064E-03     109.187E+06     92.5893E+06    -16.2619E+06    -13.5974E+06     94.6707E+06     104.441E+06     14.3739E+06         59.9300
            1479     13.5829E-03     100.255E-03         5.04974    -574.001E-03        -28.6761        -23.3475    -404.990E-03    -447.897E-03         11.6922     330.678E-03    -164.321E-03    -166.327E-03    -164.001E-03     328.699E-03    -164.668E-03     62.1595E-03     142.462E+06     119.717E+06    -9.79937E+06    -7.11898E+06     124.415E+06     135.083E+06     8.16793E+06         63.9833
            1480     14.4382E-03     100.341E-03         64.4429     675.678E-03        -28.6466         35.6341     906.537E-03    -68.6419E-03         1.67543     329.498E-03    -163.942E-03    -165.571E-03    -163.088E-03     327.693E-03    -164.621E-03     58.8490E-03     158.246E+06     135.348E+06    -14.1549E+06    -11.4232E+06     139.642E+06     151.221E+06    -6.22344E+06         67.5686
            1481     849.390E-06     101.231E-03     118.143E-03     60.2498E-03    -231.614E-03     63.0057E-03    -230.893E-03     114.666E-03     17.5982E-03     328.095E-03    -163.016E-03    -165.086E-03    -163.779E-03     328.091E-03    -164.319E-03     2.51845E-03    -132.569E+06    -137.877E+06    -292.611E+06    -136.071E+06    -292.544E+06    -134.442E+06     9.88511E+03         45.4957
            1482     1.69573E-03     101.231E-03     91.0214E-03     77.6716E-03    -226.227E-03     80.0321E-03    -224.644E-03     87.0783E-03    -21.5846E-03     328.207E-03    -163.230E-03    -165.023E-03    -164.220E-03     328.201E-03    -164.027E-03     3.00763E-03    -126.235E+06    -134.167E+06    -277.966E+06    -134.256E+06    -277.877E+06    -126.235E+06     1.77385E+06         45.5412
            1483     2.54579E-03     101.235E-03     88.6061E-03     72.1660E-03    -218.259E-03     75.3438E-03    -216.760E-03     83.9288E-03    -25.8051E-03     327.934E-03    -163.565E-03    -164.383E-03    -163.838E-03     327.927E-03    -164.102E-03     3.39584E-03    -110.948E+06    -129.870E+06    -261.286E+06    -129.962E+06    -261.194E+06    -110.948E+06     3.21571E+06         45.6110
            1484     3.39527E-03     101.242E-03     97.1228E-03     74.2078E-03    -228.111E-03     87.9708E-03    -227.902E-03     83.1509E-03     2.61344E-03     328.174E-03    -163.851E-03    -164.226E-03    -163.838E-03     328.160E-03    -164.226E-03     4.95937E-03    -92.5673E+06    -123.659E+06    -241.882E+06    -123.835E+06    -241.706E+06    -92.5673E+06     2.13202E+06         45.6888
            1485     4.24552E-03     101.250E-03     103.267E-03     83.7290E-03    -244.271E-03     101.484E-03    -244.201E-03     85.4428E-03     4.39807E-03     328.479E-03    -164.067E-03    -164.291E-03    -164.042E-03     328.454E-03    -164.291E-03     6.71878E-03    -75.8585E+06    -116.538E+06    -219.180E+06    -116.833E+06    -218.885E+06    -75.8585E+06     1.98727E+06         45.7712
            1486     5.09275E-03     101.265E-03     96.9092E-03     87.0801E-03    -243.334E-03     95.9207E-03    -243.126E-03     87.8603E-03     2.48667E-03     328.042E-03    -163.879E-03    -164.360E-03    -163.849E-03     328.012E-03    -164.360E-03     7.49575E-03    -54.6069E+06    -106.786E+06    -191.951E+06    -107.034E+06    -191.703E+06    -54.6069E+06     2.95133E+06         45.8571
            1487     5.94329E-03     101.275E-03     92.3223E-03     81.6874E-03    -232.253E-03     85.2841E-03    -232.012E-03     88.4843E-03     862.380E-06     327.611E-03    -163.710E-03    -164.383E-03    -163.654E-03     327.555E-03    -164.383E-03     9.87554E-03    -34.9466E+06    -98.9076E+06    -166.540E+06    -99.1601E+06    -166.287E+06    -34.9466E+06     2.89563E+06         45.9588
            1488     6.79095E-03     101.297E-03     89.9587E-03     63.5659E-03    -219.863E-03     65.5159E-03    -218.960E-03     87.1061E-03     3.93080E-03     328.028E-03    -163.917E-03    -164.263E-03    -163.820E-03     327.931E-03    -164.263E-03     13.7855E-03    -19.0934E+06    -91.4009E+06    -139.010E+06    -91.7918E+06    -138.619E+06    -19.0934E+06     3.48928E+06         46.0771
            1489     7.63962E-03     101.316E-03     83.8823E-03     48.6803E-03    -209.258E-03     46.4373E-03    -207.015E-03     83.8823E-03     17.5663E-03     328.580E-03    -164.062E-03    -164.202E-03    -163.936E-03     328.438E-03    -164.186E-03     16.6187E-03     1.43057E+06    -77.9158E+06    -105.154E+06    -79.8647E+06    -103.205E+06     1.43057E+06     5.20746E+06         46.3351
            1490     8.49020E-03     101.346E-03     189.625E-03     68.5240E-03    -211.423E-03     169.879E-03    -209.374E-03     86.2212E-03    -9.72643E-03     328.552E-03    -163.832E-03    -164.504E-03    -163.808E-03     328.316E-03    -164.291E-03     21.3374E-03     16.4771E+06    -58.0547E+06    -80.8414E+06    -71.6487E+06    -67.2474E+06     16.4771E+06     8.54578E+06         47.0451
            1491     9.33726E-03     101.378E-03     192.980E-03    -20.6979E-03    -241.154E-03     66.0368E-03    -224.485E-03     89.5762E-03    -67.5067E-03     328.203E-03    -163.544E-03    -164.657E-03    -163.422E-03     327.826E-03    -164.401E-03     26.9992E-03     28.1225E+06    -25.7410E+06    -65.5440E+06    -62.4325E+06    -28.8524E+06     28.1225E+06      9.2361E+06         48.4025
            1492     10.1858E-03     101.415E-03     74.3576E-03    -160.297E-03    -331.073E-03    -270.616E-03    -220.754E-03     74.3576E-03    -44.8781E-03     327.839E-03    -163.492E-03    -164.637E-03    -163.148E-03     327.307E-03    -164.449E-03     32.1648E-03     48.1545E+06     25.0072E+06    -50.4346E+06    -48.7918E+06     25.7216E+06     45.7972E+06     10.4004E+06         50.4051
            1493     11.0381E-03     101.455E-03     755.647E-03    -46.5163E-03    -289.600E-03     532.639E-03    -190.972E-03     77.8642E-03     116.755E-03     328.098E-03    -163.206E-03    -165.303E-03    -163.448E-03     327.461E-03    -164.424E-03     35.3313E-03     70.8373E+06     57.6641E+06    -42.1397E+06    -40.9155E+06     69.3212E+06     57.9559E+06     10.4033E+06         53.0140
            1494     11.8830E-03     101.506E-03     759.127E-03    -44.3747E-03        -1.13965    -326.581E-03    -179.658E-03     81.3440E-03     73.3316E-03     329.227E-03    -163.745E-03    -165.946E-03    -164.419E-03     328.394E-03    -164.440E-03     40.3026E-03     92.6385E+06     76.1468E+06    -26.5611E+06    -25.5685E+06     89.3138E+06     78.4789E+06     6.73022E+06         56.1976
            1495     12.7363E-03     101.576E-03         2.64076    -16.6783E-03        -1.11096         1.41092    -6.84176E-03     109.040E-03        -1.19394     329.081E-03    -163.999E-03    -165.532E-03    -163.854E-03     328.026E-03    -164.622E-03     45.4136E-03      108.45E+06     100.646E+06    -16.7179E+06    -15.5947E+06     104.995E+06     102.978E+06     6.99922E+06         59.9355
            1496     13.5851E-03     101.639E-03         2.61957    -45.1874E-03        -4.63191        -1.93752    -207.853E-03     87.8502E-03     472.178E-03     328.056E-03    -163.280E-03    -164.662E-03    -161.813E-03     326.435E-03    -164.509E-03     55.4424E-03     127.877E+06     118.882E+06    -13.7537E+06    -11.8976E+06     118.862E+06     126.041E+06     9.16297E+06         64.0006
            1497     14.4337E-03     101.726E-03         5.13580    -87.3706E-03        -5.68369     702.572E-03        -1.38350     45.6670E-03         2.40250     328.603E-03    -163.508E-03    -165.059E-03    -162.383E-03     326.848E-03    -164.429E-03     58.2469E-03     157.392E+06     140.605E+06    -2.32151E+06    -419.057E+03     138.702E+06     157.392E+06     4.01404E+06         67.5894
            1498     852.268E-06     102.617E-03     137.117E-03     78.9635E-03    -265.184E-03     80.7144E-03    -263.033E-03     133.216E-03    -4.75470E-03     326.022E-03    -161.763E-03    -164.262E-03    -163.405E-03     326.015E-03    -162.613E-03     2.32292E-03    -135.453E+06    -141.426E+06    -296.515E+06    -138.417E+06    -296.464E+06    -138.513E+06     1.94203E+06         45.4628
            1499     1.70026E-03     102.622E-03     110.301E-03     101.520E-03    -264.460E-03     104.055E-03    -263.093E-03     106.399E-03     3.22765E-03     327.604E-03    -163.229E-03    -164.478E-03    -164.449E-03     327.598E-03    -163.252E-03     2.36921E-03    -126.215E+06    -136.879E+06    -281.294E+06    -136.991E+06    -281.181E+06    -126.215E+06     3.80644E+06         45.5118
            1500     2.54627E-03     102.622E-03     107.361E-03     92.0323E-03    -255.895E-03     93.7519E-03    -254.413E-03     104.160E-03     4.27384E-03     328.498E-03    -163.580E-03    -164.824E-03    -164.670E-03     328.485E-03    -163.721E-03     4.54166E-03    -111.330E+06    -130.934E+06    -263.748E+06    -131.015E+06    -263.667E+06    -111.330E+06     3.02871E+06         45.5923
            1501     3.39550E-03     102.629E-03     115.281E-03     87.8284E-03    -259.246E-03     100.199E-03    -258.655E-03     102.319E-03     24.3494E-03     329.434E-03    -164.056E-03    -165.179E-03    -165.000E-03     329.418E-03    -164.220E-03     5.37806E-03    -93.8689E+06    -124.195E+06    -242.512E+06    -124.312E+06    -242.395E+06    -93.8689E+06     3.30955E+06         45.6820
            1502     4.24242E-03     102.640E-03     120.297E-03     87.2905E-03    -266.155E-03     104.959E-03    -265.999E-03     102.473E-03     14.2308E-03     328.860E-03    -163.851E-03    -164.890E-03    -164.202E-03     328.845E-03    -164.524E-03     5.34276E-03    -73.8990E+06    -116.598E+06    -218.985E+06    -116.722E+06    -218.861E+06    -73.8990E+06     2.58733E+06         45.7629
            1503     5.09214E-03     102.653E-03     110.675E-03     92.0699E-03    -261.385E-03     99.8355E-03    -261.087E-03     102.611E-03    -2.04850E-03     327.692E-03    -163.268E-03    -164.499E-03    -163.237E-03     327.661E-03    -164.499E-03     7.27646E-03    -54.3864E+06    -107.949E+06    -195.012E+06    -108.089E+06    -194.872E+06    -54.3864E+06     2.46745E+06         45.8432
            1504     5.93996E-03     102.664E-03     101.728E-03     91.6434E-03    -249.718E-03     91.1890E-03    -249.263E-03     101.728E-03    -15.4388E-03     327.851E-03    -163.658E-03    -164.499E-03    -163.621E-03     327.789E-03    -164.474E-03     10.4292E-03    -34.1592E+06    -98.4204E+06     -167.38E+06    -98.6501E+06    -167.150E+06    -34.1592E+06     3.38747E+06         45.9437
            1505     6.79102E-03     102.684E-03     99.6677E-03     77.2844E-03    -242.629E-03     76.5083E-03    -241.853E-03     99.6677E-03     6.89599E-03     328.357E-03    -164.036E-03    -164.407E-03    -163.968E-03     328.265E-03    -164.382E-03     13.4410E-03    -15.0769E+06    -88.5821E+06    -137.120E+06    -88.8296E+06    -136.873E+06    -15.0769E+06     2.85442E+06         46.0577
            1506     7.63986E-03     102.706E-03     99.0754E-03     73.8722E-03    -243.667E-03     73.6787E-03    -241.532E-03     97.1337E-03     40.1795E-03     328.468E-03    -163.880E-03    -164.299E-03    -163.764E-03     328.335E-03    -164.283E-03     16.0124E-03    -1.16601E+06    -80.7014E+06    -109.123E+06    -81.7487E+06    -108.076E+06    -1.16601E+06     4.34473E+06         46.3094
            1507     8.48663E-03     102.732E-03     187.484E-03     91.6248E-03    -242.517E-03     177.045E-03    -240.439E-03     99.9865E-03     7.74984E-03     327.538E-03    -162.852E-03    -164.243E-03    -162.658E-03     327.328E-03    -164.227E-03     20.1422E-03     14.7832E+06    -64.1969E+06    -79.5273E+06    -69.9808E+06    -73.7435E+06     14.7832E+06     5.10873E+06         47.0221
            1508     9.33991E-03     102.764E-03     185.239E-03    -44.5602E-03    -268.498E-03     1.73712E-03    -229.240E-03     99.6833E-03    -59.6839E-03     326.794E-03    -162.389E-03    -164.137E-03    -162.048E-03     326.452E-03    -164.137E-03     25.5330E-03     30.2281E+06    -29.6684E+06    -60.0369E+06    -57.9789E+06    -31.7264E+06     30.2281E+06     6.76819E+06         48.3888
            1509     10.1924E-03     102.801E-03     124.322E-03    -115.661E-03    -271.741E-03    -145.119E-03    -203.914E-03     85.9528E-03     44.9958E-03     327.779E-03    -163.565E-03    -164.465E-03    -163.335E-03     327.314E-03    -164.230E-03     30.0439E-03     44.9163E+06     19.7092E+06    -54.1038E+06    -52.4790E+06     20.4417E+06     42.5590E+06     10.3767E+06         50.3979
            1510     11.0375E-03     102.848E-03     648.970E-03     37.3275E-03    -239.377E-03     559.927E-03    -207.704E-03     94.6973E-03     117.420E-03     329.488E-03    -164.384E-03    -165.616E-03    -164.971E-03     328.842E-03    -164.384E-03     35.4574E-03     71.6947E+06     56.0451E+06    -44.2371E+06    -43.1100E+06     69.5886E+06     57.0240E+06     10.4963E+06         53.0087
            1511     11.8860E-03     102.900E-03     608.824E-03    -88.0101E-03        -1.15609    -469.173E-03    -259.027E-03     92.9208E-03    -14.3996E-03     329.605E-03    -164.419E-03    -165.644E-03    -164.647E-03     328.640E-03    -164.451E-03     43.4646E-03     94.2369E+06      72.628E+06    -38.2951E+06    -36.8722E+06     92.8140E+06      72.628E+06     9.51484E+06         56.1922
            1512     12.7301E-03     102.962E-03         1.48764    -97.1118E-03        -1.10049     400.300E-03    -194.077E-03     83.8191E-03    -97.1178E-03     327.830E-03    -163.675E-03    -164.715E-03    -162.673E-03     326.631E-03    -164.518E-03     48.0902E-03     103.019E+06     89.2935E+06    -34.4685E+06    -32.9344E+06     101.485E+06     89.2935E+06     8.32807E+06         59.9306
            1513     13.5825E-03     103.023E-03         1.49511     39.6512E-03        -1.52512    -20.9585E-03    -60.6899E-03     91.2928E-03    -57.5109E-03     327.803E-03    -163.342E-03    -164.535E-03    -161.695E-03     326.033E-03    -164.413E-03     57.8664E-03     124.309E+06     117.176E+06    -20.4175E+06    -19.7899E+06     120.978E+06     119.879E+06     3.10676E+06         63.9974
            1514     14.4378E-03     103.112E-03         1.60020     36.4507E-03        -1.65421     87.5071E-03    -193.159E-03     88.0923E-03    -30.2155E-03     327.922E-03    -163.491E-03    -164.469E-03    -161.702E-03     326.011E-03    -164.347E-03     60.8796E-03     159.315E+06     146.803E+06    -5.02186E+06    -4.70590E+06     146.487E+06     159.315E+06     1.46536E+06         67.5930
            1515     846.907E-06     104.002E-03     145.692E-03     104.821E-03    -307.484E-03     103.178E-03    -305.415E-03     145.267E-03    -3.64982E-03     326.245E-03    -162.336E-03    -163.908E-03    -163.259E-03     326.234E-03    -162.975E-03     2.13917E-03    -137.520E+06    -141.860E+06    -299.091E+06    -140.694E+06    -299.069E+06    -138.708E+06     859.030E+03         45.4545
            1516     1.69814E-03     104.006E-03     128.820E-03     120.385E-03    -303.475E-03     123.904E-03    -302.357E-03     124.183E-03    -2.62474E-03     326.639E-03    -162.913E-03    -163.795E-03    -163.528E-03     326.631E-03    -163.171E-03     2.49317E-03    -127.683E+06    -135.950E+06    -285.307E+06    -136.017E+06    -285.240E+06    -127.683E+06     1.47871E+06         45.4940
            1517     2.54949E-03     104.010E-03     131.580E-03     118.099E-03    -305.734E-03     124.231E-03    -304.452E-03     124.167E-03    -9.06620E-03     328.959E-03    -163.554E-03    -165.276E-03    -165.265E-03     328.948E-03    -163.554E-03     3.93991E-03    -112.853E+06    -130.685E+06    -267.218E+06    -130.771E+06    -267.132E+06    -112.853E+06     2.50809E+06         45.5743
            1518     3.39446E-03     104.022E-03     125.330E-03     103.542E-03    -285.511E-03     105.225E-03    -283.993E-03     122.129E-03    -7.08615E-03     329.830E-03    -164.035E-03    -165.679E-03    -165.484E-03     329.814E-03    -164.215E-03     5.57663E-03    -94.7486E+06    -124.643E+06    -244.615E+06    -124.733E+06    -244.525E+06    -94.7486E+06     3.20370E+06         45.6682
            1519     4.24163E-03     104.030E-03     117.346E-03     91.0878E-03    -264.527E-03     89.9457E-03    -263.385E-03     117.346E-03    -14.6465E-03     328.456E-03    -163.490E-03    -164.910E-03    -163.838E-03     328.439E-03    -164.545E-03     5.79221E-03    -73.5080E+06    -115.830E+06    -220.428E+06    -115.941E+06    -220.317E+06    -73.5080E+06     3.39061E+06         45.7520
            1520     5.09207E-03     104.036E-03     112.846E-03     91.0823E-03    -259.482E-03     90.8801E-03    -259.280E-03     112.846E-03    -3.01493E-03     327.652E-03    -163.129E-03    -164.498E-03    -163.085E-03     327.608E-03    -164.498E-03     8.95208E-03    -54.9011E+06    -108.465E+06    -196.417E+06    -108.617E+06    -196.264E+06    -54.9011E+06     3.57739E+06         45.8349
            1521     5.94335E-03     104.055E-03     110.296E-03     99.2813E-03    -263.647E-03     98.9427E-03    -263.308E-03     110.296E-03    -15.7749E-03     328.336E-03    -164.005E-03    -164.572E-03    -164.007E-03     328.265E-03    -164.499E-03     11.8369E-03    -34.9177E+06    -98.7688E+06    -168.065E+06    -99.1519E+06    -167.682E+06    -34.9177E+06     4.87113E+06         45.9272
            1522     6.78871E-03     104.071E-03     109.154E-03     102.345E-03    -272.106E-03     102.098E-03    -271.859E-03     109.154E-03    -14.5862E-03     328.442E-03    -164.135E-03    -164.553E-03    -164.109E-03     328.343E-03    -164.480E-03     13.8250E-03    -14.8184E+06    -88.4694E+06    -137.936E+06    -89.0589E+06    -137.346E+06    -14.8184E+06     5.20987E+06         46.0314
            1523     7.63747E-03     104.096E-03     112.275E-03     104.605E-03    -277.548E-03     107.795E-03    -277.252E-03     108.790E-03     4.80842E-03     327.851E-03    -163.237E-03    -164.353E-03    -163.085E-03     327.699E-03    -164.353E-03     17.1212E-03     1.07502E+06    -79.5996E+06    -108.869E+06    -80.4222E+06    -108.046E+06     1.07502E+06     4.39210E+06         46.2865
            1524     8.48987E-03     104.119E-03     160.162E-03     111.240E-03    -268.001E-03     158.506E-03    -266.345E-03     111.240E-03    -24.7279E-03     327.721E-03    -162.756E-03    -164.297E-03    -162.660E-03     327.513E-03    -164.185E-03     20.1087E-03     14.6016E+06    -66.1261E+06    -82.1453E+06    -71.9864E+06    -76.2850E+06     14.6016E+06     4.42518E+06         47.0048
            1525     9.33892E-03     104.148E-03     153.200E-03    -41.9821E-03    -266.416E-03    -23.7596E-03    -239.202E-03     107.763E-03    -52.5162E-03     327.739E-03    -163.152E-03    -164.162E-03    -162.959E-03     327.426E-03    -164.042E-03     24.5015E-03     27.7276E+06    -35.6262E+06    -64.5403E+06    -63.0847E+06    -37.0818E+06     27.7276E+06     5.23518E+06         48.3735
            1526     10.1861E-03     104.191E-03     237.683E-03    -49.6393E-03    -256.813E-03     52.6821E-03    -221.557E-03     100.106E-03     70.3844E-03     327.916E-03    -163.646E-03    -164.345E-03    -163.322E-03     327.477E-03    -164.230E-03     29.2534E-03     41.1205E+06     14.8413E+06    -54.7713E+06    -53.8692E+06     13.9392E+06     41.1205E+06     7.44209E+06         50.3850
            1527     11.0380E-03     104.236E-03     419.004E-03     78.1410E-03    -264.590E-03     362.482E-03    -238.207E-03     108.280E-03    -5.27972E-03     328.214E-03    -163.805E-03    -164.790E-03    -163.523E-03     327.579E-03    -164.436E-03     35.0556E-03     68.4664E+06     49.0618E+06    -51.5659E+06    -49.8526E+06     64.6193E+06     51.1956E+06     12.2221E+06         52.9999
            1528     11.8870E-03     104.291E-03     272.685E-03    -87.7109E-03    -756.273E-03    -424.639E-03    -246.198E-03     99.5385E-03    -95.1811E-03     327.550E-03    -163.276E-03    -164.622E-03    -162.627E-03     326.654E-03    -164.376E-03     41.6660E-03     94.1374E+06     63.2453E+06    -45.7420E+06    -43.5585E+06     91.9539E+06     63.2453E+06     13.1156E+06         56.1896
            1529     12.7418E-03     104.348E-03         1.19122    -61.1721E-03    -734.243E-03     536.484E-03    -236.619E-03     95.9381E-03     140.650E-03     327.340E-03    -163.255E-03    -164.586E-03    -162.406E-03     326.170E-03    -164.265E-03     47.3765E-03     109.049E+06     89.6159E+06    -31.2176E+06    -30.1451E+06     107.976E+06     89.6159E+06     6.19315E+06         59.9304
            1530     13.5911E-03     104.412E-03         1.19583    -60.1273E-03        -1.51409    -242.264E-03    -236.670E-03     100.547E-03     47.4058E-03     329.087E-03    -164.056E-03    -165.261E-03    -163.424E-03     327.440E-03    -164.245E-03     56.3220E-03     133.433E+06     123.712E+06    -17.3779E+06    -17.2483E+06     129.394E+06     127.622E+06     1.30182E+06         63.9944
            1531     14.4368E-03     104.498E-03         1.58069    -56.5988E-03        -1.40749     139.669E-03    -114.754E-03     91.6933E-03    -147.114E-03     328.132E-03    -163.177E-03    -165.031E-03    -162.192E-03     326.453E-03    -164.336E-03     57.0233E-03     160.759E+06     148.547E+06    -6.03750E+06    -5.95766E+06     148.467E+06     160.759E+06    -385.273E+03         67.5906
            1532     851.069E-06     105.386E-03     143.250E-03     93.6583E-03    -304.257E-03     131.660E-03    -303.040E-03     104.032E-03    -17.2720E-03     326.874E-03    -162.893E-03    -163.977E-03    -163.079E-03     326.866E-03    -163.783E-03     1.70190E-03    -138.068E+06    -142.158E+06    -299.691E+06    -142.173E+06    -299.677E+06    -138.068E+06     673.746E+03         45.4643
            1533     1.70028E-03     105.392E-03     136.727E-03     116.316E-03    -315.807E-03     128.043E-03    -310.556E-03     119.750E-03    -71.2887E-03     327.716E-03    -163.321E-03    -164.440E-03    -164.192E-03     327.703E-03    -163.556E-03     3.68995E-03    -129.918E+06    -137.612E+06    -288.561E+06    -137.628E+06    -288.545E+06    -129.918E+06     408.134E+03         45.4929
            1534     2.54476E-03     105.401E-03     136.452E-03     116.530E-03    -311.177E-03     125.575E-03    -306.004E-03     122.233E-03    -45.5466E-03     328.713E-03    -163.562E-03    -165.041E-03    -164.745E-03     328.701E-03    -163.846E-03     4.59991E-03    -115.205E+06    -132.164E+06    -270.791E+06    -132.206E+06    -270.748E+06    -115.205E+06     1.72098E+06         45.5554
            1535     3.39403E-03     105.411E-03     133.255E-03     110.981E-03    -298.204E-03     119.314E-03    -295.608E-03     122.326E-03    -24.6924E-03     327.772E-03    -163.143E-03    -164.604E-03    -163.634E-03     327.757E-03    -164.098E-03     5.42081E-03    -96.1438E+06    -125.007E+06    -247.216E+06    -125.120E+06    -247.103E+06    -96.1438E+06     3.57034E+06         45.6371
            1536     4.24512E-03     105.416E-03     136.502E-03     111.001E-03    -300.348E-03     123.513E-03    -298.436E-03     122.077E-03    -34.1080E-03     327.735E-03    -163.295E-03    -164.556E-03    -163.584E-03     327.712E-03    -164.243E-03     6.72959E-03    -76.6399E+06    -118.230E+06    -224.711E+06    -118.361E+06    -224.580E+06    -76.6399E+06     3.69329E+06         45.7319
            1537     5.09332E-03     105.425E-03     130.530E-03     109.989E-03    -294.785E-03     118.328E-03    -294.568E-03     121.973E-03     11.6602E-03     328.794E-03    -163.929E-03    -164.883E-03    -164.403E-03     328.744E-03    -164.358E-03     9.74756E-03    -55.0985E+06    -108.475E+06    -197.582E+06    -108.645E+06    -197.412E+06    -55.0985E+06     3.73096E+06         45.8297
            1538     5.93976E-03     105.441E-03     122.675E-03     106.867E-03    -283.913E-03     108.497E-03    -283.781E-03     120.913E-03     8.28466E-03     328.130E-03    -163.593E-03    -164.686E-03    -163.773E-03     328.049E-03    -164.426E-03     12.5529E-03    -34.1724E+06    -98.5544E+06    -168.697E+06    -98.8713E+06    -168.380E+06    -34.1724E+06     4.45230E+06         45.9097
            1539     6.79067E-03     105.463E-03     119.071E-03     101.249E-03    -279.543E-03     101.175E-03    -279.468E-03     119.071E-03    -2.96661E-03     327.380E-03    -163.261E-03    -164.465E-03    -163.189E-03     327.260E-03    -164.417E-03     15.1950E-03    -15.4697E+06    -89.7453E+06    -140.987E+06    -90.3045E+06    -140.428E+06    -15.4697E+06     4.95249E+06         45.9985
            1540     7.64101E-03     105.479E-03     118.786E-03     100.890E-03    -275.017E-03     101.782E-03    -274.365E-03     117.242E-03     8.98698E-03     327.661E-03    -163.256E-03    -164.245E-03    -163.085E-03     327.490E-03    -164.245E-03     18.2752E-03     2.31855E+06    -79.6458E+06    -110.649E+06    -80.3102E+06    -109.984E+06     2.31855E+06     4.38547E+06         46.2612
            1541     8.48930E-03     105.507E-03     132.148E-03     108.765E-03    -271.350E-03     121.999E-03    -269.189E-03     116.753E-03    -21.5865E-03     328.380E-03    -163.567E-03    -164.201E-03    -163.431E-03     328.124E-03    -164.081E-03     22.0510E-03     17.6283E+06    -64.3303E+06    -83.1853E+06    -70.9834E+06    -76.5322E+06     17.6283E+06     5.39074E+06         46.9896
            1542     9.33725E-03     105.538E-03     126.689E-03     8.80347E-03    -269.056E-03     18.5380E-03    -264.940E-03     112.839E-03    -23.1435E-03     328.947E-03    -164.027E-03    -164.503E-03    -164.117E-03     328.561E-03    -164.027E-03     27.2849E-03     29.6662E+06    -34.9453E+06    -65.8881E+06    -63.1647E+06    -37.6687E+06     29.6662E+06     5.71019E+06         48.3611
            1543     10.1886E-03     105.577E-03     290.867E-03     9.74649E-03    -269.086E-03     184.859E-03    -265.151E-03     111.820E-03     36.2564E-03     328.508E-03    -163.742E-03    -164.629E-03    -163.592E-03     328.001E-03    -164.273E-03     31.5286E-03     40.3445E+06     7.17464E+06    -57.5449E+06    -56.2255E+06     5.85524E+06     40.3445E+06     7.64774E+06         50.3745
            1544     11.0364E-03     105.624E-03     293.796E-03     4.99020E-03    -346.293E-03     106.963E-03    -269.219E-03     114.749E-03    -85.7240E-03     327.544E-03    -163.319E-03    -164.452E-03    -162.662E-03     326.887E-03    -164.452E-03     35.7995E-03     68.0603E+06     42.2539E+06    -49.5112E+06    -47.2700E+06     57.8389E+06     50.2340E+06     11.7554E+06         52.9924
            1545     11.8881E-03     105.678E-03     226.221E-03    -56.1001E-03    -443.405E-03    -147.631E-03    -231.245E-03     105.592E-03     21.5933E-03     326.906E-03    -162.917E-03    -164.332E-03    -162.124E-03     326.114E-03    -164.332E-03     39.3521E-03     100.874E+06     68.7623E+06    -36.3935E+06    -35.0958E+06     99.5765E+06     68.7623E+06     8.24234E+06         56.1857
            1546     12.7367E-03     105.732E-03     690.150E-03     56.4368E-03    -399.138E-03     454.557E-03    -215.479E-03     108.370E-03     28.7384E-03     327.549E-03    -163.370E-03    -164.630E-03    -162.765E-03     326.496E-03    -164.184E-03     45.0078E-03     116.774E+06     95.2660E+06    -25.8750E+06    -25.6419E+06     116.541E+06     95.2660E+06     3.29698E+06         59.9278
            1547     13.5848E-03     105.807E-03     569.070E-03    -49.9576E-03    -951.356E-03    -284.126E-03    -256.037E-03     107.919E-03    -41.3249E-03     328.926E-03    -163.921E-03    -165.203E-03    -163.365E-03     327.351E-03    -164.184E-03     55.1554E-03     134.671E+06     123.400E+06    -17.8688E+06    -17.7873E+06     130.541E+06     127.449E+06     990.891E+03         63.9930
            1548     14.4352E-03     105.886E-03     978.249E-03    -47.4128E-03    -890.155E-03     161.430E-03    -218.830E-03     98.0816E-03     237.132E-03     327.716E-03    -162.947E-03    -164.888E-03    -161.886E-03     326.083E-03    -164.317E-03     56.2876E-03     160.289E+06     149.425E+06    -8.24365E+06    -8.22049E+06     149.402E+06     160.289E+06     192.147E+03         67.5926
            1549     847.822E-06     106.774E-03     159.490E-03     66.1706E-03    -294.877E-03     157.508E-03    -292.895E-03     66.1706E-03    -10.6978E-03     328.797E-03    -163.290E-03    -165.499E-03    -165.222E-03     328.793E-03    -163.564E-03     1.87354E-03    -139.319E+06    -145.172E+06    -302.703E+06    -143.118E+06    -302.681E+06    -141.394E+06     1.48085E+06         45.4763
            1550     1.69537E-03     106.778E-03     127.606E-03     113.115E-03    -308.166E-03     121.593E-03    -302.814E-03     113.777E-03    -31.8164E-03     328.705E-03    -163.726E-03    -165.041E-03    -164.372E-03     328.694E-03    -164.384E-03     3.71599E-03    -130.995E+06    -140.506E+06    -289.617E+06    -140.535E+06    -289.587E+06    -130.995E+06     2.02205E+06         45.4904
            1551     2.54618E-03     106.793E-03     141.151E-03     117.905E-03    -316.678E-03     135.385E-03    -311.575E-03     118.566E-03     3.95769E-03     327.174E-03    -162.672E-03    -164.438E-03    -162.955E-03     327.161E-03    -164.142E-03     4.77611E-03    -115.398E+06    -134.842E+06    -272.145E+06    -134.876E+06    -272.111E+06    -115.398E+06     2.10006E+06         45.5337
            1552     3.39622E-03     106.793E-03     152.491E-03     124.606E-03    -329.405E-03     150.044E-03    -326.958E-03     124.606E-03     28.9508E-03     326.417E-03    -162.569E-03    -163.888E-03    -162.573E-03     326.404E-03    -163.872E-03     4.65668E-03    -96.8992E+06    -127.187E+06    -250.661E+06    -127.258E+06    -250.590E+06    -96.8992E+06     2.60349E+06         45.6064
            1553     4.24635E-03     106.803E-03     147.830E-03     123.091E-03    -323.016E-03     140.587E-03    -321.709E-03     129.028E-03     8.38810E-03     327.452E-03    -163.369E-03    -164.261E-03    -163.670E-03     327.424E-03    -163.932E-03     7.26944E-03    -76.2033E+06    -118.568E+06    -226.017E+06    -118.693E+06    -225.892E+06    -76.2033E+06     3.25695E+06         45.7083
            1554     5.09349E-03     106.816E-03     138.890E-03     123.255E-03    -315.260E-03     131.148E-03    -314.597E-03     130.333E-03     11.7003E-03     328.283E-03    -163.603E-03    -164.589E-03    -164.065E-03     328.220E-03    -164.064E-03     10.9290E-03    -54.6186E+06    -109.340E+06    -199.106E+06    -109.490E+06    -198.957E+06    -54.6186E+06     3.29772E+06         45.8110
            1555     5.94260E-03     106.830E-03     133.088E-03     122.643E-03    -310.962E-03     125.048E-03    -310.384E-03     130.105E-03    -11.3347E-03     327.303E-03    -162.969E-03    -164.339E-03    -163.077E-03     327.199E-03    -164.126E-03     14.2224E-03      -34.05E+06    -99.3960E+06    -170.583E+06    -99.6000E+06    -170.379E+06      -34.05E+06     3.36540E+06         45.8799
            1556     6.79321E-03     106.844E-03     129.783E-03     107.377E-03    -295.804E-03     108.347E-03    -295.554E-03     128.563E-03    -8.54485E-03     327.051E-03    -163.229E-03    -164.230E-03    -163.116E-03     326.905E-03    -164.196E-03     16.8600E-03    -14.8501E+06    -89.8458E+06    -141.446E+06    -90.1135E+06    -141.179E+06    -14.8501E+06     3.46047E+06         45.9607
            1557     7.64198E-03     106.870E-03     125.937E-03     100.561E-03    -282.186E-03     99.1261E-03    -280.751E-03     125.937E-03     30.6319E-03     327.595E-03    -163.749E-03    -164.068E-03    -163.610E-03     327.423E-03    -164.034E-03     18.3523E-03     2.83420E+06    -79.8373E+06    -112.902E+06    -80.3659E+06    -112.373E+06     2.83420E+06     3.67853E+06         46.2342
            1558     8.49198E-03     106.891E-03     123.404E-03     101.109E-03    -277.006E-03     99.0571E-03    -274.953E-03     123.404E-03     11.3643E-03     328.238E-03    -163.812E-03    -164.115E-03    -163.741E-03     327.950E-03    -163.898E-03     23.2992E-03     18.7414E+06    -65.3803E+06    -84.0478E+06    -70.0549E+06    -79.3733E+06     18.7414E+06     4.92298E+06         46.9760
            1559     9.34259E-03     106.931E-03     120.015E-03     69.3459E-03    -281.062E-03     67.1354E-03    -278.851E-03     120.015E-03     8.37988E-03     329.182E-03    -163.923E-03    -164.754E-03    -164.338E-03     328.767E-03    -163.923E-03     28.6071E-03     32.2347E+06    -36.9491E+06    -64.0011E+06    -60.8236E+06    -40.1266E+06     32.2347E+06     6.33087E+06         48.3539
            1560     10.1873E-03     106.966E-03     222.733E-03     81.5341E-03    -287.122E-03     181.928E-03    -285.201E-03     120.418E-03     11.5690E-03     329.186E-03    -163.909E-03    -164.886E-03    -164.194E-03     328.673E-03    -164.087E-03     31.7199E-03     44.4403E+06     2.41526E+06    -53.2914E+06    -51.2076E+06     331.466E+03     44.4403E+06     7.73416E+06         50.3710
            1561     11.0382E-03     107.012E-03     220.462E-03    -40.8182E-03    -334.352E-03    -11.8458E-03    -261.009E-03     118.147E-03    -37.8560E-03     328.386E-03    -163.752E-03    -164.622E-03    -163.451E-03     327.717E-03    -164.253E-03     36.2323E-03     73.2829E+06     44.1432E+06    -42.2215E+06    -40.9117E+06     57.7956E+06     58.3207E+06     7.20202E+06         52.9908
            1562     11.8877E-03     107.064E-03     390.865E-03    -44.4901E-03    -331.972E-03     144.506E-03    -244.578E-03     114.475E-03     77.1734E-03     327.970E-03    -163.790E-03    -164.505E-03    -163.153E-03     327.149E-03    -164.321E-03     40.1016E-03     104.826E+06     74.8582E+06    -33.9076E+06    -33.4568E+06     104.375E+06     74.8582E+06     5.81868E+06         56.1844
            1563     12.7375E-03     107.125E-03     405.367E-03     29.0524E-03    -491.669E-03     68.3111E-03    -239.773E-03     114.212E-03    -36.2081E-03     327.261E-03    -163.416E-03    -164.375E-03    -162.385E-03     326.105E-03    -164.249E-03     47.2516E-03     119.633E+06     96.1805E+06    -25.9310E+06    -25.7241E+06     119.427E+06     96.1805E+06     3.61955E+06         59.9296
            1564     13.5894E-03     107.194E-03     436.524E-03    -17.1772E-03    -488.044E-03     19.8725E-03    -198.463E-03     109.893E-03    -65.4577E-03     326.758E-03    -162.729E-03    -164.302E-03    -161.142E-03     325.046E-03    -164.177E-03     57.5143E-03     135.855E+06     125.017E+06    -17.8744E+06    -17.7988E+06     133.389E+06     127.408E+06     2.47117E+06         64.0031
            1565     14.4418E-03     107.274E-03     542.355E-03    -27.0752E-03    -599.618E-03     82.0454E-03    -272.971E-03     106.588E-03     119.992E-03     327.391E-03    -163.154E-03    -164.437E-03    -161.665E-03     325.669E-03    -164.205E-03     57.7884E-03     159.145E+06     151.034E+06    -9.89373E+06    -9.85062E+06     150.991E+06     159.145E+06     2.06538E+06         67.6076
            1566     848.702E-06     108.164E-03     187.323E-03     101.466E-03    -353.305E-03     183.848E-03    -350.562E-03     102.198E-03    -12.9219E-03     329.277E-03    -163.091E-03    -166.176E-03    -164.911E-03     329.263E-03    -164.342E-03     4.93451E-03    -140.923E+06    -145.381E+06    -307.418E+06    -143.188E+06    -307.395E+06    -143.139E+06     1.67983E+06         45.4760
            1567     1.69567E-03     108.171E-03     143.449E-03     139.242E-03    -342.228E-03     139.260E-03    -341.183E-03     142.385E-03     25.5129E-03     328.552E-03    -163.808E-03    -164.792E-03    -164.053E-03     328.536E-03    -164.531E-03     5.41661E-03    -131.999E+06    -141.505E+06    -291.787E+06    -141.552E+06    -291.740E+06    -131.999E+06     2.19092E+06         45.4738
            1568     2.54548E-03     108.174E-03     154.462E-03     130.729E-03    -338.370E-03     142.469E-03    -337.532E-03     141.884E-03     25.2184E-03     326.655E-03    -162.591E-03    -164.120E-03    -162.582E-03     326.646E-03    -164.120E-03     3.94355E-03    -115.429E+06    -135.856E+06    -273.308E+06    -135.901E+06    -273.263E+06    -115.429E+06     2.20923E+06         45.5043
            1569     3.39684E-03     108.182E-03     159.015E-03     126.010E-03    -333.677E-03     141.716E-03    -332.428E-03     142.060E-03     44.5033E-03     326.455E-03    -162.773E-03    -163.757E-03    -162.778E-03     326.444E-03    -163.740E-03     4.31081E-03    -96.2459E+06    -128.602E+06    -251.918E+06    -128.646E+06    -251.874E+06    -96.2459E+06     1.98780E+06         45.5780
            1570     4.24493E-03     108.189E-03     144.776E-03     119.834E-03    -316.286E-03     123.442E-03    -315.516E-03     140.398E-03     28.1022E-03     326.669E-03    -163.038E-03    -163.773E-03    -163.025E-03     326.639E-03    -163.757E-03     7.41215E-03    -75.5198E+06    -119.829E+06    -227.622E+06    -119.919E+06    -227.533E+06    -75.5198E+06     2.36012E+06         45.6797
            1571     5.09628E-03     108.204E-03     137.245E-03     119.512E-03    -311.496E-03     118.960E-03    -310.943E-03     137.245E-03     51.3510E-06     326.308E-03    -162.448E-03    -163.704E-03    -162.394E-03     326.254E-03    -163.704E-03     10.1462E-03    -54.1386E+06    -110.132E+06    -200.040E+06    -110.242E+06    -199.930E+06    -54.1386E+06     2.44338E+06         45.7751
            1572     5.94773E-03     108.214E-03     136.526E-03     128.049E-03    -319.299E-03     128.587E-03    -318.617E-03     135.306E-03    -7.52927E-03     326.644E-03    -162.892E-03    -163.685E-03    -162.809E-03     326.555E-03    -163.678E-03     13.0293E-03    -33.8404E+06    -100.401E+06    -171.793E+06    -100.554E+06    -171.640E+06    -33.8404E+06     2.59228E+06         45.8399
            1573     6.79559E-03     108.235E-03     135.456E-03     122.951E-03    -316.372E-03     123.741E-03    -315.942E-03     134.236E-03     2.24180E-03     327.215E-03    -163.647E-03    -163.944E-03    -163.543E-03     327.070E-03    -163.905E-03     16.7153E-03    -13.9737E+06    -89.8068E+06    -142.284E+06    -90.0407E+06    -142.050E+06    -13.9737E+06     2.88782E+06         45.9262
            1574     7.64474E-03     108.256E-03     132.728E-03     116.971E-03    -306.699E-03     116.102E-03    -305.829E-03     132.728E-03     22.2462E-03     327.343E-03    -163.595E-03    -164.193E-03    -163.793E-03     327.162E-03    -163.815E-03     18.8115E-03     4.53941E+06    -79.6329E+06    -112.837E+06    -79.9784E+06    -112.491E+06     4.53941E+06     2.75406E+06         46.2150
            1575     8.49346E-03     108.280E-03     130.734E-03     108.645E-03    -298.701E-03     107.291E-03    -297.347E-03     130.734E-03    -2.03798E-03     328.351E-03    -163.655E-03    -164.642E-03    -164.293E-03     328.052E-03    -163.705E-03     23.7498E-03     19.9123E+06    -67.5891E+06    -84.0327E+06    -70.0803E+06    -81.5415E+06     19.9123E+06     2.72098E+06         46.9675
            1576     9.34036E-03     108.318E-03     128.288E-03     97.7004E-03    -285.228E-03     96.6628E-03    -284.190E-03     128.288E-03    -1.84228E-03     329.242E-03    -163.783E-03    -164.917E-03    -164.500E-03     328.824E-03    -163.783E-03     28.7020E-03     33.9868E+06    -41.9200E+06    -62.0327E+06    -58.9495E+06    -45.0033E+06     33.9868E+06     4.44959E+06         48.3497
            1577     10.1923E-03     108.358E-03     148.771E-03     88.5242E-03    -271.266E-03     109.260E-03    -269.525E-03     126.295E-03    -9.25520E-03     329.160E-03    -163.878E-03    -164.797E-03    -164.308E-03     328.672E-03    -163.878E-03     30.9487E-03     47.5607E+06    -344.818E+03    -51.2477E+06    -49.7372E+06    -1.85528E+06     47.5607E+06     5.93473E+06         50.3716
            1578     11.0389E-03     108.401E-03     144.149E-03     10.5642E-03    -273.091E-03     16.7030E-03    -256.754E-03     121.673E-03     15.4662E-03     329.040E-03    -164.006E-03    -164.809E-03    -164.132E-03     328.363E-03    -164.006E-03     36.3237E-03     73.8262E+06     45.3482E+06    -43.0586E+06    -42.2713E+06     57.5606E+06     60.8265E+06     6.37305E+06         52.9948
            1579     11.8870E-03     108.455E-03     280.361E-03     30.4577E-03    -268.555E-03     170.690E-03    -247.974E-03     119.548E-03    -14.7352E-03     328.188E-03    -163.790E-03    -164.685E-03    -163.353E-03     327.324E-03    -164.258E-03     41.1626E-03     105.994E+06     76.9767E+06    -33.6718E+06    -33.2635E+06     105.586E+06     76.9767E+06     5.86205E+06         56.1908
            1580     12.7369E-03     108.510E-03     276.777E-03    -5.14474E-03    -442.334E-03    -46.7836E-03    -239.882E-03     115.964E-03    -19.9619E-03     326.360E-03    -162.661E-03    -164.193E-03    -161.532E-03     325.231E-03    -164.193E-03     46.7376E-03     121.613E+06     97.1232E+06    -26.0029E+06    -25.7734E+06     121.383E+06     97.1232E+06     5.18297E+06         59.9415
            1581     13.5893E-03     108.578E-03     454.160E-03    -9.75608E-03    -424.008E-03     135.399E-03    -226.355E-03     111.352E-03     12.7424E-03     326.352E-03    -162.417E-03    -164.219E-03    -160.966E-03     324.722E-03    -164.040E-03     56.1156E-03     135.805E+06     125.317E+06    -19.0610E+06    -18.9156E+06     134.800E+06     126.177E+06     4.44108E+06         64.0203
            1582     14.4415E-03     108.660E-03     452.876E-03    -30.9269E-03    -487.584E-03     37.1364E-03    -212.840E-03     110.068E-03    -92.6153E-03     327.438E-03    -163.125E-03    -164.532E-03    -161.884E-03     325.785E-03    -164.121E-03     56.6648E-03     159.920E+06     152.960E+06    -9.52936E+06    -9.48216E+06     154.070E+06     158.762E+06     2.26165E+06         67.6258
            1583     849.472E-06     109.553E-03     190.525E-03     129.473E-03    -379.073E-03     187.634E-03    -376.914E-03     130.205E-03    -49.5908E-03     328.748E-03    -163.116E-03    -165.631E-03    -163.675E-03     328.736E-03    -165.061E-03     3.40253E-03    -144.227E+06    -146.643E+06    -310.487E+06    -146.520E+06    -310.469E+06    -144.367E+06     562.790E+03         45.4598
            1584     1.69956E-03     109.559E-03     161.314E-03     154.021E-03    -368.468E-03     156.376E-03    -367.893E-03     158.384E-03    -22.2593E-03     327.246E-03    -163.046E-03    -164.244E-03    -163.130E-03     327.235E-03    -164.150E-03     3.23576E-03    -134.709E+06    -143.372E+06    -294.532E+06    -143.407E+06    -294.496E+06    -134.709E+06     1.74559E+06         45.4475
            1585     2.54722E-03     109.561E-03     154.577E-03     135.914E-03    -340.696E-03     134.997E-03    -339.779E-03     154.577E-03    -28.4962E-03     326.971E-03    -163.112E-03    -163.992E-03    -163.295E-03     326.962E-03    -163.800E-03     4.06021E-03    -117.671E+06    -137.605E+06    -275.800E+06    -137.673E+06    -275.732E+06    -117.671E+06     2.49944E+06         45.4682
            1586     3.39561E-03     109.565E-03     148.109E-03     123.888E-03    -322.154E-03     122.769E-03    -321.035E-03     148.109E-03    -11.8473E-03     326.603E-03    -162.876E-03    -163.812E-03    -163.050E-03     326.586E-03    -163.620E-03     5.67940E-03    -96.5913E+06    -129.822E+06    -252.313E+06    -129.891E+06    -252.244E+06    -96.5913E+06     2.36531E+06         45.5423
            1587     4.24665E-03     109.577E-03     151.595E-03     127.447E-03    -333.262E-03     134.366E-03    -332.544E-03     143.958E-03    -7.95179E-03     325.917E-03    -162.519E-03    -163.623E-03    -162.493E-03     325.891E-03    -163.623E-03     7.08348E-03    -75.1202E+06    -121.055E+06    -228.250E+06    -121.099E+06    -228.206E+06    -75.1202E+06     1.65349E+06         45.6446
            1588     5.09695E-03     109.584E-03     150.213E-03     129.812E-03    -337.731E-03     137.314E-03    -337.597E-03     142.576E-03    -6.25515E-03     325.967E-03    -162.415E-03    -163.492E-03    -162.373E-03     325.926E-03    -163.492E-03     8.85410E-03    -53.7160E+06    -111.220E+06    -200.929E+06    -111.284E+06    -200.865E+06    -53.7160E+06     1.58883E+06         45.7411
            1589     5.94644E-03     109.602E-03     140.695E-03     120.047E-03    -320.095E-03     119.791E-03    -319.839E-03     140.695E-03     8.74009E-03     326.309E-03    -162.737E-03    -163.435E-03    -162.667E-03     326.234E-03    -163.428E-03     12.0164E-03    -32.3387E+06    -100.949E+06    -171.889E+06    -101.040E+06    -171.798E+06    -32.3387E+06     1.86591E+06         45.8113
            1590     6.79709E-03     109.620E-03     137.562E-03     111.126E-03    -307.149E-03     110.594E-03    -306.617E-03     137.562E-03     2.52120E-03     326.354E-03    -162.927E-03    -163.708E-03    -162.815E-03     326.236E-03    -163.702E-03     15.1432E-03    -12.2949E+06    -90.2879E+06    -143.138E+06     -90.461E+06    -142.965E+06    -12.2949E+06     1.71345E+06         45.9032
            1591     7.64710E-03     109.644E-03     134.978E-03     118.959E-03    -309.712E-03     118.535E-03    -309.288E-03     134.978E-03    -948.964E-06     327.075E-03    -163.134E-03    -164.347E-03    -163.640E-03     326.890E-03    -163.657E-03     18.8384E-03     6.00743E+06    -79.6130E+06    -112.367E+06    -79.8364E+06    -112.144E+06     6.00743E+06     1.57480E+06         46.1997
            1592     8.49515E-03     109.669E-03     133.190E-03     116.963E-03    -307.281E-03     115.849E-03    -306.167E-03     133.190E-03    -23.1344E-03     328.513E-03    -163.545E-03    -165.058E-03    -164.752E-03     328.207E-03    -163.545E-03     24.3053E-03     21.8084E+06    -68.4502E+06    -82.9620E+06    -69.7075E+06    -81.7047E+06     21.8084E+06     1.01299E+06         46.9598
            1593     9.34470E-03     109.708E-03     131.319E-03     110.801E-03    -290.036E-03     109.575E-03    -288.811E-03     131.319E-03    -21.4262E-03     328.815E-03    -163.635E-03    -164.790E-03    -164.366E-03     328.390E-03    -163.635E-03     28.8210E-03     34.4401E+06    -46.3540E+06    -62.2884E+06    -59.7947E+06    -48.8477E+06     34.4401E+06     1.29545E+06         48.3483
            1594     10.1897E-03     109.747E-03     128.075E-03     75.5158E-03    -261.351E-03     74.3127E-03    -260.148E-03     128.075E-03    -4.60842E-03     328.729E-03    -163.743E-03    -164.489E-03    -163.951E-03     328.191E-03    -163.743E-03     32.3760E-03     46.7952E+06    -6.39224E+06    -50.5308E+06    -49.8708E+06    -7.05225E+06     46.7952E+06     4.44975E+06         50.3775
            1595     11.0405E-03     109.790E-03     123.613E-03     69.2411E-03    -253.514E-03     65.7053E-03    -249.978E-03     123.613E-03    -8.62449E-03     328.936E-03    -163.843E-03    -164.727E-03    -163.987E-03     328.196E-03    -163.843E-03     37.9569E-03     74.9136E+06     43.4069E+06    -41.8400E+06    -41.0469E+06     56.1040E+06     61.4233E+06     6.80239E+06         53.0074
            1596     11.8902E-03     109.845E-03     125.415E-03     99.8281E-03    -264.687E-03     90.9810E-03    -250.788E-03     120.363E-03     2.53309E-03     327.904E-03    -163.402E-03    -164.565E-03    -162.995E-03     327.028E-03    -164.095E-03     41.4544E-03     106.409E+06     78.1337E+06    -35.1176E+06    -34.6724E+06     105.964E+06     78.1337E+06     6.85848E+06         56.2087
            1597     12.7410E-03     109.896E-03     121.747E-03     54.8475E-03    -265.903E-03     37.2676E-03    -243.271E-03     116.695E-03    -3.92991E-03     326.566E-03    -162.814E-03    -163.998E-03    -161.681E-03     325.433E-03    -163.998E-03     46.7131E-03     122.544E+06     96.2141E+06    -27.8878E+06    -27.5232E+06     122.180E+06     96.2141E+06     7.27196E+06         59.9604
            1598     13.5917E-03     109.962E-03     171.202E-03     61.6161E-03    -261.534E-03     104.072E-03    -246.609E-03     113.821E-03     15.6136E-03     327.512E-03    -163.386E-03    -164.475E-03    -162.213E-03     325.740E-03    -163.877E-03     58.5395E-03     137.670E+06     124.211E+06    -19.4784E+06    -19.2583E+06     137.450E+06     124.211E+06     5.22971E+06         64.0375
            1599     14.4405E-03     110.049E-03     168.179E-03     5.90109E-03    -239.632E-03     15.3946E-03    -191.745E-03     110.798E-03     10.3382E-03     327.802E-03    -163.474E-03    -164.676E-03    -162.321E-03     326.052E-03    -164.079E-03     58.1702E-03     161.136E+06     155.255E+06    -10.3942E+06    -10.3617E+06     157.136E+06     159.222E+06     2.13121E+06         67.6468
            1600     845.157E-06     110.940E-03     182.271E-03     118.515E-03    -355.465E-03     175.969E-03    -353.355E-03     122.706E-03    -31.0916E-03     329.105E-03    -163.827E-03    -165.284E-03    -164.392E-03     329.103E-03    -164.717E-03     688.134E-06    -147.098E+06    -150.387E+06    -313.588E+06    -150.415E+06    -313.559E+06    -147.098E+06     885.999E+03         45.4248
            1601     1.69666E-03     110.942E-03     149.848E-03     136.035E-03    -337.452E-03     137.347E-03    -335.834E-03     146.919E-03     9.09542E-03     326.513E-03    -162.379E-03    -164.177E-03    -162.375E-03     326.509E-03    -164.177E-03     1.93698E-03    -136.267E+06    -145.796E+06    -296.858E+06    -145.815E+06    -296.840E+06    -136.267E+06     1.35518E+06         45.4204
            1602     2.54931E-03     110.948E-03     146.255E-03     129.668E-03    -327.658E-03     131.592E-03    -325.975E-03     142.648E-03    -2.08986E-03     326.121E-03    -162.475E-03    -163.788E-03    -162.659E-03     326.113E-03    -163.596E-03     3.89357E-03    -118.874E+06    -139.227E+06    -277.029E+06    -139.277E+06    -276.979E+06    -118.874E+06     1.77040E+06         45.4436
            1603     3.39790E-03     110.954E-03     153.081E-03     132.955E-03    -337.634E-03     143.894E-03    -336.618E-03     141.126E-03    -18.3451E-03     326.314E-03    -162.875E-03    -163.650E-03    -163.119E-03     326.300E-03    -163.392E-03     5.16385E-03    -97.7977E+06    -131.263E+06    -253.332E+06    -131.328E+06    -253.267E+06    -97.7977E+06     1.96468E+06         45.5154
            1604     4.24726E-03     110.957E-03     158.399E-03     136.425E-03    -346.078E-03     151.988E-03    -345.656E-03     142.415E-03    -21.6778E-03     326.115E-03    -163.006E-03    -163.567E-03    -163.088E-03     326.091E-03    -163.462E-03     6.61125E-03    -74.7695E+06    -122.092E+06    -227.975E+06    -122.135E+06    -227.933E+06    -74.7695E+06     1.43375E+06         45.6159
            1605     5.09698E-03     110.972E-03     150.715E-03     132.299E-03    -338.243E-03     139.826E-03    -338.133E-03     143.078E-03    -14.2179E-03     326.514E-03    -163.065E-03    -163.494E-03    -163.064E-03     326.474E-03    -163.455E-03     8.76286E-03    -52.2474E+06    -112.004E+06    -201.107E+06    -112.028E+06    -201.083E+06    -52.2474E+06     826.150E+03         45.7225
            1606     5.94728E-03     110.985E-03     141.249E-03     120.628E-03    -318.245E-03     120.040E-03    -317.657E-03     141.249E-03     7.72103E-03     326.135E-03    -162.559E-03    -163.396E-03    -162.485E-03     326.061E-03    -163.396E-03     11.8266E-03    -30.9329E+06    -101.302E+06    -172.310E+06    -101.363E+06    -172.248E+06    -30.9329E+06     751.952E+03         45.8025
            1607     6.79711E-03     111.006E-03     137.886E-03     110.103E-03    -301.981E-03     108.934E-03    -300.813E-03     137.886E-03    -7.30202E-03     325.755E-03    -162.401E-03    -163.615E-03    -162.288E-03     325.642E-03    -163.615E-03     14.8194E-03    -11.1145E+06    -90.8105E+06    -143.236E+06    -90.9386E+06    -143.108E+06    -11.1145E+06     857.816E+03         45.8898
            1608     7.64721E-03     111.026E-03     134.803E-03     113.053E-03    -297.556E-03     112.156E-03    -296.659E-03     134.803E-03    -9.41499E-03     326.745E-03    -163.004E-03    -164.230E-03    -163.420E-03     326.549E-03    -163.618E-03     19.2941E-03     6.40324E+06    -80.4958E+06    -112.830E+06    -80.7515E+06    -112.574E+06     6.40324E+06     557.419E+03         46.1808
            1609     8.49636E-03     111.061E-03     132.080E-03     104.270E-03    -289.216E-03     103.244E-03    -288.189E-03     132.080E-03    -5.36273E-03     327.710E-03    -163.454E-03    -164.525E-03    -164.210E-03     327.414E-03    -163.474E-03     24.0557E-03     21.8853E+06    -68.8680E+06    -83.0246E+06    -71.1202E+06    -80.7724E+06     21.8853E+06     299.943E+03         46.9485
            1610     9.34288E-03     111.094E-03     129.166E-03     99.0484E-03    -279.053E-03     98.2669E-03    -278.271E-03     129.166E-03    -19.4508E-03     327.539E-03    -163.296E-03    -163.972E-03    -163.383E-03     327.131E-03    -163.477E-03     28.1477E-03     33.9703E+06    -48.6412E+06    -63.2312E+06    -61.8771E+06    -49.9953E+06     33.9703E+06    -80.5463E+03         48.3510
            1611     10.1968E-03     111.134E-03     142.982E-03     95.3392E-03    -278.272E-03     110.842E-03    -277.814E-03     127.022E-03     17.7589E-03     327.838E-03    -163.343E-03    -164.004E-03    -163.248E-03     327.244E-03    -163.504E-03     34.0210E-03     44.9017E+06    -11.8310E+06    -52.2644E+06    -51.8979E+06    -12.1976E+06     44.9017E+06     368.542E+03         50.3927
            1612     11.0441E-03     111.179E-03     139.369E-03     34.8935E-03    -270.893E-03     47.9340E-03    -267.973E-03     123.409E-03    -14.2188E-03     328.466E-03    -163.595E-03    -164.453E-03    -163.681E-03     327.694E-03    -163.595E-03     38.9358E-03     69.1646E+06     39.3363E+06    -42.0957E+06    -41.7249E+06     48.8071E+06     59.3230E+06     5.23779E+06         53.0332
            1613     11.8925E-03     111.233E-03     244.493E-03     45.1476E-03    -263.479E-03     158.911E-03    -254.594E-03     121.845E-03     29.1184E-03     328.179E-03    -163.416E-03    -164.601E-03    -163.344E-03     327.331E-03    -163.826E-03     40.8083E-03     104.232E+06     76.9302E+06    -34.6517E+06    -33.6415E+06     103.222E+06     76.9302E+06     10.7467E+06         56.2413
            1614     12.7431E-03     111.281E-03     240.297E-03     16.2690E-03    -424.446E-03    -48.7190E-03    -236.810E-03     117.649E-03     17.7031E-03     327.778E-03    -163.322E-03    -164.532E-03    -163.026E-03     326.734E-03    -163.784E-03     45.0268E-03     126.950E+06     94.2955E+06    -28.7569E+06    -27.9582E+06     126.152E+06     94.2955E+06     9.23182E+06         59.9928
            1615     13.5934E-03     111.351E-03     443.460E-03     22.0066E-03    -394.718E-03     167.346E-03    -210.343E-03     113.744E-03    -20.2402E-03     327.815E-03    -163.631E-03    -164.603E-03    -162.757E-03     326.136E-03    -163.797E-03     56.8284E-03     141.441E+06     123.464E+06    -20.2111E+06    -20.0276E+06     141.257E+06     123.464E+06     4.90177E+06         64.0698
            1616     14.4449E-03     111.437E-03     440.312E-03    -35.0785E-03    -542.178E-03    -51.6022E-03    -195.939E-03     110.597E-03     92.5611E-03     327.493E-03    -163.388E-03    -164.437E-03    -162.132E-03     325.819E-03    -164.018E-03     56.7121E-03     163.972E+06     157.951E+06    -9.91629E+06    -9.87056E+06     160.688E+06     161.189E+06     2.43885E+06         67.6862
            1617     851.512E-06     112.331E-03     178.322E-03     98.9721E-03    -332.413E-03     170.284E-03    -328.567E-03     103.164E-03    -43.1149E-03     327.221E-03    -163.144E-03    -164.088E-03    -163.650E-03     327.219E-03    -163.580E-03     1.02145E-03    -148.035E+06    -152.709E+06    -315.271E+06    -151.409E+06    -315.253E+06    -149.353E+06     770.246E+03         45.3728
            1618     1.69854E-03     112.325E-03     149.021E-03     128.147E-03    -329.414E-03     138.850E-03    -328.245E-03     137.150E-03     38.3459E-03     327.056E-03    -162.899E-03    -164.186E-03    -163.422E-03     327.050E-03    -163.658E-03     2.44814E-03    -137.830E+06    -147.919E+06    -298.616E+06    -147.933E+06    -298.602E+06    -137.830E+06     610.112E+03         45.3913
            1619     2.54742E-03     112.331E-03     148.964E-03     133.550E-03    -334.384E-03     142.966E-03    -333.197E-03     138.361E-03     21.0096E-03     325.931E-03    -162.423E-03    -163.618E-03    -162.522E-03     325.920E-03    -163.508E-03     4.46229E-03    -120.209E+06    -141.395E+06    -278.480E+06    -141.417E+06    -278.458E+06    -120.209E+06     822.872E+03         45.4318
            1620     3.39893E-03     112.339E-03     153.963E-03     135.596E-03    -337.856E-03     148.668E-03    -337.168E-03     140.203E-03    -12.1893E-03     325.987E-03    -162.793E-03    -163.463E-03    -162.929E-03     325.975E-03    -163.316E-03     4.79806E-03    -98.2472E+06    -132.684E+06    -253.565E+06    -132.727E+06    -253.522E+06    -98.2472E+06     796.808E+03         45.5059
            1621     4.24782E-03     112.345E-03     149.097E-03     127.618E-03    -325.287E-03     135.757E-03    -325.079E-03     140.749E-03    -13.1934E-03     326.679E-03    -163.396E-03    -163.737E-03    -163.718E-03     326.661E-03    -163.396E-03     5.83183E-03    -74.6148E+06    -122.669E+06    -227.195E+06    -122.712E+06    -227.153E+06    -74.6148E+06     664.391E+03         45.6022
            1622     5.09712E-03     112.357E-03     139.025E-03     124.824E-03    -314.305E-03     124.770E-03    -314.251E-03     139.025E-03    -6.64074E-03     326.838E-03    -163.237E-03    -163.679E-03    -163.398E-03     326.805E-03    -163.486E-03     7.83423E-03    -51.3633E+06    -112.138E+06    -200.923E+06    -112.166E+06    -200.896E+06    -51.3633E+06     199.875E+03         45.7147
            1623     5.94599E-03     112.371E-03     139.364E-03     130.156E-03    -319.487E-03     131.182E-03    -318.505E-03     137.356E-03     25.3386E-03     326.164E-03    -162.626E-03    -163.490E-03    -162.571E-03     326.109E-03    -163.490E-03     10.1820E-03    -30.4449E+06    -101.698E+06    -173.023E+06    -101.758E+06    -172.964E+06    -30.4449E+06     151.410E+03         45.8026
            1624     6.79768E-03     112.388E-03     138.148E-03     123.550E-03    -312.196E-03     124.268E-03    -310.906E-03     136.140E-03     18.5861E-03     325.737E-03    -162.431E-03    -163.637E-03    -162.326E-03     325.632E-03    -163.637E-03     14.0397E-03    -10.9319E+06    -91.1440E+06    -143.079E+06    -91.3054E+06    -142.918E+06    -10.9319E+06     281.401E+03         45.8824
            1625     7.64720E-03     112.417E-03     133.925E-03     108.545E-03    -288.763E-03     107.961E-03    -288.178E-03     133.925E-03     2.20497E-03     326.201E-03    -162.841E-03    -163.894E-03    -162.912E-03     326.005E-03    -163.628E-03     19.3478E-03     6.71969E+06    -80.7596E+06    -112.873E+06    -81.0528E+06    -112.580E+06     6.71969E+06     85.5012E+03         46.1633
            1626     8.49566E-03     112.448E-03     130.669E-03     95.3286E-03    -273.950E-03     95.0155E-03    -273.637E-03     130.669E-03     16.5989E-03     326.333E-03    -162.927E-03    -163.744E-03    -162.914E-03     326.054E-03    -163.478E-03     23.3207E-03     21.7109E+06    -69.8356E+06    -83.2873E+06    -71.5151E+06    -81.6078E+06     21.7109E+06     510.404E+03         46.9392
            1627     9.34850E-03     112.481E-03     126.277E-03     70.5359E-03    -269.972E-03     69.9062E-03    -269.342E-03     126.277E-03    -8.87514E-03     326.693E-03    -162.871E-03    -163.683E-03    -162.803E-03     326.329E-03    -163.388E-03     26.5442E-03     34.2675E+06    -47.1587E+06    -64.5955E+06    -63.1184E+06    -48.6358E+06     34.2675E+06     497.094E+03         48.3590
            1628     10.1955E-03     112.519E-03     197.433E-03     90.4657E-03    -274.046E-03     161.760E-03    -273.087E-03     125.180E-03     3.55925E-03     327.236E-03    -163.022E-03    -163.869E-03    -163.020E-03     326.719E-03    -163.353E-03     31.6743E-03     44.0350E+06    -11.9459E+06    -56.2256E+06    -55.7564E+06    -12.4151E+06     44.0350E+06    -903.729E+03         50.4148
            1629     11.0469E-03     112.570E-03     193.707E-03    -28.5664E-03    -317.394E-03    -12.8523E-03    -260.855E-03     121.454E-03     11.9071E-03     327.445E-03    -163.176E-03    -163.841E-03    -162.910E-03     326.771E-03    -163.433E-03     36.2951E-03     57.1798E+06     33.0341E+06    -47.5292E+06    -47.2748E+06     36.0926E+06     53.8671E+06     1.98605E+06         53.0686
            1630     11.8974E-03     112.618E-03     392.518E-03    -31.8457E-03    -311.846E-03     178.339E-03    -247.687E-03     118.175E-03    -72.7829E-03     328.354E-03    -163.519E-03    -164.467E-03    -163.574E-03     327.548E-03    -163.605E-03     39.7584E-03     95.8521E+06     70.4735E+06    -37.4318E+06    -36.6519E+06     95.0722E+06     70.4735E+06     8.52357E+06         56.2890
            1631     12.7436E-03     112.676E-03     391.186E-03     14.7255E-03    -493.398E-03     19.3614E-03    -223.691E-03     116.843E-03     60.3534E-03     329.126E-03    -163.624E-03    -165.326E-03    -164.286E-03     328.086E-03    -163.624E-03     45.1427E-03     132.395E+06     92.9158E+06    -27.5009E+06    -26.5221E+06     131.416E+06     92.9158E+06     10.1779E+06         60.0487
            1632     13.5912E-03     112.737E-03     420.182E-03     7.78978E-03    -504.036E-03    -1.88423E-03    -184.087E-03     109.907E-03    -17.1429E-03     328.505E-03    -163.654E-03    -165.084E-03    -163.381E-03     326.916E-03    -163.768E-03     55.4623E-03     148.182E+06     124.921E+06    -19.4221E+06    -19.0133E+06     147.774E+06     124.921E+06     6.72146E+06         64.1313
            1633     14.4422E-03     112.825E-03     603.530E-03     17.2588E-03    -649.020E-03     147.563E-03    -283.073E-03     107.279E-03    -116.575E-03     326.979E-03    -162.865E-03    -164.293E-03    -161.556E-03     325.382E-03    -164.005E-03     55.4610E-03     168.353E+06     159.104E+06    -10.8003E+06    -10.7431E+06     164.896E+06     162.504E+06     2.54752E+06         67.7534
            1634     850.014E-06     113.712E-03     176.416E-03     81.6295E-03    -311.762E-03     171.395E-03    -309.244E-03     84.1323E-03    -18.8362E-03     324.944E-03    -161.860E-03    -163.098E-03    -162.594E-03     324.942E-03    -162.363E-03     1.33796E-03    -149.583E+06    -154.076E+06    -315.825E+06    -152.761E+06    -315.821E+06    -150.901E+06    -460.105E+03         45.3229
            1635     1.70029E-03     113.714E-03     150.664E-03     129.332E-03    -331.668E-03     147.863E-03    -331.370E-03     131.835E-03     13.7179E-03     326.786E-03    -162.847E-03    -163.906E-03    -163.902E-03     326.782E-03    -162.847E-03     1.52880E-03    -138.373E+06    -148.545E+06    -299.001E+06    -148.548E+06    -298.997E+06    -138.373E+06    -212.382E+03         45.3615
            1636     2.54937E-03     113.714E-03     151.971E-03     137.721E-03    -341.022E-03     151.116E-03    -340.464E-03     138.017E-03     2.86283E-03     326.520E-03    -162.963E-03    -163.644E-03    -163.323E-03     326.509E-03    -163.272E-03     4.12841E-03    -120.470E+06    -142.081E+06    -278.710E+06    -142.103E+06    -278.688E+06    -120.470E+06    -182.830E+03         45.4268
            1637     3.39838E-03     113.723E-03     140.941E-03     129.677E-03    -322.912E-03     130.863E-03    -322.292E-03     139.136E-03    -13.9045E-03     326.237E-03    -163.013E-03    -163.474E-03    -163.146E-03     326.218E-03    -163.323E-03     6.10595E-03    -99.0690E+06    -133.714E+06    -253.551E+06    -133.745E+06    -253.521E+06    -99.0690E+06    -288.347E+03         45.5113
            1638     4.24741E-03     113.734E-03     136.580E-03     122.066E-03    -307.036E-03     121.704E-03    -306.673E-03     136.580E-03     4.12749E-03     326.884E-03    -163.338E-03    -163.748E-03    -163.724E-03     326.860E-03    -163.338E-03     6.63658E-03    -75.3950E+06    -123.804E+06    -227.280E+06    -123.843E+06    -227.241E+06    -75.3950E+06    -492.891E+03         45.6041
            1639     5.09549E-03     113.742E-03     134.258E-03     124.965E-03    -303.997E-03     124.672E-03    -303.705E-03     134.258E-03    -6.57956E-03     327.082E-03    -163.301E-03    -163.888E-03    -163.712E-03     327.048E-03    -163.442E-03     8.01962E-03    -52.6686E+06    -113.548E+06    -200.909E+06    -113.595E+06    -200.862E+06    -52.6686E+06    -399.972E+03         45.7162
            1640     5.94598E-03     113.757E-03     134.925E-03     124.798E-03    -305.401E-03     126.054E-03    -304.649E-03     132.917E-03     7.80424E-03     326.946E-03    -163.180E-03    -163.869E-03    -163.409E-03     326.895E-03    -163.589E-03     9.94185E-03    -30.9917E+06    -102.827E+06    -173.233E+06    -102.923E+06    -173.137E+06    -30.9917E+06    -320.261E+03         45.8102
            1641     6.79457E-03     113.774E-03     133.646E-03     119.019E-03    -301.905E-03     120.485E-03    -301.363E-03     131.638E-03     15.5172E-03     326.384E-03    -162.779E-03    -163.848E-03    -162.826E-03     326.290E-03    -163.707E-03     13.2615E-03    -11.1159E+06    -91.9308E+06    -142.996E+06    -92.0957E+06    -142.832E+06    -11.1159E+06    -434.633E+03         45.8859
            1642     7.64482E-03     113.803E-03     129.784E-03     111.457E-03    -289.690E-03     111.329E-03    -289.562E-03     129.784E-03     4.18011E-03     325.566E-03    -162.358E-03    -163.687E-03    -162.185E-03     325.393E-03    -163.687E-03     18.2045E-03     6.42408E+06    -81.6676E+06    -113.056E+06    -81.9578E+06    -112.766E+06     6.42408E+06    -311.139E+03         46.1577
            1643     8.49682E-03     113.833E-03     129.138E-03     110.377E-03    -275.749E-03     111.553E-03    -275.608E-03     127.821E-03     12.3728E-03     325.795E-03    -162.605E-03    -163.638E-03    -162.402E-03     325.563E-03    -163.608E-03     21.2878E-03     21.2176E+06    -71.0860E+06    -84.7349E+06    -72.1310E+06    -83.6900E+06     21.2176E+06     480.824E+03         46.9392
            1644     9.34520E-03     113.866E-03     123.579E-03     20.6890E-03    -260.663E-03     20.8453E-03    -259.503E-03     122.262E-03    -14.5444E-03     326.900E-03    -163.175E-03    -163.844E-03    -163.195E-03     326.594E-03    -163.519E-03     24.3584E-03     34.1613E+06    -46.5406E+06    -65.0636E+06    -63.0334E+06    -48.5708E+06     34.1613E+06     1.67999E+06         48.3726
            1645     10.1955E-03     113.909E-03     275.131E-03     25.8904E-03    -248.823E-03     178.817E-03    -246.522E-03     119.905E-03    -47.0968E-03     327.068E-03    -163.063E-03    -163.774E-03    -162.947E-03     326.657E-03    -163.479E-03     28.2181E-03     44.9985E+06    -11.0046E+06    -56.3591E+06    -55.7496E+06    -11.6141E+06     44.9985E+06     2.27698E+06         50.4406
            1646     11.0453E-03     113.950E-03     273.815E-03    -26.7196E-03    -341.328E-03     24.4520E-03    -237.273E-03     118.588E-03     53.2882E-03     326.852E-03    -162.838E-03    -163.552E-03    -162.257E-03     326.271E-03    -163.552E-03     33.4117E-03     53.0638E+06     29.2898E+06    -50.8653E+06    -50.3387E+06     29.3663E+06     52.4608E+06     2.67339E+06         53.1079
            1647     11.8950E-03     114.008E-03     259.765E-03    -73.7517E-03    -370.918E-03    -77.3755E-03    -215.598E-03     108.069E-03    -71.9408E-03     326.999E-03    -162.674E-03    -163.903E-03    -162.245E-03     326.257E-03    -163.590E-03     38.0780E-03     88.8616E+06     64.1428E+06    -43.5438E+06    -43.4050E+06     87.5433E+06     65.3225E+06     3.69788E+06         56.3458
            1648     12.7463E-03     114.063E-03     647.013E-03     49.0611E-03    -372.645E-03     445.271E-03    -234.052E-03     112.210E-03     16.2033E-03     327.842E-03    -162.880E-03    -164.642E-03    -162.927E-03     326.737E-03    -163.490E-03     46.0262E-03     131.389E+06     85.6004E+06    -33.1819E+06    -32.7702E+06     130.977E+06     85.6004E+06     5.20616E+06         60.1305
            1649     13.5950E-03     114.132E-03     496.518E-03    -13.5124E-03        -1.05804    -429.847E-03    -251.604E-03     106.413E-03     69.7195E-03     328.908E-03    -163.662E-03    -165.411E-03    -163.770E-03     327.267E-03    -163.662E-03     56.7022E-03     151.495E+06     121.218E+06    -20.4077E+06    -19.9872E+06     151.074E+06     121.218E+06     5.53954E+06         64.2310
            1650     14.4437E-03     114.206E-03         1.23981     26.2181E-03    -943.513E-03     417.349E-03    -193.573E-03     98.7354E-03    -301.024E-03     327.704E-03    -163.175E-03    -164.871E-03    -162.479E-03     326.098E-03    -163.961E-03     55.9419E-03     172.714E+06     162.517E+06    -8.43086E+06    -8.32857E+06     169.839E+06     165.290E+06     3.69074E+06         67.8505
            1651     851.674E-06     115.095E-03     204.743E-03     70.6417E-03    -329.496E-03     195.338E-03    -329.002E-03     79.5524E-03     18.3485E-03     324.069E-03    -161.673E-03    -162.409E-03    -162.115E-03     324.062E-03    -161.960E-03     3.47975E-03    -150.913E+06    -154.888E+06    -314.612E+06    -154.278E+06    -314.605E+06    -151.529E+06    -987.335E+03         45.2957
            1652     1.70026E-03     115.099E-03     141.696E-03     117.333E-03    -310.837E-03     123.879E-03    -310.425E-03     134.739E-03    -1.30279E-03     325.956E-03    -162.350E-03    -163.462E-03    -163.458E-03     325.952E-03    -162.350E-03     2.61277E-03    -139.975E+06    -149.810E+06    -298.993E+06    -149.822E+06    -298.982E+06    -139.975E+06    -929.559E+03         45.3482
            1653     2.54935E-03     115.101E-03     138.162E-03     119.842E-03    -311.363E-03     126.407E-03    -310.971E-03     131.204E-03     1.32927E-03     326.913E-03    -162.992E-03    -163.938E-03    -163.928E-03     326.903E-03    -162.992E-03     3.91753E-03    -121.787E+06    -143.154E+06    -278.379E+06    -143.174E+06    -278.359E+06    -121.787E+06    -952.935E+03         45.4362
            1654     3.39864E-03     115.109E-03     132.213E-03     122.242E-03    -307.990E-03     124.285E-03    -307.484E-03     129.664E-03    -3.69693E-03     326.659E-03    -163.243E-03    -163.633E-03    -163.529E-03     326.639E-03    -163.327E-03     6.29313E-03    -100.083E+06    -134.947E+06    -253.625E+06    -134.980E+06    -253.593E+06    -100.083E+06    -997.047E+03         45.5285
            1655     4.24818E-03     115.120E-03     131.040E-03     122.288E-03    -301.380E-03     124.306E-03    -300.850E-03     128.491E-03    -1.72092E-03     326.348E-03    -162.972E-03    -163.451E-03    -163.118E-03     326.319E-03    -163.276E-03     7.41976E-03    -76.6335E+06    -125.671E+06    -227.026E+06    -125.718E+06    -226.979E+06    -76.6335E+06    -852.529E+03         45.6161
            1656     5.09768E-03     115.131E-03     127.319E-03     119.583E-03    -289.966E-03     119.267E-03    -289.650E-03     127.319E-03    -10.8876E-03     326.750E-03    -163.093E-03    -163.917E-03    -163.647E-03     326.701E-03    -163.314E-03     9.64108E-03    -53.5468E+06    -115.234E+06    -200.384E+06    -115.331E+06    -200.287E+06    -53.5468E+06    -1.15748E+06         45.7276
            1657     5.94501E-03     115.143E-03     125.367E-03     109.220E-03    -277.144E-03     108.817E-03    -276.740E-03     125.367E-03    -3.56112E-03     327.741E-03    -163.523E-03    -164.445E-03    -164.364E-03     327.660E-03    -163.523E-03     12.4470E-03    -31.7219E+06    -104.127E+06    -172.935E+06    -104.248E+06    -172.814E+06    -31.7219E+06    -1.61412E+06         45.8250
            1658     6.79350E-03     115.163E-03     122.675E-03     101.086E-03    -276.574E-03     100.756E-03    -276.244E-03     122.675E-03    -2.05544E-03     327.875E-03    -163.379E-03    -164.590E-03    -164.142E-03     327.758E-03    -163.710E-03     14.9681E-03    -11.8563E+06    -93.1942E+06    -143.699E+06    -93.3604E+06    -143.533E+06    -11.8563E+06    -1.27469E+06         45.8976
            1659     7.64311E-03     115.184E-03     120.304E-03     106.239E-03    -279.108E-03     105.994E-03    -278.863E-03     120.304E-03    -10.6766E-03     327.110E-03    -163.070E-03    -164.388E-03    -163.430E-03     326.956E-03    -163.874E-03     17.3235E-03     5.83771E+06    -82.6381E+06    -113.868E+06    -82.9767E+06    -113.529E+06     5.83771E+06    -461.693E+03         46.1638
            1660     8.49299E-03     115.219E-03     148.923E-03     118.026E-03    -269.116E-03     146.345E-03    -269.073E-03     120.561E-03     2.20994E-03     326.616E-03    -162.994E-03    -164.094E-03    -162.932E-03     326.418E-03    -163.957E-03     19.6507E-03     20.5475E+06    -71.7300E+06    -86.6071E+06    -73.0387E+06    -85.2984E+06     20.5475E+06    -115.257E+03         46.9478
            1661     9.34319E-03     115.255E-03     143.626E-03    -33.7954E-03    -265.992E-03    -24.4104E-03    -247.015E-03     115.264E-03     6.38692E-03     326.497E-03    -162.922E-03    -163.881E-03    -162.666E-03     326.212E-03    -163.851E-03     23.5101E-03     32.4797E+06    -49.0629E+06    -67.3330E+06    -63.4930E+06    -52.9029E+06     32.4797E+06     1.49082E+06         48.3911
            1662     10.1917E-03     115.295E-03     294.130E-03    -39.9974E-03    -256.709E-03     120.655E-03    -232.292E-03     109.062E-03    -77.9862E-03     326.947E-03    -163.056E-03    -163.753E-03    -162.689E-03     326.561E-03    -163.733E-03     27.4319E-03     45.0356E+06    -12.5173E+06    -55.3835E+06    -54.6009E+06    -13.2999E+06     45.0356E+06     4.24084E+06         50.4715
            1663     11.0423E-03     115.339E-03     404.093E-03     54.5435E-03    -293.202E-03     282.543E-03    -232.846E-03     115.738E-03     61.2833E-03     327.096E-03    -162.918E-03    -163.810E-03    -162.394E-03     326.552E-03    -163.790E-03     32.3328E-03     55.0795E+06     28.9542E+06    -47.2099E+06    -46.5968E+06     28.3410E+06     55.0795E+06     5.14812E+06         53.1513
            1664     11.8938E-03     115.394E-03     204.934E-03    -75.4892E-03    -715.660E-03    -469.382E-03    -218.481E-03     101.648E-03     54.9834E-03     326.030E-03    -161.994E-03    -163.771E-03    -161.319E-03     325.356E-03    -163.771E-03     36.2064E-03     91.2698E+06     64.8929E+06    -39.7584E+06    -39.4628E+06     87.2128E+06     68.6543E+06     3.95178E+06         56.4043
            1665     12.7459E-03     115.446E-03         1.27569    -14.7195E-03    -662.652E-03     714.412E-03    -217.321E-03     101.223E-03    -145.740E-03     326.576E-03    -162.453E-03    -163.861E-03    -161.716E-03     325.573E-03    -163.595E-03     43.6229E-03     130.222E+06     86.2929E+06    -31.5064E+06    -31.4349E+06     130.151E+06     86.2929E+06     1.45196E+06         60.2089
            1666     13.5978E-03     115.522E-03         1.27828    -55.8919E-03        -1.80621    -451.481E-03    -236.157E-03     103.815E-03     77.1738E-03     327.351E-03    -163.022E-03    -164.560E-03    -162.524E-03     325.963E-03    -163.672E-03     51.9306E-03     149.040E+06     117.565E+06    -22.4158E+06    -22.3458E+06     148.970E+06     117.565E+06     1.80949E+06         64.3259
            1667     14.4463E-03     115.596E-03         1.98820    -48.0689E-03        -1.68276     249.266E-03    -82.7566E-03     90.8661E-03     81.6388E-03     327.020E-03    -162.984E-03    -164.515E-03    -162.209E-03     325.623E-03    -163.892E-03     52.1843E-03     174.475E+06     162.798E+06    -11.5019E+06    -11.4246E+06     173.282E+06     163.914E+06     2.85842E+06         67.9502
            1668     849.943E-06     116.475E-03     212.828E-03     33.5444E-03    -290.718E-03     205.729E-03    -290.028E-03     39.9523E-03    -15.8282E-03     323.416E-03    -161.478E-03    -161.957E-03    -161.916E-03     323.405E-03    -161.508E-03     4.35220E-03    -151.645E+06    -156.047E+06    -312.438E+06    -155.441E+06    -312.427E+06    -152.261E+06    -448.012E+03         45.2950
            1669     1.70186E-03     116.481E-03     134.256E-03     106.933E-03    -287.990E-03     118.792E-03    -287.428E-03     121.836E-03    -24.3264E-03     325.166E-03    -161.978E-03    -163.075E-03    -163.057E-03     325.155E-03    -161.984E-03     4.62690E-03    -140.540E+06    -151.507E+06    -297.734E+06    -151.520E+06    -297.721E+06    -140.540E+06    -1.28975E+06         45.3529
            1670     2.55044E-03     116.487E-03     121.879E-03     103.284E-03    -276.178E-03     105.783E-03    -275.592E-03     118.794E-03    -8.47840E-03     327.050E-03    -162.737E-03    -164.344E-03    -164.330E-03     327.036E-03    -162.737E-03     5.16761E-03    -122.595E+06    -145.040E+06    -278.464E+06    -145.064E+06    -278.440E+06    -122.595E+06    -1.39043E+06         45.4497
            1671     3.39824E-03     116.495E-03     118.227E-03     106.830E-03    -277.052E-03     108.807E-03    -276.480E-03     115.678E-03    -7.37453E-03     326.763E-03    -162.996E-03    -163.924E-03    -163.626E-03     326.744E-03    -163.275E-03     6.06743E-03    -100.328E+06    -136.597E+06    -253.501E+06    -136.630E+06    -253.468E+06    -100.328E+06    -1.28035E+06         45.5423
            1672     4.24773E-03     116.504E-03     120.680E-03     112.432E-03    -280.688E-03     117.728E-03    -280.284E-03     114.980E-03    -17.5692E-03     325.877E-03    -162.715E-03    -163.237E-03    -162.684E-03     325.845E-03    -163.237E-03     7.69484E-03    -76.6833E+06    -126.643E+06    -226.343E+06    -126.707E+06    -226.278E+06    -76.6833E+06    -1.34136E+06         45.6295
            1673     5.09853E-03     116.516E-03     120.031E-03     111.198E-03    -276.601E-03     115.920E-03    -276.464E-03     115.172E-03    -10.2289E-03     326.272E-03    -163.008E-03    -163.651E-03    -163.351E-03     326.214E-03    -163.251E-03     10.4565E-03    -53.0216E+06    -115.677E+06    -198.653E+06    -115.789E+06    -198.541E+06    -53.0216E+06    -1.97846E+06         45.7420
            1674     5.94827E-03     116.534E-03     116.039E-03     102.583E-03    -264.722E-03     103.871E-03    -264.302E-03     114.331E-03     4.18063E-03     327.715E-03    -163.438E-03    -164.629E-03    -164.541E-03     327.627E-03    -163.438E-03     13.0122E-03    -31.7345E+06    -104.608E+06    -172.142E+06    -104.822E+06    -171.928E+06    -31.7345E+06    -2.80824E+06         45.8345
            1675     6.79590E-03     116.550E-03     111.620E-03     83.4736E-03    -250.960E-03     82.8122E-03    -250.299E-03     111.620E-03    -1.55098E-03     328.689E-03    -163.672E-03    -165.193E-03    -165.060E-03     328.556E-03    -163.672E-03     16.0269E-03    -12.2094E+06    -93.4740E+06    -144.897E+06    -93.7117E+06    -144.660E+06    -12.2094E+06    -2.58159E+06         45.9012
            1676     7.64130E-03     116.578E-03     108.022E-03     79.8066E-03    -245.406E-03     79.3802E-03    -244.979E-03     108.022E-03    -13.9640E-03     328.576E-03    -163.978E-03    -164.906E-03    -164.698E-03     328.368E-03    -163.978E-03     19.8665E-03     5.57171E+06    -82.1508E+06    -115.576E+06    -82.5647E+06    -115.162E+06     5.57171E+06    -1.56165E+06         46.1683
            1677     8.48772E-03     116.603E-03     192.280E-03     101.315E-03    -246.126E-03     183.625E-03    -246.029E-03     109.873E-03     7.29755E-03     327.505E-03    -163.526E-03    -164.337E-03    -163.410E-03     327.191E-03    -164.140E-03     24.0999E-03     20.6741E+06    -70.8608E+06    -87.3478E+06    -72.2680E+06    -85.9405E+06     20.6741E+06    -594.483E+03         46.9614
            1678     9.33876E-03     116.641E-03     190.121E-03    -50.4612E-03    -288.343E-03    -16.0359E-03    -240.361E-03     107.714E-03     48.5905E-03     326.623E-03    -162.833E-03    -164.034E-03    -162.423E-03     326.213E-03    -164.034E-03     27.8723E-03     32.0954E+06    -52.8875E+06    -66.9329E+06    -62.7360E+06    -57.0844E+06     32.0954E+06     379.158E+03         48.4176
            1679     10.1913E-03     116.680E-03     181.734E-03    -74.5305E-03    -287.154E-03    -51.9571E-03    -223.592E-03     95.5983E-03    -62.2555E-03     327.288E-03    -163.277E-03    -164.026E-03    -162.924E-03     326.774E-03    -163.865E-03     31.5414E-03     43.7753E+06    -17.2963E+06    -54.1101E+06    -52.9778E+06    -18.4287E+06     43.7753E+06     2.65774E+06         50.5112
            1680     11.0397E-03     116.728E-03     635.661E-03     96.0232E-03    -250.251E-03     601.225E-03    -227.769E-03     107.977E-03    -44.8781E-03     328.031E-03    -163.508E-03    -164.322E-03    -163.318E-03     327.442E-03    -163.923E-03     33.9906E-03     56.0548E+06     27.3881E+06    -44.3307E+06    -43.8199E+06     26.8773E+06     56.0548E+06     4.96616E+06         53.2028
            1681     11.8902E-03     116.774E-03     540.437E-03    -53.6341E-03        -1.30515    -678.028E-03    -239.207E-03     98.8886E-03     79.0037E-03     327.537E-03    -163.044E-03    -164.246E-03    -162.636E-03     326.875E-03    -163.991E-03     35.9621E-03     96.0244E+06     64.3897E+06    -36.4444E+06    -36.1141E+06     89.6468E+06     70.4369E+06     4.65745E+06         56.4640
            1682     12.7409E-03     116.835E-03         1.87913    -62.5479E-03        -1.19986     660.838E-03    -134.097E-03     89.9748E-03     58.4393E-03     326.947E-03    -162.716E-03    -163.996E-03    -161.803E-03     325.949E-03    -163.912E-03     43.6733E-03     134.608E+06     92.5390E+06    -28.6509E+06    -28.5617E+06     134.519E+06     92.5390E+06     2.79865E+06         60.2738
            1683     13.5887E-03     116.907E-03         1.88310     7.88648E-03        -2.24657    -366.751E-03    -82.7755E-03     93.9481E-03    -154.948E-03     325.969E-03    -162.083E-03    -164.012E-03    -160.792E-03     324.610E-03    -163.944E-03     51.2468E-03     149.056E+06     125.417E+06    -20.8285E+06    -20.7937E+06     149.021E+06     125.417E+06     2.25519E+06         64.4004
            1684     14.4450E-03     116.980E-03         2.60755     749.844E-06        -2.51179     359.350E-03    -349.657E-03     86.8115E-03     22.4368E-03     325.872E-03    -162.120E-03    -163.994E-03    -160.725E-03     324.478E-03    -163.994E-03     51.9722E-03     174.535E+06     165.250E+06    -10.7804E+06    -10.7583E+06     172.786E+06     166.977E+06     1.11947E+06         68.0403
            1685     851.707E-06     117.855E-03     184.042E-03     15.9746E-03    -243.461E-03     176.043E-03    -241.233E-03     21.7454E-03     7.41065E-03     324.290E-03    -161.711E-03    -162.597E-03    -162.083E-03     324.285E-03    -162.221E-03     2.48887E-03    -153.282E+06    -157.804E+06    -311.885E+06    -157.092E+06    -311.874E+06    -154.006E+06     19.2895E+03         45.3190
            1686     1.70149E-03     117.863E-03     119.629E-03     96.0127E-03    -261.281E-03     113.244E-03    -260.666E-03     101.784E-03    -5.90413E-03     324.910E-03    -162.125E-03    -162.852E-03    -162.684E-03     324.900E-03    -162.283E-03     4.04285E-03    -139.800E+06    -152.556E+06    -296.285E+06    -152.562E+06    -296.279E+06    -139.800E+06    -439.959E+03         45.3728
            1687     2.55080E-03     117.874E-03     116.716E-03     101.125E-03    -266.522E-03     111.341E-03    -265.591E-03     105.568E-03     18.7248E-03     325.642E-03    -162.170E-03    -163.568E-03    -163.078E-03     325.627E-03    -162.645E-03     5.31729E-03    -120.412E+06    -145.625E+06    -277.225E+06    -145.643E+06    -277.207E+06    -120.412E+06    -1.23489E+06         45.4616
            1688     3.39951E-03     117.881E-03     108.049E-03     94.8978E-03    -252.911E-03     96.7624E-03    -252.138E-03     105.411E-03     22.4120E-03     326.234E-03    -162.475E-03    -163.801E-03    -163.260E-03     326.211E-03    -162.994E-03     6.59718E-03    -99.0696E+06    -137.028E+06    -252.982E+06    -137.060E+06    -252.950E+06    -99.0696E+06    -1.40896E+06         45.5511
            1689     4.25000E-03     117.887E-03     106.423E-03     90.3355E-03    -245.635E-03     93.1246E-03    -245.273E-03     103.272E-03     8.81124E-03     326.846E-03    -162.921E-03    -163.980E-03    -163.730E-03     326.812E-03    -163.138E-03     7.99520E-03    -76.0439E+06    -127.123E+06    -225.122E+06    -127.185E+06     -225.06E+06    -76.0439E+06    -1.87472E+06         45.6436
            1690     5.09829E-03     117.902E-03     106.765E-03     94.2122E-03    -248.721E-03     98.8497E-03    -248.500E-03     101.906E-03     2.50575E-03     326.959E-03    -163.346E-03    -163.979E-03    -163.913E-03     326.914E-03    -163.368E-03     9.31991E-03    -53.2462E+06    -116.422E+06    -197.145E+06    -116.566E+06    -197.001E+06    -53.2462E+06    -2.75934E+06         45.7559
            1691     5.94686E-03     117.920E-03     103.215E-03     97.8853E-03    -247.330E-03     98.8986E-03    -246.447E-03     101.319E-03     19.4385E-03     327.220E-03    -163.393E-03    -164.182E-03    -163.939E-03     327.144E-03    -163.560E-03     11.9663E-03    -31.4887E+06    -105.257E+06    -169.975E+06    -105.536E+06    -169.696E+06    -31.4887E+06    -3.66107E+06         45.8363
            1692     6.79467E-03     117.942E-03     99.8896E-03     80.3341E-03    -235.763E-03     79.5912E-03    -234.831E-03     99.7010E-03     14.5946E-03     327.492E-03    -163.260E-03    -164.413E-03    -163.907E-03     327.356E-03    -163.631E-03     16.1288E-03    -12.1424E+06    -93.5274E+06    -144.929E+06    -94.1869E+06    -144.269E+06    -12.1424E+06    -4.61854E+06         45.8940
            1693     7.64503E-03     117.963E-03     96.5571E-03     66.5838E-03    -222.847E-03     66.0202E-03    -222.283E-03     96.5571E-03     5.73320E-03     327.373E-03    -163.482E-03    -164.220E-03    -163.672E-03     327.150E-03    -163.807E-03     20.6786E-03     4.80095E+06    -81.6808E+06    -118.235E+06    -82.3958E+06    -117.520E+06     4.80095E+06    -3.97657E+06         46.1674
            1694     8.49587E-03     117.993E-03     214.575E-03     86.5134E-03    -219.100E-03     200.966E-03    -218.705E-03     99.7268E-03     15.7617E-03     327.349E-03    -163.685E-03    -164.058E-03    -163.476E-03     327.012E-03    -163.930E-03     25.2799E-03     20.2911E+06    -69.6069E+06    -89.2266E+06    -71.1400E+06    -87.6935E+06     20.2911E+06    -2.12956E+06         46.9776
            1695     9.34429E-03     118.025E-03     216.025E-03    -44.2354E-03    -268.517E-03     25.7144E-03    -223.619E-03     101.177E-03     56.9120E-03     327.628E-03    -163.612E-03    -164.261E-03    -163.516E-03     327.165E-03    -163.893E-03     29.8572E-03     33.2845E+06    -52.7856E+06    -65.8846E+06    -60.8384E+06    -57.8318E+06     33.2845E+06    -1.17805E+06         48.4518
            1696     10.1917E-03     118.068E-03     82.6975E-03    -132.144E-03    -346.587E-03    -271.455E-03    -207.276E-03     82.6975E-03    -3.29875E-03     327.982E-03    -163.619E-03    -164.490E-03    -163.741E-03     327.391E-03    -163.777E-03     34.0474E-03     43.0719E+06    -23.0632E+06    -52.3010E+06    -51.3426E+06    -24.0215E+06     43.0719E+06     22.9722E+03         50.5609
            1697     11.0418E-03     118.116E-03     868.203E-03     21.3912E-03    -285.667E-03     701.013E-03    -187.906E-03     90.8201E-03    -149.482E-03     328.444E-03    -163.850E-03    -164.499E-03    -163.826E-03     327.771E-03    -163.850E-03     36.3733E-03     55.7755E+06     24.6020E+06    -41.4709E+06    -41.0139E+06     24.1450E+06     55.7755E+06     1.72431E+06         53.2662
            1698     11.8892E-03     118.166E-03     868.921E-03    -60.6800E-03        -1.45888    -529.400E-03    -212.776E-03     91.5379E-03    -15.0323E-03     328.556E-03    -164.015E-03    -164.297E-03    -163.453E-03     327.712E-03    -164.015E-03     40.4654E-03     94.8584E+06     68.7958E+06    -30.6128E+06    -30.4967E+06     89.0926E+06     74.4455E+06     3.47468E+06         56.5385
            1699     12.7371E-03     118.221E-03         2.97526    -36.7452E-03        -1.41013         1.45444    -41.5269E-03     115.473E-03         1.15800     327.551E-03    -163.332E-03    -164.030E-03    -162.138E-03     326.340E-03    -164.014E-03     48.3896E-03     134.880E+06     95.6687E+06    -24.8531E+06    -24.2681E+06     134.295E+06     95.6687E+06     7.09988E+06         60.3571
            1700     13.5942E-03     118.289E-03         2.96681     22.8207E-03        -6.81474        -3.67176    -195.814E-03     42.4646E-03        -1.55864     326.297E-03    -162.207E-03    -164.036E-03    -160.669E-03     324.760E-03    -164.036E-03     54.6806E-03     155.990E+06     130.108E+06    -19.0051E+06    -18.4755E+06     155.460E+06     130.108E+06     6.39518E+06         64.4931
            1701     14.4433E-03     118.366E-03         11.2059     38.7010E-03        -7.89867         4.68656        -1.39896     58.3450E-03        -2.07013     325.895E-03    -161.892E-03    -164.053E-03    -160.294E-03     324.296E-03    -164.053E-03     55.7074E-03     177.453E+06     167.515E+06    -10.1573E+06    -10.1111E+06     174.552E+06     170.370E+06     669.625E+03         68.1423
            1702     848.246E-06     119.239E-03     180.244E-03     30.2999E-03    -256.613E-03     165.879E-03    -250.521E-03     38.5738E-03     45.6087E-03     325.810E-03    -162.455E-03    -163.364E-03    -162.847E-03     325.796E-03    -162.958E-03     3.89693E-03    -155.739E+06    -161.359E+06    -311.905E+06    -160.650E+06    -311.890E+06    -156.462E+06     18.8035E+03         45.3669
            1703     1.69763E-03     119.249E-03     104.928E-03     85.1205E-03    -235.619E-03     88.4464E-03    -233.519E-03     99.5030E-03    -19.2492E-03     325.295E-03    -162.522E-03    -162.925E-03    -162.580E-03     325.278E-03    -162.849E-03     5.07754E-03    -142.293E+06    -155.044E+06    -295.518E+06    -155.049E+06    -295.513E+06    -142.293E+06    -291.227E+03         45.4149
            1704     2.54967E-03     119.255E-03     104.655E-03     89.0573E-03    -238.782E-03     95.8508E-03    -237.512E-03     96.5915E-03     26.2707E-03     324.976E-03    -162.174E-03    -162.851E-03    -162.187E-03     324.964E-03    -162.825E-03     4.72057E-03    -121.535E+06    -147.131E+06    -275.621E+06    -147.144E+06    -275.608E+06    -121.535E+06    -922.781E+03         45.4889
            1705     3.40291E-03     119.265E-03     98.2060E-03     87.7386E-03    -232.137E-03     89.0934E-03    -230.854E-03     95.5683E-03     24.8057E-03     326.494E-03    -162.702E-03    -163.706E-03    -163.367E-03     326.479E-03    -163.026E-03     4.97252E-03    -98.4026E+06    -137.542E+06    -251.874E+06    -137.573E+06    -251.843E+06    -98.4026E+06    -1.63377E+06         45.5678
            1706     4.24884E-03     119.276E-03     92.8596E-03     75.6122E-03    -217.176E-03     75.0154E-03    -216.579E-03     92.8596E-03     86.2777E-06     327.774E-03    -163.299E-03    -164.488E-03    -164.469E-03     327.754E-03    -163.299E-03     5.98342E-03    -75.5007E+06    -127.182E+06    -223.962E+06    -127.252E+06    -223.891E+06    -75.5007E+06    -2.23117E+06         45.6559
            1707     5.09592E-03     119.289E-03     89.3795E-03     71.1048E-03    -207.757E-03     70.5797E-03    -207.232E-03     89.3795E-03    -5.48031E-03     327.414E-03    -163.536E-03    -164.212E-03    -164.107E-03     327.375E-03    -163.603E-03     8.48242E-03    -52.8917E+06    -116.466E+06    -194.706E+06    -116.634E+06    -194.538E+06    -52.8917E+06    -3.19972E+06         45.7619
            1708     5.94489E-03     119.305E-03     87.2067E-03     79.0453E-03    -210.490E-03     78.3399E-03    -209.596E-03     87.0181E-03     11.7705E-03     326.625E-03    -163.161E-03    -163.830E-03    -163.157E-03     326.548E-03    -163.756E-03     12.0539E-03    -31.3747E+06    -105.531E+06    -167.526E+06    -105.903E+06    -167.153E+06    -31.3747E+06    -4.32378E+06         45.8343
            1709     6.79665E-03     119.328E-03     86.5540E-03     79.9282E-03    -216.673E-03     79.8721E-03    -215.864E-03     85.8015E-03     7.86560E-03     326.140E-03    -162.614E-03    -163.648E-03    -162.488E-03     326.015E-03    -163.648E-03     15.5279E-03    -11.8875E+06    -94.3799E+06     -142.28E+06    -95.2220E+06    -141.438E+06    -11.8875E+06    -5.71676E+06         45.8856
            1710     7.64579E-03     119.350E-03     85.0054E-03     71.2347E-03    -213.925E-03     71.2010E-03    -213.327E-03     84.4414E-03     2.96387E-03     326.609E-03    -163.076E-03    -163.791E-03    -162.990E-03     326.434E-03    -163.703E-03     18.4366E-03     3.89476E+06    -83.2738E+06    -120.160E+06    -84.6942E+06    -118.740E+06     3.89476E+06    -6.27834E+06         46.1624
            1711     8.49408E-03     119.379E-03     195.152E-03     80.4646E-03    -198.707E-03     186.747E-03    -198.177E-03     88.3394E-03    -272.007E-06     326.887E-03    -163.381E-03    -163.916E-03    -163.271E-03     326.651E-03    -163.791E-03     21.4064E-03     18.0579E+06    -70.7376E+06    -93.1138E+06    -73.6841E+06    -90.1673E+06     18.0579E+06    -5.13251E+06         46.9909
            1712     9.34400E-03     119.413E-03     198.520E-03    -24.2521E-03    -211.022E-03     64.7036E-03    -193.165E-03     91.7071E-03    -1.65271E-03     327.092E-03    -163.394E-03    -164.112E-03    -163.355E-03     326.686E-03    -163.745E-03     27.8000E-03     31.7477E+06    -53.1283E+06    -68.0118E+06    -62.6564E+06    -58.4837E+06     31.7477E+06    -3.94152E+06         48.4881
            1713     10.1939E-03     119.458E-03     72.3043E-03    -153.509E-03    -395.209E-03    -356.476E-03    -192.242E-03     72.3043E-03     67.7687E-03     327.482E-03    -163.529E-03    -164.202E-03    -163.500E-03     326.881E-03    -163.631E-03     34.2866E-03     42.4855E+06    -23.7627E+06    -53.8577E+06    -51.9166E+06    -25.7038E+06     42.4855E+06    -3.64798E+06         50.6175
            1714     11.0419E-03     119.503E-03     823.820E-03    -38.4663E-03    -354.269E-03     523.060E-03    -163.363E-03     71.3876E-03    -81.0984E-03     327.134E-03    -163.211E-03    -163.871E-03    -162.736E-03     326.391E-03    -163.601E-03     38.0876E-03     53.0116E+06     21.1070E+06    -42.9011E+06    -42.5868E+06     20.7928E+06     53.0116E+06    -2.40863E+06         53.3426
            1715     11.8943E-03     119.554E-03     829.364E-03    -14.9485E-03        -1.10506    -237.212E-03    -130.362E-03     76.9317E-03    -102.193E-03     327.072E-03    -163.166E-03    -163.719E-03    -162.232E-03     326.110E-03    -163.690E-03     43.2615E-03     91.2760E+06     65.7266E+06    -33.9471E+06    -33.8288E+06     85.2915E+06     71.5928E+06    -512.898E+03         56.6362
            1716     12.7464E-03     119.607E-03         4.18040     68.8676E-03        -1.48037         2.99517    -387.023E-03     160.748E-03     819.555E-03     327.812E-03    -163.548E-03    -164.146E-03    -162.623E-03     326.480E-03    -163.737E-03     50.8966E-03     124.943E+06     93.7621E+06    -24.3258E+06    -23.7418E+06     124.359E+06     93.7621E+06     3.01978E+06         60.4740
            1717     13.5905E-03     119.676E-03         5.57481    -561.080E-03        -31.4469        -25.7070    -165.125E-03    -561.080E-03        -11.7575     327.453E-03    -163.161E-03    -164.240E-03    -161.949E-03     325.780E-03    -163.780E-03     57.1162E-03     156.128E+06     126.928E+06    -10.1434E+06    -9.36078E+06     155.346E+06     126.928E+06     6.73625E+06         64.6192
            1718     14.4468E-03     119.747E-03         76.2677         1.12535        -31.3044         44.7450         1.40424    -60.5908E-03        -2.53088     327.084E-03    -162.792E-03    -164.323E-03    -161.427E-03     325.274E-03    -163.879E-03     59.4011E-03     187.463E+06     167.310E+06    -5.85118E+06    -5.00345E+06     185.487E+06     168.437E+06     8.43473E+06         68.2671
            1719     850.922E-06     120.625E-03     169.540E-03     15.2491E-03    -223.441E-03     149.687E-03    -206.090E-03     17.7521E-03     73.8696E-03     325.944E-03    -162.550E-03    -163.391E-03    -163.376E-03     325.928E-03    -162.550E-03     4.85172E-03    -157.448E+06    -164.339E+06    -312.053E+06    -162.624E+06    -312.039E+06    -159.177E+06     772.147E+03         45.4352
            1720     1.70091E-03     120.631E-03     89.3903E-03     73.4543E-03    -199.603E-03     76.5004E-03    -195.325E-03     82.0660E-03    -64.1173E-03     326.308E-03    -162.871E-03    -163.543E-03    -163.351E-03     326.292E-03    -163.048E-03     4.46211E-03    -145.177E+06    -157.906E+06    -293.814E+06    -157.918E+06    -293.802E+06    -145.177E+06    -645.934E+03         45.4716
            1721     2.54975E-03     120.637E-03     85.2738E-03     71.7356E-03    -195.917E-03     74.3025E-03    -192.806E-03     79.5961E-03    -5.27543E-03     326.972E-03    -163.137E-03    -163.801E-03    -163.615E-03     326.962E-03    -163.314E-03     3.78812E-03    -125.110E+06    -150.298E+06    -273.678E+06    -150.333E+06    -273.643E+06    -125.110E+06    -1.78462E+06         45.5275
            1722     3.39533E-03     120.651E-03     78.9392E-03     74.0788E-03    -195.073E-03     73.7478E-03    -193.801E-03     77.9987E-03     17.9040E-03     327.368E-03    -163.158E-03    -164.093E-03    -163.586E-03     327.351E-03    -163.648E-03     5.22734E-03    -100.945E+06    -140.202E+06    -250.649E+06    -140.298E+06    -250.553E+06    -100.945E+06    -2.82160E+06         45.5856
            1723     4.24572E-03     120.664E-03     77.5799E-03     70.4923E-03    -191.085E-03     70.0549E-03    -189.703E-03     76.6361E-03     4.80919E-03     327.011E-03    -162.968E-03    -164.089E-03    -163.289E-03     326.985E-03    -163.742E-03     6.66705E-03    -76.3229E+06    -128.649E+06    -222.354E+06    -128.806E+06    -222.197E+06    -76.3229E+06    -3.48633E+06         45.6530
            1724     5.09598E-03     120.675E-03     75.1217E-03     64.2455E-03    -182.329E-03     62.9615E-03    -180.750E-03     74.8263E-03    -2.29972E-03     326.775E-03    -163.244E-03    -163.872E-03    -163.284E-03     326.729E-03    -163.786E-03     9.21187E-03    -52.8793E+06    -116.942E+06    -192.215E+06    -117.217E+06    -191.941E+06    -52.8793E+06    -4.18386E+06         45.7470
            1725     5.94503E-03     120.695E-03     76.8691E-03     66.1273E-03    -182.329E-03     67.6197E-03    -180.226E-03     73.2737E-03     10.6518E-03     326.545E-03    -163.156E-03    -163.874E-03    -163.082E-03     326.471E-03    -163.874E-03     11.9956E-03    -30.7496E+06    -104.930E+06    -164.697E+06    -105.469E+06    -164.159E+06    -30.7496E+06    -5.27077E+06         45.8220
            1726     6.79406E-03     120.709E-03     76.4381E-03     68.9988E-03    -186.133E-03     70.4864E-03    -183.753E-03     72.5707E-03     24.2525E-03     326.394E-03    -162.809E-03    -163.748E-03    -162.688E-03     326.272E-03    -163.748E-03     15.1862E-03    -10.8717E+06    -93.4145E+06    -140.152E+06    -94.1753E+06    -139.391E+06    -10.8717E+06    -5.84418E+06         45.8783
            1727     7.64510E-03     120.738E-03     72.0840E-03     62.5599E-03    -181.835E-03     58.7358E-03    -177.447E-03     71.5201E-03     28.2250E-03     326.549E-03    -162.847E-03    -163.865E-03    -162.754E-03     326.368E-03    -163.777E-03     18.7585E-03     5.16549E+06    -82.9772E+06    -118.308E+06    -84.3454E+06    -116.940E+06     5.16549E+06    -6.36150E+06         46.1600
            1728     8.49422E-03     120.766E-03     130.857E-03     66.9000E-03    -173.141E-03     119.599E-03    -167.812E-03     72.8295E-03    -1.02493E-03     326.804E-03    -163.092E-03    -164.102E-03    -163.126E-03     326.566E-03    -163.830E-03     21.5469E-03     16.9270E+06    -71.3244E+06    -94.9718E+06    -75.0119E+06    -91.2844E+06     16.9270E+06    -6.92110E+06         47.0056
            1729     9.34464E-03     120.798E-03     136.991E-03     28.9045E-03    -182.041E-03     81.6662E-03    -172.800E-03     74.9883E-03    -79.8221E-03     326.473E-03    -163.005E-03    -163.920E-03    -162.818E-03     326.101E-03    -163.736E-03     26.6378E-03     28.5462E+06    -50.5526E+06    -73.1261E+06    -65.1365E+06    -58.5421E+06     28.5462E+06    -6.82624E+06         48.5261
            1730     10.1951E-03     120.843E-03     68.4485E-03    -43.2170E-03    -326.574E-03    -185.639E-03    -180.176E-03     64.4732E-03     94.0521E-03     325.136E-03    -161.915E-03    -163.532E-03    -161.382E-03     324.604E-03    -163.532E-03     31.9994E-03     38.8694E+06    -24.0028E+06    -58.9612E+06    -56.6356E+06    -26.3284E+06     38.8694E+06    -6.09573E+06         50.6784
            1731     11.0475E-03     120.887E-03     413.098E-03    -2.00366E-03    -297.707E-03     210.057E-03    -156.273E-03     59.6027E-03     75.9472E-03     324.540E-03    -161.252E-03    -163.300E-03    -160.518E-03     323.806E-03    -163.300E-03     37.5269E-03     47.5278E+06     16.7996E+06    -50.2230E+06    -49.5831E+06     16.1780E+06     47.5095E+06    -3.10439E+06         53.4288
            1732     11.8982E-03     120.937E-03     443.691E-03     49.2757E-03    -532.028E-03    -22.7466E-03    -78.3446E-03     62.0302E-03     51.6473E-03     325.833E-03    -162.238E-03    -163.423E-03    -161.389E-03     324.846E-03    -163.283E-03     43.7880E-03     85.9309E+06     58.0764E+06    -44.7667E+06    -44.6212E+06     82.1034E+06     61.7583E+06     154.854E+03         56.7466
            1733     12.7480E-03     120.995E-03         3.25095     110.066E-03        -1.62582         2.11933    -506.955E-03     122.820E-03        -1.73374     326.119E-03    -162.169E-03    -163.844E-03    -161.412E-03     324.814E-03    -163.296E-03     50.2231E-03     122.839E+06     84.2843E+06    -39.1268E+06    -39.0192E+06     122.731E+06     84.2843E+06    -900.512E+03         60.6092
            1734     13.6037E-03     121.062E-03         16.2212    -523.389E-03        -41.1594        -24.6807    -257.568E-03    -523.389E-03         13.9324     327.680E-03    -162.391E-03    -165.250E-03    -162.488E-03     325.874E-03    -163.347E-03     59.2611E-03     145.159E+06     116.265E+06    -34.7861E+06    -34.4693E+06     144.842E+06     116.265E+06     3.06130E+06         64.7687
            1735     14.4504E-03     121.131E-03         89.5256         1.11386        -49.4410         38.9188         2.35180    -72.0843E-03         4.11290     330.950E-03    -163.596E-03    -167.408E-03    -165.473E-03     329.015E-03    -163.596E-03     61.8399E-03     186.567E+06     160.305E+06    -23.0902E+06    -22.1356E+06     185.612E+06     160.305E+06     7.78657E+06         68.4093
            1736     849.219E-06     122.009E-03     150.752E-03    -19.4434E-03    -165.442E-03     122.276E-03    -124.090E-03    -32.3196E-03     77.0448E-03     328.813E-03    -163.600E-03    -165.197E-03    -164.091E-03     328.809E-03    -164.702E-03     249.808E-06    -159.824E+06    -164.656E+06    -310.858E+06    -162.958E+06    -310.826E+06    -161.553E+06    -795.233E+03         45.5111
            1737     1.69745E-03     122.017E-03     77.4970E-03     49.7178E-03    -158.151E-03     68.9956E-03    -149.650E-03     49.7178E-03    -71.8175E-03     327.980E-03    -163.245E-03    -164.772E-03    -163.721E-03     327.977E-03    -164.293E-03     1.00630E-03    -147.294E+06    -158.107E+06    -292.006E+06    -158.139E+06    -291.973E+06    -147.294E+06    -1.49648E+06         45.5242
            1738     2.54504E-03     122.027E-03     80.6668E-03     57.1679E-03    -168.165E-03     75.9445E-03    -163.769E-03     57.4943E-03     6.24372E-03     327.771E-03    -163.087E-03    -164.627E-03    -163.540E-03     327.763E-03    -164.166E-03     3.55284E-03    -125.700E+06    -150.772E+06    -270.730E+06    -150.823E+06    -270.679E+06    -125.700E+06    -2.33497E+06         45.5530
            1739     3.39599E-03     122.039E-03     72.3276E-03     61.1172E-03    -165.775E-03     69.2843E-03    -163.058E-03     61.4435E-03     41.8888E-03     326.823E-03    -162.449E-03    -164.303E-03    -162.583E-03     326.799E-03    -164.145E-03     6.62068E-03    -101.729E+06    -141.519E+06    -248.649E+06    -141.677E+06    -248.491E+06    -101.729E+06    -3.92055E+06         45.5861
            1740     4.24601E-03     122.048E-03     65.4351E-03     62.4076E-03    -163.674E-03     63.1942E-03    -161.433E-03     62.4076E-03     38.7130E-03     326.114E-03    -162.227E-03    -163.971E-03    -162.186E-03     326.073E-03    -163.971E-03     8.85749E-03    -77.5304E+06    -130.609E+06    -219.637E+06    -130.912E+06    -219.334E+06    -77.5304E+06    -4.99982E+06         45.6329
            1741     5.09533E-03     122.064E-03     63.9615E-03     59.3966E-03    -160.005E-03     59.0149E-03    -157.790E-03     62.1283E-03     30.6277E-03     326.351E-03    -162.876E-03    -163.857E-03    -162.823E-03     326.298E-03    -163.857E-03     10.0958E-03    -54.1575E+06    -118.802E+06    -189.884E+06    -119.323E+06    -189.363E+06    -54.1575E+06    -5.81811E+06         45.7153
            1742     5.94526E-03     122.077E-03     64.4565E-03     47.2454E-03    -147.901E-03     48.6904E-03    -145.751E-03     60.8610E-03     16.4511E-03     326.836E-03    -163.455E-03    -163.972E-03    -163.436E-03     326.759E-03    -163.914E-03     12.2023E-03    -32.0287E+06    -106.767E+06    -162.436E+06    -107.601E+06    -161.603E+06    -32.0287E+06    -6.55356E+06         45.7956
            1743     6.79500E-03     122.098E-03     63.5078E-03     44.8533E-03    -142.858E-03     42.7741E-03    -136.039E-03     58.7679E-03    -1.83613E-03     327.192E-03    -163.527E-03    -163.888E-03    -163.464E-03     327.071E-03    -163.830E-03     15.2909E-03    -12.3880E+06    -95.1632E+06    -139.373E+06    -96.2313E+06    -138.305E+06    -12.3880E+06    -6.65022E+06         45.8686
            1744     7.64328E-03     122.123E-03     61.7832E-03     50.0738E-03    -143.849E-03     46.3512E-03    -135.224E-03     56.8812E-03     8.08172E-03     326.457E-03    -162.801E-03    -163.868E-03    -162.635E-03     326.291E-03    -163.868E-03     17.9303E-03     4.10737E+06    -83.7546E+06    -116.873E+06    -85.2413E+06    -115.386E+06     4.10737E+06    -6.49436E+06         46.1656
            1745     8.49511E-03     122.153E-03     68.8340E-03     27.2595E-03    -153.757E-03     29.9176E-03    -142.249E-03     54.6677E-03    -17.3429E-03     326.309E-03    -162.742E-03    -164.089E-03    -162.684E-03     326.067E-03    -163.905E-03     21.5396E-03     16.9022E+06    -69.3315E+06    -93.7111E+06    -75.0923E+06    -87.9503E+06     16.9022E+06    -7.63621E+06         47.0286
            1746     9.34190E-03     122.187E-03     97.1900E-03     29.4434E-03    -165.825E-03     56.8805E-03    -149.147E-03     53.0750E-03    -111.736E-03     326.062E-03    -162.521E-03    -163.928E-03    -162.360E-03     325.716E-03    -163.744E-03     25.8894E-03     25.7851E+06    -50.9417E+06    -75.4310E+06    -66.5179E+06    -59.8549E+06     25.7851E+06    -7.67484E+06         48.5704
            1747     10.1930E-03     122.225E-03     194.641E-03     46.6877E-03    -194.099E-03     129.920E-03    -138.605E-03     55.9151E-03     88.7213E-03     323.923E-03    -160.754E-03    -163.450E-03    -160.287E-03     323.456E-03    -163.450E-03     29.9493E-03     35.2289E+06    -25.9094E+06    -61.6250E+06    -58.9631E+06    -28.5713E+06     35.2289E+06    -5.14177E+06         50.7443
            1748     11.0485E-03     122.266E-03     198.745E-03     10.5255E-03    -359.720E-03    -89.1935E-03    -114.505E-03     53.2498E-03     134.384E-03     323.465E-03    -160.401E-03    -163.177E-03    -159.762E-03     322.826E-03    -163.177E-03     34.9736E-03     42.6798E+06     7.57753E+06    -53.4845E+06    -52.9213E+06     7.03265E+06     42.6614E+06    -441.824E+03         53.5157
            1749     11.9026E-03     122.323E-03     464.480E-03     18.1711E-03    -395.237E-03     168.970E-03    -133.224E-03     51.6680E-03     119.584E-03     324.615E-03    -161.348E-03    -163.291E-03    -160.633E-03     323.760E-03    -163.151E-03     40.4237E-03     85.5557E+06     49.0030E+06    -47.7665E+06    -47.3558E+06     75.9264E+06     58.2217E+06     6.45463E+06         56.8538
            1750     12.7534E-03     122.381E-03         1.81568     1.52120E-03        -3.12907        -1.53545     222.061E-03     1.52120E-03        -2.20163     324.716E-03    -161.335E-03    -163.443E-03    -160.691E-03     323.721E-03    -163.093E-03     43.5563E-03     128.896E+06     79.3204E+06    -43.4596E+06    -42.9387E+06     128.375E+06     79.3204E+06     7.52097E+06         60.7363
            1751     13.6065E-03     122.436E-03         40.8934     658.978E-03        -18.7129         22.4011    -220.539E-03     658.978E-03         13.6305     328.164E-03    -162.242E-03    -165.863E-03    -163.360E-03     326.616E-03    -163.198E-03     54.1118E-03     148.204E+06     113.070E+06    -41.3469E+06    -40.4755E+06     147.333E+06     113.070E+06    -1.39609E+06         64.9083
            1752     14.4551E-03     122.538E-03         50.1784        -1.10176        -93.7558        -42.0632        -2.74885     132.950E-03         5.77909     331.776E-03    -163.566E-03    -168.356E-03    -166.687E-03     330.107E-03    -163.566E-03     57.0558E-03     185.396E+06     159.219E+06    -27.9223E+06    -27.0765E+06     184.550E+06     159.219E+06    -8.00645E+06         68.5488
            1753     843.283E-06     123.402E-03     157.963E-03    -38.2449E-03    -148.023E-03     128.273E-03    -107.959E-03    -48.6192E-03     78.5951E-03     332.170E-03    -165.237E-03    -166.941E-03    -165.311E-03     332.163E-03    -166.859E-03     622.366E-06    -160.402E+06    -164.354E+06    -306.659E+06    -164.035E+06    -306.614E+06    -160.765E+06    -2.39946E+06         45.5349
            1754     1.69285E-03     123.404E-03     61.3345E-03     32.2282E-03    -126.028E-03     45.3389E-03    -118.684E-03     40.8796E-03    -55.9326E-03     328.905E-03    -163.374E-03    -165.577E-03    -163.361E-03     328.891E-03    -165.577E-03     3.67924E-03    -149.248E+06    -159.353E+06    -289.229E+06    -159.436E+06    -289.146E+06    -149.248E+06    -3.04168E+06         45.5381
            1755     2.54433E-03     123.415E-03     60.5175E-03     34.7707E-03    -123.944E-03     49.3749E-03    -121.054E-03     43.0227E-03     8.74614E-03     327.282E-03    -162.583E-03    -164.742E-03    -162.570E-03     327.269E-03    -164.742E-03     4.98789E-03    -128.341E+06    -151.786E+06    -268.784E+06    -151.896E+06    -268.674E+06    -128.341E+06    -3.34787E+06         45.5522
            1756     3.39450E-03     123.420E-03     59.2034E-03     43.0424E-03    -125.851E-03     54.4277E-03    -123.178E-03     45.1448E-03     21.8729E-03     326.373E-03    -162.070E-03    -164.357E-03    -162.052E-03     326.354E-03    -164.357E-03     5.83420E-03    -102.519E+06    -142.182E+06    -244.819E+06    -142.337E+06    -244.665E+06    -102.519E+06    -3.91582E+06         45.5716
            1757     4.24578E-03     123.434E-03     52.4775E-03     44.4472E-03    -124.589E-03     47.8371E-03    -121.780E-03     46.2789E-03     709.233E-06     325.769E-03    -161.816E-03    -164.079E-03    -161.779E-03     325.731E-03    -164.079E-03     8.46140E-03    -78.0634E+06    -131.840E+06    -216.440E+06    -132.188E+06    -216.091E+06    -78.0634E+06    -5.16470E+06         45.6046
            1758     5.09628E-03     123.448E-03     46.8620E-03     37.7809E-03    -119.556E-03     34.9967E-03    -115.234E-03     45.3242E-03    -7.49402E-03     326.022E-03    -162.576E-03    -163.887E-03    -162.520E-03     325.966E-03    -163.887E-03     10.4696E-03    -54.9594E+06    -120.443E+06    -186.730E+06    -121.149E+06    -186.025E+06    -54.9594E+06    -6.64275E+06         45.6775
            1759     5.94517E-03     123.464E-03     43.1902E-03     26.1826E-03    -104.822E-03     23.3684E-03    -101.596E-03     42.7780E-03    -4.98449E-03     326.938E-03    -163.547E-03    -163.945E-03    -163.515E-03     326.848E-03    -163.887E-03     13.0933E-03    -33.7142E+06    -108.865E+06    -160.816E+06    -109.956E+06    -159.725E+06    -33.7142E+06    -7.33625E+06         45.7615
            1760     6.79320E-03     123.487E-03     45.7731E-03     29.4913E-03    -101.373E-03     29.3796E-03    -95.8630E-03     40.3752E-03    -20.7018E-03     327.362E-03    -163.673E-03    -163.881E-03    -163.594E-03     327.225E-03    -163.823E-03     16.2853E-03    -14.8371E+06    -97.4103E+06    -137.999E+06    -99.0272E+06    -136.382E+06    -14.8371E+06    -7.75064E+06         45.8507
            1761     7.64264E-03     123.510E-03     58.2495E-03     40.0685E-03    -117.741E-03     52.6755E-03    -112.167E-03     40.0685E-03    -11.6287E-03     326.949E-03    -163.305E-03    -163.886E-03    -163.120E-03     326.764E-03    -163.886E-03     18.8328E-03     1.51147E+06    -85.0044E+06    -116.384E+06    -87.8075E+06    -113.581E+06     1.51147E+06    -8.54795E+06         46.1700
            1762     8.49132E-03     123.537E-03     49.4714E-03    -17.4545E-03    -164.684E-03    -46.1274E-03    -122.815E-03     36.2762E-03    -14.8116E-03     325.888E-03    -162.483E-03    -163.925E-03    -162.211E-03     325.615E-03    -163.925E-03     22.8304E-03     15.3607E+06    -69.9889E+06    -92.4518E+06    -77.2544E+06    -85.1863E+06     15.3607E+06    -8.53226E+06         47.0568
            1763     9.34535E-03     123.576E-03     119.083E-03    -22.5206E-03    -145.224E-03     20.7485E-03    -100.620E-03     31.2100E-03    -67.6129E-03     324.801E-03    -161.524E-03    -163.697E-03    -161.187E-03     324.464E-03    -163.697E-03     25.5282E-03     25.1943E+06    -55.4003E+06    -74.2300E+06    -68.0221E+06    -61.6082E+06     25.1943E+06    -7.90748E+06         48.6229
            1764     10.1971E-03     123.603E-03     398.717E-03     44.4375E-03    -99.2263E-03     382.501E-03    -83.0108E-03     44.4375E-03     79.6582E-03     324.691E-03    -161.541E-03    -163.379E-03    -161.092E-03     324.243E-03    -163.379E-03     29.2492E-03     33.9764E+06    -29.4722E+06    -61.8852E+06    -58.6473E+06    -32.7100E+06     33.9764E+06    -5.93575E+06         50.8183
            1765     11.0467E-03     123.652E-03     309.400E-03    -45.1966E-03    -691.438E-03    -349.709E-03    -120.518E-03     42.9930E-03     33.7880E-03     325.452E-03    -162.106E-03    -163.386E-03    -161.611E-03     324.810E-03    -163.238E-03     35.2295E-03     42.5925E+06    -801.955E+03    -48.8762E+06    -48.2208E+06    -1.45742E+06     42.5925E+06    -2.31619E+06         53.6042
            1766     11.8962E-03     123.705E-03     993.984E-03    -49.8587E-03    -747.143E-03     346.985E-03    -188.334E-03     38.3310E-03    -53.2082E-03     325.166E-03    -161.774E-03    -163.437E-03    -161.197E-03     324.442E-03    -163.290E-03     37.4641E-03     82.7185E+06     40.0359E+06    -35.8082E+06    -35.3516E+06     63.4727E+06     58.8251E+06     2.65732E+06         56.9524
            1767     12.7514E-03     123.763E-03         1.44034    -60.0488E-03        -4.62306        -3.35695     174.234E-03    -60.0488E-03     456.768E-03     326.356E-03    -162.272E-03    -164.122E-03    -162.260E-03     325.531E-03    -163.309E-03     39.9495E-03     132.607E+06     87.0951E+06    -21.4620E+06    -20.8981E+06     132.043E+06     87.0951E+06     4.15331E+06         60.8401
            1768     13.5976E-03     123.828E-03         34.8392     669.353E-03        -5.74729         28.9045     187.420E-03     669.353E-03        -12.0868     329.269E-03    -163.512E-03    -165.731E-03    -164.260E-03     327.797E-03    -163.512E-03     52.8353E-03     167.651E+06     123.528E+06    -9.96607E+06    -9.04143E+06     166.726E+06     123.528E+06    -2.74618E+06         65.0180
            1769     14.4451E-03     123.927E-03         34.7125        -1.04698        -79.1124        -44.1756        -1.45895     187.723E-03        -1.50174     327.809E-03    -162.470E-03    -165.569E-03    -162.673E-03     326.194E-03    -163.751E-03     55.7087E-03     188.629E+06     160.588E+06    -6.63319E+06    -5.86891E+06     185.187E+06     163.266E+06    -5.90347E+06         68.6762
            1770     848.788E-06     124.794E-03     148.827E-03    -37.6848E-03    -148.974E-03     122.153E-03    -134.253E-03    -25.7307E-03     76.6214E-03     329.200E-03    -163.508E-03    -165.729E-03    -165.199E-03     329.191E-03    -164.028E-03     3.79416E-03    -159.303E+06    -163.654E+06    -303.788E+06    -163.321E+06    -303.757E+06    -159.667E+06    -59.6924E+03         45.4455
            1771     1.69640E-03     124.795E-03     40.7506E-03     17.0936E-03    -93.5398E-03     11.5570E-03    -88.0033E-03     40.7506E-03    -40.8714E-03     329.050E-03    -163.443E-03    -165.684E-03    -164.512E-03     329.032E-03    -164.598E-03     5.76820E-03    -147.706E+06    -160.295E+06    -284.432E+06    -160.394E+06    -284.333E+06    -147.706E+06    -2.35276E+06         45.4731
            1772     2.54468E-03     124.800E-03     31.7625E-03     15.5657E-03    -76.7022E-03     5.18024E-03    -63.9253E-03     29.3711E-03     2.25097E-03     327.736E-03    -163.185E-03    -164.586E-03    -163.302E-03     327.717E-03    -164.449E-03     6.04680E-03    -129.277E+06    -153.300E+06    -265.312E+06    -153.489E+06    -265.124E+06    -129.277E+06    -4.52915E+06         45.5100
            1773     3.39453E-03     124.809E-03     30.6086E-03     18.2450E-03    -74.1320E-03     15.0883E-03    -64.4689E-03     24.1022E-03     12.2676E-03     326.806E-03    -162.559E-03    -164.301E-03    -162.535E-03     326.782E-03    -164.301E-03     6.76433E-03    -105.174E+06    -143.459E+06    -241.455E+06    -143.737E+06    -241.177E+06    -105.174E+06    -5.01029E+06         45.5415
            1774     4.24408E-03     124.816E-03     28.7099E-03     16.6646E-03    -74.2076E-03     16.9946E-03    -68.0788E-03     22.2511E-03    -7.75218E-03     325.660E-03    -161.724E-03    -164.114E-03    -161.675E-03     325.611E-03    -164.114E-03     9.35358E-03    -78.6664E+06    -131.849E+06    -213.157E+06    -132.299E+06    -212.707E+06    -78.6664E+06    -5.79279E+06         45.5698
            1775     5.09525E-03     124.835E-03     31.4453E-03     16.4692E-03    -82.7170E-03     19.1635E-03    -75.2468E-03     21.2808E-03    -11.9691E-03     325.431E-03    -162.015E-03    -163.856E-03    -161.933E-03     325.349E-03    -163.856E-03     12.4272E-03    -54.6145E+06    -120.175E+06    -183.822E+06    -120.918E+06    -183.079E+06    -54.6145E+06    -6.69907E+06         45.6336
            1776     5.94543E-03     124.850E-03     45.9723E-03     18.9927E-03    -100.016E-03     37.7625E-03    -94.7863E-03     21.9725E-03     15.5895E-03     326.264E-03    -163.008E-03    -163.743E-03    -162.885E-03     326.141E-03    -163.743E-03     15.3114E-03    -33.0886E+06    -108.408E+06    -158.137E+06    -109.756E+06    -156.789E+06    -33.0886E+06    -7.79376E+06         45.7163
            1777     6.79587E-03     124.875E-03     52.0863E-03     24.4190E-03    -100.104E-03     48.9455E-03    -96.9627E-03     24.4190E-03     32.7486E-03     326.786E-03    -163.256E-03    -163.656E-03    -163.088E-03     326.618E-03    -163.656E-03     18.0985E-03    -14.4892E+06    -96.2684E+06    -135.836E+06    -98.5956E+06    -133.508E+06    -14.4892E+06    -9.05594E+06         45.8175
            1778     7.64527E-03     124.897E-03     47.7444E-03     21.7991E-03    -82.4999E-03     40.4409E-03    -79.9239E-03     26.5266E-03     7.74582E-03     326.933E-03    -163.391E-03    -163.702E-03    -163.160E-03     326.703E-03    -163.702E-03     21.1422E-03     1.59915E+06    -84.2540E+06    -114.675E+06    -87.9338E+06    -110.995E+06     1.59915E+06    -9.67886E+06         46.1669
            1779     8.49466E-03     124.926E-03     29.8691E-03    -23.2901E-03    -173.058E-03    -117.612E-03    -69.0067E-03     20.1394E-03     12.5823E-03     326.246E-03    -162.954E-03    -163.764E-03    -162.671E-03     325.963E-03    -163.764E-03     23.4902E-03     14.9950E+06    -69.7431E+06    -92.6598E+06    -77.4668E+06    -84.9361E+06     14.9950E+06    -9.73085E+06         47.0886
            1780     9.34386E-03     124.954E-03     174.691E-03    -24.9065E-03    -158.276E-03     32.8074E-03    -55.0945E-03     13.7954E-03     24.0081E-03     325.079E-03    -161.886E-03    -163.630E-03    -161.574E-03     324.768E-03    -163.630E-03     24.5325E-03     25.8474E+06    -53.7945E+06    -74.8800E+06    -67.5638E+06    -61.1107E+06     25.8474E+06    -9.29803E+06         48.6839
            1781     10.1960E-03     124.991E-03     442.622E-03     31.2634E-03    -66.7807E-03     437.771E-03    -61.9302E-03     31.2634E-03     41.1279E-03     325.650E-03    -162.354E-03    -163.397E-03    -161.921E-03     325.204E-03    -163.384E-03     29.2203E-03     34.5616E+06    -28.9221E+06    -61.7737E+06    -57.4271E+06    -33.2687E+06     34.5616E+06    -10.1097E+06         50.9032
            1782     11.0469E-03     125.034E-03     276.163E-03    -30.0611E-03    -893.482E-03    -572.688E-03    -99.3244E-03     24.6316E-03    -122.576E-03     327.249E-03    -163.298E-03    -163.756E-03    -163.069E-03     326.575E-03    -163.311E-03     36.1945E-03     42.9306E+06    -1.78909E+06    -48.5515E+06    -45.4533E+06    -4.88734E+06     42.9306E+06    -10.5745E+06         53.7060
            1783     11.8970E-03     125.093E-03         1.37570    -35.6243E-03    -897.992E-03     529.845E-03    -106.828E-03     19.0685E-03    -115.699E-03     327.908E-03    -163.246E-03    -164.508E-03    -163.512E-03     327.146E-03    -163.480E-03     38.6598E-03     79.6565E+06     37.3152E+06    -34.7790E+06    -32.6508E+06     57.6014E+06     57.2421E+06    -10.7721E+06         57.0618
            1784     12.7438E-03     125.144E-03         1.37933    -92.5724E-03        -3.40898        -1.83583    -264.655E-03    -21.7422E-03         1.37248     327.907E-03    -163.114E-03    -164.777E-03    -163.325E-03     326.920E-03    -163.577E-03     43.6319E-03     132.711E+06     83.6246E+06    -23.5991E+06    -22.8828E+06     131.994E+06     83.6246E+06    -5.75968E+06         60.9483
            1785     13.5945E-03     125.226E-03         7.89967    -17.6886E-03        -3.45073         4.42157    -43.4576E-03     53.1417E-03        -1.43415     327.363E-03    -162.692E-03    -164.662E-03    -161.967E-03     325.641E-03    -163.665E-03     57.4353E-03     168.495E+06     116.200E+06    -16.3430E+06    -16.1832E+06     168.336E+06     116.200E+06     2.50634E+06         65.1351
            1786     14.4473E-03     125.303E-03         8.92939     66.3785E-03        -11.5741        -3.85185         1.20718     66.3785E-03        -2.89719     324.999E-03    -161.009E-03    -164.135E-03    -159.577E-03     323.172E-03    -163.740E-03     59.1947E-03     185.879E+06     155.776E+06    -7.83413E+06    -7.75959E+06     181.325E+06     160.256E+06     2.71160E+06         68.8219
            1787     853.717E-06     126.185E-03     125.115E-03    -29.3870E-03    -126.339E-03     67.1257E-03    -35.7993E-03    -61.9380E-03     34.5950E-03     324.172E-03    -161.213E-03    -163.004E-03    -162.979E-03     324.160E-03    -161.226E-03     4.56144E-03    -161.467E+06    -165.108E+06    -302.914E+06    -163.845E+06    -302.810E+06    -162.834E+06    -1.47811E+06         45.2436
            1788     1.69907E-03     126.186E-03     42.1742E-03    -10.6259E-03    -61.2208E-03     11.1453E-03    -44.9523E-03     4.13447E-03    -60.3048E-03     326.610E-03    -162.493E-03    -164.169E-03    -164.147E-03     326.588E-03    -162.493E-03     6.05850E-03    -147.277E+06    -158.332E+06    -280.565E+06    -158.398E+06    -280.499E+06    -147.277E+06    -1.37199E+06         45.3080
            1789     2.54697E-03     126.188E-03     26.1692E-03     308.690E-06    -52.2929E-03     6.34427E-03    -38.0214E-03     5.86208E-03    -1.25249E-03     326.998E-03    -162.903E-03    -163.992E-03    -163.758E-03     326.948E-03    -163.087E-03     9.19482E-03    -126.337E+06    -152.009E+06    -259.110E+06    -152.147E+06    -258.973E+06    -126.337E+06    -3.17705E+06         45.3911
            1790     3.39601E-03     126.195E-03     11.9369E-03     1.32249E-03    -40.4036E-03    -1.09798E-03    -31.1235E-03     5.07724E-03     21.1302E-03     326.778E-03    -162.729E-03    -163.974E-03    -163.246E-03     326.713E-03    -163.391E-03     10.8781E-03    -103.441E+06    -142.747E+06    -236.414E+06    -143.244E+06    -235.917E+06    -103.441E+06    -6.30767E+06         45.4658
            1791     4.24667E-03     126.202E-03     16.8808E-03     639.910E-06    -46.4568E-03     6.15102E-03    -39.4817E-03     4.39466E-03     27.3891E-03     326.022E-03    -162.400E-03    -163.812E-03    -162.565E-03     325.942E-03    -163.566E-03     12.2483E-03    -79.3396E+06    -131.495E+06    -211.124E+06    -132.330E+06    -210.290E+06    -79.3396E+06    -7.98213E+06         45.5167
            1792     5.09724E-03     126.216E-03     25.4258E-03     5.54660E-03    -62.7405E-03     18.3354E-03    -55.6500E-03     5.54660E-03     25.5306E-03     325.253E-03    -162.077E-03    -163.513E-03    -161.960E-03     325.137E-03    -163.513E-03     15.0067E-03    -55.1375E+06    -119.786E+06    -182.588E+06    -120.722E+06    -181.652E+06    -55.1375E+06    -7.50525E+06         45.5762
            1793     5.94826E-03     126.237E-03     31.2782E-03     7.12657E-03    -72.7240E-03     21.8505E-03    -63.6722E-03     7.50247E-03     19.5931E-03     325.212E-03    -162.251E-03    -163.383E-03    -162.090E-03     325.052E-03    -163.383E-03     17.6119E-03    -32.3832E+06    -107.765E+06    -154.921E+06    -109.291E+06    -153.394E+06    -32.3832E+06    -8.05628E+06         45.6523
            1794     6.79748E-03     126.258E-03     40.4672E-03     9.21750E-03    -72.1962E-03     30.5205E-03    -62.6254E-03     9.59339E-03     16.6097E-03     325.886E-03    -162.765E-03    -163.312E-03    -162.599E-03     325.687E-03    -163.279E-03     19.6230E-03    -12.6996E+06    -95.5471E+06    -131.902E+06    -98.4163E+06    -129.033E+06    -12.6996E+06    -9.52669E+06         45.7714
            1795     7.64771E-03     126.282E-03     26.6472E-03     6.29293E-03    -53.2249E-03     19.4279E-03    -50.7331E-03     11.0205E-03    -17.0296E-03     326.276E-03    -162.997E-03    -163.305E-03    -162.766E-03     326.013E-03    -163.272E-03     22.5394E-03     2.98893E+06    -82.3844E+06    -112.631E+06    -87.3006E+06    -107.715E+06     2.98893E+06    -10.9099E+06         46.1625
            1796     8.49713E-03     126.312E-03     5.11733E-03    -13.1026E-03    -149.260E-03    -125.960E-03    -35.8833E-03     4.59753E-03     16.1464E-03     326.085E-03    -163.062E-03    -163.330E-03    -162.731E-03     325.755E-03    -163.330E-03     25.2757E-03     15.4458E+06    -66.8500E+06    -93.3203E+06    -76.6251E+06    -83.5452E+06     15.4458E+06    -11.7343E+06         47.1294
            1797     9.34648E-03     126.340E-03     221.729E-03    -10.9499E-03    -150.638E-03     95.1823E-03    -37.0634E-03     2.02275E-03     62.8798E-03     326.783E-03    -162.878E-03    -164.153E-03    -163.254E-03     326.378E-03    -163.371E-03     27.9628E-03     26.2700E+06    -49.2549E+06    -75.2996E+06    -65.7067E+06    -58.8479E+06     26.2700E+06    -12.2511E+06         48.7609
            1798     10.1967E-03     126.374E-03     325.910E-03     11.5709E-03    -100.676E-03     279.710E-03    -59.7400E-03     16.8355E-03    -31.1106E-03     328.007E-03    -162.983E-03    -164.952E-03    -164.048E-03     327.475E-03    -163.355E-03     32.2607E-03     35.0144E+06    -25.6148E+06    -62.3125E+06    -56.5175E+06    -31.4098E+06     35.0144E+06    -11.9990E+06         51.0077
            1799     11.0460E-03     126.425E-03     94.0923E-03    -1.88930E-03    -757.321E-03    -615.835E-03    -52.6585E-03     3.37531E-03    -97.5606E-03     328.334E-03    -163.385E-03    -164.759E-03    -164.094E-03     327.669E-03    -163.385E-03     36.1599E-03     42.6318E+06     3.27951E+06    -53.9583E+06    -49.9847E+06    -694.114E+03     42.6318E+06    -14.2309E+06         53.8323
            1800     11.8940E-03     126.476E-03         1.34322     21.7279E-03    -679.100E-03     676.917E-03     5.86132E-03     3.06508E-03     32.2873E-03     328.185E-03    -163.335E-03    -164.756E-03    -163.657E-03     327.352E-03    -163.600E-03     40.3249E-03     70.6505E+06     37.0580E+06    -48.6383E+06    -45.5789E+06     53.0025E+06     51.6466E+06    -13.3029E+06         57.2065
            1801     12.7430E-03     126.539E-03         1.34808    -50.2910E-03        -1.88365    -513.077E-03    -82.0580E-03     9.28202E-03     231.168E-03     326.867E-03    -162.664E-03    -164.205E-03    -162.120E-03     325.726E-03    -163.609E-03     46.9517E-03     118.928E+06     70.9020E+06    -39.9442E+06    -39.0515E+06     118.035E+06     70.9020E+06    -6.48616E+06         61.1099
            1802     13.5954E-03     126.599E-03         2.29025    -73.9501E-03        -2.01250     415.395E-03    -215.882E-03     4.28571E-03    -18.3887E-03     325.338E-03    -161.830E-03    -163.468E-03    -159.963E-03     323.470E-03    -163.468E-03     59.5874E-03     160.644E+06     103.200E+06    -23.7913E+06    -23.4259E+06     160.278E+06     103.200E+06    -2.66791E+06         65.3164
            1803     14.4517E-03     126.692E-03         2.45568    -3.35221E-03        -2.72145    -304.421E-03     27.9057E-03     7.39558E-03    -144.494E-03     324.733E-03    -161.178E-03    -163.570E-03    -159.333E-03     322.887E-03    -163.570E-03     59.0666E-03     186.196E+06     154.068E+06    -6.62810E+06    -6.54877E+06     182.410E+06     157.774E+06    -620.454E+03         69.0220
            1804     848.928E-06     127.562E-03     102.015E-03    -32.8633E-03    -87.0695E-03     15.9719E-03     51.3681E-03    -85.2574E-03     52.4389E-03     319.892E-03    -159.254E-03    -160.681E-03    -159.377E-03     319.855E-03    -160.521E-03     7.89589E-03    -159.706E+06    -165.978E+06    -297.842E+06    -164.732E+06    -297.722E+06    -161.073E+06    -3.24718E+06         44.9672
            1805     1.70494E-03     127.569E-03     48.6003E-03    -27.8864E-03    -43.9469E-03    -2.70251E-03     7.60113E-03    -28.1317E-03    -28.1158E-03     320.968E-03    -159.934E-03    -161.075E-03    -160.863E-03     320.918E-03    -160.095E-03     9.33377E-03    -149.502E+06    -159.510E+06    -278.089E+06     -159.67E+06    -277.929E+06    -149.502E+06    -3.52714E+06         45.0571
            1806     2.55526E-03     127.573E-03     31.6739E-03    -17.3831E-03    -41.3524E-03     8.99342E-03    -18.6719E-03    -17.3831E-03     16.3223E-03     323.739E-03    -160.718E-03    -163.019E-03    -162.938E-03     323.658E-03    -160.718E-03     12.4939E-03    -126.703E+06    -150.782E+06    -255.449E+06    -150.948E+06    -255.283E+06    -126.703E+06    -3.38463E+06         45.1839
            1807     3.40451E-03     127.579E-03     17.2846E-03    -10.2313E-03    -34.0899E-03     12.4397E-03    -29.2451E-03    -10.2313E-03     25.3054E-03     325.786E-03    -161.563E-03    -164.175E-03    -164.076E-03     325.687E-03    -161.563E-03     13.9279E-03    -101.513E+06    -141.378E+06    -230.149E+06    -141.832E+06    -229.695E+06    -101.513E+06    -5.67637E+06         45.3166
            1808     4.25173E-03     127.589E-03     23.3068E-03    -6.43877E-03    -43.4983E-03     4.07996E-03    -24.2715E-03    -6.43877E-03     17.0473E-03     326.062E-03    -162.269E-03    -163.941E-03    -163.759E-03     325.949E-03    -162.338E-03     14.7451E-03    -76.9625E+06    -130.904E+06    -205.587E+06    -131.894E+06    -204.597E+06    -76.9625E+06    -8.37881E+06         45.4153
            1809     5.10034E-03     127.600E-03     28.5925E-03    -6.01868E-03    -49.4721E-03    -11.9104E-03    -8.96919E-03    -6.01868E-03    -6.38059E-03     325.334E-03    -162.306E-03    -163.358E-03    -162.799E-03     325.175E-03    -162.707E-03     17.4098E-03    -53.9434E+06    -118.514E+06    -180.302E+06    -120.222E+06    -178.594E+06    -53.9434E+06    -9.78203E+06         45.4880
            1810     5.95081E-03     127.620E-03     18.2968E-03    -8.44447E-03    -39.2279E-03    -26.4817E-03     5.17476E-03    -8.06858E-03    -12.0567E-03     324.535E-03    -162.036E-03    -162.896E-03    -162.001E-03     324.320E-03    -162.716E-03     20.3383E-03    -32.1492E+06    -105.831E+06    -153.680E+06    -107.920E+06    -151.591E+06    -32.1492E+06    -9.61519E+06         45.5712
            1811     6.80250E-03     127.643E-03     16.7569E-03    -7.18033E-03    -31.3102E-03    -8.92353E-03    -3.14413E-03    -9.66596E-03    -14.3842E-03     324.748E-03    -162.276E-03    -162.691E-03    -162.042E-03     324.482E-03    -162.658E-03     22.6830E-03    -10.9550E+06    -92.5050E+06    -127.786E+06    -95.7925E+06    -124.498E+06    -10.9550E+06    -9.82375E+06         45.7250
            1812     7.65162E-03     127.669E-03     10.9597E-03    -5.52851E-03    -32.4476E-03     5.73505E-03    -23.5910E-03    -9.16055E-03    -12.5234E-03     325.235E-03    -162.429E-03    -162.606E-03    -162.137E-03     324.907E-03    -162.570E-03     25.2049E-03     5.71558E+06    -77.8308E+06    -108.757E+06    -84.5963E+06    -101.992E+06     5.71558E+06    -12.4456E+06         46.1678
            1813     8.50304E-03     127.694E-03    -3.45594E-03    -15.4976E-03    -96.0285E-03    -75.9433E-03    -27.1404E-03    -11.8983E-03     30.2217E-03     325.570E-03    -162.424E-03    -163.129E-03    -162.535E-03     325.164E-03    -162.611E-03     28.1262E-03     17.2986E+06    -62.4241E+06    -92.2356E+06    -73.8483E+06    -80.8114E+06     17.2986E+06    -14.1936E+06         47.1847
            1814     9.35456E-03     127.728E-03     205.035E-03    -13.4596E-03    -97.4561E-03     131.430E-03    -28.2214E-03    -9.08979E-03     19.4813E-03     327.768E-03    -162.749E-03    -165.077E-03    -164.485E-03     327.255E-03    -162.828E-03     31.7048E-03     27.2099E+06    -45.3334E+06    -75.8767E+06    -64.3104E+06    -56.8998E+06     27.2099E+06    -14.1446E+06         48.8601
            1815     10.1990E-03     127.768E-03     217.633E-03    -6.83953E-03    -205.801E-03     38.8572E-03    -32.2893E-03    -1.57493E-03    -101.843E-03     330.006E-03    -163.052E-03    -166.786E-03    -166.101E-03     329.321E-03    -163.052E-03     36.6282E-03     36.6762E+06    -23.3451E+06    -61.7136E+06    -54.7238E+06    -30.3349E+06     36.6762E+06    -14.1062E+06         51.1440
            1816     11.0445E-03     127.812E-03     54.2070E-03    -19.6568E-03    -439.306E-03    -376.561E-03    -13.8027E-03    -14.3922E-03     9.45658E-03     329.481E-03    -163.256E-03    -166.176E-03    -165.322E-03     328.627E-03    -163.256E-03     40.8499E-03     44.9446E+06     5.10268E+06    -50.8242E+06    -46.6827E+06     961.190E+03     44.9446E+06    -12.2280E+06         54.0015
            1817     11.8948E-03     127.865E-03     885.035E-03     12.7309E-03    -280.841E-03     629.688E-03    -6.83073E-03    -5.93192E-03     105.683E-03     327.418E-03    -163.013E-03    -164.405E-03    -162.920E-03     326.406E-03    -163.486E-03     44.3811E-03     64.4222E+06     41.1265E+06    -41.4023E+06    -39.7426E+06     48.6282E+06     55.2608E+06    -8.94983E+06         57.4091
            1818     12.7483E-03     127.921E-03     843.939E-03     8.89260E-03        -1.42917    -558.576E-03    -15.3961E-03    -2.36465E-03    -131.247E-03     326.043E-03    -162.499E-03    -163.444E-03    -161.326E-03     324.849E-03    -163.423E-03     48.2148E-03     109.971E+06     75.4112E+06    -29.5362E+06    -28.4807E+06     108.915E+06     75.4112E+06    -9.92222E+06         61.3452
            1819     13.6007E-03     127.984E-03         1.76930     22.3090E-03        -1.43928     366.748E-03    -4.45910E-03    -9.95742E-03    -44.5309E-03     326.274E-03    -162.543E-03    -163.739E-03    -161.237E-03     324.436E-03    -163.207E-03     59.1524E-03     156.585E+06     102.869E+06    -16.8750E+06    -16.3451E+06     156.056E+06     102.869E+06    -8.87686E+06         65.5743
            1820     14.4503E-03     128.072E-03         1.76208    -67.4185E-03        -1.94037    -128.013E-03    -115.271E-03    -2.42243E-03     161.060E-03     325.548E-03    -161.750E-03    -163.919E-03    -160.481E-03     323.769E-03    -163.409E-03     57.9156E-03     183.964E+06     151.686E+06    -5.02823E+06    -4.91249E+06     179.889E+06     155.645E+06    -4.20310E+06         69.2907
            1821     857.036E-06     128.933E-03     82.8118E-03    -31.1564E-03    -73.2347E-03     6.55533E-03     13.4126E-03    -41.5472E-03     51.1855E-03     315.071E-03    -156.205E-03    -158.894E-03    -156.469E-03     315.034E-03    -158.593E-03     7.89217E-03    -156.137E+06    -164.245E+06    -289.696E+06    -161.948E+06    -289.657E+06    -158.474E+06    -1.36955E+06         44.6667
            1822     1.70884E-03     128.939E-03     50.9245E-03    -21.0899E-03    -50.4429E-03    -36.1886E-03     36.6702E-03    -21.0899E-03    -31.2463E-03     316.310E-03    -157.579E-03    -158.799E-03    -158.581E-03     316.254E-03    -157.741E-03     10.0572E-03    -145.520E+06    -157.847E+06    -273.071E+06    -158.041E+06    -272.877E+06    -145.520E+06    -4.34759E+06         44.7629
            1823     2.56221E-03     128.951E-03     46.5896E-03    -24.9436E-03    -45.9391E-03    -25.4733E-03     26.1238E-03    -24.9436E-03     13.1111E-03     319.538E-03    -158.430E-03    -161.268E-03    -161.166E-03     319.436E-03    -158.430E-03     13.7635E-03    -126.495E+06    -150.341E+06    -252.900E+06    -150.766E+06    -252.476E+06    -126.495E+06    -6.09662E+06         44.9106
            1824     3.41007E-03     128.964E-03     45.7825E-03    -24.2533E-03    -47.7564E-03    -17.3329E-03     15.3590E-03    -24.2533E-03     16.7543E-03     322.764E-03    -159.415E-03    -163.290E-03    -163.166E-03     322.639E-03    -159.415E-03     15.4048E-03    -101.217E+06    -139.698E+06    -225.175E+06    -140.186E+06    -224.687E+06    -101.217E+06    -6.06969E+06         45.0885
            1825     4.25937E-03     128.973E-03     39.2337E-03    -21.5849E-03    -44.3233E-03    -23.5172E-03     20.3828E-03    -23.5401E-03     961.136E-06     323.901E-03    -160.471E-03    -163.404E-03    -163.233E-03     323.730E-03    -160.471E-03     17.8402E-03    -74.1067E+06    -128.099E+06    -198.345E+06    -129.018E+06    -197.426E+06    -74.1067E+06    -7.58511E+06         45.2409
            1826     5.10842E-03     128.986E-03     35.4100E-03    -20.6463E-03    -39.3957E-03    -29.9868E-03     29.5776E-03    -24.2229E-03    -140.589E-06     324.309E-03    -161.167E-03    -163.346E-03    -163.084E-03     324.047E-03    -161.167E-03     22.3640E-03    -51.0305E+06    -116.589E+06    -174.845E+06    -118.584E+06    -172.850E+06    -51.0305E+06    -10.3258E+06         45.3513
            1827     5.95773E-03     129.002E-03     39.5241E-03    -23.6205E-03    -39.2245E-03    -29.7654E-03     31.6863E-03    -25.2418E-03     19.2242E-03     324.194E-03    -161.350E-03    -163.178E-03    -162.727E-03     323.855E-03    -161.462E-03     25.4047E-03    -30.3870E+06    -103.624E+06    -151.391E+06    -107.479E+06    -147.537E+06    -30.3870E+06    -12.3842E+06         45.4729
            1828     6.80747E-03     129.026E-03     37.4378E-03    -22.7601E-03    -32.4311E-03    -23.2538E-03     31.1220E-03    -25.6216E-03     9.30973E-03     323.995E-03    -161.485E-03    -162.776E-03    -162.247E-03     323.612E-03    -161.632E-03     27.1101E-03    -10.2808E+06    -88.5853E+06    -127.581E+06    -94.2682E+06    -121.898E+06    -10.2808E+06    -13.2843E+06         45.6833
            1829     7.65998E-03     129.051E-03     29.0710E-03    -22.0119E-03    -32.9018E-03    -24.6328E-03     24.4340E-03    -25.6440E-03     505.999E-06     324.611E-03    -161.571E-03    -162.877E-03    -162.450E-03     324.217E-03    -161.605E-03     27.6503E-03     7.65287E+06    -73.4641E+06    -105.208E+06    -81.9974E+06    -96.6750E+06     7.65287E+06    -13.6923E+06         46.1827
            1830     8.51008E-03     129.078E-03     22.0859E-03    -26.0084E-03    -58.0870E-03    -45.1459E-03     9.91535E-03    -26.7789E-03     42.4889E-03     325.999E-03    -161.818E-03    -164.126E-03    -163.655E-03     325.529E-03    -161.818E-03     30.2396E-03     20.2446E+06    -58.1465E+06    -89.7128E+06    -72.1089E+06    -75.7504E+06     20.2446E+06    -15.4334E+06         47.2507
            1831     9.35685E-03     129.114E-03     142.140E-03    -13.3416E-03    -53.1033E-03     97.6222E-03     679.492E-06    -22.6067E-03    -4.08241E-03     327.751E-03    -162.230E-03    -165.606E-03    -164.999E-03     327.144E-03    -162.230E-03     34.4622E-03     29.7006E+06    -40.9897E+06    -75.9067E+06    -61.7268E+06    -55.1695E+06     29.7006E+06    -16.7685E+06         48.9778
            1832     10.2068E-03     129.157E-03     147.384E-03    -12.1765E-03    -258.544E-03    -112.455E-03     10.5601E-03    -21.4416E-03    -57.0523E-03     328.728E-03    -162.467E-03    -166.215E-03    -165.431E-03     327.944E-03    -162.467E-03     39.2582E-03     38.6525E+06    -19.2737E+06    -61.7589E+06    -51.7230E+06    -29.3096E+06     38.6525E+06    -17.2003E+06         51.3146
            1833     11.0551E-03     129.203E-03     222.787E-03    -22.6027E-03    -259.497E-03    -55.2948E-03     22.7264E-03    -26.7443E-03     84.9823E-03     328.711E-03    -162.693E-03    -166.062E-03    -165.087E-03     327.736E-03    -162.693E-03     43.8151E-03     46.5502E+06     1.85120E+06    -48.0980E+06    -42.0663E+06    -4.18049E+06     46.5502E+06    -14.1757E+06         54.2248
            1834     11.9025E-03     129.250E-03     474.612E-03    -12.7074E-03    -191.443E-03     303.311E-03    -16.0003E-03    -16.8490E-03    -48.3833E-03     327.997E-03    -162.755E-03    -165.338E-03    -164.005E-03     326.872E-03    -162.963E-03     47.0206E-03     72.5926E+06     40.7685E+06    -35.2733E+06    -32.4085E+06     50.0288E+06     60.4675E+06    -10.9619E+06         57.6811
            1835     12.7517E-03     129.305E-03     343.098E-03    -20.9858E-03    -835.263E-03    -468.955E-03    -23.2104E-03    -20.9858E-03    -43.2229E-03     327.658E-03    -162.831E-03    -164.804E-03    -163.293E-03     326.355E-03    -163.039E-03     50.4604E-03     114.313E+06     80.9708E+06    -26.9299E+06    -25.5762E+06     112.959E+06     80.9708E+06    -12.6487E+06         61.6602
            1836     13.6013E-03     129.370E-03         1.08315     16.6029E-03    -678.186E-03     410.862E-03     33.7709E-03    -23.0691E-03     35.2536E-03     328.174E-03    -162.974E-03    -165.126E-03    -163.193E-03     326.241E-03    -162.974E-03     61.0059E-03     148.247E+06     102.031E+06    -18.3979E+06    -17.5532E+06     147.402E+06     102.031E+06    -10.7007E+06         65.9182
            1837     14.4523E-03     129.461E-03         1.08357    -68.4366E-03        -1.16952    -140.547E-03     344.442E-06    -14.1883E-03    -260.484E-03     327.071E-03    -162.565E-03    -164.668E-03    -162.163E-03     325.282E-03    -163.282E-03     58.1297E-03     176.733E+06     147.378E+06    -7.98749E+06    -7.81769E+06     172.207E+06     151.734E+06    -4.13311E+06         69.6433
            1838     854.498E-06     130.299E-03     89.6939E-03    -9.97084E-03    -94.4822E-03     16.7220E-03     33.1258E-03    -64.6069E-03     45.5483E-03     312.677E-03    -155.263E-03    -157.417E-03    -156.152E-03     312.657E-03    -156.508E-03     6.09672E-03    -155.876E+06    -163.824E+06    -283.571E+06    -161.549E+06    -283.510E+06    -158.212E+06    -2.31264E+06         44.3729
            1839     1.71124E-03     130.309E-03     64.6419E-03    -23.3871E-03    -56.7976E-03    -40.8504E-03     52.8466E-03    -27.5391E-03    -58.7520E-03     313.884E-03    -156.462E-03    -157.466E-03    -157.308E-03     313.836E-03    -156.572E-03     9.10608E-03    -143.554E+06    -156.223E+06    -266.563E+06    -156.342E+06    -266.444E+06    -143.554E+06    -3.45439E+06         44.4514
            1840     2.56446E-03     130.323E-03     78.9894E-03    -34.5660E-03    -60.6037E-03    -55.4347E-03     73.8204E-03    -34.5660E-03    -26.5606E-03     315.186E-03    -156.752E-03    -158.538E-03    -158.169E-03     315.074E-03    -157.008E-03     14.3303E-03    -123.857E+06    -148.960E+06    -245.985E+06    -149.407E+06    -245.539E+06    -123.857E+06    -6.04474E+06         44.5901
            1841     3.41874E-03     130.343E-03     80.8227E-03    -39.6609E-03    -58.7239E-03    -57.2762E-03     80.0630E-03    -40.3488E-03     3.50856E-03     316.856E-03    -157.176E-03    -159.674E-03    -159.261E-03     316.699E-03    -157.432E-03     17.2098E-03    -100.273E+06    -139.223E+06    -221.358E+06    -140.058E+06    -220.523E+06    -100.273E+06    -7.93455E+06         44.7897
            1842     4.26970E-03     130.351E-03     63.9374E-03    -35.8807E-03    -47.9170E-03    -39.6497E-03     62.1231E-03    -42.3337E-03     10.7821E-03     319.290E-03    -158.121E-03    -161.017E-03    -160.789E-03     319.062E-03    -158.121E-03     20.6489E-03    -74.2082E+06    -127.610E+06    -194.344E+06    -128.852E+06    -193.102E+06    -74.2082E+06    -8.64856E+06         44.9919
            1843     5.12133E-03     130.368E-03     48.9423E-03    -29.7780E-03    -40.9260E-03    -25.4152E-03     44.5795E-03    -40.9260E-03     26.5687E-03     321.582E-03    -158.917E-03    -162.498E-03    -162.141E-03     321.225E-03    -158.917E-03     26.1713E-03    -47.8884E+06    -113.834E+06    -168.183E+06    -116.268E+06    -165.749E+06    -47.8884E+06    -10.8012E+06         45.1574
            1844     5.97057E-03     130.386E-03     53.5405E-03    -31.9945E-03    -40.6129E-03    -26.5521E-03     46.4331E-03    -38.9479E-03     28.1620E-03     323.118E-03    -159.533E-03    -163.782E-03    -163.329E-03     322.665E-03    -159.533E-03     29.6203E-03    -25.1910E+06    -98.9494E+06    -144.633E+06    -103.750E+06    -139.833E+06    -25.1910E+06    -13.5699E+06         45.3409
            1845     6.81970E-03     130.409E-03     60.4163E-03    -34.9893E-03    -40.8722E-03    -32.5707E-03     55.0805E-03    -37.9549E-03     6.37730E-03     324.208E-03    -160.095E-03    -164.440E-03    -163.952E-03     323.720E-03    -160.095E-03     30.8441E-03    -7.23870E+06    -84.2392E+06    -125.629E+06    -92.7933E+06    -117.075E+06    -7.23870E+06    -16.3688E+06         45.6208
            1846     7.66792E-03     130.432E-03     60.3522E-03    -36.7783E-03    -46.4517E-03    -43.7901E-03     59.0858E-03    -38.1735E-03    -6.28398E-03     325.215E-03    -160.426E-03    -164.782E-03    -164.283E-03     324.716E-03    -160.426E-03     31.1742E-03     8.67666E+06    -68.5382E+06    -105.915E+06    -80.9181E+06    -93.5352E+06     8.67666E+06    -17.2963E+06         46.1855
            1847     8.51601E-03     130.465E-03     56.2472E-03    -34.0086E-03    -49.6517E-03    -37.8192E-03     49.1009E-03    -38.6948E-03     29.5846E-03     326.454E-03    -160.914E-03    -165.526E-03    -164.920E-03     325.848E-03    -160.914E-03     34.3002E-03     23.6290E+06    -52.1178E+06    -87.0570E+06    -68.4488E+06    -70.7260E+06     23.6290E+06    -17.2854E+06         47.3166
            1848     9.36530E-03     130.501E-03     81.2979E-03    -12.4887E-03    -39.9862E-03     28.3205E-03     36.5579E-03    -36.0554E-03    -4.26671E-03     327.430E-03    -161.488E-03    -166.064E-03    -165.331E-03     326.698E-03    -161.488E-03     37.9433E-03     33.2167E+06    -35.7430E+06    -73.9660E+06    -58.6817E+06    -51.0274E+06     33.2167E+06    -18.3733E+06         49.1083
            1849     10.2117E-03     130.545E-03     78.9644E-03    -17.9039E-03    -174.535E-03    -115.202E-03     38.5121E-03    -36.7844E-03     13.8429E-03     327.356E-03    -161.799E-03    -165.695E-03    -164.872E-03     326.533E-03    -161.799E-03     40.2222E-03     39.2413E+06    -18.2179E+06    -61.8575E+06    -51.4609E+06    -28.6145E+06     39.2413E+06    -17.7283E+06         51.5108
            1850     11.0617E-03     130.591E-03     284.185E-03    -22.7009E-03    -172.926E-03     100.017E-03     23.7157E-03    -35.1753E-03     63.1360E-03     326.991E-03    -162.026E-03    -165.114E-03    -164.178E-03     326.055E-03    -162.026E-03     42.8436E-03     46.9197E+06     4.20024E+06    -51.2290E+06    -43.9343E+06    -3.09450E+06     46.9197E+06    -18.4547E+06         54.4883
            1851     11.9119E-03     130.640E-03     304.955E-03    -19.5001E-03    -368.191E-03    -75.8951E-03     25.1337E-03    -31.9746E-03    -80.0903E-03     327.521E-03    -162.276E-03    -165.453E-03    -164.298E-03     326.366E-03    -162.276E-03     47.5296E-03     68.8576E+06     41.3835E+06    -38.8880E+06    -33.5391E+06     46.3146E+06     58.5776E+06    -17.6079E+06         58.0116
            1852     12.7599E-03     130.694E-03     413.627E-03    -17.5361E-03    -444.035E-03    -44.3322E-03     30.7677E-03    -34.3793E-03     52.5083E-03     329.409E-03    -162.482E-03    -167.008E-03    -165.529E-03     327.930E-03    -162.482E-03     54.0337E-03     111.016E+06     80.8190E+06    -24.8626E+06    -22.7447E+06     108.898E+06     80.8190E+06    -12.7340E+06         62.0541
            1853     13.6077E-03     130.760E-03     512.597E-03    -16.6390E-03    -469.943E-03     71.3193E-03    -13.3549E-03    -31.9499E-03     77.6633E-03     330.365E-03    -162.627E-03    -167.719E-03    -165.693E-03     328.339E-03    -162.627E-03     63.0720E-03     144.704E+06     102.560E+06    -18.1369E+06    -17.4856E+06     144.053E+06     102.560E+06    -8.33805E+06         66.3532
            1854     14.4558E-03     130.847E-03     606.394E-03    -6.34975E-03    -597.868E-03    -34.5378E-03     66.2109E-03    -29.4972E-03    -128.468E-03     329.413E-03    -163.103E-03    -166.557E-03    -164.774E-03     327.630E-03    -163.103E-03     58.3921E-03     171.194E+06     142.336E+06    -11.0134E+06    -10.8607E+06     164.410E+06     148.967E+06    -3.73814E+06         70.0829
            1855     855.888E-06     131.665E-03     125.081E-03    -660.519E-06    -138.946E-03     12.7687E-03     111.652E-03    -138.946E-03     17.8158E-03     312.088E-03    -155.534E-03    -156.552E-03    -156.183E-03     312.065E-03    -155.881E-03     5.40435E-03    -157.320E+06    -165.283E+06    -278.615E+06    -163.858E+06    -278.551E+06    -158.809E+06    -1.76343E+06         44.0564
            1856     1.71057E-03     131.674E-03     103.936E-03    -49.6018E-03    -66.6510E-03    -50.6197E-03     99.1964E-03    -60.8938E-03    -47.3233E-03     311.351E-03    -155.174E-03    -156.193E-03    -155.325E-03     311.278E-03    -155.968E-03     11.1008E-03    -142.880E+06    -157.246E+06    -259.882E+06    -157.464E+06    -259.665E+06    -142.880E+06    -4.05020E+06         44.1118
            1857     2.56621E-03     131.693E-03     104.052E-03    -44.3663E-03    -70.2194E-03    -52.9672E-03     100.267E-03    -57.8329E-03    -25.3787E-03     310.496E-03    -154.545E-03    -155.919E-03    -154.631E-03     310.358E-03    -155.694E-03     15.8266E-03    -121.359E+06    -147.876E+06    -238.804E+06    -148.380E+06    -238.300E+06    -121.359E+06    -6.39151E+06         44.2335
            1858     3.42387E-03     131.705E-03     95.6090E-03    -45.7935E-03    -63.2925E-03    -51.9281E-03     95.1144E-03    -56.6632E-03     5.86802E-03     310.856E-03    -154.819E-03    -156.125E-03    -155.212E-03     310.644E-03    -155.521E-03     19.5997E-03    -96.1520E+06    -137.311E+06    -215.142E+06    -138.361E+06    -214.091E+06    -96.1520E+06    -8.68670E+06         44.4478
            1859     4.28115E-03     131.726E-03     95.6309E-03    -50.8162E-03    -59.4286E-03    -52.0721E-03     93.3346E-03    -55.8765E-03    -6.69638E-03     314.482E-03    -155.835E-03    -158.494E-03    -158.218E-03     314.206E-03    -155.835E-03     22.7139E-03    -70.1790E+06    -124.145E+06    -188.712E+06    -126.595E+06    -186.263E+06    -70.1790E+06    -11.6642E+06         44.6965
            1860     5.13284E-03     131.741E-03     89.2414E-03    -44.5387E-03    -58.4779E-03    -45.5090E-03     86.6596E-03    -54.9257E-03     1.74612E-03     318.179E-03    -156.638E-03    -161.142E-03    -160.768E-03     317.805E-03    -156.638E-03     26.6032E-03    -44.4356E+06    -108.686E+06    -162.958E+06    -112.732E+06    -158.912E+06    -44.4356E+06    -13.9310E+06         44.9208
            1861     5.98455E-03     131.767E-03     77.3313E-03    -41.1286E-03    -53.4323E-03    -39.8268E-03     76.0294E-03    -53.4323E-03     16.4800E-03     320.493E-03    -157.466E-03    -163.115E-03    -162.629E-03     320.006E-03    -157.466E-03     30.6284E-03    -21.6817E+06    -94.2007E+06     -139.84E+06    -99.9054E+06    -134.135E+06    -21.6817E+06    -14.7918E+06         45.1644
            1862     6.83220E-03     131.790E-03     71.1314E-03    -37.8623E-03    -51.7372E-03    -35.6325E-03     68.9015E-03    -51.7372E-03     2.19206E-03     323.310E-03    -158.262E-03    -165.234E-03    -164.663E-03     322.740E-03    -158.262E-03     33.2872E-03    -2.19708E+06    -78.5290E+06    -118.541E+06    -88.1683E+06    -108.902E+06    -2.19708E+06    -16.6574E+06         45.5084
            1863     7.67935E-03     131.820E-03     69.1300E-03    -38.4830E-03    -51.3507E-03    -38.1299E-03     67.7566E-03    -50.3304E-03    -4.00345E-03     325.443E-03    -158.971E-03    -166.396E-03    -165.760E-03     324.807E-03    -158.971E-03     35.3059E-03     12.7616E+06    -63.2324E+06    -103.203E+06    -77.6720E+06    -88.7630E+06     12.7616E+06    -19.1115E+06         46.1527
            1864     8.52713E-03     131.849E-03     70.5874E-03    -38.2035E-03    -50.4197E-03    -38.7678E-03     70.1314E-03    -49.3993E-03     12.0278E-03     326.474E-03    -159.723E-03    -166.660E-03    -165.885E-03     325.699E-03    -159.723E-03     38.8896E-03     24.1603E+06    -48.0906E+06    -88.7875E+06    -68.2745E+06    -68.6036E+06     24.1603E+06    -19.8528E+06         47.3700
            1865     9.37328E-03     131.891E-03     71.9416E-03    -31.2456E-03    -50.2403E-03    -30.0688E-03     68.8823E-03    -48.3578E-03    -7.79630E-03     327.082E-03    -160.411E-03    -166.580E-03    -165.682E-03     326.183E-03    -160.411E-03     42.0119E-03     34.3695E+06    -32.5653E+06    -73.0466E+06    -58.4642E+06    -47.1477E+06     34.3695E+06    -19.0937E+06         49.2434
            1866     10.2221E-03     131.931E-03     66.5801E-03    -35.1180E-03    -83.9501E-03    -63.1904E-03     59.1886E-03    -48.4861E-03     18.0669E-03     327.323E-03    -160.927E-03    -166.471E-03    -165.470E-03     326.322E-03    -160.927E-03     44.2793E-03     42.0465E+06    -13.3982E+06    -59.7721E+06    -48.8330E+06    -24.3373E+06     42.0465E+06    -19.3298E+06         51.7258
            1867     11.0690E-03     131.976E-03     165.957E-03    -25.0010E-03    -78.9235E-03     62.6912E-03     44.6837E-03    -45.3421E-03    -23.8649E-03     327.859E-03    -161.305E-03    -166.668E-03    -165.609E-03     326.800E-03    -161.305E-03     45.6496E-03     48.7804E+06     7.42329E+06    -48.4106E+06    -40.2441E+06    -743.234E+03     48.7804E+06    -19.4397E+06         54.7805
            1868     11.9187E-03     132.021E-03     167.865E-03    -28.6228E-03    -287.410E-03    -146.201E-03     43.2443E-03    -45.2110E-03     55.1306E-06     328.154E-03    -161.629E-03    -166.605E-03    -165.495E-03     327.044E-03    -161.629E-03     46.7005E-03     69.7539E+06     39.5128E+06    -39.7461E+06    -34.0126E+06     45.8661E+06     57.6672E+06    -20.7941E+06         58.3799
            1869     12.7693E-03     132.085E-03     419.556E-03    -14.8793E-03    -285.982E-03     121.701E-03     40.7768E-03    -43.7824E-03     12.7031E-03     329.979E-03    -161.961E-03    -168.033E-03    -166.613E-03     328.558E-03    -161.961E-03     52.9179E-03     103.319E+06     76.1197E+06    -30.2912E+06    -27.4948E+06     100.523E+06     76.1197E+06    -16.1513E+06         62.5004
            1870     13.6132E-03     132.154E-03     394.473E-03    -13.1174E-03    -493.052E-03    -93.0469E-03     21.8381E-03    -40.4881E-03    -27.6957E-03     331.715E-03    -162.256E-03    -169.473E-03    -167.637E-03     329.878E-03    -162.256E-03     60.4251E-03     134.339E+06     98.0915E+06    -18.3398E+06    -17.8160E+06     133.815E+06     98.0915E+06    -7.10805E+06         66.8529
            1871     14.4590E-03     132.231E-03     516.907E-03    -17.3313E-03    -499.136E-03     34.1950E-03     6.72331E-03    -40.4787E-03     81.7569E-03     331.970E-03    -162.900E-03    -169.381E-03    -167.654E-03     330.244E-03    -162.900E-03     58.3855E-03     168.753E+06     138.481E+06    -9.02213E+06    -8.90786E+06     159.502E+06     147.619E+06    -3.17674E+06         70.5899
            1872     855.193E-06     133.029E-03     146.152E-03    -20.8426E-03    -146.097E-03    -17.3797E-03     139.733E-03    -143.141E-03     8.99561E-03     308.395E-03    -154.022E-03    -154.391E-03    -154.110E-03     308.351E-03    -154.258E-03     7.42884E-03    -159.141E+06    -164.153E+06    -272.541E+06    -162.859E+06    -272.347E+06    -160.630E+06    -3.15017E+06         43.6628
            1873     1.71344E-03     133.038E-03     131.238E-03    -63.0025E-03    -79.0759E-03    -59.6498E-03     124.930E-03    -76.1198E-03     4.18352E-03     306.976E-03    -152.925E-03    -154.042E-03    -152.864E-03     306.862E-03    -153.989E-03     14.0688E-03    -141.683E+06    -154.976E+06    -251.604E+06    -155.387E+06    -251.193E+06    -141.683E+06    -5.68928E+06         43.7229
            1874     2.57351E-03     133.052E-03     113.849E-03    -49.7446E-03    -75.3780E-03    -52.4911E-03     110.405E-03    -69.1885E-03     12.0718E-03     305.883E-03    -152.259E-03    -153.556E-03    -152.073E-03     305.697E-03    -153.556E-03     18.3653E-03    -116.192E+06    -144.728E+06    -230.546E+06    -145.568E+06    -229.706E+06    -116.192E+06    -8.28716E+06         43.8550
            1875     3.43264E-03     133.067E-03     122.223E-03    -56.1375E-03    -80.3519E-03    -65.4346E-03     117.487E-03    -66.3194E-03     42.2824E-03     307.069E-03    -152.924E-03    -154.236E-03    -153.469E-03     306.770E-03    -153.393E-03     23.1893E-03    -90.4844E+06    -131.758E+06    -207.189E+06    -133.748E+06    -205.199E+06    -90.4844E+06    -11.3029E+06         44.0939
            1876     4.28862E-03     133.091E-03     132.406E-03    -66.4745E-03    -78.4423E-03    -74.1931E-03     128.719E-03    -67.0370E-03    -2.46691E-03     310.759E-03    -153.727E-03    -156.863E-03    -156.475E-03     310.371E-03    -153.727E-03     26.7835E-03    -65.0209E+06    -117.254E+06    -181.398E+06    -120.686E+06    -177.967E+06    -65.0209E+06    -13.9935E+06         44.3857
            1877     5.14263E-03     133.116E-03     118.538E-03    -61.4250E-03    -71.0831E-03    -62.8001E-03     116.351E-03    -67.5207E-03    -7.65418E-03     314.961E-03    -154.567E-03    -160.068E-03    -159.611E-03     314.505E-03    -154.567E-03     29.2051E-03    -41.1177E+06    -104.156E+06    -157.827E+06    -109.413E+06    -152.569E+06    -41.1177E+06    -15.5026E+06         44.6615
            1878     5.99348E-03     133.139E-03     102.180E-03    -53.4355E-03    -66.2889E-03    -51.8180E-03     100.563E-03    -66.2889E-03     27.0626E-03     317.920E-03    -155.577E-03    -162.319E-03    -161.779E-03     317.380E-03    -155.577E-03     32.1182E-03    -18.9166E+06    -89.0133E+06    -136.687E+06    -96.8520E+06    -128.848E+06    -18.9166E+06    -17.4594E+06         44.9484
            1879     6.84587E-03     133.171E-03     95.0713E-03    -49.0887E-03    -64.4463E-03    -47.5760E-03     93.5586E-03    -64.4463E-03     6.98556E-03     320.482E-03    -156.493E-03    -163.988E-03    -163.367E-03     319.861E-03    -156.493E-03     34.6188E-03     625.868E+03    -74.9035E+06    -114.639E+06    -84.8553E+06    -104.687E+06     625.868E+03    -16.9710E+06         45.3440
            1880     7.69364E-03     133.204E-03     89.3737E-03    -45.1550E-03    -62.6673E-03    -44.2413E-03     88.4599E-03    -62.6673E-03    -8.97627E-03     323.480E-03    -157.376E-03    -166.092E-03    -165.367E-03     322.755E-03    -157.376E-03     37.6156E-03     16.8791E+06    -59.5289E+06    -97.1032E+06    -74.6005E+06    -82.0316E+06     16.8791E+06    -18.1288E+06         46.0775
            1881     8.53950E-03     133.237E-03     85.4906E-03    -41.8333E-03    -60.9937E-03    -41.3022E-03     84.9595E-03    -60.9937E-03     2.08741E-03     325.874E-03    -158.301E-03    -167.519E-03    -166.648E-03     325.003E-03    -158.301E-03     41.3316E-03     27.9343E+06    -42.6013E+06    -85.1826E+06    -64.6902E+06    -63.0937E+06     27.9343E+06    -20.8484E+06         47.3995
            1882     9.38770E-03     133.277E-03     85.0039E-03    -44.5410E-03    -61.5930E-03    -45.8057E-03     84.3861E-03    -59.7105E-03    -3.76418E-03     326.395E-03    -159.093E-03    -167.220E-03    -166.254E-03     325.429E-03    -159.093E-03     43.6119E-03     35.9483E+06    -28.1123E+06    -72.4315E+06    -55.6009E+06    -44.9428E+06     35.9483E+06    -21.2264E+06         49.3696
            1883     10.2349E-03     133.315E-03     82.9766E-03    -36.8906E-03    -60.2885E-03    -34.8194E-03     79.0229E-03    -58.4060E-03     11.7513E-03     327.189E-03    -159.825E-03    -167.419E-03    -166.338E-03     326.108E-03    -159.825E-03     46.1140E-03     43.9053E+06    -8.07245E+06    -58.9498E+06    -46.7639E+06    -20.2584E+06     43.9053E+06    -21.0693E+06         51.9449
            1884     11.0828E-03     133.367E-03     89.4424E-03    -31.6524E-03    -65.3979E-03    -23.9660E-03     72.8600E-03    -56.5018E-03    -12.6367E-03     329.566E-03    -160.382E-03    -169.222E-03    -168.046E-03     328.389E-03    -160.382E-03     48.3653E-03     49.9743E+06     9.21067E+06    -47.4785E+06    -38.5869E+06     318.990E+03     49.9743E+06    -20.6039E+06         55.0899
            1885     11.9245E-03     133.416E-03     88.1016E-03    -17.2533E-03    -106.201E-03    -39.5453E-03     59.2340E-03    -55.0414E-03     10.5271E-03     331.373E-03    -160.913E-03    -170.398E-03    -169.185E-03     330.160E-03    -160.913E-03     49.1424E-03     71.7016E+06     39.2189E+06    -38.0807E+06    -32.7746E+06     47.1881E+06     58.4264E+06    -17.4361E+06         58.7744
            1886     12.7686E-03     133.470E-03     142.762E-03    -11.0383E-03    -122.671E-03     15.0884E-03     46.5948E-03    -52.6308E-03     6.63693E-03     332.073E-03    -161.517E-03    -170.399E-03    -168.872E-03     330.546E-03    -161.517E-03     54.9956E-03     99.8491E+06     75.8754E+06    -30.7202E+06    -28.6468E+06     97.7757E+06     75.8754E+06    -15.7913E+06         62.9793
            1887     13.6169E-03     133.551E-03     161.684E-03    -11.0680E-03    -180.710E-03    -33.7052E-03     53.9452E-03    -50.3338E-03    -21.8794E-03     332.428E-03    -161.955E-03    -170.316E-03    -168.471E-03     330.584E-03    -161.955E-03     60.7449E-03     120.984E+06     93.2009E+06    -22.8314E+06    -21.4929E+06     119.646E+06     93.2009E+06    -12.5164E+06         67.3945
            1888     14.4622E-03     133.621E-03     194.359E-03    -21.3983E-03    -188.243E-03     7.95450E-03     25.3675E-03    -48.6042E-03     35.9342E-03     334.168E-03    -162.734E-03    -171.772E-03    -169.968E-03     332.364E-03    -162.734E-03     60.2738E-03     160.082E+06     133.079E+06    -11.8389E+06    -11.6211E+06     149.946E+06     142.997E+06    -4.17030E+06         71.1474
            1889     862.065E-06     134.387E-03     116.415E-03    -25.6191E-03    -109.610E-03    -24.4857E-03     108.328E-03    -102.656E-03     11.3986E-03     300.398E-03    -149.890E-03    -150.523E-03    -150.318E-03     300.338E-03    -150.035E-03     9.97949E-03    -151.965E+06    -155.298E+06    -260.939E+06    -155.377E+06    -260.538E+06    -152.287E+06    -5.70867E+06         43.2221
            1890     1.72101E-03     134.393E-03     132.136E-03    -60.0016E-03    -89.7433E-03    -75.9042E-03     124.274E-03    -65.9789E-03     3.79957E-03     301.659E-03    -150.005E-03    -151.623E-03    -151.114E-03     301.530E-03    -150.385E-03     15.1543E-03    -137.541E+06    -149.118E+06    -242.439E+06    -149.848E+06    -241.710E+06    -137.541E+06    -8.04665E+06         43.3142
            1891     2.58116E-03     134.405E-03     147.013E-03    -65.1692E-03    -99.2938E-03    -87.0921E-03     140.788E-03    -71.1464E-03    -6.68291E-03     302.591E-03    -150.402E-03    -152.196E-03    -151.599E-03     302.398E-03    -150.805E-03     18.6894E-03    -112.762E+06    -138.503E+06    -221.540E+06    -140.103E+06    -219.941E+06    -112.762E+06    -10.8040E+06         43.4804
            1892     3.44029E-03     134.422E-03     151.942E-03    -71.2626E-03    -94.4496E-03    -85.5458E-03     147.046E-03    -75.2702E-03     40.0063E-03     304.197E-03    -151.212E-03    -153.168E-03    -152.811E-03     303.864E-03    -151.236E-03     24.3518E-03    -86.9503E+06    -126.296E+06    -199.292E+06    -129.146E+06    -196.441E+06    -86.9503E+06    -13.7790E+06         43.7412
            1893     4.29821E-03     134.452E-03     144.760E-03    -72.7695E-03    -84.6898E-03    -76.7374E-03     140.816E-03    -76.7771E-03    -7.47278E-03     307.290E-03    -151.781E-03    -155.579E-03    -155.104E-03     306.815E-03    -151.781E-03     29.6327E-03    -60.9258E+06    -112.475E+06    -174.748E+06    -116.999E+06    -170.224E+06    -60.9258E+06    -15.5880E+06         44.0580
            1894     5.15364E-03     134.482E-03     138.946E-03    -73.4678E-03    -79.1172E-03    -73.9351E-03     137.044E-03    -76.7480E-03    -19.9428E-03     311.381E-03    -152.634E-03    -158.711E-03    -158.131E-03     310.801E-03    -152.634E-03     32.9122E-03    -36.4733E+06    -97.3419E+06    -151.977E+06    -103.882E+06    -145.438E+06    -36.4733E+06    -17.2718E+06         44.3750
            1895     6.00553E-03     134.517E-03     132.657E-03    -68.4119E-03    -78.6117E-03    -70.2858E-03     132.232E-03    -76.3122E-03     9.05402E-03     315.200E-03    -153.679E-03    -161.385E-03    -160.701E-03     314.516E-03    -153.679E-03     35.9637E-03    -15.2202E+06    -84.7108E+06    -131.193E+06    -93.3592E+06    -122.545E+06    -15.2202E+06    -17.8283E+06         44.6942
            1896     6.85386E-03     134.546E-03     123.307E-03    -61.6441E-03    -75.2577E-03    -61.1061E-03     122.769E-03    -75.2577E-03    -2.56498E-03     317.860E-03    -154.718E-03    -163.141E-03    -162.363E-03     317.082E-03    -154.718E-03     38.4168E-03     3.63158E+06    -69.7480E+06    -113.202E+06    -82.6744E+06    -100.276E+06     3.63158E+06    -19.5181E+06         45.1340
            1897     7.70581E-03     134.583E-03     115.692E-03    -53.4621E-03    -73.4348E-03    -51.8207E-03     114.050E-03    -73.4348E-03    -960.059E-06     320.880E-03    -155.764E-03    -165.349E-03    -164.464E-03     319.995E-03    -155.764E-03     41.2930E-03     19.3065E+06    -53.4982E+06    -94.0332E+06    -70.3364E+06    -77.1949E+06     19.3065E+06    -19.7530E+06         45.9633
            1898     8.55411E-03     134.620E-03     106.357E-03    -46.6783E-03    -71.1681E-03    -44.8438E-03     104.523E-03    -71.1681E-03     17.4621E-03     324.252E-03    -156.764E-03    -167.476E-03    -166.524E-03     323.299E-03    -156.764E-03     43.2027E-03     32.0467E+06    -38.7714E+06    -78.1766E+06    -59.9656E+06    -56.9824E+06     32.0467E+06    -19.1458E+06         47.3997
            1899     9.39872E-03     134.659E-03     97.1300E-03    -42.9372E-03    -68.8761E-03    -41.9688E-03     96.1616E-03    -68.8761E-03     12.8516E-03     326.405E-03    -157.681E-03    -168.672E-03    -167.653E-03     325.387E-03    -157.681E-03     44.7966E-03     39.1767E+06    -25.3511E+06    -68.5174E+06    -52.6214E+06    -41.2470E+06     39.1767E+06    -20.4682E+06         49.4716
            1900     10.2462E-03     134.701E-03     91.8758E-03    -31.5026E-03    -66.4374E-03    -30.8787E-03     91.2518E-03    -66.4374E-03     10.1169E-03     328.542E-03    -158.753E-03    -169.960E-03    -168.862E-03     327.443E-03    -158.753E-03     46.6971E-03     44.6276E+06    -6.93418E+06    -57.5818E+06    -45.7050E+06    -18.8109E+06     44.6276E+06    -20.8016E+06         52.1402
            1901     11.0906E-03     134.756E-03     85.1623E-03    -32.8352E-03    -73.2337E-03    -41.3995E-03     84.8306E-03    -64.3376E-03     7.18115E-03     330.172E-03    -159.539E-03    -170.721E-03    -169.598E-03     329.049E-03    -159.539E-03     47.3482E-03     51.5725E+06     13.4376E+06    -48.0578E+06    -39.2941E+06     4.67380E+06     51.5725E+06    -21.4102E+06         55.3787
            1902     11.9378E-03     134.808E-03     85.6851E-03    -16.9407E-03    -71.0211E-03    -17.5903E-03     77.4386E-03    -62.1250E-03     4.57324E-03     332.283E-03    -160.201E-03    -171.945E-03    -170.675E-03     331.013E-03    -160.201E-03     50.4139E-03     64.5522E+06     41.0514E+06    -36.7383E+06    -30.4985E+06     41.3696E+06     57.9941E+06    -19.3305E+06         59.1683
            1903     12.7791E-03     134.870E-03     78.5973E-03    -11.6192E-03    -87.6110E-03    -30.1186E-03     69.3195E-03    -59.8338E-03     21.7683E-03     334.002E-03    -160.980E-03    -172.935E-03    -171.318E-03     332.385E-03    -160.980E-03     57.0409E-03     94.7345E+06     77.5176E+06    -23.3474E+06    -20.6523E+06     92.0394E+06     77.5176E+06    -14.8723E+06         63.4879
            1904     13.6207E-03     134.938E-03     85.1680E-03    -840.123E-06    -85.1520E-03    -531.009E-06     57.0817E-03    -57.3748E-03     17.0262E-03     334.949E-03    -161.618E-03    -173.427E-03    -171.422E-03     332.944E-03    -161.618E-03     63.5939E-03     116.164E+06     98.2888E+06    -16.8485E+06    -15.8284E+06     115.144E+06     98.2888E+06    -10.2891E+06         67.9806
            1905     14.4654E-03     135.024E-03     77.1773E-03     2.42263E-03    -85.2748E-03    -1.16889E-03     49.8228E-03    -54.3288E-03     3.84968E-03     336.860E-03    -162.587E-03    -174.651E-03    -172.732E-03     334.941E-03    -162.587E-03     62.3013E-03     150.272E+06     131.994E+06    -10.2169E+06    -10.0024E+06     138.996E+06     143.055E+06    -4.78670E+06         71.7409
            1906     864.752E-06     135.730E-03     119.595E-03    -42.1271E-03    -101.305E-03    -57.5232E-03     114.202E-03    -80.5153E-03     23.0836E-03     293.667E-03    -145.949E-03    -147.730E-03    -146.512E-03     293.623E-03    -147.123E-03     8.38406E-03    -142.338E+06    -148.299E+06    -246.505E+06    -148.227E+06    -246.255E+06    -142.660E+06    -3.02144E+06         42.8243
            1907     1.72855E-03     135.741E-03     160.744E-03    -75.1496E-03    -104.690E-03    -98.8573E-03     154.911E-03    -75.1496E-03     3.55928E-03     296.268E-03    -147.282E-03    -149.039E-03    -148.921E-03     296.150E-03    -147.282E-03     14.0308E-03    -128.751E+06    -142.076E+06    -231.205E+06    -142.980E+06    -230.301E+06    -128.751E+06    -8.29534E+06         42.9415
            1908     2.58686E-03     135.757E-03     182.023E-03    -85.2842E-03    -113.589E-03    -109.199E-03     177.632E-03    -85.2842E-03    -12.4307E-03     298.976E-03    -148.155E-03    -150.924E-03    -150.683E-03     298.734E-03    -148.155E-03     20.4495E-03    -108.674E+06    -132.305E+06    -211.756E+06    -134.401E+06    -209.660E+06    -108.674E+06    -12.3926E+06         43.1263
            1909     3.44576E-03     135.778E-03     157.126E-03    -76.6036E-03    -95.1864E-03    -82.5596E-03     156.625E-03    -88.7298E-03     2.50715E-03     301.483E-03    -149.041E-03    -152.568E-03    -152.117E-03     301.032E-03    -149.041E-03     27.9767E-03    -82.3147E+06    -120.799E+06    -191.562E+06    -124.280E+06    -188.081E+06    -82.3147E+06    -15.0402E+06         43.3854
            1910     4.30465E-03     135.811E-03     141.485E-03    -69.3434E-03    -86.3690E-03    -67.3850E-03     139.467E-03    -86.3095E-03    -12.4571E-03     304.069E-03    -149.861E-03    -154.462E-03    -153.816E-03     303.423E-03    -149.861E-03     34.0879E-03    -55.6667E+06    -106.804E+06    -166.826E+06    -112.178E+06    -161.452E+06    -55.6667E+06    -16.6872E+06         43.7101
            1911     5.16100E-03     135.843E-03     151.638E-03    -77.6440E-03    -86.4424E-03    -77.7460E-03     149.381E-03    -84.0834E-03     450.579E-06     307.364E-03    -150.687E-03    -156.805E-03    -156.013E-03     306.572E-03    -150.687E-03     37.9678E-03    -32.6285E+06    -93.5054E+06    -145.891E+06    -101.103E+06    -138.293E+06    -32.6285E+06    -18.2558E+06         44.0656
            1912     6.01700E-03     135.882E-03     156.234E-03    -79.8856E-03    -85.9821E-03    -80.9759E-03     154.846E-03    -83.5037E-03     24.9414E-03     311.600E-03    -151.647E-03    -159.695E-03    -158.782E-03     310.687E-03    -151.647E-03     41.3060E-03    -11.6204E+06    -78.5847E+06    -126.982E+06    -88.8171E+06    -116.749E+06    -11.6204E+06    -19.4771E+06         44.4161
            1913     6.87140E-03     135.918E-03     148.146E-03    -71.5258E-03    -82.8451E-03    -70.2739E-03     146.716E-03    -82.6662E-03     8.41949E-03     315.779E-03    -152.812E-03    -162.961E-03    -161.984E-03     314.802E-03    -152.812E-03     43.1778E-03     7.15541E+06    -62.4818E+06    -107.339E+06    -76.5554E+06    -93.2650E+06     7.15541E+06    -20.6168E+06         44.8998
            1914     7.71858E-03     135.956E-03     133.278E-03    -57.8922E-03    -80.6999E-03    -56.2432E-03     131.629E-03    -80.6999E-03    -2.83700E-03     319.047E-03    -154.083E-03    -165.267E-03    -164.185E-03     317.965E-03    -154.083E-03     45.6642E-03     21.2808E+06    -50.9583E+06    -91.8658E+06    -67.9442E+06    -74.8799E+06     21.2808E+06    -20.0055E+06         45.8246
            1915     8.56679E-03     136.002E-03     121.362E-03    -50.3239E-03    -78.0776E-03    -48.5391E-03     119.577E-03    -78.0776E-03     15.7881E-03     322.503E-03    -155.154E-03    -167.220E-03    -166.092E-03     321.375E-03    -155.154E-03     46.8896E-03     32.8556E+06    -38.2749E+06    -76.4691E+06    -59.4410E+06    -55.3031E+06     32.8556E+06    -18.5096E+06         47.3716
            1916     9.41553E-03     136.043E-03     113.340E-03    -44.3223E-03    -75.3755E-03    -43.4537E-03     112.471E-03    -75.3755E-03     14.7318E-03     327.040E-03    -156.208E-03    -170.441E-03    -169.237E-03     325.836E-03    -156.208E-03     48.8179E-03     41.8516E+06    -23.4279E+06    -63.5639E+06    -50.6104E+06    -36.3814E+06     41.8516E+06    -18.5238E+06         49.5393
            1917     10.2563E-03     136.095E-03     105.782E-03    -37.0088E-03    -72.6465E-03    -36.4349E-03     105.208E-03    -72.6465E-03     15.5915E-03     330.523E-03    -157.567E-03    -172.882E-03    -171.600E-03     329.241E-03    -157.567E-03     50.6887E-03     47.1313E+06    -6.39976E+06    -53.9318E+06    -43.8888E+06    -16.4428E+06     47.1313E+06    -18.8485E+06         52.2918
            1918     11.0982E-03     136.145E-03     99.2523E-03    -33.9625E-03    -69.9461E-03    -32.8524E-03     98.1422E-03    -69.9461E-03    -266.522E-06     331.694E-03    -158.631E-03    -172.987E-03    -171.716E-03     330.423E-03    -158.631E-03     50.4009E-03     53.5912E+06     16.3330E+06    -45.5632E+06    -38.6455E+06     9.41530E+06     53.5912E+06    -19.1564E+06         55.6096
            1919     11.9403E-03     136.199E-03     93.1436E-03    -33.6673E-03    -67.5064E-03    -32.3601E-03     91.8364E-03    -67.5064E-03     1.42124E-03     332.862E-03    -159.518E-03    -173.059E-03    -171.650E-03     331.453E-03    -159.518E-03     53.0611E-03     63.5656E+06     43.6879E+06    -40.1245E+06    -34.1041E+06     42.8461E+06     58.3870E+06    -21.9994E+06         59.4888
            1920     12.7859E-03     136.268E-03     81.1607E-03    -24.0276E-03    -65.0417E-03    -21.1567E-03     78.2898E-03    -65.0417E-03     7.85432E-03     335.204E-03    -160.414E-03    -174.739E-03    -173.134E-03     333.599E-03    -160.414E-03     57.0619E-03     88.3604E+06     73.5390E+06    -31.3446E+06    -27.7280E+06     84.7438E+06     73.5390E+06    -18.1379E+06         63.9404
            1921     13.6285E-03     136.334E-03     60.0561E-03    -5.09764E-03    -62.0098E-03    -2.78533E-03     57.7438E-03    -62.0098E-03    -4.88952E-03     338.497E-03    -161.301E-03    -177.434E-03    -175.418E-03     336.481E-03    -161.301E-03     64.1539E-03     106.579E+06     94.7241E+06    -18.5814E+06    -17.7037E+06     104.915E+06     95.5104E+06    -9.66591E+06         68.5473
            1922     14.4650E-03     136.431E-03     50.0509E-03     1.94020E-03    -58.6643E-03     2.50983E-03     49.4812E-03    -58.6643E-03     6.61259E-03     339.669E-03    -162.484E-03    -177.602E-03    -175.673E-03     337.740E-03    -162.484E-03     62.6637E-03     142.079E+06     128.394E+06    -8.41125E+06    -8.14110E+06     129.550E+06     140.653E+06    -4.54476E+06         72.3148
            1923     864.565E-06     137.067E-03     199.866E-03    -89.0349E-03    -128.795E-03    -118.255E-03     197.002E-03    -96.7114E-03     24.6733E-03     289.625E-03    -143.760E-03    -145.865E-03    -144.751E-03     289.540E-03    -144.790E-03     11.3459E-03    -138.819E+06    -143.972E+06    -234.348E+06    -143.404E+06    -233.833E+06    -139.902E+06    -4.71435E+06         42.4748
            1924     1.72832E-03     137.081E-03     183.908E-03    -83.4492E-03    -112.944E-03    -89.5288E-03     181.255E-03    -104.212E-03     32.6351E-03     291.311E-03    -145.070E-03    -146.224E-03    -146.071E-03     291.158E-03    -145.070E-03     15.8279E-03    -124.468E+06    -135.168E+06    -217.285E+06    -136.447E+06    -216.006E+06    -124.468E+06    -9.35862E+06         42.6045
            1925     2.59542E-03     137.098E-03     168.346E-03    -78.3396E-03    -104.609E-03    -83.6104E-03     167.269E-03    -98.2617E-03     12.9262E-03     294.137E-03    -145.779E-03    -148.272E-03    -147.976E-03     293.841E-03    -145.779E-03     22.5342E-03    -106.006E+06    -128.105E+06    -201.382E+06    -130.167E+06    -199.320E+06    -106.006E+06    -12.0004E+06         42.7891
            1926     3.45681E-03     137.123E-03     163.057E-03    -79.2883E-03    -96.8161E-03    -81.5991E-03     162.795E-03    -94.2432E-03     11.8367E-03     297.624E-03    -146.699E-03    -150.795E-03    -150.258E-03     297.087E-03    -146.699E-03     30.7651E-03    -78.6475E+06    -117.000E+06    -181.916E+06    -120.491E+06    -178.424E+06    -78.6475E+06    -14.3788E+06         43.0317
            1927     4.31530E-03     137.158E-03     157.627E-03    -75.5405E-03    -92.4309E-03    -76.2875E-03     157.111E-03    -91.1676E-03     11.4065E-03     300.221E-03    -147.624E-03    -152.607E-03    -151.790E-03     299.404E-03    -147.624E-03     38.2669E-03    -52.6571E+06    -105.049E+06    -159.491E+06    -110.962E+06    -153.579E+06    -52.6571E+06    -16.4018E+06         43.3594
            1928     5.17475E-03     137.194E-03     150.429E-03    -74.3172E-03    -88.4772E-03    -73.2894E-03     149.401E-03    -88.4772E-03     22.8238E-03     303.602E-03    -148.495E-03    -155.131E-03    -154.087E-03     302.558E-03    -148.495E-03     43.6484E-03    -29.8890E+06    -90.1452E+06    -138.904E+06    -99.2780E+06    -129.771E+06    -29.8890E+06    -18.7833E+06         43.7470
            1929     6.03106E-03     137.238E-03     156.053E-03    -79.7885E-03    -86.8569E-03    -77.8852E-03     153.971E-03    -86.6780E-03     41.7385E-03     308.382E-03    -149.523E-03    -158.660E-03    -157.482E-03     307.204E-03    -149.523E-03     46.7459E-03    -9.81193E+06    -73.7679E+06    -122.853E+06    -85.6311E+06    -110.990E+06    -9.81193E+06    -20.9216E+06         44.1324
            1930     6.88214E-03     137.285E-03     163.312E-03    -83.6789E-03    -86.6081E-03    -82.0460E-03     160.963E-03    -85.8923E-03     8.36368E-03     312.941E-03    -150.782E-03    -162.176E-03    -160.912E-03     311.677E-03    -150.782E-03     48.6854E-03     7.58123E+06    -61.8825E+06    -104.252E+06    -75.3799E+06    -90.7549E+06     7.58123E+06    -19.5417E+06         44.6668
            1931     7.73331E-03     137.329E-03     151.292E-03    -71.5053E-03    -85.5073E-03    -70.9818E-03     150.232E-03    -84.9705E-03    -21.3059E-03     317.144E-03    -152.153E-03    -165.216E-03    -163.871E-03     315.799E-03    -152.153E-03     50.6620E-03     23.3372E+06    -49.4914E+06    -88.2266E+06    -66.2515E+06    -71.4664E+06     23.3372E+06    -19.0540E+06         45.6781
            1932     8.58305E-03     137.376E-03     132.101E-03    -57.2650E-03    -83.0048E-03    -56.3648E-03     131.201E-03    -83.0048E-03     7.65421E-03     322.075E-03    -153.419E-03    -168.573E-03    -167.171E-03     320.674E-03    -153.419E-03     52.2746E-03     34.4906E+06    -35.5883E+06    -74.5636E+06    -56.7177E+06    -53.4343E+06     34.4906E+06    -19.2286E+06         47.3200
            1933     9.42668E-03     137.427E-03     119.725E-03    -46.1812E-03    -80.2832E-03    -45.5436E-03     119.088E-03    -80.2832E-03     8.87092E-03     327.030E-03    -154.729E-03    -171.941E-03    -170.501E-03     325.589E-03    -154.729E-03     53.4581E-03      42.897E+06    -23.2850E+06    -60.7898E+06    -48.9260E+06    -35.1489E+06      42.897E+06    -17.1137E+06         49.5692
            1934     10.2710E-03     137.484E-03     111.631E-03    -38.4126E-03    -77.2730E-03    -37.8974E-03     111.115E-03    -77.2730E-03     11.2685E-03     330.167E-03    -156.179E-03    -173.689E-03    -172.238E-03     328.716E-03    -156.179E-03     53.9921E-03     49.6698E+06    -6.30892E+06    -50.1793E+06    -42.9782E+06    -13.5101E+06     49.6698E+06    -15.8315E+06         52.3918
            1935     11.1132E-03     137.534E-03     104.982E-03    -34.7361E-03    -74.2635E-03    -33.4765E-03     103.723E-03    -74.2635E-03     311.927E-06     332.612E-03    -157.499E-03    -174.991E-03    -173.500E-03     331.121E-03    -157.499E-03     54.9151E-03     56.3355E+06     18.3013E+06    -42.1264E+06    -37.0970E+06     13.2720E+06     56.3355E+06    -16.4438E+06         55.7667
            1936     11.9543E-03     137.594E-03     97.3428E-03    -29.1954E-03    -71.2630E-03    -26.2724E-03     94.4198E-03    -71.2630E-03     8.90940E-03     335.107E-03    -158.758E-03    -176.191E-03    -174.549E-03     333.465E-03    -158.758E-03     57.8189E-03     70.1237E+06     49.8008E+06    -36.1855E+06    -32.3122E+06     51.9853E+06     64.0659E+06    -17.8549E+06         59.6796
            1937     12.7930E-03     137.657E-03     86.8504E-03    -23.9405E-03    -68.2016E-03    -19.9746E-03     82.8845E-03    -68.2016E-03     3.96453E-03     338.341E-03    -159.851E-03    -178.327E-03    -176.381E-03     336.396E-03    -159.851E-03     63.0383E-03     85.0564E+06     74.5357E+06    -30.7088E+06    -27.2414E+06     81.0230E+06     75.1017E+06    -19.0147E+06         64.2183
            1938     13.6292E-03     137.742E-03     76.2831E-03    -18.8078E-03    -65.2298E-03    -16.3233E-03     73.7985E-03    -65.2298E-03    -7.71765E-03     341.647E-03    -160.993E-03    -180.844E-03    -178.547E-03     339.351E-03    -160.993E-03     68.9092E-03     94.7860E+06     86.5723E+06    -21.5980E+06    -19.4587E+06     88.3298E+06     90.8892E+06    -14.0694E+06         68.9638
            1939     14.4687E-03     137.831E-03     62.5306E-03    -10.6422E-03    -62.3365E-03    -8.89461E-03     60.7830E-03    -62.3365E-03     4.75451E-03     342.450E-03    -162.353E-03    -180.720E-03    -178.694E-03     340.424E-03    -162.353E-03     64.6199E-03     136.037E+06     120.551E+06    -10.7821E+06    -10.3812E+06     120.150E+06     136.037E+06    -5.68683E+06         72.7721
            1940     868.317E-06     138.397E-03     245.516E-03    -105.534E-03    -142.657E-03    -132.453E-03     242.988E-03    -113.210E-03     27.7373E-03     284.951E-03    -141.074E-03    -143.885E-03    -143.782E-03     284.847E-03    -141.074E-03     12.5363E-03    -134.245E+06    -136.646E+06     -220.36E+06    -136.095E+06    -219.828E+06    -135.327E+06    -5.51996E+06         42.1391
            1941     1.73547E-03     138.415E-03     192.135E-03    -86.4137E-03    -115.792E-03    -85.7042E-03     190.951E-03    -115.318E-03     2.69688E-03     286.602E-03    -142.650E-03    -143.905E-03    -143.695E-03     286.392E-03    -142.650E-03     18.7616E-03    -122.617E+06    -132.211E+06    -204.998E+06    -133.419E+06     -203.79E+06    -122.617E+06    -8.26252E+06         42.2699
            1942     2.59796E-03     138.431E-03     154.197E-03    -64.4213E-03    -101.494E-03    -63.0620E-03     152.838E-03    -101.494E-03    -3.32810E-03     289.600E-03    -143.384E-03    -146.008E-03    -145.583E-03     289.175E-03    -143.384E-03     26.4119E-03    -104.401E+06    -127.622E+06    -191.330E+06    -130.242E+06    -188.709E+06    -104.401E+06    -12.1443E+06         42.4537
            1943     3.46199E-03     138.468E-03     160.385E-03    -77.6216E-03    -97.0211E-03    -80.1952E-03     159.405E-03    -93.4674E-03     22.4584E-03     292.750E-03    -144.302E-03    -148.191E-03    -147.509E-03     292.069E-03    -144.302E-03     34.2160E-03    -79.5716E+06    -116.467E+06    -172.504E+06    -120.619E+06    -168.351E+06    -79.5716E+06    -14.3040E+06         42.6951
            1944     4.32561E-03     138.499E-03     177.109E-03    -89.7100E-03    -100.574E-03    -97.4855E-03     176.689E-03    -92.3788E-03     536.769E-06     296.112E-03    -145.222E-03    -150.754E-03    -149.804E-03     295.162E-03    -145.222E-03     40.8880E-03    -53.4295E+06    -102.627E+06    -151.906E+06    -109.515E+06    -145.018E+06    -53.4295E+06    -16.5940E+06         43.0247
            1945     5.18641E-03     138.544E-03     168.887E-03    -81.9048E-03    -97.1415E-03    -86.0519E-03     168.393E-03    -92.4998E-03    -12.8196E-03     300.222E-03    -146.208E-03    -153.953E-03    -152.727E-03     298.996E-03    -146.208E-03     47.0290E-03    -30.7177E+06    -88.8593E+06    -132.699E+06    -98.8917E+06    -122.667E+06    -30.7177E+06    -18.2052E+06         43.4276
            1946     6.04305E-03     138.596E-03     152.020E-03    -70.9181E-03    -90.5871E-03    -68.1890E-03     149.291E-03    -90.5871E-03     26.1632E-03     304.555E-03    -147.346E-03    -157.137E-03    -155.714E-03     303.132E-03    -147.346E-03     51.1054E-03    -11.5543E+06    -78.4247E+06    -118.145E+06    -91.2954E+06    -105.275E+06    -11.5543E+06    -18.2421E+06         43.8489
            1947     6.89991E-03     138.646E-03     147.876E-03    -66.5213E-03    -88.2153E-03    -64.2689E-03     145.087E-03    -87.6784E-03     17.6532E-03     309.236E-03    -148.572E-03    -160.669E-03    -159.076E-03     307.643E-03    -148.572E-03     54.5948E-03     6.49681E+06    -63.5600E+06    -103.926E+06    -80.6408E+06    -86.8453E+06     6.49681E+06    -19.6462E+06         44.4386
            1948     7.75173E-03     138.700E-03     153.216E-03    -72.5551E-03    -86.8185E-03    -73.2399E-03     152.622E-03    -85.5395E-03    -2.51379E-03     315.297E-03    -150.036E-03    -165.440E-03    -163.780E-03     313.637E-03    -150.036E-03     56.3560E-03     20.9358E+06    -48.6793E+06    -88.6180E+06    -68.9118E+06    -68.3855E+06     20.9358E+06    -19.6243E+06         45.5284
            1949     8.59768E-03     138.754E-03     154.409E-03    -74.5394E-03    -86.1401E-03    -75.4703E-03     153.564E-03    -84.3645E-03     21.2754E-03     321.729E-03    -151.711E-03    -170.314E-03    -168.574E-03     319.989E-03    -151.711E-03     58.3295E-03     32.0585E+06    -37.6659E+06    -75.4950E+06    -60.8675E+06    -52.2934E+06     32.0585E+06    -18.0321E+06         47.2524
            1950     9.44200E-03     138.816E-03     139.041E-03    -60.5321E-03    -83.9652E-03    -60.7164E-03     138.192E-03    -82.9317E-03     3.74322E-03     326.565E-03    -153.277E-03    -173.223E-03    -171.457E-03     324.798E-03    -153.277E-03     59.2313E-03     41.1984E+06    -24.4533E+06    -63.3413E+06    -52.6924E+06    -35.1021E+06     41.1984E+06    -17.1766E+06         49.5689
            1951     10.2841E-03     138.868E-03     113.806E-03    -41.2618E-03    -80.3836E-03    -40.7140E-03     113.258E-03    -80.3836E-03    -2.24663E-03     330.170E-03    -154.826E-03    -175.008E-03    -173.366E-03     328.528E-03    -154.826E-03     57.4375E-03     50.0574E+06    -4.37450E+06    -50.4003E+06    -42.9276E+06    -11.8472E+06     50.0574E+06    -16.5537E+06         52.4439
            1952     11.1258E-03     138.931E-03     95.2592E-03    -27.0849E-03    -76.9432E-03    -26.4258E-03     94.6001E-03    -76.9432E-03    -1.93511E-03     333.815E-03    -156.440E-03    -177.311E-03    -175.755E-03     332.258E-03    -156.440E-03     56.3047E-03     59.4749E+06     21.8399E+06    -38.6824E+06    -33.8716E+06     17.0291E+06     59.4749E+06    -16.0868E+06         55.8507
            1953     11.9649E-03     138.995E-03     90.4611E-03    -23.1361E-03    -73.2874E-03    -20.9634E-03     88.2885E-03    -73.2874E-03     7.64725E-03     337.670E-03    -157.985E-03    -179.633E-03    -178.081E-03     336.117E-03    -157.985E-03     56.5357E-03     72.9638E+06     54.5456E+06    -29.3245E+06    -26.1650E+06     55.5413E+06     68.8085E+06    -15.8084E+06         59.7633
            1954     12.8030E-03     139.066E-03     91.9137E-03    -27.6157E-03    -70.0285E-03    -23.4767E-03     87.7747E-03    -70.0285E-03    -6.43456E-03     341.282E-03    -159.362E-03    -181.764E-03    -179.880E-03     339.398E-03    -159.362E-03     62.2613E-03     84.5934E+06     79.7368E+06    -23.7097E+06    -21.1361E+06     81.3185E+06     80.4381E+06    -15.2554E+06         64.3390
            1955     13.6404E-03     139.153E-03     86.2957E-03    -24.2447E-03    -67.1954E-03    -20.6640E-03     82.7151E-03    -67.1954E-03    -18.5986E-03     344.143E-03    -160.776E-03    -183.532E-03    -181.330E-03     341.940E-03    -160.776E-03     67.7435E-03     94.0151E+06     83.1400E+06    -18.8455E+06    -16.2150E+06     80.5094E+06     94.0151E+06    -14.3813E+06         69.1871
            1956     14.4734E-03     139.245E-03     73.6850E-03    -13.5972E-03    -64.3297E-03    -11.3275E-03     71.4153E-03    -64.3297E-03    -978.353E-06     344.801E-03    -162.248E-03    -183.242E-03    -181.389E-03     342.948E-03    -162.248E-03     61.9519E-03     134.754E+06     109.489E+06    -6.87586E+06    -5.59775E+06     108.210E+06     134.754E+06    -7.63519E+06         73.0473
            1957     868.237E-06     139.726E-03     188.914E-03    -81.0267E-03    -105.702E-03    -95.1944E-03     186.312E-03    -88.9330E-03     17.7653E-03     281.602E-03    -139.694E-03    -141.926E-03    -141.553E-03     281.537E-03    -140.002E-03     9.37952E-03    -135.439E+06    -139.570E+06    -209.937E+06    -139.229E+06    -209.816E+06    -135.901E+06    -2.61558E+06         41.8485
            1958     1.73802E-03     139.744E-03     182.494E-03    -84.8126E-03    -107.942E-03    -98.9502E-03     181.644E-03    -92.9541E-03    -4.96119E-03     282.111E-03    -140.663E-03    -141.517E-03    -141.131E-03     281.905E-03    -140.844E-03     18.1829E-03    -125.186E+06    -138.590E+06    -196.537E+06    -139.050E+06    -196.078E+06    -125.186E+06    -4.13134E+06         41.9568
            1959     2.60756E-03     139.772E-03     183.292E-03    -77.7457E-03    -118.183E-03    -99.8608E-03     182.121E-03    -94.8968E-03     11.0861E-03     284.256E-03    -141.054E-03    -143.206E-03    -142.602E-03     283.788E-03    -141.190E-03     27.6638E-03    -103.158E+06    -130.392E+06    -177.463E+06    -132.131E+06    -175.724E+06    -103.158E+06    -7.87672E+06         42.1339
            1960     3.47370E-03     139.803E-03     180.608E-03    -83.9331E-03    -109.450E-03    -96.4561E-03     179.453E-03    -95.7711E-03     30.0270E-03     287.674E-03    -141.825E-03    -145.742E-03    -144.948E-03     286.880E-03    -141.825E-03     36.8117E-03    -82.7207E+06    -121.031E+06    -162.394E+06    -125.402E+06    -158.023E+06    -82.7207E+06    -11.9636E+06         42.3862
            1961     4.33705E-03     139.845E-03     175.155E-03    -84.0211E-03    -102.415E-03    -90.5337E-03     174.736E-03    -95.4826E-03     2.74133E-03     292.281E-03    -142.860E-03    -149.493E-03    -148.353E-03     291.141E-03    -142.860E-03     44.6528E-03    -59.5917E+06    -107.652E+06    -145.078E+06    -115.570E+06    -137.160E+06    -59.5917E+06    -14.5401E+06         42.7169
            1962     5.19653E-03     139.895E-03     168.659E-03    -78.0213E-03    -98.6186E-03    -81.9165E-03     167.912E-03    -93.9769E-03    -6.36123E-03     296.709E-03    -144.048E-03    -152.769E-03    -151.330E-03     295.270E-03    -144.048E-03     50.7152E-03    -36.5716E+06    -95.8367E+06    -129.628E+06    -107.649E+06    -117.816E+06    -36.5716E+06    -15.4144E+06         43.1136
            1963     6.05723E-03     139.950E-03     154.616E-03    -71.5423E-03    -91.0943E-03    -66.8957E-03     149.969E-03    -91.0943E-03     41.3851E-03     300.751E-03    -145.254E-03    -155.587E-03    -153.964E-03     299.128E-03    -145.254E-03     54.2993E-03    -15.2540E+06    -81.0292E+06    -116.247E+06    -98.7885E+06    -98.4877E+06    -15.2540E+06    -17.0578E+06         43.5594
            1964     6.91348E-03     140.009E-03     144.161E-03    -62.9725E-03    -87.4638E-03    -58.7658E-03     139.954E-03    -87.4638E-03     38.9267E-03     306.249E-03    -146.558E-03    -159.712E-03    -157.935E-03     304.473E-03    -146.558E-03     57.4013E-03     1.90106E+06    -64.6407E+06    -103.854E+06    -88.2633E+06    -80.2316E+06     1.90106E+06    -18.6659E+06         44.2118
            1965     7.76628E-03     140.070E-03     150.070E-03    -66.1440E-03    -85.4102E-03    -66.5947E-03     149.779E-03    -84.6681E-03     5.81183E-03     313.097E-03    -148.148E-03    -165.026E-03    -163.093E-03     311.163E-03    -148.148E-03     60.6245E-03     15.0716E+06    -51.6945E+06    -92.9958E+06    -78.9790E+06    -65.7113E+06     15.0716E+06    -19.2548E+06         45.3807
            1966     8.61400E-03     140.135E-03     153.737E-03    -70.6834E-03    -84.9010E-03    -72.2876E-03     153.566E-03    -83.1254E-03     9.40430E-03     319.585E-03    -149.965E-03    -169.926E-03    -167.880E-03     317.538E-03    -149.965E-03     63.1154E-03     27.5538E+06    -37.9484E+06    -81.0868E+06    -68.5315E+06    -50.5037E+06     27.5538E+06    -19.5128E+06         47.1792
            1967     9.45877E-03     140.196E-03     140.601E-03    -61.8582E-03    -82.6550E-03    -62.5218E-03     140.232E-03    -81.6215E-03     208.367E-06     325.663E-03    -151.644E-03    -173.954E-03    -171.841E-03     323.550E-03    -151.644E-03     64.7752E-03     38.6786E+06    -18.7555E+06    -68.3169E+06    -56.6294E+06    -30.4430E+06     38.6786E+06    -20.9551E+06         49.5546
            1968     10.3002E-03     140.266E-03     126.331E-03    -52.5879E-03    -79.4233E-03    -51.1827E-03     124.926E-03    -79.4233E-03     11.8000E-03     331.701E-03    -153.449E-03    -178.176E-03    -176.191E-03     329.715E-03    -153.449E-03     63.3642E-03     47.3911E+06    -554.138E+03    -55.7949E+06     -45.226E+06    -11.1231E+06     47.3911E+06    -21.5428E+06         52.4685
            1969     11.1368E-03     140.329E-03     114.166E-03    -45.1601E-03    -76.8765E-03    -43.7869E-03     112.793E-03    -76.8765E-03     6.63162E-03     337.259E-03    -155.394E-03    -181.852E-03    -180.051E-03     335.458E-03    -155.394E-03     60.9776E-03     57.6978E+06     25.2416E+06    -41.8488E+06    -34.5103E+06     17.9032E+06     57.6978E+06    -19.9966E+06         55.8919
            1970     11.9719E-03     140.400E-03     101.066E-03    -31.9143E-03    -74.0551E-03    -30.2004E-03     99.3520E-03    -74.0551E-03     6.59351E-03     341.720E-03    -157.265E-03    -184.283E-03    -182.603E-03     340.040E-03    -157.265E-03     59.2315E-03     70.2558E+06     58.7135E+06    -29.2466E+06    -25.0576E+06     56.0441E+06     68.7363E+06    -18.5638E+06         59.8052
            1971     12.8035E-03     140.470E-03     90.9514E-03    -23.7328E-03    -70.8572E-03    -19.8089E-03     87.0275E-03    -70.8572E-03     3.53885E-03     344.416E-03    -159.010E-03    -185.319E-03    -183.465E-03     342.562E-03    -159.010E-03     62.2597E-03     81.8585E+06     77.6250E+06    -18.9085E+06    -16.8312E+06     77.0672E+06     80.3389E+06    -13.2364E+06         64.3904
            1972     13.6365E-03     140.562E-03     80.4890E-03    -15.5009E-03    -67.4224E-03    -11.1581E-03     76.1463E-03    -67.4224E-03    -6.10883E-03     346.686E-03    -160.591E-03    -186.106E-03    -183.839E-03     344.419E-03    -160.591E-03     68.9733E-03      95.154E+06     82.5856E+06    -13.6129E+06    -12.1016E+06     81.0743E+06      95.154E+06    -9.47689E+06         69.2694
            1973     14.4697E-03     140.657E-03     70.0434E-03    -4.52454E-03    -63.8095E-03    -1.77359E-03     67.2925E-03    -63.8095E-03     13.8243E-03     346.585E-03    -162.128E-03    -184.892E-03    -183.055E-03     344.748E-03    -162.128E-03     61.3696E-03     129.251E+06     100.050E+06    -11.8314E+06    -10.6624E+06     98.8808E+06     129.251E+06    -6.55394E+06         73.1579
            1974     869.589E-06     141.050E-03     132.430E-03    -45.5944E-03    -90.5321E-03    -46.9827E-03     128.042E-03    -84.7556E-03    -12.7535E-03     279.249E-03    -138.604E-03    -140.648E-03    -138.832E-03     279.170E-03    -140.342E-03     10.7154E-03    -150.478E+06    -156.335E+06    -206.287E+06    -155.986E+06    -206.173E+06    -150.940E+06    -1.27929E+06         41.6591
            1975     1.73871E-03     141.064E-03     163.438E-03    -72.7950E-03    -101.989E-03    -100.841E-03     162.291E-03    -72.7950E-03    -14.3964E-03     279.810E-03    -139.543E-03    -140.385E-03    -139.998E-03     279.604E-03    -139.723E-03     18.1311E-03    -137.128E+06    -150.916E+06    -190.015E+06    -151.161E+06    -189.770E+06    -137.128E+06    -2.85535E+06         41.7474
            1976     2.60870E-03     141.092E-03     198.951E-03    -86.1968E-03    -125.240E-03    -124.930E-03     198.641E-03    -86.1968E-03     14.2969E-03     281.103E-03    -139.814E-03    -141.362E-03    -140.845E-03     280.722E-03    -139.951E-03     25.1711E-03    -116.232E+06    -143.242E+06    -170.058E+06    -143.958E+06    -169.342E+06    -116.232E+06    -3.43280E+06         41.9055
            1977     3.47860E-03     141.131E-03     191.218E-03    -91.3327E-03    -111.474E-03    -107.709E-03     190.281E-03    -94.1612E-03     24.6530E-03     284.094E-03    -140.442E-03    -143.633E-03    -142.988E-03     283.449E-03    -140.442E-03     32.8134E-03    -91.3305E+06    -133.122E+06    -152.922E+06    -137.452E+06    -148.592E+06    -91.3305E+06    -6.11403E+06         42.1411
            1978     4.34501E-03     141.182E-03     164.012E-03    -78.5673E-03    -95.8266E-03    -79.4763E-03     163.234E-03    -94.1398E-03     17.9869E-03     287.801E-03    -141.299E-03    -146.703E-03    -145.689E-03     286.787E-03    -141.299E-03     41.5838E-03    -68.0990E+06    -118.964E+06    -142.360E+06    -131.752E+06    -129.573E+06    -68.0990E+06    -9.65935E+06         42.4512
            1979     5.20939E-03     141.240E-03     158.208E-03    -72.7055E-03    -90.8207E-03    -70.6585E-03     156.161E-03    -90.8207E-03    -9.69058E-03     292.242E-03    -142.304E-03    -150.007E-03    -148.645E-03     290.880E-03    -142.304E-03     48.8104E-03    -45.0718E+06    -100.770E+06    -130.804E+06    -121.124E+06    -110.450E+06    -45.0718E+06    -12.4534E+06         42.8180
            1980     6.06818E-03     141.300E-03     162.745E-03    -81.4036E-03    -88.2793E-03    -76.8721E-03     158.214E-03    -88.2793E-03     6.09061E-03     297.533E-03    -143.509E-03    -154.059E-03    -152.366E-03     295.840E-03    -143.509E-03     55.1304E-03    -22.6848E+06    -80.9548E+06    -118.505E+06    -108.685E+06    -90.7744E+06    -22.6848E+06    -15.3777E+06         43.2703
            1981     6.92514E-03     141.364E-03     155.593E-03    -75.5831E-03    -86.6403E-03    -73.0349E-03     153.045E-03    -86.6403E-03     22.4276E-03     303.767E-03    -144.898E-03    -159.036E-03    -156.996E-03     301.727E-03    -144.898E-03     61.2137E-03    -5.02387E+06    -63.1672E+06    -108.961E+06    -98.9118E+06    -73.2162E+06    -5.02387E+06    -18.5849E+06         43.9956
            1982     7.77813E-03     141.434E-03     136.441E-03    -57.0555E-03    -84.2833E-03    -56.9531E-03     136.339E-03    -84.2833E-03     8.39480E-03     310.593E-03    -146.467E-03    -164.126E-03    -161.837E-03     308.303E-03    -146.467E-03     65.7004E-03     9.93936E+06    -46.8306E+06    -98.8408E+06    -86.6551E+06    -59.0164E+06     9.93936E+06    -21.9256E+06         45.2525
            1983     8.62886E-03     141.510E-03     118.987E-03    -42.3652E-03    -80.7565E-03    -42.0645E-03     118.686E-03    -80.7565E-03     10.5865E-03     317.210E-03    -148.209E-03    -168.934E-03    -166.646E-03     314.922E-03    -148.209E-03     66.5063E-03     22.9292E+06    -29.5645E+06    -87.2368E+06    -72.4792E+06    -44.3222E+06     22.9292E+06    -25.1432E+06         47.1184
            1984     9.47496E-03     141.582E-03     118.778E-03    -44.4630E-03    -77.1387E-03    -43.9918E-03     118.306E-03    -77.1387E-03     7.64148E-03     324.149E-03    -150.024E-03    -174.024E-03    -171.676E-03     321.801E-03    -150.024E-03     68.2061E-03     33.9494E+06    -11.0258E+06    -74.3617E+06    -60.0075E+06    -25.3800E+06     33.9494E+06    -26.3772E+06         49.5435
            1985     10.3158E-03     141.660E-03     128.648E-03    -56.7089E-03    -74.5929E-03    -55.3612E-03     127.301E-03    -74.5929E-03     19.5677E-03     331.625E-03    -151.973E-03    -179.890E-03    -177.520E-03     329.256E-03    -151.973E-03     69.3494E-03     42.9981E+06     4.92302E+06    -62.4792E+06    -49.2326E+06    -8.32360E+06     42.9981E+06    -26.7712E+06         52.4904
            1986     11.1505E-03     141.730E-03     129.249E-03    -58.3376E-03    -72.9148E-03    -57.0512E-03     127.963E-03    -72.9148E-03     22.4999E-03     339.313E-03    -154.129E-03    -185.395E-03    -183.120E-03     337.037E-03    -154.129E-03     68.8113E-03     52.7138E+06     28.6585E+06    -49.8800E+06    -38.9220E+06     17.7005E+06     52.7138E+06    -26.4387E+06         55.9312
            1987     11.9813E-03     141.808E-03     113.796E-03    -44.6068E-03    -71.0168E-03    -42.7741E-03     111.964E-03    -71.0168E-03     23.1854E-03     345.111E-03    -156.395E-03    -188.720E-03    -186.522E-03     342.913E-03    -156.395E-03     68.1888E-03     64.8476E+06     57.1057E+06    -35.2566E+06    -29.2245E+06     52.6398E+06     63.2813E+06    -22.4106E+06         59.8495
            1988     12.8120E-03     141.883E-03     90.4442E-03    -26.2606E-03    -68.2830E-03    -23.7733E-03     87.9569E-03    -68.2830E-03     19.3806E-03     348.468E-03    -158.438E-03    -190.117E-03    -187.850E-03     346.201E-03    -158.438E-03     69.6047E-03     75.5185E+06     70.1177E+06    -23.3615E+06    -19.8222E+06     68.1447E+06     73.9522E+06    -17.6715E+06         64.4248
            1989     13.6441E-03     141.971E-03     77.8799E-03    -15.7386E-03    -64.9851E-03    -12.6425E-03     74.7838E-03    -64.9851E-03     864.699E-06     349.783E-03    -160.259E-03    -189.626E-03    -187.022E-03     347.180E-03    -160.259E-03     74.6872E-03     89.0468E+06     74.5298E+06    -19.1513E+06    -17.5589E+06     72.9374E+06     89.0468E+06    -9.34497E+06         69.2903
            1990     14.4760E-03     142.076E-03     70.6394E-03    -9.29228E-03    -61.6089E-03    -6.19236E-03     67.5395E-03    -61.6089E-03     4.50072E-03     348.931E-03    -161.978E-03    -187.318E-03    -185.311E-03     346.924E-03    -161.978E-03     64.2247E-03     125.929E+06     92.2168E+06    -20.6835E+06    -20.5215E+06     92.0549E+06     125.929E+06    -2.62889E+06         73.1791
            1991     872.024E-06     142.370E-03     155.867E-03    -40.3367E-03    -133.527E-03    -39.5728E-03     151.542E-03    -129.967E-03    -13.6815E-03     278.023E-03    -138.108E-03    -139.890E-03    -138.363E-03     277.957E-03    -139.569E-03     10.0318E-03    -179.225E+06    -186.903E+06    -209.251E+06    -188.069E+06    -201.966E+06    -185.343E+06    -1.71833E+06         41.6189
            1992     1.74174E-03     142.387E-03     165.794E-03    -75.8843E-03    -101.003E-03    -88.7884E-03     163.618E-03    -85.9230E-03    -3.53590E-03     279.660E-03    -139.255E-03    -140.429E-03    -140.255E-03     279.486E-03    -139.255E-03     16.1434E-03    -163.128E+06    -173.598E+06    -195.563E+06    -180.700E+06    -184.092E+06    -167.497E+06    -3.73429E+06         41.6939
            1993     2.60969E-03     142.416E-03     165.332E-03    -72.1877E-03    -102.600E-03    -86.9014E-03     164.288E-03    -86.8430E-03     21.1138E-03     282.099E-03    -139.891E-03    -142.085E-03    -141.756E-03     281.770E-03    -139.891E-03     23.4308E-03    -141.895E+06    -158.825E+06    -180.819E+06    -171.883E+06    -166.333E+06    -143.323E+06    -5.58917E+06         41.8254
            1994     3.47587E-03     142.459E-03     165.074E-03    -81.8999E-03    -92.6096E-03    -86.5981E-03     163.847E-03    -86.6844E-03     4.49345E-03     284.189E-03    -140.657E-03    -143.347E-03    -142.828E-03     283.670E-03    -140.657E-03     29.5339E-03    -113.002E+06    -140.459E+06    -163.070E+06    -159.253E+06    -144.276E+06    -113.002E+06    -6.65703E+06         42.0190
            1995     4.34284E-03     142.510E-03     165.937E-03    -82.0143E-03    -91.7244E-03    -85.9650E-03     164.457E-03    -86.2932E-03     12.9864E-03     285.231E-03    -141.221E-03    -144.110E-03    -143.336E-03     284.457E-03    -141.221E-03     36.2825E-03    -82.8362E+06    -119.502E+06    -149.326E+06    -146.431E+06    -122.396E+06    -82.8362E+06    -8.36063E+06         42.2736
            1996     5.20950E-03     142.568E-03     167.933E-03    -80.7963E-03    -92.6008E-03    -84.7986E-03     165.165E-03    -85.8303E-03     4.14246E-03     287.857E-03    -141.690E-03    -146.141E-03    -144.992E-03     286.708E-03    -141.690E-03     44.3658E-03    -55.5387E+06    -97.2740E+06    -136.548E+06    -132.800E+06    -101.022E+06    -55.5387E+06    -11.4111E+06         42.5925
            1997     6.07516E-03     142.639E-03     168.074E-03    -83.4304E-03    -89.8438E-03    -81.0827E-03     161.016E-03    -85.1332E-03     20.7540E-03     293.022E-03    -142.462E-03    -150.436E-03    -148.813E-03     291.400E-03    -142.462E-03     53.4324E-03    -31.5568E+06    -75.2089E+06    -124.792E+06    -119.010E+06    -80.9916E+06    -31.5568E+06    -15.7788E+06         43.0422
            1998     6.93534E-03     142.709E-03     147.401E-03    -68.7528E-03    -85.0653E-03    -65.8530E-03     142.817E-03    -83.3808E-03     30.2338E-03     299.761E-03    -143.617E-03    -156.243E-03    -154.080E-03     297.598E-03    -143.617E-03     62.5192E-03    -11.0910E+06    -53.3718E+06    -113.697E+06    -104.630E+06    -62.4392E+06    -11.0910E+06    -21.4761E+06         43.8377
            1999     7.79089E-03     142.791E-03     120.995E-03    -48.7527E-03    -80.1072E-03    -48.2885E-03     120.531E-03    -80.1072E-03     14.3020E-03     307.404E-03    -145.042E-03    -162.311E-03    -159.732E-03     304.826E-03    -145.042E-03     69.3835E-03     4.59436E+06    -34.3804E+06    -103.263E+06    -89.6805E+06    -47.9630E+06     4.59436E+06    -27.2679E+06         45.1802
            2000     8.64024E-03     142.875E-03     114.045E-03    -41.9107E-03    -76.2508E-03    -41.2199E-03     113.354E-03    -76.2508E-03     13.4575E-03     315.203E-03    -146.716E-03    -168.339E-03    -165.635E-03     312.498E-03    -146.716E-03     71.9779E-03     17.4471E+06    -18.7057E+06    -92.4309E+06    -75.2999E+06    -35.8367E+06     17.4471E+06    -31.1021E+06         47.1012
            2001     9.48570E-03     142.956E-03     117.142E-03    -46.9471E-03    -73.1106E-03    -46.5602E-03     116.755E-03    -73.1106E-03     1.30500E-03     323.457E-03    -148.707E-03    -174.772E-03    -172.001E-03     320.687E-03    -148.707E-03     73.9345E-03     28.0797E+06    -3.23667E+06    -81.5264E+06    -63.5260E+06    -21.2371E+06     28.0797E+06    -32.8532E+06         49.5610
            2002     10.3283E-03     143.040E-03     113.894E-03    -47.1334E-03    -70.7719E-03    -45.7102E-03     112.471E-03    -70.7719E-03    -9.63129E-03     331.520E-03    -150.691E-03    -180.922E-03    -178.227E-03     328.824E-03    -150.691E-03     74.0722E-03     38.6805E+06     13.3825E+06    -69.3888E+06    -52.4022E+06    -3.60415E+06     38.6805E+06    -33.3404E+06         52.5284
            2003     11.1661E-03     143.130E-03     100.705E-03    -35.2854E-03    -68.2497E-03    -32.3004E-03     97.7203E-03    -68.2497E-03    -13.3278E-03     339.119E-03    -152.910E-03    -186.337E-03    -183.878E-03     336.660E-03    -152.910E-03     71.6476E-03     46.9204E+06     30.6257E+06    -56.1897E+06    -42.4577E+06     16.8937E+06     46.9204E+06    -31.4002E+06         55.9790
            2004     11.9977E-03     143.212E-03     94.9595E-03    -34.2054E-03    -65.5133E-03    -32.2124E-03     92.9665E-03    -65.5133E-03    -549.200E-06     346.040E-03    -155.398E-03    -190.788E-03    -188.521E-03     343.773E-03    -155.398E-03     69.5032E-03     59.4827E+06     50.9421E+06    -42.4791E+06    -33.7609E+06     45.8675E+06     55.8391E+06    -26.9462E+06         59.8951
            2005     12.8250E-03     143.296E-03     96.2054E-03    -36.8676E-03    -63.1895E-03    -36.1689E-03     95.5068E-03    -63.1895E-03     921.189E-06     351.393E-03    -157.695E-03    -193.853E-03    -191.628E-03     349.167E-03    -157.695E-03     69.4429E-03     71.0184E+06     60.8256E+06    -32.3557E+06    -27.6893E+06     59.8027E+06     67.3748E+06    -20.3867E+06         64.4505
            2006     13.6478E-03     143.386E-03     88.6166E-03    -26.3969E-03    -60.9111E-03    -24.6594E-03     86.8791E-03    -60.9111E-03    -7.54608E-03     352.621E-03    -159.879E-03    -192.913E-03    -190.596E-03     350.304E-03    -159.879E-03     70.9008E-03     83.7008E+06     56.9193E+06    -24.9144E+06    -23.1454E+06     55.1504E+06     83.7008E+06    -10.2300E+06         69.2892
            2007     14.4776E-03     143.483E-03     78.1635E-03    -17.6010E-03    -58.2655E-03    -14.1231E-03     74.6856E-03    -58.2655E-03     7.24612E-03     351.514E-03    -161.830E-03    -189.953E-03    -188.023E-03     349.583E-03    -161.830E-03     63.9990E-03     133.034E+06     82.3804E+06    -13.2977E+06    -13.0798E+06     82.1626E+06     133.034E+06    -3.06330E+06         73.1630
            2008     867.702E-06     143.689E-03     214.540E-03    -52.7824E-03    -176.003E-03    -27.3209E-03     188.680E-03    -175.604E-03     53.5054E-03     281.451E-03    -140.455E-03    -140.998E-03    -140.936E-03     281.420E-03    -140.486E-03     6.91791E-03    -188.017E+06    -239.095E+06    -244.916E+06    -242.486E+06    -189.315E+06    -240.225E+06    -7.23026E+06         41.7638
            2009     1.73753E-03     143.707E-03     167.121E-03    -77.2788E-03    -96.8454E-03    -76.3145E-03     165.757E-03    -96.4461E-03     1.61963E-03     282.179E-03    -140.703E-03    -141.359E-03    -141.135E-03     282.075E-03    -140.823E-03     12.6105E-03    -172.417E+06    -220.765E+06    -235.818E+06    -233.769E+06    -174.466E+06    -220.765E+06    -11.0103E+06         41.8106
            2010     2.60526E-03     143.742E-03     139.100E-03    -60.7287E-03    -86.7509E-03    -59.4583E-03     137.830E-03    -86.7509E-03     24.5343E-03     283.640E-03    -140.985E-03    -142.520E-03    -142.012E-03     283.376E-03    -141.230E-03     20.7480E-03    -149.457E+06    -189.633E+06    -220.670E+06    -216.514E+06    -155.830E+06    -187.417E+06    -16.1447E+06         41.9048
            2011     3.47143E-03     143.784E-03     139.959E-03    -67.9354E-03    -80.3922E-03    -66.9563E-03     138.980E-03    -80.3922E-03     3.41583E-03     284.806E-03    -141.510E-03    -143.197E-03    -142.593E-03     284.327E-03    -141.635E-03     28.3942E-03    -125.083E+06    -157.827E+06    -201.607E+06    -195.361E+06    -137.681E+06    -151.475E+06    -19.7343E+06         42.0542
            2012     4.33785E-03     143.833E-03     150.287E-03    -71.2213E-03    -81.7444E-03    -73.2581E-03     148.579E-03    -78.0000E-03     15.3985E-03     285.535E-03    -141.912E-03    -143.570E-03    -142.843E-03     284.808E-03    -141.912E-03     35.1478E-03    -95.3750E+06    -124.190E+06    -177.685E+06    -169.848E+06    -115.162E+06    -112.240E+06    -21.7647E+06         42.2580
            2013     5.20631E-03     143.892E-03     154.509E-03    -71.5182E-03    -83.7639E-03    -76.1017E-03     152.322E-03    -76.9933E-03     27.0694E-03     286.935E-03    -142.256E-03    -144.798E-03    -143.768E-03     285.906E-03    -142.256E-03     41.9215E-03    -67.4216E+06    -90.8048E+06    -154.379E+06    -144.142E+06    -93.4618E+06    -75.0013E+06    -24.2519E+06         42.5320
            2014     6.07332E-03     143.967E-03     150.627E-03    -73.4406E-03    -80.7286E-03    -72.5978E-03     145.074E-03    -76.0180E-03     38.9817E-03     290.383E-03    -142.669E-03    -147.756E-03    -146.373E-03     289.000E-03    -142.669E-03     48.9528E-03    -42.4262E+06    -60.5622E+06    -132.616E+06    -120.336E+06    -71.7290E+06    -43.5391E+06    -26.7023E+06         42.9735
            2015     6.93789E-03     144.047E-03     138.535E-03    -66.5827E-03    -78.3337E-03    -65.4582E-03     133.596E-03    -74.5196E-03     23.6343E-03     295.853E-03    -143.418E-03    -152.514E-03    -150.707E-03     294.045E-03    -143.418E-03     56.4988E-03    -17.8338E+06    -38.0383E+06    -113.770E+06    -100.182E+06    -51.6263E+06    -17.8338E+06    -28.8085E+06         43.8102
            2016     7.79739E-03     144.139E-03     130.126E-03    -59.3771E-03    -74.8508E-03    -60.6035E-03     129.222E-03    -72.7213E-03    -1.12948E-03     302.680E-03    -144.553E-03    -158.089E-03    -155.873E-03     300.464E-03    -144.553E-03     63.4157E-03     1.30303E+06    -21.2952E+06    -101.037E+06    -85.7856E+06    -36.5464E+06     1.30303E+06    -31.2225E+06         45.2013
            2017     8.65302E-03     144.232E-03     124.527E-03    -57.6263E-03    -70.9571E-03    -57.2103E-03     124.111E-03    -70.9571E-03     5.89256E-03     311.305E-03    -145.946E-03    -165.200E-03    -162.649E-03     308.753E-03    -145.946E-03     69.2781E-03     14.4391E+06    -7.07127E+06    -93.8206E+06    -75.4964E+06    -25.3954E+06     14.4391E+06    -35.3263E+06         47.1511
            2018     9.50016E-03     144.328E-03     111.528E-03    -51.3855E-03    -69.0646E-03    -50.3966E-03     110.539E-03    -69.0646E-03     11.6879E-03     321.679E-03    -147.849E-03    -173.989E-03    -171.200E-03     318.891E-03    -147.849E-03     74.0124E-03      25.797E+06     7.74749E+06    -85.0361E+06    -63.6881E+06    -13.6005E+06      25.797E+06    -39.0401E+06         49.6244
            2019     10.3379E-03     144.426E-03     97.8363E-03    -41.1753E-03    -66.6776E-03    -39.0057E-03     95.6666E-03    -66.6776E-03     1.43703E-03     331.510E-03    -149.911E-03    -181.613E-03    -178.807E-03     328.705E-03    -149.911E-03     75.6227E-03     35.5971E+06     20.9855E+06    -72.7722E+06    -51.0672E+06    -719.504E+03     35.5971E+06    -39.4295E+06         52.5916
            2020     11.1706E-03     144.527E-03     89.0936E-03    -30.5659E-03    -63.7689E-03    -27.5147E-03     86.0424E-03    -63.7689E-03    -15.5795E-03     339.550E-03    -152.157E-03    -187.173E-03    -184.587E-03     336.965E-03    -152.157E-03     73.4772E-03     43.1866E+06     32.3500E+06    -59.2142E+06    -40.5841E+06     13.7199E+06     43.1866E+06    -36.5567E+06         56.0326
            2021     12.0015E-03     144.622E-03     82.8986E-03    -23.5243E-03    -60.6830E-03    -21.1528E-03     80.5271E-03    -60.6830E-03     797.716E-06     346.892E-03    -154.697E-03    -192.079E-03    -189.732E-03     344.545E-03    -154.697E-03     70.8048E-03     54.8718E+06     46.0193E+06    -44.4646E+06    -32.8365E+06     36.9618E+06     52.3012E+06    -29.8093E+06         59.9316
            2022     12.8271E-03     144.718E-03     77.5024E-03    -18.0037E-03    -57.6599E-03    -17.2975E-03     76.7962E-03    -57.6599E-03     4.82518E-03     352.256E-03    -157.153E-03    -195.184E-03    -192.953E-03     350.026E-03    -157.153E-03     69.6501E-03     65.0494E+06     47.4991E+06    -32.5489E+06    -27.6654E+06     45.1863E+06     62.4787E+06    -19.0076E+06         64.4623
            2023     13.6537E-03     144.810E-03     76.4899E-03    -16.2544E-03    -54.7222E-03    -15.3546E-03     75.5901E-03    -54.7222E-03     11.9250E-03     354.071E-03    -159.459E-03    -194.689E-03    -192.478E-03     351.860E-03    -159.459E-03     69.5218E-03     80.4471E+06     45.5317E+06    -19.0794E+06    -16.4280E+06     42.8802E+06     80.4471E+06    -11.5149E+06         69.2752
            2024     14.4801E-03     144.901E-03     77.0821E-03    -18.3726E-03    -51.9367E-03    -14.1958E-03     72.9054E-03    -51.9367E-03     36.1039E-03     354.123E-03    -161.553E-03    -192.600E-03    -190.593E-03     352.116E-03    -161.553E-03     66.0102E-03     135.601E+06     75.5753E+06    -4.90738E+06    -3.41657E+06     74.0845E+06     135.601E+06    -6.96214E+06         73.1330
            2025     866.111E-06     145.017E-03     189.290E-03    -30.9776E-03    -167.349E-03     6.18180E-03     152.130E-03    -167.349E-03     85.5855E-03     287.111E-03    -142.811E-03    -144.340E-03    -144.300E-03     287.071E-03    -142.811E-03     7.79329E-03    -163.021E+06    -249.646E+06    -257.697E+06    -254.502E+06    -164.779E+06    -251.083E+06    -11.7009E+06         42.1251
            2026     1.72988E-03     145.036E-03     147.393E-03    -65.8934E-03    -80.2714E-03    -66.7916E-03     145.539E-03    -77.5192E-03    -3.42555E-03     287.225E-03    -143.425E-03    -143.793E-03    -143.532E-03     287.123E-03    -143.585E-03     12.9503E-03    -145.695E+06    -233.097E+06    -250.108E+06    -245.106E+06    -150.697E+06    -233.097E+06    -21.4224E+06         42.1439
            2027     2.59724E-03     145.066E-03     136.408E-03    -61.7933E-03    -79.8774E-03    -66.6178E-03     134.516E-03    -73.1601E-03     35.5503E-03     286.280E-03    -142.774E-03    -143.615E-03    -142.556E-03     286.062E-03    -143.615E-03     18.9139E-03    -125.587E+06    -205.689E+06    -239.744E+06    -230.706E+06    -134.624E+06    -205.689E+06    -30.2690E+06         42.1902
            2028     3.46657E-03     145.111E-03     125.126E-03    -62.4057E-03    -74.6865E-03    -64.3238E-03     123.079E-03    -70.7215E-03     37.7613E-03     285.957E-03    -142.537E-03    -143.639E-03    -142.338E-03     285.588E-03    -143.470E-03     24.7171E-03    -103.968E+06    -171.654E+06    -226.046E+06    -211.529E+06    -118.485E+06    -171.654E+06    -39.0292E+06         42.2973
            2029     4.33473E-03     145.161E-03     128.442E-03    -61.5310E-03    -71.8388E-03    -62.3175E-03     126.175E-03    -68.7853E-03     40.4285E-03     287.762E-03    -143.164E-03    -144.594E-03    -143.801E-03     287.221E-03    -143.415E-03     29.9543E-03    -81.3926E+06    -137.110E+06    -207.732E+06    -188.122E+06    -101.003E+06    -137.110E+06    -45.5629E+06         42.4743
            2030     5.19879E-03     145.223E-03     132.697E-03    -62.1779E-03    -74.1054E-03    -66.7341E-03     130.801E-03    -67.6531E-03     11.5425E-03     290.046E-03    -143.851E-03    -146.296E-03    -145.565E-03     289.315E-03    -143.851E-03     35.1850E-03    -59.5206E+06    -103.315E+06    -186.210E+06    -162.962E+06    -82.7678E+06    -103.315E+06    -48.8877E+06         42.7150
            2031     6.06273E-03     145.295E-03     124.944E-03    -61.0401E-03    -70.4237E-03    -63.9233E-03     124.428E-03    -67.0249E-03    -16.1454E-03     292.380E-03    -144.350E-03    -148.307E-03    -147.312E-03     291.386E-03    -144.350E-03     41.4211E-03    -38.5628E+06    -70.0468E+06    -162.722E+06    -137.052E+06    -64.6585E+06    -69.6212E+06    -50.1352E+06         43.1339
            2032     6.92527E-03     145.384E-03     117.005E-03    -57.4366E-03    -68.1144E-03    -58.7549E-03     116.193E-03    -65.9848E-03    -8.77531E-03     295.684E-03    -144.869E-03    -150.980E-03    -149.715E-03     294.418E-03    -144.869E-03     47.2676E-03    -16.9947E+06    -40.9848E+06    -136.908E+06    -111.159E+06    -46.8506E+06    -36.8774E+06    -48.1305E+06         43.9608
            2033     7.78632E-03     145.477E-03     115.331E-03    -59.3225E-03    -66.8126E-03    -59.3846E-03     113.264E-03    -64.6831E-03     8.36661E-03     300.447E-03    -145.714E-03    -154.722E-03    -153.211E-03     298.935E-03    -145.714E-03     52.1415E-03    -403.713E+03    -16.4403E+06    -112.751E+06    -87.6047E+06    -33.3088E+06    -8.68127E+06    -44.2954E+06         45.3383
            2034     8.64352E-03     145.586E-03     109.293E-03    -54.6703E-03    -63.0708E-03    -52.2192E-03     106.842E-03    -63.0708E-03     26.6780E-03     307.850E-03    -146.776E-03    -160.958E-03    -159.114E-03     306.007E-03    -146.776E-03     58.5063E-03     14.1567E+06     5.47376E+06    -92.7831E+06    -69.2977E+06    -17.0550E+06     13.2000E+06    -41.7588E+06         47.2705
            2035     9.49449E-03     145.701E-03     99.7534E-03    -46.9420E-03    -60.9137E-03    -44.6460E-03     97.4575E-03    -60.9137E-03     30.5193E-03     317.209E-03    -148.324E-03    -169.091E-03    -166.919E-03     315.037E-03    -148.324E-03     64.7146E-03     27.9256E+06     19.3155E+06    -80.6500E+06    -56.8178E+06    -4.51663E+06     27.9256E+06    -42.4855E+06         49.7233
            2036     10.3392E-03     145.817E-03     94.9134E-03    -42.1956E-03    -58.6062E-03    -40.9597E-03     93.6775E-03    -58.6062E-03     19.7820E-03     327.219E-03    -150.148E-03    -177.129E-03    -174.686E-03     324.777E-03    -150.148E-03     69.8842E-03     35.3989E+06     24.5804E+06    -72.7495E+06    -48.5924E+06     423.279E+03     35.3989E+06    -41.9319E+06         52.6693
            2037     11.1770E-03     145.931E-03     95.3699E-03    -36.9107E-03    -56.3728E-03    -36.5529E-03     95.0121E-03    -56.3728E-03     9.97410E-03     337.065E-03    -152.145E-03    -184.648E-03    -182.055E-03     334.472E-03    -152.145E-03     73.3046E-03     42.1053E+06     31.8852E+06    -62.6222E+06    -42.3409E+06     11.6040E+06     42.1053E+06    -38.6082E+06         56.0875
            2038     12.0065E-03     146.040E-03     83.8269E-03    -26.3164E-03    -53.9448E-03    -25.1821E-03     82.6926E-03    -53.9448E-03     8.14588E-03     345.793E-03    -154.502E-03    -191.109E-03    -188.487E-03     343.171E-03    -154.502E-03     74.8475E-03     50.3201E+06     39.5079E+06    -50.0700E+06    -35.6358E+06     25.0737E+06     50.3201E+06    -32.3870E+06         59.9623
            2039     12.8334E-03     146.142E-03     62.3826E-03    -7.54778E-03    -50.9113E-03    -6.05340E-03     60.8882E-03    -50.9113E-03     4.89175E-03     351.636E-03    -156.864E-03    -194.816E-03    -192.407E-03     349.227E-03    -156.864E-03     72.3212E-03     60.9323E+06     38.0871E+06    -34.6642E+06    -25.1395E+06     28.5624E+06     60.9323E+06    -23.5428E+06         64.4696
            2040     13.6586E-03     146.234E-03     54.5801E-03    -2.67288E-03    -47.5403E-03     218.065E-06     51.6892E-03    -47.5403E-03     1.91479E-03     354.925E-03    -159.129E-03    -195.874E-03    -193.720E-03     352.770E-03    -159.129E-03     68.7299E-03     78.4496E+06     38.1005E+06    -20.0467E+06    -14.5166E+06     32.5704E+06     78.4496E+06    -15.5330E+06         69.2583
            2041     14.4844E-03     146.330E-03     57.5011E-03    -6.81233E-03    -44.4345E-03    -911.194E-06     51.5999E-03    -44.4345E-03     16.9499E-03     355.678E-03    -161.338E-03    -194.447E-03    -192.577E-03     353.808E-03    -161.338E-03     63.8327E-03     133.127E+06     65.9748E+06    -6.23954E+06    -4.43473E+06     64.1700E+06     133.127E+06    -8.36271E+06         73.0951
            2042     863.628E-06     146.357E-03     142.899E-03    -6.62042E-03    -141.156E-03     6.21108E-03     127.841E-03    -138.929E-03     11.9318E-03     294.712E-03    -146.602E-03    -148.129E-03    -147.606E-03     294.686E-03    -147.098E-03     5.24235E-03    -125.429E+06    -189.049E+06    -197.862E+06    -192.443E+06    -129.411E+06    -190.486E+06    -14.4262E+06         42.7810
            2043     1.72754E-03     146.376E-03     126.100E-03    -62.4224E-03    -69.9774E-03    -58.5502E-03     117.170E-03    -64.9196E-03    -49.5239E-03     294.259E-03    -146.798E-03    -147.507E-03    -146.920E-03     294.197E-03    -147.321E-03     8.95874E-03    -106.823E+06    -174.439E+06    -194.986E+06    -185.743E+06    -116.067E+06    -174.439E+06    -25.8688E+06         42.7843
            2044     2.59008E-03     146.404E-03     129.241E-03    -63.1423E-03    -70.6091E-03    -61.6874E-03     120.320E-03    -63.1423E-03    -23.3843E-03     293.359E-03    -146.278E-03    -147.218E-03    -146.169E-03     293.250E-03    -147.218E-03     12.5100E-03    -86.5134E+06    -155.673E+06    -193.390E+06    -177.431E+06    -102.473E+06    -155.673E+06    -37.0644E+06         42.8027
            2045     3.45436E-03     146.442E-03     123.326E-03    -62.4935E-03    -69.8326E-03    -64.9797E-03     119.116E-03    -63.1369E-03    -7.54853E-03     292.685E-03    -145.873E-03    -147.049E-03    -145.711E-03     292.523E-03    -147.049E-03     15.8657E-03    -65.2982E+06    -132.512E+06    -189.445E+06    -166.735E+06    -88.0078E+06    -132.512E+06    -47.1603E+06         42.8728
            2046     4.31814E-03     146.499E-03     112.639E-03    -54.8594E-03    -67.9277E-03    -57.5145E-03     110.181E-03    -62.8144E-03     6.55654E-03     293.485E-03    -146.103E-03    -147.470E-03    -146.355E-03     293.248E-03    -146.981E-03     19.6139E-03    -46.2919E+06    -108.745E+06    -185.128E+06    -155.252E+06    -76.1678E+06    -108.745E+06    -56.4292E+06         43.0024
            2047     5.18175E-03     146.564E-03     101.225E-03    -46.7455E-03    -67.8089E-03    -52.3850E-03     100.412E-03    -61.3566E-03     4.05230E-03     295.654E-03    -146.957E-03    -148.802E-03    -148.071E-03     295.296E-03    -147.330E-03     24.3584E-03    -27.3834E+06    -86.4043E+06    -177.898E+06    -141.809E+06    -63.4729E+06    -86.4043E+06    -63.4619E+06         43.1885
            2048     6.04292E-03     146.641E-03     98.2080E-03    -48.6365E-03    -62.9317E-03    -51.1085E-03     97.2812E-03    -59.5329E-03    -452.357E-06     297.826E-03    -147.733E-03    -150.404E-03    -149.861E-03     297.284E-03    -147.733E-03     30.0957E-03    -11.4228E+06    -62.6590E+06    -166.621E+06    -126.459E+06    -51.5848E+06    -62.6590E+06    -67.2045E+06         43.5503
            2049     6.90339E-03     146.729E-03     96.2638E-03    -47.0703E-03    -57.5182E-03    -46.0567E-03     95.2503E-03    -57.5182E-03     10.2424E-03     299.724E-03    -148.060E-03    -151.685E-03    -150.971E-03     299.010E-03    -148.060E-03     34.7767E-03    -101.069E+03    -39.7152E+06    -151.783E+06    -109.400E+06    -42.4840E+06    -39.7152E+06    -67.5045E+06         44.3097
            2050     7.76290E-03     146.832E-03     91.7073E-03    -44.0387E-03    -55.2957E-03    -42.0876E-03     89.7562E-03    -55.2957E-03     11.5524E-03     302.762E-03    -148.737E-03    -153.970E-03    -153.064E-03     301.856E-03    -148.737E-03     39.6653E-03     6.58647E+06    -19.2228E+06    -132.808E+06    -91.4620E+06    -34.7596E+06    -19.2228E+06    -63.4152E+06         45.6089
            2051     8.61921E-03     146.947E-03     91.2330E-03    -46.3163E-03    -53.3123E-03    -42.9761E-03     87.8576E-03    -53.2771E-03     11.4549E-03     307.584E-03    -149.589E-03    -158.052E-03    -156.843E-03     306.375E-03    -149.589E-03     46.6469E-03     16.9601E+06     1.79326E+06    -108.776E+06    -72.9684E+06    -19.3579E+06     2.30396E+06    -56.3519E+06         47.4624
            2052     9.47232E-03     147.071E-03     92.2182E-03    -45.2110E-03    -51.6922E-03    -43.0077E-03     89.9797E-03    -51.6569E-03     4.30229E-03     313.343E-03    -150.593E-03    -162.811E-03    -161.307E-03     311.839E-03    -150.593E-03     52.9673E-03     29.3300E+06     20.9728E+06    -86.4290E+06    -57.5132E+06    -2.21180E+06     23.5988E+06    -49.0508E+06         49.8456
            2053     10.3217E-03     147.199E-03     88.7813E-03    -42.1607E-03    -50.2241E-03    -40.4808E-03     87.1014E-03    -50.2241E-03    -8.38131E-03     320.569E-03    -151.824E-03    -168.791E-03    -167.011E-03     318.790E-03    -151.824E-03     58.6447E-03     38.0739E+06     28.2010E+06    -74.0023E+06    -46.6346E+06     833.303E+03     38.0739E+06    -44.7087E+06         52.7376
            2054     11.1660E-03     147.327E-03     77.6419E-03    -31.3058E-03    -48.4297E-03    -27.3396E-03     73.6757E-03    -48.4297E-03    -20.2702E-03     329.581E-03    -153.246E-03    -176.318E-03    -174.260E-03     327.523E-03    -153.246E-03     64.2535E-03     47.0966E+06     29.5287E+06    -60.3232E+06    -36.6440E+06     5.84952E+06     47.0966E+06    -38.7895E+06         56.1171
            2055     12.0046E-03     147.448E-03     65.8852E-03    -17.9596E-03    -45.8434E-03    -11.8871E-03     59.8127E-03    -45.8434E-03    -28.2537E-03     339.248E-03    -154.997E-03    -184.193E-03    -181.920E-03     336.975E-03    -154.997E-03     68.7234E-03     57.6292E+06     34.0093E+06    -45.2561E+06    -28.8587E+06     17.6119E+06     57.6292E+06    -31.7213E+06         59.9612
            2056     12.8352E-03     147.563E-03     61.5688E-03    -14.4591E-03    -42.9457E-03    -9.43237E-03     56.5420E-03    -42.9457E-03    -752.709E-06     348.234E-03    -157.005E-03    -191.156E-03    -188.949E-03     346.026E-03    -157.005E-03     68.7599E-03     67.9868E+06     34.2767E+06    -36.8772E+06    -23.5529E+06     20.9524E+06     67.9868E+06    -27.7379E+06         64.4420
            2057     13.6601E-03     147.662E-03     54.7909E-03    -11.3075E-03    -40.2727E-03    -7.30953E-03     50.7929E-03    -40.2727E-03     2.52899E-03     354.256E-03    -159.145E-03    -195.086E-03    -193.079E-03     352.249E-03    -159.145E-03     66.2782E-03     81.3742E+06     29.3606E+06    -27.4570E+06    -15.4132E+06     17.3168E+06     81.3742E+06    -20.4294E+06         69.2072
            2058     14.4819E-03     147.758E-03     46.5236E-03    -8.07713E-03    -37.6779E-03     1.30573E-03     37.1408E-03    -37.6779E-03     10.1064E-03     355.231E-03    -161.305E-03    -194.013E-03    -192.291E-03     353.510E-03    -161.305E-03     61.2660E-03     133.029E+06     53.2280E+06    -8.96335E+06    -2.93542E+06     47.2001E+06     133.029E+06    -9.04726E+06         73.0217
            2059     856.594E-06     147.705E-03     135.837E-03    -32.6021E-03    -109.601E-03    -31.2261E-03     132.235E-03    -107.374E-03    -6.84664E-03     308.086E-03    -153.380E-03    -154.709E-03    -153.379E-03     308.085E-03    -154.709E-03     455.781E-06    -78.0836E+06    -106.463E+06    -118.874E+06    -109.411E+06    -87.5466E+06    -106.463E+06    -15.0853E+06         43.8820
            2060     1.71528E-03     147.725E-03     129.509E-03    -61.8831E-03    -68.8709E-03    -56.2436E-03     121.564E-03    -66.5653E-03    -49.0340E-03     306.626E-03    -152.738E-03    -153.895E-03    -152.731E-03     306.620E-03    -153.895E-03     952.149E-06    -61.9093E+06    -95.3631E+06    -123.261E+06    -105.323E+06    -79.8475E+06    -95.3631E+06    -25.9659E+06         43.8796
            2061     2.57548E-03     147.752E-03     120.307E-03    -58.4563E-03    -63.4351E-03    -47.6247E-03     107.578E-03    -61.5378E-03    -14.1056E-03     306.080E-03    -152.570E-03    -153.608E-03    -152.551E-03     306.062E-03    -153.608E-03     1.63432E-03    -42.7627E+06    -77.8953E+06    -123.165E+06    -98.6497E+06    -67.2778E+06    -77.8953E+06    -35.6608E+06         43.8866
            2062     3.43334E-03     147.792E-03     109.206E-03    -56.1178E-03    -61.8136E-03    -50.0082E-03     99.2185E-03    -57.9353E-03     11.5996E-03     305.613E-03    -152.322E-03    -153.483E-03    -152.284E-03     305.575E-03    -153.483E-03     3.27095E-03    -25.1500E+06    -59.2676E+06    -122.892E+06    -91.9710E+06    -56.0709E+06    -59.2676E+06    -44.5156E+06         43.9105
            2063     4.29285E-03     147.847E-03     95.8468E-03    -45.8618E-03    -59.1013E-03    -40.8760E-03     86.7506E-03    -54.9909E-03     28.2659E-03     305.135E-03    -151.874E-03    -153.486E-03    -151.807E-03     305.069E-03    -153.486E-03     4.82780E-03    -8.64079E+06    -39.2193E+06    -121.768E+06    -84.0863E+06    -46.3221E+06    -39.2193E+06    -52.5117E+06         43.9610
            2064     5.15264E-03     147.915E-03     76.7960E-03    -33.7699E-03    -53.1306E-03    -30.0516E-03     71.0271E-03    -51.0800E-03     27.2558E-03     305.756E-03    -152.062E-03    -153.892E-03    -152.256E-03     305.650E-03    -153.593E-03     6.91167E-03     5.77593E+06    -21.9237E+06    -120.550E+06    -76.9008E+06    -37.8733E+06    -21.9237E+06    -59.6650E+06         44.0518
            2065     6.01009E-03     147.994E-03     75.1401E-03    -37.4810E-03    -49.9180E-03    -36.2074E-03     71.6177E-03    -47.6692E-03     28.9448E-03     306.698E-03    -152.293E-03    -154.502E-03    -152.989E-03     306.548E-03    -153.655E-03     9.78948E-03     13.4329E+06    -10.7330E+06    -119.322E+06    -71.7711E+06    -34.1178E+06    -10.7330E+06    -63.3223E+06         44.2850
            2066     6.86602E-03     148.087E-03     88.4336E-03    -43.4161E-03    -53.9875E-03    -47.8435E-03     84.9832E-03    -46.1096E-03     23.2249E-03     307.248E-03    -152.328E-03    -154.829E-03    -153.254E-03     307.055E-03    -153.709E-03     13.2115E-03     17.6027E+06    -3.33718E+06    -117.318E+06    -69.6799E+06    -30.3703E+06    -3.00252E+06    -64.1938E+06         44.8877
            2067     7.72223E-03     148.187E-03     87.8075E-03    -39.7250E-03    -57.4555E-03    -50.8243E-03     87.1807E-03    -45.7294E-03    -6.24206E-03     308.298E-03    -152.651E-03    -155.735E-03    -153.950E-03     308.010E-03    -154.147E-03     18.8555E-03     21.9707E+06     3.74616E+06    -116.013E+06    -66.9284E+06    -27.4482E+06     4.08082E+06    -65.5193E+06         46.0267
            2068     8.57738E-03     148.308E-03     82.1421E-03    -39.6946E-03    -51.4328E-03    -44.3365E-03     80.6518E-03    -45.3005E-03    -3.64162E-03     309.720E-03    -152.683E-03    -157.206E-03    -154.805E-03     309.262E-03    -154.626E-03     25.8878E-03     26.8603E+06     11.3839E+06    -108.475E+06    -60.8559E+06    -22.1773E+06     12.8027E+06    -63.5328E+06         47.7292
            2069     9.43256E-03     148.432E-03     74.8432E-03    -38.0591E-03    -44.2635E-03    -36.1426E-03     72.8914E-03    -44.2282E-03    -284.472E-06     311.556E-03    -152.761E-03    -158.666E-03    -155.904E-03     310.883E-03    -154.851E-03     32.9628E-03     32.4806E+06     22.9440E+06    -91.1511E+06    -51.9835E+06    -10.4924E+06     26.7494E+06    -55.3177E+06         49.9804
            2070     10.2866E-03     148.566E-03     66.3950E-03    -29.0096E-03    -42.3390E-03    -25.0733E-03     62.4587E-03    -42.3390E-03    -426.195E-06     314.938E-03    -153.868E-03    -161.051E-03    -158.687E-03     313.981E-03    -155.275E-03     40.8888E-03     42.9704E+06     30.5520E+06    -73.5485E+06    -42.4340E+06    -562.551E+03     42.9704E+06    -46.6357E+06         52.7687
            2071     11.1376E-03     148.701E-03     58.0478E-03    -20.5655E-03    -39.5962E-03    -13.2355E-03     50.7178E-03    -39.5962E-03    -3.99672E-03     320.958E-03    -155.551E-03    -165.540E-03    -163.854E-03     319.683E-03    -155.962E-03     48.7896E-03     53.1553E+06     27.0576E+06    -62.8185E+06    -35.2306E+06    -530.290E+03     53.1553E+06    -41.0571E+06         56.0812
            2072     11.9835E-03     148.837E-03     54.1404E-03    -17.5166E-03    -36.4841E-03    -8.21386E-03     44.8376E-03    -36.4841E-03    -258.403E-06     329.232E-03    -156.851E-03    -172.413E-03    -170.842E-03     327.660E-03    -156.851E-03     55.6039E-03     65.8239E+06     29.5919E+06    -47.2293E+06    -26.6469E+06     9.00959E+06     65.8239E+06    -33.5864E+06         59.8941
            2073     12.8238E-03     148.965E-03     53.8885E-03    -15.2691E-03    -33.5699E-03    -5.96435E-03     44.5838E-03    -33.5699E-03     23.1517E-03     338.900E-03    -158.161E-03    -180.646E-03    -178.880E-03     337.134E-03    -158.161E-03     60.3352E-03     81.0911E+06     35.5144E+06    -32.1494E+06    -16.3790E+06     19.7440E+06     81.0911E+06    -28.0147E+06         64.3428
            2074     13.6550E-03     149.083E-03     48.7586E-03    -14.9964E-03    -31.1667E-03    -10.1623E-03     43.9245E-03    -31.1667E-03     14.8252E-03     347.318E-03    -159.805E-03    -187.503E-03    -185.769E-03     345.584E-03    -159.805E-03     60.6603E-03     88.5642E+06     17.8491E+06    -30.6606E+06    -12.6682E+06    -143.292E+03     88.5642E+06    -21.1094E+06         69.0625
            2075     14.4853E-03     149.177E-03     47.4648E-03    -18.7088E-03    -29.3503E-03    -10.5662E-03     39.2598E-03    -29.2879E-03     22.2897E-03     350.371E-03    -161.526E-03    -188.955E-03    -187.483E-03     348.899E-03    -161.526E-03     55.9693E-03     129.558E+06     35.6867E+06    -17.5304E+06    -7.88828E+06     26.0446E+06     129.558E+06    -8.57685E+06         72.8572
            2076     849.804E-06     149.079E-03     88.0151E-03    -11.0817E-03    -80.9280E-03    -53.8287E-03     70.9134E-03    -21.0792E-03     44.5914E-03     328.183E-03    -163.339E-03    -164.847E-03    -163.668E-03     328.147E-03    -164.481E-03    -6.29000E-03    -20.3084E+06    -26.5890E+06    -57.8563E+06    -29.4281E+06    -49.7228E+06    -25.6029E+06    -10.5663E+06         45.5718
            2077     1.70027E-03     149.094E-03     82.2931E-03    -32.5037E-03    -47.1483E-03    -38.8944E-03     78.7214E-03    -37.1858E-03     7.45593E-03     326.822E-03    -162.886E-03    -163.961E-03    -162.841E-03     326.778E-03    -163.961E-03    -7.58586E-03    -8.99931E+06    -20.8442E+06    -61.7763E+06    -29.0908E+06    -44.2681E+06    -18.2609E+06    -20.9271E+06         45.5534
            2078     2.54988E-03     149.123E-03     90.4430E-03    -34.8946E-03    -54.7791E-03    -45.8378E-03     84.5832E-03    -37.9761E-03     41.5416E-03     326.334E-03    -162.643E-03    -163.746E-03    -162.545E-03     326.236E-03    -163.746E-03    -11.4278E-03     3.35773E+06    -9.88565E+06    -63.6709E+06    -27.0840E+06    -36.9287E+06    -6.18616E+06    -29.4897E+06         45.5266
            2079     3.40175E-03     149.162E-03     89.6256E-03    -37.5414E-03    -59.3174E-03    -47.2275E-03     79.3533E-03    -39.3589E-03     34.4704E-03     325.642E-03    -162.064E-03    -163.689E-03    -161.890E-03     325.468E-03    -163.689E-03    -15.0990E-03     17.0888E+06     4.26108E+06    -63.4112E+06    -23.1640E+06    -27.7878E+06     8.89052E+06    -36.3394E+06         45.4887
            2080     4.25201E-03     149.216E-03     83.1839E-03    -37.4652E-03    -50.2066E-03    -36.4727E-03     71.2675E-03    -39.2827E-03     13.9677E-03     324.815E-03    -161.348E-03    -163.723E-03    -161.100E-03     324.567E-03    -163.723E-03    -17.9991E-03     29.0224E+06     15.2017E+06    -63.5927E+06    -20.3098E+06    -21.1034E+06     22.0445E+06    -41.9115E+06         45.4469
            2081     5.10173E-03     149.279E-03     79.1497E-03    -35.4347E-03    -47.6828E-03    -35.2402E-03     69.4061E-03    -38.1337E-03    -389.653E-06     323.535E-03    -160.099E-03    -163.636E-03    -159.796E-03     323.232E-03    -163.636E-03    -19.6401E-03     38.5007E+06     21.6242E+06    -65.0038E+06    -19.9100E+06    -18.5759E+06     33.6070E+06    -44.6287E+06         45.4033
            2082     5.95349E-03     149.359E-03     71.2400E-03    -34.8476E-03    -47.4293E-03    -39.2270E-03     65.7368E-03    -37.5467E-03    -2.00095E-03     321.506E-03    -158.121E-03    -163.348E-03    -157.761E-03     321.146E-03    -163.348E-03    -20.4030E-03     45.7966E+06     24.3228E+06    -65.7058E+06    -20.9208E+06    -17.5870E+06     42.9215E+06    -45.6061E+06         45.4239
            2083     6.80700E-03     149.447E-03     64.3635E-03    -31.7988E-03    -46.7750E-03    -37.9227E-03     61.0191E-03    -37.3066E-03     5.55419E-03     319.743E-03    -156.670E-03    -163.054E-03    -156.302E-03     319.375E-03    -163.054E-03    -18.8282E-03     50.0679E+06     29.0209E+06    -65.8742E+06    -20.9039E+06    -15.0756E+06     49.1941E+06    -46.7886E+06         45.7401
            2084     7.65936E-03     149.549E-03     63.7996E-03    -26.4725E-03    -48.5436E-03    -37.5931E-03     63.1941E-03    -36.8175E-03    -3.24671E-03     318.297E-03    -155.691E-03    -162.928E-03    -155.346E-03     317.953E-03    -162.928E-03    -14.7525E-03     54.8210E+06     31.2571E+06    -66.5281E+06    -21.8025E+06    -13.1103E+06     54.4629E+06    -48.1502E+06         46.5888
            2085     8.51297E-03     149.663E-03     63.3933E-03    -28.9541E-03    -42.4400E-03    -34.3105E-03     62.2064E-03    -35.8967E-03     17.6662E-03     315.899E-03    -153.490E-03    -162.666E-03    -153.151E-03     315.560E-03    -162.666E-03    -10.1470E-03     56.0652E+06     28.8290E+06    -69.2305E+06    -25.4071E+06    -14.6362E+06     55.7070E+06    -48.7517E+06         48.0461
            2086     9.36883E-03     149.788E-03     53.0639E-03    -23.8663E-03    -34.5774E-03    -22.0227E-03     50.7740E-03    -34.1311E-03     25.3806E-03     313.159E-03    -150.933E-03    -162.083E-03    -150.611E-03     312.836E-03    -162.083E-03    -3.79101E-03     54.7525E+06     25.7955E+06    -69.1895E+06    -28.8249E+06    -14.5691E+06     54.7525E+06    -46.7518E+06         50.1012
            2087     10.2265E-03     149.918E-03     40.0108E-03    -9.20205E-03    -31.1848E-03    -4.87284E-03     35.6816E-03    -31.1848E-03     16.5696E-03     311.493E-03    -149.897E-03    -161.540E-03    -149.561E-03     311.156E-03    -161.540E-03     5.24884E-03     58.4425E+06     23.2576E+06    -60.6738E+06    -30.2433E+06    -7.17288E+06     58.4425E+06    -39.4550E+06         52.7275
            2088     11.0843E-03     150.063E-03     39.1706E-03    -9.26937E-03    -27.8382E-03    -4.19416E-03     34.0954E-03    -27.8382E-03     10.5333E-03     312.298E-03    -150.203E-03    -162.215E-03    -150.800E-03     311.877E-03    -161.197E-03     16.4685E-03     67.4520E+06     23.4136E+06    -51.5557E+06    -28.5758E+06     433.680E+03     67.4520E+06    -33.7206E+06         55.9375
            2089     11.9394E-03     150.206E-03     49.9688E-03    -20.1411E-03    -25.6795E-03    -12.5258E-03     41.9125E-03    -25.2384E-03     3.78804E-03     316.067E-03    -151.450E-03    -164.633E-03    -154.513E-03     315.424E-03    -160.927E-03     29.2926E-03     74.4762E+06     28.2157E+06    -48.4660E+06    -25.5151E+06     5.26480E+06     74.4762E+06    -34.6468E+06         59.7441
            2090     12.7906E-03     150.351E-03     45.7223E-03    -15.4739E-03    -23.5894E-03    -6.64083E-03     36.4481E-03    -23.1483E-03     11.5196E-03     321.841E-03    -153.692E-03    -168.062E-03    -159.847E-03     320.841E-03    -160.907E-03     42.0422E-03     83.6692E+06     28.8305E+06    -38.5694E+06    -19.8806E+06     10.1417E+06     83.6692E+06    -28.7834E+06         64.1457
            2091     13.6382E-03     150.480E-03     31.4781E-03    -6.89482E-03    -21.1208E-03    -3.61129E-03     28.1946E-03    -21.1208E-03     12.0454E-03     330.104E-03    -158.217E-03    -171.931E-03    -167.414E-03     328.692E-03    -161.322E-03     52.4001E-03     93.1308E+06     10.2963E+06    -37.2399E+06    -11.8622E+06    -15.0814E+06     93.1308E+06    -16.0535E+06         68.7659
            2092     14.4732E-03     150.591E-03     29.4060E-03    -11.4915E-03    -19.4250E-03    -4.01160E-03     21.8637E-03    -19.3626E-03     10.5843E-03     338.196E-03    -161.976E-03    -176.410E-03    -174.892E-03     336.774E-03    -162.071E-03     53.6233E-03     126.583E+06     27.7715E+06    -22.3928E+06    -3.39919E+06     8.77790E+06     126.583E+06    -8.06114E+06         72.5938
            2093     836.992E-06     150.480E-03     66.2251E-03     3.85602E-03    -67.7164E-03    -48.6933E-03    -611.708E-06     51.6697E-03     43.2383E-03     358.982E-03    -178.490E-03    -180.488E-03    -180.046E-03     358.850E-03    -178.800E-03    -16.1168E-03     45.0201E+06     42.5578E+06    -23.9114E+06     41.7205E+06    -22.8196E+06     44.7656E+06    -7.63796E+06         47.4270
            2094     1.67599E-03     150.496E-03     34.9746E-03    -2.02866E-03    -25.8812E-03    -17.3290E-03     26.4224E-03    -2.02866E-03    -11.4875E-03     357.662E-03    -178.277E-03    -179.351E-03    -178.033E-03     357.384E-03    -179.317E-03    -22.5153E-03     50.8349E+06     44.9219E+06    -20.4871E+06     40.6451E+06    -16.2103E+06     50.8349E+06    -13.0782E+06         47.3809
            2095     2.51432E-03     150.525E-03     51.1834E-03    -10.0167E-03    -40.5318E-03    -36.8956E-03     47.5471E-03    -10.0167E-03     12.4781E-03     356.419E-03    -177.345E-03    -179.057E-03    -176.837E-03     355.911E-03    -179.057E-03    -30.9360E-03     58.3649E+06     47.3358E+06    -22.0229E+06     38.9747E+06    -13.6618E+06     58.3649E+06    -18.5371E+06         47.3108
            2096     3.35118E-03     150.563E-03     66.9695E-03    -18.0311E-03    -55.2158E-03    -49.6102E-03     61.3639E-03    -18.0311E-03     9.59482E-03     355.060E-03    -176.224E-03    -178.786E-03    -175.459E-03     354.295E-03    -178.786E-03    -38.6371E-03     65.1584E+06     48.1012E+06    -20.5294E+06     36.5680E+06    -8.99629E+06     65.1584E+06    -21.2091E+06         47.2151
            2097     4.18952E-03     150.614E-03     71.6872E-03    -23.8751E-03    -54.7589E-03    -47.6101E-03     64.5385E-03    -23.8751E-03    -4.22645E-03     353.210E-03    -174.590E-03    -178.565E-03    -173.564E-03     352.184E-03    -178.565E-03    -44.8820E-03     73.1497E+06     46.7175E+06    -20.2180E+06     32.5817E+06    -6.08221E+06     73.1497E+06    -22.2134E+06         47.0886
            2098     5.02944E-03     150.674E-03     67.5547E-03    -26.8907E-03    -48.6283E-03    -40.4952E-03     59.4216E-03    -26.8907E-03    -2.32156E-03     350.180E-03    -171.967E-03    -178.257E-03    -170.613E-03     348.826E-03    -178.257E-03    -50.9323E-03     82.2893E+06     42.5032E+06    -21.8034E+06     28.3634E+06    -7.66363E+06     82.2893E+06    -21.8846E+06         46.9235
            2099     5.87088E-03     150.746E-03     58.8793E-03    -28.1923E-03    -46.2244E-03    -38.2908E-03     50.9457E-03    -28.1923E-03     5.16707E-03     346.010E-03    -168.409E-03    -177.617E-03    -166.724E-03     344.326E-03    -177.617E-03    -56.3058E-03     92.5145E+06     40.0301E+06    -20.2017E+06     25.0761E+06    -5.24772E+06     92.5145E+06    -21.9501E+06         46.7469
            2100     6.71597E-03     150.824E-03     48.0989E-03    -22.5920E-03    -41.1867E-03    -26.3501E-03     38.7702E-03    -28.0998E-03     27.0915E-03     341.936E-03    -165.027E-03    -176.849E-03    -163.047E-03     339.957E-03    -176.849E-03    -59.8894E-03     99.9972E+06     38.9344E+06    -20.3866E+06     22.2724E+06    -3.72465E+06     99.9972E+06    -23.1309E+06         46.7256
            2101     7.56280E-03     150.927E-03     40.4025E-03    -15.8810E-03    -30.1492E-03    -9.89954E-03     30.4978E-03    -26.2260E-03     24.5335E-03     337.009E-03    -161.038E-03    -176.015E-03    -158.787E-03     334.758E-03    -176.015E-03    -62.0905E-03     102.977E+06     34.8666E+06    -22.1896E+06     17.0394E+06    -4.36240E+06     102.977E+06    -22.0796E+06         47.1752
            2102     8.41162E-03     151.031E-03     33.2870E-03    -16.0426E-03    -24.2569E-03    -10.8969E-03     27.5894E-03    -23.7050E-03     16.6871E-03     330.856E-03    -155.976E-03    -174.980E-03    -153.564E-03     328.444E-03    -174.980E-03    -62.4246E-03     103.240E+06     30.8587E+06    -22.9547E+06     11.1322E+06    -3.22830E+06     103.240E+06    -21.9503E+06         48.3268
            2103     9.26534E-03     151.145E-03     23.0717E-03    -8.86192E-03    -21.7375E-03    -6.18561E-03     19.9491E-03    -21.2912E-03     8.50299E-03     324.403E-03    -150.608E-03    -173.717E-03    -148.123E-03     321.918E-03    -173.717E-03    -60.6598E-03     98.6619E+06     26.1882E+06    -29.8990E+06     5.42476E+06    -9.13558E+06     98.6619E+06    -22.1003E+06         50.1772
            2104     10.1239E-03     151.270E-03     22.3123E-03    -3.94198E-03    -19.0954E-03    -983.255E-06     18.9806E-03    -18.7224E-03    -74.7144E-06     317.037E-03    -144.711E-03    -172.232E-03    -142.202E-03     314.529E-03    -172.232E-03    -56.4703E-03     93.8358E+06     22.4247E+06    -31.0656E+06     974.994E+03    -9.61595E+06     93.8358E+06    -21.9717E+06         52.6265
            2105     10.9867E-03     151.410E-03     29.9042E-03    -8.63821E-03    -20.5263E-03    -8.62273E-03     25.9532E-03    -16.5908E-03     2.55748E-03     309.387E-03    -138.834E-03    -170.624E-03    -136.508E-03     307.060E-03    -170.624E-03    -47.9138E-03     91.3277E+06     20.6386E+06    -23.5440E+06    -1.01121E+06    -1.89418E+06     91.3277E+06    -19.6135E+06         55.7260
            2106     11.8552E-03     151.555E-03     32.4208E-03    -9.88808E-03    -18.9908E-03    -7.06186E-03     25.5910E-03    -14.9872E-03    -8.00163E-03     302.967E-03    -134.189E-03    -168.874E-03    -132.242E-03     301.021E-03    -168.874E-03    -34.1791E-03     92.4845E+06     22.5886E+06    -24.2110E+06    -5.44533E+06     3.82292E+06     92.4845E+06    -17.1372E+06         59.5351
            2107     12.7259E-03     151.704E-03     22.5295E-03    -4.90723E-03    -13.7360E-03    -1.10781E-03     18.2890E-03    -13.2949E-03    -12.1960E-03     298.917E-03    -132.036E-03    -166.991E-03    -130.584E-03     297.465E-03    -166.991E-03    -16.0861E-03     93.2554E+06     17.1695E+06    -23.2541E+06    -13.0198E+06     6.93524E+06     93.2554E+06    -13.3153E+06         63.8460
            2108     13.5980E-03     151.845E-03     15.8445E-03    -1.00038E-03    -13.6413E-03     4.31442E-03     8.28484E-03    -11.3965E-03     5.57389E-03     300.220E-03    -135.093E-03    -165.381E-03    -133.940E-03     299.067E-03    -165.381E-03     5.72846E-03     91.4033E+06     4.37023E+06    -35.8575E+06    -10.2252E+06    -21.2620E+06     91.4033E+06    -10.7141E+06         68.3593
            2109     14.4692E-03     151.979E-03     12.4092E-03    -4.32120E-03    -13.2838E-03     4.13669E-03     287.669E-06    -9.62019E-03     722.583E-06     304.368E-03    -137.714E-03    -166.913E-03    -139.600E-03     303.430E-03    -164.089E-03     24.2813E-03     112.097E+06     24.1073E+06    -28.9457E+06    -4.08906E+06    -749.326E+03     112.097E+06    -10.3987E+06         72.3508


