********************************************************************************
Field Output Report, written Tue May  6 16:32:19 2025

Source 1
---------

   ODB: D:/AISI_1020/Vel_20/1020_2a_8_rd_250_cal_30_v_20_f_050.odb
   Step: Step-1
   Frame: Increment   3898385: Step Time =   0.5482

Loc 1 : Nodal values from source 1

Output sorted by column "Node Label".

Field Output reported at nodes for region: DIE_2A_8_D0_36-1.Region_1
   Computation algorithm: EXTRAPOLATE_COMPUTE_AVERAGE
   Averaged at nodes
   Averaging regions: ODB_REGIONS

      Node Label     COORD.COOR1     COORD.COOR2
                          @Loc 1          @Loc 1
-------------------------------------------------
               1     18.7742E-03     158.404E-03


Field Output reported at nodes for region: DIE_2A_8_D0_36-1.Region_2
   Computation algorithm: EXTRAPOLATE_COMPUTE_AVERAGE
   Averaged at nodes
   Averaging regions: ODB_REGIONS

      Node Label     COORD.COOR1     COORD.COOR2
                          @Loc 1          @Loc 1
-------------------------------------------------
               1     18.7742E-03     158.404E-03


Field Output reported at nodes for part: WIRE_1-1
   Computation algorithm: EXTRAPOLATE_COMPUTE_AVERAGE
   Averaged at nodes
   Averaging regions: ODB_REGIONS

      Node Label     COORD.COOR1     COORD.COOR2    ER.Max. Prin    ER.Mid. Prin    ER.Min. Prin         ER.ER11         ER.ER22         ER.ER33         ER.ER12    PE.Max. Prin    PE.Mid. Prin    PE.Min. Prin         PE.PE11         PE.PE22         PE.PE33         PE.PE12     S.Max. Prin     S.Mid. Prin     S.Min. Prin           S.S11           S.S22           S.S33           S.S12            TEMP
                          @Loc 1          @Loc 1          @Loc 1          @Loc 1          @Loc 1          @Loc 1          @Loc 1          @Loc 1          @Loc 1          @Loc 1          @Loc 1          @Loc 1          @Loc 1          @Loc 1          @Loc 1          @Loc 1          @Loc 1          @Loc 1          @Loc 1          @Loc 1          @Loc 1          @Loc 1          @Loc 1          @Loc 1
-----------------------------------------------------------------------------------------------------------------------------------------------------------------------------------------------------------------------------------------------------------------------------------------------------------------------------------------------------------------------------------------------------------------
               1     17.5313E-03     58.1409E-03     497.069E-03     475.079E-03        -1.70678     496.436E-03        -1.70615     475.079E-03     69.0600E-03     51.9739E-03    -25.0273E-03    -27.0397E-03    -25.0164E-03     51.9629E-03    -27.0397E-03     1.83416E-03     202.004E+06     141.865E+06    -4.08646E+06    -4.08587E+06     202.003E+06     141.865E+06    -12.3598E+03         37.8672
               2     195.290E-09     57.9186E-03         1.83476         1.68676        -4.25617        -1.07726        -1.49216         1.83476        -5.92696     54.2385E-03    -26.9827E-03    -27.2554E-03    -27.2499E-03     54.2329E-03    -26.9827E-03     1.34257E-03    -65.1064E+06    -66.0821E+06    -265.079E+06    -65.5755E+06    -265.078E+06    -65.6133E+06    -210.214E+03         23.9778
               3     685.317E-09     74.5058E-09     899.885E-03     618.046E-03        -2.57290     871.652E-03        -2.54467     618.046E-03    -623.703E-03     105.926E-03    -52.7616E-03    -53.1628E-03    -53.1614E-03     105.924E-03    -52.7616E-03     955.313E-06    -48.4716E+06    -49.8001E+06    -249.637E+06    -49.8001E+06    -249.637E+06    -48.4716E+06     71.1053E+03         28.4459
               4     17.3718E-03     74.5058E-09     807.547E-03     666.797E-03        -2.66221     805.162E-03        -2.65982     666.797E-03    -181.871E-03     75.8317E-03    -34.4939E-03    -41.3932E-03    -35.9804E-03     70.4189E-03    -34.4939E-03     49.2020E-03     203.525E+06     144.370E+06    -8.63279E+06    -8.54275E+06     203.435E+06     144.370E+06     4.36980E+06         38.2727
               5     17.5589E-03     116.479E-03     34.4895E-03     9.86035E-03    -49.5262E-03     27.4422E-03    -42.4790E-03     9.86035E-03    -46.5798E-03     51.7587E-03    -25.1005E-03    -26.6213E-03    -26.5081E-03     51.6455E-03    -25.1005E-03     5.95322E-03     63.6532E+06     38.5012E+06    -26.0717E+06    -24.8638E+06     37.2932E+06     63.6532E+06    -8.74877E+06         40.7209
               6     560.748E-09     115.481E-03     112.591E-03     13.8951E-03    -84.9415E-03     31.3727E-03     95.1133E-03    -84.9415E-03     75.3527E-03     31.1869E-03    -15.3199E-03    -15.8676E-03    -15.8601E-03     31.1794E-03    -15.3199E-03    -1.19045E-03     57.8608E+06     56.9144E+06    -4.80984E+06     56.7443E+06    -4.63977E+06     57.8608E+06    -3.23545E+06         21.9248
               7     16.5567E-03     58.1392E-03     514.529E-03     474.050E-03        -1.72403     513.749E-03        -1.72325     474.050E-03    -6.65267E-03     53.7349E-03    -25.9061E-03    -27.8673E-03    -25.1242E-03     51.9980E-03    -26.9123E-03     17.6368E-03     200.376E+06     115.181E+06     -7.8328E+06    -7.83097E+06     200.374E+06     115.181E+06     228.921E+03         36.6202
               8     15.5814E-03     58.1038E-03     528.107E-03     471.484E-03        -1.73427     527.558E-03        -1.73372     471.484E-03    -25.7746E-03     54.2843E-03    -26.6291E-03    -27.6453E-03    -25.2829E-03     51.9832E-03    -26.6903E-03     26.1704E-03     190.440E+06     61.0990E+06    -13.5367E+06    -13.5345E+06     190.437E+06     61.0990E+06     492.867E+03         34.0442
               9     14.6067E-03     58.0841E-03     516.108E-03     468.549E-03        -1.71865     516.019E-03        -1.71856     468.549E-03     13.5248E-03     53.7241E-03    -26.5292E-03    -27.1821E-03    -25.5806E-03     52.1838E-03    -26.5903E-03     21.9284E-03     148.147E+06     19.4268E+06    -16.6299E+06    -16.6265E+06     148.144E+06     19.4268E+06     649.882E+03         31.6609
              10     13.6325E-03     58.0578E-03     514.681E-03     465.582E-03        -1.71475     514.620E-03        -1.71469     465.582E-03     7.16915E-03     54.2620E-03    -26.6144E-03    -27.6288E-03    -26.0720E-03     52.7052E-03    -26.6144E-03     22.1902E-03     69.3876E+06    -3.80807E+06    -18.5590E+06    -18.5419E+06     69.3705E+06    -3.80807E+06     882.325E+03         29.7182
              11     12.6583E-03     58.0373E-03     521.957E-03     461.849E-03        -1.72106     521.441E-03        -1.72055     461.849E-03    -33.8215E-03     54.0175E-03    -26.7102E-03    -27.3202E-03    -26.3289E-03     53.0261E-03    -26.7102E-03     17.7759E-03     9.76111E+06    -16.3584E+06    -25.5252E+06    -19.6586E+06    -3.53550E+06    -8.92834E+06     760.074E+03         28.1155
              12     11.6843E-03     58.0202E-03     524.326E-03     457.014E-03        -1.71844     523.562E-03        -1.71768     457.014E-03    -7.25448E-03     53.8695E-03    -26.8160E-03    -27.0793E-03    -26.3843E-03     53.1745E-03    -26.8160E-03     14.8841E-03    -4.44150E+06    -20.8237E+06    -52.2930E+06    -20.8541E+06    -52.2626E+06    -4.44150E+06     506.726E+03         26.8699
              13     10.7102E-03     58.0060E-03     518.057E-03     451.434E-03        -1.70479     517.528E-03        -1.70426     451.434E-03     9.23703E-03     53.8954E-03    -26.9055E-03    -26.9980E-03    -26.4761E-03     53.3735E-03    -26.9055E-03     12.9323E-03    -1.37023E+06    -22.7702E+06    -86.9223E+06    -22.7808E+06    -86.9118E+06    -1.37023E+06     402.353E+03         26.0036
              14     9.73634E-03     57.9930E-03     503.062E-03     445.774E-03        -1.68797     502.402E-03        -1.68731     445.774E-03     6.06158E-03     53.9693E-03    -26.9758E-03    -27.0154E-03    -26.5512E-03     53.5281E-03    -26.9988E-03     11.9171E-03     1.26719E+06    -25.3468E+06    -113.942E+06    -25.3517E+06    -113.937E+06     1.26719E+06     250.935E+03         25.4685
              15     8.76242E-03     57.9809E-03     497.734E-03     439.916E-03        -1.67720     497.096E-03        -1.67656     439.916E-03     2.84076E-03     54.0483E-03    -27.0035E-03    -27.0622E-03    -26.6232E-03     53.6680E-03    -27.0622E-03     11.0638E-03     665.064E+03    -28.5642E+06    -138.767E+06    -28.5676E+06    -138.763E+06     665.064E+03     148.744E+03         25.1178
              16     7.78863E-03     57.9697E-03     478.840E-03     431.152E-03        -1.64708     474.955E-03        -1.64636     434.315E-03     15.9138E-03     54.1625E-03    -27.0392E-03    -27.1219E-03    -26.7230E-03     53.8463E-03    -27.1219E-03     10.1055E-03     170.557E+03    -32.2356E+06    -163.418E+06    -32.2375E+06    -163.416E+06     170.557E+03     205.192E+03         24.8460
              17     6.81491E-03     57.9596E-03     453.572E-03     427.499E-03        -1.61838     447.211E-03        -1.61518     430.662E-03    -59.3863E-03     54.2265E-03    -27.0600E-03    -27.1682E-03    -26.7914E-03     53.9579E-03    -27.1682E-03     9.32129E-03    -2.69646E+06    -36.6471E+06    -185.009E+06    -36.6489E+06    -185.007E+06    -2.69646E+06     224.188E+03         24.6236
              18     5.84116E-03     57.9501E-03     468.038E-03     426.677E-03        -1.63202     460.811E-03        -1.62479     426.677E-03     33.7794E-03     54.2417E-03    -27.0643E-03    -27.1791E-03    -26.8371E-03     54.0146E-03    -27.1791E-03     8.57534E-03    -10.3440E+06    -41.5120E+06    -201.598E+06    -41.5131E+06    -201.597E+06    -10.3440E+06     147.430E+03         24.4359
              19     4.86757E-03     57.9415E-03     474.922E-03     419.867E-03        -1.63315     460.031E-03        -1.61826     419.867E-03    -66.4816E-03     54.2849E-03    -27.0910E-03    -27.1943E-03    -26.9091E-03     54.1029E-03    -27.1943E-03     7.66777E-03    -19.4951E+06    -46.7245E+06    -221.592E+06    -46.7247E+06    -221.592E+06    -19.4951E+06     75.6984E+03         24.2774
              20     3.89394E-03     57.9339E-03     486.173E-03     412.626E-03        -1.63854     439.168E-03        -1.59153     412.626E-03     186.696E-03     54.3140E-03    -27.1164E-03    -27.1986E-03    -26.9850E-03     54.1826E-03    -27.1986E-03     6.50716E-03    -30.0138E+06    -52.1641E+06    -241.614E+06    -52.1642E+06    -241.614E+06    -30.0138E+06     13.3664E+03         24.1507
              21     2.92047E-03     57.9277E-03     620.410E-03     405.415E-03        -1.76611     429.695E-03        -1.57540     405.415E-03    -448.494E-03     54.3034E-03    -27.1277E-03    -27.1759E-03    -27.0439E-03     54.2195E-03    -27.1759E-03     5.17440E-03    -42.1846E+06    -57.3167E+06    -253.840E+06    -57.3171E+06    -253.839E+06    -42.1846E+06    -72.5641E+03         24.0620
              22     1.94690E-03     57.9229E-03     909.416E-03     395.965E-03        -2.04684     418.352E-03        -1.55578     395.965E-03     491.313E-03     54.2634E-03    -27.1145E-03    -27.1479E-03    -27.0739E-03     54.2207E-03    -27.1458E-03     3.62869E-03    -53.6325E+06    -61.5163E+06    -259.892E+06    -61.5172E+06    -259.891E+06    -53.6325E+06    -285.415E+03         24.0107
              23     973.492E-06     57.9201E-03         1.46127         1.03861        -3.23799    -331.752E-03        -1.51898         1.11262        -1.63181     54.2380E-03    -27.0416E-03    -27.1957E-03    -27.1653E-03     54.2232E-03    -27.0572E-03     2.06620E-03    -61.9213E+06    -64.6423E+06    -263.318E+06    -64.3895E+06    -263.317E+06    -62.1747E+06    -315.157E+03         23.9856
              24    -29.5861E-09     56.8643E-03         1.81045         1.46336        -4.01831    -995.565E-03        -1.55939         1.81045        -5.45227     54.2397E-03    -27.0169E-03    -27.2230E-03    -27.2177E-03     54.2345E-03    -27.0169E-03     1.30476E-03    -66.0630E+06    -66.8648E+06    -264.550E+06    -66.3589E+06    -264.549E+06    -66.5699E+06     267.243E+03         23.9749
              25     256.626E-09     55.8093E-03         1.81559         1.18360        -3.76651    -955.299E-03        -1.62762         1.81559        -4.90294     54.2198E-03    -26.9549E-03    -27.2651E-03    -27.2598E-03     54.2145E-03    -26.9549E-03     1.31094E-03    -65.1422E+06    -65.6005E+06    -264.090E+06    -65.6021E+06    -264.088E+06    -65.1422E+06     79.8220E+03         23.9695
              26     119.174E-09     54.7555E-03         1.82232     953.456E-03        -3.56471    -933.202E-03        -1.67805         1.82232        -4.45628     54.2170E-03    -26.9992E-03    -27.2193E-03    -27.1883E-03     54.2115E-03    -27.0247E-03     1.32878E-03    -64.4186E+06    -64.5904E+06    -264.956E+06    -64.5880E+06    -264.950E+06    -64.4269E+06    -966.236E+03         23.9658
              27    -169.966E-09     53.7004E-03         1.77890     788.083E-03        -3.37014    -909.309E-03        -1.67275         1.77890        -4.08713     54.2131E-03    -27.0083E-03    -27.2054E-03    -27.1754E-03     54.2086E-03    -27.0338E-03     1.21034E-03    -65.9696E+06    -66.6095E+06    -267.054E+06    -65.9767E+06    -267.047E+06    -66.6095E+06    -300.982E+03         23.9649
              28     495.433E-09     52.6464E-03         1.78431     586.781E-03        -3.17308    -809.509E-03        -1.77679         1.78431        -3.62497     54.2039E-03    -26.9154E-03    -27.2889E-03    -27.2846E-03     54.1996E-03    -26.9154E-03     1.18178E-03    -66.7513E+06    -68.3172E+06    -267.963E+06    -67.6904E+06    -267.958E+06    -67.3829E+06    -120.530E+03         23.9657
              29    -91.7922E-09     51.5918E-03         1.85684     411.224E-03        -3.09077    -741.309E-03        -1.93824         1.85684        -3.29044     54.2020E-03    -26.9675E-03    -27.2367E-03    -27.2320E-03     54.1974E-03    -26.9675E-03     1.23346E-03    -65.4291E+06    -67.4885E+06    -267.755E+06    -66.3691E+06    -267.750E+06    -66.5543E+06    -1.08171E+06         23.9660
              30     204.156E-09     50.5373E-03         1.81707     352.069E-03        -3.01636    -736.322E-03        -1.92796         1.81707        -3.15052     54.2432E-03    -27.0124E-03    -27.2333E-03    -27.2282E-03     54.2381E-03    -27.0124E-03     1.29130E-03    -63.9693E+06    -65.9275E+06    -268.072E+06    -64.8087E+06    -268.065E+06    -65.0945E+06     76.9383E+03         23.9661
              31     102.736E-09     49.4826E-03         1.71633     281.054E-03        -2.83215    -638.585E-03        -1.91251         1.71633        -2.83198     54.2543E-03    -27.0058E-03    -27.2496E-03    -27.2445E-03     54.2491E-03    -27.0058E-03     1.29231E-03    -65.4082E+06    -66.9660E+06    -267.930E+06     -66.245E+06    -267.926E+06    -66.1331E+06     459.708E+03         23.9665
              32     61.7473E-09     48.4285E-03         1.81713     172.046E-03        -2.83684    -522.086E-03        -2.14270         1.81713        -2.52597     54.2678E-03    -27.0139E-03    -27.2543E-03    -27.2500E-03     54.2636E-03    -27.0139E-03     1.17186E-03    -65.3162E+06    -66.3882E+06    -266.589E+06    -65.6674E+06    -266.585E+06    -66.0411E+06     476.528E+03         23.9664
              33     236.555E-09     47.3735E-03         1.88100     134.165E-03        -2.88370    -463.709E-03        -2.28583         1.88100        -2.40560     54.2562E-03    -27.0044E-03    -27.2525E-03    -27.2478E-03     54.2515E-03    -27.0044E-03     1.23016E-03    -64.7795E+06    -65.2652E+06    -265.418E+06    -65.2714E+06    -265.412E+06    -64.7795E+06     150.011E+03         23.9684
              34    -46.5255E-09     46.3192E-03         1.76693     138.542E-03        -2.75743    -410.504E-03        -2.20838         1.76693        -2.26991     54.3282E-03    -27.0326E-03    -27.2970E-03    -27.2919E-03     54.3232E-03    -27.0326E-03     1.28270E-03    -65.8758E+06    -66.3356E+06    -265.559E+06    -66.0179E+06    -265.556E+06    -66.1969E+06    -139.603E+03         23.9724
              35     365.973E-09     45.2645E-03         1.81996     90.5363E-03        -2.77675    -364.912E-03        -2.32130         1.81996        -2.08735     54.4700E-03    -27.1312E-03    -27.3393E-03    -27.3344E-03     54.4651E-03    -27.1312E-03     1.26862E-03    -65.0291E+06    -65.8506E+06    -265.873E+06    -65.5326E+06    -265.869E+06    -65.3503E+06    -113.666E+03         23.9736
              36    -281.590E-09     44.2096E-03         1.87467     100.458E-03        -2.87528    -297.596E-03        -2.47723         1.87467        -2.02587     54.3992E-03    -27.1133E-03    -27.2854E-03    -27.2798E-03     54.3936E-03    -27.1133E-03     1.35655E-03    -65.3526E+06    -66.8407E+06    -267.251E+06    -65.8561E+06    -267.248E+06    -66.3404E+06    -107.649E+03         23.9718
              37     520.454E-09     43.1547E-03         1.76429     128.403E-03        -2.78436    -257.782E-03        -2.39817         1.76429        -1.97558     54.2399E-03    -26.9570E-03    -27.2829E-03    -27.2768E-03     54.2338E-03    -26.9570E-03     1.41093E-03    -64.3403E+06    -66.5332E+06    -267.775E+06    -65.5466E+06    -267.774E+06    -65.3282E+06     217.422E+03         23.9707
              38    -129.575E-09     42.1008E-03         1.74664     108.149E-03        -2.77016    -244.686E-03        -2.41732         1.74664        -1.88608     54.1504E-03    -26.9192E-03    -27.2311E-03    -27.2254E-03     54.1448E-03    -26.9192E-03     1.35340E-03    -63.9993E+06    -66.1286E+06    -267.591E+06    -65.2044E+06    -267.591E+06    -64.9237E+06    -157.772E+03         23.9703
              39     341.824E-09     41.0460E-03         1.74754     132.983E-03        -2.80949    -195.481E-03        -2.48103         1.74754        -1.85315     54.1468E-03    -26.9523E-03    -27.1940E-03    -27.1897E-03     54.1425E-03    -26.9523E-03     1.19022E-03    -65.5427E+06    -67.0638E+06    -267.700E+06    -66.1395E+06    -267.700E+06    -66.4671E+06     42.8686E+03         23.9683
              40    -91.2876E-09     39.9923E-03         1.65378     161.584E-03        -2.72811    -168.223E-03        -2.39830         1.65378        -1.83727     54.1943E-03    -27.0170E-03    -27.1769E-03    -27.1731E-03     54.1905E-03    -27.0170E-03     1.11016E-03    -66.3331E+06    -67.1308E+06    -267.415E+06    -66.9337E+06    -267.411E+06    -66.5341E+06    -540.408E+03         23.9659
              41     157.502E-09     38.9372E-03         1.59295     147.606E-03        -2.67066    -134.718E-03        -2.38834         1.59295        -1.68325     54.3170E-03    -27.0619E-03    -27.2558E-03    -27.2513E-03     54.3125E-03    -27.0619E-03     1.19485E-03    -65.9247E+06    -66.3244E+06    -267.634E+06    -65.9288E+06    -267.630E+06    -66.3244E+06    -801.732E+03         23.9660
              42     147.352E-09     37.8826E-03         1.62323     164.651E-03        -2.72613    -61.8124E-03        -2.49967         1.62323        -1.55322     54.3260E-03    -26.9908E-03    -27.3356E-03    -27.3308E-03     54.3211E-03    -26.9908E-03     1.26263E-03    -66.3129E+06    -66.7002E+06    -268.722E+06    -66.5017E+06    -268.722E+06    -66.5117E+06    -224.980E+03         23.9666
              43     215.793E-09     36.8281E-03         1.63007     159.188E-03        -2.73841    -29.3651E-03        -2.54986         1.63007        -1.42367     54.2116E-03    -26.9750E-03    -27.2359E-03    -27.2310E-03     54.2066E-03    -26.9750E-03     1.26737E-03    -66.4972E+06    -67.2441E+06    -269.147E+06    -66.6897E+06    -269.143E+06    -67.0556E+06     600.427E+03         23.9656
              44    -80.0921E-09     35.7739E-03         1.55557     148.177E-03        -2.67785    -64.6027E-03        -2.46507         1.55557        -1.47363     54.3016E-03    -27.0677E-03    -27.2336E-03    -27.2286E-03     54.2966E-03    -27.0677E-03     1.27064E-03    -64.8638E+06    -66.7130E+06    -268.030E+06    -66.1605E+06    -268.024E+06    -65.4223E+06     195.598E+03         23.9663
              45     273.281E-09     34.7189E-03         1.49525     194.762E-03        -2.66491    -69.4224E-03        -2.40073         1.49525        -1.65569     54.3711E-03    -27.0595E-03    -27.3103E-03    -27.3054E-03     54.3662E-03    -27.0595E-03     1.26128E-03    -64.0409E+06    -66.6072E+06    -267.845E+06    -65.3363E+06    -267.840E+06    -65.3165E+06    -968.269E+03         23.9688
              46     20.2454E-09     33.6644E-03         1.43063     242.589E-03        -2.63575    -15.7380E-03        -2.37742         1.43063        -1.64534     54.2352E-03    -26.9829E-03    -27.2516E-03    -27.2468E-03     54.2304E-03    -26.9829E-03     1.25066E-03    -64.8333E+06    -67.1355E+06    -269.438E+06    -65.8670E+06    -269.430E+06    -66.1088E+06     140.634E+03         23.9693
              47     204.016E-09     32.6103E-03         1.42229     298.884E-03        -2.70357     9.49413E-03        -2.41418         1.42229        -1.77135     54.1927E-03    -27.0148E-03    -27.1782E-03    -27.1730E-03     54.1875E-03    -27.0148E-03     1.29803E-03    -64.7874E+06    -66.7669E+06    -269.231E+06    -65.8203E+06    -269.225E+06    -65.7403E+06     225.380E+03         23.9688
              48    -113.257E-09     31.5553E-03         1.46892     417.163E-03        -2.88041     96.7407E-03        -2.55999         1.46892        -1.95289     54.2237E-03    -27.0107E-03    -27.2132E-03    -27.2080E-03     54.2186E-03    -27.0107E-03     1.29228E-03    -64.3588E+06    -65.9696E+06    -268.603E+06    -65.0192E+06    -268.600E+06    -65.3117E+06    -679.169E+03         23.9691
              49     409.036E-09     30.5012E-03         1.48761     531.187E-03        -3.02330     150.481E-03        -2.64259         1.48761        -2.19293     54.1893E-03    -26.9178E-03    -27.2706E-03    -27.2662E-03     54.1849E-03    -26.9178E-03     1.18877E-03    -66.4430E+06    -67.5883E+06    -270.009E+06    -67.1022E+06    -270.007E+06    -66.9304E+06     41.2628E+03         23.9673
              50    -16.2624E-09     29.4467E-03         1.46633     612.162E-03        -3.10604     114.854E-03        -2.60873         1.46633        -2.52719     54.1876E-03    -26.9625E-03    -27.2242E-03    -27.2204E-03     54.1838E-03    -26.9625E-03     1.11210E-03    -67.1595E+06    -68.3907E+06    -269.855E+06    -67.9042E+06    -269.854E+06    -67.6469E+06     395.956E+03         23.9629
              51     135.892E-09     28.3926E-03         1.40280     772.835E-03        -3.18420     186.867E-03        -2.59823         1.40280        -2.81088     54.2721E-03    -27.0735E-03    -27.1975E-03    -27.1936E-03     54.2683E-03    -27.0735E-03     1.11465E-03    -65.8769E+06    -67.7824E+06    -268.668E+06    -66.6210E+06    -268.668E+06    -67.0386E+06    -43.4778E+03         23.9606
              52    -21.1678E-09     27.3375E-03         1.37236     864.217E-03        -3.25087     206.970E-03        -2.59362         1.37236        -3.01292     54.2680E-03    -27.0677E-03    -27.1976E-03    -27.1927E-03     54.2631E-03    -27.0677E-03     1.26374E-03    -65.6159E+06    -67.4811E+06    -268.131E+06    -66.3197E+06    -268.130E+06    -66.7776E+06    -76.2867E+03         23.9618
              53     150.960E-09     26.2829E-03         1.38883         1.00939        -3.42680     218.573E-03        -2.63598         1.38883        -3.39454     54.1510E-03    -26.9363E-03    -27.2143E-03    -27.2097E-03     54.1465E-03    -26.9363E-03     1.21001E-03    -67.1891E+06    -68.3596E+06    -268.104E+06    -67.8930E+06    -268.103E+06    -67.6560E+06    -91.9158E+03         23.9630
              54     262.100E-09     25.2292E-03         1.49550         1.36475        -3.89485     385.870E-03        -2.90481         1.48434        -4.11723     54.2272E-03    -26.9331E-03    -27.2952E-03    -27.2906E-03     54.2226E-03    -26.9331E-03     1.21728E-03    -67.3449E+06    -68.6142E+06    -268.050E+06    -68.1476E+06    -268.049E+06    -67.8119E+06    -94.3515E+03         23.9636
              55     32.7165E-09     24.1740E-03         1.60868         1.40782        -4.06302     455.635E-03        -2.90998         1.40782        -4.56092     54.3878E-03    -27.0996E-03    -27.2878E-03    -27.2822E-03     54.3822E-03    -27.0996E-03     1.34783E-03    -66.1787E+06    -67.3809E+06    -268.175E+06    -66.9811E+06    -268.175E+06    -66.5786E+06    -4.32767E+03         23.9657
              56     40.0077E-09     23.1194E-03         1.74590         1.19545        -3.96762     348.348E-03        -2.57007         1.19545        -4.89953     54.2685E-03    -27.0472E-03    -27.2200E-03    -27.2151E-03     54.2636E-03    -27.0472E-03     1.25674E-03    -67.8049E+06    -68.6585E+06    -268.849E+06    -68.2590E+06    -268.848E+06    -68.2049E+06    -289.819E+03         23.9651
              57     221.986E-09     22.0652E-03         1.88128         1.24411        -4.14703     342.794E-03        -2.60855         1.24411        -5.25262     54.0238E-03    -26.8650E-03    -27.1561E-03    -27.1509E-03     54.0186E-03    -26.8650E-03     1.29647E-03    -68.3364E+06    -69.4931E+06    -269.124E+06    -68.7938E+06    -269.120E+06    -69.0395E+06     378.021E+03         23.9580
              58     77.0942E-09     21.0107E-03         2.10472         1.32390        -4.46554     495.926E-03        -2.85674         1.32390        -5.65022     53.9541E-03    -26.8405E-03    -27.1111E-03    -27.1055E-03     53.9484E-03    -26.8405E-03     1.35157E-03    -68.3826E+06    -69.1999E+06    -268.644E+06    -68.5002E+06    -268.640E+06    -69.0857E+06     497.022E+03         23.9486
              59     137.987E-09     19.9569E-03         2.27845         1.22495        -4.53601     531.692E-03        -2.78926         1.22495        -5.94906     53.9391E-03    -26.8858E-03    -27.0538E-03    -27.0496E-03     53.9349E-03    -26.8858E-03     1.16571E-03    -68.5444E+06    -68.7314E+06    -267.397E+06    -68.7341E+06    -267.395E+06    -68.5444E+06    -595.510E+03         23.9349
              60    -25.6390E-09     18.9024E-03         2.28966         1.09081        -4.39874     541.675E-03        -2.65076         1.09081        -5.87709     53.6142E-03    -26.7252E-03    -26.8918E-03    -26.8878E-03     53.6102E-03    -26.7252E-03     1.13205E-03    -67.9856E+06    -68.1241E+06    -266.889E+06    -68.0645E+06    -266.883E+06    -68.0512E+06     68.3925E+03         23.9049
              61     234.913E-09     17.8487E-03         2.30617         1.04075        -4.39806     575.927E-03        -2.66782         1.04075        -5.86727     52.9706E-03    -26.3096E-03    -26.6618E-03    -26.6582E-03     52.9670E-03    -26.3096E-03     1.06971E-03    -67.8040E+06    -68.5659E+06    -266.782E+06    -68.5050E+06    -266.777E+06    -67.8696E+06     953.204E+03         23.8508
              62     249.011E-09     16.7965E-03         2.29941     926.418E-03        -4.29353     590.830E-03        -2.58494     926.418E-03        -5.77764     51.9305E-03    -25.8172E-03    -26.1124E-03    -26.1105E-03     51.9286E-03    -25.8172E-03     736.042E-06    -65.8923E+06    -67.4578E+06    -265.098E+06    -66.5908E+06    -265.096E+06    -66.7615E+06     108.487E+03         23.7642
              63    -155.451E-09     15.7450E-03         2.14063     726.215E-03        -3.90919     645.569E-03        -2.41413     726.215E-03        -5.21540     50.2153E-03    -25.0462E-03    -25.1693E-03    -25.1688E-03     50.2148E-03    -25.0462E-03     302.502E-06    -64.6919E+06    -65.6562E+06    -262.858E+06    -64.6966E+06    -262.853E+06    -65.6562E+06     355.639E+03         23.6264
              64     297.174E-09     14.6962E-03         1.88980     751.487E-03        -3.72043     594.330E-03        -2.42496     751.487E-03        -4.72845     47.7351E-03    -23.7781E-03    -23.9569E-03    -23.9567E-03     47.7349E-03    -23.7781E-03    -100.925E-06    -62.7585E+06    -63.1462E+06    -258.918E+06    -62.7644E+06    -258.912E+06    -63.1462E+06     1.05746E+06         23.4233
              65    -86.0998E-09     13.6495E-03         1.79604     807.697E-03        -3.69168     638.985E-03        -2.53462     807.697E-03        -4.46944     44.1856E-03    -22.0077E-03    -22.1778E-03    -22.1773E-03     44.1851E-03    -22.0077E-03    -352.384E-06    -59.4127E+06    -59.7058E+06    -253.487E+06    -59.4306E+06    -253.470E+06    -59.7058E+06     1.67625E+06         23.1521
              66     213.752E-09     12.6076E-03         1.64132     644.674E-03        -3.32271     698.792E-03        -2.38018     644.674E-03        -3.89375     39.5219E-03    -19.6790E-03    -19.8431E-03    -19.8417E-03     39.5206E-03    -19.6790E-03    -539.560E-06    -52.2267E+06    -52.5837E+06    -246.443E+06    -52.2733E+06    -246.397E+06    -52.5837E+06     2.97070E+06         22.8223
              67    -14.3702E-09     11.5710E-03         1.34086     620.889E-03        -3.02737     558.609E-03        -2.24512     620.889E-03        -3.34786     34.3378E-03    -17.0998E-03    -17.2376E-03    -17.2330E-03     34.3332E-03    -17.0998E-03    -913.292E-06    -43.0696E+06    -43.5068E+06    -239.416E+06    -43.1990E+06    -239.367E+06    -43.4258E+06     3.05726E+06         22.4674
              68     85.0128E-09     10.5411E-03         1.24785     729.201E-03        -3.06536     557.714E-03        -2.37522     729.201E-03        -3.16092     29.4655E-03    -14.6963E-03    -14.7687E-03    -14.7626E-03     29.4593E-03    -14.6963E-03    -1.04123E-03    -35.8347E+06    -37.4891E+06    -233.301E+06    -37.5168E+06    -233.273E+06    -35.8347E+06     349.066E+03         22.1460
              69     8.43256E-09     9.51358E-03         1.29466     679.766E-03        -3.03406     605.736E-03        -2.34513     679.766E-03        -3.16575     25.3470E-03    -12.6141E-03    -12.7326E-03    -12.7296E-03     25.3440E-03    -12.6141E-03    -642.147E-06    -34.7593E+06    -38.0892E+06    -232.391E+06    -36.3426E+06    -232.381E+06    -36.5158E+06    -1.06814E+06         21.9341
              70     132.817E-09     8.49155E-03         1.17643     624.104E-03        -2.85867     566.942E-03        -2.24919     624.104E-03        -2.88373     23.2841E-03    -11.5411E-03    -11.7426E-03    -11.7421E-03     23.2835E-03    -11.5411E-03    -190.773E-06    -38.4486E+06    -41.7823E+06    -236.226E+06    -40.0314E+06    -236.220E+06    -40.2051E+06     651.034E+03         21.9080
              71     129.599E-09     7.47068E-03         1.18904     782.070E-03        -3.03972     603.675E-03        -2.45436     782.070E-03        -2.92027     25.0978E-03    -12.4828E-03    -12.6151E-03    -12.6018E-03     25.0971E-03    -12.4954E-03     243.880E-06    -37.8130E+06    -39.4468E+06    -235.382E+06    -39.4540E+06    -235.375E+06    -37.8130E+06     335.269E+03         22.1195
              72    -149.093E-09     6.44416E-03         1.29128     856.817E-03        -3.20973     578.395E-03        -2.49685     856.817E-03        -3.28051     31.1578E-03    -15.5482E-03    -15.6092E-03    -15.5885E-03     31.1497E-03    -15.5608E-03     1.12429E-03    -40.1457E+06    -40.6745E+06    -237.686E+06    -40.6827E+06    -237.678E+06    -40.1457E+06    -1.20467E+06         22.5936
              73     246.024E-09     5.40974E-03         1.44160     715.554E-03        -3.21789     535.885E-03        -2.31217     715.554E-03        -3.68133     41.5346E-03    -20.6777E-03    -20.8583E-03    -20.8363E-03     41.5125E-03    -20.6777E-03     2.33391E-03    -44.5727E+06    -45.4461E+06    -243.498E+06    -45.4564E+06    -243.488E+06    -44.5727E+06    -1.41772E+06         23.3492
              74     5.26720E-09     4.36214E-03         1.58269     795.097E-03        -3.42681     590.719E-03        -2.43484     795.097E-03        -3.98901     55.8803E-03    -27.8353E-03    -28.0475E-03    -27.9369E-03     55.8496E-03    -27.9152E-03     3.20577E-03    -45.0024E+06    -47.5783E+06    -245.739E+06    -45.4074E+06    -245.735E+06    -47.1772E+06    -726.654E+03         24.3657
              75    -201.848E-09     3.29756E-03         1.53298     767.603E-03        -3.36124     620.430E-03        -2.44868     767.603E-03        -3.81227     72.9471E-03    -36.3767E-03    -36.5699E-03    -36.4588E-03     72.9159E-03    -36.4566E-03     3.68487E-03    -45.7805E+06    -49.0073E+06    -247.265E+06    -46.8335E+06    -247.264E+06    -47.9553E+06     187.263E+03         25.5371
              76     428.789E-09     2.21286E-03         1.38899     582.606E-03        -3.01697     636.692E-03        -2.26467     582.606E-03        -3.30854     89.6416E-03    -44.7264E-03    -44.9107E-03    -44.8888E-03     89.6197E-03    -44.7264E-03     3.33690E-03    -47.9276E+06    -49.9483E+06    -249.285E+06    -48.9815E+06    -249.283E+06    -48.8963E+06    -28.9355E+03         26.7060
              77    -301.081E-09     1.11134E-03         1.09133     594.753E-03        -2.71339     765.134E-03        -2.38719     594.753E-03        -1.79252     101.607E-03    -50.6659E-03    -50.9375E-03    -50.9300E-03     101.600E-03    -50.6659E-03     1.88277E-03    -48.5830E+06    -50.2159E+06    -249.780E+06    -49.2483E+06    -249.779E+06    -49.5517E+06    -289.854E+03         27.8575
              78     947.416E-06     74.5058E-09     826.296E-03     679.022E-03        -2.56655     801.143E-03        -2.54140     679.022E-03    -42.3427E-03     105.083E-03    -52.2346E-03    -52.8476E-03    -52.4301E-03     105.078E-03    -52.6470E-03     1.64101E-03    -48.9861E+06    -50.1343E+06    -250.632E+06    -49.6506E+06    -250.631E+06    -49.4700E+06    -111.288E+03         28.3949
              79     1.89658E-03     74.5058E-09     736.506E-03     700.590E-03        -2.50978     690.862E-03        -2.49370     730.152E-03     92.3330E-03     102.713E-03    -50.5703E-03    -52.1363E-03    -50.5560E-03     102.699E-03    -52.1363E-03     2.90033E-03    -49.6586E+06    -51.5556E+06    -252.059E+06    -49.6595E+06    -252.058E+06    -51.5556E+06    -403.674E+03         28.2602
              80     2.84764E-03     74.5058E-09     742.202E-03     688.930E-03        -2.50564     707.364E-03        -2.50036     718.492E-03    -138.168E-03     99.0607E-03    -47.8826E-03    -51.1796E-03    -47.8530E-03     99.0311E-03    -51.1796E-03     4.10310E-03    -49.5192E+06     -52.664E+06    -252.864E+06    -49.5262E+06    -252.857E+06     -52.664E+06    -1.06142E+06         28.0892
              81     3.80190E-03     74.5058E-09     738.197E-03     674.416E-03        -2.48327     696.813E-03        -2.48196     714.487E-03    -42.1819E-03     94.5147E-03    -44.6004E-03    -49.9251E-03    -44.5499E-03     94.4642E-03    -49.9251E-03     5.25494E-03    -48.8281E+06    -55.5879E+06    -254.297E+06    -48.8417E+06    -254.283E+06    -55.5879E+06    -1.67260E+06         27.9402
              82     4.75986E-03     74.5058E-09     704.422E-03     627.102E-03        -2.40934     625.975E-03        -2.40821     704.422E-03    -97.5787E-03     89.5971E-03    -41.1461E-03    -48.4553E-03    -41.0737E-03     89.5248E-03    -48.4553E-03     6.12411E-03    -47.4895E+06    -64.4375E+06    -260.596E+06    -47.5404E+06    -260.545E+06    -64.4375E+06    -3.05429E+06         27.8562
              83     5.72125E-03     74.5058E-09     690.915E-03     623.920E-03        -2.39368     623.874E-03        -2.39363     690.915E-03    -19.1986E-03     84.5924E-03    -37.7577E-03    -46.8447E-03    -37.6633E-03     84.4980E-03    -46.8447E-03     6.77404E-03    -44.5277E+06    -79.2235E+06    -262.329E+06    -44.6674E+06    -262.189E+06    -79.2235E+06    -5.40884E+06         27.8597
              84     6.68611E-03     74.5058E-09     682.031E-03     636.991E-03        -2.38999     636.989E-03        -2.38999     682.031E-03    -4.72662E-03     79.6976E-03    -34.5690E-03    -45.1401E-03    -34.4509E-03     79.5795E-03    -45.1401E-03     7.32638E-03    -40.3287E+06    -98.2007E+06    -243.816E+06    -40.5797E+06    -243.565E+06    -98.2007E+06    -7.06214E+06         27.9708
              85     7.65393E-03     74.5058E-09     677.129E-03     651.248E-03        -2.39202     651.102E-03        -2.39187     677.129E-03     27.7983E-03     75.1633E-03    -31.7797E-03    -43.4291E-03    -31.6373E-03     75.0208E-03    -43.4291E-03     7.78800E-03    -35.2725E+06    -116.519E+06    -212.334E+06    -35.7031E+06    -211.904E+06    -116.519E+06    -8.57853E+06         28.2102
              86     8.62445E-03     74.5058E-09     673.304E-03     635.131E-03        -2.37295     634.787E-03        -2.37261     673.304E-03     64.0810E-03     71.1238E-03    -29.4208E-03    -41.7846E-03    -29.2528E-03     70.9558E-03    -41.7846E-03     8.20005E-03    -29.0029E+06    -130.960E+06    -177.609E+06    -29.6775E+06    -176.934E+06    -130.960E+06    -9.88810E+06         28.5894
              87     9.59691E-03     74.5058E-09     668.452E-03     616.071E-03        -2.35886     615.750E-03        -2.35853     668.452E-03     61.3739E-03     67.6149E-03    -27.4182E-03    -40.2369E-03    -27.2231E-03     67.4198E-03    -40.2369E-03     8.59319E-03    -21.1260E+06    -128.052E+06    -149.920E+06    -22.2051E+06    -138.041E+06    -138.851E+06    -11.0068E+06         29.1106
              88     10.5714E-03     74.5058E-09     664.112E-03     628.245E-03        -2.36803     628.056E-03        -2.36784     664.112E-03     6.90441E-03     64.6410E-03    -25.8238E-03    -38.8125E-03    -25.5960E-03     64.4133E-03    -38.8125E-03     9.05450E-03    -12.1265E+06    -94.0084E+06    -138.767E+06    -13.7121E+06    -92.4228E+06    -138.767E+06    -11.0568E+06         29.7687
              89     11.5469E-03     74.5058E-09     661.640E-03     642.784E-03        -2.38254     642.447E-03        -2.38221     661.640E-03    -60.5982E-03     62.2066E-03    -24.6728E-03    -37.5310E-03    -24.3826E-03     61.9163E-03    -37.5310E-03     9.99007E-03    -1.79257E+06    -39.1119E+06    -130.595E+06    -6.75979E+06    -34.1447E+06    -130.595E+06    -8.38240E+06         30.5382
              90     12.5228E-03     74.5058E-09     660.265E-03     646.037E-03        -2.38961     645.705E-03        -2.38928     660.265E-03    -59.7517E-03     60.3331E-03    -23.9555E-03    -36.3957E-03    -23.5458E-03     59.9234E-03    -36.3957E-03     11.6663E-03     44.9358E+06    -6.23487E+06    -115.261E+06    -3.66499E+06     42.3660E+06    -115.261E+06    -5.01392E+06         31.4204
              91     13.4990E-03     74.5058E-09     659.228E-03     646.266E-03        -2.39175     646.204E-03        -2.39169     659.228E-03    -17.4885E-03     58.9358E-03    -23.4560E-03    -35.4942E-03    -22.9555E-03     58.4353E-03    -35.4942E-03     12.8015E-03     116.698E+06    -4.18702E+06    -74.1457E+06    -4.10054E+06     116.612E+06    -74.1457E+06    -2.75598E+06         32.4775
              92     14.4772E-03     74.5058E-09     669.405E-03     652.371E-03        -2.41522     662.757E-03        -2.41509     658.888E-03    -26.7024E-03     57.9071E-03    -23.0057E-03    -34.9055E-03    -22.4170E-03     57.3184E-03    -34.9055E-03     13.7231E-03     164.888E+06     14.9099E+06    -22.0511E+06    -3.55919E+06     164.853E+06    -3.54731E+06    -2.39666E+06         33.7915
              93     15.4529E-03     74.5058E-09     695.706E-03     660.137E-03        -2.46750     695.576E-03        -2.46737     660.137E-03    -29.3144E-03     60.1711E-03    -25.6212E-03    -34.5317E-03    -24.1750E-03     58.7249E-03    -34.5317E-03     21.3547E-03     192.199E+06     73.3928E+06    -2.63877E+06    -2.52380E+06     192.084E+06     73.3928E+06     1.59140E+06         35.4221
              94     16.4203E-03     74.5058E-09     759.453E-03     664.026E-03        -2.57963     758.260E-03        -2.57843     664.026E-03    -91.7785E-03     69.3468E-03    -31.4662E-03    -37.8863E-03    -31.0941E-03     65.5251E-03    -34.4366E-03     38.6970E-03     202.848E+06     128.171E+06    -5.85822E+06    -5.72172E+06     202.711E+06     128.171E+06     5.24769E+06         37.2969
              95     17.4261E-03     1.08144E-03     766.280E-03     668.584E-03        -2.57818     764.186E-03        -2.57608     668.584E-03    -167.104E-03     67.9113E-03    -31.1404E-03    -36.7820E-03    -29.0675E-03     62.3887E-03    -33.3323E-03     46.1109E-03     204.878E+06     145.844E+06    -3.77583E+06    -3.59067E+06     204.693E+06     145.844E+06     5.97362E+06         37.8496
              96     17.4635E-03     2.13286E-03     713.278E-03     672.639E-03        -2.45233     711.906E-03        -2.45096     672.639E-03    -130.289E-03     59.7591E-03    -28.5486E-03    -31.2021E-03    -24.5043E-03     55.7148E-03    -31.2021E-03     36.0757E-03     204.538E+06     147.468E+06    -1.75334E+06    -1.51642E+06     204.301E+06     147.468E+06     6.95558E+06         37.1883
              97     17.4892E-03     3.18892E-03     720.265E-03     677.881E-03        -2.45475     719.699E-03        -2.45418     677.881E-03    -29.2411E-03     62.1694E-03    -28.9926E-03    -33.2152E-03    -31.1188E-03     60.5347E-03    -29.4543E-03     23.5929E-03     202.536E+06     148.108E+06    -4.16066E+06    -4.00845E+06     202.384E+06     148.108E+06     5.55504E+06         36.8380
              98     17.5087E-03     4.25923E-03     755.403E-03     685.176E-03        -2.50527     754.992E-03        -2.50486     685.176E-03    -20.6352E-03     66.1341E-03    -28.1560E-03    -38.0112E-03    -37.3130E-03     65.4359E-03    -28.1560E-03     16.9149E-03     201.882E+06     148.048E+06    -4.90026E+06    -4.83005E+06     201.812E+06     148.048E+06     3.62759E+06         36.7023
              99     17.5216E-03     5.33243E-03     741.854E-03     692.032E-03        -2.47649     740.863E-03        -2.47550     692.032E-03    -110.799E-03     67.8300E-03    -27.3113E-03    -40.5216E-03    -39.9969E-03     67.3053E-03    -27.3113E-03     15.0152E-03     201.628E+06     148.950E+06    -4.91065E+06    -4.89585E+06     201.614E+06     148.950E+06     1.22969E+06         36.7096
             100     17.5291E-03     6.40665E-03     705.392E-03     682.396E-03        -2.42462     690.344E-03        -2.42391     696.732E-03    -50.4016E-03     67.6380E-03    -26.8405E-03    -40.8244E-03    -40.3635E-03     67.1770E-03    -26.8405E-03     14.1106E-03     200.474E+06     149.533E+06    -4.12635E+06    -4.12607E+06     200.474E+06     149.533E+06    -178.567E+03         36.7951
             101     17.5323E-03     7.47921E-03     728.169E-03     688.559E-03        -2.46068     712.987E-03        -2.45983     702.896E-03     87.6304E-03     66.1128E-03    -26.6649E-03    -39.5194E-03    -39.0446E-03     65.6380E-03    -26.6649E-03     14.1267E-03     198.958E+06     147.394E+06    -4.31677E+06    -4.31632E+06     198.957E+06     147.394E+06    -302.131E+03         36.9081
             102     17.5329E-03     8.54844E-03     764.044E-03     710.819E-03        -2.52845     763.235E-03        -2.52764     710.819E-03     73.3034E-03     64.1460E-03    -26.6583E-03    -37.5319E-03    -37.0188E-03     63.6329E-03    -26.6583E-03     14.4039E-03     198.778E+06     145.596E+06    -4.05518E+06    -4.05493E+06     198.778E+06     145.596E+06    -46.8614E+03         37.0196
             103     17.5324E-03     9.61416E-03     744.491E-03     697.467E-03        -2.49909     725.156E-03        -2.49883     716.540E-03    -39.9864E-03     62.0778E-03    -26.7216E-03    -35.3487E-03    -34.8110E-03     61.5401E-03    -26.7216E-03     14.4337E-03     199.128E+06     144.971E+06    -4.12167E+06    -4.12147E+06     199.128E+06     144.971E+06    -29.2433E+03         37.1146
             104     17.5322E-03     10.6772E-03     720.011E-03     691.089E-03        -2.47346     690.693E-03        -2.47307     720.011E-03    -11.2122E-03     59.9973E-03    -26.7958E-03    -33.2013E-03    -32.7057E-03     59.5018E-03    -26.7958E-03     13.5462E-03     199.268E+06     144.272E+06    -3.97155E+06    -3.97142E+06     199.268E+06     144.272E+06    -105.818E+03         37.1861
             105     17.5318E-03     11.7375E-03     751.133E-03     714.767E-03        -2.52984     740.735E-03        -2.52929     724.616E-03     82.0001E-03     57.9366E-03    -26.8648E-03    -31.1395E-03    -30.7622E-03     57.5593E-03    -26.8648E-03     11.5298E-03     199.127E+06     143.206E+06    -3.85980E+06    -3.85929E+06     199.126E+06     143.206E+06    -217.905E+03         37.2348
             106     17.5316E-03     12.7953E-03     765.705E-03     730.994E-03        -2.56096     765.235E-03        -2.56049     730.994E-03     71.7775E-03     55.9981E-03    -26.9257E-03    -29.1738E-03    -28.9271E-03     55.7514E-03    -26.9257E-03     9.09718E-03     199.046E+06     142.867E+06    -3.70682E+06    -3.70620E+06     199.045E+06     142.867E+06    -128.326E+03         37.2664
             107     17.5315E-03     13.8515E-03     743.895E-03     723.172E-03        -2.52620     730.999E-03        -2.52583     735.701E-03    -25.7028E-03     54.4073E-03    -26.9080E-03    -27.6122E-03    -27.4024E-03     54.2628E-03    -26.9733E-03     6.80893E-03     198.932E+06     142.334E+06    -4.15018E+06    -4.14993E+06     198.932E+06     142.334E+06    -24.9875E+03         37.2890
             108     17.5315E-03     14.9069E-03     737.217E-03     717.435E-03        -2.50617     717.055E-03        -2.50579     737.217E-03    -23.8913E-03     53.2768E-03    -26.4022E-03    -27.0061E-03    -26.3217E-03     53.1963E-03    -27.0061E-03     5.01843E-03     198.528E+06     141.361E+06    -4.07789E+06    -4.07771E+06     198.528E+06     141.361E+06    -179.494E+03         37.3087
             109     17.5315E-03     15.9612E-03     749.798E-03     731.955E-03        -2.53426     742.263E-03        -2.53398     739.208E-03     58.6778E-03     52.6809E-03    -25.7540E-03    -27.0277E-03    -25.7113E-03     52.6382E-03    -27.0277E-03     3.59472E-03     197.863E+06     141.458E+06    -3.64000E+06    -3.63995E+06     197.863E+06     141.458E+06    -6.43218E+03         37.3290
             110     17.5312E-03     17.0162E-03     755.646E-03     743.520E-03        -2.56016     755.389E-03        -2.55990     743.520E-03     54.4464E-03     52.3626E-03    -25.4056E-03    -27.0427E-03    -25.3834E-03     52.3404E-03    -27.0427E-03     2.61227E-03     197.750E+06     141.625E+06    -4.05167E+06    -4.05156E+06     197.750E+06     141.625E+06     144.455E+03         37.3505
             111     17.5311E-03     18.0705E-03     749.174E-03     717.278E-03        -2.52127     718.113E-03        -2.52057     747.638E-03    -47.9038E-03     52.1434E-03    -25.1724E-03    -27.0538E-03    -25.1548E-03     52.1258E-03    -27.0538E-03     2.33420E-03     198.120E+06     141.675E+06    -3.71283E+06    -3.71184E+06     198.119E+06     141.675E+06     396.215E+03         37.3724
             112     17.5312E-03     19.1251E-03     750.194E-03     692.894E-03        -2.48471     692.187E-03        -2.48401     750.194E-03    -47.0312E-03     52.0512E-03    -25.0889E-03    -27.0544E-03    -25.0733E-03     52.0356E-03    -27.0544E-03     2.19118E-03     198.625E+06     141.082E+06    -4.08717E+06    -4.08625E+06     198.624E+06     141.082E+06     354.062E+03         37.3939
             113     17.5312E-03     20.1796E-03     761.984E-03     726.370E-03        -2.53350     734.779E-03        -2.53323     753.310E-03     55.6525E-03     52.0232E-03    -25.0624E-03    -27.0482E-03    -25.0490E-03     52.0098E-03    -27.0482E-03     2.03600E-03     198.969E+06     140.201E+06    -4.14101E+06    -4.14098E+06     198.969E+06     140.201E+06     21.0738E+03         37.4137
             114     17.5312E-03     21.2342E-03     765.612E-03     748.030E-03        -2.55193     756.298E-03        -2.55152     756.938E-03     3.00512E-03     51.9473E-03    -24.9895E-03    -27.0492E-03    -24.9762E-03     51.9339E-03    -27.0492E-03     2.02401E-03     199.147E+06     140.526E+06    -3.92890E+06    -3.92880E+06     199.147E+06     140.526E+06     64.6402E+03         37.4312
             115     17.5313E-03     22.2885E-03     759.796E-03     699.553E-03        -2.50273     699.360E-03        -2.50254     759.796E-03    -40.4505E-03     51.8596E-03    -24.9395E-03    -27.0475E-03    -24.9273E-03     51.8475E-03    -27.0475E-03     1.92864E-03     199.444E+06     141.094E+06    -4.13201E+06    -4.13191E+06     199.443E+06     141.094E+06     114.150E+03         37.4462
             116     17.5314E-03     23.3429E-03     763.054E-03     678.984E-03        -2.47659     678.857E-03        -2.47646     763.054E-03     22.4800E-03     51.8664E-03    -24.9602E-03    -27.0438E-03    -24.9498E-03     51.8560E-03    -27.0438E-03     1.78745E-03     199.377E+06     141.150E+06    -4.08207E+06    -4.08206E+06     199.377E+06     141.150E+06     34.5510E+03         37.4581
             117     17.5314E-03     24.3977E-03     767.761E-03     720.921E-03        -2.51385     720.739E-03        -2.51367     767.761E-03     47.6234E-03     51.9367E-03    -25.0037E-03    -27.0476E-03    -24.9918E-03     51.9249E-03    -27.0476E-03     1.90120E-03     199.617E+06     141.294E+06    -3.83716E+06    -3.83710E+06     199.617E+06     141.294E+06     88.7954E+03         37.4667
             118     17.5312E-03     25.4521E-03     771.955E-03     728.814E-03        -2.54053     728.070E-03        -2.53979     771.955E-03    -46.8588E-03     51.9353E-03    -24.9917E-03    -27.0485E-03    -24.9790E-03     51.9226E-03    -27.0485E-03     1.97163E-03     199.851E+06     141.371E+06    -3.96198E+06    -3.96193E+06     199.851E+06     141.371E+06     88.0124E+03         37.4723
             119     17.5315E-03     26.5065E-03     774.319E-03     688.925E-03        -2.48860     688.194E-03        -2.48787     774.319E-03    -49.7299E-03     51.8368E-03    -24.9187E-03    -27.0426E-03    -24.9072E-03     51.8252E-03    -27.0426E-03     1.88106E-03     199.710E+06     141.093E+06    -4.25648E+06    -4.25647E+06     199.710E+06     141.093E+06    -6.01489E+03         37.4753
             120     17.5314E-03     27.5611E-03     777.687E-03     680.234E-03        -2.46792     679.712E-03        -2.46740     777.687E-03     71.9835E-03     51.8024E-03    -24.8885E-03    -27.0422E-03    -24.8773E-03     51.7912E-03    -27.0422E-03     1.84932E-03     199.702E+06     140.892E+06    -4.10056E+06    -4.10042E+06     199.702E+06     140.892E+06     97.2297E+03         37.4761
             121     17.5314E-03     28.6154E-03     780.656E-03     727.002E-03        -2.53015     726.378E-03        -2.52952     780.656E-03     23.6764E-03     51.8633E-03    -24.9283E-03    -27.0459E-03    -24.9167E-03     51.8516E-03    -27.0459E-03     1.89254E-03     199.809E+06     140.875E+06    -3.89391E+06    -3.89370E+06     199.809E+06     140.875E+06     204.530E+03         37.4759
             122     17.5314E-03     29.6699E-03     780.614E-03     738.985E-03        -2.53937     738.724E-03        -2.53911     780.614E-03    -58.4219E-03     51.9023E-03    -24.9608E-03    -27.0464E-03    -24.9492E-03     51.8908E-03    -27.0464E-03     1.88147E-03     200.461E+06     141.251E+06    -4.11237E+06    -4.11230E+06     200.461E+06     141.251E+06     88.2741E+03         37.4761
             123     17.5316E-03     30.7244E-03     779.441E-03     697.477E-03        -2.47492     697.267E-03        -2.47471     779.441E-03    -2.55417E-03     51.8394E-03    -24.9272E-03    -27.0409E-03    -24.9164E-03     51.8286E-03    -27.0409E-03     1.82080E-03     200.320E+06     141.158E+06    -4.21168E+06    -4.21098E+06     200.319E+06     141.158E+06    -262.782E+03         37.4775
             124     17.5314E-03     31.7785E-03     777.685E-03     680.731E-03        -2.45327     680.449E-03        -2.45299     777.685E-03     58.6250E-03     51.8759E-03    -24.9591E-03    -27.0361E-03    -24.9475E-03     51.8644E-03    -27.0361E-03     1.88385E-03     199.590E+06     141.228E+06    -3.90477E+06    -3.90405E+06     199.589E+06     141.228E+06    -312.085E+03         37.4812
             125     17.5316E-03     32.8335E-03     774.671E-03     704.840E-03        -2.47778     704.651E-03        -2.47759     774.671E-03     29.5474E-03     51.9276E-03    -24.9977E-03    -27.0357E-03    -24.9859E-03     51.9158E-03    -27.0357E-03     1.90466E-03     199.187E+06     140.894E+06    -4.01586E+06    -4.01576E+06     199.187E+06     140.894E+06     45.3388E+03         37.4874
             126     17.5315E-03     33.8877E-03     769.518E-03     706.450E-03        -2.45630     706.442E-03        -2.45630     769.518E-03     543.363E-06     51.9312E-03    -25.0260E-03    -27.0389E-03    -25.0151E-03     51.9203E-03    -27.0389E-03     1.83378E-03     199.052E+06     140.175E+06    -3.95835E+06    -3.95827E+06     199.052E+06     140.175E+06     74.3244E+03         37.4960
             127     17.5313E-03     34.9425E-03     761.627E-03     670.722E-03        -2.41557     670.661E-03        -2.41551     761.627E-03     23.7441E-03     51.9222E-03    -24.9986E-03    -27.0412E-03    -24.9880E-03     51.9116E-03    -27.0412E-03     1.80960E-03     198.896E+06     140.123E+06    -4.14954E+06    -4.14905E+06     198.895E+06     140.123E+06    -240.187E+03         37.5069
             128     17.5315E-03     35.9967E-03     752.316E-03     659.302E-03        -2.39244     659.232E-03        -2.39237     752.316E-03     27.8141E-03     51.8822E-03    -24.9448E-03    -27.0362E-03    -24.9343E-03     51.8717E-03    -27.0362E-03     1.79396E-03     198.067E+06     139.724E+06    -3.98744E+06    -3.98664E+06     198.066E+06     139.724E+06    -399.673E+03         37.5198
             129     17.5315E-03     37.0512E-03     742.656E-03     683.889E-03        -2.38474     683.871E-03        -2.38472     742.656E-03     14.1366E-03     51.9227E-03    -24.9833E-03    -27.0317E-03    -24.9739E-03     51.9133E-03    -27.0317E-03     1.70021E-03     197.232E+06     139.516E+06    -3.79340E+06    -3.79209E+06     197.231E+06     139.516E+06    -494.603E+03         37.5342
             130     17.5315E-03     38.1057E-03     732.109E-03     681.455E-03        -2.36317     681.297E-03        -2.36301     732.109E-03     35.3076E-03     51.8979E-03    -24.9666E-03    -27.0305E-03    -24.9555E-03     51.8868E-03    -27.0305E-03     1.83508E-03     196.537E+06     139.589E+06    -3.84028E+06    -3.83928E+06     196.536E+06     139.589E+06    -308.257E+03         37.5494
             131     17.5316E-03     39.1603E-03     719.895E-03     643.140E-03        -2.30958     642.903E-03        -2.30934     719.895E-03     52.3686E-03     51.9295E-03    -25.0187E-03    -27.0319E-03    -25.0060E-03     51.9168E-03    -27.0319E-03     1.97705E-03     196.452E+06     139.422E+06    -4.18515E+06    -4.18515E+06     196.452E+06     139.422E+06     4.10517E+03         37.5653
             132     17.5315E-03     40.2147E-03     706.818E-03     631.445E-03        -2.27502     631.298E-03        -2.27487     706.818E-03     41.2368E-03     52.0947E-03    -25.1224E-03    -27.0382E-03    -25.1111E-03     52.0834E-03    -27.0382E-03     1.86750E-03     196.796E+06     140.329E+06    -3.93602E+06    -3.93585E+06     196.796E+06     140.329E+06     122.775E+03         37.5815
             133     17.5314E-03     41.2696E-03     693.618E-03     642.617E-03        -2.24940     642.546E-03        -2.24933     693.618E-03     12.7946E-03     51.9929E-03    -25.0019E-03    -27.0393E-03    -24.9905E-03     51.9815E-03    -27.0393E-03     1.87217E-03     196.591E+06     140.113E+06    -4.05345E+06    -4.05327E+06     196.591E+06     140.113E+06     88.1543E+03         37.5977
             134     17.5315E-03     42.3239E-03     679.729E-03     634.980E-03        -2.22286     634.780E-03        -2.22266     679.729E-03     26.5997E-03     51.7737E-03    -24.8380E-03    -27.0349E-03    -24.8270E-03     51.7627E-03    -27.0349E-03     1.83453E-03     196.816E+06     139.215E+06    -4.07479E+06    -4.07474E+06     196.816E+06     139.215E+06     19.2151E+03         37.6141
             135     17.5315E-03     43.3778E-03     666.108E-03     619.531E-03        -2.19606     619.031E-03        -2.19556     666.108E-03     74.5146E-03     51.8035E-03    -24.8702E-03    -27.0338E-03    -24.8601E-03     51.7935E-03    -27.0338E-03     1.75601E-03     196.911E+06     139.570E+06    -3.92736E+06    -3.92727E+06     196.911E+06     139.570E+06    -19.7465E+03         37.6304
             136     17.5315E-03     44.4327E-03     653.118E-03     607.624E-03        -2.16188     607.307E-03        -2.16157     653.118E-03     48.6874E-03     51.9790E-03    -25.0202E-03    -27.0378E-03    -25.0076E-03     51.9664E-03    -27.0378E-03     1.96268E-03     196.861E+06     140.059E+06    -4.03331E+06    -4.03319E+06     196.860E+06     140.059E+06    -151.341E+03         37.6465
             137     17.5314E-03     45.4873E-03     639.684E-03     608.295E-03        -2.13012     608.282E-03        -2.13011     639.684E-03     11.3171E-03     52.0764E-03    -25.0821E-03    -27.0392E-03    -25.0690E-03     52.0633E-03    -27.0392E-03     2.00493E-03     196.780E+06     140.091E+06    -3.88214E+06    -3.88197E+06     196.779E+06     140.091E+06    -180.756E+03         37.6620
             138     17.5315E-03     46.5416E-03     625.823E-03     605.847E-03        -2.10074     605.663E-03        -2.10056     625.823E-03     35.2164E-03     51.9628E-03    -24.9385E-03    -27.0319E-03    -24.9278E-03     51.9520E-03    -27.0319E-03     1.81831E-03     196.303E+06     139.496E+06    -3.73469E+06    -3.73368E+06     196.302E+06     139.496E+06     188.777E+03         37.6768
             139     17.5317E-03     47.5959E-03     612.524E-03     588.569E-03        -2.06065     587.822E-03        -2.05990     612.524E-03     85.5783E-03     51.9118E-03    -24.9149E-03    -27.0308E-03    -24.9051E-03     51.9020E-03    -27.0308E-03     1.73929E-03     197.003E+06     139.498E+06    -4.06051E+06    -4.05934E+06     197.001E+06     139.498E+06     468.027E+03         37.6906
             140     17.5314E-03     48.6506E-03     599.696E-03     585.299E-03        -2.03559     584.733E-03        -2.03503     599.696E-03     53.3649E-03     52.0392E-03    -25.0479E-03    -27.0364E-03    -25.0367E-03     52.0279E-03    -27.0364E-03     1.85565E-03     198.347E+06     140.257E+06    -4.09716E+06    -4.09580E+06     198.346E+06     140.257E+06     498.448E+03         37.7032
             141     17.5314E-03     49.7053E-03     586.885E-03     585.138E-03        -2.01521     584.890E-03        -2.01496     586.885E-03     34.6402E-03     51.9624E-03    -24.9778E-03    -27.0404E-03    -24.9649E-03     51.9495E-03    -27.0404E-03     1.98971E-03     199.581E+06     140.799E+06    -3.97620E+06    -3.97405E+06     199.579E+06     140.799E+06     660.185E+03         37.7146
             142     17.5315E-03     50.7594E-03     575.263E-03     572.869E-03        -1.97409     572.332E-03        -1.97355     575.263E-03     73.8398E-03     51.8522E-03    -24.9194E-03    -27.0406E-03    -24.9072E-03     51.8400E-03    -27.0406E-03     1.93045E-03     200.802E+06     141.326E+06    -4.19984E+06    -4.19869E+06     200.801E+06     141.326E+06     417.334E+03         37.7253
             143     17.5314E-03     51.8139E-03     574.919E-03     561.168E-03        -1.94326     572.378E-03        -1.94297     563.421E-03     37.4271E-03     51.8840E-03    -24.9610E-03    -27.0351E-03    -24.9491E-03     51.8721E-03    -27.0351E-03     1.91270E-03     201.330E+06     141.603E+06    -3.94052E+06    -3.94042E+06     201.329E+06     141.603E+06     30.9054E+03         37.7356
             144     17.5317E-03     52.8685E-03     570.858E-03     549.215E-03        -1.91238     570.788E-03        -1.91231     549.215E-03     17.8629E-03     51.8913E-03    -24.9614E-03    -27.0308E-03    -24.9486E-03     51.8785E-03    -27.0308E-03     1.98380E-03     201.112E+06     141.450E+06    -4.19127E+06    -4.19124E+06     201.112E+06     141.450E+06    -39.6083E+03         37.7463
             145     17.5315E-03     53.9230E-03     544.078E-03     522.591E-03        -1.85730     532.148E-03        -1.85671     533.933E-03     67.6731E-03     51.9616E-03    -25.0271E-03    -27.0304E-03    -25.0140E-03     51.9485E-03    -27.0304E-03     2.00849E-03     201.030E+06     141.774E+06    -4.07328E+06    -4.07327E+06     201.030E+06     141.774E+06    -18.2316E+03         37.7589
             146     17.5316E-03     54.9776E-03     536.354E-03     508.143E-03        -1.83478     524.207E-03        -1.83398     519.485E-03     86.1396E-03     51.9884E-03    -25.0441E-03    -27.0302E-03    -25.0322E-03     51.9765E-03    -27.0302E-03     1.91477E-03     201.063E+06     141.825E+06    -3.91371E+06    -3.91344E+06     201.063E+06     141.825E+06     132.368E+03         37.7756
             147     17.5316E-03     56.0320E-03     558.793E-03     505.728E-03        -1.82702     558.236E-03        -1.82646     505.728E-03     1.13156E-03     51.8884E-03    -24.9405E-03    -27.0295E-03    -24.9299E-03     51.8778E-03    -27.0295E-03     1.79855E-03     201.215E+06     141.349E+06    -3.99936E+06    -3.99909E+06     201.215E+06     141.349E+06     199.583E+03         37.7986
             148     17.5317E-03     57.0864E-03     534.275E-03     491.047E-03        -1.75982     533.910E-03        -1.75946     491.047E-03    -15.4697E-03     51.8852E-03    -24.9320E-03    -27.0339E-03    -24.9218E-03     51.8750E-03    -27.0339E-03     1.76877E-03     201.596E+06     141.340E+06    -4.12234E+06    -4.12206E+06     201.595E+06     141.340E+06     201.696E+03         37.8289
             149     17.5315E-03     59.1957E-03     513.526E-03     459.860E-03        -1.70005     512.296E-03        -1.69882     459.860E-03     104.155E-03     51.9272E-03    -24.9847E-03    -27.0447E-03    -24.9725E-03     51.9151E-03    -27.0447E-03     1.93386E-03     202.288E+06     141.973E+06    -3.85997E+06    -3.85924E+06     202.287E+06     141.973E+06     27.8727E+03         37.9123
             150     17.5313E-03     60.2500E-03     503.170E-03     445.128E-03        -1.65203     502.182E-03        -1.65104     445.128E-03     20.4769E-03     51.7933E-03    -24.8508E-03    -27.0487E-03    -24.8396E-03     51.7821E-03    -27.0487E-03     1.85161E-03     202.517E+06     141.876E+06    -3.94416E+06    -3.94359E+06     202.516E+06     141.876E+06     80.3364E+03         37.9608
             151     17.5316E-03     61.3041E-03     454.460E-03     428.974E-03        -1.57229     453.876E-03        -1.57170     428.974E-03    -1.32026E-03     51.8207E-03    -24.8872E-03    -27.0508E-03    -24.8758E-03     51.8092E-03    -27.0508E-03     1.86670E-03     202.696E+06     142.143E+06    -4.29271E+06    -4.29254E+06     202.695E+06     142.143E+06    -88.9598E+03         38.0108
             152     17.5312E-03     62.3591E-03     451.403E-03     414.020E-03        -1.55493     450.324E-03        -1.55385     414.020E-03     90.5267E-03     51.9325E-03    -25.0082E-03    -27.0531E-03    -24.9943E-03     51.9186E-03    -27.0531E-03     2.06756E-03     202.962E+06     142.758E+06    -3.91001E+06    -3.90998E+06     202.962E+06     142.758E+06    -9.04684E+03         38.0603
             153     17.5316E-03     63.4135E-03     492.110E-03     402.272E-03        -1.58432     490.265E-03        -1.58247     402.272E-03     123.497E-03     51.9338E-03    -25.0185E-03    -27.0571E-03    -25.0045E-03     51.9198E-03    -27.0571E-03     2.07759E-03     203.255E+06     143.144E+06    -4.08975E+06    -4.08935E+06     203.254E+06     143.144E+06     149.705E+03         38.1064
             154     17.5313E-03     64.4680E-03     471.076E-03     391.154E-03        -1.53270     469.810E-03        -1.53144     391.154E-03     38.4278E-03     51.8692E-03    -24.9482E-03    -27.0587E-03    -24.9368E-03     51.8577E-03    -27.0587E-03     1.87101E-03     203.342E+06     143.156E+06    -4.27866E+06    -4.27809E+06     203.341E+06     143.156E+06     56.2698E+03         38.1464
             155     17.5317E-03     65.5224E-03     401.179E-03     374.965E-03        -1.42404     395.554E-03        -1.42332     379.864E-03     14.0709E-03     51.8419E-03    -24.9268E-03    -27.0585E-03    -24.9143E-03     51.8295E-03    -27.0585E-03     1.94252E-03     203.224E+06     142.886E+06    -4.17954E+06    -4.17934E+06     203.223E+06     142.886E+06    -108.366E+03         38.1793
             156     17.5313E-03     66.5771E-03     414.982E-03     366.484E-03        -1.41742     408.436E-03        -1.41577     371.383E-03     108.109E-03     51.8601E-03    -24.9505E-03    -27.0581E-03    -24.9364E-03     51.8459E-03    -27.0581E-03     2.08288E-03     203.125E+06     143.076E+06    -3.90630E+06    -3.90628E+06     203.125E+06     143.076E+06     43.0649E+03         38.2049
             157     17.5318E-03     67.6314E-03     458.946E-03     365.908E-03        -1.45025     457.508E-03        -1.44881     365.908E-03     99.8933E-03     51.8888E-03    -24.9791E-03    -27.0540E-03    -24.9665E-03     51.8762E-03    -27.0540E-03     1.96845E-03     203.254E+06     143.283E+06    -4.16027E+06    -4.15977E+06     203.253E+06     143.283E+06     236.012E+03         38.2245
             158     17.5313E-03     68.6858E-03     419.333E-03     359.695E-03        -1.38273     418.637E-03        -1.38203     359.695E-03    -2.27670E-03     51.9646E-03    -25.0517E-03    -27.0530E-03    -25.0417E-03     51.9546E-03    -27.0530E-03     1.74838E-03     203.615E+06     143.079E+06    -4.24554E+06    -4.24498E+06     203.614E+06     143.079E+06     140.423E+03         38.2393
             159     17.5316E-03     69.7407E-03     372.323E-03     352.171E-03        -1.32250     371.034E-03        -1.32121     352.171E-03     18.7132E-03     51.8655E-03    -24.9394E-03    -27.0554E-03    -24.9293E-03     51.8555E-03    -27.0554E-03     1.74766E-03     203.791E+06     142.709E+06    -4.00486E+06    -4.00458E+06     203.791E+06     142.709E+06     62.9875E+03         38.2507
             160     17.5314E-03     70.7947E-03     402.481E-03     348.052E-03        -1.35378     399.405E-03        -1.35071     348.052E-03     144.060E-03     51.7774E-03    -24.8590E-03    -27.0552E-03    -24.8471E-03     51.7656E-03    -27.0552E-03     1.90508E-03     204.257E+06     142.946E+06    -3.88443E+06    -3.88409E+06     204.256E+06     142.946E+06     264.474E+03         38.2604
             161     17.5316E-03     71.8496E-03     437.773E-03     346.812E-03        -1.37573     435.325E-03        -1.37329     346.812E-03     57.7401E-03     51.9251E-03    -25.0343E-03    -27.0531E-03    -25.0221E-03     51.9129E-03    -27.0531E-03     1.93803E-03     205.056E+06     143.309E+06    -4.23761E+06    -4.23733E+06     205.055E+06     143.309E+06     240.254E+03         38.2690
             162     17.5312E-03     72.9042E-03     395.888E-03     343.707E-03        -1.30855     395.385E-03        -1.30805     343.707E-03    -58.5901E-03     51.9962E-03    -25.1258E-03    -27.0561E-03    -25.1133E-03     51.9837E-03    -27.0561E-03     1.96431E-03     205.130E+06     142.599E+06    -4.31392E+06    -4.31356E+06     205.130E+06     142.599E+06    -24.9975E+03         38.2768
             163     17.5315E-03     73.9588E-03     346.556E-03     339.771E-03        -1.23553     343.081E-03        -1.23314     340.859E-03     54.4476E-03     51.8717E-03    -24.9768E-03    -27.0567E-03    -24.9654E-03     51.8602E-03    -27.0567E-03     1.87617E-03     205.369E+06     142.300E+06    -3.57821E+06    -3.57664E+06     205.367E+06     142.300E+06     227.997E+03         38.2844
             164     17.5315E-03     75.0130E-03     377.043E-03     339.431E-03        -1.26355     372.657E-03        -1.26025     340.519E-03     144.549E-03     51.8006E-03    -24.8892E-03    -27.0536E-03    -24.8782E-03     51.7896E-03    -27.0536E-03     1.83837E-03     206.690E+06     142.719E+06    -4.00315E+06    -3.99916E+06     206.686E+06     142.719E+06     905.729E+03         38.2917
             165     17.5314E-03     76.0680E-03     409.937E-03     339.373E-03        -1.29627     408.317E-03        -1.29465     339.373E-03     22.6673E-03     51.8176E-03    -24.8998E-03    -27.0550E-03    -24.8880E-03     51.8059E-03    -27.0550E-03     1.89728E-03     208.342E+06     143.193E+06    -4.36005E+06    -4.35727E+06     208.339E+06     143.193E+06     656.127E+03         38.2984
             166     17.5315E-03     77.1217E-03     369.914E-03     333.157E-03        -1.23702     366.690E-03        -1.23651     335.875E-03    -49.7683E-03     51.8098E-03    -24.8801E-03    -27.0540E-03    -24.8699E-03     51.7997E-03    -27.0540E-03     1.75610E-03     209.241E+06     143.776E+06    -4.00680E+06    -4.00618E+06     209.241E+06     143.776E+06     350.851E+03         38.3048
             167     17.5315E-03     78.1765E-03     339.496E-03     329.922E-03        -1.18283     335.136E-03        -1.18119     332.641E-03     60.2518E-03     51.7631E-03    -24.8401E-03    -27.0546E-03    -24.8295E-03     51.7525E-03    -27.0546E-03     1.78534E-03     210.284E+06     144.233E+06    -4.07557E+06    -4.07381E+06     210.282E+06     144.233E+06     598.207E+03         38.3105
             168     17.5316E-03     79.2310E-03     350.294E-03     331.068E-03        -1.18179     347.959E-03        -1.17946     331.068E-03     117.211E-03     51.7442E-03    -24.7958E-03    -27.0548E-03    -24.7827E-03     51.7311E-03    -27.0548E-03     2.00332E-03     211.268E+06     144.211E+06    -4.42425E+06    -4.42294E+06     211.267E+06     144.211E+06     360.447E+03         38.3155
             169     17.5315E-03     80.2855E-03     340.928E-03     327.772E-03        -1.16189     339.054E-03        -1.16080     328.557E-03     14.5981E-03     51.7551E-03    -24.7792E-03    -27.0521E-03    -24.7661E-03     51.7420E-03    -27.0521E-03     2.00298E-03     211.938E+06     144.241E+06    -3.97320E+06    -3.97178E+06     211.937E+06     144.241E+06     376.249E+03         38.3201
             170     17.5316E-03     81.3396E-03     326.300E-03     323.016E-03        -1.12313     325.016E-03        -1.12263     323.800E-03    -12.9189E-03     51.7271E-03    -24.7327E-03    -27.0506E-03    -24.7202E-03     51.7146E-03    -27.0506E-03     1.95323E-03     212.818E+06     144.424E+06    -4.36368E+06    -4.36226E+06     212.817E+06     144.424E+06     406.009E+03         38.3244
             171     17.5316E-03     82.3939E-03     322.362E-03     312.007E-03        -1.08843     313.637E-03        -1.08756     319.862E-03     64.6175E-03     51.7730E-03    -24.7788E-03    -27.0471E-03    -24.7671E-03     51.7613E-03    -27.0471E-03     1.89209E-03     212.734E+06     144.742E+06    -4.51022E+06    -4.50896E+06     212.733E+06     144.742E+06    -353.272E+03         38.3288
             172     17.5316E-03     83.4485E-03     316.968E-03     301.976E-03        -1.06961     301.014E-03        -1.06865     316.968E-03     19.9820E-03     51.8203E-03    -24.8565E-03    -27.0462E-03    -24.8444E-03     51.8082E-03    -27.0462E-03     1.92176E-03     212.210E+06     144.751E+06    -3.81385E+06    -3.81244E+06     212.208E+06     144.751E+06    -238.290E+03         38.3332
             173     17.5315E-03     84.5026E-03     316.499E-03     305.696E-03        -1.05753     308.962E-03        -1.05713     312.834E-03    -46.6413E-03     51.7997E-03    -24.8505E-03    -27.0464E-03    -24.8387E-03     51.7879E-03    -27.0464E-03     1.90018E-03     212.484E+06     144.368E+06    -3.95123E+06    -3.95039E+06     212.483E+06     144.368E+06     403.069E+03         38.3379
             174     17.5315E-03     85.5575E-03     312.054E-03     294.945E-03        -1.02264     297.851E-03        -1.02188     308.389E-03     16.9710E-03     51.6961E-03    -24.7436E-03    -27.0437E-03    -24.7317E-03     51.6842E-03    -27.0437E-03     1.90671E-03     213.038E+06     144.132E+06    -4.17137E+06    -4.17043E+06     213.037E+06     144.132E+06     441.355E+03         38.3428
             175     17.5317E-03     86.6112E-03     304.261E-03     262.454E-03    -981.099E-03     261.759E-03    -980.403E-03     304.261E-03     54.9814E-03     51.6180E-03    -24.6567E-03    -27.0413E-03    -24.6452E-03     51.6064E-03    -27.0413E-03     1.87293E-03     213.948E+06     144.195E+06    -4.09201E+06    -4.09100E+06     213.947E+06     144.195E+06     453.789E+03         38.3479
             176     17.5318E-03     87.6658E-03     300.707E-03     267.094E-03    -981.483E-03     266.983E-03    -981.372E-03     300.707E-03     14.8649E-03     51.5359E-03    -24.5724E-03    -27.0389E-03    -24.5603E-03     51.5237E-03    -27.0389E-03     1.91613E-03     214.454E+06     144.136E+06    -4.59777E+06    -4.59600E+06     214.452E+06     144.136E+06    -50.1387E+03         38.3527
             177     17.5319E-03     88.7199E-03     299.140E-03     279.601E-03    -965.639E-03     279.589E-03    -965.627E-03     299.140E-03     3.93178E-03     51.3931E-03    -24.4335E-03    -27.0370E-03    -24.4198E-03     51.3794E-03    -27.0370E-03     2.04014E-03     213.638E+06     144.052E+06    -3.96138E+06    -3.96032E+06     213.637E+06     144.052E+06    -397.076E+03         38.3571
             178     17.5320E-03     89.7736E-03     297.899E-03     241.504E-03    -906.345E-03     241.392E-03    -906.233E-03     297.899E-03     20.1955E-03     51.2856E-03    -24.3311E-03    -27.0297E-03    -24.3184E-03     51.2728E-03    -27.0297E-03     1.96090E-03     212.465E+06     143.466E+06    -4.22379E+06    -4.22289E+06     212.464E+06     143.466E+06    -368.896E+03         38.3608
             179     17.5325E-03     90.8274E-03     294.095E-03     231.963E-03    -900.374E-03     231.259E-03    -899.670E-03     294.095E-03    -22.7155E-03     51.2007E-03    -24.2410E-03    -27.0133E-03    -24.2293E-03     51.1890E-03    -27.0133E-03     1.88207E-03     211.346E+06     143.158E+06    -4.20156E+06    -4.19804E+06     211.342E+06     143.158E+06    -840.535E+03         38.3632
             180     17.5327E-03     91.8811E-03     289.677E-03     257.541E-03    -912.422E-03     256.929E-03    -911.811E-03     289.677E-03    -33.3329E-03     51.0520E-03    -24.1354E-03    -26.9982E-03    -24.1236E-03     51.0402E-03    -26.9982E-03     1.88461E-03     209.235E+06     143.008E+06    -3.89898E+06    -3.89362E+06     209.230E+06     143.008E+06    -1.06896E+06         38.3634
             181     17.5331E-03     92.9348E-03     286.918E-03     232.720E-03    -851.346E-03     232.653E-03    -851.278E-03     286.918E-03    -6.67527E-03     50.8397E-03    -23.9428E-03    -26.9786E-03    -23.9288E-03     50.8256E-03    -26.9786E-03     2.04763E-03     206.771E+06     141.993E+06    -4.17103E+06    -4.16758E+06     206.767E+06     141.993E+06    -816.203E+03         38.3610
             182     17.5336E-03     93.9880E-03     284.312E-03     200.244E-03    -807.186E-03     199.952E-03    -806.895E-03     284.312E-03     10.8002E-03     50.6430E-03    -23.7473E-03    -26.9456E-03    -23.7320E-03     50.6278E-03    -26.9456E-03     2.13090E-03     204.877E+06     141.194E+06    -4.00683E+06    -4.00262E+06     204.873E+06     141.194E+06    -880.771E+03         38.3568
             183     17.5344E-03     95.0406E-03     281.257E-03     226.973E-03    -833.655E-03     226.583E-03    -833.264E-03     281.257E-03     3.00210E-03     50.3975E-03    -23.5498E-03    -26.8964E-03    -23.5360E-03     50.3837E-03    -26.8964E-03     2.02200E-03     202.320E+06     139.328E+06    -4.20772E+06    -4.19653E+06     202.309E+06     139.328E+06    -1.48944E+06         38.3539
             184     17.5357E-03     96.0930E-03     276.701E-03     250.579E-03    -812.323E-03     250.021E-03    -811.765E-03     276.701E-03    -47.2726E-03     50.0271E-03    -23.2508E-03    -26.8061E-03    -23.2361E-03     50.0124E-03    -26.8061E-03     2.07246E-03     198.220E+06     134.813E+06    -4.54254E+06    -4.51816E+06     198.196E+06     134.813E+06    -2.18301E+06         38.3593
             185     17.5378E-03     97.1449E-03     269.149E-03     201.895E-03    -750.384E-03     201.467E-03    -749.956E-03     269.149E-03    -35.6518E-03     49.6287E-03    -22.9612E-03    -26.6761E-03    -22.9443E-03     49.6118E-03    -26.6761E-03     2.21675E-03     192.014E+06     129.732E+06    -3.84143E+06    -3.80208E+06     191.974E+06     129.732E+06    -2.76458E+06         38.3861
             186     17.5406E-03     98.1964E-03     261.020E-03     158.986E-03    -706.659E-03     157.574E-03    -705.247E-03     261.020E-03     41.2972E-03     49.3652E-03    -22.8826E-03    -26.4873E-03    -22.8634E-03     49.3460E-03    -26.4873E-03     2.35364E-03     184.431E+06     123.982E+06    -4.06905E+06    -4.00374E+06     184.366E+06     123.982E+06    -3.46279E+06         38.4527
             187     17.5443E-03     99.2470E-03     254.586E-03     204.680E-03    -708.631E-03     203.552E-03    -706.195E-03     253.278E-03     3.00517E-03     49.5900E-03    -23.3316E-03    -26.2562E-03    -23.3152E-03     49.5735E-03    -26.2562E-03     2.16915E-03     176.829E+06     122.375E+06    -2.25390E+06    -2.20538E+06     176.780E+06     122.375E+06    -2.70424E+06         38.5757
             188     17.5489E-03     100.298E-03     242.976E-03     216.806E-03    -696.364E-03     215.163E-03    -693.412E-03     241.667E-03    -102.018E-03     50.7139E-03    -24.6861E-03    -26.0075E-03    -24.6791E-03     50.7069E-03    -26.0075E-03     1.31300E-03     169.783E+06     126.788E+06    -4.83218E+06    -4.78498E+06     169.736E+06     126.788E+06    -2.62570E+06         38.7621
             189     17.5536E-03     101.351E-03     226.940E-03     143.333E-03    -605.439E-03     139.344E-03    -601.450E-03     226.940E-03    -4.71937E-03     53.8506E-03    -25.6728E-03    -28.1818E-03    -28.0621E-03     53.8481E-03    -25.7899E-03    -165.913E-06     159.248E+06     138.303E+06    -6.95600E+06    -6.61389E+06     158.906E+06     138.303E+06    -6.73288E+06         39.0135
             190     17.5547E-03     102.410E-03     213.430E-03     140.501E-03    -567.423E-03     136.971E-03    -563.893E-03     213.430E-03     98.8218E-03     58.8825E-03    -25.6163E-03    -33.2900E-03    -33.2846E-03     58.8771E-03    -25.6163E-03    -1.38998E-03     147.883E+06     141.046E+06    -2.62005E+06    -2.17988E+06     142.902E+06     145.587E+06    -7.90472E+06         39.3351
             191     17.5552E-03     103.475E-03     199.171E-03     172.641E-03    -569.475E-03     170.742E-03    -567.576E-03     199.171E-03     21.2562E-03     63.3824E-03    -25.4419E-03    -37.9835E-03    -37.9785E-03     63.3774E-03    -25.4419E-03    -1.36921E-03     141.497E+06     129.248E+06    -3.41496E+06    -3.19165E+06     129.025E+06     141.497E+06    -5.40567E+06         39.7418
             192     17.5558E-03     104.544E-03     182.014E-03     119.780E-03    -493.617E-03     118.656E-03    -492.493E-03     182.014E-03    -51.6360E-03     66.5585E-03    -25.3173E-03    -41.3154E-03    -41.3141E-03     66.5572E-03    -25.3173E-03    -413.163E-06     139.252E+06     118.474E+06    -4.89771E+06    -4.69495E+06     118.272E+06     139.252E+06    -4.96880E+06         40.2285
             193     17.5566E-03     105.616E-03     164.641E-03     96.9219E-03    -431.641E-03     95.3978E-03    -430.117E-03     164.641E-03     4.64151E-03     69.2428E-03    -25.2217E-03    -44.0124E-03    -44.0089E-03     69.2393E-03    -25.2217E-03     991.157E-06     138.684E+06     107.905E+06    -4.09732E+06    -3.86934E+06     107.677E+06     138.684E+06    -5.04785E+06         40.7332
             194     17.5573E-03     106.690E-03     150.648E-03     130.011E-03    -433.732E-03     131.950E-03    -432.864E-03     147.842E-03     33.8533E-03     72.0916E-03    -25.0992E-03    -46.9391E-03    -46.9252E-03     72.0777E-03    -25.0992E-03     2.48648E-03     136.070E+06     97.4492E+06    -5.19995E+06    -4.93436E+06     97.1836E+06     136.070E+06    -5.18613E+06         41.2004
             195     17.5581E-03     107.767E-03     132.593E-03     100.428E-03    -379.558E-03     102.686E-03    -379.009E-03     129.787E-03    -17.0238E-03     75.4429E-03    -24.9532E-03    -50.5451E-03    -50.5153E-03     75.4131E-03    -24.9532E-03     3.83687E-03     133.327E+06     86.0853E+06    -4.33376E+06    -4.10640E+06     85.8580E+06     133.327E+06    -4.48269E+06         41.6250
             196     17.5591E-03     108.850E-03     111.587E-03     57.6759E-03    -293.600E-03     56.2648E-03    -292.189E-03     111.587E-03    -43.8667E-03     79.7144E-03    -24.7961E-03    -55.0449E-03    -54.9221E-03     79.5916E-03    -24.7961E-03     7.61603E-03     130.552E+06     74.6065E+06    -5.20301E+06    -5.05985E+06     74.4633E+06     130.552E+06    -3.37680E+06         41.9862
             197     17.5596E-03     109.940E-03     94.7815E-03     55.8915E-03    -246.529E-03     54.9774E-03    -245.614E-03     94.7815E-03    -28.5541E-03     85.1650E-03    -24.6099E-03    -60.6262E-03    -60.1914E-03     84.7302E-03    -24.6099E-03     15.3830E-03     128.587E+06     64.4123E+06    -6.19859E+06    -5.73466E+06     63.9484E+06     128.587E+06    -5.16689E+06         42.2268
             198     17.5610E-03     111.037E-03     78.8845E-03     51.1967E-03    -212.631E-03     51.1516E-03    -212.586E-03     78.8845E-03    -5.93658E-03     89.8532E-03    -24.4251E-03    -65.4237E-03    -64.6023E-03     89.0318E-03    -24.4251E-03     22.4429E-03     127.893E+06     54.5263E+06    -3.43390E+06    -2.89415E+06     53.9866E+06     127.893E+06    -5.46282E+06         42.2711
             199     17.5619E-03     112.134E-03     68.4476E-03     49.8328E-03    -192.729E-03     55.0038E-03    -192.635E-03     63.1829E-03    -7.77882E-03     91.4217E-03    -24.3208E-03    -67.0923E-03    -66.2898E-03     90.6193E-03    -24.3208E-03     22.3603E-03     132.055E+06     56.9275E+06     1.87407E+06     3.30912E+06     55.4925E+06     132.055E+06     3.94244E+06         42.0875
             200     17.5629E-03     113.224E-03     52.2423E-03     44.6307E-03    -154.336E-03     46.3907E-03    -150.832E-03     46.9777E-03    -38.8659E-03     93.9006E-03    -24.1702E-03    -69.7325E-03    -68.8927E-03     93.0607E-03    -24.1702E-03     23.2349E-03     122.573E+06     60.1365E+06    -16.4313E+06    -14.9012E+06     58.6064E+06     122.573E+06     2.50993E+06         41.7054
             201     17.5633E-03     114.331E-03     30.8392E-03     22.6089E-03    -99.7151E-03     14.7529E-03    -91.8591E-03     30.8392E-03    -58.4291E-03     95.0360E-03    -24.0149E-03    -70.9990E-03    -69.6476E-03     93.6846E-03    -24.0149E-03     29.6198E-03     109.511E+06     55.8468E+06    -7.50537E+06     5.07399E+06     43.2674E+06     109.511E+06    -9.45007E+06         41.2521
             202     17.5649E-03     115.443E-03     28.7579E-03     10.5599E-03    -62.6070E-03     14.9080E-03    -54.6405E-03     16.4433E-03    -49.6269E-03     72.6576E-03    -24.5430E-03    -48.0701E-03    -47.1896E-03     71.7770E-03    -24.5430E-03     19.2866E-03     87.2978E+06     47.1713E+06    -409.435E+03     12.5308E+06     34.2311E+06     87.2978E+06    -10.4152E+06         40.8781
             203     16.5567E-03     116.452E-03     22.4844E-03     8.58857E-03    -34.3639E-03     16.2028E-03    -29.6635E-03     10.1698E-03    -30.8312E-03     59.4130E-03    -24.7755E-03    -34.6142E-03    -33.3541E-03     58.1529E-03    -24.7755E-03     19.0454E-03     54.4173E+06     22.8263E+06     -40.191E+06    -9.86227E+06    -7.50238E+06     54.4173E+06    -9.84319E+06         39.1410
             204     15.5918E-03     116.332E-03     16.9514E-03     10.0448E-03    -24.6806E-03     271.629E-06    -9.58201E-03     11.6260E-03    -34.3123E-03     57.4449E-03    -24.1232E-03    -33.3875E-03    -31.5248E-03     55.5822E-03    -24.1232E-03     25.7210E-03     60.6755E+06     13.2686E+06    -22.9654E+06     9.99919E+06    -19.6959E+06     60.6755E+06    -2.76094E+06         35.6387
             205     14.6087E-03     116.208E-03     19.3835E-03     13.3069E-03    -25.5041E-03     3.58399E-03    -10.4558E-03     14.0581E-03    -35.3197E-03     44.3144E-03    -20.4297E-03    -23.9510E-03    -19.8902E-03     43.5890E-03    -23.7650E-03     12.4188E-03     81.8556E+06     15.3144E+06     3.90742E+06     12.7473E+06     6.47460E+06     81.8556E+06     4.01242E+06         31.9871
             206     13.6259E-03     116.101E-03     21.6668E-03     15.6891E-03    -30.0571E-03     14.9224E-03    -24.0640E-03     16.4403E-03    -32.2106E-03     44.4050E-03    -20.3308E-03    -24.0886E-03    -20.6845E-03     44.3363E-03    -23.6662E-03     3.35405E-03     96.0944E+06     11.0333E+06     2.10808E+06     10.6816E+06     2.45971E+06     96.0944E+06     927.813E+03         28.9174
             207     12.6582E-03     115.994E-03     33.5121E-03     18.1590E-03    -44.7437E-03     27.7589E-03    -38.9905E-03     18.1590E-03    -36.1169E-03     48.6094E-03    -23.2855E-03    -25.4172E-03    -25.4137E-03     48.6059E-03    -23.2855E-03     1.00455E-03     102.494E+06     12.9746E+06     -788.95E+03     12.2232E+06     -37.554E+03     102.494E+06    -3.03452E+06         26.7045
             208     11.6955E-03     115.893E-03     30.8979E-03     19.2268E-03    -45.8913E-03     29.8910E-03    -44.8843E-03     19.2268E-03    -16.3825E-03     48.2706E-03    -22.6629E-03    -25.7656E-03    -25.7630E-03     48.2679E-03    -22.6629E-03    -52.3078E-06     103.174E+06     16.4580E+06    -3.31980E+06     15.3639E+06    -2.22572E+06     103.174E+06    -4.49497E+06         25.2568
             209     10.7290E-03     115.809E-03     24.0522E-03     20.8873E-03    -38.9937E-03     12.4076E-03    -27.3491E-03     20.8873E-03    -33.8014E-03     47.6209E-03    -22.0295E-03    -25.6711E-03    -25.6584E-03     47.6082E-03    -22.0295E-03    -1.75631E-03     105.869E+06     17.2356E+06    -1.48927E+06     16.7421E+06    -995.753E+03     105.869E+06    -2.83132E+06         24.2630
             210     9.76190E-03     115.737E-03     25.4152E-03     22.2131E-03    -45.4529E-03     4.00410E-03    -25.6234E-03     23.7947E-03     1.74625E-03     47.6300E-03    -21.3003E-03    -26.3201E-03    -26.2923E-03     47.6022E-03    -21.3003E-03    -2.85224E-03     103.317E+06     16.9069E+06    -641.234E+03     16.3125E+06    -46.8504E+03     103.317E+06    -2.89665E+06         23.6132
             211     8.79544E-03     115.676E-03     33.2018E-03     25.0822E-03    -57.9259E-03     16.6875E-03    -42.9931E-03     26.6638E-03    -2.73297E-03     46.3225E-03    -20.4717E-03    -25.8545E-03    -25.8201E-03     46.2881E-03    -20.4717E-03    -3.14780E-03     97.9826E+06     17.7989E+06    -845.826E+03     16.5192E+06     433.892E+03     97.9826E+06    -4.71006E+06         23.2484
             212     7.82631E-03     115.625E-03     42.3550E-03     28.0098E-03    -54.0069E-03     35.4004E-03    -47.0523E-03     28.0098E-03    -42.0166E-03     44.2736E-03    -19.6115E-03    -24.6706E-03    -24.6328E-03     44.2358E-03    -19.6115E-03    -3.22526E-03     91.0098E+06     19.9502E+06    -2.34363E+06     18.3183E+06    -711.736E+03     91.0098E+06    -5.80672E+06         22.9984
             213     6.85515E-03     115.585E-03     44.8663E-03     28.3254E-03    -58.8457E-03     34.6100E-03    -48.5895E-03     28.3254E-03    -51.5821E-03     42.0665E-03    -18.7414E-03    -23.3212E-03    -23.2822E-03     42.0275E-03    -18.7414E-03    -3.19057E-03     81.5981E+06     22.4801E+06    -2.72194E+06     21.0430E+06    -1.28484E+06     81.5981E+06    -5.78788E+06         22.7747
             214     5.88195E-03     115.552E-03     40.8476E-03     30.4474E-03    -56.5760E-03     13.1376E-03    -28.8660E-03     30.4474E-03    -82.7021E-03     39.6169E-03    -17.9058E-03    -21.7026E-03    -21.6676E-03     39.5819E-03    -17.9058E-03    -2.92782E-03     72.6076E+06     25.9575E+06    -1.56165E+06     24.4599E+06    -63.9569E+03     72.6076E+06    -6.20652E+06         22.5704
             215     4.90599E-03     115.528E-03     41.3196E-03     34.3168E-03    -59.0564E-03     19.8745E-03    -37.6112E-03     34.3168E-03    -67.8856E-03     37.1861E-03    -17.1655E-03    -20.0210E-03    -19.9917E-03     37.1568E-03    -17.1655E-03    -2.58706E-03     67.0185E+06     31.7877E+06    -2.33848E+06     30.1648E+06    -715.507E+03     67.0185E+06    -7.16986E+06         22.3884
             216     3.92775E-03     115.509E-03     62.0906E-03     33.4200E-03    -88.4865E-03     58.3295E-03    -84.7254E-03     33.4200E-03    -34.9718E-03     35.0210E-03    -16.5278E-03    -18.5014E-03    -18.4776E-03     34.9972E-03    -16.5278E-03    -2.25671E-03     63.8316E+06     38.2610E+06    -2.87280E+06     37.1307E+06    -1.74252E+06     63.8316E+06    -6.65042E+06         22.2310
             217     2.94763E-03     115.496E-03     62.9822E-03     25.7413E-03    -73.5416E-03     56.5803E-03    -67.1397E-03     25.7413E-03    -38.0607E-03     33.1247E-03    -15.9701E-03    -17.1508E-03    -17.1335E-03     33.1074E-03    -15.9701E-03    -1.85448E-03     57.4569E+06     43.7870E+06    -1.89024E+06     43.1295E+06    -1.23274E+06     57.4569E+06    -5.35897E+06         22.0989
             218     1.96581E-03     115.486E-03     63.3341E-03     11.7434E-03    -85.9014E-03     48.9793E-03    -71.5467E-03     11.7434E-03    -87.1455E-03     31.5659E-03    -15.5445E-03    -16.0154E-03    -15.9325E-03     31.5564E-03    -15.6180E-03    -1.31851E-03     53.4899E+06     48.6449E+06    -1.61311E+06     48.2108E+06    -1.17901E+06     53.4899E+06    -4.63811E+06         21.9996
             219     983.258E-06     115.481E-03     95.2966E-03     8.26457E-03    -105.312E-03     46.6378E-03    -7.23465E-03    -41.1537E-03    -17.2780E-03     31.0431E-03    -15.3481E-03    -15.6954E-03    -15.6153E-03     31.0365E-03    -15.4215E-03    -1.10889E-03     56.2646E+06     53.9835E+06    -2.29200E+06     53.7105E+06    -2.01900E+06     56.2646E+06    -3.79524E+06         21.9423
             220    -26.3084E-09     114.448E-03     93.1035E-03     32.6655E-03    -145.404E-03     36.6889E-03    -50.6607E-03    -5.66276E-03     86.0257E-03     27.3227E-03    -13.4105E-03    -13.9124E-03    -13.6788E-03     27.3173E-03    -13.6385E-03    -942.348E-06     42.5486E+06     40.0899E+06    -10.4005E+06     39.4992E+06    -9.80982E+06     42.5486E+06    -4.72740E+06         21.7649
             221    -393.813E-09     113.424E-03     108.078E-03     70.5709E-03    -223.739E-03     64.8396E-03    -218.008E-03     108.078E-03     74.2146E-03     19.9009E-03    -9.82878E-03    -10.0723E-03    -9.82664E-03     19.8987E-03    -10.0723E-03    -490.862E-06     8.37878E+06    -146.957E+03    -25.0956E+06     5.12271E+06    -23.8250E+06     1.83846E+06    -6.02306E+06         21.4026
             222     282.983E-09     112.409E-03     153.802E-03     98.2262E-03    -294.447E-03     107.615E-03    -274.677E-03     124.643E-03    -107.593E-03     14.3569E-03    -7.16076E-03    -7.19664E-03    -7.18082E-03     14.3565E-03    -7.17616E-03    -141.584E-06    -29.8182E+06    -38.6809E+06    -50.1086E+06    -38.4658E+06    -41.4609E+06    -38.6809E+06    -4.99009E+06         21.0433
             223    -169.239E-09     111.396E-03     163.231E-03     131.986E-03    -354.135E-03     137.091E-03    -327.995E-03     131.986E-03    -46.8704E-03     10.9358E-03    -5.42910E-03    -5.50660E-03    -5.44662E-03     10.9328E-03    -5.48613E-03     291.360E-06    -56.8399E+06    -77.6210E+06    -85.9689E+06    -82.1484E+06    -58.4199E+06    -79.8615E+06    -6.31919E+06         20.7926
             224     8.08571E-09     110.386E-03     214.749E-03     167.699E-03    -459.693E-03     159.790E-03    -449.699E-03     212.664E-03     24.8035E-03     8.56303E-03    -4.22546E-03    -4.33729E-03    -4.21570E-03     8.55327E-03    -4.33729E-03     682.680E-06    -76.0890E+06    -125.955E+06    -130.335E+06    -126.962E+06    -77.2214E+06    -128.196E+06    -6.06713E+06         20.6673
             225    -100.907E-09     109.380E-03     252.969E-03     183.553E-03    -553.474E-03     164.232E-03    -534.153E-03     252.969E-03    -215.183E-03     8.39045E-03    -4.15900E-03    -4.23169E-03    -4.14637E-03     8.35994E-03    -4.21380E-03     1.19955E-03    -93.6226E+06    -166.190E+06    -170.452E+06    -168.169E+06    -93.7826E+06    -168.312E+06    -3.40106E+06         20.6626
             226     62.7748E-09     108.370E-03     210.334E-03     136.003E-03    -475.859E-03     161.902E-03    -451.879E-03     160.454E-03    -244.549E-03     10.9992E-03    -5.48354E-03    -5.51583E-03    -5.46446E-03     10.9479E-03    -5.48354E-03     1.83742E-03    -92.8510E+06    -190.098E+06    -192.847E+06    -189.740E+06    -93.2096E+06    -192.847E+06     2.50207E+06         20.7989
             227    -100.682E-09     107.357E-03     210.082E-03     122.251E-03    -482.779E-03     164.843E-03    -475.492E-03     160.202E-03    -96.2032E-03     15.6426E-03    -7.77413E-03    -7.86857E-03    -7.81329E-03     15.5873E-03    -7.77413E-03     2.26781E-03    -69.6631E+06    -149.763E+06    -152.036E+06    -149.206E+06    -71.8674E+06    -150.389E+06     10.8071E+06         21.1040
             228     204.459E-09     106.339E-03     283.798E-03     182.908E-03    -635.158E-03     170.513E-03    -622.764E-03     283.798E-03    -153.278E-03     21.8940E-03    -10.8712E-03    -11.0237E-03    -10.9687E-03     21.8390E-03    -10.8712E-03     2.67949E-03    -34.1308E+06    -61.5517E+06    -69.5135E+06    -63.1209E+06    -40.5235E+06    -61.5517E+06     11.5760E+06         21.5338
             229    -88.3629E-09     105.313E-03     312.317E-03     228.818E-03    -698.624E-03     172.796E-03    -642.603E-03     312.317E-03    -421.458E-03     28.6280E-03    -14.2662E-03    -14.3622E-03    -14.3138E-03     28.5797E-03    -14.2662E-03     2.86034E-03    -1.92499E+06    -5.78817E+06    -22.0570E+06    -7.62031E+06    -16.8161E+06    -5.33373E+06     5.03909E+06         22.0062
             230     103.123E-09     104.280E-03     272.652E-03     239.212E-03    -657.506E-03     148.367E-03    -566.662E-03     272.652E-03    -540.461E-03     35.0148E-03    -17.3943E-03    -17.6204E-03    -17.5815E-03     34.9759E-03    -17.3943E-03     2.84979E-03     21.9393E+06     21.0474E+06    -9.41301E+06     21.0243E+06    -9.38990E+06     21.9393E+06    -438.988E+03         22.4705
             231     268.454E-09     103.242E-03     278.550E-03     228.638E-03    -663.735E-03     100.348E-03    -535.445E-03     278.550E-03    -620.998E-03     40.7182E-03    -20.2145E-03    -20.5039E-03    -20.4732E-03     40.6875E-03    -20.2145E-03     2.72469E-03     37.6331E+06     36.5989E+06    -13.6412E+06     37.0228E+06    -13.4684E+06     37.0363E+06    -2.78226E+06         22.8850
             232    -126.051E-09     102.197E-03     349.180E-03     290.172E-03    -838.947E-03     52.8682E-03    -601.643E-03     349.180E-03    -916.048E-03     45.1825E-03    -22.4909E-03    -22.6923E-03    -22.6695E-03     45.1597E-03    -22.4909E-03     2.48102E-03     36.5971E+06     35.8362E+06    -25.5829E+06     36.1020E+06    -25.2520E+06     36.0004E+06    -4.51634E+06         23.2178
             233     337.152E-09     101.149E-03     409.289E-03     332.119E-03    -975.629E-03     42.1149E-03    -630.432E-03     354.096E-03        -1.18427     48.3545E-03    -24.0902E-03    -24.2657E-03    -24.2486E-03     48.3373E-03    -24.0902E-03     2.22304E-03     32.1417E+06     31.5586E+06    -42.1905E+06     31.6485E+06    -41.8615E+06     31.7228E+06    -4.89708E+06         23.4691
             234    -234.749E-09     100.099E-03     447.006E-03     381.087E-03        -1.08954     25.4541E-03    -678.710E-03     391.813E-03        -1.35361     50.7188E-03    -25.2555E-03    -25.4638E-03    -25.4525E-03     50.7075E-03    -25.2555E-03     1.83585E-03     23.6400E+06     23.0407E+06    -59.2883E+06     23.1150E+06    -58.9436E+06     23.2211E+06    -5.31438E+06         23.6524
             235     521.826E-09     99.0462E-03     505.274E-03     452.259E-03        -1.23051    -7.02036E-03    -771.230E-03     505.274E-03        -1.49916     52.3685E-03    -26.0208E-03    -26.3489E-03    -26.3408E-03     52.3604E-03    -26.0208E-03     1.60262E-03     9.32413E+06     8.91368E+06    -75.9908E+06     8.70700E+06    -75.5541E+06     9.09407E+06    -6.07909E+06         23.7749
             236    -172.474E-09     97.9918E-03     638.666E-03     510.512E-03        -1.40959    -58.8265E-03    -754.385E-03     552.801E-03        -1.87238     53.0985E-03    -26.4125E-03    -26.6872E-03    -26.6798E-03     53.0911E-03    -26.4125E-03     1.53815E-03    -5.71048E+06    -6.34257E+06    -95.2650E+06    -6.14951E+06    -94.8259E+06    -6.34257E+06    -6.24580E+06         23.8482
             237     349.094E-09     96.9383E-03     706.099E-03     589.232E-03        -1.57635    -97.1989E-03    -773.050E-03     589.232E-03        -2.17934     53.5625E-03    -26.6996E-03    -26.8626E-03    -26.8536E-03     53.5535E-03    -26.6996E-03     1.68571E-03    -19.2484E+06    -19.7275E+06    -114.184E+06    -19.6102E+06    -113.823E+06    -19.7275E+06    -5.83569E+06         23.8928
             238    -222.404E-09     95.8823E-03     711.365E-03     642.243E-03        -1.63576    -106.063E-03    -818.332E-03     642.243E-03        -2.23609     53.7540E-03    -26.7683E-03    -26.9861E-03    -26.9768E-03     53.7447E-03    -26.7683E-03     1.72019E-03    -32.5075E+06    -32.8666E+06    -132.598E+06    -32.8147E+06    -132.291E+06    -32.8666E+06     -5.5324E+06         23.9182
             239     504.397E-09     94.8284E-03     792.412E-03     618.148E-03        -1.73346    -162.844E-03    -914.349E-03     754.291E-03        -2.26747     53.5523E-03    -26.5959E-03    -26.9566E-03    -26.9501E-03     53.5458E-03    -26.5959E-03     1.44203E-03    -48.1322E+06    -48.7621E+06    -151.052E+06    -48.3627E+06    -150.822E+06    -48.7621E+06    -4.82474E+06         23.9293
             240    -97.6730E-09     93.7750E-03     818.767E-03     584.066E-03        -1.73479    -208.561E-03    -942.163E-03     818.767E-03        -2.19884     53.7656E-03    -26.7662E-03    -27.0003E-03    -26.9953E-03     53.7606E-03    -26.7662E-03     1.26427E-03    -57.2667E+06     -58.085E+06    -165.514E+06    -57.9523E+06    -165.299E+06    -57.6145E+06    -4.79595E+06         23.9356
             241     145.728E-09     92.7193E-03     850.684E-03     511.070E-03        -1.68264    -288.103E-03    -883.467E-03     850.684E-03        -2.11091     54.1193E-03    -26.9652E-03    -27.1549E-03    -27.1496E-03     54.1140E-03    -26.9652E-03     1.31192E-03    -64.8927E+06    -66.5767E+06    -178.885E+06    -65.5553E+06    -178.693E+06    -66.1063E+06    -4.59578E+06         23.9439
             242     161.560E-09     91.6642E-03         1.02944     342.498E-03        -1.73652    -347.538E-03        -1.04648         1.02944        -1.94876     54.0905E-03    -26.9306E-03    -27.1603E-03    -27.1530E-03     54.0832E-03    -26.9306E-03     1.54412E-03    -72.1507E+06    -74.1376E+06    -192.811E+06    -73.0298E+06    -192.705E+06    -73.3643E+06    -3.52516E+06         23.9538
             243    -36.8765E-09     90.6099E-03         1.19161     218.181E-03        -1.76398    -305.678E-03        -1.24012         1.19161        -1.74445     53.9802E-03    -26.9018E-03    -27.0797E-03    -27.0717E-03     53.9722E-03    -26.9018E-03     1.61003E-03    -76.3991E+06    -77.9466E+06    -204.457E+06    -77.2451E+06    -204.385E+06    -77.1733E+06    -3.03593E+06         23.9601
             244     247.447E-09     89.5549E-03         1.23714     12.5263E-03        -1.60391    -403.861E-03        -1.18752         1.23714        -1.41121     53.9667E-03    -26.8248E-03    -27.1427E-03    -27.1360E-03     53.9600E-03    -26.8248E-03     1.47566E-03    -79.1823E+06    -80.5079E+06    -216.029E+06    -79.8014E+06    -215.961E+06    -79.9566E+06    -3.03793E+06         23.9643
             245     148.914E-09     88.5013E-03         1.25702    -241.317E-03        -1.38096    -551.706E-03        -1.07057         1.25702        -1.01391     54.0829E-03    -26.8882E-03    -27.1946E-03    -27.1899E-03     54.0782E-03    -26.8882E-03     1.22767E-03    -80.8660E+06    -81.6873E+06    -227.038E+06    -81.5043E+06    -226.951E+06     -81.136E+06    -3.54403E+06         23.9685
             246     49.9589E-09     87.4462E-03         1.31987    -407.536E-03        -1.29509    -618.096E-03        -1.08453         1.31987    -754.116E-03     54.2256E-03    -27.0083E-03    -27.2162E-03    -27.2112E-03     54.2207E-03    -27.0083E-03     1.25666E-03    -81.2365E+06    -81.8712E+06    -237.175E+06    -81.3212E+06    -237.091E+06    -81.8712E+06    -3.59818E+06         23.9714
             247     142.506E-09     86.3910E-03         1.36805    -579.662E-03        -1.20029    -676.726E-03        -1.10322         1.36805    -256.733E-03     54.2146E-03    -26.9756E-03    -27.2375E-03    -27.2316E-03     54.2088E-03    -26.9756E-03     1.37543E-03    -81.9589E+06    -82.4032E+06    -247.155E+06    -81.9940E+06    -247.119E+06    -82.4032E+06    -2.12165E+06         23.9720
             248     161.290E-09     85.3373E-03         1.40790    -653.536E-03        -1.17341    -735.206E-03        -1.09174         1.40790     344.160E-03     54.2546E-03    -26.9855E-03    -27.2690E-03    -27.2642E-03     54.2498E-03    -26.9855E-03     1.24874E-03    -79.9558E+06    -80.3479E+06    -253.352E+06    -80.2859E+06    -253.334E+06    -80.0355E+06    -1.64602E+06         23.9723
             249     82.6924E-09     84.2820E-03         1.50695    -540.873E-03        -1.40889    -861.400E-03        -1.08837         1.50695     818.508E-03     54.3784E-03    -27.0635E-03    -27.3152E-03    -27.3105E-03     54.3738E-03    -27.0635E-03     1.23488E-03    -77.9219E+06    -78.7036E+06    -258.595E+06    -78.2587E+06    -258.570E+06    -78.3911E+06    -2.08317E+06         23.9736
             250     154.740E-09     83.2274E-03         1.58087    -407.240E-03        -1.63233    -893.769E-03        -1.14580         1.58087         1.19455     54.4238E-03    -27.1275E-03    -27.2964E-03    -27.2907E-03     54.4180E-03    -27.1275E-03     1.37118E-03    -76.9200E+06    -77.5412E+06    -263.276E+06    -76.9304E+06    -263.265E+06    -77.5412E+06    -1.16056E+06         23.9757
             251    -78.5228E-09     82.1724E-03         1.59524    -146.219E-03        -1.90260    -947.276E-03        -1.10154         1.59524         1.72919     54.4670E-03    -27.1322E-03    -27.3356E-03    -27.3302E-03     54.4616E-03    -27.1322E-03     1.32094E-03    -74.3569E+06    -74.9163E+06    -266.001E+06    -74.7664E+06    -265.999E+06    -74.5089E+06    -593.299E+03         23.9791
             252     395.032E-09     81.1183E-03         1.62385     25.4317E-03        -2.10988        -1.14489    -939.550E-03         1.62385         2.12042     54.4767E-03    -27.0432E-03    -27.4331E-03    -27.4288E-03     54.4724E-03    -27.0432E-03     1.19124E-03    -75.0228E+06    -75.4504E+06    -268.164E+06    -75.4689E+06    -268.145E+06    -75.0228E+06    -1.66323E+06         23.9817
             253     50.1966E-09     80.0630E-03         1.70260     68.4189E-03        -2.24823        -1.18946    -990.357E-03         1.70260         2.30198     54.3319E-03    -27.0213E-03    -27.3098E-03    -27.3049E-03     54.3270E-03    -27.0213E-03     1.26434E-03    -74.4364E+06    -75.8125E+06    -270.293E+06    -74.4791E+06    -270.270E+06    -75.7924E+06    -527.159E+03         23.9797
             254     43.9347E-09     79.0085E-03         1.74494     164.921E-03        -2.40404        -1.23934    -999.778E-03         1.74494         2.55102     54.1922E-03    -27.0526E-03    -27.1403E-03    -27.1348E-03     54.1867E-03    -27.0526E-03     1.33701E-03    -72.0496E+06    -74.5858E+06    -269.720E+06    -73.2420E+06    -269.708E+06    -73.4056E+06     1.54259E+06         23.9751
             255     22.0364E-09     77.9541E-03         1.83901     110.012E-03        -2.46244        -1.34446        -1.00797         1.83901         2.54883     54.1777E-03    -26.9965E-03    -27.1814E-03    -27.1761E-03     54.1724E-03    -26.9965E-03     1.31103E-03    -71.0503E+06    -72.5357E+06    -267.815E+06    -72.2405E+06    -267.805E+06    -71.3555E+06     208.684E+03         23.9713
             256     277.257E-09     76.8996E-03         1.95400    -37.8041E-03        -2.45020        -1.29716        -1.19084         1.95400         2.40631     54.2091E-03    -26.9191E-03    -27.2902E-03    -27.2855E-03     54.2043E-03    -26.9191E-03     1.23953E-03    -70.6622E+06    -71.0092E+06    -268.866E+06    -70.6657E+06    -268.862E+06    -71.0092E+06    -605.314E+03         23.9681
             257     136.261E-09     75.8455E-03         1.91281    -117.502E-03        -2.35047        -1.36808        -1.09990         1.91281         2.19514     54.2498E-03    -26.9940E-03    -27.2566E-03    -27.2526E-03     54.2458E-03    -26.9940E-03     1.14662E-03    -71.0548E+06    -71.3232E+06    -270.414E+06    -71.2839E+06    -270.412E+06    -71.0965E+06    -504.886E+03         23.9659
             258    -41.1093E-09     74.7908E-03         1.89157    -262.266E-03        -2.18966        -1.51495    -936.970E-03         1.89157         1.83635     54.2432E-03    -27.0688E-03    -27.1739E-03    -27.1698E-03     54.2391E-03    -27.0688E-03     1.15461E-03    -70.3982E+06    -71.0133E+06    -271.538E+06    -70.6274E+06    -271.536E+06    -70.7866E+06    -385.356E+03         23.9663
             259     144.802E-09     73.7361E-03         2.01024    -639.419E-03        -1.93056        -1.43371        -1.13627         2.01024         1.23779     54.1476E-03    -26.9706E-03    -27.1766E-03    -27.1712E-03     54.1422E-03    -26.9706E-03     1.31902E-03    -68.7550E+06    -69.1436E+06    -269.892E+06    -68.7571E+06    -269.889E+06    -69.1436E+06     542.397E+03         23.9672
             260     141.790E-09     72.6817E-03         2.08296        -1.04498        -1.61328        -1.37468        -1.28357         2.08296     525.131E-03     54.0928E-03    -26.9010E-03    -27.1915E-03    -27.1859E-03     54.0872E-03    -26.9010E-03     1.34799E-03    -68.1754E+06    -68.5826E+06    -268.273E+06    -68.5844E+06    -268.271E+06    -68.1755E+06     501.802E+03         23.9663
             261     136.068E-09     71.6277E-03         2.10391        -1.09791        -1.59672        -1.36214        -1.33249         2.10391    -320.544E-03     54.1906E-03    -26.9378E-03    -27.2523E-03    -27.2475E-03     54.1858E-03    -26.9378E-03     1.24873E-03    -69.1815E+06    -69.8186E+06    -268.185E+06    -69.5911E+06    -268.182E+06    -69.4115E+06    -440.146E+03         23.9657
             262     196.616E-09     70.5729E-03         2.12443    -766.727E-03        -1.96730        -1.28889        -1.44514         2.12443        -1.19029     54.2696E-03    -26.9968E-03    -27.2724E-03    -27.2667E-03     54.2640E-03    -26.9968E-03     1.34623E-03    -67.6224E+06    -68.1573E+06    -267.581E+06    -67.6276E+06    -267.575E+06    -68.1573E+06     22.0332E+03         23.9664
             263    -4.93364E-09     69.5182E-03         2.04233    -268.192E-03        -2.39732        -1.36670        -1.29881         2.04233        -2.11240     54.1091E-03    -26.9548E-03    -27.1550E-03    -27.1487E-03     54.1028E-03    -26.9548E-03     1.42900E-03    -66.8411E+06    -67.2463E+06    -266.946E+06    -66.9470E+06    -266.940E+06     -67.146E+06     1.05709E+06         23.9663
             264     192.749E-09     68.4641E-03         1.99103     196.115E-03        -2.81379        -1.37592        -1.24175         1.99103        -2.99895     54.0144E-03    -26.8492E-03    -27.1672E-03    -27.1617E-03     54.0088E-03    -26.8492E-03     1.34488E-03    -67.0361E+06    -67.6200E+06    -265.885E+06    -67.6230E+06    -265.882E+06    -67.0361E+06     649.966E+03         23.9669
             265     238.532E-09     67.4102E-03         2.09434     523.972E-03        -3.26877        -1.23873        -1.50607         2.09434        -3.77931     54.1339E-03    -26.9149E-03    -27.2193E-03    -27.2150E-03     54.1296E-03    -26.9149E-03     1.17562E-03    -66.4682E+06    -67.5253E+06    -264.059E+06    -66.9523E+06    -264.058E+06    -67.0416E+06    -65.8034E+03         23.9697
             266    -83.0862E-09     66.3555E-03         2.14024     834.422E-03        -3.63763        -1.20163        -1.60158         2.14024        -4.45316     54.2527E-03    -27.0501E-03    -27.2019E-03    -27.1983E-03     54.2490E-03    -27.0501E-03     1.09301E-03    -66.4280E+06    -67.4785E+06    -262.790E+06    -66.9065E+06    -262.788E+06    -67.0014E+06     144.429E+03         23.9734
             267     220.539E-09     65.3009E-03         2.08575         1.18188        -3.91805        -1.20034        -1.53583         2.08575        -5.08885     54.3456E-03    -27.0933E-03    -27.2530E-03    -27.2474E-03     54.3399E-03    -27.0933E-03     1.34004E-03    -66.4882E+06    -67.2896E+06    -261.252E+06    -66.9674E+06    -261.250E+06    -66.8125E+06     638.110E+03         23.9774
             268    -50.9009E-09     64.2457E-03         2.05491         1.43349        -4.15504        -1.20066        -1.52090         2.05491        -5.57929     54.3411E-03    -27.0148E-03    -27.3243E-03    -27.3181E-03     54.3349E-03    -27.0148E-03     1.42129E-03    -65.2275E+06    -65.8463E+06    -260.231E+06    -65.5230E+06    -260.230E+06    -65.5518E+06     276.546E+03         23.9793
             269     477.064E-09     63.1917E-03         2.00916         1.60967        -4.29426        -1.23576        -1.44883         2.00916        -5.89933     54.2654E-03    -26.9856E-03    -27.2772E-03    -27.2714E-03     54.2596E-03    -26.9856E-03     1.37242E-03    -65.9660E+06    -66.4941E+06    -261.697E+06    -66.2618E+06    -261.696E+06    -66.1996E+06    -383.093E+03         23.9777
             270    -340.498E-09     62.1370E-03         2.00605         1.74399        -4.43909        -1.21549        -1.47960         2.00605        -6.17597     54.3019E-03    -27.0633E-03    -27.2397E-03    -27.2345E-03     54.2967E-03    -27.0633E-03     1.28690E-03    -66.4204E+06    -66.7669E+06    -263.031E+06    -66.5347E+06    -263.030E+06    -66.6539E+06    -241.977E+03         23.9756
             271     539.925E-09     61.0822E-03         2.01867         1.77814        -4.51327        -1.11653        -1.61860         2.01867        -6.27057     54.3618E-03    -27.0235E-03    -27.3410E-03    -27.3360E-03     54.3568E-03    -27.0235E-03     1.27056E-03    -65.5827E+06     -65.707E+06    -264.042E+06    -65.7083E+06    -264.041E+06    -65.5827E+06    -241.380E+03         23.9753
             272    -125.980E-09     60.0278E-03         1.95046         1.79133        -4.45249        -1.10566        -1.55551         1.95046        -6.22585     54.2972E-03    -27.0308E-03    -27.2678E-03    -27.2629E-03     54.2923E-03    -27.0308E-03     1.24356E-03    -65.7495E+06    -66.1056E+06    -263.890E+06    -65.7621E+06    -263.889E+06    -66.0942E+06    -298.464E+03         23.9765
             273     163.705E-09     58.9732E-03         1.87306         1.77775        -4.37180        -1.14854        -1.44551         1.87306        -6.14238     54.2286E-03    -27.0117E-03    -27.2159E-03    -27.2116E-03     54.2242E-03    -27.0117E-03     1.18339E-03    -64.4817E+06    -65.2952E+06    -263.881E+06    -64.9507E+06    -263.881E+06    -64.8264E+06    -112.778E+03         23.9775
             274     16.5563E-03     57.0845E-03     534.481E-03     489.870E-03        -1.76800     534.245E-03        -1.76776     489.870E-03    -16.0063E-03     53.7305E-03    -25.8586E-03    -27.8995E-03    -25.1120E-03     51.9939E-03    -26.9096E-03     17.6197E-03     199.996E+06     115.203E+06    -7.74242E+06    -7.74050E+06     199.994E+06     115.203E+06     357.778E+03         36.5846
             275     15.5818E-03     57.0495E-03     525.395E-03     487.723E-03        -1.76324     525.257E-03        -1.76310     487.723E-03     5.46597E-03     54.3245E-03    -26.6263E-03    -27.6847E-03    -25.3303E-03     52.0387E-03    -26.6948E-03     26.0606E-03     190.828E+06     62.7218E+06    -13.9641E+06    -13.9603E+06     190.824E+06     62.7218E+06     99.7811E+03         34.0143
             276     14.6070E-03     57.0296E-03     529.935E-03     485.456E-03        -1.76466     529.849E-03        -1.76457     485.456E-03     12.9091E-03     53.7388E-03    -26.5180E-03    -27.2075E-03    -25.5985E-03     52.1983E-03    -26.5865E-03     21.9051E-03     147.529E+06     19.5196E+06    -17.4619E+06    -17.4584E+06     147.526E+06     19.5196E+06     141.880E+03         31.6365
             277     13.6324E-03     57.0031E-03     556.122E-03     481.678E-03        -1.78890     556.119E-03        -1.78890     481.678E-03    -2.77477E-03     54.2466E-03    -26.6044E-03    -27.6220E-03    -26.0510E-03     52.6756E-03    -26.6044E-03     22.2745E-03     69.0547E+06    -4.17418E+06    -18.4132E+06    -18.3978E+06     69.0393E+06    -4.17418E+06     762.156E+03         29.6990
             278     12.6585E-03     56.9826E-03     551.892E-03     476.431E-03        -1.77838     551.796E-03        -1.77828     476.431E-03    -19.7935E-03     53.9782E-03    -26.7073E-03    -27.2805E-03    -26.2925E-03     52.9902E-03    -26.7073E-03     17.7356E-03     10.7337E+06    -15.2042E+06    -25.5844E+06    -18.9457E+06    -3.18157E+06    -7.92759E+06     792.211E+03         28.1011
             279     11.6842E-03     56.9659E-03     519.794E-03     471.785E-03        -1.73963     519.616E-03        -1.73945     471.785E-03    -615.325E-06     53.8702E-03    -26.8138E-03    -27.0819E-03    -26.3847E-03     53.1731E-03    -26.8138E-03     14.9130E-03    -3.99179E+06    -20.2123E+06    -52.1678E+06    -20.2488E+06    -52.1313E+06    -3.99179E+06     805.118E+03         26.8602
             280     10.7103E-03     56.9513E-03     521.428E-03     467.595E-03        -1.73737     520.933E-03        -1.73687     467.595E-03    -26.1938E-03     53.8998E-03    -26.9020E-03    -27.0063E-03    -26.4806E-03     53.3741E-03    -26.9020E-03     12.9777E-03    -881.578E+03    -22.1907E+06    -86.6573E+06    -22.2058E+06    -86.6422E+06    -881.578E+03     753.308E+03         25.9985
             281     9.73631E-03     56.9386E-03     538.103E-03     461.597E-03        -1.74990     537.439E-03        -1.74924     461.597E-03    -17.1553E-03     53.9663E-03    -26.9772E-03    -27.0073E-03    -26.5503E-03     53.5266E-03    -26.9945E-03     11.8960E-03     1.67051E+06    -24.8327E+06    -113.824E+06    -24.8400E+06    -113.817E+06     1.67051E+06     536.904E+03         25.4670
             282     8.76247E-03     56.9263E-03     529.182E-03     453.836E-03        -1.73184     528.712E-03        -1.73137     453.836E-03    -4.94058E-03     54.0532E-03    -27.0111E-03    -27.0573E-03    -26.6309E-03     53.6730E-03    -27.0573E-03     11.0649E-03     999.132E+03    -28.1347E+06    -138.515E+06    -28.1382E+06    -138.512E+06     999.132E+03     380.904E+03         25.1183
             283     7.78867E-03     56.9153E-03     516.434E-03     445.450E-03        -1.71031     515.522E-03        -1.70940     445.450E-03     24.1442E-03     54.1460E-03    -27.0283E-03    -27.1168E-03    -26.7114E-03     53.8291E-03    -27.1168E-03     10.1131E-03     352.492E+03    -32.0250E+06    -163.532E+06    -32.0275E+06    -163.530E+06     352.492E+03     270.567E+03         24.8469
             284     6.81490E-03     56.9049E-03     492.586E-03     437.502E-03        -1.67934     489.010E-03        -1.67576     437.502E-03    -55.2199E-03     54.2116E-03    -27.0503E-03    -27.1641E-03    -26.7812E-03     53.9424E-03    -27.1641E-03     9.33145E-03    -2.49787E+06    -36.3775E+06    -184.873E+06    -36.3786E+06    -184.872E+06    -2.49787E+06     58.4914E+03         24.6243
             285     5.84125E-03     56.8956E-03     464.731E-03     430.437E-03        -1.64512     456.086E-03        -1.63791     431.874E-03     22.9897E-03     54.2483E-03    -27.0737E-03    -27.1763E-03    -26.8453E-03     54.0198E-03    -27.1763E-03     8.59978E-03    -10.0055E+06    -41.3374E+06    -201.664E+06    -41.3378E+06    -201.664E+06    -10.0055E+06    -30.1936E+03         24.4360
             286     4.86756E-03     56.8869E-03     448.074E-03     427.367E-03        -1.62550     434.995E-03        -1.61440     429.352E-03    -32.0151E-03     54.2817E-03    -27.0921E-03    -27.1907E-03    -26.9101E-03     54.0997E-03    -27.1907E-03     7.66841E-03    -19.0642E+06    -46.6794E+06    -221.525E+06    -46.6797E+06    -221.525E+06    -19.0642E+06     99.3451E+03         24.2769
             287     3.89401E-03     56.8795E-03     467.626E-03     428.641E-03        -1.64537     426.600E-03        -1.60489     429.189E-03     210.189E-03     54.3037E-03    -27.1124E-03    -27.1927E-03    -26.9798E-03     54.1711E-03    -27.1927E-03     6.53972E-03    -29.7294E+06    -52.1930E+06    -241.447E+06    -52.1934E+06    -241.447E+06    -29.7294E+06    -67.0580E+03         24.1500
             288     2.92043E-03     56.8731E-03     581.200E-03     430.039E-03        -1.75982     427.324E-03        -1.60594     430.039E-03    -360.837E-03     54.2874E-03    -27.1199E-03    -27.1685E-03    -27.0348E-03     54.2023E-03    -27.1685E-03     5.20781E-03    -42.1792E+06    -57.5758E+06    -253.726E+06    -57.5763E+06    -253.725E+06    -42.1792E+06    -274.868E+03         24.0613
             289     1.94703E-03     56.8686E-03     869.380E-03     427.037E-03        -2.04688     441.052E-03        -1.61856     427.037E-03     553.927E-03     54.2396E-03    -27.1017E-03    -27.1380E-03    -27.0587E-03     54.1965E-03    -27.1380E-03     3.65230E-03    -54.5544E+06    -62.2038E+06    -260.324E+06    -62.2043E+06    -260.323E+06    -54.5544E+06    -265.722E+03         24.0090
             290     973.387E-06     56.8654E-03         1.44117     943.454E-03        -3.13352    -269.997E-03        -1.59590         1.11700        -1.43560     54.2266E-03    -27.0527E-03    -27.1735E-03    -27.1407E-03     54.2115E-03    -27.0705E-03     2.07488E-03    -63.2437E+06    -65.5798E+06    -263.587E+06    -65.3269E+06    -263.586E+06    -63.4972E+06     36.9737E+03         23.9829
             291     16.5567E-03     56.0301E-03     540.268E-03     504.825E-03        -1.80962     539.984E-03        -1.80934     504.825E-03     5.03856E-03     53.7253E-03    -25.8618E-03    -27.8922E-03    -25.1080E-03     51.9857E-03    -26.9063E-03     17.6457E-03     199.849E+06     115.078E+06    -7.43700E+06    -7.43463E+06     199.847E+06     115.078E+06     242.354E+03         36.5566
             292     15.5815E-03     55.9947E-03     530.128E-03     503.286E-03        -1.80083     530.007E-03        -1.80070     503.286E-03     21.2298E-03     54.3537E-03    -26.6562E-03    -27.6847E-03    -25.3544E-03     52.0659E-03    -26.6988E-03     26.0711E-03     191.313E+06     64.1555E+06    -13.3524E+06    -13.3464E+06     191.307E+06     64.1555E+06     182.518E+03         33.9910
             293     14.6071E-03     55.9754E-03     553.924E-03     501.048E-03        -1.82066     553.804E-03        -1.82054     501.048E-03     17.6023E-03     53.7704E-03    -26.5241E-03    -27.2352E-03    -25.6345E-03     52.2122E-03    -26.5666E-03     22.0231E-03     147.517E+06     17.2561E+06    -16.8891E+06    -16.8782E+06     147.506E+06     17.2561E+06    -234.283E+03         31.6177
             294     13.6327E-03     55.9484E-03     570.411E-03     496.985E-03        -1.83226     570.400E-03        -1.83225     496.985E-03     4.89908E-03     54.1783E-03    -26.5790E-03    -27.5789E-03    -25.9866E-03     52.5860E-03    -26.5790E-03     22.3984E-03     67.8996E+06    -7.88719E+06    -18.0495E+06    -18.0344E+06     67.8844E+06    -7.88719E+06     80.7139E+03         29.6841
             295     12.6583E-03     55.9283E-03     557.522E-03     492.154E-03        -1.81684     557.507E-03        -1.81682     492.154E-03     2.95706E-03     53.9383E-03    -26.7061E-03    -27.2395E-03    -26.2472E-03     52.9460E-03    -26.7061E-03     17.7626E-03     9.90339E+06    -15.0596E+06    -25.1403E+06    -18.8085E+06    -3.54681E+06    -7.94120E+06     1.01752E+06         28.0899
             296     11.6843E-03     55.9113E-03     537.068E-03     487.863E-03        -1.78968     536.942E-03        -1.78956     487.863E-03     19.3951E-03     53.9078E-03    -26.8125E-03    -27.1254E-03    -26.4284E-03     53.2108E-03    -26.8125E-03     14.9159E-03    -3.91016E+06    -20.3167E+06    -51.9169E+06    -20.3985E+06    -51.8351E+06    -3.91016E+06     1.12847E+06         26.8527
             297     10.7102E-03     55.8970E-03     538.049E-03     483.579E-03        -1.78505     537.610E-03        -1.78461     483.579E-03    -18.0388E-03     53.9170E-03    -26.8986E-03    -27.0296E-03    -26.5039E-03     53.3913E-03    -26.8986E-03     12.9832E-03    -597.909E+03    -22.3129E+06    -86.4131E+06    -22.3310E+06    -86.3951E+06    -597.909E+03     1.04589E+06         25.9947
             298     9.73644E-03     55.8840E-03     555.266E-03     477.461E-03        -1.79618     554.203E-03        -1.79511     477.461E-03     19.8648E-03     53.9767E-03    -26.9816E-03    -27.0101E-03    -26.5610E-03     53.5358E-03    -26.9898E-03     11.9118E-03     2.10478E+06    -24.7872E+06    -113.447E+06    -24.7987E+06    -113.436E+06     2.10478E+06     886.330E+03         25.4663
             299     8.76256E-03     55.8719E-03     551.343E-03     469.279E-03        -1.78098     550.471E-03        -1.78011     469.279E-03     34.7001E-03     54.0497E-03    -27.0092E-03    -27.0535E-03    -26.6278E-03     53.6683E-03    -27.0535E-03     11.0830E-03     1.51312E+06    -27.9470E+06    -138.324E+06    -27.9514E+06    -138.320E+06     1.51312E+06     581.315E+03         25.1190
             300     7.78872E-03     55.8607E-03     536.756E-03     460.182E-03        -1.75588     536.210E-03        -1.75533     460.182E-03     17.7910E-03     54.1317E-03    -27.0162E-03    -27.1135E-03    -26.6975E-03     53.8130E-03    -27.1135E-03     10.1392E-03     824.369E+03    -31.5957E+06    -163.434E+06    -31.5973E+06    -163.433E+06     824.369E+03     289.430E+03         24.8471
             301     6.81495E-03     55.8506E-03     525.261E-03     450.433E-03        -1.73657     522.620E-03        -1.73393     450.433E-03    -57.2693E-03     54.2041E-03    -27.0448E-03    -27.1611E-03    -26.7748E-03     53.9341E-03    -27.1611E-03     9.34664E-03    -2.08643E+06    -36.1213E+06    -184.683E+06    -36.1213E+06    -184.683E+06    -2.08643E+06    -14.4356E+03         24.6240
             302     5.84121E-03     55.8410E-03     479.344E-03     441.541E-03        -1.68485     472.355E-03        -1.67930     442.978E-03     18.8320E-03     54.2403E-03    -27.0664E-03    -27.1752E-03    -26.8381E-03     54.0120E-03    -27.1752E-03     8.59368E-03    -9.52742E+06    -41.2729E+06    -201.802E+06    -41.2729E+06    -201.802E+06    -9.52742E+06    -67.9832E+03         24.4359
             303     4.86762E-03     55.8325E-03     443.380E-03     439.186E-03        -1.64553     431.476E-03        -1.63612     441.679E-03    -41.1578E-03     54.2742E-03    -27.0856E-03    -27.1911E-03    -26.9040E-03     54.0927E-03    -27.1911E-03     7.66151E-03    -18.4989E+06    -46.6694E+06    -221.514E+06    -46.6695E+06    -221.514E+06    -18.4989E+06     25.1782E+03         24.2764
             304     3.89398E-03     55.8248E-03     485.899E-03     440.441E-03        -1.68720     451.907E-03        -1.65427     441.497E-03     184.404E-03     54.2917E-03    -27.1015E-03    -27.1916E-03    -26.9680E-03     54.1582E-03    -27.1916E-03     6.56025E-03    -29.7988E+06    -52.2821E+06    -241.246E+06    -52.2826E+06    -241.245E+06    -29.7988E+06     50.6818E+03         24.1495
             305     2.92046E-03     55.8187E-03     572.142E-03     438.109E-03        -1.76770     450.981E-03        -1.64654     438.109E-03    -305.435E-03     54.2698E-03    -27.1038E-03    -27.1665E-03    -27.0185E-03     54.1845E-03    -27.1665E-03     5.20921E-03    -43.3607E+06    -57.6662E+06    -253.660E+06    -57.6667E+06    -253.659E+06    -43.3607E+06    -136.652E+03         24.0609
             306     1.94683E-03     55.8139E-03     788.676E-03     435.825E-03        -1.98399     436.485E-03        -1.63180     435.825E-03     510.217E-03     54.2601E-03    -27.1159E-03    -27.1440E-03    -27.0743E-03     54.2171E-03    -27.1425E-03     3.65810E-03    -54.9564E+06    -62.0284E+06    -260.585E+06    -62.0288E+06    -260.585E+06    -54.9564E+06    -247.947E+03         24.0070
             307     973.531E-06     55.8111E-03         1.38885     809.633E-03        -2.96468    -254.474E-03        -1.63735         1.12563        -1.29267     54.2454E-03    -27.0431E-03    -27.2018E-03    -27.1844E-03     54.2302E-03    -27.0452E-03     2.08795E-03    -62.2538E+06    -64.6979E+06    -263.818E+06    -64.6990E+06    -263.817E+06    -62.2538E+06    -84.9741E+03         23.9785
             308     16.5566E-03     54.9756E-03     539.069E-03     513.536E-03        -1.83699     532.884E-03        -1.83647     519.207E-03     28.5311E-03     53.7387E-03    -25.9061E-03    -27.8653E-03    -25.1360E-03     52.0024E-03    -26.8991E-03     17.6717E-03     199.967E+06     114.423E+06    -7.51887E+06    -7.51822E+06     199.966E+06     114.423E+06    -127.985E+03         36.5360
             309     15.5818E-03     54.9405E-03     556.035E-03     517.934E-03        -1.85339     555.747E-03        -1.85311     517.934E-03     14.3092E-03     54.3032E-03    -26.6374E-03    -27.6548E-03    -25.3099E-03     52.0095E-03    -26.6886E-03     26.1180E-03     190.995E+06     62.7203E+06    -13.1474E+06    -13.1445E+06     190.992E+06     62.7203E+06     37.4423E+03         33.9748
             310     14.6070E-03     54.9206E-03     568.836E-03     515.316E-03        -1.86235     568.577E-03        -1.86209     515.316E-03     17.3931E-03     53.7518E-03    -26.5140E-03    -27.2265E-03    -25.6192E-03     52.1956E-03    -26.5651E-03     22.0255E-03     148.028E+06     17.0573E+06    -16.9975E+06    -16.9772E+06     148.007E+06     17.0573E+06     402.522E+03         31.6047
             311     13.6325E-03     54.8943E-03     561.037E-03     512.122E-03        -1.85077     560.924E-03        -1.85066     512.122E-03     73.6415E-06     54.1694E-03    -26.5784E-03    -27.5716E-03    -25.9832E-03     52.5810E-03    -26.5784E-03     22.3872E-03     67.2239E+06    -8.60005E+06    -19.7766E+06    -19.7470E+06     67.1943E+06    -8.60005E+06     233.174E+03         29.6736
             312     12.6583E-03     54.8737E-03     559.365E-03     508.753E-03        -1.85012     559.328E-03        -1.85008     508.753E-03     11.0304E-03     53.9241E-03    -26.7064E-03    -27.2293E-03    -26.2288E-03     52.9236E-03    -26.7064E-03     17.8274E-03     8.51803E+06    -16.6588E+06    -25.7509E+06    -20.6355E+06    -4.57064E+06    -8.68541E+06     661.932E+03         28.0823
             313     11.6842E-03     54.8568E-03     578.135E-03     503.994E-03        -1.86406     577.876E-03        -1.86380     503.994E-03     34.6751E-03     53.9079E-03    -26.8145E-03    -27.1276E-03    -26.4335E-03     53.2138E-03    -26.8145E-03     14.8819E-03    -3.58838E+06    -21.1092E+06    -51.6964E+06    -21.1933E+06    -51.6123E+06    -3.58838E+06     1.16581E+06         26.8479
             314     10.7104E-03     54.8425E-03     572.272E-03     497.755E-03        -1.84812     571.833E-03        -1.84768     497.755E-03     5.79761E-03     53.9314E-03    -26.9004E-03    -27.0438E-03    -26.5187E-03     53.4064E-03    -26.9004E-03     12.9812E-03    -297.699E+03    -22.7011E+06    -86.2970E+06    -22.7196E+06    -86.2785E+06    -297.699E+03     1.03584E+06         25.9927
             315     9.73642E-03     54.8296E-03     548.193E-03     491.780E-03        -1.81683     547.448E-03        -1.81608     491.780E-03     17.2266E-03     53.9790E-03    -26.9834E-03    -27.0126E-03    -26.5598E-03     53.5339E-03    -26.9912E-03     11.9683E-03     2.49446E+06    -24.8495E+06    -112.953E+06    -24.8585E+06    -112.944E+06     2.49446E+06     838.990E+03         25.4665
             316     8.76258E-03     54.8174E-03     553.253E-03     485.442E-03        -1.81310     552.663E-03        -1.81251     485.442E-03     38.4793E-03     54.0515E-03    -27.0143E-03    -27.0524E-03    -26.6306E-03     53.6678E-03    -27.0524E-03     11.1158E-03     1.84876E+06    -27.6841E+06    -138.140E+06    -27.6881E+06    -138.137E+06     1.84876E+06     573.123E+03         25.1195
             317     7.78871E-03     54.8063E-03     550.315E-03     477.351E-03        -1.80044     550.001E-03        -1.80012     477.351E-03     27.3837E-03     54.1372E-03    -27.0265E-03    -27.1096E-03    -26.7058E-03     53.8165E-03    -27.1096E-03     10.1728E-03     1.01638E+06    -31.4250E+06    -163.045E+06    -31.4259E+06    -163.044E+06     1.01638E+06     295.320E+03         24.8460
             318     6.81499E-03     54.7960E-03     524.565E-03     469.160E-03        -1.76979     522.857E-03        -1.76808     469.160E-03    -44.6331E-03     54.2012E-03    -27.0447E-03    -27.1572E-03    -26.7738E-03     53.9303E-03    -27.1572E-03     9.36018E-03    -1.76988E+06    -35.9796E+06    -184.574E+06    -35.9798E+06    -184.574E+06    -1.76988E+06     139.070E+03         24.6222
             319     5.84131E-03     54.7866E-03     502.985E-03     462.540E-03        -1.74327     498.271E-03        -1.73856     462.540E-03     40.6486E-03     54.2197E-03    -27.0466E-03    -27.1730E-03    -26.8184E-03     53.9915E-03    -27.1730E-03     8.59074E-03    -9.18533E+06    -41.1591E+06    -201.761E+06    -41.1593E+06    -201.761E+06    -9.18533E+06    -6.72841E+03         24.4356
             320     4.86757E-03     54.7779E-03     485.413E-03     457.432E-03        -1.71968     475.867E-03        -1.71064     457.940E-03    -36.6208E-03     54.2596E-03    -27.0699E-03    -27.1911E-03    -26.8880E-03     54.0777E-03    -27.1911E-03     7.66507E-03    -18.4051E+06    -46.5690E+06    -221.642E+06    -46.5693E+06    -221.641E+06    -18.4051E+06    -178.095E+03         24.2770
             321     3.89400E-03     54.7705E-03     493.930E-03     454.378E-03        -1.72293     465.930E-03        -1.69544     454.885E-03     152.218E-03     54.2918E-03    -27.0985E-03    -27.1939E-03    -26.9654E-03     54.1587E-03    -27.1939E-03     6.54894E-03    -29.7282E+06    -51.8501E+06    -241.214E+06    -51.8507E+06    -241.213E+06    -29.7282E+06    -108.357E+03         24.1497
             322     2.92039E-03     54.7641E-03     564.485E-03     452.064E-03        -1.78792     461.330E-03        -1.68477     452.064E-03    -300.124E-03     54.2865E-03    -27.1121E-03    -27.1739E-03    -27.0275E-03     54.2020E-03    -27.1739E-03     5.18784E-03    -42.0734E+06    -56.7113E+06    -253.544E+06    -56.7121E+06    -253.544E+06    -42.0734E+06    -194.814E+03         24.0600
             323     1.94698E-03     54.7596E-03     750.796E-03     449.329E-03        -1.97675     454.499E-03        -1.68046     449.329E-03     440.685E-03     54.2790E-03    -27.1269E-03    -27.1506E-03    -27.0859E-03     54.2365E-03    -27.1491E-03     3.63582E-03    -53.1740E+06    -60.8551E+06    -260.743E+06    -60.8558E+06    -260.743E+06    -53.1740E+06    -346.975E+03         24.0048
             324     973.404E-06     54.7563E-03         1.35350     700.769E-03        -2.84012    -239.140E-03        -1.68191         1.13520        -1.17770     54.2448E-03    -27.0660E-03    -27.1789E-03    -27.1495E-03     54.2296E-03    -27.0801E-03     2.09061E-03    -61.4391E+06    -63.6868E+06    -264.306E+06    -63.6858E+06    -264.303E+06    -61.4433E+06    -619.848E+03         23.9752
             325     16.5567E-03     53.9210E-03     553.182E-03     527.993E-03        -1.87157     546.988E-03        -1.87105     533.664E-03     361.819E-06     53.7438E-03    -25.9030E-03    -27.8835E-03    -25.1555E-03     52.0175E-03    -26.9046E-03     17.6778E-03     200.257E+06     115.470E+06    -7.72479E+06    -7.72451E+06     200.257E+06     115.470E+06    -159.103E+03         36.5215
             326     15.5817E-03     53.8861E-03     565.527E-03     532.568E-03        -1.88890     565.234E-03        -1.88860     532.568E-03    -17.9193E-03     54.3108E-03    -26.6333E-03    -27.6705E-03    -25.3188E-03     52.0174E-03    -26.6916E-03     26.1595E-03     190.371E+06     63.0390E+06    -13.8972E+06    -13.8965E+06     190.371E+06     63.0390E+06    -139.358E+03         33.9643
             327     14.6070E-03     53.8661E-03     568.011E-03     530.685E-03        -1.88986     567.816E-03        -1.88967     530.685E-03    -9.53054E-03     53.7273E-03    -26.5100E-03    -27.2093E-03    -25.5932E-03     52.1694E-03    -26.5682E-03     22.0512E-03     147.084E+06     17.1956E+06    -17.1400E+06    -17.1277E+06     147.072E+06     17.1956E+06     658.322E+03         31.5968
             328     13.6326E-03     53.8398E-03     567.142E-03     528.444E-03        -1.88583     566.963E-03        -1.88565     528.444E-03    -9.58619E-03     54.1969E-03    -26.5843E-03    -27.5951E-03    -26.0182E-03     52.6200E-03    -26.5843E-03     22.3161E-03     68.0282E+06    -6.76520E+06    -18.4374E+06    -18.3956E+06     67.9864E+06    -6.76520E+06     944.793E+03         29.6678
             329     12.6584E-03     53.8193E-03     579.216E-03     525.338E-03        -1.89518     579.054E-03        -1.89502     525.338E-03    -4.13989E-03     53.9483E-03    -26.7059E-03    -27.2495E-03    -26.2474E-03     52.9462E-03    -26.7059E-03     17.8536E-03     9.07949E+06    -15.7685E+06    -25.9778E+06    -19.7688E+06    -4.89867E+06    -7.99927E+06     429.024E+03         28.0786
             330     11.6843E-03     53.8023E-03     594.718E-03     520.464E-03        -1.90793     594.423E-03        -1.90764     520.464E-03     9.29493E-03     53.8769E-03    -26.8149E-03    -27.0918E-03    -26.3936E-03     53.1787E-03    -26.8149E-03     14.9147E-03    -3.48524E+06    -20.8627E+06    -52.0315E+06    -20.9044E+06    -51.9898E+06    -3.48524E+06     690.248E+03         26.8462
             331     10.7102E-03     53.7880E-03     584.626E-03     514.460E-03        -1.89068     584.259E-03        -1.89031     514.460E-03    -716.250E-06     53.9232E-03    -26.9047E-03    -27.0328E-03    -26.5078E-03     53.3982E-03    -26.9047E-03     12.9798E-03    -3.69222E+03    -22.1601E+06    -85.8179E+06    -22.1754E+06    -85.8026E+06    -3.69222E+03     856.885E+03         25.9924
             332     9.73643E-03     53.7751E-03     558.720E-03     509.061E-03        -1.85656     558.430E-03        -1.85627     509.061E-03    -7.52008E-03     53.9868E-03    -26.9896E-03    -27.0197E-03    -26.5676E-03     53.5395E-03    -26.9943E-03     12.0006E-03     2.40771E+06    -24.4368E+06    -112.913E+06    -24.4418E+06    -112.908E+06     2.40771E+06     616.797E+03         25.4668
             333     8.76252E-03     53.7629E-03     553.983E-03     504.064E-03        -1.84615     553.705E-03        -1.84588     504.064E-03     2.38288E-03     54.0688E-03    -27.0353E-03    -27.0517E-03    -26.6507E-03     53.6839E-03    -27.0515E-03     11.1339E-03     1.84701E+06    -27.5843E+06    -137.912E+06    -27.5890E+06    -137.907E+06     1.84701E+06     690.632E+03         25.1194
             334     7.78878E-03     53.7517E-03     557.918E-03     497.807E-03        -1.84419     557.408E-03        -1.84368     497.807E-03     20.2201E-03     54.1462E-03    -27.0393E-03    -27.1059E-03    -26.7189E-03     53.8258E-03    -27.1059E-03     10.1712E-03     897.401E+03    -31.6291E+06    -162.666E+06    -31.6325E+06    -162.662E+06     897.401E+03     592.044E+03         24.8448
             335     6.81500E-03     53.7415E-03     536.946E-03     491.126E-03        -1.81860     535.637E-03        -1.81729     491.126E-03    -26.6211E-03     54.1852E-03    -27.0322E-03    -27.1540E-03    -26.7600E-03     53.9131E-03    -27.1540E-03     9.38020E-03    -2.04633E+06    -36.3012E+06    -184.395E+06    -36.3024E+06    -184.394E+06    -2.04633E+06     194.618E+03         24.6205
             336     5.84125E-03     53.7320E-03     531.903E-03     484.548E-03        -1.80979     527.748E-03        -1.80563     484.548E-03     55.7790E-03     54.2107E-03    -27.0411E-03    -27.1706E-03    -26.8120E-03     53.9816E-03    -27.1706E-03     8.60606E-03    -9.27644E+06    -41.1410E+06    -201.635E+06    -41.1417E+06    -201.634E+06    -9.27644E+06    -172.693E+03         24.4352
             337     4.86760E-03     53.7235E-03     526.133E-03     476.848E-03        -1.79318     519.543E-03        -1.78659     476.848E-03     1.33713E-03     54.2618E-03    -27.0718E-03    -27.1905E-03    -26.8902E-03     54.0802E-03    -27.1905E-03     7.65873E-03    -18.1557E+06    -46.3833E+06    -221.653E+06    -46.3841E+06    -221.652E+06    -18.1557E+06    -344.622E+03         24.2783
             338     3.89397E-03     53.7159E-03     496.818E-03     472.252E-03        -1.75855     476.013E-03        -1.73775     472.252E-03     154.606E-03     54.2930E-03    -27.0981E-03    -27.1954E-03    -26.9665E-03     54.1614E-03    -27.1954E-03     6.51007E-03    -29.0659E+06    -52.1615E+06    -241.381E+06    -52.1621E+06    -241.381E+06    -29.0659E+06    -305.229E+03         24.1510
             339     2.92046E-03     53.7097E-03     551.316E-03     473.329E-03        -1.81583     464.762E-03        -1.72928     473.329E-03    -295.417E-03     54.2725E-03    -27.1032E-03    -27.1694E-03    -27.0190E-03     54.1883E-03    -27.1694E-03     5.18309E-03    -42.3058E+06    -57.8873E+06    -253.565E+06    -57.8878E+06    -253.565E+06    -42.3058E+06    -246.670E+03         24.0599
             340     1.94691E-03     53.7049E-03     750.106E-03     467.829E-03        -2.01033     495.897E-03        -1.75612     467.829E-03     418.004E-03     54.2525E-03    -27.1122E-03    -27.1396E-03    -27.0690E-03     54.2093E-03    -27.1396E-03     3.66185E-03    -54.6864E+06    -62.2170E+06    -260.863E+06    -62.2198E+06    -260.860E+06    -54.6864E+06    -517.970E+03         24.0038
             341     973.533E-06     53.7021E-03         1.33093     624.466E-03        -2.75474    -198.226E-03        -1.72099         1.11987        -1.05451     54.2302E-03    -27.0645E-03    -27.1657E-03    -27.1355E-03     54.2154E-03    -27.0799E-03     2.03124E-03    -63.0352E+06    -65.1735E+06    -265.202E+06    -64.8595E+06    -265.196E+06    -63.3551E+06    -530.062E+03         23.9742
             342     16.5564E-03     52.8664E-03     570.566E-03     548.710E-03        -1.91593     570.284E-03        -1.91565     548.710E-03    -26.0951E-03     53.7023E-03    -25.8737E-03    -27.8689E-03    -25.1051E-03     51.9733E-03    -26.9084E-03     17.6741E-03     200.266E+06     115.547E+06    -7.78407E+06    -7.78321E+06     200.265E+06     115.547E+06     40.0072E+03         36.5106
             343     15.5818E-03     52.8315E-03     566.135E-03     547.843E-03        -1.91731     565.850E-03        -1.91703     547.843E-03    -22.3649E-03     54.3272E-03    -26.6548E-03    -27.6608E-03    -25.3192E-03     52.0310E-03    -26.7003E-03     26.1721E-03     190.144E+06     63.7486E+06    -14.2203E+06    -14.2192E+06     190.143E+06     63.7486E+06     214.132E+03         33.9568
             344     14.6070E-03     52.8118E-03     568.468E-03     546.939E-03        -1.92054     568.376E-03        -1.92045     546.939E-03    -1.24030E-03     53.7660E-03    -26.5094E-03    -27.2526E-03    -25.6247E-03     52.1835E-03    -26.5548E-03     22.2162E-03     146.428E+06     14.0391E+06    -18.0670E+06    -18.0665E+06     146.427E+06     14.0391E+06     82.0490E+03         31.5921
             345     13.6325E-03     52.7852E-03     581.907E-03     545.277E-03        -1.93026     581.828E-03        -1.93018     545.277E-03    -5.66658E-03     54.2267E-03    -26.5646E-03    -27.6485E-03    -26.0502E-03     52.6284E-03    -26.5646E-03     22.4544E-03     67.8164E+06    -10.7198E+06    -18.7365E+06    -18.7103E+06     67.7902E+06    -10.7198E+06     404.969E+03         29.6652
             346     12.6584E-03     52.7649E-03     591.164E-03     542.453E-03        -1.93615     590.812E-03        -1.93579     542.453E-03    -31.7885E-03     53.9734E-03    -26.7018E-03    -27.2789E-03    -26.2753E-03     52.9698E-03    -26.7018E-03     17.8797E-03     9.00842E+06    -15.4294E+06    -25.7222E+06    -18.9033E+06    -4.59295E+06    -8.64692E+06     982.260E+03         28.0779
             347     11.6843E-03     52.7478E-03     591.269E-03     538.725E-03        -1.93213     590.708E-03        -1.93157     538.725E-03    -7.78678E-03     53.8755E-03    -26.8123E-03    -27.0933E-03    -26.3881E-03     53.1704E-03    -26.8123E-03     14.9875E-03    -4.19127E+06    -20.4249E+06    -52.3246E+06    -20.5632E+06    -52.1863E+06    -4.19127E+06     762.949E+03         26.8469
             348     10.7103E-03     52.7335E-03     589.846E-03     534.325E-03        -1.92580     589.481E-03        -1.92544     534.325E-03     10.8459E-03     53.9085E-03    -26.9059E-03    -27.0206E-03    -26.4950E-03     53.3829E-03    -26.9059E-03     12.9826E-03    -490.065E+03    -22.5904E+06    -85.6428E+06    -22.6061E+06    -85.6270E+06    -490.065E+03     733.156E+03         25.9935
             349     9.73634E-03     52.7206E-03     583.460E-03     529.389E-03        -1.91502     583.045E-03        -1.91461     529.389E-03     13.2538E-03     53.9993E-03    -26.9965E-03    -27.0275E-03    -26.5818E-03     53.5536E-03    -26.9965E-03     11.9806E-03     1.99686E+06    -25.1673E+06    -112.761E+06    -25.1778E+06    -112.751E+06     1.99686E+06     746.351E+03         25.4674
             350     8.76256E-03     52.7084E-03     559.818E-03     525.045E-03        -1.88524     559.332E-03        -1.88476     525.045E-03     6.18274E-03     54.0729E-03    -27.0327E-03    -27.0585E-03    -26.6540E-03     53.6880E-03    -27.0522E-03     11.1362E-03     1.45344E+06    -28.2356E+06    -138.179E+06    -28.2409E+06    -138.174E+06     1.45344E+06     719.363E+03         25.1197
             351     7.78875E-03     52.6971E-03     553.796E-03     521.384E-03        -1.87592     553.357E-03        -1.87548     521.384E-03     5.58261E-03     54.1442E-03    -27.0358E-03    -27.1082E-03    -26.7142E-03     53.8226E-03    -27.1082E-03     10.1899E-03     999.010E+03    -31.6086E+06    -162.255E+06    -31.6131E+06    -162.251E+06     999.010E+03     731.532E+03         24.8450
             352     6.81499E-03     52.6871E-03     565.147E-03     516.206E-03        -1.88707     564.171E-03        -1.88610     516.206E-03    -26.0810E-03     54.2067E-03    -27.0512E-03    -27.1565E-03    -26.7784E-03     53.9338E-03    -27.1565E-03     9.39286E-03    -1.75589E+06    -35.9388E+06    -183.712E+06    -35.9404E+06    -183.711E+06    -1.75589E+06     113.172E+03         24.6206
             353     5.84128E-03     52.6775E-03     556.653E-03     509.289E-03        -1.87277     554.124E-03        -1.87024     509.289E-03     26.6966E-03     54.2242E-03    -27.0569E-03    -27.1694E-03    -26.8296E-03     53.9969E-03    -27.1694E-03     8.57330E-03    -8.94750E+06    -41.0123E+06    -201.598E+06    -41.0132E+06    -201.597E+06    -8.94750E+06    -379.858E+03         24.4353
             354     4.86761E-03     52.6690E-03     536.737E-03     502.745E-03        -1.84365     533.229E-03        -1.84014     502.745E-03    -2.77360E-03     54.2553E-03    -27.0696E-03    -27.1877E-03    -26.8892E-03     54.0750E-03    -27.1877E-03     7.63434E-03    -17.8634E+06    -46.7160E+06    -221.758E+06    -46.7167E+06    -221.757E+06    -17.8634E+06    -305.832E+03         24.2787
             355     3.89406E-03     52.6614E-03     531.718E-03     497.299E-03        -1.83182     518.263E-03        -1.81837     497.299E-03     142.615E-03     54.2812E-03    -27.0894E-03    -27.1913E-03    -26.9577E-03     54.1494E-03    -27.1913E-03     6.51350E-03    -28.9553E+06    -52.7789E+06    -241.811E+06    -52.7791E+06    -241.810E+06    -28.9553E+06    -94.7147E+03         24.1516
             356     2.92046E-03     52.6552E-03     565.670E-03     494.843E-03        -1.86130     494.867E-03        -1.79049     494.843E-03    -295.683E-03     54.2510E-03    -27.0913E-03    -27.1598E-03    -27.0073E-03     54.1670E-03    -27.1598E-03     5.17588E-03    -42.9082E+06    -58.3724E+06    -253.414E+06    -58.3726E+06    -253.413E+06    -42.9082E+06    -88.5847E+03         24.0602
             357     1.94694E-03     52.6505E-03     698.227E-03     495.287E-03        -1.99802     493.975E-03        -1.79377     495.287E-03     342.756E-03     54.2274E-03    -27.0983E-03    -27.1303E-03    -27.0554E-03     54.1845E-03    -27.1303E-03     3.64356E-03    -55.8369E+06    -63.2442E+06    -260.787E+06    -63.2470E+06    -260.784E+06    -55.8369E+06    -353.427E+03         24.0039
             358     973.389E-06     52.6474E-03         1.29333     541.225E-03        -2.64031    -148.763E-03        -1.79698         1.13999    -941.835E-03     54.2171E-03    -27.0116E-03    -27.2058E-03    -27.1839E-03     54.2026E-03    -27.0190E-03     2.00577E-03    -63.9324E+06    -66.9449E+06    -266.292E+06    -66.6341E+06    -266.287E+06    -64.2482E+06    -323.726E+03         23.9747
             359     16.5566E-03     51.8121E-03     578.054E-03     562.017E-03        -1.94924     576.630E-03        -1.94894     563.143E-03    -7.33398E-03     53.6638E-03    -25.8681E-03    -27.8440E-03    -25.0714E-03     51.9283E-03    -26.9051E-03     17.6577E-03     199.876E+06     114.259E+06    -7.93885E+06    -7.93769E+06     199.874E+06     114.259E+06     357.069E+03         36.5013
             360     15.5813E-03     51.7770E-03     579.793E-03     562.517E-03        -1.95600     579.481E-03        -1.95569     562.517E-03     1.04158E-03     54.2992E-03    -26.6450E-03    -27.6462E-03    -25.2885E-03     52.0038E-03    -26.7074E-03     26.1277E-03     189.651E+06     63.9343E+06    -14.7419E+06    -14.7335E+06     189.642E+06     63.9343E+06     988.492E+03         33.9503
             361     14.6068E-03     51.7574E-03     578.660E-03     561.762E-03        -1.95465     578.499E-03        -1.95449     561.762E-03     24.0365E-03     53.7928E-03    -26.5140E-03    -27.2704E-03    -25.6316E-03     52.2164E-03    -26.5764E-03     22.1672E-03     147.265E+06     16.4561E+06    -19.4790E+06    -19.4710E+06     147.257E+06     16.4561E+06     672.446E+03         31.5884
             362     13.6325E-03     51.7306E-03     586.937E-03     560.575E-03        -1.95915     586.769E-03        -1.95898     560.575E-03     17.7323E-03     54.2386E-03    -26.5723E-03    -27.6508E-03    -26.0507E-03     52.6385E-03    -26.5723E-03     22.4685E-03      67.145E+06    -11.7477E+06    -22.0398E+06    -22.0389E+06     67.1442E+06    -11.7477E+06    -10.9845E+03         29.6637
             363     12.6582E-03     51.7103E-03     591.568E-03     558.675E-03        -1.96260     591.142E-03        -1.96218     558.675E-03     7.85352E-03     53.9803E-03    -26.7045E-03    -27.2878E-03    -26.2876E-03     52.9801E-03    -26.7045E-03     17.8479E-03     7.44553E+06    -18.6933E+06    -26.9271E+06    -22.4467E+06    -5.12716E+06    -10.6010E+06     420.970E+03         28.0780
             364     11.6843E-03     51.6934E-03     587.219E-03     556.423E-03        -1.95659     586.475E-03        -1.95585     556.423E-03     36.3946E-03     53.9001E-03    -26.8189E-03    -27.1132E-03    -26.4108E-03     53.1977E-03    -26.8189E-03     14.9661E-03    -4.71037E+06    -22.4941E+06    -51.9074E+06    -22.6513E+06    -51.7502E+06    -4.71037E+06     786.377E+03         26.8481
             365     10.7102E-03     51.6790E-03     587.942E-03     553.890E-03        -1.95411     587.325E-03        -1.95350     553.890E-03     27.4610E-03     53.9168E-03    -26.9091E-03    -27.0282E-03    -26.5024E-03     53.3910E-03    -26.9091E-03     12.9860E-03    -1.09287E+06    -24.1759E+06    -85.8859E+06    -24.1953E+06    -85.8666E+06    -1.09287E+06     696.582E+03         25.9951
             366     9.73641E-03     51.6661E-03     587.547E-03     550.807E-03        -1.95238     587.096E-03        -1.95193     550.807E-03     16.5077E-03     53.9917E-03    -26.9866E-03    -27.0280E-03    -26.5713E-03     53.5467E-03    -26.9984E-03     11.9703E-03     1.89448E+06    -26.3179E+06    -112.320E+06    -26.3279E+06    -112.310E+06     1.89448E+06     631.738E+03         25.4687
             367     8.76256E-03     51.6538E-03     574.104E-03     547.814E-03        -1.93623     573.748E-03        -1.93588     547.814E-03     25.1347E-03     54.0567E-03    -27.0133E-03    -27.0611E-03    -26.6345E-03     53.6719E-03    -27.0551E-03     11.1323E-03     1.15642E+06    -28.9776E+06    -138.283E+06    -28.9811E+06    -138.280E+06     1.15642E+06     385.226E+03         25.1202
             368     7.78870E-03     51.6428E-03     561.000E-03     545.130E-03        -1.92110     560.253E-03        -1.92094     545.720E-03    -5.55692E-03     54.1513E-03    -27.0425E-03    -27.1116E-03    -26.7198E-03     53.8285E-03    -27.1116E-03     10.2097E-03     501.595E+03    -32.2397E+06    -161.979E+06    -32.2423E+06    -161.976E+06     501.595E+03     98.8846E+03         24.8453
             369     6.81496E-03     51.6324E-03     566.186E-03     540.751E-03        -1.92658     562.638E-03        -1.92600     543.714E-03    -38.4916E-03     54.2324E-03    -27.0746E-03    -27.1583E-03    -26.8026E-03     53.9604E-03    -27.1583E-03     9.37994E-03    -1.62378E+06    -36.0600E+06    -183.153E+06    -36.0611E+06    -183.152E+06    -1.62378E+06    -152.832E+03         24.6209
             370     5.84138E-03     51.6231E-03     566.223E-03     538.461E-03        -1.92384     562.499E-03        -1.92249     540.834E-03     19.3192E-03     54.2314E-03    -27.0647E-03    -27.1673E-03    -26.8381E-03     54.0048E-03    -27.1673E-03     8.56489E-03    -8.79051E+06    -41.1022E+06    -201.621E+06    -41.1028E+06    -201.621E+06    -8.79051E+06    -176.675E+03         24.4354
             371     4.86767E-03     51.6144E-03     559.880E-03     537.280E-03        -1.91417     557.685E-03        -1.91197     537.280E-03    -14.6627E-03     54.2450E-03    -27.0623E-03    -27.1847E-03    -26.8811E-03     54.0639E-03    -27.1847E-03     7.64870E-03    -17.8396E+06    -46.8500E+06    -221.946E+06    -46.8503E+06    -221.946E+06    -17.8396E+06    -103.236E+03         24.2783
             372     3.89400E-03     51.6070E-03     575.562E-03     531.176E-03        -1.92242     565.821E-03        -1.91267     531.176E-03     125.255E-03     54.2696E-03    -27.0824E-03    -27.1876E-03    -26.9502E-03     54.1374E-03    -27.1876E-03     6.52645E-03    -29.2002E+06    -52.6480E+06    -242.050E+06    -52.6484E+06    -242.050E+06    -29.2002E+06    -138.477E+03         24.1512
             373     2.92046E-03     51.6007E-03     596.299E-03     523.907E-03        -1.93107     542.847E-03        -1.87761     523.907E-03    -260.779E-03     54.2570E-03    -27.1006E-03    -27.1555E-03    -27.0162E-03     54.1726E-03    -27.1555E-03     5.18138E-03    -42.9188E+06    -58.0525E+06    -253.470E+06    -58.0532E+06    -253.469E+06    -42.9188E+06    -75.2929E+03         24.0600
             374     1.94699E-03     51.5960E-03     660.825E-03     527.800E-03        -2.00124     500.221E-03        -1.84063     527.800E-03     302.461E-03     54.2290E-03    -27.1029E-03    -27.1266E-03    -27.0602E-03     54.1863E-03    -27.1266E-03     3.64415E-03    -55.0052E+06    -62.3313E+06    -260.982E+06    -62.3319E+06    -260.981E+06    -55.0052E+06     166.133E+03         24.0038
             375     973.552E-06     51.5930E-03         1.28829     472.989E-03        -2.58107    -126.365E-03        -1.88923         1.19580    -876.570E-03     54.2090E-03    -27.0330E-03    -27.1770E-03    -27.1527E-03     54.1940E-03    -27.0424E-03     2.04971E-03    -62.8319E+06    -65.7948E+06    -266.407E+06    -65.2353E+06    -266.404E+06    -63.3945E+06    -380.844E+03         23.9749
             376     16.5563E-03     50.7577E-03     579.096E-03     567.787E-03        -1.97530     571.083E-03        -1.97499     575.492E-03     22.6975E-03     53.6897E-03    -25.8545E-03    -27.9020E-03    -25.1167E-03     51.9649E-03    -26.9151E-03     17.6362E-03     198.900E+06     114.760E+06    -8.04641E+06    -8.04210E+06     198.896E+06     114.760E+06     782.867E+03         36.4922
             377     15.5816E-03     50.7227E-03     584.819E-03     565.846E-03        -1.98006     574.528E-03        -1.97985     575.928E-03     14.2617E-03     54.3329E-03    -26.6354E-03    -27.7096E-03    -25.3505E-03     52.0611E-03    -26.7227E-03     25.9902E-03     189.268E+06     66.2530E+06    -14.4597E+06    -14.4478E+06     189.256E+06     66.2530E+06     1.38847E+06         33.9439
             378     14.6068E-03     50.7028E-03     591.772E-03     572.319E-03        -1.98959     587.920E-03        -1.98932     575.893E-03     11.3124E-03     53.7566E-03    -26.5168E-03    -27.2285E-03    -25.5928E-03     52.2082E-03    -26.6041E-03     21.9536E-03     148.074E+06     21.7704E+06    -18.6192E+06    -18.5875E+06     148.042E+06     21.7704E+06     1.80946E+06         31.5844
             379     13.6324E-03     50.6762E-03     598.924E-03     574.972E-03        -1.99587     598.646E-03        -1.99559     574.972E-03     70.8997E-06     54.2079E-03    -26.5935E-03    -27.5965E-03    -26.0135E-03     52.6249E-03    -26.5935E-03     22.3462E-03     68.2302E+06    -7.44276E+06    -21.2608E+06    -21.2366E+06     68.2060E+06    -7.44276E+06     906.055E+03         29.6616
             380     12.6583E-03     50.6557E-03     592.893E-03     571.996E-03        -1.98606     590.820E-03        -1.98576     573.773E-03     13.2093E-03     53.9781E-03    -26.7128E-03    -27.2770E-03    -26.2853E-03     52.9864E-03    -26.7128E-03     17.7659E-03     8.54951E+06    -18.5315E+06    -27.4935E+06    -22.6575E+06    -5.38477E+06    -9.43313E+06    -446.419E+03         28.0775
             381     11.6842E-03     50.6388E-03     582.435E-03     564.367E-03        -1.97085     572.978E-03        -1.97043     573.403E-03     27.1350E-03     53.9111E-03    -26.8275E-03    -27.1172E-03    -26.4202E-03     53.2141E-03    -26.8275E-03     14.9169E-03    -4.05689E+06    -23.2192E+06    -52.1420E+06    -23.2624E+06    -52.0988E+06    -4.05689E+06    -165.602E+03         26.8486
             382     10.7104E-03     50.6245E-03     581.923E-03     562.838E-03        -1.97095     570.405E-03        -1.97044     573.843E-03    -2.03134E-03     53.9328E-03    -26.9131E-03    -27.0441E-03    -26.5167E-03     53.4053E-03    -26.9131E-03     13.0077E-03    -654.312E+03    -24.0771E+06    -85.7491E+06    -24.0907E+06    -85.7354E+06    -654.312E+03     174.745E+03         25.9962
             383     9.73637E-03     50.6115E-03     586.248E-03     570.117E-03        -1.98276     582.146E-03        -1.98240     573.864E-03    -6.58538E-03     53.9789E-03    -26.9774E-03    -27.0277E-03    -26.5608E-03     53.5354E-03    -27.0008E-03     11.9485E-03     2.33714E+06    -25.8889E+06    -112.454E+06    -25.8906E+06    -112.452E+06     2.33714E+06     166.237E+03         25.4698
             384     8.76250E-03     50.5994E-03     595.630E-03     572.454E-03        -1.99565     595.482E-03        -1.99550     572.454E-03     20.6518E-03     54.0559E-03    -27.0202E-03    -27.0560E-03    -26.6362E-03     53.6719E-03    -27.0560E-03     11.1215E-03     1.46520E+06    -28.7263E+06    -137.900E+06    -28.7282E+06    -137.899E+06     1.46520E+06     96.7486E+03         25.1207
             385     7.78875E-03     50.5882E-03     586.321E-03     569.916E-03        -1.98537     585.534E-03        -1.98517     570.506E-03     6.92530E-03     54.1571E-03    -27.0540E-03    -27.1077E-03    -26.7310E-03     53.8341E-03    -27.1077E-03     10.2132E-03     144.915E+03    -32.3504E+06    -161.471E+06    -32.3521E+06    -161.469E+06     144.915E+03    -398.010E+03         24.8451
             386     6.81506E-03     50.5779E-03     570.756E-03     560.581E-03        -1.96036     560.398E-03        -1.95995     570.539E-03    -19.8478E-03     54.1965E-03    -27.0454E-03    -27.1537E-03    -26.7731E-03     53.9241E-03    -27.1537E-03     9.38284E-03    -2.52110E+06    -36.7399E+06    -183.442E+06    -36.7419E+06    -183.440E+06    -2.52110E+06    -508.179E+03         24.6206
             387     5.84125E-03     50.5685E-03     576.953E-03     562.645E-03        -1.96705     565.852E-03        -1.96532     572.013E-03     54.9046E-03     54.2137E-03    -27.0472E-03    -27.1677E-03    -26.8187E-03     53.9853E-03    -27.1677E-03     8.59641E-03    -9.38313E+06    -41.6492E+06    -202.011E+06    -41.6498E+06    -202.010E+06    -9.38313E+06    -155.161E+03         24.4353
             388     4.86765E-03     50.5600E-03     586.183E-03     571.554E-03        -1.98480     583.627E-03        -1.98224     571.554E-03     14.6302E-03     54.2637E-03    -27.0795E-03    -27.1847E-03    -26.8971E-03     54.0814E-03    -27.1847E-03     7.67442E-03    -18.3826E+06    -47.0524E+06    -221.805E+06    -47.0526E+06    -221.805E+06    -18.3826E+06    -75.1997E+03         24.2785
             389     3.89405E-03     50.5525E-03     598.620E-03     567.900E-03        -1.99241     589.346E-03        -1.98314     567.900E-03     133.487E-03     54.2804E-03    -27.0943E-03    -27.1880E-03    -26.9620E-03     54.1480E-03    -27.1880E-03     6.53048E-03    -29.2928E+06    -52.7129E+06    -242.086E+06    -52.7135E+06    -242.085E+06    -29.2928E+06    -312.774E+03         24.1512
             390     2.92047E-03     50.5463E-03     626.754E-03     561.712E-03        -2.01025     584.097E-03        -1.96759     561.712E-03    -216.110E-03     54.2519E-03    -27.0941E-03    -27.1576E-03    -27.0094E-03     54.1672E-03    -27.1576E-03     5.19469E-03    -42.8820E+06    -57.8617E+06    -253.965E+06    -57.8626E+06    -253.964E+06    -42.8820E+06    -240.381E+03         24.0597
             391     1.94695E-03     50.5416E-03     703.720E-03     553.605E-03        -2.07830     571.794E-03        -1.94637     553.605E-03     301.146E-03     54.2320E-03    -27.0995E-03    -27.1326E-03    -27.0563E-03     54.1888E-03    -27.1326E-03     3.66246E-03    -54.9558E+06    -61.6171E+06    -261.178E+06    -61.6182E+06    -261.177E+06    -54.9558E+06    -111.370E+03         24.0036
             392     973.387E-06     50.5387E-03         1.28920     450.596E-03        -2.57493    -85.0035E-03        -1.93323         1.18310    -851.509E-03     54.2365E-03    -27.0582E-03    -27.1802E-03    -27.1535E-03     54.2213E-03    -27.0697E-03     2.07860E-03    -61.8410E+06    -64.4703E+06    -266.177E+06    -63.9114E+06    -266.173E+06    -62.4036E+06    -28.6559E+03         23.9749
             393     16.5564E-03     49.7030E-03     587.368E-03     574.784E-03        -2.00577     574.643E-03        -2.00563     587.368E-03     8.66473E-03     53.7562E-03    -25.8925E-03    -27.9122E-03    -25.1658E-03     52.0411E-03    -26.9238E-03     17.6237E-03     197.807E+06     115.452E+06    -7.71873E+06    -7.71167E+06     197.800E+06     115.452E+06     1.11742E+06         36.4827
             394     15.5816E-03     49.6680E-03     588.683E-03     567.450E-03        -1.99739     567.348E-03        -1.99729     588.683E-03     12.1795E-03     54.3578E-03    -26.6624E-03    -27.7146E-03    -25.3867E-03     52.0936E-03    -26.7261E-03     25.9720E-03     189.226E+06     66.9133E+06    -14.1641E+06    -14.1489E+06     189.211E+06     66.9133E+06     1.64592E+06         33.9367
             395     14.6071E-03     49.6484E-03     596.702E-03     575.773E-03        -2.01174     582.365E-03        -2.01155     589.917E-03     3.75207E-03     53.7742E-03    -26.5184E-03    -27.2469E-03    -25.6307E-03     52.2217E-03    -26.5822E-03     21.9920E-03     148.547E+06     19.7812E+06    -17.6479E+06    -17.6144E+06     148.514E+06     19.7812E+06     1.52633E+06         31.5794
             396     13.6325E-03     49.6217E-03     603.285E-03     580.434E-03        -2.02198     593.173E-03        -2.02183     590.396E-03    -10.5424E-03     54.1739E-03    -26.5797E-03    -27.5753E-03    -25.9959E-03     52.5944E-03    -26.5797E-03     22.3084E-03     69.8010E+06    -6.78973E+06    -18.0732E+06    -18.0441E+06     69.7719E+06    -6.78973E+06     784.188E+03         29.6584
             397     12.6583E-03     49.6012E-03     596.947E-03     579.525E-03        -2.01257     585.502E-03        -2.01244     590.843E-03    -5.71115E-03     53.9345E-03    -26.7131E-03    -27.2292E-03    -26.2398E-03     52.9452E-03    -26.7131E-03     17.7407E-03     10.1716E+06    -14.3908E+06    -26.1758E+06    -18.5458E+06    -4.84655E+06    -7.00271E+06    -115.792E+03         28.0757
             398     11.6843E-03     49.5844E-03     592.074E-03     575.177E-03        -2.00505     574.889E-03        -2.00476     592.074E-03     14.5655E-03     53.9172E-03    -26.8266E-03    -27.1265E-03    -26.4271E-03     53.2178E-03    -26.8266E-03     14.9397E-03    -3.22308E+06    -20.3086E+06    -52.7824E+06    -20.3227E+06    -52.7682E+06    -3.22308E+06    -457.732E+03         26.8479
             399     10.7103E-03     49.5699E-03     593.916E-03     575.394E-03        -2.00964     575.089E-03        -2.00933     593.916E-03     6.05568E-03     53.9365E-03    -26.9142E-03    -27.0483E-03    -26.5212E-03     53.4094E-03    -26.9142E-03     13.0045E-03     73.7122E+03    -22.3761E+06    -85.8326E+06    -22.3789E+06    -85.8298E+06     73.7122E+03    -244.030E+03         25.9960
             400     9.73644E-03     49.5571E-03     597.408E-03     583.640E-03        -2.02206     584.977E-03        -2.02152     595.538E-03     23.4153E-03     53.9907E-03    -26.9887E-03    -27.0281E-03    -26.5729E-03     53.5473E-03    -27.0004E-03     11.9484E-03     2.60022E+06    -24.9445E+06    -112.755E+06    -24.9446E+06    -112.755E+06     2.60022E+06    -2.47754E+03         25.4698
             401     8.76259E-03     49.5449E-03     606.959E-03     587.121E-03        -2.03360     597.397E-03        -2.03315     596.238E-03     37.4207E-03     54.0656E-03    -27.0228E-03    -27.0621E-03    -26.6452E-03     53.6799E-03    -27.0540E-03     11.1490E-03      1.8693E+06    -27.9792E+06    -137.520E+06    -27.9793E+06    -137.520E+06      1.8693E+06    -11.6087E+03         25.1205
             402     7.78879E-03     49.5337E-03     605.300E-03     590.546E-03        -2.03339     599.376E-03        -2.03315     596.232E-03     26.6483E-03     54.1285E-03    -27.0261E-03    -27.1058E-03    -26.7001E-03     53.8025E-03    -27.1058E-03     10.2569E-03     372.878E+03    -31.5828E+06    -161.132E+06    -31.5839E+06    -161.131E+06     372.878E+03    -281.224E+03         24.8445
             403     6.81498E-03     49.5235E-03     597.523E-03     583.753E-03        -2.01711     583.226E-03        -2.01637     597.306E-03    -16.1586E-03     54.1852E-03    -27.0322E-03    -27.1567E-03    -26.7578E-03     53.9108E-03    -27.1567E-03     9.41640E-03    -2.40919E+06    -36.0787E+06    -183.674E+06    -36.0806E+06    -183.673E+06    -2.40919E+06    -507.341E+03         24.6202
             404     5.84128E-03     49.5140E-03     600.191E-03     584.003E-03        -2.01782     582.525E-03        -2.01618     600.024E-03     21.9618E-03     54.2197E-03    -27.0484E-03    -27.1732E-03    -26.8196E-03     53.9909E-03    -27.1732E-03     8.60116E-03    -9.40220E+06    -41.2736E+06    -202.527E+06    -41.2747E+06    -202.526E+06    -9.40220E+06    -382.699E+03         24.4358
             405     4.86757E-03     49.5054E-03     604.709E-03     596.800E-03        -2.03766     597.384E-03        -2.03573     602.202E-03     6.92143E-03     54.2746E-03    -27.0837E-03    -27.1902E-03    -26.9017E-03     54.0926E-03    -27.1902E-03     7.66965E-03    -18.3584E+06    -46.5667E+06    -221.719E+06    -46.5673E+06    -221.718E+06    -18.3584E+06    -300.767E+03         24.2793
             406     3.89402E-03     49.4980E-03     612.501E-03     600.757E-03        -2.05017     601.026E-03        -2.04111     603.179E-03     144.750E-03     54.3030E-03    -27.1099E-03    -27.1948E-03    -26.9771E-03     54.1703E-03    -27.1948E-03     6.54069E-03    -28.9955E+06    -51.9771E+06    -242.046E+06    -51.9790E+06    -242.044E+06    -28.9955E+06     -518.43E+03         24.1515
             407     2.92046E-03     49.4918E-03     645.187E-03     603.171E-03        -2.08308     604.383E-03        -2.04263     603.525E-03    -209.113E-03     54.2622E-03    -27.0920E-03    -27.1707E-03    -27.0069E-03     54.1772E-03    -27.1707E-03     5.20851E-03    -41.7688E+06    -57.0401E+06    -254.396E+06    -57.0424E+06    -254.394E+06    -41.7688E+06    -600.586E+03         24.0595
             408     1.94691E-03     49.4871E-03     745.368E-03     592.380E-03        -2.17479     637.231E-03        -2.06665     592.380E-03     242.726E-03     54.2519E-03    -27.1017E-03    -27.1498E-03    -27.0578E-03     54.2081E-03    -27.1498E-03     3.68969E-03    -54.1269E+06    -61.5284E+06    -261.580E+06    -61.5310E+06    -261.577E+06    -54.1269E+06    -115.341E+03         24.0035
             409     973.497E-06     49.4841E-03         1.26711     431.161E-03        -2.53516     13.7070E-03        -1.99940         1.14880    -754.800E-03     54.2620E-03    -27.0664E-03    -27.1967E-03    -27.1729E-03     54.2466E-03    -27.0748E-03     2.09346E-03    -62.5929E+06    -65.3766E+06    -266.329E+06    -65.0181E+06    -266.325E+06    -62.9554E+06     368.525E+03         23.9751
             410     16.5566E-03     48.6485E-03     600.332E-03     583.048E-03        -2.03351     582.688E-03        -2.03315     600.332E-03     10.1378E-03     53.7594E-03    -25.9260E-03    -27.8569E-03    -25.1276E-03     52.0243E-03    -26.9203E-03     17.6346E-03     196.797E+06     114.278E+06    -7.60788E+06     -7.5992E+06     196.788E+06     114.278E+06     1.14661E+06         36.4723
             411     15.5816E-03     48.6135E-03     601.679E-03     584.717E-03        -2.03531     584.594E-03        -2.03519     601.679E-03    -2.68020E-03     54.3654E-03    -26.6944E-03    -27.6712E-03    -25.3483E-03     52.0737E-03    -26.7256E-03     26.1159E-03     189.093E+06     66.3658E+06    -13.4709E+06    -13.4517E+06     189.073E+06     66.3658E+06     1.92090E+06         33.9282
             412     14.6069E-03     48.5938E-03     603.356E-03     578.860E-03        -2.03160     578.758E-03        -2.03149     603.356E-03     1.57928E-03     53.8303E-03    -26.5328E-03    -27.2943E-03    -25.7017E-03     52.2689E-03    -26.5640E-03     22.0790E-03     150.438E+06     17.9962E+06    -16.5348E+06    -16.5194E+06     150.423E+06     17.9962E+06     502.509E+03         31.5728
             413     13.6328E-03     48.5671E-03     605.762E-03     570.136E-03        -2.02558     570.003E-03        -2.02544     605.762E-03     7.72707E-03     54.1771E-03    -26.5569E-03    -27.6046E-03    -26.0142E-03     52.5868E-03    -26.5569E-03     22.3987E-03     69.7652E+06    -9.79990E+06    -17.1897E+06    -17.1789E+06     69.7545E+06    -9.79990E+06    -469.422E+03         29.6537
             414     12.6583E-03     48.5470E-03     608.372E-03     581.847E-03        -2.03998     581.740E-03        -2.03987     608.372E-03     13.7321E-03     53.9245E-03    -26.7031E-03    -27.2270E-03    -26.2226E-03     52.9200E-03    -26.7031E-03     17.8722E-03     8.37601E+06    -14.5755E+06    -24.6189E+06    -17.6718E+06    -5.14693E+06    -7.99960E+06     571.496E+03         28.0724
             415     11.6843E-03     48.5297E-03     610.306E-03     595.468E-03        -2.05870     595.040E-03        -2.05827     610.306E-03     39.7765E-03     53.9002E-03    -26.8195E-03    -27.1146E-03    -26.4122E-03     53.1978E-03    -26.8195E-03     14.9617E-03    -3.56063E+06    -19.3454E+06    -52.5185E+06    -19.4617E+06    -52.4022E+06    -3.56063E+06     478.701E+03         26.8458
             416     10.7104E-03     48.5155E-03     612.069E-03     593.034E-03        -2.05995     592.515E-03        -2.05943     612.069E-03     23.4995E-03     53.9201E-03    -26.9125E-03    -27.0299E-03    -26.5027E-03     53.3928E-03    -26.9125E-03     13.0077E-03    -220.419E+03    -22.0192E+06    -86.2962E+06    -22.0222E+06    -86.2932E+06    -220.419E+03     162.956E+03         25.9947
             417     9.73637E-03     48.5025E-03     614.670E-03     585.481E-03        -2.05331     584.914E-03        -2.05274     614.670E-03     23.1293E-03     54.0021E-03    -26.9968E-03    -27.0281E-03    -26.5758E-03     53.5531E-03    -27.0001E-03     12.0238E-03     2.40945E+06    -24.7679E+06    -112.634E+06    -24.7710E+06    -112.631E+06     2.40945E+06     157.681E+03         25.4689
             418     8.76259E-03     48.4904E-03     618.343E-03     583.735E-03        -2.05184     583.244E-03        -2.05135     618.343E-03     30.6070E-03     54.0659E-03    -27.0215E-03    -27.0636E-03    -26.6417E-03     53.6780E-03    -27.0555E-03     11.1801E-03     1.90437E+06    -27.8279E+06    -137.451E+06    -27.8283E+06    -137.451E+06     1.90437E+06    -56.0560E+03         25.1197
             419     7.78869E-03     48.4792E-03     622.428E-03     592.684E-03        -2.06246     592.349E-03        -2.06213     622.428E-03     22.5314E-03     54.1146E-03    -27.0094E-03    -27.1097E-03    -26.6826E-03     53.7878E-03    -27.1097E-03     10.2675E-03     508.465E+03    -31.4831E+06    -160.861E+06    -31.4839E+06    -160.860E+06     508.465E+03    -219.493E+03         24.8436
             420     6.81492E-03     48.4689E-03     626.286E-03     603.250E-03        -2.07385     602.409E-03        -2.07301     626.286E-03    -14.9022E-03     54.1926E-03    -27.0329E-03    -27.1627E-03    -26.7575E-03     53.9172E-03    -27.1627E-03     9.43423E-03    -2.37779E+06    -35.9204E+06    -183.764E+06    -35.9215E+06    -183.763E+06    -2.37779E+06    -396.206E+03         24.6199
             421     5.84123E-03     48.4595E-03     630.029E-03     609.702E-03        -2.08153     608.878E-03        -2.08071     630.029E-03    -14.7774E-03     54.2345E-03    -27.0566E-03    -27.1797E-03    -26.8266E-03     54.0045E-03    -27.1797E-03     8.62617E-03    -9.37509E+06    -40.9718E+06    -202.665E+06    -40.9732E+06    -202.663E+06    -9.37509E+06    -462.264E+03         24.4362
             422     4.86759E-03     48.4509E-03     633.444E-03     620.425E-03        -2.09847     619.512E-03        -2.09756     633.444E-03    -21.4073E-03     54.2662E-03    -27.0682E-03    -27.1990E-03    -26.8840E-03     54.0820E-03    -27.1990E-03     7.71466E-03    -18.5397E+06    -46.2489E+06    -221.806E+06    -46.2509E+06    -221.804E+06    -18.5397E+06    -576.332E+03         24.2796
             423     3.89394E-03     48.4434E-03     644.125E-03     631.181E-03        -2.12278     630.917E-03        -2.11404     635.656E-03     152.696E-03     54.3044E-03    -27.0952E-03    -27.2109E-03    -26.9605E-03     54.1696E-03    -27.2109E-03     6.58945E-03    -29.1481E+06    -51.5488E+06    -241.991E+06    -51.5522E+06    -241.988E+06    -29.1481E+06    -761.816E+03         24.1513
             424     2.92042E-03     48.4373E-03     666.410E-03     636.868E-03        -2.15059     632.398E-03        -2.11693     637.223E-03    -162.474E-03     54.3132E-03    -27.1199E-03    -27.1932E-03    -27.0335E-03     54.2268E-03    -27.1932E-03     5.25202E-03    -41.6424E+06    -57.0042E+06    -255.108E+06    -57.0068E+06    -255.105E+06    -41.6424E+06    -630.813E+03         24.0594
             425     1.94688E-03     48.4327E-03     721.840E-03     640.503E-03        -2.21299     631.119E-03        -2.12227     640.503E-03     239.704E-03     54.3062E-03    -27.1357E-03    -27.1696E-03    -27.0908E-03     54.2613E-03    -27.1696E-03     3.74196E-03    -53.5579E+06    -61.7290E+06    -262.361E+06    -61.7309E+06    -262.359E+06    -53.5579E+06     109.960E+03         24.0035
             426     973.400E-06     48.4294E-03         1.29064     407.479E-03        -2.54909     55.8740E-03        -2.13686         1.23002    -648.967E-03     54.2859E-03    -27.0785E-03    -27.2070E-03    -27.1832E-03     54.2703E-03    -27.0868E-03     2.06452E-03    -62.0860E+06    -65.0238E+06    -265.847E+06    -64.6649E+06    -265.843E+06    -62.4485E+06     517.566E+03         23.9751
             427     16.5565E-03     47.5942E-03     613.301E-03     591.019E-03        -2.06311     590.546E-03        -2.06264     613.301E-03     20.5738E-03     53.7450E-03    -25.8613E-03    -27.8950E-03    -25.0888E-03     51.9967E-03    -26.9192E-03     17.6594E-03     196.124E+06     113.594E+06    -7.11784E+06    -7.11198E+06     196.118E+06     113.594E+06     799.086E+03         36.4606
             428     15.5814E-03     47.5590E-03     614.987E-03     591.600E-03        -2.06632     591.424E-03        -2.06615     614.987E-03    -4.87692E-03     54.4081E-03    -26.6914E-03    -27.7108E-03    -25.3658E-03     52.0978E-03    -26.7261E-03     26.2366E-03     189.297E+06     66.2994E+06    -11.8688E+06    -11.8601E+06     189.288E+06     66.2994E+06     800.888E+03         33.9184
             429     14.6070E-03     47.5389E-03     617.329E-03     579.322E-03        -2.05964     579.179E-03        -2.05950     617.329E-03     77.4376E-06     53.7757E-03    -26.5514E-03    -27.2189E-03    -25.6337E-03     52.2252E-03    -26.5861E-03     22.0006E-03     151.444E+06     21.8791E+06    -15.4048E+06    -15.3844E+06     151.424E+06     21.8791E+06     615.703E+03         31.5649
             430     13.6324E-03     47.5130E-03     620.808E-03     568.463E-03        -2.05136     568.347E-03        -2.05125     620.808E-03    -1.83922E-03     54.1886E-03    -26.5783E-03    -27.5983E-03    -26.0104E-03     52.6007E-03    -26.5783E-03     22.4043E-03     69.4848E+06    -8.02090E+06    -18.9476E+06    -18.9139E+06     69.4511E+06    -8.02090E+06     617.305E+03         29.6474
             431     12.6584E-03     47.4923E-03     624.612E-03     582.866E-03        -2.06827     582.622E-03        -2.06803     624.612E-03    -14.3472E-03     53.9793E-03    -26.7059E-03    -27.2888E-03    -26.2715E-03     52.9620E-03    -26.7059E-03     17.9904E-03     7.68314E+06    -17.9234E+06    -25.6839E+06    -20.9115E+06    -5.53567E+06    -9.47705E+06     645.750E+03         28.0679
             432     11.6843E-03     47.4754E-03     627.653E-03     600.663E-03        -2.09262     600.016E-03        -2.09197     627.653E-03     19.6245E-03     53.8872E-03    -26.8222E-03    -27.1013E-03    -26.3964E-03     53.1823E-03    -26.8222E-03     14.9885E-03    -3.70030E+06    -21.5471E+06    -51.9746E+06    -21.6822E+06    -51.8395E+06    -3.70030E+06      739.27E+03         26.8428
             433     10.7102E-03     47.4610E-03     630.873E-03     591.917E-03        -2.08849     591.155E-03        -2.08773     630.873E-03     9.28786E-03     53.9095E-03    -26.9131E-03    -27.0198E-03    -26.4915E-03     53.3820E-03    -26.9140E-03     13.0056E-03    -459.482E+03    -22.9782E+06    -86.2962E+06    -22.9916E+06    -86.2828E+06    -459.482E+03     349.678E+03         25.9930
             434     9.73639E-03     47.4481E-03     635.720E-03     580.699E-03        -2.07999     580.269E-03        -2.07956     635.720E-03    -15.2028E-03     53.9830E-03    -26.9893E-03    -27.0195E-03    -26.5541E-03     53.5343E-03    -27.0059E-03     12.0189E-03     2.68373E+06    -25.0489E+06    -112.442E+06    -25.0545E+06    -112.436E+06     2.68373E+06     15.4220E+03         25.4677
             435     8.76245E-03     47.4359E-03     641.826E-03     587.071E-03        -2.08893     586.812E-03        -2.08867     641.826E-03    -1.29158E-03     54.0647E-03    -27.0248E-03    -27.0625E-03    -26.6378E-03     53.6776E-03    -27.0625E-03     11.1633E-03     2.16239E+06    -27.8611E+06    -137.335E+06    -27.8626E+06    -137.333E+06     2.16239E+06    -149.227E+03         25.1183
             436     7.78873E-03     47.4248E-03     648.160E-03     600.398E-03        -2.10656     600.012E-03        -2.10617     648.160E-03     5.95025E-03     54.1334E-03    -27.0242E-03    -27.1165E-03    -26.6995E-03     53.8087E-03    -27.1165E-03     10.2394E-03     882.341E+03    -31.4187E+06    -160.655E+06    -31.4201E+06    -160.653E+06     882.341E+03    -284.141E+03         24.8423
             437     6.81491E-03     47.4144E-03     653.539E-03     624.255E-03        -2.13330     623.813E-03        -2.13285     653.539E-03     310.514E-06     54.1832E-03    -27.0171E-03    -27.1678E-03    -26.7399E-03     53.9060E-03    -27.1678E-03     9.46298E-03    -2.36103E+06    -35.7169E+06    -183.817E+06    -35.7188E+06    -183.815E+06    -2.36103E+06    -434.721E+03         24.6191
             438     5.84115E-03     47.4050E-03     657.493E-03     638.927E-03        -2.15085     638.137E-03        -2.15006     657.493E-03     21.6110E-03     54.2216E-03    -27.0329E-03    -27.1900E-03    -26.8015E-03     53.9902E-03    -27.1900E-03     8.65015E-03    -9.27351E+06    -40.5050E+06    -202.756E+06    -40.5072E+06    -202.754E+06    -9.27351E+06    -563.353E+03         24.4358
             439     4.86746E-03     47.3964E-03     661.672E-03     639.077E-03        -2.15856     637.951E-03        -2.15743     661.672E-03    -797.907E-06     54.2677E-03    -27.0543E-03    -27.2163E-03    -26.8688E-03     54.0822E-03    -27.2163E-03     7.74147E-03    -18.4800E+06    -45.7753E+06    -221.782E+06    -45.7777E+06    -221.780E+06    -18.4800E+06    -644.516E+03         24.2793
             440     3.89384E-03     47.3889E-03     677.507E-03     653.384E-03        -2.19123     659.103E-03        -2.18440     664.959E-03     134.558E-03     54.3170E-03    -27.0827E-03    -27.2363E-03    -26.9462E-03     54.1804E-03    -27.2363E-03     6.63521E-03    -29.3572E+06    -51.4983E+06    -242.259E+06    -51.5009E+06    -242.256E+06    -29.3572E+06    -701.242E+03         24.1507
             441     2.92023E-03     47.3827E-03     694.736E-03     665.643E-03        -2.22247     666.994E-03        -2.19473     665.643E-03    -162.376E-03     54.3807E-03    -27.1553E-03    -27.2255E-03    -27.0671E-03     54.2924E-03    -27.2255E-03     5.31127E-03    -41.6127E+06    -56.9533E+06    -255.886E+06    -56.9547E+06    -255.885E+06    -41.6127E+06    -494.119E+03         24.0588
             442     1.94689E-03     47.3780E-03     724.012E-03     673.572E-03        -2.25876     641.529E-03        -2.17628     673.572E-03     244.398E-03     54.3921E-03    -27.1824E-03    -27.2090E-03    -27.1543E-03     54.3473E-03    -27.1923E-03     3.72984E-03    -53.2277E+06    -61.3738E+06    -262.999E+06    -61.3741E+06    -262.999E+06    -53.2277E+06    -186.698E+03         24.0037
             443     973.452E-06     47.3750E-03         1.31522     407.903E-03        -2.58709     81.8217E-03        -2.22711         1.28132    -607.224E-03     54.3092E-03    -27.0799E-03    -27.2288E-03    -27.2057E-03     54.2942E-03    -27.0880E-03     2.05257E-03    -61.6005E+06    -64.2622E+06    -265.317E+06    -64.2653E+06    -265.314E+06    -61.6005E+06     58.8358E+03         23.9765
             444     16.5564E-03     46.5398E-03     626.554E-03     605.921E-03        -2.10198     605.748E-03        -2.10181     626.554E-03    -2.95373E-03     53.8096E-03    -25.8767E-03    -27.9400E-03    -25.1457E-03     52.0621E-03    -26.9234E-03     17.7109E-03     196.015E+06     114.558E+06    -7.01798E+06    -7.01721E+06     196.015E+06     114.558E+06     33.4544E+03         36.4476
             445     15.5818E-03     46.5043E-03     628.769E-03     587.479E-03        -2.08933     587.326E-03        -2.08917     628.769E-03    -5.25574E-03     54.3700E-03    -26.6241E-03    -27.7481E-03    -25.3329E-03     52.0622E-03    -26.7316E-03     26.2184E-03     189.078E+06     67.1395E+06    -13.0241E+06    -13.0215E+06     189.076E+06     67.1395E+06     106.276E+03         33.9073
             446     14.6068E-03     46.4847E-03     632.279E-03     576.671E-03        -2.08252     576.472E-03        -2.08232     632.279E-03    -7.55830E-03     53.7270E-03    -26.5031E-03    -27.2125E-03    -25.5602E-03     52.1822E-03    -26.6106E-03     21.9482E-03     149.909E+06     24.5581E+06    -17.3924E+06    -17.3653E+06     149.882E+06     24.5581E+06     1.46097E+06         31.5557
             447     13.6324E-03     46.4584E-03     636.270E-03     586.390E-03        -2.09466     586.218E-03        -2.09449     636.270E-03    -7.84691E-03     54.2141E-03    -26.6070E-03    -27.5890E-03    -26.0203E-03     52.6453E-03    -26.6070E-03     22.2604E-03     70.7367E+06    -3.43655E+06    -19.4526E+06    -19.4034E+06     70.6876E+06    -3.43655E+06     2.02437E+06         29.6402
             448     12.6583E-03     46.4378E-03     640.498E-03     585.622E-03        -2.09756     585.253E-03        -2.09719     640.498E-03    -26.6253E-03     53.9778E-03    -26.7191E-03    -27.2731E-03    -26.2718E-03     52.9765E-03    -26.7191E-03     17.8567E-03     10.4395E+06    -16.1774E+06    -26.6659E+06    -20.4335E+06    -4.70166E+06    -7.26871E+06     497.903E+03         28.0625
             449     11.6842E-03     46.4209E-03     645.541E-03     582.816E-03        -2.10153     582.094E-03        -2.10081     645.541E-03     4.23803E-03     53.9091E-03    -26.8334E-03    -27.1131E-03    -26.4101E-03     53.2061E-03    -26.8334E-03     14.9721E-03    -2.45207E+06    -21.3646E+06    -52.0854E+06    -21.3874E+06    -52.0625E+06    -2.45207E+06    -62.4242E+03         26.8391
             450     10.7104E-03     46.4064E-03     651.265E-03     589.998E-03        -2.11658     589.338E-03        -2.11592     651.265E-03     9.72019E-03     53.9211E-03    -26.9186E-03    -27.0283E-03    -26.5026E-03     53.3962E-03    -26.9195E-03     12.9742E-03     542.554E+03    -22.5530E+06    -85.6297E+06    -22.5656E+06    -85.6171E+06     542.554E+03    -83.6055E+03         25.9908
             451     9.73633E-03     46.3937E-03     657.335E-03     597.972E-03        -2.12917     597.311E-03        -2.12851     657.335E-03     5.61455E-03     53.9666E-03    -26.9811E-03    -27.0118E-03    -26.5375E-03     53.5199E-03    -27.0087E-03     11.9901E-03     3.23796E+06    -24.5855E+06    -112.531E+06    -24.5892E+06    -112.527E+06     3.23796E+06    -340.521E+03         25.4662
             452     8.76248E-03     46.3813E-03     664.057E-03     601.757E-03        -2.13582     601.230E-03        -2.13529     664.057E-03     32.4377E-03     54.0456E-03    -27.0006E-03    -27.0658E-03    -26.6127E-03     53.6578E-03    -27.0658E-03     11.1722E-03     2.41891E+06    -27.3507E+06    -137.271E+06    -27.3532E+06    -137.268E+06     2.41891E+06    -338.425E+03         25.1164
             453     7.78864E-03     46.3702E-03     670.894E-03     620.967E-03        -2.15867     620.767E-03        -2.15847     670.894E-03     10.2473E-03     54.1386E-03    -27.0216E-03    -27.1228E-03    -26.6963E-03     53.8133E-03    -27.1228E-03     10.2487E-03     1.14060E+06    -30.7343E+06    -160.816E+06    -30.7361E+06    -160.814E+06     1.14060E+06    -402.751E+03         24.8407
             454     6.81487E-03     46.3600E-03     676.146E-03     649.473E-03        -2.19433     649.287E-03        -2.19415     676.146E-03    -6.01004E-03     54.1967E-03    -27.0230E-03    -27.1749E-03    -26.7458E-03     53.9195E-03    -27.1749E-03     9.46448E-03    -2.07196E+06    -35.0388E+06    -183.580E+06    -35.0408E+06    -183.578E+06    -2.07196E+06    -441.073E+03         24.6184
             455     5.84111E-03     46.3505E-03     680.155E-03     658.125E-03        -2.20818     657.355E-03        -2.20741     680.155E-03     33.0507E-03     54.2088E-03    -27.0119E-03    -27.1982E-03    -26.7812E-03     53.9781E-03    -27.1982E-03     8.63443E-03    -9.46975E+06    -40.1041E+06    -202.925E+06    -40.1069E+06    -202.922E+06    -9.46975E+06    -624.109E+03         24.4355
             456     4.86738E-03     46.3419E-03     686.117E-03     649.010E-03        -2.20906     647.381E-03        -2.20743     686.117E-03    -12.6283E-03     54.2716E-03    -27.0423E-03    -27.2317E-03    -26.8589E-03     54.0881E-03    -27.2317E-03     7.69745E-03    -18.3251E+06    -45.4732E+06    -222.028E+06    -45.4753E+06    -222.026E+06    -18.3251E+06    -531.421E+03         24.2798
             457     3.89373E-03     46.3345E-03     699.379E-03     655.102E-03        -2.23397     654.418E-03        -2.22921     695.300E-03     76.9678E-03     54.3580E-03    -27.1049E-03    -27.2547E-03    -26.9700E-03     54.2231E-03    -27.2547E-03     6.59620E-03    -28.9583E+06    -51.1620E+06    -242.431E+06    -51.1631E+06    -242.430E+06    -28.9583E+06    -373.862E+03         24.1517
             458     2.92022E-03     46.3281E-03     723.399E-03     687.257E-03        -2.28670     682.831E-03        -2.26307     704.190E-03    -195.318E-03     54.4053E-03    -27.1610E-03    -27.2443E-03    -27.0734E-03     54.3178E-03    -27.2443E-03     5.29254E-03    -41.5182E+06    -56.8638E+06    -256.252E+06    -56.8645E+06    -256.251E+06    -41.5182E+06    -297.389E+03         24.0596
             459     1.94676E-03     46.3233E-03     787.502E-03     703.790E-03        -2.36470     720.440E-03        -2.29763     703.790E-03     199.115E-03     54.4172E-03    -27.1806E-03    -27.2352E-03    -27.1527E-03     54.3726E-03    -27.2185E-03     3.71731E-03    -53.6223E+06    -61.6537E+06    -263.548E+06    -61.6545E+06    -263.548E+06    -53.6223E+06    -307.737E+03         24.0051
             460     973.476E-06     46.3205E-03         1.30190     419.128E-03        -2.58474     165.970E-03        -2.26300         1.23332    -592.282E-03     54.3730E-03    -27.1058E-03    -27.2670E-03    -27.2396E-03     54.3580E-03    -27.1181E-03     2.07137E-03    -62.5051E+06    -64.9810E+06    -265.623E+06    -64.8227E+06    -265.621E+06    -62.6656E+06    -256.584E+03         23.9796
             461     16.5567E-03     45.4850E-03     640.750E-03     609.042E-03        -2.13243     608.956E-03        -2.13235     640.750E-03    -14.8123E-03     53.8212E-03    -25.9487E-03    -27.8933E-03    -25.1810E-03     52.0875E-03    -26.9272E-03     17.7150E-03     195.796E+06     115.085E+06    -7.62710E+06    -7.62677E+06     195.795E+06     115.085E+06    -231.096E+03         36.4338
             462     15.5816E-03     45.4500E-03     643.280E-03     603.086E-03        -2.12897     602.701E-03        -2.12859     643.280E-03     10.2463E-03     54.3127E-03    -26.6222E-03    -27.6884E-03    -25.2982E-03     52.0227E-03    -26.7223E-03     26.1044E-03     188.161E+06     65.3626E+06    -13.7717E+06    -13.7690E+06     188.159E+06     65.3626E+06     328.867E+03         33.8952
             463     14.6069E-03     45.4304E-03     646.606E-03     595.594E-03        -2.12210     595.171E-03        -2.12168     646.606E-03     11.2831E-03     53.7377E-03    -26.4813E-03    -27.2522E-03    -25.5950E-03     52.1807E-03    -26.5814E-03     22.0276E-03     148.845E+06     19.5011E+06    -16.6379E+06    -16.6249E+06     148.832E+06     19.5011E+06     1.02440E+06         31.5456
             464     13.6326E-03     45.4036E-03     650.504E-03     597.928E-03        -2.12633     597.524E-03        -2.12593     650.504E-03     16.4631E-03     54.2242E-03    -26.5905E-03    -27.6162E-03    -26.0409E-03     52.6489E-03    -26.5905E-03     22.2925E-03     71.5195E+06    -4.57122E+06    -16.7180E+06    -16.6967E+06     71.4982E+06    -4.57122E+06     956.195E+03         29.6322
             465     12.6584E-03     45.3836E-03     655.357E-03     585.827E-03        -2.11993     585.373E-03        -2.11948     655.357E-03     9.99122E-03     53.9771E-03    -26.7169E-03    -27.2646E-03    -26.2673E-03     52.9798E-03    -26.7169E-03     17.8296E-03     11.7003E+06    -12.2722E+06    -25.0431E+06    -16.7072E+06    -3.42900E+06    -5.47873E+06     655.577E+03         28.0565
             466     11.6843E-03     45.3661E-03     662.117E-03     570.814E-03        -2.11515     570.222E-03        -2.11456     662.117E-03     21.3000E-03     53.9025E-03    -26.8294E-03    -27.1045E-03    -26.3980E-03     53.1960E-03    -26.8294E-03     15.0037E-03    -2.04707E+06    -18.2916E+06    -52.2074E+06    -18.3223E+06    -52.1766E+06    -2.04707E+06     68.4299E+03         26.8349
             467     10.7102E-03     45.3521E-03     669.682E-03     592.947E-03        -2.14605     592.337E-03        -2.14545     669.682E-03     15.5135E-03     53.9250E-03    -26.9207E-03    -27.0267E-03    -26.4981E-03     53.3963E-03    -26.9207E-03     13.0246E-03     1.14380E+06    -20.6681E+06    -85.3853E+06    -20.6702E+06    -85.3831E+06     1.14380E+06    -197.834E+03         25.9883
             468     9.73642E-03     45.3390E-03     676.308E-03     619.015E-03        -2.17716     618.366E-03        -2.17651     676.308E-03     16.9467E-03     53.9890E-03    -26.9832E-03    -27.0323E-03    -26.5571E-03     53.5393E-03    -27.0087E-03     12.0315E-03     3.26217E+06    -23.4099E+06    -112.527E+06    -23.4111E+06    -112.526E+06     3.26217E+06    -180.233E+03         25.4651
             469     8.76244E-03     45.3270E-03     682.500E-03     627.441E-03        -2.19107     626.860E-03        -2.19049     682.500E-03     39.5826E-03     54.0341E-03    -26.9890E-03    -27.0658E-03    -26.6007E-03     53.6457E-03    -27.0658E-03     11.1803E-03     2.31423E+06    -26.6530E+06    -137.321E+06    -26.6546E+06    -137.319E+06     2.31423E+06    -343.954E+03         25.1163
             470     7.78858E-03     45.3156E-03     688.664E-03     642.537E-03        -2.21128     642.351E-03        -2.21109     688.664E-03     9.90224E-03     54.1266E-03    -27.0063E-03    -27.1245E-03    -26.6806E-03     53.8009E-03    -27.1245E-03     10.2512E-03     791.783E+03    -30.4299E+06    -160.989E+06    -30.4311E+06    -160.988E+06     791.783E+03    -387.679E+03         24.8409
             471     6.81483E-03     45.3055E-03     694.668E-03     653.458E-03        -2.22905     653.319E-03        -2.22891     694.668E-03     734.484E-06     54.2077E-03    -27.0301E-03    -27.1798E-03    -26.7555E-03     53.9331E-03    -27.1798E-03     9.42163E-03    -2.24034E+06    -34.9727E+06    -183.636E+06    -34.9736E+06    -183.635E+06    -2.24034E+06    -291.942E+03         24.6188
             472     5.84108E-03     45.2960E-03     701.342E-03     659.191E-03        -2.24449     658.659E-03        -2.24396     701.342E-03     32.8816E-03     54.2282E-03    -27.0276E-03    -27.2023E-03    -26.7983E-03     53.9990E-03    -27.2023E-03     8.61008E-03    -9.62366E+06    -40.1860E+06    -202.934E+06    -40.1874E+06    -202.933E+06    -9.62366E+06    -268.468E+03         24.4365
             473     4.86737E-03     45.2875E-03     709.738E-03     664.401E-03        -2.26033     663.106E-03        -2.25903     709.738E-03    -10.3472E-03     54.2957E-03    -27.0635E-03    -27.2322E-03    -26.8814E-03     54.1135E-03    -27.2322E-03     7.67254E-03    -18.6672E+06    -45.8641E+06    -222.382E+06    -45.8656E+06    -222.381E+06    -18.6672E+06    -336.659E+03         24.2816
             474     3.89377E-03     45.2798E-03     720.976E-03     673.825E-03        -2.28455     669.616E-03        -2.28034     720.976E-03     80.3345E-03     54.3747E-03    -27.1231E-03    -27.2514E-03    -26.9898E-03     54.2414E-03    -27.2514E-03     6.55821E-03    -28.9883E+06    -51.6393E+06    -242.734E+06    -51.6398E+06    -242.733E+06    -28.9883E+06    -116.438E+03         24.1545
             475     2.92028E-03     45.2735E-03     745.156E-03     709.870E-03        -2.34300     706.141E-03        -2.32588     731.768E-03    -150.094E-03     54.3784E-03    -27.1407E-03    -27.2373E-03    -27.0548E-03     54.2925E-03    -27.2373E-03     5.24099E-03    -41.8506E+06    -57.1677E+06    -256.249E+06    -57.1678E+06    -256.248E+06    -41.8506E+06     32.6771E+03         24.0626
             476     1.94676E-03     45.2687E-03     794.342E-03     734.718E-03        -2.41106     740.260E-03        -2.35697     734.718E-03     214.823E-03     54.3736E-03    -27.1458E-03    -27.2267E-03    -27.1021E-03     54.3299E-03    -27.2267E-03     3.67580E-03    -54.3747E+06    -61.9697E+06    -263.708E+06    -61.9703E+06    -263.708E+06    -54.3747E+06    -195.184E+03         24.0074
             477     973.223E-06     45.2657E-03         1.32290     411.950E-03        -2.60847     190.122E-03        -2.34040         1.27666    -536.968E-03     54.4280E-03    -27.1438E-03    -27.2838E-03    -27.2331E-03     54.4132E-03    -27.1797E-03     2.05214E-03    -62.4643E+06    -65.0027E+06    -266.186E+06    -64.8443E+06    -266.183E+06    -62.6249E+06    -252.889E+03         23.9811
             478     16.5565E-03     44.4304E-03     654.681E-03     605.775E-03        -2.15725     605.549E-03        -2.15703     654.681E-03     5.21702E-03     53.7463E-03    -25.9127E-03    -27.8657E-03    -25.1161E-03     52.0055E-03    -26.9216E-03     17.7165E-03     195.736E+06     113.695E+06    -7.71239E+06    -7.71229E+06     195.736E+06     113.695E+06    -72.1415E+03         36.4191
             479     15.5817E-03     44.3957E-03     657.616E-03     619.922E-03        -2.17140     619.550E-03        -2.17103     657.616E-03     9.96428E-03     54.3620E-03    -26.6841E-03    -27.6689E-03    -25.3304E-03     52.0508E-03    -26.7115E-03     26.2586E-03     187.638E+06     62.8221E+06    -13.5561E+06    -13.5553E+06     187.637E+06     62.8221E+06     64.9184E+03         33.8823
             480     14.6070E-03     44.3757E-03     660.320E-03     625.350E-03        -2.17944     625.005E-03        -2.17909     660.320E-03     16.7768E-03     53.7737E-03    -26.5283E-03    -27.2442E-03    -25.6350E-03     52.1919E-03    -26.5557E-03     22.2184E-03     149.226E+06     15.2548E+06    -16.1586E+06    -16.1519E+06     149.220E+06     15.2548E+06    -430.589E+03         31.5348
             481     13.6324E-03     44.3492E-03     664.288E-03     595.370E-03        -2.15147     595.066E-03        -2.15116     664.288E-03     8.16572E-03     54.1919E-03    -26.5698E-03    -27.6097E-03    -26.0114E-03     52.5936E-03    -26.5698E-03     22.4514E-03     70.6600E+06    -8.98157E+06    -16.6679E+06    -16.6574E+06     70.6495E+06    -8.98157E+06    -230.716E+03         29.6235
             482     12.6583E-03     44.3287E-03     670.513E-03     581.568E-03        -2.14393     580.966E-03        -2.14333     670.513E-03    -15.1703E-03     53.9866E-03    -26.7102E-03    -27.2808E-03    -26.2688E-03     52.9746E-03    -26.7102E-03     17.9561E-03     9.23021E+06    -13.9361E+06    -23.6932E+06    -17.2961E+06    -3.48729E+06    -7.61572E+06     922.619E+03         28.0499
             483     11.6842E-03     44.3120E-03     677.773E-03     593.255E-03        -2.16305     592.641E-03        -2.16244     677.773E-03    -8.25415E-03     53.9090E-03    -26.8214E-03    -27.1148E-03    -26.3996E-03     53.1938E-03    -26.8214E-03     15.1011E-03    -3.50287E+06    -18.5492E+06    -51.4275E+06    -18.6266E+06    -51.3502E+06    -3.50287E+06     808.730E+03         26.8304
             484     10.7102E-03     44.2974E-03     685.264E-03     603.787E-03        -2.18063     603.335E-03        -2.18017     685.264E-03    -3.23549E-03     53.9325E-03    -26.9192E-03    -27.0313E-03    -26.4981E-03     53.3993E-03    -26.9192E-03     13.0764E-03     288.008E+03    -20.7926E+06    -85.6173E+06    -20.7994E+06    -85.6105E+06     288.008E+03     458.022E+03         25.9860
             485     9.73626E-03     44.2847E-03     692.835E-03     620.286E-03        -2.20450     619.666E-03        -2.20388     692.835E-03     17.6913E-03     54.0017E-03    -26.9924E-03    -27.0360E-03    -26.5690E-03     53.5536E-03    -27.0113E-03     12.0119E-03     2.79712E+06    -23.7703E+06    -112.097E+06    -23.7745E+06    -112.092E+06     2.79712E+06     350.459E+03         25.4651
             486     8.76243E-03     44.2724E-03     699.581E-03     647.953E-03        -2.23912     647.334E-03        -2.23850     699.581E-03     16.4338E-03     54.0598E-03    -27.0139E-03    -27.0686E-03    -26.6250E-03     53.6709E-03    -27.0686E-03     11.1924E-03     1.87264E+06    -27.2010E+06    -137.287E+06    -27.2015E+06    -137.286E+06     1.87264E+06     27.9492E+03         25.1179
             487     7.78861E-03     44.2613E-03     705.586E-03     659.157E-03        -2.25656     658.966E-03        -2.25637     705.586E-03    -24.9226E-03     54.1355E-03    -27.0145E-03    -27.1253E-03    -26.6878E-03     53.8088E-03    -27.1253E-03     10.2679E-03     298.517E+03    -31.1561E+06    -161.012E+06    -31.1568E+06    -161.012E+06     298.517E+03    -143.306E+03         24.8426
             488     6.81477E-03     44.2509E-03     712.819E-03     655.445E-03        -2.26186     654.987E-03        -2.26140     712.819E-03    -33.6035E-03     54.2074E-03    -27.0276E-03    -27.1821E-03    -26.7546E-03     53.9344E-03    -27.1821E-03     9.39163E-03    -2.44207E+06    -35.4948E+06    -183.903E+06    -35.4951E+06    -183.903E+06    -2.44207E+06    -190.541E+03         24.6200
             489     5.84106E-03     44.2416E-03     721.176E-03     673.402E-03        -2.29197     672.608E-03        -2.29118     721.176E-03     952.769E-06     54.2587E-03    -27.0568E-03    -27.2038E-03    -26.8295E-03     54.0314E-03    -27.2038E-03     8.57752E-03    -9.25913E+06    -40.3807E+06    -202.907E+06    -40.3807E+06    -202.907E+06    -9.25913E+06    -23.1417E+03         24.4381
             490     4.86742E-03     44.2328E-03     728.346E-03     699.146E-03        -2.33039     698.557E-03        -2.32981     728.346E-03     4.20890E-03     54.3218E-03    -27.0955E-03    -27.2256E-03    -26.9131E-03     54.1393E-03    -27.2256E-03     7.68301E-03    -18.5493E+06    -45.8702E+06    -222.477E+06    -45.8707E+06    -222.476E+06    -18.5493E+06    -16.2011E+03         24.2837
             491     3.89388E-03     44.2253E-03     733.949E-03     716.890E-03        -2.35461     713.660E-03        -2.35138     733.949E-03     97.6139E-03     54.3659E-03    -27.1275E-03    -27.2384E-03    -26.9933E-03     54.2317E-03    -27.2384E-03     6.58204E-03    -29.0808E+06    -51.5861E+06    -243.219E+06    -51.5867E+06    -243.218E+06    -29.0808E+06    -34.3628E+03         24.1572
             492     2.92029E-03     44.2189E-03     746.905E-03     728.807E-03        -2.37497     718.024E-03        -2.35751     740.228E-03    -163.177E-03     54.3623E-03    -27.1421E-03    -27.2206E-03    -27.0563E-03     54.2765E-03    -27.2206E-03     5.22811E-03    -41.4303E+06    -56.8854E+06    -256.176E+06    -56.8856E+06    -256.176E+06    -41.4303E+06     21.1709E+03         24.0656
             493     1.94684E-03     44.2142E-03     776.915E-03     747.501E-03        -2.42114     714.655E-03        -2.36511     753.737E-03     215.114E-03     54.3443E-03    -27.1406E-03    -27.2038E-03    -27.0977E-03     54.3015E-03    -27.2038E-03     3.64499E-03    -53.3777E+06    -61.3203E+06    -263.304E+06    -61.3203E+06    -263.304E+06    -53.3777E+06    -55.3583E+03         24.0092
             494     973.444E-06     44.2111E-03         1.33560     431.994E-03        -2.66569     207.910E-03        -2.42510         1.31910    -499.716E-03     54.3678E-03    -27.1242E-03    -27.2434E-03    -27.1952E-03     54.3527E-03    -27.1573E-03     2.09256E-03    -62.0043E+06    -65.0828E+06    -266.809E+06    -64.5905E+06    -266.807E+06    -62.4982E+06    -112.560E+03         23.9806
             495     16.5564E-03     43.3765E-03     667.638E-03     619.519E-03        -2.19344     619.225E-03        -2.19315     667.638E-03     25.8023E-03     53.6722E-03    -25.8379E-03    -27.8930E-03    -25.0521E-03     51.9130E-03    -26.9197E-03     17.7131E-03     195.788E+06     113.011E+06    -7.61874E+06    -7.61865E+06     195.787E+06     113.011E+06     57.0636E+03         36.4038
             496     15.5812E-03     43.3410E-03     670.976E-03     618.618E-03        -2.19275     618.465E-03        -2.19259     670.976E-03     5.84290E-03     54.3958E-03    -26.6891E-03    -27.7127E-03    -25.3479E-03     52.0680E-03    -26.7261E-03     26.3359E-03     187.864E+06     64.5730E+06    -13.5695E+06    -13.5681E+06     187.862E+06     64.5730E+06    -272.343E+03         33.8689
             497     14.6067E-03     43.3213E-03     674.966E-03     614.809E-03        -2.19388     614.642E-03        -2.19371     674.966E-03     14.1244E-03     53.8025E-03    -26.5558E-03    -27.2378E-03    -25.6333E-03     52.2349E-03    -26.5928E-03     22.1246E-03     149.496E+06     20.3670E+06    -17.6372E+06    -17.6271E+06     149.486E+06     20.3670E+06    -478.305E+03         31.5234
             498     13.6324E-03     43.2947E-03     680.110E-03     602.626E-03        -2.18781     602.512E-03        -2.18770     680.110E-03     2.14087E-03     54.1775E-03    -26.5899E-03    -27.5738E-03    -25.9811E-03     52.5848E-03    -26.5899E-03     22.4205E-03     69.4565E+06    -8.50350E+06    -20.4649E+06    -20.4518E+06     69.4435E+06    -8.50350E+06     106.708E+03         29.6143
             499     12.6581E-03     43.2743E-03     686.456E-03     602.566E-03        -2.19359     602.179E-03        -2.19321     686.456E-03    -28.7392E-03     53.9582E-03    -26.7160E-03    -27.2551E-03    -26.2459E-03     52.9490E-03    -26.7160E-03     17.9132E-03     8.04975E+06    -18.3256E+06    -25.4829E+06    -21.5909E+06    -4.20134E+06    -9.96641E+06     492.409E+03         28.0429
             500     11.6840E-03     43.2573E-03     693.031E-03     619.588E-03        -2.21555     619.029E-03        -2.21499     693.031E-03    -8.49471E-03     53.9272E-03    -26.8307E-03    -27.1298E-03    -26.4247E-03     53.2220E-03    -26.8307E-03     15.0020E-03    -4.25177E+06    -22.0068E+06    -50.9338E+06    -22.0657E+06    -50.8749E+06    -4.25177E+06     675.690E+03         26.8258
             501     10.7102E-03     43.2430E-03     699.685E-03     625.951E-03        -2.22753     625.548E-03        -2.22713     699.685E-03    -5.51599E-03     53.9362E-03    -26.9204E-03    -27.0394E-03    -26.5078E-03     53.4073E-03    -26.9231E-03     13.0244E-03    -694.287E+03    -23.3294E+06    -85.6153E+06    -23.3411E+06    -85.6036E+06    -694.287E+03     695.351E+03         25.9840
             502     9.73623E-03     43.2301E-03     706.925E-03     633.475E-03        -2.24116     632.939E-03        -2.24062     706.925E-03     7.24111E-03     53.9903E-03    -26.9976E-03    -27.0208E-03    -26.5572E-03     53.5458E-03    -27.0167E-03     11.9626E-03     2.52342E+06    -25.3518E+06    -111.764E+06    -25.3569E+06    -111.759E+06     2.52342E+06     456.406E+03         25.4655
             503     8.76235E-03     43.2179E-03     714.420E-03     649.260E-03        -2.26446     648.813E-03        -2.26402     714.420E-03     17.9811E-03     54.0823E-03    -27.0317E-03    -27.0736E-03    -26.6456E-03     53.6962E-03    -27.0736E-03     11.1541E-03     1.77908E+06    -28.1536E+06    -136.980E+06    -28.1549E+06    -136.979E+06     1.77908E+06     202.417E+03         25.1195
             504     7.78854E-03     43.2067E-03     722.159E-03     659.192E-03        -2.28271     658.998E-03        -2.28251     722.159E-03    -2.32479E-03     54.1563E-03    -27.0327E-03    -27.1291E-03    -26.7083E-03     53.8319E-03    -27.1291E-03     10.2349E-03     430.881E+03    -31.8246E+06    -160.824E+06    -31.8251E+06    -160.823E+06     430.881E+03    -17.6251E+03         24.8440
             505     6.81485E-03     43.1965E-03     730.369E-03     673.368E-03        -2.30936     672.760E-03        -2.30875     730.369E-03    -32.0905E-03     54.2178E-03    -27.0387E-03    -27.1809E-03    -26.7656E-03     53.9446E-03    -27.1809E-03     9.39681E-03    -2.67136E+06    -36.2687E+06    -183.983E+06    -36.2691E+06    -183.982E+06    -2.67136E+06    -175.629E+03         24.6211
             506     5.84110E-03     43.1869E-03     737.552E-03     703.056E-03        -2.34927     702.334E-03        -2.34854     737.552E-03    -15.1001E-03     54.2639E-03    -27.0667E-03    -27.1993E-03    -26.8384E-03     54.0357E-03    -27.1993E-03     8.59527E-03    -9.58516E+06    -41.2030E+06    -203.136E+06    -41.2034E+06    -203.136E+06    -9.58516E+06    -209.937E+03         24.4393
             507     4.86747E-03     43.1784E-03     743.940E-03     731.583E-03        -2.38674     733.564E-03        -2.38616     741.372E-03    -12.8883E-03     54.3229E-03    -27.1046E-03    -27.2190E-03    -26.9210E-03     54.1394E-03    -27.2190E-03     7.70579E-03    -18.5703E+06    -46.2558E+06    -222.528E+06    -46.2563E+06    -222.528E+06    -18.5703E+06    -117.433E+03         24.2851
             508     3.89383E-03     43.1707E-03     745.839E-03     736.142E-03        -2.39231     734.991E-03        -2.38860     743.271E-03     94.6258E-03     54.3692E-03    -27.1443E-03    -27.2262E-03    -27.0096E-03     54.2345E-03    -27.2262E-03     6.59322E-03    -29.0527E+06    -51.5926E+06    -243.285E+06    -51.5932E+06    -243.284E+06    -29.0527E+06    -104.687E+03         24.1586
             509     2.92040E-03     43.1644E-03     750.609E-03     736.812E-03        -2.39317     717.203E-03        -2.37277     749.814E-03    -183.405E-03     54.3510E-03    -27.1510E-03    -27.1999E-03    -27.0656E-03     54.2656E-03    -27.1999E-03     5.21722E-03    -41.4436E+06    -56.9018E+06    -256.217E+06    -56.9020E+06    -256.217E+06    -41.4436E+06    -113.115E+03         24.0668
             510     1.94692E-03     43.1595E-03     806.701E-03     752.507E-03        -2.46747     744.947E-03        -2.41195     758.743E-03     178.070E-03     54.3177E-03    -27.1375E-03    -27.1796E-03    -27.1068E-03     54.2746E-03    -27.1671E-03     3.66537E-03    -53.3461E+06    -61.2295E+06    -263.277E+06    -61.2297E+06    -263.277E+06    -53.3461E+06    -114.379E+03         24.0098
             511     973.395E-06     43.1566E-03         1.31041     445.303E-03        -2.65704     260.905E-03        -2.42548         1.26325    -483.799E-03     54.2767E-03    -27.0460E-03    -27.2309E-03    -27.2056E-03     54.2609E-03    -27.0555E-03     2.14403E-03    -61.4084E+06    -64.7639E+06    -267.043E+06    -64.2707E+06    -267.043E+06    -61.9023E+06     55.9120E+03         23.9801
             512     16.5562E-03     42.3218E-03     681.092E-03     639.248E-03        -2.23002     639.017E-03        -2.22979     681.092E-03    -6.59559E-03     53.7019E-03    -25.8285E-03    -27.9369E-03    -25.0888E-03     51.9522E-03    -26.9269E-03     17.7245E-03     195.836E+06     114.207E+06    -7.57335E+06    -7.57321E+06     195.836E+06     114.207E+06     108.005E+03         36.3884
             513     15.5817E-03     42.2866E-03     684.732E-03     618.317E-03        -2.21510     618.076E-03        -2.21486     684.732E-03    -426.572E-06     54.3837E-03    -26.6431E-03    -27.7535E-03    -25.3515E-03     52.0821E-03    -26.7435E-03     26.1612E-03     188.292E+06     67.8699E+06    -13.8412E+06    -13.8399E+06     188.291E+06     67.8699E+06    -91.3105E+03         33.8555
             514     14.6068E-03     42.2666E-03     690.296E-03     597.180E-03        -2.20091     596.854E-03        -2.20059     690.296E-03     3.31616E-03     53.7524E-03    -26.5256E-03    -27.2179E-03    -25.5768E-03     52.2118E-03    -26.6260E-03     21.9099E-03     148.496E+06     25.3372E+06    -18.4584E+06    -18.4495E+06     148.488E+06     25.3372E+06     521.408E+03         31.5121
             515     13.6323E-03     42.2404E-03     696.038E-03     632.255E-03        -2.24205     631.987E-03        -2.24178     696.038E-03     310.153E-06     54.1973E-03    -26.6149E-03    -27.5664E-03    -25.9947E-03     52.6256E-03    -26.6149E-03     22.2721E-03     69.7471E+06    -4.31795E+06    -20.9184E+06    -20.9106E+06     69.7393E+06    -4.31795E+06     770.383E+03         29.6051
             516     12.6581E-03     42.2197E-03     700.436E-03     652.967E-03        -2.26899     652.895E-03        -2.26892     700.436E-03     5.92038E-03     53.9675E-03    -26.7245E-03    -27.2566E-03    -26.2594E-03     52.9704E-03    -26.7245E-03     17.8140E-03     9.95913E+06    -17.5235E+06    -26.8968E+06    -21.9125E+06    -4.00832E+06    -8.54026E+06    -144.955E+03         28.0359
             517     11.6841E-03     42.2029E-03     705.381E-03     635.555E-03        -2.25567     635.208E-03        -2.25532     705.381E-03     31.9569E-03     53.9130E-03    -26.8393E-03    -27.1112E-03    -26.4147E-03     53.2165E-03    -26.8393E-03     14.9028E-03    -3.62805E+06    -22.7816E+06    -51.4838E+06    -22.7955E+06    -51.4699E+06    -3.62805E+06    -21.2378E+03         26.8211
             518     10.7102E-03     42.1884E-03     712.147E-03     631.378E-03        -2.25655     630.917E-03        -2.25609     712.147E-03     18.3345E-03     53.9251E-03    -26.9245E-03    -27.0271E-03    -26.5047E-03     53.4055E-03    -26.9272E-03     12.9109E-03    -313.717E+03    -23.8451E+06    -85.3021E+06    -23.8514E+06    -85.2958E+06    -313.717E+03     40.0866E+03         25.9822
             519     9.73620E-03     42.1756E-03     719.698E-03     645.590E-03        -2.27594     645.435E-03        -2.27579     719.698E-03    -13.8745E-03     53.9909E-03    -26.9988E-03    -27.0184E-03    -26.5584E-03     53.5501E-03    -27.0180E-03     11.9138E-03     2.85262E+06    -25.6591E+06    -111.931E+06    -25.6610E+06    -111.930E+06     2.85262E+06    -58.4236E+03         25.4659
             520     8.76241E-03     42.1633E-03     727.243E-03     661.008E-03        -2.29715     660.948E-03        -2.29709     727.243E-03    -4.56854E-03     54.0782E-03    -27.0262E-03    -27.0733E-03    -26.6443E-03     53.6963E-03    -27.0733E-03     11.0912E-03     2.19469E+06    -28.3668E+06    -136.705E+06    -28.3680E+06    -136.703E+06     2.19469E+06     20.6952E+03         25.1203
             521     7.78864E-03     42.1522E-03     734.910E-03     673.386E-03        -2.31991     673.239E-03        -2.31977     734.910E-03     1.67683E-03     54.1499E-03    -27.0279E-03    -27.1285E-03    -26.7071E-03     53.8291E-03    -27.1285E-03     10.1788E-03     814.429E+03    -31.8293E+06    -160.713E+06    -31.8296E+06    -160.713E+06     814.429E+03    -103.292E+03         24.8448
             522     6.81480E-03     42.1419E-03     741.979E-03     698.718E-03        -2.35085     698.317E-03        -2.35045     741.979E-03    -24.2992E-03     54.2177E-03    -27.0409E-03    -27.1788E-03    -26.7673E-03     53.9441E-03    -27.1788E-03     9.40720E-03    -2.30508E+06    -36.1853E+06    -183.819E+06    -36.1858E+06    -183.818E+06    -2.30508E+06    -190.060E+03         24.6219
             523     5.84115E-03     42.1324E-03     747.485E-03     720.158E-03        -2.37780     719.649E-03        -2.37729     747.485E-03    -6.90471E-03     54.2649E-03    -27.0710E-03    -27.1958E-03    -26.8415E-03     54.0354E-03    -27.1958E-03     8.61871E-03    -9.39327E+06    -41.1309E+06    -203.271E+06    -41.1324E+06    -203.269E+06    -9.39327E+06    -428.911E+03         24.4402
             524     4.86743E-03     42.1238E-03     754.401E-03     730.449E-03        -2.39517     732.171E-03        -2.39433     751.833E-03    -27.9166E-03     54.3322E-03    -27.1209E-03    -27.2142E-03    -26.9373E-03     54.1486E-03    -27.2142E-03     7.70846E-03    -18.2234E+06    -46.4731E+06    -222.731E+06    -46.4746E+06    -222.729E+06    -18.2234E+06    -389.912E+03         24.2858
             525     3.89398E-03     42.1161E-03     769.009E-03     739.321E-03        -2.41532     748.892E-03        -2.41047     754.585E-03     102.033E-03     54.3599E-03    -27.1479E-03    -27.2149E-03    -27.0139E-03     54.2259E-03    -27.2149E-03     6.57409E-03    -29.0630E+06    -52.1074E+06    -243.295E+06    -52.1081E+06    -243.294E+06    -29.0630E+06    -225.433E+03         24.1586
             526     2.92043E-03     42.1098E-03     783.849E-03     748.365E-03        -2.44234     757.490E-03        -2.42253     754.910E-03    -152.340E-03     54.3253E-03    -27.1400E-03    -27.1846E-03    -27.0582E-03     54.2400E-03    -27.1811E-03     5.22085E-03    -42.1470E+06    -57.3897E+06    -256.367E+06    -57.3908E+06    -256.366E+06    -42.1470E+06    -373.451E+03         24.0664
             527     1.94692E-03     42.1052E-03     806.717E-03     753.661E-03        -2.47721     756.866E-03        -2.42736     753.661E-03     155.896E-03     54.2942E-03    -27.1289E-03    -27.1633E-03    -27.1091E-03     54.2505E-03    -27.1395E-03     3.68335E-03    -54.2100E+06    -61.5223E+06    -263.599E+06    -61.5232E+06    -263.598E+06    -54.2100E+06    -289.266E+03         24.0095
             528     973.593E-06     42.1019E-03         1.28571     430.493E-03        -2.63352     255.790E-03        -2.42285         1.24974    -470.922E-03     54.2155E-03    -27.0195E-03    -27.1957E-03    -27.1803E-03     54.2000E-03    -27.0195E-03     2.11175E-03    -61.6767E+06    -64.6960E+06    -267.034E+06    -64.2339E+06    -267.034E+06    -62.1389E+06    -108.586E+03         23.9798
             529     16.5565E-03     41.2674E-03     695.535E-03     635.143E-03        -2.24944     634.975E-03        -2.24927     695.535E-03    -15.6082E-03     53.7915E-03    -25.9075E-03    -27.9131E-03    -25.1469E-03     52.0440E-03    -26.9262E-03     17.7233E-03     195.770E+06     114.313E+06    -7.55195E+06    -7.55161E+06     195.769E+06     114.313E+06     21.6402E+03         36.3731
             530     15.5816E-03     41.2318E-03     699.881E-03     629.173E-03        -2.25339     628.782E-03        -2.25300     699.881E-03     7.75484E-03     54.3132E-03    -26.6020E-03    -27.7158E-03    -25.2950E-03     52.0193E-03    -26.7289E-03     26.0861E-03     188.076E+06     65.6433E+06    -13.8542E+06    -13.8489E+06     188.071E+06     65.6433E+06     526.534E+03         33.8422
             531     14.6069E-03     41.2125E-03     704.722E-03     637.201E-03        -2.26736     636.741E-03        -2.26690     704.722E-03     10.5125E-03     53.7242E-03    -26.4675E-03    -27.2498E-03    -25.5649E-03     52.1661E-03    -26.5944E-03     22.0060E-03     148.101E+06     20.6004E+06    -17.5200E+06    -17.5045E+06     148.086E+06     20.6004E+06     515.471E+03         31.5007
             532     13.6324E-03     41.1856E-03     709.287E-03     652.935E-03        -2.28825     652.691E-03        -2.28801     709.287E-03    -4.04844E-03     54.2495E-03    -26.5965E-03    -27.6351E-03    -26.0547E-03     52.6691E-03    -26.5965E-03     22.3142E-03     70.1811E+06    -5.55384E+06    -18.2574E+06    -18.2433E+06     70.1670E+06    -5.55384E+06     175.034E+03         29.5958
             533     12.6583E-03     41.1655E-03     713.477E-03     663.745E-03        -2.30397     663.626E-03        -2.30385     713.477E-03    -4.98928E-03     53.9835E-03    -26.7197E-03    -27.2732E-03    -26.2884E-03     52.9987E-03    -26.7197E-03     17.7214E-03      10.773E+06    -14.6296E+06    -25.2596E+06    -18.9439E+06    -3.49610E+06    -6.67621E+06     286.502E+03         28.0288
             534     11.6842E-03     41.1481E-03     717.951E-03     662.360E-03        -2.30744     662.179E-03        -2.30726     717.951E-03    -7.25538E-03     53.8827E-03    -26.8333E-03    -27.0852E-03    -26.3863E-03     53.1838E-03    -26.8333E-03     14.9219E-03    -2.71495E+06    -20.7508E+06    -51.5413E+06    -20.7733E+06    -51.5188E+06    -2.71495E+06    -197.817E+03         26.8163
             535     10.7103E-03     41.1341E-03     723.678E-03     653.194E-03        -2.30099     653.060E-03        -2.30085     723.678E-03     287.188E-06     53.9281E-03    -26.9238E-03    -27.0282E-03    -26.5091E-03     53.4090E-03    -26.9238E-03     12.9032E-03     491.418E+03    -22.7450E+06    -85.1578E+06    -22.7498E+06    -85.1530E+06     491.418E+03    -430.450E+03         25.9798
             536     9.73636E-03     41.1211E-03     731.189E-03     648.097E-03        -2.30263     648.057E-03        -2.30259     731.189E-03    -14.3296E-03     53.9955E-03    -26.9859E-03    -27.0338E-03    -26.5697E-03     53.5565E-03    -27.0110E-03     11.8897E-03     3.25494E+06    -25.0805E+06    -112.149E+06    -25.0830E+06    -112.146E+06     3.25494E+06    -407.916E+03         25.4652
             537     8.76248E-03     41.1089E-03     739.288E-03     670.710E-03        -2.33352     670.591E-03        -2.33340     739.288E-03    -26.6491E-03     54.0499E-03    -27.0042E-03    -27.0665E-03    -26.6227E-03     53.6685E-03    -27.0665E-03     11.0827E-03     2.70898E+06    -27.9378E+06    -136.869E+06    -27.9396E+06    -136.868E+06     2.70898E+06    -329.208E+03         25.1197
             538     7.78863E-03     41.0977E-03     745.719E-03     705.911E-03        -2.37599     705.796E-03        -2.37587     745.719E-03    -30.9827E-03     54.1365E-03    -27.0211E-03    -27.1231E-03    -26.7010E-03     53.8164E-03    -27.1231E-03     10.1654E-03     1.44264E+06    -31.3312E+06    -160.622E+06    -31.3321E+06    -160.621E+06     1.44264E+06    -281.643E+03         24.8443
             539     6.81490E-03     41.0874E-03     750.051E-03     726.015E-03        -2.39962     725.691E-03        -2.39930     750.051E-03    -49.3657E-03     54.2059E-03    -27.0341E-03    -27.1746E-03    -26.7618E-03     53.9336E-03    -27.1746E-03     9.38351E-03    -1.58617E+06    -35.6615E+06    -183.714E+06    -35.6628E+06    -183.713E+06    -1.58617E+06    -405.089E+03         24.6223
             540     5.84112E-03     41.0779E-03     754.143E-03     727.211E-03        -2.39991     726.754E-03        -2.39946     754.143E-03    -14.8749E-03     54.2596E-03    -27.0697E-03    -27.1913E-03    -26.8398E-03     54.0297E-03    -27.1913E-03     8.62623E-03    -8.80092E+06    -40.6785E+06    -203.265E+06    -40.6804E+06    -203.264E+06    -8.80092E+06    -496.245E+03         24.4406
             541     4.86758E-03     41.0692E-03     759.289E-03     731.982E-03        -2.40797     731.193E-03        -2.40718     759.289E-03    -34.5768E-03     54.3232E-03    -27.1168E-03    -27.2096E-03    -26.9324E-03     54.1388E-03    -27.2096E-03     7.72488E-03    -17.7607E+06    -46.1475E+06    -223.175E+06    -46.1489E+06    -223.174E+06    -17.7607E+06    -359.315E+03         24.2857
             542     3.89396E-03     41.0615E-03     783.050E-03     751.179E-03        -2.44978     768.319E-03        -2.44511     761.246E-03     99.1172E-03     54.3375E-03    -27.1307E-03    -27.2103E-03    -26.9958E-03     54.2025E-03    -27.2103E-03     6.59732E-03    -28.8628E+06    -51.9083E+06    -243.479E+06    -51.9087E+06    -243.478E+06    -28.8628E+06    -210.448E+03         24.1579
             543     2.92043E-03     41.0553E-03     800.551E-03     756.184E-03        -2.47736     781.354E-03        -2.45817     756.184E-03    -151.440E-03     54.3182E-03    -27.1395E-03    -27.1790E-03    -27.0564E-03     54.2316E-03    -27.1755E-03     5.25907E-03    -42.3436E+06    -57.4343E+06    -256.394E+06    -57.4354E+06    -256.392E+06    -42.3436E+06    -329.353E+03         24.0655
             544     1.94702E-03     41.0504E-03     789.770E-03     754.805E-03        -2.47558     743.648E-03        -2.42946     754.805E-03     130.632E-03     54.2809E-03    -27.1302E-03    -27.1491E-03    -27.1015E-03     54.2367E-03    -27.1336E-03     3.69946E-03    -54.6671E+06    -62.0754E+06    -263.932E+06    -62.0764E+06    -263.931E+06    -54.6671E+06    -294.225E+03         24.0087
             545     973.424E-06     41.0477E-03         1.26498     445.298E-03        -2.64219     262.527E-03        -2.44702         1.25258    -482.336E-03     54.2007E-03    -27.0334E-03    -27.1662E-03    -27.1514E-03     54.1859E-03    -27.0334E-03     2.02756E-03    -62.7204E+06    -65.5680E+06    -267.335E+06    -65.1061E+06    -267.335E+06    -63.1825E+06    -91.4128E+03         23.9784
             546     16.5568E-03     40.2129E-03     709.276E-03     629.680E-03        -2.27397     629.580E-03        -2.27387     709.276E-03     9.62072E-03     53.7645E-03    -25.9602E-03    -27.8410E-03    -25.1400E-03     52.0214E-03    -26.9181E-03     17.6698E-03     195.625E+06     113.308E+06    -7.45360E+06    -7.45335E+06     195.624E+06     113.308E+06    -7.02560E+03         36.3578
             547     15.5817E-03     40.1776E-03     713.779E-03     653.918E-03        -2.30168     653.623E-03        -2.30138     713.779E-03     22.6338E-03     54.2441E-03    -26.6229E-03    -27.6244E-03    -25.2441E-03     51.9423E-03    -26.7015E-03     26.1390E-03     187.216E+06     61.5853E+06    -12.6632E+06    -12.6549E+06     187.208E+06     61.5853E+06     41.5265E+03         33.8287
             548     14.6068E-03     40.1580E-03     717.222E-03     679.483E-03        -2.33306     679.162E-03        -2.33274     717.222E-03     26.1913E-03     53.7761E-03    -26.4932E-03    -27.2731E-03    -25.6258E-03     52.2074E-03    -26.5718E-03     22.1134E-03     148.655E+06     18.2019E+06    -15.7157E+06    -15.6863E+06     148.625E+06     18.2019E+06     406.678E+03         31.4893
             549     13.6325E-03     40.1310E-03     721.078E-03     656.042E-03        -2.31208     655.952E-03        -2.31199     721.078E-03     6.33933E-03     54.2670E-03    -26.5906E-03    -27.6557E-03    -26.0780E-03     52.6893E-03    -26.5906E-03     22.3030E-03     70.2203E+06    -5.29503E+06    -18.1033E+06    -18.0723E+06     70.1893E+06    -5.29503E+06     235.251E+03         29.5867
             550     12.6584E-03     40.1109E-03     726.821E-03     644.712E-03        -2.30455     644.471E-03        -2.30431     726.821E-03    -20.2061E-03     53.9630E-03    -26.7119E-03    -27.2594E-03    -26.2808E-03     52.9843E-03    -26.7119E-03     17.6573E-03     10.2375E+06    -14.4534E+06    -24.6438E+06    -18.9680E+06    -3.51878E+06    -6.37296E+06     122.365E+03         28.0218
             551     11.6844E-03     40.0939E-03     732.468E-03     678.557E-03        -2.34657     678.305E-03        -2.34631     732.468E-03    -26.4137E-03     53.8760E-03    -26.8225E-03    -27.0833E-03    -26.3870E-03     53.1796E-03    -26.8225E-03     14.9008E-03    -1.88483E+06    -19.6032E+06    -50.8026E+06    -19.6215E+06    -50.7843E+06    -1.88483E+06     73.1884E+03         26.8113
             552     10.7102E-03     40.0793E-03     736.510E-03     701.604E-03        -2.37279     701.525E-03        -2.37271     736.510E-03    -5.94488E-03     53.9044E-03    -26.9076E-03    -27.0153E-03    -26.4861E-03     53.3832E-03    -26.9157E-03     12.9234E-03     1.31342E+06    -21.5677E+06    -85.2729E+06    -21.5744E+06    -85.2662E+06     1.31342E+06    -347.358E+03         25.9767
             553     9.73647E-03     40.0666E-03     740.561E-03     694.333E-03        -2.36788     694.166E-03        -2.36771     740.561E-03     1.55410E-03     53.9786E-03    -26.9767E-03    -27.0276E-03    -26.5598E-03     53.5393E-03    -27.0052E-03     11.8922E-03     3.93205E+06    -24.1017E+06    -112.103E+06    -24.1056E+06    -112.100E+06     3.93205E+06    -470.324E+03         25.4632
             554     8.76254E-03     40.0543E-03     745.994E-03     691.438E-03        -2.36948     691.161E-03        -2.36921     745.994E-03     13.7952E-03     54.0408E-03    -27.0019E-03    -27.0600E-03    -26.6175E-03     53.6563E-03    -27.0600E-03     11.1267E-03     3.07899E+06    -27.2647E+06    -136.999E+06    -27.2671E+06    -136.996E+06     3.07899E+06    -456.729E+03         25.1181
             555     7.78875E-03     40.0431E-03     751.804E-03     708.094E-03        -2.39179     707.917E-03        -2.39162     751.804E-03     3.50194E-03     54.1282E-03    -27.0195E-03    -27.1153E-03    -26.6970E-03     53.8056E-03    -27.1153E-03     10.2012E-03     1.63774E+06    -31.0729E+06    -160.635E+06    -31.0745E+06    -160.634E+06     1.63774E+06    -418.321E+03         24.8434
             556     6.81493E-03     40.0329E-03     756.504E-03     729.908E-03        -2.41764     729.515E-03        -2.41725     756.504E-03    -41.1524E-03     54.2028E-03    -27.0407E-03    -27.1653E-03    -26.7677E-03     53.9298E-03    -27.1653E-03     9.39648E-03    -1.58704E+06    -35.5886E+06    -183.705E+06    -35.5900E+06    -183.704E+06    -1.58704E+06    -448.664E+03         24.6220
             557     5.84125E-03     40.0233E-03     763.838E-03     742.193E-03        -2.43617     745.749E-03        -2.43551     759.629E-03    -2.86165E-03     54.2324E-03    -27.0504E-03    -27.1830E-03    -26.8185E-03     54.0005E-03    -27.1830E-03     8.66262E-03    -9.01403E+06    -40.8156E+06    -203.531E+06    -40.8166E+06    -203.530E+06    -9.01403E+06    -365.871E+03         24.4402
             558     4.86753E-03     40.0146E-03     765.816E-03     750.318E-03        -2.44510     753.570E-03        -2.44414     761.608E-03    -20.9864E-03     54.2831E-03    -27.0814E-03    -27.2041E-03    -26.8957E-03     54.0975E-03    -27.2041E-03     7.74459E-03    -18.3299E+06    -46.3704E+06    -223.625E+06    -46.3712E+06    -223.624E+06    -18.3299E+06    -348.205E+03         24.2851
             559     3.89392E-03     40.0071E-03     773.510E-03     748.079E-03        -2.45056     754.374E-03        -2.44691     763.562E-03     72.8190E-03     54.3268E-03    -27.1176E-03    -27.2111E-03    -26.9826E-03     54.1918E-03    -27.2111E-03     6.59920E-03    -29.0813E+06    -51.9968E+06    -243.667E+06    -51.9975E+06    -243.667E+06    -29.0813E+06    -240.871E+03         24.1570
             560     2.92044E-03     40.0006E-03     791.597E-03     752.932E-03        -2.48297     760.998E-03        -2.46494     765.494E-03    -176.927E-03     54.3141E-03    -27.1320E-03    -27.1824E-03    -27.0452E-03     54.2273E-03    -27.1824E-03     5.26286E-03    -42.3651E+06    -57.5671E+06    -256.434E+06    -57.5673E+06    -256.434E+06    -42.3651E+06     103.850E+03         24.0638
             561     1.94688E-03     39.9963E-03     826.020E-03     762.211E-03        -2.52677     778.560E-03        -2.47931     762.211E-03     150.475E-03     54.2890E-03    -27.1342E-03    -27.1534E-03    -27.0942E-03     54.2450E-03    -27.1493E-03     3.69260E-03    -54.4990E+06    -62.2457E+06    -264.103E+06    -62.2461E+06    -264.103E+06    -54.4990E+06     42.5150E+03         24.0060
             562     973.553E-06     39.9928E-03         1.25362     459.866E-03        -2.63549     310.202E-03        -2.43817         1.20597    -454.361E-03     54.2377E-03    -27.0750E-03    -27.1609E-03    -27.1446E-03     54.2233E-03    -27.0768E-03     1.98502E-03    -62.8683E+06    -65.6443E+06    -267.436E+06    -65.5460E+06    -267.433E+06    -62.9687E+06    -336.634E+03         23.9755
             563     16.5566E-03     39.1581E-03     721.847E-03     658.999E-03        -2.32505     658.815E-03        -2.32486     721.847E-03     6.47281E-03     53.6986E-03    -25.9125E-03    -27.8541E-03    -25.1253E-03     51.9764E-03    -26.9190E-03     17.6307E-03     195.868E+06     113.751E+06    -7.53978E+06    -7.53879E+06     195.867E+06     113.751E+06    -201.708E+03         36.3426
             564     15.5816E-03     39.1237E-03     725.455E-03     677.368E-03        -2.34621     677.185E-03        -2.34603     725.455E-03     4.12212E-03     54.3326E-03    -26.6859E-03    -27.6531E-03    -25.3399E-03     52.0346E-03    -26.7011E-03     26.2112E-03     187.182E+06     62.2086E+06    -13.2445E+06    -13.2403E+06     187.178E+06     62.2086E+06    -645.205E+03         33.8155
             565     14.6070E-03     39.1030E-03     729.022E-03     675.984E-03        -2.34858     675.796E-03        -2.34839     729.022E-03     20.8737E-03     53.8094E-03    -26.5493E-03    -27.2526E-03    -25.6639E-03     52.2358E-03    -26.5645E-03     22.1876E-03     147.967E+06     18.1610E+06    -16.0512E+06    -16.0250E+06     147.941E+06     18.1610E+06    -198.423E+03         31.4783
             566     13.6328E-03     39.0766E-03     733.194E-03     674.004E-03        -2.34997     673.782E-03        -2.34975     733.194E-03     22.3558E-03     54.2153E-03    -26.5892E-03    -27.6044E-03    -26.0305E-03     52.6414E-03    -26.5892E-03     22.2836E-03     70.5686E+06    -3.65078E+06    -16.4187E+06    -16.3661E+06     70.5161E+06    -3.65078E+06     460.552E+03         29.5777
             567     12.6584E-03     39.0564E-03     738.056E-03     673.018E-03        -2.35522     672.725E-03        -2.35492     738.056E-03     3.25706E-03     53.9661E-03    -26.7092E-03    -27.2581E-03    -26.2705E-03     52.9785E-03    -26.7092E-03     17.7301E-03     10.5290E+06    -12.8241E+06    -23.7345E+06    -17.3167E+06    -3.45687E+06    -5.25601E+06     146.016E+03         28.0148
             568     11.6844E-03     39.0394E-03     743.209E-03     683.562E-03        -2.36889     683.253E-03        -2.36858     743.209E-03     9.01346E-03     53.8992E-03    -26.8128E-03    -27.1133E-03    -26.4142E-03     53.2001E-03    -26.8128E-03     14.9382E-03    -1.76656E+06    -18.8400E+06    -50.4308E+06    -18.8417E+06    -50.4291E+06    -1.76656E+06     9.67848E+03         26.8063
             569     10.7105E-03     39.0249E-03     747.153E-03     717.851E-03        -2.40687     717.672E-03        -2.40669     747.153E-03     25.7859E-03     53.8793E-03    -26.8940E-03    -27.0013E-03    -26.4621E-03     53.3520E-03    -26.9058E-03     12.9963E-03     1.67875E+06    -20.4086E+06    -85.1098E+06    -20.4121E+06    -85.1063E+06     1.67875E+06    -53.0154E+03         25.9734
             570     9.73639E-03     39.0121E-03     754.957E-03     740.948E-03        -2.43850     747.077E-03        -2.43834     748.671E-03     7.31148E-03     53.9504E-03    -26.9749E-03    -26.9992E-03    -26.5310E-03     53.5064E-03    -26.9992E-03     11.9499E-03     4.04757E+06    -23.1646E+06    -112.266E+06    -23.1673E+06    -112.263E+06     4.04757E+06    -190.631E+03         25.4611
             571     8.76260E-03     38.9999E-03     759.432E-03     732.546E-03        -2.43151     742.411E-03        -2.43114     749.201E-03     4.19302E-03     54.0505E-03    -27.0145E-03    -27.0552E-03    -26.6276E-03     53.6636E-03    -27.0552E-03     11.1634E-03     3.00995E+06    -26.7273E+06    -136.970E+06    -26.7282E+06    -136.970E+06     3.00995E+06    -143.829E+03         25.1170
             572     7.78871E-03     38.9887E-03     755.769E-03     712.598E-03        -2.40700     716.221E-03        -2.40668     751.824E-03     16.1245E-03     54.1238E-03    -27.0179E-03    -27.1087E-03    -26.6918E-03     53.7977E-03    -27.1087E-03     10.2591E-03     1.29266E+06    -30.8202E+06    -160.787E+06    -30.8212E+06    -160.786E+06     1.29266E+06    -184.110E+03         24.8427
             573     6.81497E-03     38.9783E-03     756.786E-03     718.530E-03        -2.41134     718.142E-03        -2.41095     756.786E-03    -12.1651E-03     54.1973E-03    -27.0389E-03    -27.1610E-03    -26.7619E-03     53.9203E-03    -27.1610E-03     9.46235E-03    -1.86613E+06    -35.5411E+06    -183.758E+06    -35.5416E+06    -183.758E+06    -1.86613E+06    -160.634E+03         24.6210
             574     5.84126E-03     38.9688E-03     764.883E-03     747.364E-03        -2.44780     751.433E-03        -2.44723     760.249E-03     5.11159E-03     54.2311E-03    -27.0529E-03    -27.1807E-03    -26.8192E-03     53.9973E-03    -27.1807E-03     8.69665E-03    -9.19839E+06    -40.8897E+06    -203.738E+06    -40.8901E+06    -203.738E+06    -9.19839E+06    -105.459E+03         24.4390
             575     4.86754E-03     38.9601E-03     765.663E-03     756.557E-03        -2.45891     760.421E-03        -2.45813     761.029E-03    -8.34763E-03     54.2695E-03    -27.0708E-03    -27.2017E-03    -26.8844E-03     54.0830E-03    -27.2017E-03     7.75987E-03    -18.5401E+06    -46.6336E+06    -223.505E+06    -46.6342E+06    -223.504E+06    -18.5401E+06    -177.859E+03         24.2838
             576     3.89398E-03     38.9525E-03     763.989E-03     744.144E-03        -2.44581     740.753E-03        -2.44242     763.989E-03     83.9221E-03     54.3158E-03    -27.1055E-03    -27.2119E-03    -26.9708E-03     54.1811E-03    -27.2119E-03     6.58780E-03    -29.3269E+06    -52.4786E+06    -244.059E+06    -52.4793E+06    -244.059E+06    -29.3269E+06    -212.023E+03         24.1552
             577     2.92037E-03     38.9464E-03     790.572E-03     753.299E-03        -2.48460     757.888E-03        -2.46729     768.672E-03    -174.830E-03     54.3068E-03    -27.1181E-03    -27.1883E-03    -27.0323E-03     54.2209E-03    -27.1883E-03     5.23311E-03    -42.3132E+06    -57.8688E+06    -256.758E+06    -57.8692E+06    -256.757E+06    -42.3132E+06     32.2725E+03         24.0613
             578     1.94693E-03     38.9414E-03     845.289E-03     762.314E-03        -2.55161     794.810E-03        -2.50113     762.314E-03     184.943E-03     54.2800E-03    -27.1127E-03    -27.1663E-03    -27.0693E-03     54.2366E-03    -27.1663E-03     3.66356E-03    -54.6798E+06    -62.4136E+06    -263.993E+06    -62.4138E+06    -263.993E+06    -54.6798E+06      165.52E+03         24.0033
             579     973.362E-06     38.9387E-03         1.23463     450.890E-03        -2.62386     334.737E-03        -2.44663         1.17356    -347.776E-03     54.2939E-03    -27.0848E-03    -27.2091E-03    -27.1672E-03     54.2794E-03    -27.1121E-03     2.01251E-03    -62.9504E+06    -65.4088E+06    -267.421E+06    -65.2110E+06    -267.419E+06    -63.1503E+06    -343.310E+03         23.9744
             580     16.5564E-03     38.1039E-03     733.630E-03     685.435E-03        -2.37076     685.277E-03        -2.37060     733.630E-03    -4.37658E-03     53.7188E-03    -25.8879E-03    -27.8878E-03    -25.1295E-03     51.9925E-03    -26.9199E-03     17.5971E-03     196.104E+06     114.139E+06    -7.35911E+06    -7.35762E+06     196.103E+06     114.139E+06    -370.462E+03         36.3276
             581     15.5818E-03     38.0688E-03     737.108E-03     679.790E-03        -2.36945     679.603E-03        -2.36927     737.108E-03    -6.84959E-03     54.3838E-03    -26.6769E-03    -27.7178E-03    -25.4037E-03     52.0697E-03    -26.6769E-03     26.3455E-03     187.883E+06     61.8013E+06    -13.2239E+06    -13.2215E+06     187.881E+06     61.8013E+06    -530.641E+03         33.8025
             582     14.6072E-03     38.0488E-03     741.228E-03     680.682E-03        -2.37283     680.451E-03        -2.37260     741.228E-03     6.47823E-03     53.7873E-03    -26.5183E-03    -27.2727E-03    -25.6732E-03     52.1878E-03    -26.5183E-03     22.3683E-03     147.775E+06     13.8846E+06    -16.2693E+06    -16.2507E+06     147.756E+06     13.8846E+06    -1.37592E+06         31.4674
             583     13.6326E-03     38.0221E-03     744.935E-03     705.561E-03        -2.40106     705.290E-03        -2.40079     744.935E-03     15.5934E-03     54.1804E-03    -26.5678E-03    -27.5956E-03    -25.9994E-03     52.5843E-03    -26.5678E-03     22.4290E-03     68.9340E+06    -8.13428E+06    -16.8311E+06    -16.7903E+06     68.8932E+06    -8.13428E+06    -615.602E+03         29.5689
             584     12.6585E-03     38.0018E-03     747.731E-03     717.784E-03        -2.41658     717.480E-03        -2.41628     747.731E-03     520.730E-06     53.9620E-03    -26.7035E-03    -27.2567E-03    -26.2525E-03     52.9578E-03    -26.7035E-03     17.8799E-03     9.20385E+06    -13.1974E+06    -22.9006E+06    -17.0626E+06    -3.26718E+06    -6.56441E+06     859.220E+03         28.0080
             585     11.6844E-03     37.9848E-03     750.510E-03     715.543E-03        -2.41660     715.259E-03        -2.41632     750.510E-03    -8.01937E-03     53.9003E-03    -26.8091E-03    -27.1211E-03    -26.4115E-03     53.1907E-03    -26.8091E-03     15.0441E-03    -2.51163E+06    -18.4684E+06    -50.0475E+06    -18.5722E+06    -49.9437E+06    -2.51163E+06     384.397E+03         26.8016
             586     10.7103E-03     37.9705E-03     753.574E-03     720.594E-03        -2.42430     720.464E-03        -2.42417     753.574E-03     19.0200E-03     53.9151E-03    -26.9001E-03    -27.0336E-03    -26.4954E-03     53.3806E-03    -26.9039E-03     13.0924E-03     887.868E+03    -20.9263E+06    -85.2510E+06    -20.9294E+06    -85.2479E+06     887.868E+03     276.477E+03         25.9708
             587     9.73651E-03     37.9576E-03     762.201E-03     734.356E-03        -2.44844     740.623E-03        -2.44842     755.915E-03    -4.54080E-03     53.9743E-03    -26.9762E-03    -27.0202E-03    -26.5516E-03     53.5251E-03    -26.9956E-03     12.0216E-03     3.39002E+06    -23.6826E+06    -112.192E+06    -23.6859E+06    -112.189E+06     3.39002E+06     357.757E+03         25.4605
             588     8.76250E-03     37.9453E-03     778.791E-03     749.012E-03        -2.47603     771.742E-03        -2.47586     755.888E-03    -29.4170E-03     54.0403E-03    -27.0055E-03    -27.0530E-03    -26.6193E-03     53.6541E-03    -27.0530E-03     11.1516E-03     2.67548E+06    -26.9097E+06    -137.105E+06    -26.9104E+06    -137.105E+06     2.67548E+06     214.677E+03         25.1173
             589     7.78875E-03     37.9342E-03     784.253E-03     743.600E-03        -2.47506     773.778E-03        -2.47483     753.841E-03    -10.4922E-03     54.1208E-03    -27.0136E-03    -27.1086E-03    -26.6868E-03     53.7939E-03    -27.1086E-03     10.2711E-03     1.15189E+06    -30.7374E+06    -160.740E+06    -30.7379E+06    -160.740E+06     1.15189E+06     147.300E+03         24.8425
             590     6.81489E-03     37.9239E-03     767.088E-03     730.311E-03        -2.44848     743.790E-03        -2.44816     753.293E-03    -22.8583E-03     54.2024E-03    -27.0396E-03    -27.1646E-03    -26.7619E-03     53.9248E-03    -27.1646E-03     9.47341E-03    -1.69805E+06    -35.3194E+06    -184.048E+06    -35.3196E+06    -184.048E+06    -1.69805E+06     106.597E+03         24.6200
             591     5.84118E-03     37.9143E-03     756.372E-03     731.770E-03        -2.43634     731.818E-03        -2.43596     755.946E-03    -4.67726E-03     54.2525E-03    -27.0702E-03    -27.1836E-03    -26.8380E-03     54.0203E-03    -27.1836E-03     8.67065E-03    -8.66538E+06    -40.6104E+06    -203.566E+06    -40.6108E+06    -203.566E+06    -8.66538E+06     193.673E+03         24.4374
             592     4.86762E-03     37.9056E-03     763.762E-03     744.552E-03        -2.45571     749.175E-03        -2.45546     758.886E-03     2.20449E-03     54.2797E-03    -27.0796E-03    -27.2021E-03    -26.8946E-03     54.0947E-03    -27.2021E-03     7.73101E-03    -17.9124E+06    -46.3992E+06    -223.243E+06    -46.3994E+06    -223.243E+06    -17.9124E+06     124.913E+03         24.2815
             593     3.89390E-03     37.8980E-03     772.749E-03     753.522E-03        -2.47495     763.929E-03        -2.47184     759.233E-03     110.920E-03     54.3011E-03    -27.0905E-03    -27.2118E-03    -26.9556E-03     54.1662E-03    -27.2118E-03     6.59462E-03    -29.0191E+06    -52.4572E+06    -244.212E+06    -52.4574E+06    -244.211E+06    -29.0191E+06    -33.7142E+03         24.1528
             594     2.92046E-03     37.8916E-03     781.299E-03     748.652E-03        -2.48046     750.508E-03        -2.46123     760.212E-03    -184.853E-03     54.3010E-03    -27.1081E-03    -27.1909E-03    -27.0220E-03     54.2148E-03    -27.1909E-03     5.23805E-03    -42.2005E+06    -58.1194E+06    -257.136E+06    -58.1197E+06    -257.136E+06    -42.2005E+06    -128.638E+03         24.0600
             595     1.94686E-03     37.8871E-03     803.437E-03     758.374E-03        -2.51189     745.860E-03        -2.46306     767.122E-03     140.202E-03     54.2816E-03    -27.1097E-03    -27.1713E-03    -27.0703E-03     54.2387E-03    -27.1678E-03     3.64118E-03    -55.1091E+06    -62.5450E+06    -263.760E+06    -62.5451E+06    -263.759E+06    -55.1091E+06     19.3078E+03         24.0036
             596     973.385E-06     37.8841E-03         1.22213     468.548E-03        -2.63330     347.018E-03        -2.48748         1.19784    -313.537E-03     54.3004E-03    -27.0501E-03    -27.2516E-03    -27.2115E-03     54.2858E-03    -27.0757E-03     2.03493E-03    -63.6694E+06    -65.5413E+06    -267.540E+06    -65.4421E+06    -267.540E+06    -63.7689E+06    -51.0094E+03         23.9752
             597     16.5566E-03     37.0494E-03     744.626E-03     681.034E-03        -2.38411     680.979E-03        -2.38406     744.626E-03     1.24548E-03     53.7462E-03    -25.8922E-03    -27.9043E-03    -25.1283E-03     51.9944E-03    -26.9163E-03     17.6582E-03     196.331E+06     113.741E+06    -7.23650E+06    -7.23278E+06     196.327E+06     113.741E+06    -635.125E+03         36.3133
             598     15.5815E-03     37.0144E-03     748.763E-03     684.327E-03        -2.39433     684.207E-03        -2.39421     748.763E-03     6.50862E-03     54.3604E-03    -26.6513E-03    -27.7172E-03    -25.3590E-03     52.0241E-03    -26.6732E-03     26.4306E-03     187.902E+06     61.0781E+06    -12.7116E+06    -12.7071E+06     187.898E+06     61.0781E+06    -687.654E+03         33.7899
             599     14.6068E-03     36.9941E-03     752.492E-03     709.230E-03        -2.42485     709.035E-03        -2.42465     752.492E-03     3.45905E-03     53.7835E-03    -26.5209E-03    -27.2652E-03    -25.6441E-03     52.1843E-03    -26.5427E-03     22.3556E-03     148.221E+06     16.6776E+06    -17.1287E+06    -17.1114E+06     148.204E+06     16.6776E+06    -422.002E+03         31.4568
             600     13.6327E-03     36.9678E-03     755.206E-03     726.316E-03        -2.44217     725.861E-03        -2.44171     755.206E-03     26.6097E-03     54.2158E-03    -26.5886E-03    -27.6142E-03    -26.0131E-03     52.6148E-03    -26.5886E-03     22.4699E-03     67.8402E+06    -7.56244E+06    -20.5742E+06    -20.5476E+06     67.8136E+06    -7.56244E+06    -482.751E+03         29.5604
             601     12.6583E-03     36.9472E-03     757.381E-03     737.717E-03        -2.45245     737.328E-03        -2.45188     757.205E-03    -2.34944E-03     53.9370E-03    -26.7068E-03    -27.2404E-03    -26.2307E-03     52.9273E-03    -26.7068E-03     17.9283E-03     7.81935E+06    -17.2894E+06    -24.6954E+06    -21.1228E+06    -3.91003E+06    -9.13254E+06    -214.399E+03         28.0017
             602     11.6842E-03     36.9304E-03     759.904E-03     752.359E-03        -2.47214     753.625E-03        -2.47181     758.308E-03    -23.8362E-03     53.8946E-03    -26.8178E-03    -27.1117E-03    -26.4024E-03     53.1853E-03    -26.8178E-03     15.0295E-03    -3.24164E+06    -20.9333E+06    -50.1189E+06    -21.1125E+06    -49.9397E+06    -3.24164E+06     431.668E+03         26.7974
             603     10.7103E-03     36.9160E-03     760.635E-03     744.535E-03        -2.46777     745.842E-03        -2.46765     759.214E-03     10.5208E-03     53.9531E-03    -26.9099E-03    -27.0620E-03    -26.5331E-03     53.4242E-03    -26.9099E-03     13.0324E-03     175.800E+03    -22.5623E+06    -85.3877E+06    -22.5722E+06    -85.3778E+06     175.800E+03     474.191E+03         25.9691
             604     9.73637E-03     36.9031E-03     763.896E-03     741.446E-03        -2.46357     744.638E-03        -2.46355     760.685E-03     563.880E-06     54.0030E-03    -26.9937E-03    -27.0331E-03    -26.5775E-03     53.5543E-03    -27.0006E-03     12.0211E-03     3.17104E+06    -24.7726E+06    -111.859E+06    -24.7762E+06    -111.855E+06     3.17104E+06     372.496E+03         25.4613
             605     8.76260E-03     36.8910E-03     776.914E-03     753.839E-03        -2.48480     769.707E-03        -2.48478     761.030E-03     10.4410E-03     54.0537E-03    -27.0189E-03    -27.0553E-03    -26.6320E-03     53.6668E-03    -27.0553E-03     11.1635E-03     2.53840E+06    -27.5669E+06    -137.120E+06    -27.5680E+06    -137.119E+06     2.53840E+06     306.837E+03         25.1188
             606     7.78865E-03     36.8796E-03     790.214E-03     758.307E-03        -2.50098     789.844E-03        -2.50093     758.623E-03     13.9550E-03     54.1319E-03    -27.0273E-03    -27.1089E-03    -26.7018E-03     53.8064E-03    -27.1089E-03     10.2500E-03     1.18493E+06    -31.1662E+06    -160.582E+06    -31.1668E+06    -160.582E+06     1.18493E+06     229.815E+03         24.8431
             607     6.81495E-03     36.8693E-03     780.408E-03     751.634E-03        -2.48555     776.348E-03        -2.48507     755.212E-03    -45.5320E-03     54.2120E-03    -27.0535E-03    -27.1610E-03    -26.7788E-03     53.9374E-03    -27.1610E-03     9.42366E-03    -1.75914E+06    -35.6167E+06    -184.160E+06    -35.6171E+06    -184.160E+06    -1.75914E+06     215.044E+03         24.6195
             608     5.84128E-03     36.8598E-03     762.734E-03     739.328E-03        -2.45878     747.212E-03        -2.45828     754.342E-03    -49.4735E-03     54.2391E-03    -27.0626E-03    -27.1785E-03    -26.8329E-03     54.0094E-03    -27.1785E-03     8.62124E-03    -8.60422E+06    -40.6697E+06    -203.583E+06    -40.6703E+06    -203.582E+06    -8.60422E+06     292.396E+03         24.4360
             609     4.86755E-03     36.8512E-03     762.549E-03     743.970E-03        -2.46571     750.746E-03        -2.46534     755.406E-03    -38.2992E-03     54.2626E-03    -27.0673E-03    -27.1985E-03    -26.8848E-03     54.0801E-03    -27.1985E-03     7.67662E-03    -17.6926E+06    -46.2456E+06    -223.166E+06    -46.2462E+06    -223.165E+06    -17.6926E+06     300.841E+03         24.2794
             610     3.89405E-03     36.8436E-03     769.013E-03     751.422E-03        -2.48399     762.424E-03        -2.48090     754.918E-03     91.9662E-03     54.2843E-03    -27.0729E-03    -27.2111E-03    -26.9380E-03     54.1494E-03    -27.2111E-03     6.59854E-03    -28.6653E+06    -52.0536E+06    -243.935E+06    -52.0538E+06    -243.935E+06    -28.6653E+06     159.060E+03         24.1516
             611     2.92032E-03     36.8373E-03     766.944E-03     744.590E-03        -2.47322     734.531E-03        -2.45410     757.877E-03    -187.580E-03     54.3005E-03    -27.1027E-03    -27.1940E-03    -27.0154E-03     54.2132E-03    -27.1940E-03     5.26756E-03    -41.9799E+06    -57.7122E+06    -257.248E+06    -57.7123E+06    -257.248E+06    -41.9799E+06    -58.7912E+03         24.0607
             612     1.94691E-03     36.8325E-03     783.672E-03     762.801E-03        -2.49477     729.359E-03        -2.45025     772.592E-03     108.387E-03     54.3183E-03    -27.1403E-03    -27.1768E-03    -27.1098E-03     54.2753E-03    -27.1641E-03     3.65658E-03    -54.3553E+06    -62.2318E+06    -263.835E+06    -62.2319E+06    -263.835E+06    -54.3553E+06    -66.0617E+03         24.0050
             613     973.516E-06     36.8296E-03         1.21782     471.296E-03        -2.63387     359.907E-03        -2.51140         1.20674    -281.989E-03     54.2661E-03    -27.0615E-03    -27.2046E-03    -27.1898E-03     54.2512E-03    -27.0615E-03     2.05535E-03    -63.0544E+06    -65.6013E+06    -267.527E+06    -65.3241E+06    -267.525E+06    -63.3336E+06     335.284E+03         23.9753
             614     16.5563E-03     35.9951E-03     754.731E-03     675.687E-03        -2.40756     675.548E-03        -2.40742     754.731E-03     1.50904E-03     53.7636E-03    -25.8809E-03    -27.9331E-03    -25.1344E-03     52.0106E-03    -26.9266E-03     17.7215E-03     196.936E+06     115.087E+06    -7.73208E+06    -7.72858E+06     196.933E+06     115.087E+06    -643.470E+03         36.2997
             615     15.5816E-03     35.9597E-03     758.799E-03     709.992E-03        -2.44283     709.813E-03        -2.44265     758.799E-03     6.13676E-03     54.4132E-03    -26.6908E-03    -27.7236E-03    -25.3784E-03     52.0898E-03    -26.7126E-03     26.3376E-03     187.436E+06     63.5839E+06    -14.1607E+06    -14.1557E+06     187.431E+06     63.5839E+06    -788.099E+03         33.7783
             616     14.6069E-03     35.9399E-03     761.732E-03     726.331E-03        -2.46272     726.136E-03        -2.46253     761.732E-03     9.69156E-03     53.7944E-03    -26.5753E-03    -27.2113E-03    -25.6170E-03     52.2218E-03    -26.5971E-03     22.1593E-03     146.906E+06     21.4579E+06    -17.5661E+06    -17.5557E+06     146.896E+06     21.4579E+06     392.451E+03         31.4472
             617     13.6322E-03     35.9129E-03     764.519E-03     735.893E-03        -2.47351     735.834E-03        -2.47304     764.116E-03     29.8406E-03     54.2131E-03    -26.6140E-03    -27.5814E-03    -26.0049E-03     52.6367E-03    -26.6140E-03     22.2885E-03     69.2228E+06    -2.80389E+06    -19.0849E+06    -19.0657E+06     69.2037E+06    -2.80389E+06     418.834E+03         29.5529
             618     12.6583E-03     35.8932E-03     768.736E-03     756.452E-03        -2.49313     758.937E-03        -2.49242     765.544E-03    -7.78702E-03     53.9629E-03    -26.7172E-03    -27.2585E-03    -26.2630E-03     52.9674E-03    -26.7172E-03     17.8124E-03     9.96353E+06    -16.4900E+06    -26.0000E+06    -20.6146E+06    -4.12226E+06    -7.78950E+06    -969.514E+03         27.9962
             619     11.6842E-03     35.8756E-03     770.038E-03     764.272E-03        -2.50090     767.953E-03        -2.50038     765.830E-03    -13.9537E-03     53.9132E-03    -26.8270E-03    -27.1201E-03    -26.4154E-03     53.2085E-03    -26.8270E-03     14.9842E-03    -2.89472E+06    -21.6546E+06    -51.2996E+06    -21.7599E+06    -51.1943E+06    -2.89472E+06    -453.934E+03         26.7939
             620     10.7103E-03     35.8615E-03     775.579E-03     762.969E-03        -2.50559     772.848E-03        -2.50539     765.499E-03     16.9573E-03     53.9425E-03    -26.9142E-03    -27.0465E-03    -26.5233E-03     53.4194E-03    -26.9142E-03     12.9581E-03     558.761E+03    -22.8361E+06    -84.9667E+06    -22.8441E+06    -84.9588E+06     558.761E+03     159.750E+03         25.9677
             621     9.73638E-03     35.8486E-03     783.118E-03     763.374E-03        -2.51219     782.075E-03        -2.51212     764.346E-03    -20.6686E-03     54.0011E-03    -26.9982E-03    -27.0274E-03    -26.5761E-03     53.5560E-03    -27.0044E-03     11.9726E-03     3.28598E+06    -24.8673E+06    -112.041E+06    -24.8681E+06    -112.040E+06     3.28598E+06     22.0154E+03         25.4616
             622     8.76245E-03     35.8364E-03     773.139E-03     761.528E-03        -2.49943     771.593E-03        -2.49938     763.027E-03    -3.56973E-03     54.0815E-03    -27.0437E-03    -27.0595E-03    -26.6610E-03     53.6963E-03    -27.0571E-03     11.1405E-03     2.57316E+06    -27.7537E+06    -137.004E+06    -27.7544E+06    -137.004E+06     2.57316E+06     103.064E+03         25.1198
             623     7.78882E-03     35.8252E-03     767.563E-03     759.703E-03        -2.49039     764.770E-03        -2.49033     762.438E-03     9.94933E-03     54.1568E-03    -27.0532E-03    -27.1085E-03    -26.7310E-03     53.8321E-03    -27.1061E-03     10.2414E-03     1.20896E+06    -31.3182E+06    -160.518E+06    -31.3188E+06    -160.517E+06     1.20896E+06     229.110E+03         24.8434
             624     6.81502E-03     35.8147E-03     782.133E-03     759.688E-03        -2.50706     780.623E-03        -2.50679     760.925E-03    -25.1447E-03     54.2041E-03    -27.0521E-03    -27.1536E-03    -26.7761E-03     53.9281E-03    -27.1536E-03     9.44499E-03    -2.01449E+06    -35.8039E+06    -184.098E+06    -35.8047E+06    -184.097E+06    -2.01449E+06     320.191E+03         24.6189
             625     5.84130E-03     35.8053E-03     783.034E-03     757.448E-03        -2.50918     782.756E-03        -2.50890     757.448E-03    -33.0358E-03     54.2134E-03    -27.0462E-03    -27.1706E-03    -26.8152E-03     53.9825E-03    -27.1706E-03     8.64337E-03    -9.13368E+06    -40.8902E+06    -203.725E+06    -40.8908E+06    -203.724E+06    -9.13368E+06     291.593E+03         24.4351
             626     4.86767E-03     35.7966E-03     764.751E-03     752.181E-03        -2.48665     761.597E-03        -2.48598     754.668E-03    -62.0841E-03     54.2393E-03    -27.0507E-03    -27.1932E-03    -26.8670E-03     54.0555E-03    -27.1932E-03     7.70087E-03    -18.0719E+06    -46.1258E+06    -223.010E+06    -46.1263E+06    -223.010E+06    -18.0719E+06     227.642E+03         24.2789
             627     3.89391E-03     35.7892E-03     756.195E-03     746.109E-03        -2.47130     742.593E-03        -2.46720     755.616E-03     86.6956E-03     54.2900E-03    -27.0812E-03    -27.2088E-03    -26.9463E-03     54.1551E-03    -27.2088E-03     6.59626E-03    -28.5815E+06    -51.7068E+06    -243.760E+06    -51.7070E+06    -243.760E+06    -28.5815E+06     158.258E+03         24.1518
             628     2.92043E-03     35.7827E-03     776.488E-03     750.447E-03        -2.49198     750.935E-03        -2.47449     758.509E-03    -153.529E-03     54.2966E-03    -27.1041E-03    -27.1911E-03    -27.0168E-03     54.2093E-03    -27.1911E-03     5.27309E-03    -41.6864E+06    -57.2712E+06    -257.092E+06    -57.2714E+06    -257.092E+06    -41.6864E+06     108.023E+03         24.0610
             629     1.94688E-03     35.7779E-03     812.263E-03     755.866E-03        -2.52083     768.190E-03        -2.47780     756.909E-03     134.368E-03     54.2947E-03    -27.1133E-03    -27.1809E-03    -27.0782E-03     54.2505E-03    -27.1717E-03     3.70984E-03    -54.0175E+06    -61.9815E+06    -264.190E+06    -61.9816E+06    -264.190E+06    -54.0175E+06    -29.1910E+03         24.0051
             630     973.457E-06     35.7748E-03         1.19219     451.114E-03        -2.60215     353.082E-03        -2.46674         1.15481    -299.620E-03     54.3024E-03    -27.0920E-03    -27.2093E-03    -27.1685E-03     54.2868E-03    -27.1173E-03     2.09531E-03    -62.0374E+06    -65.3976E+06    -267.317E+06    -65.1214E+06    -267.314E+06    -62.3166E+06     48.4102E+03         23.9756
             631     16.5564E-03     34.9403E-03     763.815E-03     692.081E-03        -2.43907     691.851E-03        -2.43884     763.815E-03    -23.7414E-03     53.7623E-03    -25.9122E-03    -27.9047E-03    -25.1478E-03     52.0267E-03    -26.9335E-03     17.6377E-03     197.133E+06     116.029E+06    -7.95563E+06    -7.95515E+06     197.132E+06     116.029E+06    -268.369E+03         36.2877
             632     15.5815E-03     34.9053E-03     767.484E-03     723.924E-03        -2.47099     723.629E-03        -2.47069     767.484E-03    -15.0309E-03     54.4208E-03    -26.7196E-03    -27.6977E-03    -25.3875E-03     52.1131E-03    -26.7222E-03     26.2668E-03     187.569E+06     65.2592E+06    -14.3146E+06    -14.3119E+06     187.566E+06     65.2592E+06    -615.662E+03         33.7680
             633     14.6070E-03     34.8853E-03     770.274E-03     734.104E-03        -2.47941     733.913E-03        -2.47922     770.274E-03     3.70149E-03     53.8230E-03    -26.5754E-03    -27.2415E-03    -25.6699E-03     52.2540E-03    -26.5779E-03     22.1515E-03     146.024E+06     18.4990E+06    -17.0307E+06    -17.0020E+06     145.995E+06     18.4990E+06    -1.06386E+06         31.4389
             634     13.6327E-03     34.8587E-03     772.747E-03     753.392E-03        -2.49939     753.632E-03        -2.49922     772.343E-03     2.72145E-03     54.1851E-03    -26.5924E-03    -27.5691E-03    -26.0034E-03     52.6194E-03    -26.5924E-03     22.2080E-03     69.3545E+06    -4.49310E+06    -16.5551E+06    -16.5277E+06     69.3272E+06    -4.49310E+06    -481.347E+03         29.5466
             635     12.6582E-03     34.8384E-03     779.813E-03     772.857E-03        -2.52556     779.391E-03        -2.52520     772.917E-03    -16.2754E-03     53.9576E-03    -26.7148E-03    -27.2438E-03    -26.2548E-03     52.9687E-03    -26.7148E-03     17.7535E-03     11.0448E+06    -12.6712E+06    -24.9712E+06    -16.9805E+06    -3.74666E+06    -5.87045E+06     95.8348E+03         27.9917
             636     11.6844E-03     34.8213E-03     785.955E-03     770.734E-03        -2.53287     783.977E-03        -2.53245     772.291E-03    -7.20685E-03     53.9235E-03    -26.8234E-03    -27.1290E-03    -26.4226E-03     53.2172E-03    -26.8234E-03     15.0084E-03    -2.59121E+06    -19.1956E+06    -51.8998E+06    -19.2495E+06    -51.8459E+06    -2.59121E+06      -205.9E+03         26.7912
             637     10.7102E-03     34.8069E-03     792.241E-03     769.436E-03        -2.53908     790.529E-03        -2.53893     770.993E-03     22.3974E-03     53.9328E-03    -26.9132E-03    -27.0355E-03    -26.5117E-03     53.4091E-03    -26.9132E-03     12.9612E-03     992.065E+03    -21.6604E+06    -84.8830E+06    -21.6621E+06    -84.8813E+06     992.065E+03    -114.331E+03         25.9664
             638     9.73640E-03     34.7942E-03     790.188E-03     767.399E-03        -2.53259     788.318E-03        -2.53253     769.211E-03    -16.1708E-03     54.0127E-03    -26.9948E-03    -27.0402E-03    -26.5922E-03     53.5702E-03    -27.0004E-03     11.9399E-03     3.14601E+06    -24.4247E+06    -112.113E+06    -24.4254E+06    -112.112E+06     3.14601E+06     108.405E+03         25.4606
             639     8.76262E-03     34.7817E-03     783.821E-03     764.593E-03        -2.52109     780.790E-03        -2.52105     767.589E-03    -17.5180E-03     54.0784E-03    -27.0319E-03    -27.0666E-03    -26.6621E-03     53.6943E-03    -27.0524E-03     11.1241E-03     2.23255E+06    -27.7685E+06    -137.023E+06    -27.7690E+06    -137.022E+06     2.23255E+06     85.5870E+03         25.1186
             640     7.78875E-03     34.7706E-03     790.430E-03     763.085E-03        -2.52441     787.927E-03        -2.52432     765.504E-03     4.80762E-03     54.1402E-03    -27.0387E-03    -27.1047E-03    -26.7164E-03     53.8154E-03    -27.1023E-03     10.2426E-03     765.193E+03    -31.5183E+06    -160.811E+06    -31.5188E+06    -160.811E+06     765.193E+03     241.475E+03         24.8422
             641     6.81502E-03     34.7603E-03     793.586E-03     760.705E-03        -2.52601     792.250E-03        -2.52591     761.942E-03     11.5786E-03     54.1896E-03    -27.0385E-03    -27.1522E-03    -26.7603E-03     53.9114E-03    -27.1522E-03     9.48217E-03    -2.30668E+06    -35.8426E+06    -184.057E+06    -35.8434E+06    -184.056E+06    -2.30668E+06     329.680E+03         24.6179
             642     5.84130E-03     34.7508E-03     786.610E-03     757.320E-03        -2.51737     786.442E-03        -2.51720     757.320E-03     27.9111E-03     54.2031E-03    -27.0336E-03    -27.1718E-03    -26.8008E-03     53.9704E-03    -27.1718E-03     8.67427E-03    -9.30452E+06    -40.6834E+06    -203.574E+06    -40.6838E+06    -203.574E+06    -9.30452E+06     227.683E+03         24.4351
             643     4.86754E-03     34.7422E-03     771.737E-03     750.832E-03        -2.49859     768.720E-03        -2.49806     753.320E-03    -7.74585E-03     54.2529E-03    -27.0607E-03    -27.1952E-03    -26.8750E-03     54.0671E-03    -27.1952E-03     7.74528E-03    -18.2737E+06    -46.0845E+06    -222.932E+06    -46.0850E+06    -222.932E+06    -18.2737E+06     200.106E+03         24.2799
             644     3.89403E-03     34.7346E-03     762.135E-03     745.833E-03        -2.48649     750.975E-03        -2.48134     751.843E-03     137.638E-03     54.3111E-03    -27.1048E-03    -27.2074E-03    -26.9683E-03     54.1746E-03    -27.2074E-03     6.63522E-03    -28.9134E+06    -51.8440E+06    -243.653E+06    -51.8444E+06    -243.653E+06    -28.9134E+06     159.313E+03         24.1526
             645     2.92044E-03     34.7282E-03     786.740E-03     746.262E-03        -2.50978     762.389E-03        -2.48895     749.785E-03    -150.269E-03     54.2912E-03    -27.1022E-03    -27.1895E-03    -27.0141E-03     54.2031E-03    -27.1895E-03     5.29924E-03    -41.5138E+06    -57.1525E+06    -256.882E+06    -57.1527E+06    -256.882E+06    -41.5138E+06     73.7533E+03         24.0612
             646     1.94688E-03     34.7236E-03     823.739E-03     739.231E-03        -2.52995     772.808E-03        -2.47902     739.231E-03     154.000E-03     54.2774E-03    -27.0992E-03    -27.1777E-03    -27.0544E-03     54.2326E-03    -27.1777E-03     3.72501E-03    -53.9584E+06    -61.6369E+06    -264.295E+06    -61.6371E+06    -264.295E+06    -53.9584E+06     23.1608E+03         24.0055
             647     973.276E-06     34.7204E-03         1.16570     462.789E-03        -2.59569     348.496E-03        -2.42873         1.11303    -349.430E-03     54.3328E-03    -27.0867E-03    -27.2445E-03    -27.1967E-03     54.3174E-03    -27.1192E-03     2.08086E-03    -61.8370E+06    -65.1269E+06    -267.479E+06    -64.4915E+06    -267.477E+06    -62.4748E+06    -485.498E+03         23.9774
             648     16.5565E-03     33.8860E-03     771.296E-03     712.831E-03        -2.46480     712.714E-03        -2.46468     771.296E-03    -23.2597E-03     53.7094E-03    -25.9142E-03    -27.8691E-03    -25.1406E-03     51.9872E-03    -26.9207E-03     17.5678E-03     197.449E+06     114.103E+06    -7.56478E+06    -7.56442E+06     197.449E+06     114.103E+06    -144.620E+03         36.2776
             649     15.5817E-03     33.8507E-03     774.820E-03     721.828E-03        -2.48124     721.614E-03        -2.48102     774.820E-03    -845.397E-06     54.3316E-03    -26.6905E-03    -27.6507E-03    -25.3353E-03     52.0279E-03    -26.7022E-03     26.2557E-03     188.352E+06     62.3693E+06    -13.2983E+06    -13.2934E+06     188.347E+06     62.3693E+06    -785.116E+03         33.7596
             650     14.6069E-03     33.8305E-03     779.746E-03     746.682E-03        -2.50919     748.734E-03        -2.50909     777.594E-03     22.8952E-03     53.8037E-03    -26.5347E-03    -27.2682E-03    -25.6737E-03     52.2209E-03    -26.5464E-03     22.2569E-03     146.664E+06     13.7166E+06    -16.6535E+06    -16.6161E+06     146.627E+06     13.7166E+06    -2.02832E+06         31.4322
             651     13.6326E-03     33.8041E-03     781.019E-03     771.506E-03        -2.52973     773.595E-03        -2.52966     778.866E-03     19.2569E-03     54.2151E-03    -26.5662E-03    -27.6293E-03    -26.0500E-03     52.6358E-03    -26.5662E-03     22.3239E-03     67.0489E+06    -9.81601E+06    -18.1462E+06    -18.1112E+06     67.0139E+06    -9.81601E+06    -1.43225E+06         29.5414
             652     12.6584E-03     33.7839E-03     783.524E-03     776.581E-03        -2.53590     780.837E-03        -2.53573     779.090E-03    -4.83714E-03     53.9451E-03    -26.7042E-03    -27.2436E-03    -26.2427E-03     52.9442E-03    -26.7042E-03     17.8550E-03     8.16822E+06    -14.5910E+06    -24.3246E+06    -18.7193E+06    -4.20381E+06    -7.82417E+06     654.559E+03         27.9881
             653     11.6842E-03     33.7666E-03     797.213E-03     778.336E-03        -2.55622     796.996E-03        -2.55600     778.336E-03    -22.4259E-03     53.9012E-03    -26.8131E-03    -27.1214E-03    -26.4154E-03     53.1952E-03    -26.8131E-03     14.9958E-03    -3.61196E+06    -19.8248E+06    -51.0882E+06    -19.9295E+06    -50.9835E+06    -3.61196E+06     624.525E+03         26.7893
             654     10.7104E-03     33.7524E-03     803.999E-03     776.392E-03        -2.56680     803.891E-03        -2.56669     776.392E-03     7.87125E-03     53.9363E-03    -26.9068E-03    -27.0473E-03    -26.5255E-03     53.4145E-03    -26.9068E-03     12.9403E-03     241.115E+03    -22.0252E+06    -85.4562E+06    -22.0289E+06    -85.4525E+06     241.115E+03     254.769E+03         25.9654
             655     9.73643E-03     33.7394E-03     796.752E-03     772.359E-03        -2.55319     794.923E-03        -2.55317     774.171E-03     12.1667E-03     53.9972E-03    -26.9823E-03    -27.0375E-03    -26.5822E-03     53.5548E-03    -26.9951E-03     11.9369E-03     2.87697E+06    -24.7422E+06    -111.783E+06    -24.7454E+06    -111.779E+06     2.87697E+06     418.833E+03         25.4588
             656     8.76259E-03     33.7273E-03     799.700E-03     769.908E-03        -2.55367     797.866E-03        -2.55365     771.721E-03     7.13308E-03     54.0526E-03    -27.0108E-03    -27.0619E-03    -26.6375E-03     53.6675E-03    -27.0501E-03     11.1382E-03     2.08316E+06    -27.9758E+06    -137.037E+06    -27.9767E+06    -137.036E+06     2.08316E+06     274.088E+03         25.1157
             657     7.78877E-03     33.7162E-03     810.807E-03     767.590E-03        -2.55771     810.722E-03        -2.55763     767.590E-03     19.8784E-03     54.1172E-03    -27.0169E-03    -27.1031E-03    -26.6907E-03     53.7910E-03    -27.1031E-03     10.2590E-03     605.113E+03    -31.7189E+06    -160.960E+06    -31.7197E+06    -160.959E+06     605.113E+03     223.125E+03         24.8399
             658     6.81497E-03     33.7059E-03     803.125E-03     762.004E-03        -2.53874     802.735E-03        -2.53835     762.004E-03    -7.28327E-03     54.1777E-03    -27.0243E-03    -27.1560E-03    -26.7466E-03     53.9000E-03    -27.1560E-03     9.47282E-03    -2.36632E+06    -35.9984E+06    -183.983E+06    -35.9987E+06    -183.983E+06    -2.36632E+06     103.931E+03         24.6174
             659     5.84121E-03     33.6963E-03     785.379E-03     756.777E-03        -2.51807     784.892E-03        -2.51758     756.777E-03     7.15733E-03     54.2120E-03    -27.0380E-03    -27.1770E-03    -26.8058E-03     53.9799E-03    -27.1770E-03     8.66303E-03    -9.30893E+06    -40.8454E+06    -203.504E+06    -40.8455E+06    -203.504E+06    -9.30893E+06     95.6597E+03         24.4358
             660     4.86757E-03     33.6878E-03     771.846E-03     752.627E-03        -2.50243     770.915E-03        -2.50149     752.627E-03    -17.9490E-03     54.2661E-03    -27.0695E-03    -27.2002E-03    -26.8842E-03     54.0808E-03    -27.2002E-03     7.73877E-03    -18.2680E+06    -46.1122E+06    -222.966E+06    -46.1126E+06    -222.966E+06    -18.2680E+06     229.734E+03         24.2808
             661     3.89391E-03     33.6801E-03     768.339E-03     748.949E-03        -2.49801     763.928E-03        -2.49360     748.949E-03     94.5544E-03     54.3132E-03    -27.1030E-03    -27.2121E-03    -26.9657E-03     54.1760E-03    -27.2121E-03     6.65336E-03    -28.9010E+06    -51.6242E+06    -243.382E+06    -51.6245E+06    -243.382E+06    -28.9010E+06     126.565E+03         24.1534
             662     2.92039E-03     33.6738E-03     794.175E-03     742.000E-03        -2.51420     772.538E-03        -2.49256     742.000E-03    -199.192E-03     54.3199E-03    -27.1259E-03    -27.1927E-03    -27.0388E-03     54.2322E-03    -27.1920E-03     5.28600E-03    -41.5448E+06    -57.0818E+06    -256.896E+06    -57.0820E+06    -256.896E+06    -41.5448E+06    -6.40344E+03         24.0626
             663     1.94688E-03     33.6690E-03     828.457E-03     728.369E-03        -2.53573     762.450E-03        -2.46972     728.369E-03     214.723E-03     54.3096E-03    -27.1339E-03    -27.1729E-03    -27.1007E-03     54.2652E-03    -27.1617E-03     3.71852E-03    -53.7128E+06    -61.4270E+06    -264.061E+06    -61.4279E+06    -264.060E+06    -53.7128E+06    -117.840E+03         24.0073
             664     973.563E-06     33.6658E-03         1.13545     481.208E-03        -2.59019     364.243E-03        -2.41301         1.07523    -263.310E-03     54.2696E-03    -27.0580E-03    -27.2102E-03    -27.1872E-03     54.2540E-03    -27.0653E-03     2.09259E-03    -61.9691E+06    -65.1445E+06    -268.039E+06    -64.5110E+06    -268.035E+06    -62.6069E+06    -76.7581E+03         23.9784
             665     16.5566E-03     32.8312E-03     776.716E-03     708.899E-03        -2.47809     708.761E-03        -2.47795     776.716E-03    -1.18392E-03     53.6898E-03    -25.8926E-03    -27.8677E-03    -25.1264E-03     51.9675E-03    -26.9116E-03     17.5984E-03     198.164E+06     113.251E+06    -7.24865E+06    -7.24683E+06     198.162E+06     113.251E+06    -349.741E+03         36.2699
             666     15.5816E-03     32.7965E-03     780.502E-03     727.060E-03        -2.49807     727.002E-03        -2.49801     780.502E-03    -13.9831E-03     54.2532E-03    -26.6450E-03    -27.6333E-03    -25.3177E-03     51.9467E-03    -26.6542E-03     26.2666E-03     188.758E+06     59.1149E+06    -12.9088E+06    -12.9030E+06     188.752E+06     59.1149E+06    -738.691E+03         33.7535
             667     14.6068E-03     32.7761E-03     785.270E-03     756.497E-03        -2.53264     758.625E-03        -2.53261     783.118E-03    -4.37053E-03     53.6714E-03    -26.5199E-03    -27.1552E-03    -25.5716E-03     52.0970E-03    -26.5290E-03     22.1746E-03     146.800E+06     15.1475E+06    -17.8940E+06    -17.8743E+06     146.781E+06     15.1475E+06    -437.369E+03         31.4273
             668     13.6324E-03     32.7497E-03     787.860E-03     775.703E-03        -2.54970     779.279E-03        -2.54965     784.232E-03     9.61812E-03     54.1888E-03    -26.5881E-03    -27.5855E-03    -26.0104E-03     52.6138E-03    -26.5881E-03     22.2970E-03     65.6766E+06    -8.53556E+06    -21.9281E+06    -21.9068E+06     65.6553E+06    -8.53556E+06    -398.819E+03         29.5376
             669     12.6583E-03     32.7294E-03     790.433E-03     781.941E-03        -2.55566     787.772E-03        -2.55544     784.390E-03    -17.5739E-03     54.0113E-03    -26.7050E-03    -27.3151E-03    -26.3097E-03     53.0059E-03    -26.7050E-03     17.9031E-03      6.6962E+06    -18.3778E+06    -25.9859E+06    -22.9479E+06    -4.97952E+06    -9.74004E+06    -481.144E+03         27.9854
             670     11.6844E-03     32.7123E-03     799.476E-03     783.699E-03        -2.56449     799.185E-03        -2.56419     783.699E-03    -30.0230E-03     53.9001E-03    -26.8115E-03    -27.1192E-03    -26.4155E-03     53.1964E-03    -26.8115E-03     14.9750E-03    -3.97082E+06    -22.4419E+06    -50.8173E+06    -22.6914E+06    -50.5678E+06    -3.97082E+06     100.207E+03         26.7878
             671     10.7103E-03     32.6979E-03     805.959E-03     782.043E-03        -2.57262     805.792E-03        -2.57246     782.043E-03     18.7725E-03     53.9027E-03    -26.9041E-03    -27.0159E-03    -26.4920E-03     53.3788E-03    -26.9041E-03     12.9623E-03    -350.030E+03    -23.6586E+06    -85.6629E+06    -23.6662E+06    -85.6553E+06    -350.030E+03     305.516E+03         25.9646
             672     9.73653E-03     32.6851E-03     815.080E-03     779.243E-03        -2.58250     814.962E-03        -2.58238     779.243E-03     6.99524E-03     53.9652E-03    -26.9730E-03    -27.0171E-03    -26.5480E-03     53.5203E-03    -26.9972E-03     11.9658E-03     2.89490E+06    -25.5463E+06    -111.646E+06    -25.5508E+06    -111.642E+06     2.89490E+06     180.948E+03         25.4571
             673     8.76255E-03     32.6728E-03     816.320E-03     775.243E-03        -2.57876     816.183E-03        -2.57863     775.243E-03    -17.3151E-03     54.0325E-03    -26.9991E-03    -27.0538E-03    -26.6121E-03     53.6456E-03    -27.0538E-03     11.1614E-03     2.20943E+06    -28.2178E+06    -137.096E+06    -28.2188E+06    -137.095E+06     2.20943E+06     207.995E+03         25.1127
             674     7.78875E-03     32.6617E-03     800.669E-03     771.189E-03        -2.56006     800.565E-03        -2.55995     771.189E-03     4.79893E-03     54.1185E-03    -27.0132E-03    -27.1087E-03    -26.6859E-03     53.7912E-03    -27.1087E-03     10.2769E-03     844.062E+03    -31.6823E+06    -160.755E+06    -31.6829E+06    -160.754E+06     844.062E+03     50.6661E+03         24.8377
             675     6.81494E-03     32.6512E-03     799.658E-03     767.116E-03        -2.55405     799.305E-03        -2.55370     767.116E-03    -24.1778E-03     54.1897E-03    -27.0319E-03    -27.1606E-03    -26.7538E-03     53.9117E-03    -27.1606E-03     9.47938E-03    -2.29540E+06    -36.0274E+06    -183.880E+06    -36.0274E+06    -183.880E+06    -2.29540E+06         331.251         24.6172
             676     5.84124E-03     32.6418E-03     794.404E-03     762.252E-03        -2.54375     793.859E-03        -2.54320     762.252E-03    -517.039E-06     54.2239E-03    -27.0481E-03    -27.1794E-03    -26.8163E-03     53.9921E-03    -27.1794E-03     8.65791E-03    -9.53920E+06    -41.1223E+06    -203.596E+06    -41.1224E+06    -203.596E+06    -9.53920E+06     48.8662E+03         24.4362
             677     4.86758E-03     32.6330E-03     774.682E-03     758.133E-03        -2.52271     773.650E-03        -2.52168     758.133E-03    -23.9264E-03     54.2661E-03    -27.0684E-03    -27.2018E-03    -26.8828E-03     54.0806E-03    -27.2018E-03     7.74541E-03    -18.6426E+06    -46.4060E+06    -222.927E+06    -46.4061E+06    -222.927E+06    -18.6426E+06     29.5539E+03         24.2811
             678     3.89393E-03     32.6256E-03     780.917E-03     753.802E-03        -2.51675     776.446E-03        -2.51228     753.802E-03     85.5180E-03     54.3256E-03    -27.1148E-03    -27.2121E-03    -26.9779E-03     54.1888E-03    -27.2121E-03     6.64043E-03    -29.2442E+06    -51.9396E+06    -243.191E+06    -51.9398E+06    -243.190E+06    -29.2442E+06     42.3950E+03         24.1534
             679     2.92039E-03     32.6192E-03     809.337E-03     743.953E-03        -2.53310     786.277E-03        -2.51004     743.953E-03    -211.628E-03     54.3364E-03    -27.1496E-03    -27.1848E-03    -27.0640E-03     54.2500E-03    -27.1841E-03     5.24473E-03    -41.9441E+06    -57.2359E+06    -256.790E+06    -57.2364E+06    -256.789E+06    -41.9441E+06    -29.7671E+03         24.0624
             680     1.94699E-03     32.6144E-03     832.331E-03     729.374E-03        -2.54673     759.622E-03        -2.47402     729.374E-03     232.465E-03     54.2930E-03    -27.1341E-03    -27.1563E-03    -27.1011E-03     54.2488E-03    -27.1451E-03     3.71664E-03    -53.9690E+06    -61.7993E+06    -264.096E+06    -61.8008E+06    -264.095E+06    -53.9690E+06    -126.324E+03         24.0073
             681     973.433E-06     32.6114E-03         1.13134     510.359E-03        -2.62506     371.627E-03        -2.42705         1.07206    -294.625E-03     54.2285E-03    -27.0635E-03    -27.1639E-03    -27.1397E-03     54.2124E-03    -27.0717E-03     2.12848E-03    -61.9876E+06    -65.3641E+06    -268.078E+06    -64.8919E+06    -268.074E+06    -62.4640E+06     49.2328E+03         23.9782
             682     16.5566E-03     31.7770E-03     780.132E-03     697.923E-03        -2.47148     697.725E-03        -2.47128     780.132E-03     10.3005E-03     53.7257E-03    -25.8801E-03    -27.9091E-03    -25.1257E-03     51.9809E-03    -26.9186E-03     17.7138E-03     198.547E+06     115.181E+06    -7.52217E+06    -7.52000E+06     198.545E+06     115.181E+06    -539.299E+03         36.2646
             683     15.5817E-03     31.7418E-03     784.311E-03     730.060E-03        -2.50574     729.973E-03        -2.50566     784.311E-03    -13.7155E-03     54.3250E-03    -26.6598E-03    -27.6769E-03    -25.3497E-03     52.0014E-03    -26.6634E-03     26.3505E-03     188.201E+06     60.6780E+06    -13.8273E+06    -13.8251E+06     188.199E+06     60.6780E+06    -190.750E+03         33.7498
             684     14.6072E-03     31.7217E-03     787.191E-03     753.829E-03        -2.52968     753.787E-03        -2.52964     787.191E-03     1.77221E-03     53.7005E-03    -26.5499E-03    -27.1529E-03    -25.5756E-03     52.1267E-03    -26.5534E-03     22.1650E-03     145.736E+06     18.8652E+06    -17.7206E+06    -17.7050E+06     145.721E+06     18.8652E+06     1.18823E+06         31.4246
             685     13.6324E-03     31.6954E-03     790.283E-03     775.361E-03        -2.55569     776.767E-03        -2.55562     788.808E-03     16.0094E-03     54.2056E-03    -26.6100E-03    -27.5796E-03    -26.0025E-03     52.6285E-03    -26.6100E-03     22.3058E-03     67.5321E+06    -3.31509E+06    -19.4289E+06    -19.4064E+06     67.5096E+06    -3.31509E+06     606.721E+03         29.5356
             686     12.6583E-03     31.6747E-03     805.505E-03     788.084E-03        -2.58383     804.750E-03        -2.58368     788.688E-03    -5.37969E-03     54.0102E-03    -26.7111E-03    -27.3077E-03    -26.3104E-03     53.0129E-03    -26.7111E-03     17.8277E-03     9.40377E+06    -16.6813E+06    -26.3146E+06    -20.7469E+06    -4.93423E+06    -7.91096E+06    -1.09724E+06         27.9839
             687     11.6844E-03     31.6578E-03     807.800E-03     787.271E-03        -2.58054     807.571E-03        -2.58031     787.271E-03     5.20875E-03     53.9016E-03    -26.8174E-03    -27.1106E-03    -26.4061E-03     53.1970E-03    -26.8174E-03     14.9943E-03    -3.09351E+06    -21.8411E+06    -51.7973E+06    -22.0258E+06    -51.6126E+06    -3.09351E+06    -739.830E+03         26.7867
             688     10.7104E-03     31.6434E-03     796.615E-03     785.985E-03        -2.56936     796.431E-03        -2.56918     785.985E-03     37.8955E-03     53.8820E-03    -26.8975E-03    -26.9995E-03    -26.4569E-03     53.3491E-03    -26.9072E-03     13.0668E-03     52.2259E+03    -23.2522E+06    -85.2952E+06    -23.2625E+06    -85.2848E+06     52.2259E+03    -339.801E+03         25.9635
             689     9.73639E-03     31.6305E-03     806.671E-03     784.449E-03        -2.58361     806.562E-03        -2.58350     784.449E-03    -5.46439E-03     53.9574E-03    -26.9786E-03    -27.0048E-03    -26.5303E-03     53.5066E-03    -27.0024E-03     12.0421E-03     2.94778E+06    -25.2177E+06    -112.033E+06    -25.2208E+06    -112.030E+06     2.94778E+06    -281.621E+03         25.4557
             690     8.76255E-03     31.6185E-03     815.432E-03     781.536E-03        -2.59274     815.303E-03        -2.59261     781.536E-03    -21.3776E-03     54.0484E-03    -27.0120E-03    -27.0582E-03    -26.6216E-03     53.6580E-03    -27.0582E-03     11.2122E-03     2.13981E+06    -28.0279E+06    -136.986E+06    -28.0286E+06    -136.986E+06     2.13981E+06    -32.9334E+03         25.1111
             691     7.78867E-03     31.6072E-03     806.131E-03     777.990E-03        -2.57684     806.012E-03        -2.57672     777.990E-03     9.91867E-03     54.1267E-03    -27.0191E-03    -27.1124E-03    -26.6910E-03     53.7986E-03    -27.1124E-03     10.2898E-03     636.909E+03    -31.6889E+06    -160.803E+06    -31.6890E+06    -160.803E+06     636.909E+03    -44.8680E+03         24.8369
             692     6.81493E-03     31.5970E-03     796.707E-03     774.783E-03        -2.55883     796.249E-03        -2.55837     774.783E-03    -24.3036E-03     54.1978E-03    -27.0364E-03    -27.1637E-03    -26.7568E-03     53.9182E-03    -27.1637E-03     9.50730E-03    -2.47900E+06    -36.0959E+06    -183.820E+06    -36.0960E+06    -183.820E+06    -2.47900E+06     54.6517E+03         24.6170
             693     5.84124E-03     31.5873E-03     797.882E-03     771.163E-03        -2.55470     797.137E-03        -2.55395     771.163E-03     5.27762E-03     54.2328E-03    -27.0506E-03    -27.1842E-03    -26.8169E-03     53.9991E-03    -27.1842E-03     8.69364E-03    -9.60253E+06    -41.1294E+06    -203.609E+06    -41.1295E+06    -203.609E+06    -9.60253E+06     64.5544E+03         24.4364
             694     4.86751E-03     31.5789E-03     812.395E-03     764.355E-03        -2.56402     811.412E-03        -2.56304     764.355E-03    -9.91594E-03     54.2980E-03    -27.0964E-03    -27.2045E-03    -26.9094E-03     54.1109E-03    -27.2045E-03     7.77985E-03    -18.7398E+06    -46.6617E+06    -222.899E+06    -46.6618E+06    -222.899E+06    -18.7398E+06     36.0627E+03         24.2819
             695     3.89395E-03     31.5709E-03     811.122E-03     753.425E-03        -2.55401     803.239E-03        -2.54613     753.425E-03     160.766E-03     54.3459E-03    -27.1390E-03    -27.2080E-03    -27.0016E-03     54.2085E-03    -27.2080E-03     6.65443E-03    -29.5301E+06    -52.2860E+06    -243.182E+06    -52.2862E+06    -243.181E+06    -29.5301E+06    -22.0356E+03         24.1532
             696     2.92049E-03     31.5647E-03     789.767E-03     735.267E-03        -2.51466     749.909E-03        -2.48615     746.620E-03    -151.172E-03     54.3130E-03    -27.1338E-03    -27.1777E-03    -27.0468E-03     54.2260E-03    -27.1777E-03     5.27153E-03    -42.3561E+06    -57.6561E+06    -256.626E+06    -57.6567E+06    -256.625E+06    -42.3561E+06    -100.251E+03         24.0601
             697     1.94692E-03     31.5598E-03     807.188E-03     743.343E-03        -2.54389     720.324E-03        -2.46837     754.696E-03     230.088E-03     54.2725E-03    -27.1211E-03    -27.1502E-03    -27.0818E-03     54.2279E-03    -27.1449E-03     3.71427E-03    -54.5978E+06    -62.1198E+06    -264.260E+06    -62.1209E+06    -264.259E+06    -54.5978E+06    -68.0564E+03         24.0051
             698     973.493E-06     31.5570E-03         1.15095     590.247E-03        -2.73726     410.613E-03        -2.52281         1.11613    -376.863E-03     54.2418E-03    -27.0633E-03    -27.1779E-03    -27.1544E-03     54.2264E-03    -27.0714E-03     2.08884E-03    -62.1946E+06    -64.9624E+06    -268.010E+06    -64.4879E+06    -268.008E+06    -62.6710E+06    -340.935E+03         23.9777
             699     16.5563E-03     30.7224E-03     781.489E-03     711.960E-03        -2.49674     711.808E-03        -2.49659     781.489E-03    -334.770E-06     53.7102E-03    -25.8686E-03    -27.9022E-03    -25.0927E-03     51.9576E-03    -26.9255E-03     17.7188E-03     198.371E+06     115.760E+06    -8.19935E+06    -8.19784E+06     198.370E+06     115.760E+06     6.11152E+03         36.2621
             700     15.5816E-03     30.6872E-03     785.270E-03     729.728E-03        -2.52031     729.652E-03        -2.52024     785.270E-03     13.0359E-03     54.3775E-03    -26.6901E-03    -27.6858E-03    -25.3370E-03     52.0477E-03    -26.7091E-03     26.3770E-03     187.726E+06     63.2072E+06    -14.7013E+06    -14.6980E+06     187.722E+06     63.2072E+06    -48.2708E+03         33.7489
             701     14.6067E-03     30.6674E-03     788.405E-03     746.272E-03        -2.53443     746.183E-03        -2.53434     788.405E-03     28.5033E-03     53.8608E-03    -26.5517E-03    -27.3033E-03    -25.6891E-03     52.2656E-03    -26.5707E-03     22.3383E-03     145.251E+06     16.8904E+06    -16.8101E+06    -16.7814E+06     145.223E+06     16.8904E+06    -422.998E+03         31.4242
             702     13.6327E-03     30.6405E-03     790.489E-03     771.443E-03        -2.56249     771.357E-03        -2.56240     790.489E-03     25.9408E-03     54.2847E-03    -26.5876E-03    -27.6781E-03    -26.0832E-03     52.6898E-03    -26.5876E-03     22.4347E-03     68.6177E+06    -5.24804E+06    -16.1192E+06    -16.0743E+06     68.5727E+06    -5.24804E+06    -2.61328E+03         29.5350
             703     12.6585E-03     30.6204E-03     802.425E-03     782.054E-03        -2.58426     793.326E-03        -2.58421     791.098E-03    -1.88125E-03     53.9383E-03    -26.7104E-03    -27.2367E-03    -26.2351E-03     52.9368E-03    -26.7104E-03     17.8616E-03     10.6275E+06    -13.1764E+06    -25.1411E+06    -16.9820E+06    -4.34301E+06    -6.36504E+06     214.862E+03         27.9833
             704     11.6842E-03     30.6032E-03     807.399E-03     785.437E-03        -2.58739     802.174E-03        -2.58730     790.571E-03     3.82542E-03     53.8772E-03    -26.8197E-03    -27.0912E-03    -26.3770E-03     53.1629E-03    -26.8197E-03     15.0827E-03    -3.04227E+06    -19.3288E+06    -52.1297E+06    -19.3534E+06    -52.1050E+06    -3.04227E+06    -368.048E+03         26.7862
             705     10.7103E-03     30.5891E-03     802.628E-03     789.556E-03        -2.58621     802.557E-03        -2.58614     789.556E-03     14.8047E-03     53.9197E-03    -26.9027E-03    -27.0353E-03    -26.4911E-03     53.3853E-03    -26.9124E-03     13.0932E-03     343.719E+03    -21.7188E+06    -85.1856E+06    -21.7255E+06    -85.1789E+06     343.719E+03    -440.377E+03         25.9630
             706     9.73633E-03     30.5761E-03     799.259E-03     785.871E-03        -2.58430     796.494E-03        -2.58429     788.621E-03    -2.95467E-03     53.9795E-03    -26.9783E-03    -27.0252E-03    -26.5452E-03     53.5269E-03    -27.0056E-03     12.0698E-03     2.63442E+06    -24.5973E+06    -112.451E+06    -24.5986E+06    -112.449E+06     2.63442E+06    -182.585E+03         25.4552
             707     8.76243E-03     30.5638E-03     801.433E-03     784.913E-03        -2.58833     798.654E-03        -2.58830     787.663E-03    -3.58759E-03     54.0611E-03    -27.0193E-03    -27.0635E-03    -26.6293E-03     53.6710E-03    -27.0635E-03     11.2078E-03     1.86411E+06    -27.9763E+06    -137.146E+06    -27.9767E+06    -137.146E+06     1.86411E+06    -34.0005E+03         25.1112
             708     7.78866E-03     30.5528E-03     807.743E-03     785.758E-03        -2.59081     807.470E-03        -2.59054     785.758E-03     34.2976E-03     54.1485E-03    -27.0341E-03    -27.1179E-03    -26.7048E-03     53.8192E-03    -27.1179E-03     10.3126E-03     466.256E+03    -31.7686E+06    -160.809E+06    -31.7688E+06    -160.809E+06     466.256E+03     111.609E+03         24.8372
             709     6.81488E-03     30.5424E-03     797.750E-03     783.519E-03        -2.57477     797.027E-03        -2.57405     783.519E-03    -17.2658E-03     54.2087E-03    -27.0395E-03    -27.1704E-03    -26.7601E-03     53.9294E-03    -27.1704E-03     9.50135E-03    -2.48714E+06    -36.2996E+06    -183.830E+06    -36.2998E+06    -183.830E+06    -2.48714E+06     110.443E+03         24.6167
             710     5.84110E-03     30.5330E-03     800.380E-03     781.095E-03        -2.57608     799.667E-03        -2.57537     781.095E-03    -13.0690E-03     54.2560E-03    -27.0678E-03    -27.1895E-03    -26.8348E-03     54.0230E-03    -27.1895E-03     8.68446E-03    -9.65195E+06    -41.4507E+06    -203.613E+06    -41.4508E+06    -203.612E+06    -9.65195E+06     92.6885E+03         24.4365
             711     4.86753E-03     30.5241E-03     827.610E-03     774.557E-03        -2.59627     825.489E-03        -2.59415     774.557E-03    -72.2808E-03     54.3239E-03    -27.1215E-03    -27.2051E-03    -26.9348E-03     54.1372E-03    -27.2051E-03     7.77145E-03    -18.8303E+06    -46.8781E+06    -222.832E+06    -46.8783E+06    -222.832E+06    -18.8303E+06     11.6658E+03         24.2830
             712     3.89400E-03     30.5165E-03     812.554E-03     764.382E-03        -2.57038     802.804E-03        -2.56112     764.872E-03     108.274E-03     54.3341E-03    -27.1272E-03    -27.2074E-03    -26.9910E-03     54.1979E-03    -27.2074E-03     6.62764E-03    -29.5375E+06    -52.4532E+06    -243.179E+06    -52.4538E+06    -243.179E+06    -29.5375E+06         8.61328         24.1539
             713     2.92038E-03     30.5102E-03     792.212E-03     751.838E-03        -2.54872     743.508E-03        -2.51186     763.680E-03    -216.178E-03     54.3010E-03    -27.1192E-03    -27.1798E-03    -27.0323E-03     54.2141E-03    -27.1798E-03     5.26668E-03    -42.6786E+06    -57.9210E+06    -256.572E+06    -57.9218E+06    -256.571E+06    -42.6786E+06    -27.2635E+03         24.0591
             714     1.94693E-03     30.5055E-03     830.139E-03     768.367E-03        -2.61319     729.581E-03        -2.52399     779.720E-03     201.340E-03     54.2861E-03    -27.1296E-03    -27.1562E-03    -27.0963E-03     54.2422E-03    -27.1456E-03     3.69052E-03    -55.0876E+06    -62.2847E+06    -264.133E+06    -62.2856E+06    -264.132E+06    -55.0876E+06    -98.9788E+03         24.0028
             715     973.448E-06     30.5022E-03         1.17281     661.744E-03        -2.84434     444.520E-03        -2.59427         1.13996    -458.833E-03     54.2343E-03    -27.0239E-03    -27.2108E-03    -27.1961E-03     54.2196E-03    -27.0239E-03     2.02499E-03    -63.3988E+06    -65.8193E+06    -268.529E+06    -65.5767E+06    -268.527E+06    -63.6426E+06    -25.3922E+03         23.9755
             716     16.5566E-03     29.6679E-03     782.062E-03     733.215E-03        -2.53630     733.040E-03        -2.53613     782.062E-03    -27.6344E-03     53.6967E-03    -25.8831E-03    -27.8691E-03    -25.0813E-03     51.9517E-03    -26.9259E-03     17.6959E-03     197.926E+06     114.641E+06    -7.70559E+06    -7.70454E+06     197.925E+06     114.641E+06     283.742E+03         36.2620
             717     15.5813E-03     29.6329E-03     785.113E-03     734.045E-03        -2.53258     733.988E-03        -2.53253     785.113E-03    -931.717E-06     54.3436E-03    -26.6925E-03    -27.6543E-03    -25.3195E-03     52.0273E-03    -26.7110E-03     26.2800E-03     188.571E+06     62.9859E+06    -13.5863E+06    -13.5828E+06     188.567E+06     62.9859E+06     102.665E+03         33.7507
             718     14.6069E-03     29.6128E-03     788.108E-03     746.512E-03        -2.54261     746.377E-03        -2.54248     788.108E-03    -3.02614E-03     53.8423E-03    -26.5360E-03    -27.2978E-03    -25.6784E-03     52.2414E-03    -26.5545E-03     22.3580E-03     146.479E+06     13.3118E+06    -17.6948E+06    -17.6665E+06     146.450E+06     13.3118E+06    -1.41287E+06         31.4257
             719     13.6325E-03     29.5859E-03     790.702E-03     757.314E-03        -2.56134     757.172E-03        -2.56119     790.702E-03    -8.15978E-03     54.2550E-03    -26.5697E-03    -27.6634E-03    -26.0548E-03     52.6464E-03    -26.5697E-03     22.5173E-03     66.4614E+06    -11.1107E+06    -19.4044E+06    -19.3544E+06     66.4113E+06    -11.1107E+06    -1.16654E+06         29.5356
             720     12.6582E-03     29.5660E-03     793.295E-03     757.796E-03        -2.56526     757.750E-03        -2.56521     793.295E-03    -18.1011E-03     53.9541E-03    -26.7105E-03    -27.2499E-03    -26.2432E-03     52.9474E-03    -26.7105E-03     17.9112E-03     8.15847E+06    -14.8716E+06    -24.9653E+06    -19.0863E+06    -4.43979E+06    -8.15244E+06     550.068E+03         27.9834
             721     11.6841E-03     29.5487E-03     802.854E-03     774.605E-03        -2.58582     782.014E-03        -2.58565     795.276E-03    -31.5094E-03     53.8821E-03    -26.8220E-03    -27.0946E-03    -26.3792E-03     53.1667E-03    -26.8220E-03     15.0922E-03    -3.85913E+06    -19.8630E+06    -51.4024E+06    -19.9097E+06    -51.3557E+06    -3.85913E+06     415.733E+03         26.7863
             722     10.7102E-03     29.5345E-03     818.068E-03     794.859E-03        -2.61721     817.907E-03        -2.61705     794.859E-03    -10.1660E-03     53.9362E-03    -26.9193E-03    -27.0374E-03    -26.5064E-03     53.4052E-03    -26.9193E-03     13.0532E-03    -110.314E+03    -22.1844E+06    -85.6010E+06    -22.1875E+06    -85.5979E+06    -110.314E+03     174.462E+03         25.9635
             723     9.73628E-03     29.5216E-03     808.899E-03     790.024E-03        -2.60789     805.601E-03        -2.60784     793.268E-03    -3.16857E-03     54.0120E-03    -26.9917E-03    -27.0447E-03    -26.5764E-03     53.5623E-03    -27.0104E-03     12.0341E-03     2.37464E+06    -25.0200E+06    -112.211E+06    -25.0215E+06    -112.209E+06     2.37464E+06     247.955E+03         25.4561
             724     8.76243E-03     29.5094E-03     795.234E-03     786.853E-03        -2.59051     789.106E-03        -2.59046     792.931E-03    -19.6415E-03     54.0618E-03    -27.0134E-03    -27.0681E-03    -26.6246E-03     53.6730E-03    -27.0681E-03     11.1902E-03     1.55417E+06    -28.2695E+06    -137.435E+06    -28.2702E+06    -137.435E+06     1.55417E+06     214.158E+03         25.1120
             725     7.78858E-03     29.4980E-03     799.218E-03     790.190E-03        -2.59126     796.011E-03        -2.59088     793.023E-03     43.2139E-03     54.1540E-03    -27.0318E-03    -27.1238E-03    -26.7033E-03     53.8254E-03    -27.1238E-03     10.3006E-03     136.013E+03    -32.1717E+06    -160.684E+06    -32.1725E+06    -160.683E+06     136.013E+03     294.108E+03         24.8371
             726     6.81481E-03     29.4879E-03     806.682E-03     791.904E-03        -2.60216     805.924E-03        -2.60140     791.904E-03    -863.696E-06     54.2452E-03    -27.0705E-03    -27.1742E-03    -26.7923E-03     53.9670E-03    -27.1742E-03     9.48688E-03    -2.92070E+06    -36.7753E+06    -183.819E+06    -36.7758E+06    -183.819E+06    -2.92070E+06     250.495E+03         24.6161
             727     5.84121E-03     29.4783E-03     806.102E-03     787.860E-03        -2.60351     803.328E-03        -2.60272     789.845E-03    -1.04008E-03     54.2850E-03    -27.0987E-03    -27.1868E-03    -26.8661E-03     54.0524E-03    -27.1868E-03     8.67895E-03    -10.1774E+06    -41.8629E+06    -203.469E+06    -41.8631E+06    -203.469E+06    -10.1774E+06     140.980E+03         24.4361
             728     4.86756E-03     29.4696E-03     803.374E-03     766.693E-03        -2.57835     778.031E-03        -2.57631     790.002E-03    -51.7516E-03     54.3090E-03    -27.1109E-03    -27.1992E-03    -26.9254E-03     54.1235E-03    -27.1992E-03     7.74530E-03    -19.5887E+06    -47.4124E+06    -222.777E+06    -47.4126E+06    -222.777E+06    -19.5887E+06         284.178         24.2832
             729     3.89394E-03     29.4620E-03     803.170E-03     772.411E-03        -2.58044     771.175E-03        -2.57026     794.225E-03     138.061E-03     54.3204E-03    -27.1175E-03    -27.2015E-03    -26.9835E-03     54.1864E-03    -27.2015E-03     6.57152E-03    -30.3698E+06    -53.1517E+06    -243.116E+06    -53.1523E+06    -243.115E+06    -30.3698E+06     23.0709E+03         24.1542
             730     2.92044E-03     29.4557E-03     844.165E-03     795.428E-03        -2.64861     804.120E-03        -2.60906     795.918E-03    -225.144E-03     54.2952E-03    -27.1192E-03    -27.1747E-03    -27.0338E-03     54.2098E-03    -27.1747E-03     5.21988E-03    -43.2331E+06    -58.4471E+06    -256.517E+06    -58.4486E+06    -256.516E+06    -43.2331E+06     126.110E+03         24.0586
             731     1.94693E-03     29.4509E-03     904.597E-03     791.292E-03        -2.70893     804.796E-03        -2.60913     791.292E-03     229.617E-03     54.2693E-03    -27.1221E-03    -27.1474E-03    -27.0845E-03     54.2257E-03    -27.1413E-03     3.67949E-03    -55.6377E+06    -63.0393E+06    -264.133E+06    -63.0405E+06    -264.132E+06    -55.6377E+06     203.816E+03         24.0004
             732     973.525E-06     29.4481E-03         1.19314     700.054E-03        -2.91346     448.620E-03        -2.59602         1.12714    -570.392E-03     54.2257E-03    -27.0446E-03    -27.1815E-03    -27.1669E-03     54.2112E-03    -27.0446E-03     1.99049E-03    -64.1147E+06    -66.7964E+06    -268.474E+06    -66.5533E+06    -268.473E+06    -64.3585E+06     317.445E+03         23.9716
             733     16.5562E-03     28.6135E-03     782.378E-03     724.432E-03        -2.52967     724.056E-03        -2.52929     782.378E-03    -7.99781E-03     53.7126E-03    -25.8704E-03    -27.9091E-03    -25.1055E-03     51.9678E-03    -26.9292E-03     17.7158E-03     197.998E+06     114.678E+06    -7.39420E+06    -7.39384E+06     197.998E+06     114.678E+06    -2.12057E+03         36.2634
             734     15.5816E-03     28.5784E-03     785.576E-03     738.785E-03        -2.54314     738.704E-03        -2.54306     785.576E-03    -20.3970E-03     54.3863E-03    -26.7061E-03    -27.6923E-03    -25.3642E-03     52.0612E-03    -26.7091E-03     26.3703E-03     189.036E+06     62.3017E+06    -13.0557E+06    -13.0548E+06     189.036E+06     62.3017E+06    -8.71451E+03         33.7539
             735     14.6067E-03     28.5582E-03     788.298E-03     751.150E-03        -2.55620     751.062E-03        -2.55612     788.298E-03    -20.1991E-03     53.7878E-03    -26.5726E-03    -27.2094E-03    -25.6189E-03     52.2004E-03    -26.5756E-03     22.2709E-03     147.564E+06     16.8666E+06    -17.1889E+06    -17.1631E+06     147.538E+06     16.8666E+06     331.227E+03         31.4284
             736     13.6322E-03     28.5317E-03     791.353E-03     741.106E-03        -2.55096     740.967E-03        -2.55082     791.353E-03    -15.0672E-03     54.1830E-03    -26.5975E-03    -27.5638E-03    -25.9777E-03     52.5968E-03    -26.5975E-03     22.3523E-03     65.8985E+06    -8.16014E+06    -20.6573E+06    -20.5941E+06     65.8353E+06    -8.16014E+06    -603.841E+03         29.5367
             737     12.6581E-03     28.5113E-03     794.979E-03     747.975E-03        -2.55722     747.877E-03        -2.55713     794.979E-03    -726.206E-06     53.9714E-03    -26.7180E-03    -27.2564E-03    -26.2559E-03     52.9709E-03    -26.7180E-03     17.8530E-03     6.42920E+06    -17.6997E+06    -26.1593E+06    -21.8376E+06    -5.77781E+06    -9.81435E+06    -853.937E+03         27.9838
             738     11.6842E-03     28.4944E-03     801.203E-03     768.919E-03        -2.58123     772.029E-03        -2.58101     797.875E-03    -15.1592E-03     53.9226E-03    -26.8279E-03    -27.1275E-03    -26.4163E-03     53.2114E-03    -26.8279E-03     15.0636E-03    -4.58664E+06    -21.7901E+06    -51.1867E+06    -21.8609E+06    -51.1159E+06    -4.58664E+06     323.317E+03         26.7864
             739     10.7101E-03     28.4799E-03     811.287E-03     777.966E-03        -2.60072     789.585E-03        -2.60046     799.416E-03     10.2931E-03     53.9348E-03    -26.9224E-03    -27.0359E-03    -26.5034E-03     53.4022E-03    -26.9224E-03     13.0696E-03    -886.511E+03    -23.1523E+06    -85.7239E+06    -23.1592E+06    -85.7170E+06    -886.511E+03     482.628E+03         25.9638
             740     9.73621E-03     28.4671E-03     808.860E-03     788.834E-03        -2.61155     797.451E-03        -2.61136     800.055E-03    -7.78094E-03     54.0117E-03    -27.0074E-03    -27.0313E-03    -26.5766E-03     53.5646E-03    -27.0150E-03     12.0001E-03     2.03927E+06    -25.4440E+06    -112.102E+06    -25.4474E+06    -112.099E+06     2.03927E+06     437.221E+03         25.4565
             741     8.76240E-03     28.4549E-03     800.787E-03     796.099E-03        -2.61088     796.162E-03        -2.61068     800.526E-03    -42.6938E-03     54.0870E-03    -27.0356E-03    -27.0700E-03    -26.6479E-03     53.6992E-03    -27.0700E-03     11.1807E-03     1.12931E+06    -28.5372E+06    -137.212E+06    -28.5400E+06    -137.209E+06     1.12931E+06     472.837E+03         25.1120
             742     7.78857E-03     28.4436E-03     806.668E-03     796.827E-03        -2.61098     802.453E-03        -2.61069     800.759E-03     22.5129E-03     54.1650E-03    -27.0443E-03    -27.1222E-03    -26.7171E-03     53.8378E-03    -27.1222E-03     10.2794E-03    -475.876E+03    -32.3735E+06    -160.576E+06    -32.3749E+06    -160.574E+06    -475.876E+03     420.819E+03         24.8365
             743     6.81481E-03     28.4332E-03     819.094E-03     799.375E-03        -2.62359     818.402E-03        -2.62290     799.375E-03    -19.9969E-03     54.2477E-03    -27.0762E-03    -27.1696E-03    -26.7991E-03     53.9707E-03    -27.1696E-03     9.46914E-03    -3.56679E+06    -36.8551E+06    -183.690E+06    -36.8562E+06    -183.689E+06    -3.56679E+06     370.598E+03         24.6150
             744     5.84116E-03     28.4237E-03     811.204E-03     793.532E-03        -2.60955     805.702E-03        -2.60791     797.394E-03     28.5275E-03     54.2872E-03    -27.1036E-03    -27.1826E-03    -26.8708E-03     54.0544E-03    -27.1826E-03     8.68335E-03    -10.6863E+06    -42.0359E+06    -203.375E+06    -42.0368E+06    -203.374E+06    -10.6863E+06     319.961E+03         24.4350
             745     4.86756E-03     28.4151E-03     800.355E-03     766.186E-03        -2.57071     764.404E-03        -2.56893     800.355E-03     21.6900E-03     54.3092E-03    -27.1165E-03    -27.1942E-03    -26.9319E-03     54.1247E-03    -27.1942E-03     7.72499E-03    -19.9034E+06    -47.5869E+06    -222.605E+06    -47.5877E+06    -222.604E+06    -19.9034E+06     235.607E+03         24.2822
             746     3.89399E-03     28.4075E-03     810.261E-03     775.445E-03        -2.59442     766.636E-03        -2.58466     809.316E-03     184.996E-03     54.3166E-03    -27.1212E-03    -27.1943E-03    -26.9882E-03     54.1837E-03    -27.1943E-03     6.54391E-03    -30.7650E+06    -53.2822E+06    -243.046E+06    -53.2825E+06    -243.046E+06    -30.7650E+06     69.7289E+03         24.1534
             747     2.92048E-03     28.4012E-03     865.519E-03     809.155E-03        -2.68345     824.385E-03        -2.64588     812.719E-03    -201.054E-03     54.2797E-03    -27.1109E-03    -27.1682E-03    -27.0260E-03     54.1949E-03    -27.1682E-03     5.20715E-03    -43.4829E+06    -58.7894E+06    -256.640E+06    -58.7906E+06    -256.639E+06    -43.4829E+06     164.980E+03         24.0576
             748     1.94693E-03     28.3965E-03     936.178E-03     804.235E-03        -2.75041     830.521E-03        -2.64476     804.235E-03     292.664E-03     54.2410E-03    -27.0948E-03    -27.1461E-03    -27.0515E-03     54.1971E-03    -27.1454E-03     3.69320E-03    -55.4410E+06    -63.3260E+06    -264.070E+06    -63.3277E+06    -264.068E+06    -55.4410E+06     379.201E+03         23.9988
             749     973.404E-06     28.3933E-03         1.18033     785.263E-03        -2.97696     495.153E-03        -2.60676         1.10024    -662.622E-03     54.2508E-03    -27.0810E-03    -27.1690E-03    -27.1290E-03     54.2361E-03    -27.1063E-03     1.99858E-03    -63.2954E+06    -66.4881E+06    -267.736E+06    -65.9083E+06    -267.735E+06    -63.8763E+06     216.399E+03         23.9694
             750     16.5564E-03     27.5589E-03     780.053E-03     698.796E-03        -2.49366     698.475E-03        -2.49334     780.053E-03     30.5879E-03     53.6678E-03    -25.8528E-03    -27.8886E-03    -25.0658E-03     51.9219E-03    -26.9297E-03     17.6938E-03     198.210E+06     114.926E+06    -7.79269E+06    -7.79213E+06     198.209E+06     114.926E+06     42.0198E+03         36.2649
             751     15.5813E-03     27.5238E-03     784.237E-03     724.725E-03        -2.53491     724.642E-03        -2.53482     784.237E-03     6.80434E-03     54.3791E-03    -26.7103E-03    -27.6792E-03    -25.3413E-03     52.0480E-03    -26.7170E-03     26.4090E-03     188.766E+06     63.1723E+06    -14.0602E+06    -14.0595E+06     188.765E+06     63.1723E+06    -5.49101E+03         33.7570
             752     14.6069E-03     27.5036E-03     787.695E-03     738.013E-03        -2.55332     737.982E-03        -2.55328     787.695E-03     7.27386E-03     53.8113E-03    -26.5751E-03    -27.2349E-03    -25.6395E-03     52.2226E-03    -26.5818E-03     22.2950E-03     147.183E+06     17.8433E+06    -16.9683E+06    -16.9431E+06     147.158E+06     17.8433E+06     247.120E+03         31.4308
             753     13.6325E-03     27.4772E-03     790.937E-03     745.787E-03        -2.55583     745.687E-03        -2.55573     790.937E-03     19.6235E-03     54.2033E-03    -26.6012E-03    -27.5852E-03    -26.0001E-03     52.6182E-03    -26.6012E-03     22.3570E-03      67.139E+06    -6.64873E+06    -17.4362E+06    -17.3318E+06     67.0346E+06    -6.64873E+06     368.554E+03         29.5378
             754     12.6581E-03     27.4569E-03     793.756E-03     761.569E-03        -2.56979     761.423E-03        -2.56965     793.756E-03     15.6645E-03     53.9634E-03    -26.7218E-03    -27.2474E-03    -26.2447E-03     52.9607E-03    -26.7218E-03     17.8691E-03     6.85822E+06    -16.3493E+06    -25.2618E+06    -19.2854E+06    -6.16388E+06    -9.30365E+06    -95.5644E+03         27.9841
             755     11.6840E-03     27.4397E-03     796.477E-03     760.024E-03        -2.57322     759.890E-03        -2.57309     796.477E-03     14.0793E-03     53.9324E-03    -26.8290E-03    -27.1406E-03    -26.4317E-03     53.2234E-03    -26.8290E-03     15.0382E-03    -5.39061E+06    -21.8506E+06    -51.9375E+06    -21.8853E+06    -51.9028E+06    -5.39061E+06    -41.3181E+03         26.7864
             756     10.7102E-03     27.4255E-03     800.616E-03     742.694E-03        -2.56299     742.562E-03        -2.56286     800.616E-03     36.1662E-03     53.9523E-03    -26.9213E-03    -27.0555E-03    -26.5252E-03     53.4220E-03    -26.9213E-03     13.0468E-03    -1.55757E+06    -23.4734E+06    -85.5441E+06    -23.4829E+06    -85.5346E+06    -1.55757E+06     446.528E+03         25.9636
             757     9.73622E-03     27.4124E-03     805.473E-03     766.206E-03        -2.58873     766.276E-03        -2.58854     805.212E-03     8.61588E-03     54.0104E-03    -27.0060E-03    -27.0273E-03    -26.5738E-03     53.5643E-03    -27.0134E-03     11.9857E-03      1.2804E+06    -25.9018E+06    -112.319E+06    -25.9080E+06    -112.313E+06      1.2804E+06     563.596E+03         25.4560
             758     8.76233E-03     27.4004E-03     808.397E-03     798.770E-03        -2.62075     799.221E-03        -2.62048     807.669E-03    -6.15165E-03     54.1116E-03    -27.0557E-03    -27.0725E-03    -26.6762E-03     53.7270E-03    -27.0675E-03     11.1373E-03     664.108E+03    -28.9995E+06    -136.907E+06    -29.0035E+06    -136.903E+06     664.108E+03     587.906E+03         25.1112
             759     7.78862E-03     27.3890E-03     814.257E-03     806.785E-03        -2.63236     812.844E-03        -2.63205     807.885E-03     33.3504E-03     54.1889E-03    -27.0716E-03    -27.1201E-03    -26.7521E-03     53.8643E-03    -27.1150E-03     10.2428E-03    -878.505E+03    -32.4993E+06    -160.367E+06    -32.5016E+06    -160.365E+06    -878.505E+03     451.366E+03         24.8351
             760     6.81491E-03     27.3788E-03     819.330E-03     796.480E-03        -2.62913     807.453E-03        -2.62843     807.659E-03    -23.7483E-03     54.2302E-03    -27.0672E-03    -27.1628E-03    -26.7924E-03     53.9553E-03    -27.1628E-03     9.42938E-03    -3.76657E+06    -36.8697E+06    -183.677E+06    -36.8720E+06    -183.674E+06    -3.76657E+06     462.398E+03         24.6131
             761     5.84115E-03     27.3692E-03     815.002E-03     787.495E-03        -2.61600     791.756E-03        -2.61449     809.237E-03     16.6256E-03     54.2535E-03    -27.0744E-03    -27.1794E-03    -26.8438E-03     54.0229E-03    -27.1794E-03     8.64042E-03    -10.6456E+06    -41.9587E+06    -203.238E+06    -41.9611E+06    -203.235E+06    -10.6456E+06     508.460E+03         24.4330
             762     4.86757E-03     27.3604E-03     818.765E-03     792.891E-03        -2.62253     796.384E-03        -2.61969     812.439E-03    -29.2814E-03     54.2966E-03    -27.1035E-03    -27.1942E-03    -26.9193E-03     54.1124E-03    -27.1942E-03     7.71655E-03    -19.6490E+06    -47.4053E+06    -222.329E+06    -47.4067E+06    -222.328E+06    -19.6490E+06     369.250E+03         24.2803
             763     3.89403E-03     27.3529E-03     822.392E-03     802.971E-03        -2.63655     800.829E-03        -2.62808     816.066E-03     108.134E-03     54.3162E-03    -27.1171E-03    -27.1969E-03    -26.9835E-03     54.1825E-03    -27.1969E-03     6.56484E-03    -30.4685E+06    -53.1399E+06    -242.961E+06    -53.1407E+06    -242.961E+06    -30.4685E+06     296.746E+03         24.1521
             764     2.92042E-03     27.3468E-03     863.283E-03     813.712E-03        -2.69523     819.090E-03        -2.65515     817.823E-03    -277.700E-03     54.2881E-03    -27.1159E-03    -27.1703E-03    -27.0306E-03     54.2029E-03    -27.1703E-03     5.21372E-03    -43.3199E+06    -58.8267E+06    -256.551E+06    -58.8272E+06    -256.550E+06    -43.3199E+06     188.174E+03         24.0565
             765     1.94696E-03     27.3420E-03     975.878E-03     810.982E-03        -2.81081     837.584E-03        -2.67251     810.982E-03     384.607E-03     54.2465E-03    -27.1009E-03    -27.1443E-03    -27.0577E-03     54.2033E-03    -27.1443E-03     3.65468E-03    -55.2367E+06    -63.2332E+06    -263.890E+06    -63.2351E+06    -263.888E+06    -55.2367E+06     69.4231E+03         23.9985
             766     973.409E-06     27.3390E-03         1.20778     834.275E-03        -3.06040     520.259E-03        -2.62695         1.08835    -631.442E-03     54.2441E-03    -27.0752E-03    -27.1667E-03    -27.1253E-03     54.2293E-03    -27.1017E-03     2.04755E-03    -63.0144E+06    -66.1996E+06    -267.295E+06    -65.6204E+06    -267.294E+06    -63.5952E+06    -26.0255E+03         23.9703
             767     16.5563E-03     26.5047E-03     776.370E-03     706.110E-03        -2.50205     705.617E-03        -2.50156     776.370E-03    -37.3004E-03     53.6552E-03    -25.8623E-03    -27.8595E-03    -25.0438E-03     51.9015E-03    -26.9243E-03     17.7324E-03     198.307E+06     114.628E+06    -7.61343E+06    -7.61314E+06     198.306E+06     114.628E+06     160.450E+03         36.2652
             768     15.5815E-03     26.4693E-03     780.650E-03     707.889E-03        -2.51171     707.734E-03        -2.51156     780.650E-03     678.523E-06     54.3266E-03    -26.6867E-03    -27.6453E-03    -25.2841E-03     51.9887E-03    -26.7101E-03     26.4194E-03     188.802E+06     62.3284E+06    -13.4265E+06    -13.4260E+06     188.802E+06     62.3284E+06     295.387E+03         33.7586
             769     14.6066E-03     26.4493E-03     785.272E-03     712.568E-03        -2.52526     712.525E-03        -2.52521     785.272E-03     6.06730E-03     53.7955E-03    -26.5565E-03    -27.2350E-03    -25.6272E-03     52.2111E-03    -26.5799E-03     22.2631E-03     146.924E+06     16.5916E+06    -17.5531E+06    -17.5416E+06     146.913E+06     16.5916E+06    -37.0631E+03         31.4320
             770     13.6321E-03     26.4226E-03     789.071E-03     749.090E-03        -2.55949     749.023E-03        -2.55943     789.071E-03     10.0705E-03     54.2276E-03    -26.5988E-03    -27.6129E-03    -26.0345E-03     52.6493E-03    -26.5988E-03     22.3149E-03     66.5609E+06    -8.64618E+06    -20.0164E+06    -19.9549E+06     66.4994E+06    -8.64618E+06     430.954E+03         29.5379
             771     12.6582E-03     26.4025E-03     791.945E-03     753.885E-03        -2.56729     753.630E-03        -2.56703     791.945E-03    -18.2273E-03     53.9844E-03    -26.7195E-03    -27.2778E-03    -26.2797E-03     52.9864E-03    -26.7195E-03     17.8351E-03     6.82955E+06    -17.3414E+06    -25.9429E+06    -20.7701E+06    -5.53576E+06    -10.1490E+06     986.123E+03         27.9837
             772     11.6841E-03     26.3853E-03     795.815E-03     738.662E-03        -2.55862     738.419E-03        -2.55838     795.815E-03    -21.6377E-03     53.9187E-03    -26.8275E-03    -27.1304E-03    -26.4284E-03     53.2166E-03    -26.8275E-03     14.9586E-03    -5.40300E+06    -21.8069E+06    -51.9254E+06    -21.8733E+06    -51.8591E+06    -5.40300E+06     400.699E+03         26.7861
             773     10.7101E-03     26.3708E-03     801.019E-03     739.649E-03        -2.56753     739.587E-03        -2.56746     801.019E-03     4.65861E-03     53.9473E-03    -26.9185E-03    -27.0515E-03    -26.5302E-03     53.4259E-03    -26.9185E-03     12.9368E-03    -1.91315E+06    -23.9774E+06    -86.0159E+06    -23.9830E+06    -86.0103E+06    -1.91315E+06     399.490E+03         25.9634
             774     9.73623E-03     26.3580E-03     806.359E-03     755.746E-03        -2.58984     755.622E-03        -2.58972     806.359E-03    -8.92349E-03     54.0321E-03    -27.0052E-03    -27.0491E-03    -26.6046E-03     53.5913E-03    -27.0088E-03     11.9185E-03     1.21900E+06    -26.3054E+06    -112.090E+06    -26.3115E+06    -112.084E+06     1.21900E+06     629.603E+03         25.4549
             775     8.76243E-03     26.3457E-03     811.015E-03     780.571E-03        -2.61740     780.852E-03        -2.61722     810.549E-03     5.55740E-03     54.1011E-03    -27.0423E-03    -27.0770E-03    -26.6788E-03     53.7215E-03    -27.0609E-03     11.0625E-03     735.553E+03    -29.2145E+06    -136.727E+06    -29.2174E+06    -136.724E+06     735.553E+03     502.058E+03         25.1080
             776     7.78868E-03     26.3345E-03     815.360E-03     788.323E-03        -2.62291     789.712E-03        -2.62268     813.733E-03     37.2985E-03     54.1619E-03    -27.0530E-03    -27.1140E-03    -26.7365E-03     53.8403E-03    -27.1090E-03     10.1935E-03    -892.535E+03    -32.8926E+06    -160.259E+06    -32.8952E+06    -160.256E+06    -892.535E+03     458.236E+03         24.8314
             777     6.81492E-03     26.3241E-03     819.732E-03     772.793E-03        -2.61227     773.082E-03        -2.61140     818.571E-03    -37.7753E-03     54.2188E-03    -27.0650E-03    -27.1566E-03    -26.7899E-03     53.9436E-03    -27.1566E-03     9.43354E-03    -4.02309E+06    -37.2086E+06    -183.846E+06    -37.2112E+06    -183.844E+06    -4.02309E+06     466.902E+03         24.6100
             778     5.84129E-03     26.3148E-03     826.109E-03     777.531E-03        -2.62841     776.287E-03        -2.62717     826.109E-03    -11.2167E-03     54.2292E-03    -27.0593E-03    -27.1716E-03    -26.8285E-03     53.9984E-03    -27.1716E-03     8.64089E-03    -10.8026E+06    -41.9953E+06    -202.810E+06    -41.9985E+06    -202.806E+06    -10.8026E+06     558.117E+03         24.4297
             779     4.86754E-03     26.3058E-03     846.415E-03     812.054E-03        -2.67918     824.267E-03        -2.67607     831.097E-03    -76.2646E-03     54.2522E-03    -27.0607E-03    -27.1918E-03    -26.8778E-03     54.0693E-03    -27.1918E-03     7.68351E-03    -19.7058E+06    -47.4363E+06    -222.171E+06    -47.4386E+06    -222.169E+06    -19.7058E+06     482.497E+03         24.2771
             780     3.89389E-03     26.2985E-03     864.843E-03     828.466E-03        -2.70812     852.127E-03        -2.69596     829.014E-03     121.482E-03     54.2990E-03    -27.0951E-03    -27.2022E-03    -26.9625E-03     54.1664E-03    -27.2022E-03     6.53767E-03    -30.4067E+06    -53.3343E+06    -242.827E+06    -53.3358E+06    -242.825E+06    -30.4067E+06     432.687E+03         24.1498
             781     2.92046E-03     26.2921E-03     901.935E-03     821.325E-03        -2.73777     847.736E-03        -2.68412     821.873E-03    -304.696E-03     54.3031E-03    -27.1238E-03    -27.1770E-03    -27.0387E-03     54.2180E-03    -27.1770E-03     5.20993E-03    -43.2427E+06    -58.8456E+06    -256.054E+06    -58.8470E+06    -256.052E+06    -43.2427E+06     259.398E+03         24.0553
             782     1.94694E-03     26.2875E-03         1.00794     812.688E-03        -2.83900     832.236E-03        -2.66329     812.688E-03     429.190E-03     54.2798E-03    -27.1230E-03    -27.1552E-03    -27.0953E-03     54.2365E-03    -27.1395E-03     3.66787E-03    -55.5283E+06    -63.3069E+06    -263.787E+06    -63.3082E+06    -263.785E+06    -55.5283E+06    -115.678E+03         23.9984
             783     973.530E-06     26.2846E-03         1.23402     908.598E-03        -3.16708     517.248E-03        -2.64003         1.09832    -707.211E-03     54.2110E-03    -27.0271E-03    -27.1830E-03    -27.1668E-03     54.1961E-03    -27.0283E-03     2.04020E-03    -64.1018E+06    -66.7887E+06    -267.398E+06    -66.5562E+06    -267.397E+06    -64.3353E+06    -178.815E+03         23.9711
             784     16.5565E-03     25.4503E-03     773.516E-03     720.158E-03        -2.52456     719.659E-03        -2.52406     773.516E-03    -36.0147E-03     53.7319E-03    -25.8996E-03    -27.8921E-03    -25.1320E-03     52.0002E-03    -26.9281E-03     17.6847E-03     198.118E+06     114.911E+06    -7.59206E+06    -7.59173E+06     198.118E+06     114.911E+06    -15.0108E+03         36.2633
             785     15.5813E-03     25.4151E-03     777.241E-03     706.999E-03        -2.50573     706.861E-03        -2.50559     777.241E-03    -5.73772E-03     54.3317E-03    -26.6721E-03    -27.6676E-03    -25.3258E-03     52.0214E-03    -26.7035E-03     26.2816E-03     188.493E+06     61.4643E+06    -13.4759E+06    -13.4745E+06     188.492E+06     61.4643E+06     226.072E+03         33.7582
             786     14.6067E-03     25.3947E-03     781.697E-03     711.709E-03        -2.51300     711.618E-03        -2.51291     781.697E-03    -14.7496E-03     53.7553E-03    -26.5614E-03    -27.1841E-03    -25.5983E-03     52.2010E-03    -26.5929E-03     22.0527E-03     146.476E+06     19.2043E+06    -17.5906E+06    -17.5659E+06     146.451E+06     19.2043E+06     1.42583E+06         31.4314
             787     13.6324E-03     25.3684E-03     786.203E-03     723.308E-03        -2.53223     723.127E-03        -2.53205     786.203E-03     779.769E-06     54.2004E-03    -26.6158E-03    -27.5587E-03    -26.0128E-03     52.6544E-03    -26.6158E-03     22.0876E-03     66.9148E+06    -4.68867E+06    -20.6359E+06    -20.6075E+06     66.8864E+06    -4.68867E+06     1.28328E+06         29.5365
             788     12.6581E-03     25.3479E-03     791.000E-03     723.717E-03        -2.54003     723.461E-03        -2.53977     791.000E-03     1.46253E-03     53.9788E-03    -26.7171E-03    -27.2694E-03    -26.2806E-03     52.9900E-03    -26.7171E-03     17.7543E-03     7.97747E+06    -17.3816E+06    -26.8758E+06    -21.7361E+06    -5.12767E+06    -9.41611E+06     116.155E+03         27.9820
             789     11.6842E-03     25.3308E-03     796.328E-03     730.608E-03        -2.55071     730.448E-03        -2.55055     796.328E-03    -16.0138E-03     53.9225E-03    -26.8248E-03    -27.1321E-03    -26.4341E-03     53.2245E-03    -26.8248E-03     14.9163E-03    -4.76214E+06    -21.9115E+06    -51.9521E+06    -22.0274E+06    -51.8362E+06    -4.76214E+06     435.652E+03         26.7846
             790     10.7103E-03     25.3164E-03     801.240E-03     753.454E-03        -2.58006     753.418E-03        -2.58002     801.240E-03     975.777E-06     53.9494E-03    -26.9124E-03    -27.0563E-03    -26.5385E-03     53.4316E-03    -26.9124E-03     12.8937E-03    -1.44469E+06    -23.4541E+06    -85.8888E+06    -23.4675E+06    -85.8753E+06    -1.44469E+06     495.838E+03         25.9623
             791     9.73637E-03     25.3033E-03     805.510E-03     763.415E-03        -2.59659     763.325E-03        -2.59650     805.510E-03    -11.6857E-03     54.0210E-03    -26.9981E-03    -27.0481E-03    -26.6080E-03     53.5827E-03    -26.9998E-03     11.8850E-03     1.50292E+06    -25.7520E+06    -112.117E+06    -25.7559E+06    -112.113E+06     1.50292E+06     411.000E+03         25.4518
             792     8.76260E-03     25.2912E-03     810.629E-03     756.439E-03        -2.59632     756.238E-03        -2.59612     810.629E-03     3.00536E-03     54.0642E-03    -27.0237E-03    -27.0616E-03    -26.6558E-03     53.6853E-03    -27.0506E-03     11.0509E-03     917.455E+03    -28.6727E+06    -136.613E+06    -28.6769E+06    -136.609E+06     917.455E+03     612.026E+03         25.1018
             793     7.78876E-03     25.2800E-03     817.913E-03     750.742E-03        -2.59671     749.828E-03        -2.59580     817.913E-03     73.1189E-03     54.1215E-03    -27.0259E-03    -27.1010E-03    -26.7041E-03     53.7997E-03    -27.1010E-03     10.1922E-03    -723.775E+03    -32.4693E+06    -160.261E+06    -32.4726E+06    -160.257E+06    -723.775E+03     617.925E+03         24.8254
             794     6.81496E-03     25.2696E-03     826.823E-03     763.401E-03        -2.61525     762.080E-03        -2.61393     826.823E-03     1.87018E-03     54.1905E-03    -27.0457E-03    -27.1477E-03    -26.7713E-03     53.9160E-03    -27.1477E-03     9.41772E-03    -4.44487E+06    -37.2289E+06    -183.762E+06    -37.2331E+06    -183.758E+06    -4.44487E+06     681.943E+03         24.6057
             795     5.84124E-03     25.2602E-03     834.867E-03     796.414E-03        -2.65513     794.059E-03        -2.65277     834.867E-03     46.5761E-03     54.2108E-03    -27.0523E-03    -27.1620E-03    -26.8224E-03     53.9810E-03    -27.1620E-03     8.62349E-03    -11.6857E+06    -42.5977E+06    -202.639E+06    -42.6016E+06    -202.635E+06    -11.6857E+06     657.286E+03         24.4257
             796     4.86764E-03     25.2514E-03     852.614E-03     826.377E-03        -2.70155     836.056E-03        -2.69711     838.496E-03    -29.3365E-03     54.2370E-03    -27.0575E-03    -27.1827E-03    -26.8756E-03     54.0550E-03    -27.1827E-03     7.66190E-03    -20.4105E+06    -48.0890E+06    -221.870E+06    -48.0923E+06    -221.867E+06    -20.4105E+06     639.093E+03         24.2736
             797     3.89400E-03     25.2438E-03     886.568E-03     834.544E-03        -2.73836     867.905E-03        -2.71969     834.544E-03     203.240E-03     54.2616E-03    -27.0660E-03    -27.1964E-03    -26.9346E-03     54.1302E-03    -27.1964E-03     6.50613E-03    -30.8954E+06    -53.5755E+06    -242.471E+06    -53.5779E+06    -242.469E+06    -30.8954E+06     455.029E+03         24.1466
             798     2.92035E-03     25.2378E-03     906.042E-03     829.354E-03        -2.74433     835.548E-03        -2.67383     829.354E-03    -280.914E-03     54.2742E-03    -27.0926E-03    -27.1798E-03    -27.0078E-03     54.1894E-03    -27.1798E-03     5.20041E-03    -43.6502E+06    -58.7131E+06    -255.670E+06    -58.7143E+06    -255.668E+06    -43.6502E+06     135.634E+03         24.0534
             799     1.94690E-03     25.2330E-03     958.085E-03     848.782E-03        -2.81536     767.383E-03        -2.62466     848.782E-03     373.738E-03     54.2905E-03    -27.1172E-03    -27.1726E-03    -27.0888E-03     54.2465E-03    -27.1569E-03     3.70652E-03    -55.7384E+06    -63.2431E+06    -263.749E+06    -63.2435E+06    -263.749E+06    -55.7384E+06     59.1063E+03         23.9984
             800     973.490E-06     25.2299E-03         1.25288         1.11698        -3.39341     561.829E-03        -2.76215         1.17678        -1.06433     54.2599E-03    -27.0243E-03    -27.2365E-03    -27.2054E-03     54.2444E-03    -27.0398E-03     2.07702E-03    -64.1802E+06    -66.9709E+06    -267.445E+06    -66.7377E+06    -267.444E+06    -64.4137E+06     50.6767E+03         23.9717
             801     16.5562E-03     24.3955E-03     769.469E-03     710.091E-03        -2.50184     709.986E-03        -2.50174     769.469E-03     32.6061E-03     53.7873E-03    -25.9122E-03    -27.9385E-03    -25.1806E-03     52.0514E-03    -26.9341E-03     17.6920E-03     197.894E+06     115.622E+06    -7.75556E+06    -7.75476E+06     197.893E+06     115.622E+06     96.0777E+03         36.2587
             802     15.5818E-03     24.3605E-03     773.189E-03     706.740E-03        -2.50276     706.717E-03        -2.50274     773.189E-03     14.7511E-03     54.4173E-03    -26.6852E-03    -27.7392E-03    -25.4088E-03     52.1018E-03    -26.7001E-03     26.3373E-03     188.137E+06     60.7525E+06    -13.9764E+06    -13.9745E+06     188.136E+06     60.7525E+06     321.172E+03         33.7549
             803     14.6070E-03     24.3402E-03     777.204E-03     715.575E-03        -2.51880     715.497E-03        -2.51872     777.204E-03    -12.8416E-03     53.7928E-03    -26.5435E-03    -27.2424E-03    -25.6450E-03     52.2103E-03    -26.5584E-03     22.2433E-03     145.370E+06     14.6547E+06    -16.3580E+06    -16.3346E+06     145.347E+06     14.6547E+06     817.468E+03         31.4282
             804     13.6324E-03     24.3137E-03     781.949E-03     703.937E-03        -2.51574     703.701E-03        -2.51551     781.949E-03     13.6676E-03     54.2235E-03    -26.5946E-03    -27.5994E-03    -26.0312E-03     52.6553E-03    -26.5946E-03     22.2235E-03     68.1160E+06    -4.61815E+06    -15.9486E+06    -15.8998E+06     68.0671E+06    -4.61815E+06     1.23501E+06         29.5329
             805     12.6584E-03     24.2934E-03     787.848E-03     704.772E-03        -2.52583     704.597E-03        -2.52566     787.848E-03     28.5373E-03     53.9798E-03    -26.7104E-03    -27.2674E-03    -26.2824E-03     52.9948E-03    -26.7104E-03     17.7257E-03     9.62537E+06    -12.6238E+06    -25.0304E+06    -16.9752E+06    -4.38589E+06    -6.66771E+06     1.02265E+06         27.9784
             806     11.6842E-03     24.2760E-03     793.521E-03     732.312E-03        -2.55691     732.273E-03        -2.55687     793.521E-03     7.65405E-03     53.9143E-03    -26.8101E-03    -27.1334E-03    -26.4325E-03     53.2134E-03    -26.8101E-03     14.9460E-03    -4.56421E+06    -19.5738E+06    -52.3324E+06    -19.7313E+06    -52.1749E+06    -4.56421E+06     559.526E+03         26.7814
             807     10.7104E-03     24.2618E-03     798.425E-03     745.218E-03        -2.57233     745.177E-03        -2.57229     798.425E-03     20.7015E-03     53.9528E-03    -26.8994E-03    -27.0687E-03    -26.5477E-03     53.4318E-03    -26.8994E-03     12.9352E-03    -1.07237E+06    -21.8699E+06    -85.4409E+06    -21.8959E+06    -85.4149E+06    -1.07237E+06     633.158E+03         25.9592
             808     9.73650E-03     24.2489E-03     803.856E-03     742.966E-03        -2.57450     742.804E-03        -2.57434     803.856E-03    -7.32347E-03     53.9851E-03    -26.9762E-03    -27.0333E-03    -26.5820E-03     53.5434E-03    -26.9858E-03     11.9256E-03     1.15543E+06    -24.5863E+06    -112.424E+06    -24.6019E+06    -112.409E+06     1.15543E+06     810.768E+03         25.4475
             809     8.76258E-03     24.2368E-03     811.078E-03     736.409E-03        -2.57806     735.986E-03        -2.57764     811.078E-03    -19.1311E-03     54.0357E-03    -27.0183E-03    -27.0396E-03    -26.6368E-03     53.6541E-03    -27.0396E-03     11.0849E-03     595.233E+03    -28.0518E+06    -136.475E+06    -28.0596E+06    -136.467E+06     595.233E+03     901.331E+03         25.0957
             810     7.78880E-03     24.2256E-03     820.100E-03     743.870E-03        -2.59460     742.830E-03        -2.59356     820.100E-03     59.3584E-03     54.1195E-03    -27.0321E-03    -27.0913E-03    -26.7101E-03     53.7975E-03    -27.0913E-03     10.1955E-03    -976.619E+03    -32.1136E+06    -160.457E+06    -32.1260E+06    -160.445E+06    -976.619E+03     1.18147E+06         24.8198
             811     6.81503E-03     24.2152E-03     830.675E-03     785.675E-03        -2.64479     786.383E-03        -2.64273     827.902E-03    -26.0991E-03     54.1723E-03    -27.0342E-03    -27.1386E-03    -26.7611E-03     53.8992E-03    -27.1386E-03     9.39348E-03    -4.53559E+06    -37.0465E+06    -183.516E+06    -37.0604E+06    -183.502E+06    -4.53559E+06     1.35133E+06         24.6014
             812     5.84134E-03     24.2057E-03     836.356E-03     821.855E-03        -2.68862     822.519E-03        -2.68453     831.594E-03     52.3018E-03     54.1868E-03    -27.0377E-03    -27.1524E-03    -26.8101E-03     53.9592E-03    -27.1524E-03     8.57758E-03    -12.1418E+06    -42.5718E+06    -202.338E+06    -42.5815E+06    -202.328E+06    -12.1418E+06     1.15439E+06         24.4225
             813     4.86759E-03     24.1969E-03     841.094E-03     817.755E-03        -2.68811     817.209E-03        -2.68045     833.980E-03    -40.8057E-03     54.2160E-03    -27.0507E-03    -27.1714E-03    -26.8695E-03     54.0348E-03    -27.1714E-03     7.64890E-03    -21.3578E+06    -48.4111E+06    -221.411E+06    -48.4169E+06    -221.405E+06    -21.3578E+06     901.959E+03         24.2712
             814     3.89403E-03     24.1895E-03     862.621E-03     803.341E-03        -2.69119     804.640E-03        -2.66997     840.101E-03     156.886E-03     54.2458E-03    -27.0653E-03    -27.1833E-03    -26.9334E-03     54.1139E-03    -27.1833E-03     6.51375E-03    -31.9411E+06    -54.0265E+06    -241.740E+06    -54.0285E+06    -241.738E+06    -31.9411E+06     376.846E+03         24.1443
             815     2.92042E-03     24.1833E-03     900.855E-03     830.241E-03        -2.74956     805.205E-03        -2.67620     852.538E-03    -302.841E-03     54.2373E-03    -27.0637E-03    -27.1717E-03    -26.9792E-03     54.1528E-03    -27.1717E-03     5.19166E-03    -44.4249E+06    -59.1924E+06    -255.596E+06    -59.1925E+06    -255.595E+06    -44.4249E+06     13.3045E+03         24.0518
             816     1.94686E-03     24.1785E-03         1.01966     876.792E-03        -2.91289     811.796E-03        -2.70503     876.792E-03     436.117E-03     54.2512E-03    -27.0783E-03    -27.1723E-03    -27.0345E-03     54.2074E-03    -27.1723E-03     3.68517E-03    -55.9278E+06    -63.4475E+06    -263.631E+06    -63.4478E+06    -263.631E+06    -55.9278E+06     4.43775E+03         23.9987
             817     973.298E-06     24.1757E-03         1.36282         1.15045        -3.54633     635.428E-03        -2.81894         1.15045        -1.20336     54.3316E-03    -27.0986E-03    -27.2338E-03    -27.1772E-03     54.3161E-03    -27.1397E-03     2.11380E-03    -63.5180E+06    -66.3103E+06    -267.272E+06    -66.1106E+06    -267.272E+06    -63.7180E+06    -51.4317E+03         23.9735
             818     16.5565E-03     23.3413E-03     764.928E-03     700.295E-03        -2.49779     700.169E-03        -2.49767     764.928E-03    -748.307E-06     53.7302E-03    -25.8827E-03    -27.9207E-03    -25.1076E-03     51.9590E-03    -26.9245E-03     17.7933E-03     197.826E+06     114.324E+06    -7.59115E+06    -7.59002E+06     197.825E+06     114.324E+06     358.725E+03         36.2507
             819     15.5813E-03     23.3056E-03     768.479E-03     713.241E-03        -2.51944     713.162E-03        -2.51936     768.479E-03    -11.8154E-03     54.4340E-03    -26.6947E-03    -27.7467E-03    -25.3949E-03     52.0823E-03    -26.6947E-03     26.5069E-03     187.962E+06     59.4026E+06    -13.4900E+06    -13.4888E+06     187.961E+06     59.4026E+06     425.820E+03         33.7478
             820     14.6069E-03     23.2861E-03     772.451E-03     702.240E-03        -2.51567     702.148E-03        -2.51557     772.451E-03    -19.3257E-03     53.8880E-03    -26.5371E-03    -27.3482E-03    -25.7407E-03     52.2805E-03    -26.5371E-03     22.4301E-03     145.914E+06     10.8204E+06    -16.5970E+06    -16.5892E+06     145.906E+06     10.8204E+06    -606.349E+03         31.4214
             821     13.6326E-03     23.2590E-03     777.401E-03     702.004E-03        -2.51476     701.814E-03        -2.51457     777.401E-03     7.19751E-03     54.2818E-03    -26.5681E-03    -27.6879E-03    -26.0926E-03     52.6865E-03    -26.5681E-03     22.4193E-03     66.6001E+06    -9.81005E+06    -17.3766E+06    -17.3362E+06     66.5597E+06    -9.81005E+06     91.7418E+03         29.5263
             822     12.6584E-03     23.2390E-03     782.814E-03     710.234E-03        -2.52893     709.961E-03        -2.52866     782.814E-03    -929.451E-06     54.0065E-03    -26.6966E-03    -27.3073E-03    -26.3143E-03     53.0135E-03    -26.6966E-03     17.8073E-03     6.92646E+06    -13.4535E+06    -23.9197E+06    -17.4909E+06    -4.39542E+06    -8.56044E+06     2.10534E+06         27.9724
             823     11.6844E-03     23.2216E-03     788.291E-03     722.301E-03        -2.54628     722.107E-03        -2.54608     788.291E-03    -13.8274E-03     53.9278E-03    -26.7934E-03    -27.1595E-03    -26.4514E-03     53.2197E-03    -26.7934E-03     15.0235E-03    -5.43319E+06      -18.33E+06    -51.4527E+06    -18.6808E+06    -51.1020E+06    -5.43319E+06     1.71279E+06         26.7762
             824     10.7104E-03     23.2073E-03     794.279E-03     721.884E-03        -2.55036     721.832E-03        -2.55031     794.279E-03     10.9926E-03     53.9232E-03    -26.8849E-03    -27.0471E-03    -26.5261E-03     53.4022E-03    -26.8849E-03     12.9294E-03    -1.91943E+06    -21.2687E+06    -86.1367E+06    -21.3176E+06    -86.0878E+06    -1.91943E+06     1.38031E+06         25.9549
             825     9.73650E-03     23.1944E-03     802.181E-03     709.588E-03        -2.54720     709.382E-03        -2.54699     802.181E-03    -12.1558E-03     53.9674E-03    -26.9645E-03    -27.0249E-03    -26.5781E-03     53.5285E-03    -26.9724E-03     11.8863E-03     451.973E+03    -24.4018E+06    -112.093E+06    -24.4436E+06    -112.051E+06     451.973E+03     1.78990E+06         25.4435
             826     8.76266E-03     23.1823E-03     812.001E-03     718.978E-03        -2.56400     718.635E-03        -2.56366     812.001E-03    -29.7366E-03     54.0299E-03    -27.0139E-03    -27.0383E-03    -26.6448E-03     53.6506E-03    -27.0281E-03     11.0531E-03    -163.438E+03    -28.2829E+06    -136.508E+06    -28.3177E+06    -136.473E+06    -163.438E+03     1.78289E+06         25.0913
             827     7.78882E-03     23.1710E-03     820.830E-03     763.089E-03        -2.61647     762.583E-03        -2.61596     820.830E-03     25.1530E-03     54.1129E-03    -27.0324E-03    -27.0810E-03    -26.7139E-03     53.7944E-03    -27.0810E-03     10.1374E-03    -1.67164E+06    -32.8247E+06    -160.367E+06    -32.8554E+06    -160.336E+06    -1.67164E+06     1.89352E+06         24.8151
             828     6.81509E-03     23.1608E-03     828.724E-03     804.499E-03        -2.66474     805.053E-03        -2.66252     825.950E-03    -68.3301E-03     54.1603E-03    -27.0308E-03    -27.1269E-03    -26.7604E-03     53.8900E-03    -27.1269E-03     9.34823E-03    -5.20828E+06    -37.5669E+06    -183.279E+06    -37.5925E+06    -183.253E+06    -5.20828E+06     1.90346E+06         24.5972
             829     5.84135E-03     23.1510E-03     833.026E-03     817.726E-03        -2.68101     818.233E-03        -2.67676     828.264E-03     15.0316E-03     54.1551E-03    -27.0194E-03    -27.1375E-03    -26.7936E-03     53.9293E-03    -27.1375E-03     8.53955E-03    -12.8616E+06    -42.8407E+06    -201.790E+06    -42.8626E+06    -201.768E+06    -12.8616E+06     1.82377E+06         24.4188
             830     4.86772E-03     23.1427E-03     834.441E-03     804.030E-03        -2.67225     798.958E-03        -2.66519     832.452E-03    -46.9780E-03     54.1764E-03    -27.0232E-03    -27.1585E-03    -26.8438E-03     53.9969E-03    -27.1585E-03     7.61002E-03    -21.8758E+06    -48.3590E+06    -220.467E+06    -48.3702E+06    -220.456E+06    -21.8758E+06     1.30647E+06         24.2684
             831     3.89396E-03     23.1350E-03     846.346E-03     789.127E-03        -2.66887     762.046E-03        -2.64179     846.346E-03     208.805E-03     54.2316E-03    -27.0611E-03    -27.1715E-03    -26.9295E-03     54.1000E-03    -27.1715E-03     6.50700E-03    -32.2329E+06    -54.0818E+06    -240.806E+06    -54.0847E+06    -240.803E+06    -32.2329E+06     529.285E+03         24.1425
             832     2.92051E-03     23.1288E-03     943.117E-03     828.662E-03        -2.79829     827.673E-03        -2.71688     862.697E-03    -287.623E-03     54.2383E-03    -27.0796E-03    -27.1569E-03    -26.9977E-03     54.1549E-03    -27.1553E-03     5.15476E-03    -44.4521E+06    -59.5927E+06    -255.354E+06    -59.5929E+06    -255.354E+06    -44.4521E+06    -45.7630E+03         24.0502
             833     1.94688E-03     23.1240E-03         1.16108     848.839E-03        -3.03156     927.251E-03        -2.79773     848.839E-03     522.160E-03     54.2211E-03    -27.0783E-03    -27.1427E-03    -27.0380E-03     54.1784E-03    -27.1403E-03     3.64153E-03    -56.2138E+06    -63.9523E+06    -263.554E+06    -63.9526E+06    -263.554E+06    -56.2138E+06    -215.806E+03         23.9971
             834     973.434E-06     23.1208E-03         1.51935         1.01231        -3.55566     645.754E-03        -2.68206         1.01231        -1.25530     54.2462E-03    -27.0668E-03    -27.1796E-03    -27.1391E-03     54.2312E-03    -27.0924E-03     2.05733E-03    -64.6609E+06    -67.2137E+06    -267.543E+06    -67.0141E+06    -267.543E+06    -64.8609E+06    -261.698E+03         23.9725
             835     16.5562E-03     22.2867E-03     761.317E-03     708.631E-03        -2.51048     708.469E-03        -2.51032     761.317E-03    -38.0769E-03     53.7146E-03    -25.8661E-03    -27.9227E-03    -25.1059E-03     51.9518E-03    -26.9201E-03     17.8187E-03     197.794E+06     113.650E+06    -7.45241E+06    -7.45155E+06     197.794E+06     113.650E+06     127.923E+03         36.2394
             836     15.5814E-03     22.2515E-03     764.434E-03     711.814E-03        -2.51254     711.710E-03        -2.51243     764.434E-03    -12.7886E-03     54.4201E-03    -26.6933E-03    -27.7406E-03    -25.3994E-03     52.0788E-03    -26.6933E-03     26.4509E-03     187.933E+06     59.2728E+06    -12.8480E+06    -12.8471E+06     187.932E+06     59.2728E+06     145.306E+03         33.7375
             837     14.6067E-03     22.2310E-03     768.306E-03     698.969E-03        -2.50214     698.831E-03        -2.50200     768.306E-03    -19.5615E-03     53.9021E-03    -26.5624E-03    -27.3286E-03    -25.7482E-03     52.3218E-03    -26.5624E-03     22.2595E-03     146.415E+06     14.5064E+06    -16.9748E+06    -16.9460E+06     146.386E+06     14.5064E+06     512.024E+03         31.4114
             838     13.6325E-03     22.2047E-03     773.106E-03     701.214E-03        -2.51055     701.065E-03        -2.51040     773.106E-03    -7.82397E-03     54.3067E-03    -26.5798E-03    -27.6978E-03    -26.1234E-03     52.7323E-03    -26.5798E-03     22.3042E-03     65.1087E+06    -9.79907E+06    -20.5127E+06    -20.4732E+06     65.0692E+06    -9.79907E+06     797.879E+03         29.5164
             839     12.6583E-03     22.1843E-03     778.201E-03     710.780E-03        -2.52739     710.442E-03        -2.52705     778.201E-03    -26.4571E-03     54.0318E-03    -26.6879E-03    -27.3479E-03    -26.3555E-03     53.0394E-03    -26.6879E-03     17.8014E-03     4.85799E+06    -18.5332E+06    -24.8815E+06    -21.6111E+06    -5.11466E+06    -11.8310E+06     1.04359E+06         27.9631
             840     11.6844E-03     22.1672E-03     783.877E-03     708.969E-03        -2.53038     708.675E-03        -2.53009     783.877E-03    -40.0184E-03     53.9471E-03    -26.7867E-03    -27.1850E-03    -26.4880E-03     53.2501E-03    -26.7867E-03     14.9067E-03    -6.48629E+06    -21.2432E+06    -50.8783E+06    -21.5338E+06    -50.5878E+06    -6.48629E+06     1.96624E+06         26.7688
             841     10.7105E-03     22.1528E-03     790.657E-03     709.420E-03        -2.53574     709.368E-03        -2.53569     790.657E-03     6.79798E-03     53.9036E-03    -26.8722E-03    -27.0378E-03    -26.5263E-03     53.3921E-03    -26.8722E-03     12.8099E-03    -3.03017E+06    -22.7997E+06    -86.3779E+06    -22.8936E+06    -86.2840E+06    -3.03017E+06     2.30873E+06         25.9497
             842     9.73657E-03     22.1400E-03     798.660E-03     711.523E-03        -2.54535     711.423E-03        -2.54525     798.660E-03     20.8142E-03     53.9518E-03    -26.9590E-03    -27.0136E-03    -26.5824E-03     53.5206E-03    -26.9590E-03     11.7806E-03    -218.177E+03    -25.3559E+06    -112.058E+06    -25.4209E+06    -111.993E+06    -218.177E+03     2.36475E+06         25.4389
             843     8.76277E-03     22.1278E-03     807.357E-03     727.956E-03        -2.57031     727.851E-03        -2.57020     807.357E-03     6.52778E-03     54.0278E-03    -27.0072E-03    -27.0401E-03    -26.6645E-03     53.6568E-03    -27.0119E-03     10.9295E-03    -698.357E+03    -28.4621E+06    -136.428E+06    -28.5315E+06    -136.359E+06    -698.357E+03     2.72088E+06         25.0858
             844     7.78896E-03     22.1166E-03     814.828E-03     764.752E-03        -2.61398     764.222E-03        -2.61345     814.828E-03     46.1469E-03     54.0858E-03    -27.0153E-03    -27.0676E-03    -26.7095E-03     53.7755E-03    -27.0632E-03     10.0045E-03    -1.85703E+06    -32.6161E+06    -159.892E+06    -32.6790E+06    -159.829E+06    -1.85703E+06     2.73617E+06         24.8082
             845     6.81520E-03     22.1063E-03     820.711E-03     783.265E-03        -2.63917     781.264E-03        -2.63717     820.711E-03    -45.1595E-03     54.1112E-03    -27.0026E-03    -27.1066E-03    -26.7398E-03     53.8484E-03    -27.1066E-03     9.21110E-03    -5.70436E+06    -37.9529E+06    -182.963E+06    -38.0072E+06    -182.909E+06    -5.70436E+06     2.70098E+06         24.5896
             846     5.84148E-03     22.0970E-03     827.442E-03     783.361E-03        -2.64571     779.935E-03        -2.64229     827.442E-03     12.2392E-03     54.1035E-03    -26.9894E-03    -27.1163E-03    -26.7679E-03     53.8821E-03    -27.1163E-03     8.45451E-03    -13.4362E+06    -43.4690E+06    -200.760E+06    -43.5031E+06    -200.726E+06    -13.4362E+06     2.24699E+06         24.4113
             847     4.86769E-03     22.0881E-03     836.883E-03     803.069E-03        -2.67667     798.185E-03        -2.67000     835.099E-03    -65.4523E-03     54.1476E-03    -27.0133E-03    -27.1365E-03    -26.8369E-03     53.9712E-03    -27.1365E-03     7.53990E-03    -22.2852E+06    -48.8396E+06    -219.306E+06    -48.8540E+06    -219.292E+06    -22.2852E+06     1.52551E+06         24.2618
             848     3.89414E-03     22.0804E-03     870.286E-03     820.856E-03        -2.73483     821.087E-03        -2.70609     841.315E-03     229.769E-03     54.1860E-03    -27.0382E-03    -27.1460E-03    -26.9096E-03     54.0575E-03    -27.1460E-03     6.43174E-03    -32.6635E+06    -54.3816E+06    -239.788E+06    -54.3867E+06    -239.783E+06    -32.6635E+06     862.293E+03         24.1372
             849     2.92044E-03     22.0742E-03     974.039E-03     829.086E-03        -2.84886     858.394E-03        -2.74495     840.823E-03    -363.998E-03     54.2096E-03    -27.0740E-03    -27.1340E-03    -27.0011E-03     54.1273E-03    -27.1247E-03     5.11396E-03    -44.8686E+06    -59.8309E+06    -254.718E+06    -59.8318E+06    -254.717E+06    -44.8686E+06     89.7520E+03         24.0453
             850     1.94713E-03     22.0696E-03         1.17243     826.035E-03        -3.03292     873.019E-03        -2.73350     826.035E-03     545.288E-03     54.1948E-03    -27.0827E-03    -27.1129E-03    -27.0707E-03     54.1527E-03    -27.0827E-03     3.62439E-03    -56.8414E+06    -64.3607E+06    -263.593E+06    -64.3610E+06    -263.593E+06    -56.8414E+06    -180.806E+03         23.9912
             851     973.568E-06     22.0666E-03         1.58813         1.02918        -3.64041     599.409E-03        -2.65169         1.02918        -1.30753     54.0892E-03    -26.9609E-03    -27.1274E-03    -27.1120E-03     54.0739E-03    -26.9609E-03     2.08605E-03    -65.3887E+06    -67.8902E+06    -267.857E+06    -67.5406E+06    -267.855E+06    -65.7403E+06     155.527E+03         23.9656
             852     16.5562E-03     21.2321E-03     762.013E-03     727.166E-03        -2.52585     731.263E-03        -2.52561     757.677E-03    -12.4294E-03     53.8111E-03    -25.9020E-03    -27.9623E-03    -25.1877E-03     52.0664E-03    -26.9319E-03     17.7997E-03     197.979E+06     115.287E+06    -7.58344E+06    -7.58315E+06     197.978E+06     115.287E+06    -36.2616E+03         36.2253
             853     15.5814E-03     21.1970E-03     760.012E-03     706.971E-03        -2.50228     706.857E-03        -2.50216     760.012E-03     8.25168E-03     54.4840E-03    -26.6985E-03    -27.7930E-03    -25.4636E-03     52.1546E-03    -26.6985E-03     26.4419E-03     187.603E+06     60.3522E+06    -13.8940E+06    -13.8927E+06     187.602E+06     60.3522E+06     189.902E+03         33.7246
             854     14.6069E-03     21.1766E-03     763.451E-03     706.385E-03        -2.50816     706.277E-03        -2.50805     763.451E-03     10.6641E-03     53.9033E-03    -26.5768E-03    -27.3069E-03    -25.7414E-03     52.3377E-03    -26.5768E-03     22.1761E-03     144.937E+06     17.2563E+06    -17.8587E+06    -17.8192E+06     144.897E+06     17.2563E+06     1.83657E+06         31.3984
             855     13.6324E-03     21.1500E-03     767.576E-03     701.699E-03        -2.51104     701.604E-03        -2.51094     767.576E-03     7.19554E-03     54.3273E-03    -26.5949E-03    -27.6989E-03    -26.1604E-03     52.7888E-03    -26.5949E-03     22.0520E-03     66.5819E+06    -5.17592E+06    -19.5344E+06    -19.4869E+06     66.5344E+06    -5.17592E+06     1.92993E+06         29.5027
             856     12.6586E-03     21.1298E-03     772.783E-03     695.442E-03        -2.51139     695.238E-03        -2.51119     772.783E-03    -986.577E-06     54.0531E-03    -26.6818E-03    -27.3776E-03    -26.4104E-03     53.0858E-03    -26.6818E-03     17.5819E-03     7.10238E+06    -17.9264E+06    -26.2032E+06    -20.7932E+06    -5.38929E+06    -10.8447E+06     733.554E+03         27.9495
             857     11.6846E-03     21.1124E-03     779.016E-03     698.627E-03        -2.51790     698.484E-03        -2.51776     779.016E-03    -17.4601E-03     53.9359E-03    -26.7748E-03    -27.1910E-03    -26.5152E-03     53.2601E-03    -26.7748E-03     14.6777E-03    -6.58084E+06    -22.1545E+06    -52.0791E+06    -22.2435E+06    -51.9901E+06    -6.58084E+06     1.55618E+06         26.7571
             858     10.7107E-03     21.0984E-03     785.636E-03     711.972E-03        -2.53554     711.934E-03        -2.53550     785.636E-03     15.0011E-03     53.9097E-03    -26.8501E-03    -27.0715E-03    -26.5784E-03     53.4166E-03    -26.8501E-03     12.5817E-03    -3.33716E+06    -23.5006E+06    -85.8196E+06    -23.5988E+06    -85.7214E+06    -3.33716E+06     2.36907E+06         25.9407
             859     9.73682E-03     21.0854E-03     791.956E-03     730.874E-03        -2.56344     730.828E-03        -2.56339     791.956E-03     21.4728E-03     53.9304E-03    -26.9304E-03    -27.0217E-03    -26.6052E-03     53.5138E-03    -26.9304E-03     11.5773E-03    -690.666E+03    -25.6783E+06    -112.288E+06    -25.7596E+06    -112.206E+06    -690.666E+03     2.64360E+06         25.4308
             860     8.76298E-03     21.0733E-03     797.769E-03     746.518E-03        -2.58605     746.368E-03        -2.58590     797.769E-03    -21.4009E-03     53.9821E-03    -26.9770E-03    -27.0236E-03    -26.6671E-03     53.6257E-03    -26.9770E-03     10.7088E-03    -1.41151E+06    -28.6921E+06    -136.325E+06    -28.7749E+06    -136.242E+06    -1.41151E+06     2.97578E+06         25.0766
             861     7.78924E-03     21.0621E-03     804.167E-03     746.282E-03        -2.59030     745.855E-03        -2.58987     804.167E-03     13.4270E-03     54.0222E-03    -26.9738E-03    -27.0453E-03    -26.6970E-03     53.7269E-03    -27.0269E-03     9.75303E-03    -1.99985E+06    -32.4253E+06    -159.948E+06    -32.5306E+06    -159.843E+06    -1.99985E+06     3.63135E+06         24.7968
             862     6.81543E-03     21.0517E-03     812.090E-03     752.740E-03        -2.60596     750.881E-03        -2.60411     812.090E-03    -59.5118E-03     54.0227E-03    -26.9523E-03    -27.0692E-03    -26.7015E-03     53.7720E-03    -27.0692E-03     8.99055E-03    -4.95305E+06    -37.2484E+06    -181.844E+06    -37.3478E+06    -181.745E+06    -4.95305E+06     3.70227E+06         24.5761
             863     5.84160E-03     21.0426E-03     821.175E-03     769.137E-03        -2.63299     763.562E-03        -2.62742     821.175E-03     55.3126E-03     54.0322E-03    -26.9579E-03    -27.0766E-03    -26.7458E-03     53.8201E-03    -27.0766E-03     8.26891E-03    -13.0244E+06    -42.8290E+06    -199.258E+06    -42.8805E+06    -199.206E+06    -13.0244E+06     2.76409E+06         24.3970
             864     4.86796E-03     21.0339E-03     832.376E-03     791.654E-03        -2.66782     783.479E-03        -2.65786     830.592E-03    -45.3753E-03     54.0729E-03    -26.9830E-03    -27.0904E-03    -26.8139E-03     53.9038E-03    -27.0904E-03     7.37819E-03    -22.7740E+06    -48.8118E+06    -218.310E+06     -48.838E+06    -218.284E+06    -22.7740E+06     2.00396E+06         24.2480
             865     3.89425E-03     21.0262E-03     880.118E-03     821.030E-03        -2.74504     841.183E-03        -2.71946     834.385E-03     175.318E-03     54.0992E-03    -27.0047E-03    -27.0930E-03    -26.8811E-03     53.9756E-03    -27.0930E-03     6.30074E-03    -33.6711E+06    -54.7918E+06    -238.573E+06    -54.8025E+06    -238.562E+06    -33.6711E+06     1.29547E+06         24.1247
             866     2.92070E-03     21.0200E-03     967.828E-03     829.650E-03        -2.83970     852.941E-03        -2.72481     829.650E-03    -461.025E-03     54.0931E-03    -27.0138E-03    -27.0796E-03    -26.9410E-03     54.0125E-03    -27.0718E-03     5.06512E-03    -45.9821E+06    -60.1413E+06    -253.893E+06    -60.1440E+06    -253.890E+06    -45.9821E+06     538.751E+03         24.0337
             867     1.94703E-03     21.0150E-03         1.13308     840.005E-03        -3.01166     783.282E-03        -2.66186     840.005E-03     565.843E-03     54.0884E-03    -27.0196E-03    -27.0702E-03    -27.0060E-03     54.0466E-03    -27.0419E-03     3.59402E-03    -57.3901E+06    -64.8216E+06    -263.617E+06    -64.8221E+06    -263.616E+06    -57.3901E+06     117.535E+03         23.9804
             868     973.634E-06     21.0125E-03         1.67832         1.08906        -3.80289     619.383E-03        -2.74396         1.08906        -1.41918     54.0222E-03    -26.9329E-03    -27.0887E-03    -27.0739E-03     54.0074E-03    -26.9329E-03     2.07141E-03    -65.3497E+06    -68.0836E+06    -267.640E+06    -67.7338E+06    -267.638E+06    -65.7012E+06     285.208E+03         23.9557
             869     16.5562E-03     20.1775E-03     758.379E-03     724.222E-03        -2.53236     728.382E-03        -2.53219     754.042E-03     11.5359E-03     53.8323E-03    -25.9372E-03    -27.9539E-03    -25.2226E-03     52.0940E-03    -26.9300E-03     17.7708E-03     197.691E+06     114.988E+06    -7.95403E+06    -7.95140E+06     197.689E+06     114.988E+06     412.693E+03         36.2087
             870     15.5815E-03     20.1423E-03     755.970E-03     716.652E-03        -2.52671     716.497E-03        -2.52655     755.970E-03    -18.5920E-03     54.5158E-03    -26.6944E-03    -27.8342E-03    -25.5118E-03     52.1934E-03    -26.6944E-03     26.4148E-03     186.990E+06     60.1793E+06    -14.6141E+06    -14.6061E+06     186.982E+06     60.1793E+06     1.08742E+06         33.7089
             871     14.6069E-03     20.1219E-03     758.607E-03     714.336E-03        -2.52373     714.114E-03        -2.52350     758.607E-03    -23.0624E-03     53.9870E-03    -26.5434E-03    -27.4280E-03    -25.8631E-03     52.4222E-03    -26.5434E-03     22.1994E-03     144.406E+06     13.2625E+06    -17.6849E+06    -17.6545E+06     144.375E+06     13.2625E+06     836.882E+03         31.3818
             872     13.6329E-03     20.0952E-03     761.902E-03     708.742E-03        -2.51505     708.574E-03        -2.51489     761.902E-03    -6.43368E-03     54.3859E-03    -26.5535E-03    -27.8022E-03    -26.2728E-03     52.8565E-03    -26.5535E-03     22.0005E-03     67.1320E+06    -8.31287E+06    -17.5675E+06    -17.4713E+06     67.0359E+06    -8.31287E+06     1.23290E+06         29.4846
             873     12.6588E-03     20.0751E-03     766.347E-03     697.833E-03        -2.50533     697.586E-03        -2.50509     766.347E-03    -8.99933E-03     54.0897E-03    -26.6512E-03    -27.4421E-03    -26.5025E-03     53.1501E-03    -26.6512E-03     17.3297E-03     7.25852E+06    -15.7735E+06    -25.6535E+06    -18.2466E+06    -5.38745E+06    -10.5344E+06     2.20857E+06         27.9302
             874     11.6849E-03     20.0581E-03     772.098E-03     695.109E-03        -2.50960     694.894E-03        -2.50938     772.098E-03    -11.8561E-03     53.9429E-03    -26.7361E-03    -27.2407E-03    -26.5943E-03     53.2965E-03    -26.7361E-03     14.3637E-03    -7.04352E+06    -20.3220E+06    -52.9081E+06    -20.5814E+06    -52.6487E+06    -7.04352E+06     2.17289E+06         26.7378
             875     10.7111E-03     20.0437E-03     778.438E-03     707.441E-03        -2.52917     707.366E-03        -2.52910     778.438E-03     1.43807E-03     53.9097E-03    -26.8029E-03    -27.1187E-03    -26.6533E-03     53.4443E-03    -26.8029E-03     12.2191E-03    -3.64382E+06    -22.8356E+06    -86.0206E+06    -22.9485E+06    -85.9077E+06    -3.64382E+06     2.63831E+06         25.9227
             876     9.73736E-03     20.0310E-03     784.179E-03     732.094E-03        -2.55972     732.029E-03        -2.55966     784.179E-03    -12.3209E-03     53.8978E-03    -26.8706E-03    -27.0441E-03    -26.6576E-03     53.5114E-03    -26.8706E-03     11.1520E-03    -1.14573E+06    -25.6459E+06    -112.058E+06    -25.7644E+06    -111.940E+06    -1.14573E+06     3.14182E+06         25.4136
             877     8.76351E-03     20.0186E-03     789.333E-03     742.357E-03        -2.57749     741.952E-03        -2.57709     789.333E-03    -51.1075E-03     53.8708E-03    -26.9111E-03    -26.9766E-03    -26.6448E-03     53.5392E-03    -26.9112E-03     10.3181E-03    -1.96458E+06    -29.1926E+06    -136.584E+06    -29.3106E+06    -136.466E+06    -1.96458E+06     3.52091E+06         25.0590
             878     7.78972E-03     20.0077E-03     795.151E-03     743.633E-03        -2.58458     742.901E-03        -2.58385     795.151E-03    -1.90784E-03     53.8881E-03    -26.9172E-03    -26.9681E-03    -26.6587E-03     53.6156E-03    -26.9542E-03     9.35684E-03    -2.93307E+06    -33.0396E+06    -160.031E+06    -33.1693E+06    -159.901E+06    -2.93307E+06     3.99571E+06         24.7778
             879     6.81585E-03     19.9975E-03     802.027E-03     752.915E-03        -2.59798     750.233E-03        -2.59530     802.027E-03    -76.8930E-03     53.8931E-03    -26.9008E-03    -26.9913E-03    -26.6692E-03     53.6615E-03    -26.9913E-03     8.63193E-03    -5.36762E+06    -37.1792E+06    -180.446E+06    -37.2935E+06    -180.331E+06    -5.36762E+06     3.99293E+06         24.5550
             880     5.84209E-03     19.9879E-03     808.731E-03     777.948E-03        -2.62774     771.401E-03        -2.62119     808.731E-03     40.8778E-03     53.8779E-03    -26.8858E-03    -26.9954E-03    -26.6888E-03     53.6809E-03    -26.9954E-03     7.95699E-03    -13.1935E+06    -42.4080E+06    -197.936E+06    -42.4988E+06    -197.845E+06    -13.1935E+06     3.69619E+06         24.3746
             881     4.86828E-03     19.9794E-03     824.580E-03     792.836E-03        -2.66158     792.675E-03        -2.65066     813.825E-03    -50.1412E-03     53.8991E-03    -26.8947E-03    -27.0062E-03    -26.7365E-03     53.7409E-03    -27.0062E-03     7.12649E-03    -23.1334E+06    -48.4187E+06    -216.977E+06    -48.4773E+06    -216.919E+06    -23.1334E+06     3.03649E+06         24.2254
             882     3.89456E-03     19.9721E-03     848.723E-03     804.406E-03        -2.69629     801.838E-03        -2.66276     817.761E-03     217.660E-03     53.9289E-03    -26.9215E-03    -27.0075E-03    -26.8042E-03     53.8116E-03    -27.0075E-03     6.12978E-03    -34.1572E+06    -54.3908E+06    -236.986E+06    -54.4157E+06    -236.961E+06    -34.1572E+06     1.97250E+06         24.1031
             883     2.92086E-03     19.9657E-03     902.922E-03     824.650E-03        -2.76293     794.333E-03        -2.65435     824.650E-03    -333.328E-03     53.9207E-03    -26.9323E-03    -26.9907E-03    -26.8563E-03     53.8447E-03    -26.9907E-03     4.90511E-03    -45.9675E+06    -59.9360E+06    -252.911E+06    -59.9428E+06    -252.904E+06    -45.9675E+06     1.07703E+06         24.0141
             884     1.94721E-03     19.9609E-03         1.12367     841.712E-03        -2.99563     793.316E-03        -2.66528     841.712E-03     641.355E-03     53.9009E-03    -26.9236E-03    -26.9776E-03    -26.8853E-03     53.8621E-03    -26.9770E-03     3.45647E-03    -57.3708E+06    -64.7636E+06    -263.350E+06    -64.7670E+06    -263.346E+06    -57.3708E+06     726.654E+03         23.9631
             885     973.506E-06     19.9578E-03         1.79000         1.03936        -3.85948     668.045E-03        -2.73752         1.03936        -1.56737     53.9167E-03    -26.9032E-03    -27.0133E-03    -26.9744E-03     53.9034E-03    -26.9287E-03     1.93125E-03    -65.7883E+06    -67.8834E+06    -266.989E+06    -67.8863E+06    -266.986E+06    -65.7883E+06     15.0355E+03         23.9410
             886     16.5563E-03     19.1229E-03     751.417E-03     709.749E-03        -2.50344     709.380E-03        -2.50307     751.417E-03    -33.0781E-03     53.8788E-03    -25.9396E-03    -27.9970E-03    -25.2884E-03     52.1529E-03    -26.9223E-03     17.8004E-03     196.750E+06     114.254E+06    -7.86935E+06    -7.86530E+06     196.746E+06     114.254E+06     770.559E+03         36.1898
             887     15.5815E-03     19.0877E-03     753.542E-03     724.062E-03        -2.52141     723.967E-03        -2.52131     753.542E-03    -31.1282E-03     54.6167E-03    -26.6762E-03    -27.9502E-03    -25.6460E-03     52.3125E-03    -26.6762E-03     26.3473E-03     187.016E+06     59.3914E+06    -13.5028E+06    -13.4936E+06     187.007E+06     59.3914E+06     1.29805E+06         33.6907
             888     14.6072E-03     19.0670E-03     755.493E-03     723.391E-03        -2.52285     723.191E-03        -2.52265     755.493E-03    -45.9684E-03     54.0763E-03    -26.5243E-03    -27.5386E-03    -26.0114E-03     52.5491E-03    -26.5243E-03     21.9771E-03     145.472E+06     13.5549E+06    -17.2632E+06    -17.2353E+06     145.444E+06     13.5549E+06     802.922E+03         31.3620
             889     13.6330E-03     19.0408E-03     757.829E-03     720.924E-03        -2.52680     720.775E-03        -2.52665     757.829E-03    -13.4855E-03     54.4567E-03    -26.5199E-03    -27.9113E-03    -26.4266E-03     52.9721E-03    -26.5199E-03     21.7126E-03     65.2663E+06    -10.4171E+06    -20.2938E+06    -20.2058E+06     65.1783E+06    -10.4171E+06     1.06042E+06         29.4616
             890     12.6593E-03     19.0201E-03     760.803E-03     716.074E-03        -2.52722     715.828E-03        -2.52698     760.803E-03    -22.9761E-03     54.1728E-03    -26.5998E-03    -27.5798E-03    -26.6895E-03     53.2826E-03    -26.5998E-03     16.8589E-03     5.47982E+06    -18.1334E+06    -26.2260E+06    -20.9270E+06    -5.76708E+06    -12.1855E+06     2.44524E+06         27.9038
             891     11.6857E-03     19.0035E-03     764.749E-03     709.563E-03        -2.52250     709.317E-03        -2.52225     764.749E-03    -20.0589E-03     53.9713E-03    -26.6666E-03    -27.3393E-03    -26.7539E-03     53.3859E-03    -26.6666E-03     13.6830E-03    -7.23624E+06    -20.8288E+06    -52.5748E+06    -21.3688E+06    -52.0349E+06    -7.23624E+06     3.02244E+06         26.7081
             892     10.7119E-03     18.9891E-03     769.769E-03     707.875E-03        -2.52662     707.745E-03        -2.52649     769.769E-03    -11.5356E-03     53.8617E-03    -26.7162E-03    -27.1567E-03    -26.7381E-03     53.4431E-03    -26.7162E-03     11.5806E-03    -4.10709E+06    -23.0788E+06    -86.6659E+06    -23.2579E+06    -86.4868E+06    -4.10709E+06     3.31443E+06         25.8902
             893     9.73825E-03     18.9767E-03     774.961E-03     725.235E-03        -2.54982     725.066E-03        -2.54965     774.961E-03    -17.3515E-03     53.8009E-03    -26.7691E-03    -27.0473E-03    -26.7087E-03     53.4623E-03    -26.7691E-03     10.4277E-03    -1.14478E+06    -25.6251E+06    -111.907E+06    -25.7996E+06    -111.732E+06    -1.14478E+06     3.83913E+06         25.3801
             894     8.76449E-03     18.9645E-03     779.514E-03     740.503E-03        -2.57134     740.121E-03        -2.57096     779.514E-03    -17.6420E-03     53.7075E-03    -26.7955E-03    -26.9302E-03    -26.6428E-03     53.4202E-03    -26.7956E-03     9.58475E-03    -1.87766E+06    -28.8294E+06    -136.661E+06    -28.9987E+06    -136.491E+06    -1.87766E+06     4.21781E+06         25.0255
             895     7.79054E-03     18.9535E-03     784.057E-03     745.177E-03        -2.57482     744.189E-03        -2.57383     784.057E-03     40.3692E-03     53.6631E-03    -26.8117E-03    -26.8514E-03    -26.6034E-03     53.4271E-03    -26.8237E-03     8.68567E-03    -3.27375E+06    -32.5038E+06    -159.248E+06    -32.6362E+06    -159.116E+06    -3.27375E+06     4.04292E+06         24.7433
             896     6.81677E-03     18.9434E-03     789.425E-03     750.632E-03        -2.58032     747.248E-03        -2.57694     789.425E-03    -68.1260E-03     53.6508E-03    -26.7991E-03    -26.8509E-03    -26.5989E-03     53.4506E-03    -26.8509E-03     8.00209E-03    -6.09699E+06    -36.8429E+06    -179.995E+06    -36.9635E+06    -179.875E+06    -6.09699E+06     4.14229E+06         24.5203
             897     5.84282E-03     18.9338E-03     794.499E-03     773.796E-03        -2.60969     768.190E-03        -2.60408     794.499E-03     5.45269E-03     53.5949E-03    -26.7477E-03    -26.8509E-03    -26.5766E-03     53.4238E-03    -26.8509E-03     7.39278E-03    -13.2038E+06    -41.8722E+06    -196.998E+06    -42.0123E+06    -196.858E+06    -13.2038E+06     4.63240E+06         24.3402
             898     4.86891E-03     18.9252E-03     819.984E-03     794.006E-03        -2.65409     807.615E-03        -2.64305     795.340E-03    -99.2335E-03     53.5908E-03    -26.7373E-03    -26.8582E-03    -26.5987E-03     53.4523E-03    -26.8582E-03     6.64533E-03    -22.7396E+06    -47.5729E+06    -215.020E+06    -47.6817E+06    -214.911E+06    -22.7396E+06     4.14774E+06         24.1902
             899     3.89506E-03     18.9179E-03     833.675E-03     793.837E-03        -2.66640     795.062E-03        -2.62779     793.837E-03     217.568E-03     53.6131E-03    -26.7564E-03    -26.8583E-03    -26.6532E-03     53.5100E-03    -26.8583E-03     5.72845E-03    -33.9129E+06    -53.7061E+06    -234.868E+06    -53.7576E+06    -234.816E+06    -33.9129E+06     2.90858E+06         24.0682
             900     2.92122E-03     18.9116E-03     866.795E-03     802.041E-03        -2.71211     751.114E-03        -2.59643     802.041E-03    -315.076E-03     53.6207E-03    -26.7791E-03    -26.8423E-03    -26.7120E-03     53.5536E-03    -26.8423E-03     4.59271E-03    -45.7277E+06    -59.4297E+06    -251.556E+06    -59.4488E+06    -251.537E+06    -45.7277E+06     1.73618E+06         23.9815
             901     1.94752E-03     18.9070E-03         1.10142     817.340E-03        -2.96533     789.593E-03        -2.65351     817.340E-03     575.197E-03     53.6165E-03    -26.7825E-03    -26.8325E-03    -26.7540E-03     53.5824E-03    -26.8269E-03     3.23473E-03    -56.5036E+06    -63.8589E+06    -262.474E+06    -63.8640E+06    -262.469E+06    -56.5036E+06     902.175E+03         23.9327
             902     973.708E-06     18.9038E-03         1.79145     957.512E-03        -3.78050     690.848E-03        -2.67989     957.512E-03        -1.59186     53.6066E-03    -26.7463E-03    -26.8606E-03    -26.8231E-03     53.5946E-03    -26.7718E-03     1.83188E-03    -64.8266E+06    -66.8635E+06    -266.098E+06    -66.8351E+06    -266.094E+06    -64.8595E+06     340.170E+03         23.9110
             903     16.5562E-03     18.0682E-03     749.188E-03     719.938E-03        -2.52102     720.323E-03        -2.52064     748.420E-03    -17.8850E-03     54.1015E-03    -26.0072E-03    -28.1318E-03    -25.4929E-03     52.4033E-03    -26.9479E-03     17.8003E-03     195.997E+06     119.388E+06    -7.39803E+06    -7.39545E+06     195.995E+06     119.388E+06     660.907E+03         36.1693
             904     15.5819E-03     18.0327E-03     749.798E-03     728.559E-03        -2.52577     728.357E-03        -2.52557     749.798E-03     21.5672E-03     54.8588E-03    -26.6960E-03    -28.1579E-03    -25.9130E-03     52.6139E-03    -26.6960E-03     26.0378E-03     187.036E+06     66.2440E+06    -13.5409E+06    -13.5372E+06     187.033E+06     66.2440E+06     851.219E+03         33.6708
             905     14.6077E-03     18.0120E-03     751.189E-03     725.473E-03        -2.52271     725.292E-03        -2.52253     751.189E-03     12.2717E-03     54.2277E-03    -26.5146E-03    -27.6984E-03    -26.2468E-03     52.7760E-03    -26.5146E-03     21.4745E-03     145.113E+06     19.3951E+06    -17.1669E+06    -17.1377E+06     145.083E+06     19.3951E+06     1.71586E+06         31.3395
             906     13.6340E-03     17.9859E-03     753.099E-03     720.024E-03        -2.52408     719.982E-03        -2.52404     753.099E-03     7.78199E-03     54.6260E-03    -26.4785E-03    -28.1198E-03    -26.7323E-03     53.2385E-03    -26.4785E-03     21.0079E-03     65.2350E+06    -5.56591E+06    -19.0519E+06    -18.9800E+06     65.1632E+06    -5.56591E+06     2.14381E+06         29.4343
             907     12.6604E-03     17.9652E-03     755.264E-03     726.620E-03        -2.53695     726.529E-03        -2.53686     755.264E-03    -8.70384E-03     54.2757E-03    -26.5141E-03    -27.7687E-03    -26.9764E-03     53.4834E-03    -26.5141E-03     15.9174E-03     7.16772E+06    -17.2740E+06    -26.5389E+06    -20.1254E+06    -6.19792E+06    -10.3219E+06     1.81576E+06         27.8703
             908     11.6870E-03     17.9487E-03     757.512E-03     727.588E-03        -2.53672     727.506E-03        -2.53663     757.512E-03    -7.70429E-03     53.9960E-03    -26.5470E-03    -27.4801E-03    -26.9844E-03     53.5003E-03    -26.5470E-03     12.5795E-03    -5.92347E+06    -20.5629E+06    -52.9040E+06    -20.9858E+06    -52.4811E+06    -5.92347E+06     2.91067E+06         26.6670
             909     10.7135E-03     17.9349E-03     760.346E-03     723.213E-03        -2.53753     723.001E-03        -2.53732     760.346E-03    -22.2541E-03     53.7788E-03    -26.5623E-03    -27.2272E-03    -26.8872E-03     53.4389E-03    -26.5623E-03     10.4190E-03    -3.34025E+06    -22.0142E+06    -86.5528E+06    -22.2379E+06    -86.3292E+06    -3.34025E+06     3.67540E+06         25.8415
             910     9.73986E-03     17.9220E-03     763.543E-03     731.288E-03        -2.55363     730.971E-03        -2.55332     763.543E-03    -35.3183E-03     53.5978E-03    -26.5888E-03    -27.0293E-03    -26.7625E-03     53.3310E-03    -26.5888E-03     9.22209E-03    -716.616E+03    -24.2660E+06    -112.594E+06    -24.4717E+06    -112.388E+06    -716.616E+03     4.25197E+06         25.3263
             911     8.76611E-03     17.9106E-03     766.083E-03     747.238E-03        -2.56883     747.032E-03        -2.56862     766.083E-03    -10.0599E-03     53.4518E-03    -26.5879E-03    -26.8841E-03    -26.6653E-03     53.2331E-03    -26.5879E-03     8.32437E-03    -1.41632E+06    -27.2999E+06    -135.977E+06    -27.5173E+06    -135.760E+06    -1.41632E+06     4.79801E+06         24.9691
             912     7.79235E-03     17.8994E-03     768.314E-03     747.996E-03        -2.56943     746.940E-03        -2.56837     768.314E-03     71.3528E-03     53.3059E-03    -26.5880E-03    -26.7187E-03    -26.5347E-03     53.1273E-03    -26.5934E-03     7.51028E-03    -2.93049E+06    -31.2763E+06    -158.253E+06    -31.4472E+06    -158.082E+06    -2.93049E+06     4.61067E+06         24.6854
             913     6.81822E-03     17.8895E-03     771.306E-03     748.583E-03        -2.57764     745.524E-03        -2.57458     771.306E-03    -37.2848E-03     53.1988E-03    -26.5772E-03    -26.6217E-03    -26.4448E-03     53.0479E-03    -26.6031E-03     6.89623E-03    -6.30867E+06    -36.1722E+06    -179.940E+06    -36.3422E+06    -179.770E+06    -6.30867E+06     4.90921E+06         24.4628
             914     5.84425E-03     17.8800E-03     775.041E-03     755.468E-03        -2.58764     749.911E-03        -2.58208     775.041E-03     34.6414E-03     53.1059E-03    -26.5223E-03    -26.5886E-03    -26.3928E-03     52.9764E-03    -26.5886E-03     6.38670E-03    -13.4847E+06    -41.4722E+06    -196.272E+06    -41.6589E+06    -196.085E+06    -13.4847E+06     5.35170E+06         24.2834
             915     4.87016E-03     17.8717E-03     793.710E-03     751.986E-03        -2.59455     751.309E-03        -2.57998     779.821E-03    -117.304E-03     53.0603E-03    -26.4816E-03    -26.5843E-03    -26.3749E-03     52.9536E-03    -26.5843E-03     5.78981E-03    -22.6094E+06    -46.9865E+06    -213.030E+06    -47.1462E+06    -212.870E+06    -22.6094E+06     5.07666E+06         24.1325
             916     3.89607E-03     17.8642E-03     820.895E-03     767.353E-03        -2.63461     764.682E-03        -2.59621     785.168E-03     163.668E-03     53.0516E-03    -26.4757E-03    -26.5772E-03    -26.3960E-03     52.9720E-03    -26.5772E-03     4.99628E-03    -33.3878E+06    -52.8097E+06    -232.346E+06    -52.9073E+06    -232.248E+06    -33.3878E+06     4.07647E+06         24.0105
             917     2.92202E-03     17.8580E-03     907.122E-03     788.940E-03        -2.74723     781.734E-03        -2.62184     788.940E-03    -408.769E-03     53.0410E-03    -26.4825E-03    -26.5571E-03    -26.4302E-03     52.9887E-03    -26.5571E-03     4.02763E-03    -45.2580E+06    -58.5133E+06    -249.271E+06    -58.5527E+06    -249.232E+06    -45.2580E+06     2.49235E+06         23.9265
             918     1.94792E-03     17.8531E-03         1.11294     793.472E-03        -2.95752     780.071E-03        -2.62465     793.472E-03     502.779E-03     53.0538E-03    -26.5068E-03    -26.5439E-03    -26.4851E-03     53.0266E-03    -26.5384E-03     2.86594E-03    -55.8706E+06    -63.1802E+06    -260.972E+06    -63.1871E+06    -260.965E+06    -55.8706E+06     1.01055E+06         23.8798
             919     974.065E-06     17.8504E-03         1.77461     918.770E-03        -3.74261     674.694E-03        -2.64269     918.770E-03        -1.58883     53.0173E-03    -26.4168E-03    -26.6000E-03    -26.5886E-03     53.0075E-03    -26.4184E-03     1.65910E-03    -64.2292E+06    -66.8581E+06    -265.306E+06    -66.8288E+06    -265.302E+06    -64.2620E+06     737.615E+03         23.8576
             920     16.5567E-03     17.0129E-03     749.703E-03     732.060E-03        -2.54489     737.857E-03        -2.54462     743.640E-03     18.0592E-03     54.3600E-03    -26.1093E-03    -28.2852E-03    -25.7681E-03     52.6614E-03    -26.9278E-03     17.9932E-03     195.743E+06     119.208E+06    -7.54510E+06    -7.54392E+06     195.742E+06     119.208E+06     260.261E+03         36.1481
             921     15.5827E-03     16.9770E-03     744.382E-03     722.499E-03        -2.52846     722.205E-03        -2.52816     744.382E-03     11.0472E-03     55.1915E-03    -26.6553E-03    -28.5273E-03    -26.3180E-03     52.9822E-03    -26.6553E-03     25.8530E-03     186.804E+06     66.6213E+06    -13.0911E+06    -13.0895E+06     186.802E+06     66.6213E+06     292.891E+03         33.6497
             922     14.6089E-03     16.9573E-03     745.737E-03     722.463E-03        -2.52661     722.169E-03        -2.52631     745.737E-03     1.41518E-03     54.6209E-03    -26.4165E-03    -28.1946E-03    -26.8191E-03     53.2454E-03    -26.4165E-03     21.0222E-03     143.876E+06     16.3412E+06    -15.1888E+06    -15.1729E+06     143.860E+06     16.3412E+06     630.822E+03         31.3155
             923     13.6356E-03     16.9300E-03     747.289E-03     722.807E-03        -2.52509     722.637E-03        -2.52492     747.289E-03    -7.61128E-03     54.9136E-03    -26.3361E-03    -28.5498E-03    -27.2821E-03     53.6459E-03    -26.3361E-03     20.0870E-03     65.5836E+06    -6.91291E+06    -14.8121E+06    -14.7038E+06     65.4753E+06    -6.91291E+06     1.84111E+06         29.4042
             924     12.6627E-03     16.9103E-03     748.761E-03     730.350E-03        -2.52994     730.243E-03        -2.52983     748.761E-03    -10.8880E-03     54.4134E-03    -26.3427E-03    -28.0709E-03    -27.4087E-03     53.7512E-03    -26.3427E-03     14.5843E-03     8.14632E+06    -13.0071E+06    -25.4881E+06    -15.3674E+06    -6.45549E+06    -8.52605E+06     2.83518E+06         27.8312
             925     11.6894E-03     16.8936E-03     755.534E-03     736.766E-03        -2.54720     742.540E-03        -2.54710     749.653E-03    -7.34969E-03     54.0495E-03    -26.3267E-03    -27.7512E-03    -27.3673E-03     53.6655E-03    -26.3267E-03     11.0161E-03    -5.35948E+06    -17.1545E+06    -53.7492E+06    -17.5722E+06    -53.3315E+06    -5.35948E+06     3.36103E+06         26.6151
             926     10.7163E-03     16.8802E-03     758.852E-03     738.229E-03        -2.55498     746.946E-03        -2.55481     749.962E-03    -4.75384E-03     53.6874E-03    -26.2941E-03    -27.4025E-03    -27.1709E-03     53.4559E-03    -26.2941E-03     8.54581E-03    -2.33462E+06    -19.5993E+06    -86.2999E+06    -19.8728E+06    -86.0265E+06    -2.33462E+06     4.17484E+06         25.7760
             927     9.74278E-03     16.8679E-03     753.613E-03     734.866E-03        -2.54383     737.634E-03        -2.54359     750.604E-03    -24.2578E-03     53.3146E-03    -26.2713E-03    -27.0637E-03    -26.8929E-03     53.1438E-03    -26.2713E-03     7.29688E-03    -445.268E+03    -22.3640E+06    -113.194E+06    -22.6271E+06    -112.931E+06    -445.268E+03     4.79754E+06         25.2507
             928     8.76912E-03     16.8564E-03     751.806E-03     739.322E-03        -2.54899     739.125E-03        -2.54879     751.806E-03    -29.5105E-03     52.9961E-03    -26.2290E-03    -26.7877E-03    -26.6566E-03     52.8650E-03    -26.2290E-03     6.33799E-03    -881.123E+03    -25.5161E+06    -135.393E+06    -25.7792E+06    -135.129E+06    -881.123E+03     5.35610E+06         24.8869
             929     7.79516E-03     16.8462E-03     761.667E-03     748.792E-03        -2.56906     757.467E-03        -2.56810     752.025E-03     51.0912E-03     52.7270E-03    -26.1978E-03    -26.5303E-03    -26.4275E-03     52.6242E-03    -26.1978E-03     5.58014E-03    -2.08728E+06    -29.6723E+06    -157.796E+06    -29.9651E+06    -157.503E+06    -2.08728E+06     6.04838E+06         24.5993
             930     6.82112E-03     16.8361E-03     761.045E-03     747.378E-03        -2.56741     753.226E-03        -2.56361     751.403E-03    -60.2298E-03     52.4799E-03    -26.1686E-03    -26.3150E-03    -26.2231E-03     52.3933E-03    -26.1740E-03     5.11030E-03    -5.73120E+06    -35.1118E+06    -179.465E+06    -35.3983E+06    -179.179E+06    -5.73120E+06     6.34994E+06         24.3748
             931     5.84671E-03     16.8273E-03     753.387E-03     733.005E-03        -2.54635     726.082E-03        -2.53943     753.387E-03     24.5352E-03     52.2699E-03    -26.1102E-03    -26.1675E-03    -26.0720E-03     52.1944E-03    -26.1301E-03     4.76954E-03    -13.3036E+06    -40.7777E+06    -195.019E+06    -41.0222E+06    -194.775E+06    -13.3036E+06     6.10776E+06         24.1939
             932     4.87235E-03     16.8187E-03     761.501E-03     715.398E-03        -2.53309     701.514E-03        -2.51921     761.501E-03    -85.9007E-03     52.1491E-03    -26.0507E-03    -26.1050E-03    -25.9869E-03     52.0846E-03    -26.1043E-03     4.41064E-03    -22.3380E+06    -46.2309E+06    -211.281E+06    -46.4367E+06    -211.075E+06    -22.3380E+06     5.80623E+06         24.0408
             933     3.89790E-03     16.8114E-03     795.202E-03     743.977E-03        -2.59322     727.821E-03        -2.55485     772.982E-03     194.080E-03     52.0828E-03    -26.0042E-03    -26.0799E-03    -25.9543E-03     52.0330E-03    -26.0799E-03     3.88384E-03    -33.0301E+06    -51.6541E+06    -229.612E+06    -51.8036E+06    -229.462E+06    -33.0301E+06     5.06571E+06         23.9189
             934     2.92341E-03     16.8049E-03     901.888E-03     776.902E-03        -2.73165     786.343E-03        -2.61611     776.902E-03    -351.413E-03     52.0404E-03    -25.9900E-03    -26.0499E-03    -25.9566E-03     52.0070E-03    -26.0499E-03     3.16707E-03    -44.2460E+06    -57.1363E+06    -246.151E+06    -57.2078E+06    -246.080E+06    -44.2460E+06     3.47197E+06         23.8379
             935     1.94899E-03     16.8006E-03         1.10946     769.867E-03        -2.93108     791.256E-03        -2.61288     769.867E-03     536.671E-03     52.0267E-03    -25.9962E-03    -26.0289E-03    -25.9863E-03     52.0091E-03    -26.0211E-03     2.27414E-03    -55.4171E+06    -62.4098E+06    -258.985E+06    -62.4351E+06    -258.960E+06    -55.4171E+06     2.01662E+06         23.7936
             936     974.402E-06     16.7974E-03         1.76878     845.446E-03        -3.67359     683.327E-03        -2.58815     845.446E-03        -1.56017     51.9752E-03    -25.9084E-03    -26.0654E-03    -26.0575E-03     51.9690E-03    -25.9100E-03     1.26340E-03    -63.5605E+06    -66.1883E+06    -264.020E+06    -65.7607E+06    -264.013E+06    -63.9951E+06     772.155E+03         23.7716
             937     16.5572E-03     15.9575E-03     744.823E-03     722.891E-03        -2.52654     727.917E-03        -2.52627     739.528E-03     2.97331E-03     54.7016E-03    -26.2207E-03    -28.5232E-03    -26.2192E-03     53.0345E-03    -26.8576E-03     18.3662E-03     196.138E+06     112.961E+06    -7.31466E+06    -7.31403E+06     196.137E+06     112.961E+06    -220.071E+03         36.1276
             938     15.5833E-03     15.9219E-03     740.638E-03     714.480E-03        -2.51587     714.351E-03        -2.51574     740.638E-03    -27.4592E-03     55.6939E-03    -26.5352E-03    -29.1493E-03    -27.0108E-03     53.5554E-03    -26.5352E-03     25.5533E-03     186.660E+06     58.3581E+06    -12.8985E+06    -12.8975E+06     186.659E+06     58.3581E+06    -396.951E+03         33.6296
             939     14.6105E-03     15.9012E-03     746.400E-03     726.406E-03        -2.52872     730.859E-03        -2.52852     741.754E-03    -35.7242E-03     55.2086E-03    -26.2577E-03    -28.9392E-03    -27.6776E-03     53.9470E-03    -26.2577E-03     20.3269E-03     143.500E+06     10.2983E+06    -15.6760E+06    -15.6746E+06     143.499E+06     10.2983E+06    -419.173E+03         31.2922
             940     13.6383E-03     15.8745E-03     749.802E-03     735.926E-03        -2.54116     743.472E-03        -2.54088     741.974E-03    -10.4080E-03     55.3522E-03    -26.1166E-03    -29.2108E-03    -28.1106E-03     54.2521E-03    -26.1166E-03     18.7464E-03     63.3052E+06    -12.5292E+06    -16.8370E+06    -16.7431E+06     63.2113E+06    -12.5292E+06     1.04253E+06         29.3735
             941     12.6657E-03     15.8548E-03     746.530E-03     735.041E-03        -2.53826     739.263E-03        -2.53786     741.913E-03    -16.7194E-03     54.6987E-03    -26.0657E-03    -28.6347E-03    -28.1287E-03     54.1927E-03    -26.0657E-03     12.7270E-03     5.52329E+06    -14.5461E+06    -25.6277E+06    -16.9422E+06    -7.27141E+06    -10.4369E+06     3.54708E+06         27.7893
             942     11.6935E-03     15.8387E-03     759.278E-03     738.266E-03        -2.55456     755.926E-03        -2.55424     741.291E-03    -35.1765E-03     54.1502E-03    -25.9735E-03    -28.2049E-03    -27.9567E-03     53.9020E-03    -25.9735E-03     8.70808E-03    -5.98942E+06    -17.0608E+06    -53.9169E+06    -17.8576E+06    -53.1201E+06    -5.98942E+06     4.39518E+06         26.5568
             943     10.7206E-03     15.8258E-03     771.183E-03     739.112E-03        -2.56443     771.138E-03        -2.56439     739.112E-03    -723.395E-06     53.5624E-03    -25.8673E-03    -27.7066E-03    -27.5895E-03     53.4453E-03    -25.8673E-03     5.92277E-03    -2.32150E+06    -19.4684E+06    -86.8908E+06    -19.8353E+06    -86.5239E+06    -2.32150E+06     4.91377E+06         25.6974
             944     9.74768E-03     15.8142E-03     753.471E-03     730.505E-03        -2.53682     746.883E-03        -2.53677     737.037E-03     2.26176E-03     52.9413E-03    -25.7693E-03    -27.1934E-03    -27.1198E-03     52.8677E-03    -25.7693E-03     4.57733E-03     187.516E+03    -21.8476E+06    -112.552E+06    -22.1852E+06    -112.214E+06     187.516E+03     5.45250E+06         25.1546
             945     8.77403E-03     15.8033E-03     738.252E-03     719.941E-03        -2.51276     720.432E-03        -2.51234     737.339E-03    -34.7915E-03     52.3423E-03    -25.6558E-03    -26.7098E-03    -26.6608E-03     52.2933E-03    -25.6558E-03     3.60009E-03    -508.850E+03    -24.8494E+06    -135.665E+06    -25.1699E+06    -135.345E+06    -508.850E+03     5.93403E+06         24.7787
             946     7.80007E-03     15.7930E-03     748.028E-03     725.663E-03        -2.52710     734.511E-03        -2.52631     738.386E-03     4.93504E-03     51.8494E-03    -25.5631E-03    -26.2900E-03    -26.2564E-03     51.8157E-03    -25.5631E-03     2.85592E-03    -1.02476E+06    -28.4642E+06    -157.902E+06    -28.8702E+06    -157.496E+06    -1.02476E+06     7.23072E+06         24.4823
             947     6.82564E-03     15.7838E-03     753.188E-03     735.102E-03        -2.53992     746.828E-03        -2.53635     737.892E-03    -94.0760E-03     51.3947E-03    -25.4842E-03    -25.9157E-03    -25.8878E-03     51.3668E-03    -25.4842E-03     2.55691E-03    -3.77715E+06    -33.0409E+06    -178.056E+06    -33.4578E+06    -177.639E+06    -3.77715E+06     7.73007E+06         24.2513
             948     5.85105E-03     15.7749E-03     750.815E-03     728.126E-03        -2.53128     735.132E-03        -2.52482     737.350E-03     468.712E-06     50.9841E-03    -25.3915E-03    -25.6000E-03    -25.5745E-03     50.9586E-03    -25.3915E-03     2.49674E-03    -11.5131E+06    -38.4401E+06    -193.222E+06    -38.7731E+06    -192.889E+06    -11.5131E+06     7.12346E+06         24.0648
             949     4.87604E-03     15.7668E-03     763.909E-03     718.210E-03        -2.53358     734.754E-03        -2.52391     737.691E-03    -61.3763E-03     50.7029E-03    -25.3147E-03    -25.3956E-03    -25.3590E-03     50.6796E-03    -25.3280E-03     2.43852E-03    -21.0028E+06    -44.0949E+06    -209.638E+06    -44.3703E+06    -209.362E+06    -21.0028E+06     6.71879E+06         23.9076
             950     3.90093E-03     15.7595E-03     778.397E-03     726.985E-03        -2.55300     734.884E-03        -2.52068     738.175E-03     206.959E-03     50.5214E-03    -25.2407E-03    -25.2832E-03    -25.2301E-03     50.5015E-03    -25.2739E-03     2.27892E-03    -32.2146E+06    -49.9443E+06    -226.669E+06    -50.1642E+06    -226.449E+06    -32.2146E+06     6.14530E+06         23.7840
             951     2.92575E-03     15.7538E-03     831.475E-03     739.408E-03        -2.61516     732.884E-03        -2.51657     739.408E-03    -291.524E-03     50.4209E-03    -25.1964E-03    -25.2256E-03    -25.1846E-03     50.4065E-03    -25.2230E-03     1.95966E-03    -43.6366E+06    -55.6107E+06    -242.778E+06    -55.7432E+06    -242.645E+06    -43.6366E+06     4.83737E+06         23.7028
             952     1.95049E-03     15.7487E-03         1.04666     731.640E-03        -2.83338     766.137E-03        -2.55286     731.640E-03     553.797E-03     50.3718E-03    -25.1754E-03    -25.1976E-03    -25.1829E-03     50.3638E-03    -25.1820E-03     1.45143E-03    -53.7567E+06    -60.3240E+06    -255.962E+06    -60.3804E+06    -255.905E+06    -53.7567E+06     3.12689E+06         23.6577
             953     975.407E-06     15.7463E-03         1.67655     724.567E-03        -3.45555     721.135E-03        -2.50013     724.567E-03        -1.35102     50.2803E-03    -25.1029E-03    -25.1774E-03    -25.1748E-03     50.2778E-03    -25.1029E-03     718.617E-06    -61.6748E+06    -64.0004E+06    -261.561E+06    -63.5323E+06    -261.547E+06    -62.1570E+06     1.25237E+06         23.6344
             954     16.5575E-03     14.9011E-03     741.571E-03     720.145E-03        -2.52373     723.811E-03        -2.52343     737.610E-03    -36.5596E-03     55.4362E-03    -26.5108E-03    -28.9915E-03    -27.1001E-03     53.8468E-03    -26.8128E-03     18.7797E-03     196.615E+06     113.321E+06    -7.66632E+06    -7.66527E+06     196.614E+06     113.321E+06    -403.020E+03         36.1096
             955     15.5853E-03     14.8656E-03     753.470E-03     725.717E-03        -2.54445     741.197E-03        -2.54433     737.864E-03    -15.0612E-03     56.5532E-03    -26.4249E-03    -30.1273E-03    -28.1350E-03     54.5609E-03    -26.4249E-03     24.8870E-03     186.484E+06     58.2841E+06    -13.7215E+06    -13.7201E+06     186.482E+06     58.2841E+06    -432.467E+03         33.6142
             956     14.6132E-03     14.8440E-03     753.599E-03     731.739E-03        -2.54423     747.918E-03        -2.54412     737.307E-03    -14.8364E-03     55.9320E-03    -26.0800E-03    -29.8338E-03    -28.7506E-03     54.8489E-03    -26.0800E-03     19.0557E-03     142.919E+06     12.4151E+06    -18.0598E+06    -18.0443E+06     142.904E+06     12.4151E+06     479.395E+03         31.2729
             957     13.6418E-03     14.8180E-03     749.375E-03     735.410E-03        -2.54324     748.154E-03        -2.54301     736.406E-03     5.12994E-03     55.9778E-03    -25.8448E-03    -30.1051E-03    -29.2271E-03     55.0998E-03    -25.8448E-03     16.7568E-03     61.7897E+06    -10.9020E+06    -20.5439E+06    -20.4863E+06     61.7322E+06    -10.9020E+06     1.31209E+06         29.3451
             958     12.6710E-03     14.7988E-03     759.448E-03     734.946E-03        -2.55089     758.938E-03        -2.55038     734.946E-03    -19.5278E-03     55.1825E-03    -25.6714E-03    -29.5173E-03    -29.1822E-03     54.8474E-03    -25.6714E-03     10.2906E-03     4.42477E+06    -17.2373E+06    -27.6289E+06    -20.5283E+06    -8.66159E+06    -11.2515E+06     2.29111E+06         27.7483
             959     11.6994E-03     14.7831E-03     761.126E-03     732.754E-03        -2.55136     760.737E-03        -2.55097     732.754E-03    -46.1276E-03     54.3275E-03    -25.4657E-03    -28.8855E-03    -28.7636E-03     54.2057E-03    -25.4657E-03     5.80643E-03    -5.75342E+06    -19.2233E+06    -54.0409E+06    -19.8760E+06    -53.3882E+06    -5.75342E+06     4.04219E+06         26.4986
             960     10.7275E-03     14.7712E-03     763.657E-03     729.972E-03        -2.54837     763.552E-03        -2.54826     729.972E-03    -21.0362E-03     53.4211E-03    -25.2466E-03    -28.1813E-03    -28.1470E-03     53.3868E-03    -25.2466E-03     2.72590E-03    -1.80538E+06    -20.0771E+06    -87.0422E+06    -20.4662E+06    -86.6531E+06    -1.80538E+06     5.00821E+06         25.6159
             961     9.75472E-03     14.7605E-03     758.111E-03     726.817E-03        -2.53655     757.992E-03        -2.53643     726.817E-03    -16.4609E-03     52.4757E-03    -25.0410E-03    -27.4576E-03    -27.4418E-03     52.4599E-03    -25.0410E-03     1.23017E-03     1.21988E+06    -21.8861E+06    -112.087E+06    -22.2337E+06    -111.739E+06     1.21988E+06     5.57575E+06         25.0484
             962     8.78146E-03     14.7504E-03     736.056E-03     715.642E-03        -2.50758     725.829E-03        -2.50686     725.149E-03    -59.1830E-03     51.5429E-03    -24.8212E-03    -26.7459E-03    -26.7341E-03     51.5310E-03    -24.8212E-03     204.728E-06     319.024E+03    -24.6143E+06    -135.940E+06    -25.0075E+06    -135.547E+06     319.024E+03     6.59808E+06         24.6523
             963     7.80734E-03     14.7411E-03     734.295E-03     713.859E-03        -2.50677     721.846E-03        -2.50569     725.223E-03    -19.3478E-03     50.6762E-03    -24.6281E-03    -26.0508E-03    -26.0397E-03     50.6652E-03    -24.6281E-03    -446.616E-06    -593.975E+03    -27.9807E+06    -157.951E+06    -28.4194E+06    -157.512E+06    -593.975E+03     7.53096E+06         24.3399
             964     6.83272E-03     14.7326E-03     742.818E-03     722.374E-03        -2.52854     739.325E-03        -2.52691     724.231E-03    -32.0941E-03     49.8844E-03    -24.4621E-03    -25.4251E-03    -25.4145E-03     49.8739E-03    -24.4621E-03    -587.770E-06    -2.56631E+06    -31.5268E+06    -176.518E+06    -31.9731E+06    -176.072E+06    -2.56631E+06     8.02407E+06         24.0947
             965     5.85735E-03     14.7245E-03     752.035E-03     720.690E-03        -2.54214     748.545E-03        -2.53865     720.690E-03     42.0408E-03     49.1786E-03    -24.2954E-03    -24.8887E-03    -24.8795E-03     49.1694E-03    -24.2954E-03    -375.856E-06    -9.73366E+06    -36.0913E+06    -191.514E+06    -36.5302E+06    -191.075E+06    -9.73366E+06     8.21554E+06         23.8953
             966     4.88168E-03     14.7167E-03     765.493E-03     713.825E-03        -2.54566     757.799E-03        -2.53797     713.825E-03    -66.4488E-03     48.6419E-03    -24.1685E-03    -24.4806E-03    -24.4738E-03     48.6351E-03    -24.1685E-03    -75.7341E-06    -19.3281E+06    -41.8771E+06    -207.701E+06    -42.2779E+06    -207.301E+06    -19.3281E+06     8.07877E+06         23.7286
             967     3.90560E-03     14.7099E-03     758.561E-03     705.797E-03        -2.52555     733.744E-03        -2.50073     705.797E-03     164.935E-03     48.2530E-03    -24.0576E-03    -24.1989E-03    -24.1897E-03     48.2481E-03    -24.0619E-03     166.383E-06    -30.5484E+06    -47.7481E+06    -223.787E+06    -48.0705E+06    -223.465E+06    -30.5484E+06     7.48000E+06         23.5987
             968     2.92931E-03     14.7039E-03     803.153E-03     700.710E-03        -2.55724     709.500E-03        -2.46358     700.710E-03    -349.160E-03     47.9873E-03    -23.9680E-03    -24.0205E-03    -24.0128E-03     47.9839E-03    -23.9722E-03     314.989E-06    -42.1635E+06    -53.0963E+06    -238.795E+06    -53.3141E+06    -238.578E+06    -42.1635E+06     6.22547E+06         23.5108
             969     1.95299E-03     14.6997E-03     978.050E-03     693.711E-03        -2.72139     715.368E-03        -2.45871     693.711E-03     455.057E-03     47.8398E-03    -23.9069E-03    -23.9342E-03    -23.9195E-03     47.8379E-03    -23.9198E-03     335.953E-06    -52.0334E+06    -57.9055E+06    -251.852E+06    -58.0091E+06    -251.748E+06    -52.0334E+06     4.26901E+06         23.4593
             970     976.405E-06     14.6966E-03         1.49273     719.863E-03        -3.27851     656.605E-03        -2.44238     719.863E-03        -1.20716     47.7593E-03    -23.8260E-03    -23.9335E-03    -23.9200E-03     47.7586E-03    -23.8389E-03     110.933E-06    -59.6998E+06    -61.6524E+06    -257.642E+06    -61.4897E+06    -257.611E+06    -59.8936E+06     2.12998E+06         23.4322
             971     16.5588E-03     13.8438E-03     750.458E-03     729.146E-03        -2.53856     743.921E-03        -2.53829     735.410E-03    -31.8341E-03     56.5915E-03    -26.7218E-03    -29.9317E-03    -28.3554E-03     55.0478E-03    -26.7544E-03     19.5006E-03     196.719E+06     115.921E+06    -8.05833E+06    -8.05773E+06     196.719E+06     115.921E+06    -217.897E+03         36.0945
             972     15.5877E-03     13.8076E-03     767.097E-03     734.034E-03        -2.55841     766.985E-03        -2.55830     734.034E-03    -7.50461E-03     57.7568E-03    -26.2801E-03    -31.4806E-03    -29.6184E-03     55.8947E-03    -26.2801E-03     24.3194E-03     186.069E+06     61.2891E+06    -14.2777E+06    -14.2772E+06     186.069E+06     61.2891E+06    -229.235E+03         33.6046
             973     14.6175E-03     13.7865E-03     763.112E-03     730.893E-03        -2.55254     762.053E-03        -2.55248     731.889E-03    -2.32649E-03     56.9762E-03    -25.8142E-03    -31.1497E-03    -30.2273E-03     56.0538E-03    -25.8142E-03     17.8740E-03     142.165E+06     14.0871E+06    -16.8727E+06    -16.8577E+06     142.150E+06     14.0871E+06     613.083E+03         31.2591
             974     13.6477E-03     13.7603E-03     754.356E-03     728.937E-03        -2.54313     753.242E-03        -2.54301     729.933E-03     6.02208E-03     56.7822E-03    -25.4549E-03    -31.3009E-03    -30.6091E-03     56.0904E-03    -25.4549E-03     14.9083E-03     62.1330E+06    -8.55598E+06    -17.1789E+06    -17.1240E+06     62.0781E+06    -8.55598E+06     1.29058E+06         29.3207
             975     12.6777E-03     13.7419E-03     770.607E-03     727.328E-03        -2.55663     770.296E-03        -2.55632     727.328E-03    -19.5985E-03     55.8467E-03    -25.1437E-03    -30.7062E-03    -30.5039E-03     55.6444E-03    -25.1437E-03     7.83851E-03     5.10464E+06    -15.2319E+06    -27.0161E+06    -17.8407E+06    -9.51481E+06    -9.78784E+06     1.84794E+06         27.7114
             976     11.7076E-03     13.7274E-03     757.789E-03     724.191E-03        -2.54389     757.480E-03        -2.54358     724.191E-03    -19.0806E-03     54.6745E-03    -24.7912E-03    -29.9038E-03    -29.8574E-03     54.6281E-03    -24.7912E-03     2.77917E-03    -5.32891E+06    -18.6553E+06    -54.8170E+06    -18.9648E+06    -54.5075E+06    -5.32891E+06     3.17683E+06         26.4452
             977     10.7364E-03     13.7169E-03     736.692E-03     722.059E-03        -2.51758     736.365E-03        -2.51728     722.077E-03    -17.7145E-03     53.3534E-03    -24.4259E-03    -28.9280E-03    -28.9152E-03     53.3406E-03    -24.4259E-03    -630.499E-06    -757.468E+03    -19.5754E+06    -86.8243E+06    -19.8748E+06    -86.5248E+06    -757.468E+03     4.40634E+06         25.5403
             978     9.76444E-03     13.7074E-03     751.151E-03     719.800E-03        -2.52557     750.830E-03        -2.52527     719.818E-03    -16.5301E-03     52.0092E-03    -24.0744E-03    -27.9541E-03    -27.9255E-03     51.9806E-03    -24.0744E-03    -2.33998E-03     2.38659E+06    -21.2778E+06    -112.390E+06    -21.6151E+06    -112.052E+06     2.38659E+06     5.53269E+06         24.9455
             979     8.79133E-03     13.6985E-03     764.264E-03     715.543E-03        -2.53502     763.678E-03        -2.53443     715.543E-03    -35.9456E-03     50.6242E-03    -23.7124E-03    -26.9331E-03    -26.8807E-03     50.5718E-03    -23.7124E-03    -3.52007E-03     1.76347E+06    -23.7024E+06    -136.027E+06    -24.1074E+06    -135.622E+06     1.76347E+06     6.72729E+06         24.5219
             980     7.81730E-03     13.6908E-03     757.576E-03     709.871E-03        -2.52120     756.646E-03        -2.52027     709.871E-03    -7.49429E-03     49.2748E-03    -23.3789E-03    -25.8965E-03    -25.8282E-03     49.2065E-03    -23.3789E-03    -4.09567E-03     589.345E+03    -26.5104E+06    -157.147E+06    -26.9242E+06    -156.733E+06     589.345E+03     7.32792E+06         24.1833
             981     6.84210E-03     13.6833E-03     740.188E-03     704.335E-03        -2.50282     739.222E-03        -2.50186     704.335E-03    -5.87756E-03     48.0196E-03    -23.0867E-03    -24.9339E-03    -24.8648E-03     47.9506E-03    -23.0867E-03    -4.07379E-03    -1.34620E+06    -30.0732E+06    -175.724E+06    -30.4947E+06    -175.303E+06    -1.34620E+06     7.82292E+06         23.9128
             982     5.86626E-03     13.6760E-03     728.944E-03     699.438E-03        -2.48814     726.584E-03        -2.48578     699.438E-03     49.8707E-03     46.8876E-03    -22.8110E-03    -24.0804E-03    -24.0226E-03     46.8298E-03    -22.8110E-03    -3.63602E-03    -7.50265E+06    -34.4339E+06    -190.415E+06    -34.9311E+06    -189.918E+06    -7.50265E+06     8.78276E+06         23.6916
             983     4.88945E-03     13.6692E-03     727.514E-03     694.410E-03        -2.48129     720.772E-03        -2.47455     694.410E-03    -70.7042E-03     45.9547E-03    -22.5839E-03    -23.3754E-03    -23.3344E-03     45.9137E-03    -22.5839E-03    -2.96078E-03    -16.3285E+06    -39.2846E+06    -205.189E+06    -39.7853E+06    -204.689E+06    -16.3285E+06     9.07321E+06         23.5076
             984     3.91225E-03     13.6629E-03     749.448E-03     686.700E-03        -2.49873     726.509E-03        -2.47579     686.700E-03     165.628E-03     45.2311E-03    -22.3927E-03    -22.8389E-03    -22.8137E-03     45.2059E-03    -22.3927E-03    -2.23320E-03    -27.3633E+06    -44.4965E+06    -220.936E+06    -44.9201E+06    -220.512E+06    -27.3633E+06     8.61427E+06         23.3625
             985     2.93455E-03     13.6575E-03     786.680E-03     677.114E-03        -2.52155     704.255E-03        -2.43913     677.114E-03    -298.091E-03     44.6821E-03    -22.2354E-03    -22.4462E-03    -22.4330E-03     44.6689E-03    -22.2354E-03    -1.55984E-03    -39.2896E+06    -49.7253E+06    -234.505E+06    -50.0563E+06    -234.174E+06    -39.2896E+06     7.71058E+06         23.2598
             986     1.95639E-03     13.6533E-03     871.655E-03     680.912E-03        -2.61711     647.379E-03        -2.39283     680.912E-03     391.062E-03     44.3312E-03    -22.1313E-03    -22.2010E-03    -22.1819E-03     44.3250E-03    -22.1442E-03    -1.00181E-03    -49.3995E+06    -54.4869E+06    -246.663E+06    -54.6733E+06    -246.476E+06    -49.3995E+06     5.77797E+06         23.1962
             987     978.245E-06     13.6508E-03         1.36847     748.487E-03        -3.19912     630.084E-03        -2.46073     748.487E-03        -1.20351     44.1954E-03    -22.0486E-03    -22.1469E-03    -22.1321E-03     44.1934E-03    -22.0615E-03    -539.681E-06    -56.6868E+06    -58.2292E+06    -252.426E+06    -58.1455E+06    -252.363E+06    -56.8334E+06     3.11595E+06         23.1627
             988     16.5602E-03     12.7847E-03     754.579E-03     729.484E-03        -2.54332     753.587E-03        -2.54308     730.233E-03     29.4561E-03     57.9989E-03    -26.6610E-03    -31.3827E-03    -29.8920E-03     56.5081E-03    -26.6610E-03     20.3041E-03     196.834E+06     116.712E+06    -7.42546E+06    -7.42368E+06     196.832E+06     116.712E+06     141.392E+03         36.0785
             989     15.5910E-03     12.7486E-03     748.758E-03     728.039E-03        -2.53170     747.993E-03        -2.53168     728.789E-03     1.08201E-03     59.0207E-03    -26.0796E-03    -32.9354E-03    -31.2033E-03     57.2886E-03    -26.0796E-03     23.8386E-03     186.321E+06     61.9627E+06    -13.7133E+06    -13.7102E+06     186.318E+06     61.9627E+06    -119.889E+03         33.5967
             990     14.6223E-03     12.7269E-03     765.264E-03     726.775E-03        -2.54849     765.244E-03        -2.54847     726.775E-03    -692.033E-06     58.2162E-03    -25.4679E-03    -32.7425E-03    -31.9280E-03     57.4018E-03    -25.4679E-03     17.0997E-03     141.982E+06     11.1534E+06    -16.5778E+06    -16.5705E+06     141.974E+06     11.1534E+06    -799.592E+03         31.2480
             991     13.6541E-03     12.7016E-03     776.566E-03     723.506E-03        -2.56163     776.534E-03        -2.56160     723.506E-03    -11.1488E-03     57.8453E-03    -24.9702E-03    -32.8578E-03    -32.2962E-03     57.2837E-03    -24.9702E-03     13.4685E-03     60.9252E+06    -11.4180E+06    -17.0834E+06    -16.9838E+06     60.8256E+06    -11.4180E+06     768.919E+03         29.2999
             992     12.6859E-03     12.6838E-03     763.751E-03     719.848E-03        -2.55043     763.595E-03        -2.55028     719.848E-03    -30.2526E-03     56.6665E-03    -24.5155E-03    -32.1640E-03    -32.0413E-03     56.5439E-03    -24.5155E-03     5.65996E-03     4.46173E+06    -14.8244E+06    -26.4157E+06    -17.7701E+06    -9.62944E+06    -9.37883E+06     2.72277E+06         27.6801
             993     11.7172E-03     12.6712E-03     742.094E-03     717.071E-03        -2.52364     741.891E-03        -2.52343     717.071E-03    -12.3249E-03     55.1858E-03    -23.9902E-03    -31.2345E-03    -31.2098E-03     55.1611E-03    -23.9902E-03    -145.339E-06    -4.74781E+06    -18.6701E+06    -54.9311E+06    -19.0199E+06    -54.5814E+06    -4.74781E+06     2.83985E+06         26.4002
             994     10.7473E-03     12.6625E-03     738.639E-03     714.918E-03        -2.51006     738.250E-03        -2.50969     714.936E-03    -29.3548E-03     53.4409E-03    -23.4507E-03    -30.0031E-03    -29.9494E-03     53.3872E-03    -23.4507E-03    -3.79129E-03     365.260E+03    -19.9661E+06    -87.5208E+06    -20.1682E+06    -87.3187E+06     365.260E+03     3.65566E+06         25.4757
             995     9.77600E-03     12.6549E-03     761.430E-03     711.342E-03        -2.52413     761.017E-03        -2.52373     711.360E-03    -19.6367E-03     51.5953E-03    -22.9200E-03    -28.6898E-03    -28.5758E-03     51.4813E-03    -22.9200E-03    -5.74100E-03     4.36526E+06    -21.1978E+06    -112.542E+06    -21.4755E+06    -112.264E+06     4.36526E+06     4.99052E+06         24.8546
             996     8.80351E-03     12.6481E-03     785.388E-03     704.360E-03        -2.54091     785.110E-03        -2.54063     704.360E-03    -4.37347E-03     49.6718E-03    -22.3792E-03    -27.3095E-03    -27.1347E-03     49.4970E-03    -22.3792E-03    -7.09021E-03     4.42720E+06    -22.7001E+06    -135.886E+06    -23.0002E+06    -135.586E+06     4.42720E+06     5.75899E+06         24.3989
             997     7.82942E-03     12.6420E-03     762.852E-03     695.666E-03        -2.51285     762.498E-03        -2.51249     695.666E-03     3.70950E-03     47.7571E-03    -21.8698E-03    -25.8883E-03    -25.6787E-03     47.5475E-03    -21.8698E-03    -7.64434E-03     3.68773E+06    -24.6949E+06    -156.455E+06    -25.0281E+06    -156.121E+06     3.68773E+06     6.58706E+06         24.0243
             998     6.85405E-03     12.6364E-03     730.847E-03     688.546E-03        -2.47543     729.241E-03        -2.47383     688.546E-03    -61.3127E-03     45.9263E-03    -21.4134E-03    -24.5135E-03    -24.3031E-03     45.7158E-03    -21.4134E-03    -7.48713E-03     2.16193E+06    -27.8851E+06    -175.279E+06    -28.2819E+06    -174.883E+06     2.16193E+06     7.63139E+06         23.7189
             999     5.87722E-03     12.6305E-03     716.876E-03     683.034E-03        -2.45564     713.778E-03        -2.45254     683.034E-03     6.59288E-03     44.2324E-03    -20.9856E-03    -23.2488E-03    -23.0662E-03     44.0499E-03    -20.9856E-03    -6.79806E-03    -3.30923E+06    -31.7475E+06    -189.316E+06    -32.1944E+06    -188.870E+06    -3.30923E+06     8.35267E+06         23.4690
            1000     4.89951E-03     12.6247E-03     702.829E-03     678.645E-03        -2.43784     696.384E-03        -2.43139     678.645E-03    -70.8478E-03     42.7533E-03    -20.6196E-03    -22.1352E-03    -21.9962E-03     42.6144E-03    -20.6196E-03    -5.77840E-03    -11.5467E+06    -35.7309E+06    -203.054E+06    -36.2005E+06    -202.585E+06    -11.5467E+06     8.82478E+06         23.2599
            1001     3.92059E-03     12.6195E-03     723.574E-03     672.777E-03        -2.45538     705.066E-03        -2.43688     672.777E-03     122.557E-03     41.5293E-03    -20.3153E-03    -21.2108E-03    -21.1185E-03     41.4371E-03    -20.3153E-03    -4.58238E-03    -21.9998E+06    -40.2105E+06    -218.196E+06    -40.6844E+06    -217.722E+06    -21.9998E+06     9.16941E+06         23.0895
            1002     2.94103E-03     12.6150E-03     743.327E-03     665.843E-03        -2.47342     683.022E-03        -2.41311     665.843E-03    -243.606E-03     40.6108E-03    -20.0708E-03    -20.5379E-03    -20.4865E-03     40.5594E-03    -20.0708E-03    -3.34156E-03    -33.0854E+06    -44.6891E+06    -229.967E+06    -45.0901E+06    -229.566E+06    -33.0854E+06     8.57323E+06         22.9619
            1003     1.96106E-03     12.6114E-03     824.744E-03     665.854E-03        -2.56098     654.241E-03        -2.39047     665.854E-03     363.007E-03     40.0043E-03    -19.9041E-03    -20.1009E-03    -20.0775E-03     39.9808E-03    -19.9041E-03    -2.22376E-03    -42.5500E+06    -48.2842E+06    -240.519E+06    -48.5222E+06    -240.281E+06    -42.5500E+06     6.59496E+06         22.8792
            1004     980.513E-06     12.6087E-03         1.27578     656.705E-03        -2.98788     680.597E-03        -2.39269     656.705E-03        -1.04616     39.6456E-03    -19.7590E-03    -19.8865E-03    -19.8792E-03     39.6383E-03    -19.7590E-03    -1.12416E-03    -49.4978E+06    -51.1882E+06    -245.705E+06    -51.1030E+06    -245.612E+06    -49.6763E+06     4.09608E+06         22.8356
            1005     16.5625E-03     11.7238E-03     746.260E-03     718.410E-03        -2.52650     740.276E-03        -2.52619     724.084E-03     26.5973E-03     59.6040E-03    -26.5408E-03    -33.0857E-03    -31.6428E-03     58.1610E-03    -26.5408E-03     21.0980E-03     196.754E+06     116.257E+06    -7.47072E+06    -7.46783E+06     196.751E+06     116.257E+06    -92.8432E+03         36.0540
            1006     15.5946E-03     11.6880E-03     739.469E-03     722.243E-03        -2.52116     738.676E-03        -2.52112     722.993E-03    -12.6615E-03     60.3020E-03    -25.8523E-03    -34.4383E-03    -32.8353E-03     58.6990E-03    -25.8523E-03     23.3609E-03     186.868E+06     63.0588E+06    -13.5323E+06    -13.5219E+06     186.858E+06     63.0588E+06     285.141E+03         33.5827
            1007     14.6273E-03     11.6661E-03     753.997E-03     721.291E-03        -2.53665     753.902E-03        -2.53655     721.291E-03    -19.6040E-03     59.4635E-03    -25.1385E-03    -34.3175E-03    -33.6013E-03     58.7473E-03    -25.1385E-03     16.3111E-03     142.403E+06     16.2831E+06    -18.9244E+06    -18.9017E+06     142.381E+06     16.2831E+06     392.807E+03         31.2342
            1008     13.6612E-03     11.6415E-03     774.801E-03     718.097E-03        -2.55659     774.697E-03        -2.55648     718.097E-03    -31.0680E-03     59.0137E-03    -24.4826E-03    -34.5193E-03    -34.0749E-03     58.5692E-03    -24.4826E-03     12.0384E-03     59.5348E+06    -8.88094E+06    -22.4067E+06    -22.3274E+06     59.4555E+06    -8.88094E+06     530.653E+03         29.2810
            1009     12.6948E-03     11.6249E-03     760.899E-03     714.243E-03        -2.54119     760.850E-03        -2.54114     714.243E-03    -24.0814E-03     57.6044E-03    -23.8405E-03    -33.7896E-03    -33.7108E-03     57.5256E-03    -23.8405E-03     3.72930E-03     4.93809E+06    -16.9579E+06    -28.2119E+06    -21.7985E+06    -9.80294E+06    -8.63030E+06     1.20895E+06         27.6557
            1010     11.7276E-03     11.6143E-03     745.324E-03     711.009E-03        -2.52398     745.167E-03        -2.52382     711.009E-03     6.05230E-03     55.7752E-03    -23.1343E-03    -32.6970E-03    -32.6498E-03     55.7281E-03    -23.1343E-03    -2.76084E-03    -1.95840E+06    -20.4378E+06    -54.4945E+06    -20.6739E+06    -54.2584E+06    -1.95840E+06     1.91888E+06         26.3665
            1011     10.7590E-03     11.6080E-03     764.178E-03     706.992E-03        -2.53164     763.908E-03        -2.53137     706.992E-03    -1.04429E-03     53.6137E-03    -22.4011E-03    -31.2406E-03    -31.1056E-03     53.4787E-03    -22.4011E-03    -6.54322E-03     3.28415E+06    -20.8228E+06    -87.8193E+06    -20.9276E+06    -87.7144E+06     3.28415E+06     2.40334E+06         25.4273
            1012     9.78887E-03     11.6026E-03     779.953E-03     700.446E-03        -2.53530     779.755E-03        -2.53510     700.446E-03    -14.8218E-03     51.2265E-03    -21.6726E-03    -29.5704E-03    -29.3319E-03     50.9880E-03    -21.6726E-03    -8.59790E-03     8.00238E+06    -21.3220E+06    -112.576E+06    -21.4441E+06    -112.454E+06     8.00238E+06     2.97213E+06         24.7837
            1013     8.81681E-03     11.5985E-03     769.410E-03     692.206E-03        -2.51979     769.348E-03        -2.51973     692.206E-03    -730.919E-06     48.7264E-03    -20.9315E-03    -27.8130E-03    -27.4756E-03     48.3890E-03    -20.9315E-03    -10.0317E-03     8.67675E+06    -22.0533E+06    -135.755E+06    -22.1926E+06    -135.616E+06     8.67675E+06     3.79660E+06         24.2958
            1014     7.84297E-03     11.5948E-03     739.537E-03     684.531E-03        -2.48375     738.915E-03        -2.48313     684.531E-03     49.2399E-03     46.2056E-03    -20.2261E-03    -25.9830E-03    -25.5925E-03     45.8151E-03    -20.2261E-03    -10.5030E-03     8.42327E+06    -23.5741E+06    -156.511E+06    -23.7681E+06    -156.317E+06     8.42327E+06     4.92399E+06         23.8822
            1015     6.86717E-03     11.5915E-03     710.067E-03     678.011E-03        -2.44942     706.638E-03        -2.44715     679.171E-03    -44.8794E-03     43.7346E-03    -19.5766E-03    -24.1562E-03    -23.7662E-03     43.3446E-03    -19.5766E-03    -10.1795E-03     7.33610E+06    -25.6068E+06    -174.824E+06    -25.8688E+06    -174.562E+06     7.33610E+06     6.08682E+06         23.5375
            1016     5.88982E-03     11.5879E-03     707.920E-03     673.624E-03        -2.44347     703.792E-03        -2.44050     674.784E-03    -17.1894E-03     41.3817E-03    -18.9719E-03    -22.4092E-03    -22.0659E-03     41.0384E-03    -18.9719E-03    -9.24556E-03     2.96044E+06    -28.2645E+06    -188.014E+06    -28.5569E+06    -187.722E+06     2.96044E+06     6.71606E+06         23.2518
            1017     4.91062E-03     11.5844E-03     706.781E-03     669.210E-03        -2.43803     700.663E-03        -2.43191     669.210E-03    -87.3809E-03     39.2869E-03    -18.4516E-03    -20.8364E-03    -20.5672E-03     39.0178E-03    -18.4516E-03    -7.92860E-03    -3.89329E+06    -31.6778E+06    -201.808E+06    -32.0062E+06    -201.480E+06    -3.89329E+06     7.38495E+06         23.0104
            1018     3.93026E-03     11.5807E-03     688.627E-03     660.256E-03        -2.41760     667.906E-03        -2.40240     665.785E-03     80.1453E-03     37.4971E-03    -18.0119E-03    -19.4829E-03    -19.2975E-03     37.3117E-03    -18.0119E-03    -6.37725E-03    -12.8782E+06    -35.0373E+06    -215.628E+06    -35.3975E+06    -215.267E+06    -12.8782E+06     7.93845E+06         22.8088
            1019     2.94854E-03     11.5773E-03     719.015E-03     659.395E-03        -2.45005     668.475E-03        -2.40503     664.924E-03    -215.067E-03     36.0783E-03    -17.6606E-03    -18.4156E-03    -18.3089E-03     35.9715E-03    -17.6606E-03    -4.68665E-03    -23.2073E+06    -37.9341E+06    -225.490E+06    -38.2391E+06    -225.185E+06    -23.2073E+06     7.41455E+06         22.6506
            1020     1.96605E-03     11.5739E-03     828.033E-03     649.808E-03        -2.54194     707.949E-03        -2.42186     649.808E-03     284.478E-03     35.1624E-03    -17.4153E-03    -17.7467E-03    -17.6993E-03     35.1150E-03    -17.4153E-03    -3.02439E-03    -32.5192E+06    -40.6110E+06    -234.318E+06    -40.7937E+06    -234.136E+06    -32.5192E+06     5.75602E+06         22.5424
            1021     983.326E-06     11.5722E-03         1.11905     628.084E-03        -2.80913     642.468E-03        -2.33255     628.084E-03    -922.567E-03     34.5896E-03    -17.2081E-03    -17.3806E-03    -17.3663E-03     34.5753E-03    -17.2081E-03    -1.57011E-03    -39.8302E+06     -42.707E+06    -238.814E+06    -42.6102E+06    -238.733E+06    -40.0083E+06     3.86583E+06         22.4847
            1022     16.5647E-03     10.6612E-03     739.662E-03     705.367E-03        -2.50153     724.858E-03        -2.50119     719.828E-03    -34.9622E-03     61.3236E-03    -26.4129E-03    -34.8997E-03    -33.4880E-03     59.9119E-03    -26.4129E-03     21.7887E-03     196.617E+06     117.570E+06    -7.90051E+06    -7.89881E+06     196.615E+06     117.570E+06    -160.298E+03         36.0121
            1023     15.5987E-03     10.6263E-03     760.447E-03     718.296E-03        -2.53123     760.292E-03        -2.53108     718.296E-03    -37.0265E-03     61.7225E-03    -25.6115E-03    -36.1010E-03    -34.5996E-03     60.2211E-03    -25.6115E-03     23.0537E-03     186.112E+06     65.5282E+06    -14.2533E+06    -14.2455E+06     186.104E+06     65.5282E+06     429.675E+03         33.5529
            1024     14.6333E-03     10.6035E-03     755.549E-03     715.575E-03        -2.52859     755.376E-03        -2.52841     715.575E-03    -40.3246E-03     60.7520E-03    -24.7926E-03    -35.9515E-03    -35.3052E-03     60.1056E-03    -24.7926E-03     15.7471E-03     142.577E+06     24.0727E+06    -17.5286E+06    -17.5048E+06     142.554E+06     24.0727E+06     1.58898E+06         31.2123
            1025     13.6684E-03     10.5801E-03     749.100E-03     712.879E-03        -2.52610     748.912E-03        -2.52591     712.879E-03    -26.3329E-03     60.0765E-03    -23.9847E-03    -36.0731E-03    -35.7123E-03     59.7158E-03    -23.9847E-03     10.8325E-03     61.5535E+06    -142.546E+03    -18.8743E+06    -18.8431E+06     61.5222E+06    -142.546E+03     566.481E+03         29.2637
            1026     12.7038E-03     10.5648E-03     761.068E-03     709.573E-03        -2.53796     761.004E-03        -2.53789     709.573E-03    -9.46742E-03     58.4750E-03    -23.1653E-03    -35.3318E-03    -35.2719E-03     58.4151E-03    -23.1653E-03     2.01537E-03     8.76556E+06    -14.1335E+06    -27.7304E+06    -19.7081E+06    -9.92897E+06    -3.46123E+06    -837.414E+03         27.6404
            1027     11.7382E-03     10.5568E-03     782.729E-03     704.355E-03        -2.55166     782.563E-03        -2.55149     704.355E-03     7.40834E-03     56.2633E-03    -22.2905E-03    -34.0306E-03    -33.9430E-03     56.1757E-03    -22.2905E-03    -4.83902E-03     3.18170E+06    -20.0614E+06    -54.8116E+06    -20.1115E+06    -54.7615E+06     3.18170E+06     10.0501E+03         26.3476
            1028     10.7707E-03     10.5533E-03     784.501E-03     697.185E-03        -2.54526     784.310E-03        -2.54507     697.185E-03     9.21192E-03     53.6477E-03    -21.3785E-03    -32.2932E-03    -32.0780E-03     53.4325E-03    -21.3785E-03    -8.47468E-03     8.77592E+06    -20.0863E+06    -86.9399E+06    -20.1210E+06    -86.9052E+06     8.77592E+06     204.025E+03         25.3984
            1029     9.80144E-03     10.5511E-03     758.153E-03     689.868E-03        -2.51138     758.038E-03        -2.51127     689.868E-03    -7.84829E-03     50.7891E-03    -20.4687E-03    -30.3330E-03    -29.9925E-03     50.4486E-03    -20.4687E-03    -10.3991E-03     13.8679E+06    -20.3478E+06    -112.684E+06    -20.3781E+06    -112.653E+06     13.8679E+06    -122.530E+03         24.7383
            1030     8.83001E-03     10.5500E-03     735.087E-03     683.668E-03        -2.47875     734.705E-03        -2.47837     683.668E-03    -28.9669E-03     47.7468E-03    -19.5432E-03    -28.2242E-03    -27.7692E-03     47.2918E-03    -19.5432E-03    -11.6866E-03     15.0170E+06    -20.7417E+06    -136.103E+06    -20.7832E+06    -136.062E+06     15.0170E+06     640.595E+03         24.2264
            1031     7.85621E-03     10.5498E-03     731.475E-03     677.560E-03        -2.46856     730.511E-03        -2.46760     677.560E-03     23.7546E-03     44.6485E-03    -18.6536E-03    -25.9988E-03    -25.4890E-03     44.1387E-03    -18.6536E-03    -11.9481E-03     15.4798E+06    -21.4234E+06    -157.070E+06    -21.4795E+06    -157.014E+06     15.4798E+06     1.89335E+06         23.7809
            1032     6.88024E-03     10.5493E-03     712.775E-03     670.377E-03        -2.44339     709.942E-03        -2.44172     671.537E-03    -20.5385E-03     41.5735E-03    -17.8215E-03    -23.7500E-03    -23.2494E-03     41.0728E-03    -17.8215E-03    -11.3880E-03     14.8331E+06    -22.9820E+06    -174.563E+06    -23.0610E+06    -174.484E+06     14.8331E+06     2.92042E+06         23.3986
            1033     5.90191E-03     10.5488E-03     690.554E-03     664.250E-03        -2.41613     685.402E-03        -2.41404     667.305E-03    -3.43338E-03     38.6155E-03    -17.0530E-03    -21.5661E-03    -21.1245E-03     38.1739E-03    -17.0530E-03    -10.2623E-03     11.7938E+06    -25.2251E+06    -187.369E+06    -25.3338E+06    -187.260E+06     11.7938E+06     3.72824E+06         23.0748
            1034     4.92170E-03     10.5474E-03     692.127E-03     661.705E-03        -2.41767     685.775E-03        -2.41321     663.601E-03    -55.6777E-03     35.9460E-03    -16.3826E-03    -19.5656E-03    -19.2168E-03     35.5972E-03    -16.3826E-03    -8.75240E-03     6.54060E+06    -28.0856E+06    -200.962E+06    -28.2225E+06    -200.825E+06     6.54060E+06     4.44049E+06         22.7983
            1035     3.93954E-03     10.5459E-03     700.035E-03     653.159E-03        -2.41941     680.420E-03        -2.40532     658.688E-03     125.211E-03     33.6346E-03    -15.7952E-03    -17.8368E-03    -17.5940E-03     33.3918E-03    -15.7952E-03    -7.01481E-03    -3.05928E+06    -31.2648E+06    -213.499E+06    -31.4036E+06    -213.360E+06    -3.05928E+06     4.58104E+06         22.5655
            1036     2.95604E-03     10.5442E-03     723.912E-03     645.409E-03        -2.43804     681.113E-03        -2.40077     650.938E-03    -152.415E-03     31.7329E-03    -15.3101E-03    -16.4205E-03    -16.2771E-03     31.5895E-03    -15.3101E-03    -5.18262E-03    -15.2463E+06    -34.0597E+06    -221.929E+06    -34.1723E+06    -221.816E+06    -15.2463E+06     4.00540E+06         22.3797
            1037     1.97119E-03     10.5425E-03     780.335E-03     641.703E-03        -2.49019     658.425E-03        -2.36828     641.703E-03     357.896E-03     30.3783E-03    -14.9789E-03    -15.3985E-03    -15.3343E-03     30.3141E-03    -14.9789E-03    -3.29788E-03    -25.7611E+06    -36.0284E+06    -230.122E+06    -36.0963E+06    -230.054E+06    -25.7611E+06     3.09270E+06         22.2470
            1038     985.680E-06     10.5406E-03         1.03208     683.355E-03        -2.79291     591.682E-03        -2.35251     683.355E-03    -813.298E-03     29.6623E-03    -14.7755E-03    -14.8863E-03    -14.8678E-03     29.6439E-03    -14.7755E-03    -1.68937E-03    -32.9952E+06    -37.1279E+06    -233.663E+06    -37.1639E+06    -233.627E+06    -32.9952E+06     1.49844E+06         22.1706
            1039     16.5671E-03     9.59713E-03     747.648E-03     706.300E-03        -2.50330     737.852E-03        -2.50304     715.837E-03    -46.0879E-03     63.0561E-03    -26.2781E-03    -36.7571E-03    -35.3968E-03     61.6959E-03    -26.2781E-03     21.9887E-03     196.541E+06     119.199E+06    -7.91672E+06    -7.91620E+06     196.541E+06     119.199E+06     110.116E+03         35.9451
            1040     15.6026E-03     9.56216E-03     758.684E-03     713.672E-03        -2.51995     758.547E-03        -2.51981     713.672E-03    -29.8322E-03     63.0679E-03    -25.3555E-03    -37.6957E-03    -36.2808E-03     61.6530E-03    -25.3555E-03     22.7585E-03     185.813E+06     67.3549E+06    -13.9246E+06    -13.9236E+06     185.812E+06     67.3549E+06    -61.9447E+03         33.4996
            1041     14.6389E-03     9.53989E-03     761.286E-03     710.496E-03        -2.52466     761.101E-03        -2.52447     710.496E-03    -37.6843E-03     61.8815E-03    -24.4033E-03    -37.4699E-03    -36.8631E-03     61.2748E-03    -24.4033E-03     15.4671E-03     142.660E+06     24.3971E+06    -16.0116E+06    -15.9733E+06     142.622E+06     24.3971E+06    -637.855E+03         31.1799
            1042     13.6759E-03     9.51746E-03     749.087E-03     707.270E-03        -2.51209     748.886E-03        -2.51189     707.270E-03    -26.1323E-03     60.8908E-03    -23.4802E-03    -37.3869E-03    -37.0660E-03     60.5699E-03    -23.4802E-03     10.1838E-03     63.4502E+06     3.88641E+06    -15.8026E+06    -15.7436E+06     63.3912E+06     3.88641E+06    -253.010E+03         29.2517
            1043     12.7123E-03     9.50395E-03     759.334E-03     703.620E-03        -2.52298     759.244E-03        -2.52289     703.620E-03    -12.9661E-03     58.9279E-03    -22.5519E-03    -36.3952E-03    -36.3387E-03     58.8714E-03    -22.5519E-03     843.767E-06     13.6209E+06     -8.7862E+06    -26.1670E+06    -16.8296E+06    -8.62787E+06     4.12517E+06    -620.606E+03         27.6408
            1044     11.7477E-03     9.49892E-03     786.475E-03     697.831E-03        -2.54550     786.392E-03        -2.54542     697.831E-03    -11.0545E-03     56.2836E-03    -21.5538E-03    -34.7914E-03    -34.6777E-03     56.1699E-03    -21.5538E-03    -5.95696E-03     10.3525E+06    -17.8324E+06    -54.6127E+06    -18.0346E+06    -54.4105E+06     10.3525E+06    -2.32839E+06         26.3501
            1045     10.7809E-03     9.49891E-03     782.895E-03     690.017E-03        -2.53495     782.763E-03        -2.53482     690.017E-03    -17.8177E-03     53.2684E-03    -20.5250E-03    -32.7628E-03    -32.5264E-03     53.0319E-03    -20.5250E-03    -8.94479E-03     16.6398E+06    -17.7246E+06    -86.4251E+06    -17.9186E+06    -86.2310E+06     16.6398E+06    -3.00954E+06         25.3931
            1046     9.81200E-03     9.50007E-03     745.658E-03     682.761E-03        -2.48935     745.372E-03        -2.48906     682.761E-03     4.29873E-03     50.0444E-03    -19.4986E-03    -30.5475E-03    -30.2061E-03     49.7030E-03    -19.4986E-03    -10.3999E-03     22.1735E+06    -18.1571E+06    -112.504E+06    -18.3086E+06    -112.352E+06     22.1735E+06    -3.41809E+06         24.7214
            1047     8.84070E-03     9.50308E-03     712.587E-03     677.797E-03        -2.45140     712.087E-03        -2.45090     677.797E-03    -3.61748E-03     46.6260E-03    -18.4592E-03    -28.1835E-03    -27.7565E-03     46.1990E-03    -18.4592E-03    -11.2298E-03     23.5628E+06    -18.9438E+06    -136.808E+06    -19.1032E+06    -136.649E+06     23.5628E+06    -3.65024E+06         24.1991
            1048     7.86687E-03     9.50650E-03     715.471E-03     673.389E-03        -2.45249     714.506E-03        -2.45152     673.389E-03     23.2986E-03     43.1465E-03    -17.4521E-03    -25.6983E-03    -25.2464E-03     42.6946E-03    -17.4521E-03    -11.0728E-03     24.7498E+06    -19.3092E+06    -158.320E+06    -19.4310E+06    -158.198E+06     24.7498E+06    -2.86359E+06         23.7384
            1049     6.89036E-03     9.50949E-03     733.562E-03     666.175E-03        -2.46533     732.244E-03        -2.46401     666.175E-03    -7.34204E-03     39.7017E-03    -16.5059E-03    -23.1981E-03    -22.7687E-03     39.2722E-03    -16.5059E-03    -10.3077E-03     25.5551E+06    -19.9772E+06    -175.225E+06    -20.0527E+06    -175.150E+06     25.5551E+06    -1.76880E+06         23.3316
            1050     5.91154E-03     9.51197E-03     709.513E-03     655.649E-03        -2.43476     705.303E-03        -2.43245     657.545E-03     33.9815E-03     36.3600E-03    -15.6215E-03    -20.7535E-03    -20.3822E-03     35.9886E-03    -15.6215E-03    -9.12228E-03     22.5311E+06    -21.7399E+06    -187.796E+06    -21.7894E+06    -187.746E+06     22.5311E+06    -842.459E+03         22.9785
            1051     4.93022E-03     9.51407E-03     672.830E-03     648.062E-03        -2.38726     665.171E-03        -2.38386     652.320E-03     1.43832E-03     33.3130E-03    -14.8258E-03    -18.4952E-03    -18.2080E-03     33.0258E-03    -14.8258E-03    -7.62614E-03     16.6567E+06    -24.4561E+06    -200.697E+06    -24.4977E+06    -200.655E+06     16.6567E+06    -198.197E+03         22.6729
            1052     3.94695E-03     9.51500E-03     686.953E-03     645.303E-03        -2.39142     674.729E-03        -2.38156     647.665E-03     122.947E-03     30.6466E-03    -14.1166E-03    -16.5285E-03    -16.3311E-03     30.4493E-03    -14.1166E-03    -6.01701E-03     6.37677E+06    -27.6251E+06    -212.386E+06    -27.6664E+06    -212.345E+06     6.37677E+06    -221.454E+03         22.4145
            1053     2.96183E-03     9.51542E-03     711.987E-03     638.255E-03        -2.40727     674.406E-03        -2.36969     638.255E-03    -202.154E-03     28.4320E-03    -13.5091E-03    -14.9227E-03    -14.8066E-03     28.3160E-03    -13.5091E-03    -4.39478E-03    -8.02782E+06    -30.9276E+06    -220.629E+06    -30.9531E+06    -220.604E+06    -8.02782E+06    -256.779E+03         22.2102
            1054     1.97552E-03     9.51544E-03     762.714E-03     631.903E-03        -2.45477     633.129E-03        -2.32518     631.903E-03     361.713E-03     26.7187E-03    -13.0456E-03    -13.6730E-03    -13.6200E-03     26.6658E-03    -13.0456E-03    -2.81869E-03    -22.6948E+06    -34.0791E+06    -228.544E+06    -34.0923E+06    -228.531E+06    -22.6948E+06    -240.585E+03         22.0618
            1055     987.786E-06     9.51475E-03         1.05200     655.673E-03        -2.76976     607.442E-03        -2.32520     655.673E-03    -797.418E-03     25.6642E-03    -12.7332E-03    -12.9309E-03    -12.9158E-03     25.6492E-03    -12.7332E-03    -1.34600E-03    -32.2724E+06    -36.8418E+06    -232.265E+06    -35.9771E+06    -232.251E+06    -33.1507E+06    -746.318E+03         21.9676
            1056     16.5696E-03     8.53154E-03     750.929E-03     709.539E-03        -2.51310     750.419E-03        -2.51259     709.539E-03     12.7845E-03     64.7716E-03    -26.1542E-03    -38.6247E-03    -37.2677E-03     63.4146E-03    -26.1542E-03     22.2508E-03     196.707E+06     120.010E+06    -7.68644E+06    -7.68622E+06     196.707E+06     120.010E+06     23.8703E+03         35.8523
            1057     15.6069E-03     8.49672E-03     734.156E-03     707.337E-03        -2.49524     734.030E-03        -2.49511     707.337E-03    -14.4893E-03     64.2763E-03    -25.1231E-03    -39.1356E-03    -37.7215E-03     62.8622E-03    -25.1231E-03     23.0111E-03     186.989E+06     69.3155E+06    -13.2855E+06    -13.2705E+06     186.974E+06     69.3155E+06    -962.628E+03         33.4250
            1058     14.6444E-03     8.47524E-03     744.650E-03     705.058E-03        -2.50276     744.504E-03        -2.50261     705.058E-03    -18.3054E-03     62.6707E-03    -24.0824E-03    -38.5729E-03    -37.9681E-03     62.0659E-03    -24.0824E-03     15.6000E-03     143.060E+06     27.4358E+06    -17.2758E+06    -17.2297E+06     143.013E+06     27.4358E+06    -1.72608E+06         31.1458
            1059     13.6819E-03     8.45400E-03     764.915E-03     701.425E-03        -2.51727     764.763E-03        -2.51712     701.425E-03    -19.1493E-03     61.1348E-03    -23.0889E-03    -38.0212E-03    -37.6907E-03     60.8043E-03    -23.0889E-03     10.4009E-03     63.5323E+06     8.30386E+06    -20.0161E+06    -19.8301E+06     63.3463E+06     8.30386E+06    -1.57526E+06         29.2579
            1060     12.7193E-03     8.44258E-03     762.632E-03     696.637E-03        -2.51355     762.465E-03        -2.51338     696.637E-03    -21.0449E-03     58.5528E-03    -22.1117E-03    -36.4649E-03    -36.4084E-03     58.4964E-03    -22.1117E-03     1.01620E-03     18.6615E+06    -5.23520E+06    -27.1910E+06    -19.2146E+06    -6.04018E+06     11.4901E+06    -2.93725E+06         27.6706
            1061     11.7545E-03     8.44155E-03     747.802E-03     691.829E-03        -2.49988     747.634E-03        -2.49971     691.829E-03    -16.0622E-03     55.4065E-03    -21.0920E-03    -34.3812E-03    -34.3011E-03     55.3264E-03    -21.0920E-03    -4.94528E-03     19.3341E+06    -16.3651E+06    -53.3373E+06    -17.6071E+06    -52.0953E+06     19.3341E+06    -5.51200E+06         26.3870
            1062     10.7874E-03     8.44507E-03     747.925E-03     686.805E-03        -2.49672     747.686E-03        -2.49648     686.805E-03    -22.2004E-03     52.1822E-03    -20.0621E-03    -32.1534E-03    -32.0097E-03     52.0386E-03    -20.0621E-03    -6.64061E-03     25.8292E+06    -16.2284E+06    -86.9150E+06    -17.0950E+06    -86.0484E+06     25.8292E+06    -7.30450E+06         25.4210
            1063     9.81799E-03     8.45012E-03     752.645E-03     680.522E-03        -2.49241     752.285E-03        -2.49205     680.522E-03    -7.01991E-03     48.8714E-03    -19.0439E-03    -29.8360E-03    -29.6471E-03     48.6825E-03    -19.0439E-03    -7.26808E-03     32.4700E+06    -15.7751E+06    -112.793E+06    -16.5385E+06    -112.029E+06     32.4700E+06    -8.00714E+06         24.7389
            1064     8.84612E-03     8.45706E-03     728.944E-03     673.976E-03        -2.46448     728.343E-03        -2.46388     673.976E-03    -12.3278E-03     45.4503E-03    -18.0159E-03    -27.4469E-03    -27.2288E-03     45.2322E-03    -18.0159E-03    -7.44249E-03     34.9425E+06    -15.7047E+06    -137.541E+06    -16.4087E+06    -136.837E+06     34.9425E+06    -8.81900E+06         24.2211
            1065     7.87168E-03     8.46440E-03     704.025E-03     668.872E-03        -2.43972     703.013E-03        -2.43871     668.872E-03     8.20885E-03     42.0486E-03    -17.0102E-03    -25.0416E-03    -24.8310E-03     41.8380E-03    -17.0102E-03    -6.87767E-03     36.4532E+06    -16.2289E+06    -160.487E+06    -16.8821E+06    -159.834E+06     36.4532E+06    -9.11104E+06         23.7694
            1066     6.89492E-03     8.47118E-03     714.561E-03     663.235E-03        -2.44468     712.945E-03        -2.44306     663.235E-03    -30.6639E-03     38.6491E-03    -16.0408E-03    -22.6153E-03    -22.4266E-03     38.4604E-03    -16.0408E-03    -6.10567E-03     36.1042E+06    -17.0639E+06    -177.484E+06    -17.5697E+06    -176.978E+06     36.1042E+06    -8.25330E+06         23.3625
            1067     5.91552E-03     8.47752E-03     711.461E-03     655.228E-03        -2.42918     709.052E-03        -2.42677     655.228E-03     11.4941E-03     35.3228E-03    -15.1153E-03    -20.2303E-03    -20.0754E-03     35.1679E-03    -15.1153E-03    -5.17046E-03     31.1397E+06    -18.7021E+06    -190.017E+06    -19.0427E+06    -189.677E+06     31.1397E+06    -6.84564E+06         23.0013
            1068     4.93387E-03     8.48291E-03     676.018E-03     646.525E-03        -2.38536     667.296E-03        -2.37900     648.887E-03    -77.8277E-03     32.2409E-03    -14.2533E-03    -18.0004E-03    -17.8865E-03     32.1270E-03    -14.2533E-03    -4.14403E-03     22.2068E+06    -21.5103E+06    -201.779E+06    -21.7313E+06    -201.558E+06     22.2068E+06    -5.66446E+06         22.6855
            1069     3.95004E-03     8.48658E-03     660.551E-03     644.703E-03        -2.36516     646.570E-03        -2.35354     647.065E-03     29.7930E-03     29.4717E-03    -13.4659E-03    -16.0071E-03    -15.9319E-03     29.3965E-03    -13.4659E-03    -3.13840E-03     8.74478E+06    -25.5952E+06    -213.251E+06    -25.7567E+06    -213.090E+06     8.74478E+06    -5.05586E+06         22.4163
            1070     2.96444E-03     8.48923E-03     677.236E-03     647.853E-03        -2.37933     643.319E-03        -2.34542     647.853E-03    -205.057E-03     27.1178E-03    -12.7835E-03    -14.3363E-03    -14.2939E-03     27.0754E-03    -12.7835E-03    -2.20354E-03    -8.00779E+06    -30.2268E+06    -222.598E+06    -30.3217E+06    -222.504E+06    -8.00779E+06    -3.85100E+06         22.2019
            1071     1.97722E-03     8.49100E-03     774.820E-03     640.805E-03        -2.47057     671.987E-03        -2.36773     640.805E-03     296.124E-03     25.2781E-03    -12.2210E-03    -13.0576E-03    -13.0383E-03     25.2588E-03    -12.2210E-03    -1.35518E-03    -23.7635E+06    -34.2595E+06    -229.234E+06    -34.2953E+06    -229.198E+06    -23.7635E+06    -2.32852E+06         22.0457
            1072     989.336E-06     8.49181E-03         1.01772     628.556E-03        -2.70301     637.444E-03        -2.32274     628.556E-03    -741.674E-03     23.8897E-03    -11.7563E-03    -12.1333E-03    -12.1277E-03     23.8842E-03    -11.7563E-03    -567.126E-06    -34.4392E+06    -38.8760E+06    -234.092E+06    -38.0091E+06    -234.080E+06    -35.3175E+06    -564.271E+03         21.9447
            1073     16.5711E-03     7.46481E-03     730.996E-03     695.048E-03        -2.47369     723.096E-03        -2.47296     702.216E-03     194.380E-06     66.5014E-03    -26.1174E-03    -40.3920E-03    -38.8854E-03     64.9948E-03    -26.1174E-03     23.4212E-03     197.378E+06     122.844E+06    -7.62119E+06    -7.61788E+06     197.375E+06     122.844E+06    -477.635E+03         35.7473
            1074     15.6093E-03     7.42961E-03     732.958E-03     700.466E-03        -2.48812     732.604E-03        -2.48777     700.466E-03    -26.7433E-03     65.3910E-03    -25.0169E-03    -40.3411E-03    -38.7201E-03     63.7700E-03    -25.0169E-03     24.8469E-03     187.595E+06     73.8728E+06    -14.4019E+06    -14.3787E+06     187.572E+06     73.8728E+06    -625.267E+03         33.3531
            1075     14.6481E-03     7.41020E-03     737.047E-03     698.052E-03        -2.49378     736.843E-03        -2.49358     698.052E-03    -13.6396E-03     62.9979E-03    -23.9242E-03    -39.0590E-03    -38.3044E-03     62.2433E-03    -23.9242E-03     17.3902E-03     143.910E+06     31.2101E+06    -19.5126E+06    -19.4511E+06     143.849E+06     31.2101E+06    -1.19995E+06         31.1343
            1076     13.6859E-03     7.39036E-03     746.659E-03     694.839E-03        -2.50170     746.462E-03        -2.50150     694.839E-03    -15.1558E-03     60.4982E-03    -22.9351E-03    -37.5397E-03    -37.0509E-03     60.0094E-03    -22.9351E-03     12.8028E-03     66.4602E+06     14.1344E+06    -21.1030E+06    -20.5644E+06     65.9216E+06     14.1344E+06    -4.13511E+06         29.3021
            1077     12.7220E-03     7.38266E-03     747.114E-03     690.841E-03        -2.49726     746.738E-03        -2.49688     690.841E-03    -30.2691E-03     56.9437E-03    -22.0473E-03    -34.9244E-03    -34.8246E-03     56.8439E-03    -22.0473E-03     4.06657E-03     24.7613E+06     899.482E+03    -28.2642E+06    -19.3416E+06    -3.42693E+06     20.1651E+06    -7.83827E+06         27.7485
            1078     11.7554E-03     7.38582E-03     731.360E-03     686.908E-03        -2.47448     730.857E-03        -2.47398     686.908E-03    -17.0173E-03     53.4467E-03    -21.1745E-03    -32.3399E-03    -32.2946E-03     53.4014E-03    -21.1745E-03     159.165E-06     28.1332E+06    -14.5054E+06    -53.8541E+06    -18.2976E+06    -50.0620E+06     28.1332E+06    -10.1956E+06         26.4779
            1079     10.7864E-03     7.39253E-03     719.328E-03     683.529E-03        -2.45814     718.986E-03        -2.45780     683.529E-03    -1.62620E-03     50.5043E-03    -20.3181E-03    -30.2268E-03    -30.1540E-03     50.4316E-03    -20.3181E-03     256.102E-06     35.0398E+06    -14.9516E+06    -87.4234E+06    -17.4769E+06    -84.8981E+06     35.0398E+06    -12.8490E+06         25.5009
            1080     9.81545E-03     7.40142E-03     730.223E-03     679.487E-03        -2.46806     729.550E-03        -2.46739     679.487E-03     17.0603E-03     47.7171E-03    -19.4724E-03    -28.2570E-03    -28.1617E-03     47.6219E-03    -19.4724E-03     605.044E-06     41.9536E+06    -13.5438E+06    -114.713E+06    -16.0592E+06    -112.197E+06     41.9536E+06    -15.1733E+06         24.8054
            1081     8.84225E-03     7.41198E-03     736.903E-03     673.591E-03        -2.47719     735.912E-03        -2.47620     673.591E-03    -2.83258E-03     44.9998E-03    -18.6143E-03    -26.3841E-03    -26.2714E-03     44.8871E-03    -18.6143E-03     1.02666E-03     45.6754E+06    -11.9182E+06    -139.618E+06    -14.1836E+06    -137.353E+06     45.6754E+06    -16.2195E+06         24.3066
            1082     7.86723E-03     7.42250E-03     719.449E-03     666.964E-03        -2.45662     718.470E-03        -2.45565     666.964E-03    -3.85855E-03     42.3129E-03    -17.7566E-03    -24.5556E-03    -24.4415E-03     42.1987E-03    -17.7566E-03     1.50906E-03     47.3270E+06    -11.6719E+06    -164.091E+06    -13.5253E+06    -162.237E+06     47.3270E+06    -16.2650E+06         23.8943
            1083     6.89007E-03     7.43325E-03     691.133E-03     658.475E-03        -2.41488     686.155E-03        -2.41350     662.067E-03    -23.6513E-03     39.5057E-03    -16.8730E-03    -22.6388E-03    -22.5336E-03     39.4004E-03    -16.8730E-03     1.73519E-03     43.6946E+06    -13.7858E+06    -181.955E+06    -15.1661E+06    -180.575E+06     43.6946E+06    -14.8596E+06         23.5201
            1084     5.91104E-03     7.44276E-03     678.211E-03     655.782E-03        -2.39949     671.300E-03        -2.39618     659.374E-03     47.6918E-03     36.6479E-03    -15.9819E-03    -20.6834E-03    -20.5935E-03     36.5580E-03    -15.9819E-03     1.79985E-03     33.3194E+06    -17.6106E+06    -194.536E+06    -18.5507E+06    -193.596E+06     33.3194E+06    -12.5710E+06         23.1818
            1085     4.92995E-03     7.45126E-03     690.942E-03     655.543E-03        -2.41527     683.994E-03        -2.40832     655.543E-03    -41.3003E-03     33.8446E-03    -15.1243E-03    -18.7298E-03    -18.6596E-03     33.7744E-03    -15.1243E-03     1.71150E-03     18.0912E+06    -22.3123E+06    -205.198E+06    -22.9205E+06    -204.590E+06     18.0912E+06    -10.2957E+06         22.8829
            1086     3.94693E-03     7.45805E-03     692.529E-03     649.410E-03        -2.40854     676.008E-03        -2.39202     649.410E-03     107.625E-03     31.2056E-03    -14.3275E-03    -16.8779E-03    -16.8275E-03     31.1552E-03    -14.3275E-03     1.54363E-03     721.678E+03    -27.4152E+06    -216.761E+06    -27.7756E+06    -216.401E+06     721.678E+03    -8.07155E+06         22.6245
            1087     2.96210E-03     7.46330E-03     676.822E-03     646.696E-03        -2.38527     643.495E-03        -2.35194     646.696E-03    -91.4341E-03     28.8903E-03    -13.6379E-03    -15.2515E-03    -15.2194E-03     28.8582E-03    -13.6379E-03     1.27618E-03    -15.2042E+06    -32.3924E+06    -226.369E+06    -32.5777E+06    -226.184E+06    -15.2042E+06    -5.89098E+06         22.4111
            1088     1.97586E-03     7.46698E-03     724.330E-03     646.677E-03        -2.43247     619.336E-03        -2.33741     656.609E-03     316.546E-03     26.9981E-03    -13.0798E-03    -13.9178E-03    -13.9019E-03     26.9822E-03    -13.0798E-03     941.644E-06    -28.1853E+06    -36.3533E+06    -232.884E+06    -36.4271E+06    -232.811E+06    -28.1853E+06    -3.46371E+06         22.2528
            1089     988.172E-06     7.46893E-03     984.037E-03     714.074E-03        -2.76421     607.699E-03        -2.39781     724.007E-03    -785.613E-03     25.6352E-03    -12.6621E-03    -12.9734E-03    -12.9625E-03     25.6307E-03    -12.6684E-03     509.715E-06    -35.4492E+06    -38.7132E+06    -236.232E+06    -38.7285E+06    -236.217E+06    -35.4492E+06    -853.466E+03         22.1541
            1090     16.5694E-03     6.39681E-03     723.967E-03     688.920E-03        -2.45179     716.130E-03        -2.45112     696.089E-03    -69.2072E-03     67.9196E-03    -26.2859E-03    -41.6192E-03    -39.6803E-03     65.9808E-03    -26.2859E-03     26.1152E-03     197.754E+06     125.940E+06    -8.46508E+06    -8.46153E+06     197.751E+06     125.940E+06    -337.217E+03         35.6520
            1091     15.6086E-03     6.36144E-03     744.277E-03     693.820E-03        -2.48716     743.937E-03        -2.48682     693.820E-03    -32.7092E-03     66.1231E-03    -25.1735E-03    -40.9211E-03    -38.6781E-03     63.8801E-03    -25.1735E-03     29.4113E-03     186.517E+06     75.4563E+06    -15.9438E+06    -15.9340E+06     186.507E+06     75.4563E+06     472.086E+03         33.3152
            1092     14.6467E-03     6.34569E-03     738.607E-03     690.568E-03        -2.48954     738.417E-03        -2.48935     690.568E-03    -19.8508E-03     62.5991E-03    -24.0915E-03    -38.5069E-03    -37.2254E-03     61.3177E-03    -24.0915E-03     22.2139E-03     147.884E+06     26.8725E+06    -20.3703E+06    -20.2824E+06     147.796E+06     26.8725E+06    -1.66214E+06         31.1731
            1093     13.6829E-03     6.32831E-03     721.056E-03     687.743E-03        -2.47075     720.750E-03        -2.47044     687.743E-03    -4.95518E-03     58.7181E-03    -23.2540E-03    -35.4561E-03    -34.3964E-03     57.6584E-03    -23.2540E-03     18.8984E-03     72.5683E+06     11.2685E+06    -22.4919E+06    -21.0596E+06     71.1360E+06     11.2685E+06    -7.96162E+06         29.4049
            1094     12.7160E-03     6.32554E-03     714.333E-03     685.468E-03        -2.46026     713.943E-03        -2.45987     685.468E-03    -6.27092E-03     54.2708E-03    -22.6697E-03    -31.6204E-03    -31.0776E-03     53.7280E-03    -22.6697E-03     12.0470E-03     27.6975E+06     4.00045E+06    -30.6870E+06    -20.2943E+06    -1.38775E+06     22.6930E+06    -12.3581E+06         27.8946
            1095     11.7454E-03     6.33297E-03     721.359E-03     682.834E-03        -2.46278     720.894E-03        -2.46231     682.834E-03     4.04585E-03     51.3161E-03    -22.1509E-03    -29.2015E-03    -28.6406E-03     50.7552E-03    -22.1509E-03     11.0376E-03     31.6768E+06    -10.8095E+06    -56.4932E+06    -19.3001E+06    -48.0027E+06     31.6768E+06    -16.0734E+06         26.6454
            1096     10.7732E-03     6.34209E-03     715.775E-03     679.686E-03        -2.45206     715.219E-03        -2.45151     679.686E-03    -2.97350E-03     49.5588E-03    -21.6581E-03    -27.9263E-03    -27.2261E-03     48.8586E-03    -21.6581E-03     12.4770E-03     39.3484E+06    -11.4863E+06    -89.4004E+06    -17.4162E+06    -83.4705E+06     39.3484E+06    -20.1203E+06         25.6637
            1097     9.79943E-03     6.35405E-03     709.906E-03     676.492E-03        -2.44949     709.074E-03        -2.44866     676.492E-03     7.24443E-03     48.0913E-03    -21.1588E-03    -26.9302E-03    -26.1531E-03     47.3141E-03    -21.1588E-03     13.2672E-03     45.8467E+06    -10.2369E+06    -117.582E+06    -15.7104E+06    -112.108E+06     45.8467E+06    -23.2916E+06         24.9550
            1098     8.82487E-03     6.36674E-03     717.005E-03     672.476E-03        -2.45935     716.434E-03        -2.45878     672.476E-03     24.6367E-03     46.7797E-03    -20.6250E-03    -26.1349E-03    -25.3286E-03     45.9734E-03    -20.6250E-03     13.6381E-03     48.9095E+06    -9.78369E+06    -144.742E+06    -14.7706E+06    -139.756E+06     48.9095E+06    -25.0410E+06         24.4794
            1099     7.84944E-03     6.38004E-03     712.847E-03     667.271E-03        -2.44827     712.166E-03        -2.44758     667.271E-03     37.0958E-03     45.3225E-03    -20.0417E-03    -25.2799E-03    -24.5182E-03     44.5608E-03    -20.0417E-03     13.3001E-03     49.1679E+06    -10.7894E+06    -170.728E+06    -14.5955E+06    -166.922E+06     49.1679E+06    -23.9010E+06         24.1309
            1100     6.87308E-03     6.39291E-03     691.142E-03     659.207E-03        -2.41985     686.217E-03        -2.41852     662.799E-03    -4.98429E-03     43.5417E-03    -19.3664E-03    -24.1782E-03    -23.5081E-03     42.8716E-03    -19.3664E-03     12.3768E-03     42.1333E+06    -13.7883E+06    -189.352E+06    -16.3237E+06    -186.817E+06     42.1333E+06    -20.6265E+06         23.8261
            1101     5.89549E-03     6.40528E-03     683.034E-03     656.183E-03        -2.40966     675.973E-03        -2.40619     659.775E-03     64.1227E-03     41.4489E-03    -18.6134E-03    -22.8404E-03    -22.2913E-03     40.8998E-03    -18.6134E-03     11.0319E-03     26.9614E+06    -18.2885E+06    -201.164E+06    -19.8843E+06    -199.568E+06     26.9614E+06    -16.7950E+06         23.5462
            1102     4.91651E-03     6.41619E-03     693.366E-03     655.268E-03        -2.42077     687.210E-03        -2.41461     655.268E-03    -13.0309E-03     39.1460E-03    -17.8510E-03    -21.2965E-03    -20.8806E-03     38.7300E-03    -17.8510E-03     9.38236E-03     9.62739E+06    -23.4930E+06    -211.255E+06    -24.4367E+06    -210.312E+06     9.62739E+06    -13.1003E+06         23.2926
            1103     3.93592E-03     6.42576E-03     691.239E-03     648.882E-03        -2.41607     674.571E-03        -2.39940     648.882E-03     141.971E-03     36.7963E-03    -17.1278E-03    -19.6673E-03    -19.3791E-03     36.5081E-03    -17.1278E-03     7.60033E-03    -6.50794E+06    -28.6699E+06    -222.322E+06    -29.1620E+06    -221.830E+06    -6.50794E+06    -9.55905E+06         23.0643
            1104     2.95376E-03     6.43313E-03     686.811E-03     646.970E-03        -2.40803     638.654E-03        -2.35987     646.970E-03    -168.601E-03     34.6024E-03    -16.4965E-03    -18.1040E-03    -17.9280E-03     34.4264E-03    -16.4965E-03     5.75110E-03    -20.0415E+06    -33.4211E+06    -231.190E+06    -33.6446E+06    -230.967E+06    -20.0415E+06    -6.47229E+06         22.8665
            1105     1.97011E-03     6.43904E-03     742.225E-03     652.247E-03        -2.46961     606.337E-03        -2.34366     662.180E-03     301.775E-03     32.7727E-03    -16.0050E-03    -16.7662E-03    -16.6811E-03     32.6876E-03    -16.0050E-03     3.83649E-03    -30.2329E+06    -37.4179E+06    -237.242E+06    -37.5067E+06    -237.153E+06    -30.2329E+06    -4.07039E+06         22.7167
            1106     985.390E-06     6.44249E-03         1.04327     756.516E-03        -2.86931     585.848E-03        -2.42182     766.448E-03    -886.580E-03     31.5686E-03    -15.6752E-03    -15.8930E-03    -15.8593E-03     31.5412E-03    -15.6815E-03     1.99934E-03    -37.1520E+06    -39.8986E+06    -239.409E+06    -39.9268E+06    -239.381E+06    -37.1520E+06     -2.1538E+06         22.6250
            1107     16.5620E-03     5.32830E-03     744.620E-03     690.424E-03        -2.48173     743.850E-03        -2.48096     690.424E-03    -96.9511E-03     68.3573E-03    -26.8072E-03    -41.5494E-03    -38.8132E-03     65.6211E-03    -26.8072E-03     30.3567E-03     198.216E+06     127.207E+06    -9.71799E+06    -9.70721E+06     198.205E+06     127.207E+06     1.15527E+06         35.5917
            1108     15.5993E-03     5.29363E-03     740.637E-03     687.097E-03        -2.48070     740.361E-03        -2.48042     687.097E-03    -37.5669E-03     65.9860E-03    -25.8072E-03    -40.1894E-03    -36.7747E-03     62.5713E-03    -25.8072E-03     36.3420E-03     185.597E+06     76.0949E+06    -17.7799E+06    -17.7744E+06     185.592E+06     76.0949E+06     993.119E+03         33.3322
            1109     14.6359E-03     5.28196E-03     725.005E-03     683.996E-03        -2.46927     724.862E-03        -2.46913     683.996E-03    -24.9910E-03     60.9688E-03    -24.8896E-03    -36.1015E-03    -33.6790E-03     58.5463E-03    -24.8896E-03     29.5397E-03     153.516E+06     18.1368E+06    -23.0642E+06    -23.0091E+06     153.460E+06     18.1368E+06    -1.45867E+06         31.2832
            1110     13.6680E-03     5.26965E-03     714.961E-03     681.418E-03        -2.46502     714.687E-03        -2.46475     681.418E-03    -11.5827E-03     56.0563E-03    -24.3858E-03    -31.6893E-03    -29.1613E-03     53.5283E-03    -24.3858E-03     28.3984E-03     80.1566E+06    -4.26341E+06    -28.4925E+06    -26.5812E+06     78.2454E+06    -4.26341E+06    -9.21762E+06         29.5880
            1111     12.6948E-03     5.27312E-03     699.470E-03     676.703E-03        -2.45128     696.378E-03        -2.45107     679.589E-03    -1.43431E-03     52.2213E-03    -24.3017E-03    -27.9415E-03    -25.7676E-03     50.0473E-03    -24.3017E-03     24.6800E-03     23.8382E+06    -760.822E+03    -38.8633E+06    -27.0352E+06     1.28431E+06     9.96493E+06    -17.8249E+06         28.1315
            1112     11.7193E-03     5.28264E-03     691.781E-03     674.089E-03        -2.43939     687.072E-03        -2.43921     678.627E-03     5.66544E-03     51.1878E-03    -24.3047E-03    -26.9097E-03    -24.5073E-03     48.7854E-03    -24.3047E-03     25.7146E-03     22.1904E+06    -6.26926E+06    -62.7803E+06    -23.6055E+06    -45.4441E+06     22.1904E+06    -23.7537E+06         26.9164
            1113     10.7434E-03     5.29328E-03     704.794E-03     675.494E-03        -2.44664     702.712E-03        -2.44621     677.146E-03    -13.2039E-03     51.2012E-03    -24.3020E-03    -26.9277E-03    -24.3746E-03     48.6481E-03    -24.3020E-03     26.9158E-03     30.3198E+06    -8.70829E+06    -94.2119E+06    -19.9203E+06    -82.9999E+06     30.3198E+06    -28.2565E+06         25.9472
            1114     9.76768E-03     5.30604E-03     707.081E-03     674.387E-03        -2.44421     706.677E-03        -2.44381     674.387E-03    -16.9712E-03     51.3836E-03    -24.2619E-03    -27.1261E-03    -24.5911E-03     48.8486E-03    -24.2619E-03     27.1305E-03     36.7030E+06    -8.41374E+06    -122.534E+06    -17.7559E+06    -113.192E+06     36.7030E+06    -30.8838E+06         25.2311
            1115     8.79229E-03     5.31940E-03     696.809E-03     671.374E-03        -2.43264     696.638E-03        -2.43247     671.374E-03    -3.64128E-03     51.5835E-03    -24.1446E-03    -27.4303E-03    -25.0367E-03     49.1899E-03    -24.1446E-03     26.6389E-03     38.9778E+06    -9.85303E+06    -151.563E+06    -17.6284E+06    -143.788E+06     38.9778E+06    -32.0214E+06         24.7620
            1116     7.81757E-03     5.33332E-03     685.949E-03     668.941E-03        -2.42594     685.137E-03        -2.42512     668.941E-03     38.6007E-03     51.4488E-03    -23.9289E-03    -27.5240E-03    -25.4064E-03     49.3311E-03    -23.9289E-03     25.1839E-03     38.1301E+06    -13.0063E+06    -180.585E+06    -18.9726E+06    -174.619E+06     38.1301E+06    -30.6890E+06         24.4741
            1117     6.84299E-03     5.34742E-03     683.188E-03     666.852E-03        -2.42856     681.219E-03        -2.42659     666.852E-03    -25.4322E-03     50.8298E-03    -23.5768E-03    -27.2569E-03    -25.4756E-03     49.0485E-03    -23.5768E-03     23.0665E-03     29.9806E+06    -16.7756E+06    -199.935E+06    -20.6728E+06    -196.038E+06     29.9806E+06    -26.0941E+06         24.2674
            1118     5.86822E-03     5.36137E-03     691.815E-03     663.611E-03        -2.43666     689.132E-03        -2.43398     663.611E-03     5.20736E-03     49.6790E-03    -23.0919E-03    -26.5880E-03    -25.1737E-03     48.2647E-03    -23.0919E-03     20.3795E-03     14.3215E+06    -20.9023E+06    -210.448E+06    -23.1441E+06    -208.207E+06     14.3215E+06    -20.1720E+06         24.0825
            1119     4.89276E-03     5.37438E-03     683.410E-03     649.594E-03        -2.41003     664.973E-03        -2.40293     660.938E-03    -90.8425E-03     48.1248E-03    -22.5500E-03    -25.5750E-03    -24.5249E-03     47.0747E-03    -22.5500E-03     17.3028E-03    -817.538E+03    -25.6701E+06    -219.662E+06    -26.7911E+06    -218.541E+06    -817.538E+03    -14.3889E+06         23.9045
            1120     3.91641E-03     5.38596E-03     668.102E-03     651.783E-03        -2.39626     638.485E-03        -2.37830     663.437E-03     88.7897E-03     46.3271E-03    -22.0087E-03    -24.3193E-03    -23.6055E-03     45.6132E-03    -22.0087E-03     13.9799E-03    -13.3840E+06    -31.1013E+06    -228.871E+06    -31.5974E+06    -228.375E+06    -13.3840E+06    -9.67318E+06         23.7315
            1121     2.93881E-03     5.39596E-03     705.571E-03     668.449E-03        -2.45566     654.156E-03        -2.40456     668.760E-03    -217.835E-03     44.4760E-03    -21.5104E-03    -22.9656E-03    -22.5411E-03     44.0516E-03    -21.5104E-03     10.5082E-03    -24.7991E+06    -36.2185E+06    -236.573E+06    -36.4252E+06    -236.366E+06    -24.7991E+06    -6.21477E+06         23.5730
            1122     1.95993E-03     5.40300E-03     833.412E-03     663.956E-03        -2.56789     692.395E-03        -2.42687     663.956E-03     337.193E-03     42.9021E-03    -21.1099E-03    -21.7925E-03    -21.5894E-03     42.6990E-03    -21.1099E-03     7.03055E-03    -34.5896E+06    -40.3665E+06    -241.214E+06    -40.4401E+06    -241.140E+06    -34.5896E+06    -3.68855E+06         23.4504
            1123     980.189E-06     5.40790E-03         1.18260     686.188E-03        -2.92743     627.532E-03        -2.37237     686.188E-03        -1.01240     41.8902E-03    -20.8113E-03    -21.0805E-03    -21.0133E-03     41.8231E-03    -20.8113E-03     3.82519E-03    -41.5785E+06    -43.8330E+06    -243.319E+06    -43.8581E+06    -243.294E+06    -41.5785E+06    -2.07485E+06         23.3751
            1124     16.5462E-03     4.26113E-03     737.469E-03     683.576E-03        -2.48886     736.931E-03        -2.48833     683.576E-03    -56.3771E-03     67.3301E-03    -27.7852E-03    -39.5621E-03    -35.6118E-03     63.3798E-03    -27.7852E-03     35.4578E-03     198.820E+06     128.315E+06    -9.77306E+06    -9.72661E+06     198.773E+06     128.315E+06     2.87257E+06         35.6083
            1125     15.5809E-03     4.22769E-03     719.938E-03     680.710E-03        -2.46860     719.545E-03        -2.46820     680.710E-03    -30.7936E-03     64.4744E-03    -27.0807E-03    -37.4306E-03    -32.1615E-03     59.2053E-03    -27.0807E-03     44.1477E-03     185.668E+06     75.9183E+06    -18.4838E+06    -18.4497E+06     185.634E+06     75.9183E+06     2.34874E+06         33.4319
            1126     14.6118E-03     4.22151E-03     710.991E-03     678.355E-03        -2.45794     710.693E-03        -2.45764     678.355E-03    -23.3079E-03     58.2652E-03    -26.5002E-03    -31.8133E-03    -27.4662E-03     53.9586E-03    -26.5406E-03     37.5175E-03     157.122E+06     8.47248E+06    -27.2071E+06    -25.5171E+06     157.081E+06     6.82353E+06     1.17729E+06         31.4880
            1127     13.6361E-03     4.21750E-03     706.416E-03     676.198E-03        -2.45749     706.073E-03        -2.45715     676.198E-03    -23.4329E-03     54.3055E-03    -25.6678E-03    -28.6633E-03    -22.8564E-03     49.3581E-03    -26.5273E-03     38.5540E-03     90.1550E+06    -24.2074E+06    -34.0533E+06    -30.1297E+06     88.4964E+06    -26.4723E+06    -7.82368E+06         29.8766
            1128     12.6567E-03     4.22436E-03     699.405E-03     671.410E-03        -2.44886     696.222E-03        -2.44857     674.296E-03     20.6218E-03     52.8742E-03    -25.4470E-03    -27.4543E-03    -21.2233E-03     48.1939E-03    -26.9978E-03     36.8599E-03     24.1911E+06    -17.2664E+06    -45.9413E+06    -31.0170E+06     8.00567E+06    -16.0052E+06    -22.2810E+06         28.4901
            1129     11.6776E-03     4.23284E-03     684.365E-03     668.689E-03        -2.43018     679.514E-03        -2.42987     673.227E-03     32.2621E-03     53.8938E-03    -26.1012E-03    -27.8193E-03    -21.7357E-03     49.2342E-03    -27.5252E-03     37.3708E-03     6.60061E+06    -12.8056E+06    -70.8070E+06    -28.5669E+06    -44.2203E+06    -4.22477E+06    -31.5398E+06         27.3281
            1130     10.6999E-03     4.24344E-03     686.044E-03     668.967E-03        -2.42590     682.200E-03        -2.42568     672.587E-03     37.5391E-03     55.2413E-03    -26.7767E-03    -28.4963E-03    -22.8312E-03     50.8032E-03    -28.0036E-03     37.1484E-03     7.22804E+06    -11.7429E+06    -101.029E+06    -24.8513E+06    -83.8295E+06     3.13645E+06    -35.4837E+06         26.3878
            1131     9.72334E-03     4.25475E-03     687.349E-03     662.121E-03        -2.41419     677.265E-03        -2.41393     671.943E-03     41.6359E-03     56.7107E-03    -27.5359E-03    -29.1962E-03    -24.1992E-03     52.6076E-03    -28.4298E-03     36.3912E-03     10.0403E+06    -10.4218E+06    -130.301E+06    -22.4295E+06    -117.323E+06     9.06935E+06    -37.0266E+06         25.6721
            1132     8.74863E-03     4.26714E-03     679.526E-03     659.435E-03        -2.40564     666.611E-03        -2.40529     672.001E-03    -2.81543E-03     58.0858E-03    -28.2237E-03    -29.8557E-03    -25.6619E-03     54.4253E-03    -28.7570E-03     34.9785E-03     12.1455E+06    -11.9828E+06    -159.281E+06    -21.8309E+06    -149.433E+06     12.1455E+06    -36.4845E+06         25.1870
            1133     7.77516E-03     4.28023E-03     683.303E-03     667.225E-03        -2.41870     677.478E-03        -2.41759     671.937E-03     41.6639E-03     59.1410E-03    -28.7904E-03    -30.3385E-03    -26.9995E-03     55.9992E-03    -28.9877E-03     32.8582E-03     13.4803E+06    -15.6644E+06    -190.903E+06    -23.0016E+06    -183.566E+06     13.4803E+06    -34.8209E+06         24.9157
            1134     6.80303E-03     4.29428E-03     682.581E-03     666.788E-03        -2.41639     676.115E-03        -2.41434     671.204E-03    -7.29980E-03     59.7560E-03    -29.0574E-03    -30.6891E-03    -28.0725E-03     57.1625E-03    -29.0805E-03     30.1363E-03     9.34544E+06    -20.3495E+06    -212.924E+06    -25.2572E+06    -208.016E+06     9.34544E+06    -30.0301E+06         24.7881
            1135     5.83161E-03     4.30824E-03     679.036E-03     655.971E-03        -2.40290     659.245E-03        -2.39899     671.847E-03     39.7792E-03     59.8184E-03    -29.0110E-03    -30.8078E-03    -28.7656E-03     57.7763E-03    -29.0110E-03     26.8365E-03    -2.52339E+06    -25.4474E+06    -222.700E+06    -28.0723E+06    -220.076E+06    -2.52339E+06    -22.1377E+06         24.7150
            1136     4.86056E-03     4.32209E-03     682.107E-03     642.185E-03        -2.39639     639.770E-03        -2.38831     676.443E-03    -55.1626E-03     59.4261E-03    -28.8519E-03    -30.5784E-03    -29.0649E-03     57.9127E-03    -28.8519E-03     23.0661E-03    -13.6093E+06    -30.4166E+06    -229.779E+06    -31.5357E+06    -228.660E+06    -13.6093E+06    -14.4653E+06         24.6441
            1137     3.88938E-03     4.33471E-03     702.576E-03     659.355E-03        -2.43965     662.299E-03        -2.42248     682.463E-03     95.6425E-03     58.6889E-03    -28.6412E-03    -30.0486E-03    -29.0195E-03     57.6597E-03    -28.6412E-03     18.8838E-03    -22.3281E+06    -35.1563E+06    -236.009E+06    -35.5581E+06    -235.608E+06    -22.3281E+06    -8.58861E+06         24.5666
            1138     2.91785E-03     4.34576E-03     742.386E-03     681.952E-03        -2.48962     697.949E-03        -2.44550     682.263E-03    -179.391E-03     57.7513E-03    -28.4004E-03    -29.3575E-03    -28.7458E-03     57.1395E-03    -28.4004E-03     14.3827E-03    -31.3750E+06    -39.7277E+06    -241.527E+06    -39.8613E+06    -241.394E+06    -31.3750E+06    -4.96330E+06         24.4894
            1139     1.94570E-03     4.35430E-03     809.990E-03     680.581E-03        -2.54716     676.546E-03        -2.41372     680.581E-03     359.763E-03     56.8450E-03    -28.1651E-03    -28.6824E-03    -28.3889E-03     56.5516E-03    -28.1651E-03     9.73230E-03    -40.5570E+06    -43.7860E+06    -245.136E+06    -43.8283E+06    -245.094E+06    -40.5570E+06    -2.51813E+06         24.4237
            1140     972.999E-06     4.36000E-03         1.22151     738.317E-03        -3.01530     624.332E-03        -2.41812     738.317E-03        -1.18211     56.1548E-03    -27.9466E-03    -28.2093E-03    -28.0737E-03     56.0591E-03    -27.9865E-03     5.28781E-03    -44.8919E+06    -46.6377E+06    -246.252E+06    -45.5576E+06    -246.245E+06    -45.9793E+06    -998.278E+03         24.3806
            1141     16.5223E-03     3.19643E-03     712.449E-03     676.828E-03        -2.45262     711.678E-03        -2.45185     676.828E-03    -69.1235E-03     64.8345E-03    -29.0568E-03    -35.8010E-03    -29.8785E-03     59.1428E-03    -29.2876E-03     42.3167E-03     198.982E+06     126.837E+06    -9.23365E+06    -9.13865E+06     198.887E+06     126.837E+06     4.18291E+06         35.7643
            1142     15.5495E-03     3.16640E-03     706.583E-03     674.756E-03        -2.45667     706.029E-03        -2.45612     674.756E-03    -36.2316E-03     62.3257E-03    -27.8167E-03    -34.5339E-03    -26.0579E-03     55.0670E-03    -29.0340E-03     50.0639E-03     185.028E+06     72.4228E+06    -18.0778E+06    -17.9585E+06     184.909E+06     72.4228E+06     4.39816E+06         33.6556
            1143     14.5727E-03     3.16788E-03     706.786E-03     672.597E-03        -2.45909     706.585E-03        -2.45889     672.597E-03    -3.30852E-03     56.0848E-03    -26.2327E-03    -29.8947E-03    -21.3317E-03     50.3168E-03    -29.0277E-03     41.9473E-03     159.707E+06     6.99317E+06    -26.8462E+06    -23.4600E+06     159.595E+06     3.71862E+06     3.96192E+06         31.8089
            1144     13.5908E-03     3.16899E-03     694.328E-03     670.619E-03        -2.44021     694.050E-03        -2.43993     670.619E-03     7.58876E-03     54.7731E-03    -25.3195E-03    -29.4703E-03    -18.9565E-03     48.4101E-03    -29.4703E-03     43.2936E-03     101.931E+06    -26.7127E+06    -41.8100E+06    -25.5123E+06     100.731E+06    -41.8100E+06    -6.03596E+06         30.3057
            1145     12.6091E-03     3.17444E-03     683.658E-03     669.249E-03        -2.42351     683.370E-03        -2.42322     669.249E-03     41.0899E-03     55.5372E-03    -25.2408E-03    -30.3103E-03    -19.5479E-03     49.8442E-03    -30.3103E-03     41.2947E-03     33.5735E+06    -32.9797E+06    -56.9547E+06    -26.5032E+06     18.9638E+06    -48.8214E+06    -22.4010E+06         29.0207
            1146     11.6297E-03     3.18097E-03     681.484E-03     668.191E-03        -2.42090     681.047E-03        -2.42046     668.191E-03     3.79653E-03     57.4871E-03    -26.3027E-03    -31.1998E-03    -21.1812E-03     52.3656E-03    -31.1998E-03     40.0431E-03     1.87548E+06    -39.4127E+06    -76.0041E+06    -27.1968E+06    -42.9129E+06    -43.4316E+06    -34.2991E+06         27.9282
            1147     10.6517E-03     3.18957E-03     673.577E-03     660.305E-03        -2.41011     665.695E-03        -2.40970     667.777E-03    -407.137E-06     59.5528E-03    -27.5199E-03    -32.0356E-03    -22.9494E-03     54.9823E-03    -32.0356E-03     38.7075E-03    -6.99080E+06    -39.4536E+06    -106.175E+06    -26.5757E+06    -86.5901E+06    -39.4536E+06    -38.7585E+06         27.0272
            1148     9.67584E-03     3.19842E-03     668.999E-03     647.422E-03        -2.39358     647.122E-03        -2.39328     668.999E-03     40.8741E-03     61.8009E-03    -28.9360E-03    -32.8660E-03    -24.8873E-03     57.7522E-03    -32.8660E-03     37.3059E-03    -10.1574E+06    -35.8659E+06    -137.587E+06    -25.6172E+06    -123.488E+06    -34.5050E+06    -39.2726E+06         26.3220
            1149     8.70181E-03     3.20850E-03     671.846E-03     641.247E-03        -2.38653     640.901E-03        -2.38619     671.846E-03     2.66361E-03     64.0234E-03    -30.3679E-03    -33.6420E-03    -26.8570E-03     60.5126E-03    -33.6420E-03     35.5487E-03    -11.7395E+06    -33.7702E+06    -167.531E+06    -25.6790E+06    -157.435E+06    -29.9266E+06    -37.4563E+06         25.8157
            1150     7.72989E-03     3.21952E-03     682.598E-03     650.712E-03        -2.40446     657.993E-03        -2.40376     674.617E-03     26.6031E-03     66.1847E-03    -31.7984E-03    -34.3747E-03    -28.8158E-03     63.2020E-03    -34.3747E-03     33.4756E-03    -13.0350E+06    -32.4831E+06    -199.876E+06    -27.5166E+06    -192.772E+06    -25.1054E+06    -34.6289E+06         25.5098
            1151     6.75977E-03     3.23155E-03     686.363E-03     663.987E-03        -2.41399     673.105E-03        -2.41256     675.813E-03    -17.0727E-03     68.1578E-03    -33.0070E-03    -35.1277E-03    -30.6646E-03     65.7028E-03    -35.0150E-03     30.9528E-03    -16.5243E+06    -30.6998E+06    -225.799E+06    -30.6750E+06    -221.131E+06    -21.2172E+06    -29.7968E+06         25.3809
            1152     5.79144E-03     3.24424E-03     683.332E-03     661.261E-03        -2.40526     662.899E-03        -2.40070     677.137E-03     74.1853E-03     69.7826E-03    -33.9533E-03    -35.8079E-03    -32.3134E-03     67.8418E-03    -35.5070E-03     27.9439E-03    -22.8447E+06    -32.0633E+06    -236.762E+06    -33.9075E+06    -234.332E+06    -23.4306E+06    -21.6030E+06         25.3676
            1153     4.82449E-03     3.25719E-03     685.870E-03     657.882E-03        -2.41413     656.108E-03        -2.40728     680.796E-03     10.4476E-03     71.0282E-03    -34.7646E-03    -36.2624E-03    -33.7042E-03     69.5810E-03    -35.8757E-03     24.3980E-03    -28.4739E+06    -36.3185E+06    -240.623E+06    -37.2272E+06    -239.714E+06    -28.4739E+06    -12.9912E+06         25.4058
            1154     3.85863E-03     3.26945E-03     713.443E-03     671.473E-03        -2.45445     686.308E-03        -2.43877     682.927E-03     142.235E-03     71.9165E-03    -35.4161E-03    -36.5022E-03    -34.7880E-03     70.9258E-03    -36.1396E-03     20.3146E-03    -34.2253E+06    -40.3752E+06    -243.031E+06    -40.6452E+06    -242.761E+06    -34.2253E+06    -6.95708E+06         25.4562
            1155     2.89344E-03     3.28038E-03     728.075E-03     675.989E-03        -2.46822     680.746E-03        -2.42785     682.949E-03    -131.998E-03     72.5042E-03    -35.9036E-03    -36.6059E-03    -35.5999E-03     71.9084E-03    -36.3138E-03     15.7650E-03    -40.1448E+06    -43.6526E+06    -246.053E+06    -43.7210E+06    -245.985E+06    -40.1448E+06    -3.41475E+06         25.4964
            1156     1.92891E-03     3.28904E-03     811.400E-03     681.232E-03        -2.55147     668.776E-03        -2.41580     688.192E-03     436.937E-03     72.8239E-03    -36.2081E-03    -36.6172E-03    -36.1193E-03     72.5331E-03    -36.4153E-03     10.9094E-03    -43.8908E+06    -45.7584E+06    -248.219E+06    -45.7715E+06    -248.206E+06    -43.8908E+06    -1.24947E+06         25.5196
            1157     964.597E-06     3.29486E-03         1.22017     730.325E-03        -3.00680     656.098E-03        -2.44273     730.325E-03        -1.05706     72.9296E-03    -36.3421E-03    -36.5850E-03    -36.3749E-03     72.8320E-03    -36.4545E-03     6.05820E-03    -45.3298E+06    -47.6532E+06    -247.864E+06    -46.5667E+06    -247.863E+06    -46.4172E+06    -103.094E+03         25.5323
            1158     16.4849E-03     2.13240E-03     719.482E-03     671.210E-03        -2.46440     718.401E-03        -2.46332     671.210E-03    -83.3797E-03     62.2698E-03    -29.3326E-03    -32.9421E-03    -24.2477E-03     55.4918E-03    -31.2490E-03     47.0562E-03     199.203E+06     123.717E+06    -7.67114E+06    -7.48054E+06     199.012E+06     123.717E+06     6.00018E+06         36.1389
            1159     15.5092E-03     2.11114E-03     712.927E-03     668.367E-03        -2.46512     712.522E-03        -2.46472     668.367E-03    -10.5693E-03     60.2856E-03    -27.1450E-03    -33.1348E-03    -21.6624E-03     53.1099E-03    -31.4417E-03     48.0717E-03     184.753E+06     70.7788E+06    -17.1371E+06    -16.9839E+06     184.600E+06     70.7788E+06     4.80922E+06         34.0906
            1160     14.5276E-03     2.11711E-03     695.020E-03     665.985E-03        -2.44558     694.942E-03        -2.44551     665.985E-03     21.0904E-03     56.1512E-03    -24.3337E-03    -31.8230E-03    -19.1919E-03     51.0094E-03    -31.8230E-03     39.0871E-03     161.956E+06     12.1844E+06    -26.2502E+06    -18.8666E+06     161.869E+06     4.88776E+06     2.41509E+06         32.3314
            1161     13.5457E-03     2.11821E-03     677.901E-03     664.546E-03        -2.41964     677.690E-03        -2.41943     664.546E-03     42.2687E-03     56.7581E-03    -24.3205E-03    -32.4427E-03    -19.3645E-03     51.8020E-03    -32.4427E-03     38.2653E-03     111.658E+06    -16.9419E+06    -55.6616E+06    -16.3628E+06     111.079E+06    -55.6616E+06    -4.80281E+06         30.9538
            1162     12.5654E-03     2.12035E-03     665.538E-03     660.256E-03        -2.39915     661.274E-03        -2.39882     664.195E-03     43.1401E-03     57.9533E-03    -24.5539E-03    -33.3961E-03    -20.4696E-03     53.8690E-03    -33.3961E-03     35.1506E-03     42.8112E+06    -28.2986E+06    -81.2123E+06    -16.4544E+06     30.9670E+06    -81.2123E+06    -17.4802E+06         29.7856
            1163     11.5864E-03     2.12487E-03     667.160E-03     647.018E-03        -2.39108     648.709E-03        -2.39062     665.007E-03     4.67446E-03     60.0939E-03    -25.6138E-03    -34.4937E-03    -22.1805E-03     56.6606E-03    -34.4937E-03     32.9475E-03     3.33539E+06    -56.2076E+06    -91.4965E+06    -19.2161E+06    -40.0150E+06    -85.1376E+06    -28.9843E+06         28.7664
            1164     10.6095E-03     2.13026E-03     668.658E-03     638.814E-03        -2.38589     640.244E-03        -2.38558     666.920E-03    -16.8613E-03     62.5974E-03    -27.0160E-03    -35.5837E-03    -24.0581E-03     59.6395E-03    -35.5837E-03     31.3434E-03    -7.61600E+06    -79.8057E+06    -112.086E+06    -22.4863E+06    -89.7767E+06    -87.2452E+06    -33.9790E+06         27.9139
            1165     9.63439E-03     2.13615E-03     669.350E-03     645.431E-03        -2.39307     645.326E-03        -2.39297     669.350E-03     4.93026E-03     65.2686E-03    -28.5636E-03    -36.7269E-03    -26.0054E-03     62.7104E-03    -36.7269E-03     29.8905E-03    -14.5885E+06    -84.0884E+06    -140.955E+06    -25.2754E+06    -130.268E+06    -84.0884E+06    -34.3254E+06         27.2282
            1166     8.66127E-03     2.14318E-03     672.353E-03     640.453E-03        -2.38837     640.278E-03        -2.38819     672.353E-03    -12.0680E-03     68.1344E-03    -30.2785E-03    -37.9063E-03    -28.0819E-03     65.9378E-03    -37.9063E-03     28.4268E-03    -20.9103E+06    -77.6957E+06    -173.837E+06    -28.2124E+06    -166.534E+06    -77.6957E+06    -31.8213E+06         26.7096
            1167     7.69018E-03     2.15118E-03     676.670E-03     636.908E-03        -2.38555     636.595E-03        -2.38524     676.670E-03     9.04722E-03     71.2694E-03    -32.2036E-03    -39.1086E-03    -30.3413E-03     69.4071E-03    -39.1086E-03     26.8811E-03    -26.8811E+06    -68.8798E+06    -206.810E+06    -31.7252E+06    -201.965E+06    -68.8798E+06    -28.3600E+06         26.3603
            1168     6.72156E-03     2.15999E-03     683.586E-03     653.535E-03        -2.40737     655.422E-03        -2.40669     681.018E-03    -9.71559E-03     74.5447E-03    -34.2741E-03    -40.2860E-03    -32.7364E-03     73.0070E-03    -40.2860E-03     25.0772E-03    -32.6791E+06    -57.0320E+06    -235.880E+06    -35.7798E+06    -232.779E+06    -57.0320E+06    -24.2685E+06         26.1734
            1169     5.75525E-03     2.16993E-03     701.134E-03     672.465E-03        -2.44292     689.278E-03        -2.44082     682.223E-03     51.0838E-03     77.7721E-03    -36.4097E-03    -41.3705E-03    -35.1861E-03     76.5485E-03    -41.3705E-03     22.9246E-03    -37.5107E+06    -48.8301E+06    -249.966E+06    -39.7625E+06    -248.348E+06    -48.1965E+06    -17.6150E+06         26.1317
            1170     4.79139E-03     2.17979E-03     705.018E-03     679.487E-03        -2.45034     700.466E-03        -2.44578     679.487E-03    -39.7462E-03     80.8314E-03    -38.5326E-03    -42.3161E-03    -37.6131E-03     79.9119E-03    -42.3161E-03     20.3061E-03    -41.1200E+06    -47.5464E+06    -250.689E+06    -42.9135E+06    -250.139E+06    -46.3030E+06    -9.96486E+06         26.2032
            1171     3.82984E-03     2.18987E-03     696.295E-03     666.976E-03        -2.42899     672.052E-03        -2.41592     678.150E-03     106.479E-03     83.6333E-03    -40.5139E-03    -43.1352E-03    -39.8787E-03     82.9981E-03    -43.1352E-03     17.1872E-03    -43.7578E+06    -47.9092E+06    -248.868E+06    -44.9016E+06    -248.731E+06    -46.9027E+06    -4.89955E+06         26.3324
            1172     2.87042E-03     2.19872E-03     700.614E-03     666.859E-03        -2.43466     648.704E-03        -2.40088     684.994E-03    -141.101E-03     86.0273E-03    -42.2068E-03    -43.8250E-03    -41.8197E-03     85.6402E-03    -43.8250E-03     13.5719E-03    -44.6675E+06    -46.9543E+06    -250.013E+06    -45.8829E+06    -249.980E+06    -45.7711E+06    -2.24460E+06         26.4708
            1173     1.91251E-03     2.20595E-03     829.407E-03     674.504E-03        -2.56795     719.911E-03        -2.46542     681.465E-03     341.065E-03     87.9022E-03    -43.5431E-03    -44.3580E-03    -43.3517E-03     87.7108E-03    -44.3580E-03     9.51602E-03    -44.8856E+06    -46.6117E+06    -250.046E+06    -46.6176E+06    -250.040E+06    -44.8856E+06    -1.00423E+06         26.5924
            1174     955.620E-06     2.21114E-03         1.17171     627.239E-03        -2.85323     716.651E-03        -2.39817     627.239E-03    -931.794E-03     89.1739E-03    -44.4225E-03    -44.7484E-03    -44.4487E-03     89.1080E-03    -44.6562E-03     5.37094E-03    -46.5492E+06    -48.4991E+06    -248.821E+06    -48.0175E+06    -248.819E+06    -47.0336E+06    -375.445E+03         26.6761
            1175     16.4498E-03     1.06880E-03     745.898E-03     666.243E-03        -2.54131     744.789E-03        -2.54020     666.243E-03    -69.8000E-03     65.3148E-03    -30.2067E-03    -35.1023E-03    -26.5935E-03     59.9768E-03    -33.3775E-03     43.1734E-03     201.092E+06     125.505E+06    -6.09876E+06    -5.89883E+06     200.892E+06     125.505E+06     6.29920E+06         36.8443
            1176     15.4698E-03     1.05938E-03     706.660E-03     662.498E-03        -2.47302     706.530E-03        -2.47289     662.498E-03     2.66831E-03     59.7109E-03    -26.0791E-03    -33.6137E-03    -22.2314E-03     55.8631E-03    -33.6137E-03     32.8208E-03     188.706E+06     71.7005E+06    -9.14366E+06    -9.02254E+06     188.585E+06     71.7005E+06     2.89157E+06         34.8996
            1177     14.4895E-03     1.06042E-03     676.436E-03     657.421E-03        -2.42369     673.041E-03        -2.42355     660.679E-03     4.23865E-03     57.4115E-03    -23.3608E-03    -34.0454E-03    -20.9701E-03     55.0209E-03    -34.0454E-03     24.7489E-03     163.865E+06     14.5310E+06    -24.4195E+06    -9.49852E+06     163.844E+06    -368.569E+03    -1.16547E+06         33.2271
            1178     13.5127E-03     1.06133E-03     663.192E-03     653.928E-03        -2.40005     656.509E-03        -2.39985     660.409E-03     23.4400E-03     58.4520E-03    -23.8029E-03    -34.6528E-03    -21.7960E-03     56.4451E-03    -34.6528E-03     22.9831E-03     116.028E+06    -8.38725E+06     -69.254E+06    -8.18452E+06     115.825E+06     -69.254E+06    -3.58611E+06         31.9122
            1179     12.5346E-03     1.06248E-03     661.371E-03     649.934E-03        -2.38904     649.886E-03        -2.38861     660.988E-03     9.98114E-03     59.6130E-03    -24.0358E-03    -35.5794E-03    -22.4631E-03     58.0403E-03    -35.5794E-03     20.6168E-03     45.7062E+06    -13.6007E+06    -105.802E+06    -7.49351E+06     39.5990E+06    -105.802E+06    -9.42792E+06         30.8273
            1180     11.5572E-03     1.06410E-03     662.606E-03     635.189E-03        -2.37598     634.780E-03        -2.37557     662.606E-03     7.13957E-03     61.6319E-03    -24.8985E-03    -36.7344E-03    -23.6483E-03     60.3817E-03    -36.7344E-03     18.5955E-03     585.939E+03    -47.1539E+06    -117.807E+06    -10.3936E+06    -36.1744E+06    -117.807E+06    -16.2648E+06         29.8946
            1181     10.5811E-03     1.06623E-03     665.667E-03     625.133E-03        -2.36712     624.958E-03        -2.36694     665.667E-03     20.4806E-03     64.1729E-03    -26.2036E-03    -37.9771E-03    -25.1587E-03     63.1280E-03    -37.9771E-03     17.3410E-03    -10.2344E+06    -94.9939E+06    -127.736E+06    -16.3876E+06    -91.7642E+06    -124.813E+06    -20.1133E+06         29.0970
            1182     9.60675E-03     1.06926E-03     669.499E-03     631.145E-03        -2.37506     630.981E-03        -2.37489     669.499E-03     29.4941E-03     67.0663E-03    -27.7912E-03    -39.3278E-03    -26.8981E-03     66.1733E-03    -39.3278E-03     16.4505E-03    -18.7714E+06    -118.357E+06    -145.610E+06    -23.1220E+06    -135.859E+06    -123.757E+06    -20.2905E+06         28.4307
            1183     8.63393E-03     1.07301E-03     673.313E-03     640.360E-03        -2.38348     640.131E-03        -2.38325     673.313E-03     16.3157E-03     70.3996E-03    -29.7125E-03    -40.7814E-03    -28.9464E-03     69.6336E-03    -40.7814E-03     15.6647E-03    -26.4483E+06    -116.025E+06    -176.865E+06    -29.3415E+06    -173.972E+06    -116.025E+06    -18.4441E+06         27.9091
            1184     7.66345E-03     1.07690E-03     677.301E-03     643.791E-03        -2.38514     643.634E-03        -2.38498     677.301E-03     10.4944E-03     74.2049E-03    -31.9580E-03    -42.3087E-03    -31.3080E-03     73.5548E-03    -42.3087E-03     14.8595E-03    -32.7340E+06    -103.286E+06    -211.002E+06    -34.5466E+06    -209.189E+06    -103.286E+06    -16.0350E+06         27.5364
            1185     6.69533E-03     1.08179E-03     682.505E-03     639.912E-03        -2.38968     639.873E-03        -2.38964     682.505E-03     1.87635E-03     78.4046E-03    -34.5623E-03    -43.8748E-03    -34.0235E-03     77.8658E-03    -43.8748E-03     13.9467E-03    -38.1462E+06    -86.7423E+06    -241.901E+06    -39.3046E+06    -240.743E+06    -86.7423E+06    -13.6326E+06         27.3074
            1186     5.73025E-03     1.08720E-03     700.886E-03     644.914E-03        -2.41581     657.354E-03        -2.41554     688.170E-03     13.2641E-03     82.8375E-03    -37.4603E-03    -45.4110E-03    -37.0300E-03     82.4072E-03    -45.4110E-03     12.8470E-03    -42.9773E+06    -70.4251E+06    -259.127E+06    -43.5761E+06    -258.529E+06    -70.4251E+06    -9.97433E+06         27.2145
            1187     4.76815E-03     1.09259E-03     713.270E-03     654.151E-03        -2.43656     671.934E-03        -2.43389     692.812E-03    -97.4583E-03     87.3157E-03    -40.5058E-03    -46.8329E-03    -40.1802E-03     86.9901E-03    -46.8329E-03     11.5090E-03    -46.0470E+06    -59.7041E+06    -257.896E+06    -46.2451E+06    -257.698E+06    -59.7041E+06    -5.60084E+06         27.2414
            1188     3.80941E-03     1.09819E-03     716.453E-03     665.647E-03        -2.45440     680.398E-03        -2.44956     696.857E-03    -13.9732E-03     91.6564E-03    -43.5576E-03    -48.1177E-03    -43.3305E-03     91.4293E-03    -48.1177E-03     9.84752E-03    -47.2585E+06    -53.7833E+06    -252.882E+06    -47.3078E+06    -252.832E+06    -53.7833E+06    -2.75446E+06         27.3531
            1189     2.85361E-03     1.10355E-03     721.581E-03     677.107E-03        -2.46410     677.354E-03        -2.44583     703.062E-03    -188.835E-03     95.5830E-03    -46.3664E-03    -49.2230E-03    -46.2272E-03     95.4438E-03    -49.2230E-03     7.81498E-03    -46.9327E+06    -50.2640E+06    -252.305E+06    -47.5992E+06    -252.294E+06    -49.6088E+06    -1.38891E+06         27.5138
            1190     1.90060E-03     1.10762E-03     766.290E-03     691.936E-03        -2.52740     708.683E-03        -2.48457     706.717E-03     113.942E-03     98.7606E-03    -48.6830E-03    -50.0737E-03    -48.6150E-03     98.6927E-03    -50.0737E-03     5.47044E-03    -47.1320E+06    -48.9921E+06    -251.362E+06    -48.0478E+06    -251.358E+06    -48.0805E+06    -822.355E+03         27.6834
            1191     949.985E-06     1.11018E-03     951.654E-03     650.454E-03        -2.65767     761.561E-03        -2.46757     650.454E-03    -490.142E-03     100.865E-03    -50.1798E-03    -50.6831E-03    -50.2933E-03     100.842E-03    -50.5473E-03     3.05579E-03    -48.2608E+06    -49.5755E+06    -249.941E+06    -48.8517E+06    -249.938E+06    -48.9871E+06    -520.116E+03         27.8108
            1192     973.441E-06     58.9745E-03         1.51008         1.07413        -3.30844    -380.964E-03        -1.46505         1.12178        -1.65703     54.2604E-03    -27.0756E-03    -27.1834E-03    -27.1689E-03     54.2460E-03    -27.0756E-03     2.00394E-03    -62.0432E+06    -64.3942E+06    -262.817E+06    -64.2224E+06    -262.817E+06    -62.2156E+06    -158.759E+03         23.9859
            1193     1.94693E-03     58.9775E-03     927.145E-03     374.955E-03        -2.03017     392.715E-03        -1.49574     374.955E-03     588.159E-03     54.3068E-03    -27.1424E-03    -27.1638E-03    -27.1055E-03     54.2641E-03    -27.1581E-03     3.63711E-03    -54.3455E+06    -61.6439E+06    -260.075E+06    -61.6445E+06    -260.074E+06    -54.3455E+06     54.8367E+03         24.0118
            1194     2.92034E-03     58.9822E-03     620.311E-03     385.654E-03        -1.73583     423.170E-03        -1.53869     385.654E-03    -402.453E-03     54.3194E-03    -27.1300E-03    -27.1910E-03    -27.0467E-03     54.2361E-03    -27.1910E-03     5.15881E-03    -42.5778E+06    -57.4082E+06    -253.647E+06    -57.4088E+06    -253.647E+06    -42.5778E+06     47.5387E+03         24.0635
            1195     3.89393E-03     58.9885E-03     510.481E-03     399.071E-03        -1.63735     456.627E-03        -1.58349     399.071E-03     211.216E-03     54.3302E-03    -27.1183E-03    -27.2132E-03    -26.9876E-03     54.1995E-03    -27.2132E-03     6.48915E-03    -29.7618E+06    -52.0606E+06    -241.602E+06    -52.0609E+06    -241.602E+06    -29.7618E+06    -81.3810E+03         24.1519
            1196     4.86747E-03     58.9960E-03     480.707E-03     411.661E-03        -1.61734     466.108E-03        -1.60274     411.661E-03    -88.1527E-03     54.2948E-03    -27.0887E-03    -27.2065E-03    -26.9085E-03     54.1145E-03    -27.2065E-03     7.63354E-03    -19.1701E+06    -46.4938E+06    -221.852E+06    -46.4947E+06    -221.851E+06    -19.1701E+06     208.461E+03         24.2777
            1197     5.84118E-03     59.0047E-03     468.480E-03     420.554E-03        -1.61242     462.665E-03        -1.60660     420.554E-03     30.9141E-03     54.2404E-03    -27.0554E-03    -27.1870E-03    -26.8294E-03     54.0144E-03    -27.1870E-03     8.55209E-03    -10.3706E+06    -41.4508E+06    -201.676E+06    -41.4528E+06    -201.674E+06    -10.3706E+06     472.371E+03         24.4355
            1198     6.81485E-03     59.0141E-03     446.341E-03     421.954E-03        -1.59240     440.726E-03        -1.58995     425.117E-03    -56.4717E-03     54.2223E-03    -27.0481E-03    -27.1757E-03    -26.7798E-03     53.9541E-03    -27.1757E-03     9.31495E-03    -2.64110E+06    -36.8551E+06    -185.052E+06    -36.8581E+06    -185.049E+06    -2.64110E+06     507.690E+03         24.6227
            1199     7.78858E-03     59.0244E-03     441.914E-03     423.125E-03        -1.59190     437.326E-03        -1.59102     426.828E-03    -6.79135E-03     54.1591E-03    -27.0299E-03    -27.1267E-03    -26.7139E-03     53.8431E-03    -27.1267E-03     10.1021E-03     85.4338E+03    -32.5504E+06    -163.323E+06    -32.5532E+06     -163.32E+06     85.4338E+03     271.212E+03         24.8447
            1200     8.76241E-03     59.0352E-03     467.085E-03     428.861E-03        -1.62434     465.338E-03        -1.62313     429.401E-03     8.77019E-03     54.0689E-03    -27.0195E-03    -27.0657E-03    -26.6413E-03     53.6907E-03    -27.0657E-03     11.0375E-03     522.606E+03    -28.8339E+06    -138.558E+06    -28.8363E+06    -138.556E+06     522.606E+03     68.4122E+03         25.1169
            1201     9.73627E-03     59.0476E-03     482.353E-03     433.679E-03        -1.64359     481.493E-03        -1.64274     433.679E-03     28.0899E-03     53.9828E-03    -26.9884E-03    -27.0158E-03    -26.5619E-03     53.5433E-03    -27.0028E-03     11.8934E-03     821.228E+03    -25.9089E+06    -114.012E+06    -25.9144E+06    -114.007E+06     821.228E+03     43.4008E+03         25.4695
            1202     10.7102E-03     59.0604E-03     497.111E-03     438.571E-03        -1.66139     496.491E-03        -1.66077     438.571E-03     18.6984E-03     53.9122E-03    -26.9108E-03    -27.0126E-03    -26.4944E-03     53.3947E-03    -26.9116E-03     12.8836E-03    -1.89025E+06    -23.3873E+06    -87.1834E+06    -23.3958E+06    -87.1749E+06    -1.89025E+06     180.107E+03         26.0092
            1203     11.6841E-03     59.0747E-03     508.050E-03     443.683E-03        -1.67699     507.171E-03        -1.67611     443.683E-03     753.999E-06     53.9174E-03    -26.8248E-03    -27.1226E-03    -26.4258E-03     53.2207E-03    -26.8248E-03     14.9011E-03    -4.91846E+06    -21.3825E+06    -52.1931E+06    -21.4303E+06    -52.1452E+06    -4.91846E+06     169.817E+03         26.8813
            1204     12.6582E-03     59.0919E-03     491.133E-03     447.751E-03        -1.66133     490.478E-03        -1.66067     447.751E-03    -13.9719E-03     54.0113E-03    -26.7174E-03    -27.3038E-03    -26.3033E-03     53.0108E-03    -26.7174E-03     17.8576E-03     8.71015E+06    -16.6936E+06    -25.1220E+06    -19.7243E+06    -4.02905E+06    -9.35219E+06     229.564E+03         28.1327
            1205     13.6321E-03     59.1125E-03     482.113E-03     450.240E-03        -1.65244     481.909E-03        -1.65223     450.240E-03     27.3706E-03     54.2111E-03    -26.6208E-03    -27.5690E-03    -26.0156E-03     52.6577E-03    -26.6208E-03     22.1588E-03     68.8939E+06    -3.46086E+06    -18.4666E+06    -18.4563E+06     68.8837E+06    -3.46086E+06     927.798E+03         29.7414
            1206     14.6069E-03     59.1384E-03     503.515E-03     452.742E-03        -1.67723     503.353E-03        -1.67707     452.742E-03     19.2584E-03     53.7415E-03    -26.5512E-03    -27.1787E-03    -25.5922E-03     52.2109E-03    -26.6071E-03     21.8598E-03     148.451E+06     21.8822E+06    -17.3170E+06    -17.3046E+06     148.439E+06     21.8822E+06     1.28754E+06         31.6901
            1207     15.5817E-03     59.1584E-03     510.524E-03     455.770E-03        -1.68853     509.929E-03        -1.68793     455.770E-03    -2.97694E-03     54.3131E-03    -26.6538E-03    -27.6534E-03    -25.3049E-03     52.0204E-03    -26.7097E-03     26.1206E-03     190.787E+06     63.5005E+06    -13.9315E+06    -13.9252E+06     190.781E+06     63.5005E+06     671.191E+03         34.0797
            1208     16.5563E-03     59.1934E-03     508.068E-03     458.563E-03        -1.69101     507.015E-03        -1.68996     458.563E-03     28.9781E-03     53.7080E-03    -25.8907E-03    -27.8644E-03    -25.1016E-03     51.9751E-03    -26.9207E-03     17.6632E-03     200.733E+06     115.565E+06    -7.60013E+06    -7.59766E+06     200.731E+06     115.565E+06     116.237E+03         36.6621
            1209     973.456E-06     60.0289E-03         1.57471         1.10252        -3.39260    -355.042E-03        -1.54242         1.18209        -1.63263     54.3141E-03    -27.0922E-03    -27.2221E-03    -27.1994E-03     54.2993E-03    -27.1001E-03     2.04457E-03    -62.4823E+06    -64.6103E+06    -262.715E+06    -64.4386E+06    -262.714E+06    -62.6546E+06    -120.692E+03         23.9852
            1210     1.94684E-03     60.0321E-03     933.435E-03     407.746E-03        -2.05909     383.500E-03        -1.50916     407.746E-03     680.796E-03     54.3391E-03    -27.1483E-03    -27.1907E-03    -27.1099E-03     54.2971E-03    -27.1871E-03     3.61755E-03    -53.2597E+06    -61.0360E+06    -260.240E+06    -61.0367E+06    -260.239E+06    -53.2597E+06    -20.2756E+03         24.0120
            1211     2.92034E-03     60.0367E-03     584.706E-03     400.319E-03        -1.70162     391.129E-03        -1.50804     400.319E-03    -370.921E-03     54.3557E-03    -27.1439E-03    -27.2138E-03    -27.0604E-03     54.2722E-03    -27.2138E-03     5.15673E-03    -41.3299E+06    -56.5114E+06    -253.564E+06    -56.5134E+06    -253.562E+06    -41.3299E+06     43.7507E+03         24.0646
            1212     3.89382E-03     60.0430E-03     484.041E-03     402.372E-03        -1.60297     430.158E-03        -1.54909     402.372E-03     241.991E-03     54.3568E-03    -27.1285E-03    -27.2307E-03    -26.9981E-03     54.2264E-03    -27.2307E-03     6.48926E-03    -29.3017E+06    -51.6964E+06    -241.674E+06    -51.6980E+06    -241.672E+06    -29.3017E+06     202.112E+03         24.1531
            1213     4.86743E-03     60.0506E-03     454.585E-03     409.067E-03        -1.57499     440.846E-03        -1.56125     409.067E-03    -44.8790E-03     54.3051E-03    -27.0847E-03    -27.2218E-03    -26.9056E-03     54.1260E-03    -27.2218E-03     7.60696E-03    -18.9205E+06    -46.6300E+06    -222.292E+06    -46.6321E+06    -222.290E+06    -18.9205E+06     481.419E+03         24.2781
            1214     5.84108E-03     60.0591E-03     448.655E-03     414.415E-03        -1.57173     440.655E-03        -1.56373     414.415E-03     36.7821E-03     54.2474E-03    -27.0514E-03    -27.1980E-03    -26.8253E-03     54.0214E-03    -27.1980E-03     8.55303E-03    -10.2705E+06    -41.4271E+06    -201.796E+06    -41.4309E+06    -201.792E+06    -10.2705E+06     755.266E+03         24.4351
            1215     6.81480E-03     60.0687E-03     452.041E-03     418.669E-03        -1.58259     448.311E-03        -1.57886     418.669E-03    -46.6574E-03     54.2086E-03    -27.0269E-03    -27.1828E-03    -26.7607E-03     53.9424E-03    -27.1828E-03     9.27798E-03    -2.56405E+06    -36.5052E+06    -185.066E+06    -36.5095E+06    -185.062E+06    -2.56405E+06     750.240E+03         24.6217
            1216     7.78864E-03     60.0787E-03     435.450E-03     415.133E-03        -1.56297     427.762E-03        -1.56130     421.143E-03     4.35428E-03     54.1520E-03    -27.0178E-03    -27.1309E-03    -26.7026E-03     53.8368E-03    -27.1309E-03     10.0857E-03     329.325E+03    -32.2737E+06    -163.039E+06    -32.2793E+06    -163.034E+06     329.325E+03     586.229E+03         24.8436
            1217     8.76235E-03     60.0900E-03     433.698E-03     414.953E-03        -1.56262     425.800E-03        -1.56149     421.719E-03    -14.8797E-03     54.0965E-03    -27.0373E-03    -27.0740E-03    -26.6638E-03     53.7187E-03    -27.0698E-03     11.0362E-03     483.715E+03    -29.0524E+06    -138.321E+06    -29.0568E+06    -138.317E+06     483.715E+03     294.475E+03         25.1157
            1218     9.73616E-03     60.1019E-03     461.509E-03     422.918E-03        -1.60129     460.137E-03        -1.60068     423.673E-03     8.96574E-03     54.0021E-03    -27.0047E-03    -27.0172E-03    -26.5771E-03     53.5654E-03    -27.0082E-03     11.8577E-03     600.512E+03    -26.3396E+06    -113.798E+06    -26.3433E+06    -113.794E+06     600.512E+03     35.2698E+03         25.4700
            1219     10.7101E-03     60.1150E-03     476.148E-03     427.553E-03        -1.61894     475.633E-03        -1.61842     427.553E-03     3.30563E-03     53.9281E-03    -26.9164E-03    -27.0234E-03    -26.5029E-03     53.4083E-03    -26.9171E-03     12.9125E-03    -2.32914E+06    -23.9678E+06    -87.3894E+06    -23.9782E+06    -87.3790E+06    -2.32914E+06    -26.7353E+03         26.0150
            1220     11.6841E-03     60.1292E-03     469.558E-03     431.156E-03        -1.61343     469.118E-03        -1.61300     431.156E-03     7.39445E-03     53.9421E-03    -26.8307E-03    -27.1426E-03    -26.4356E-03     53.2351E-03    -26.8307E-03     15.0117E-03    -5.50465E+06    -22.1415E+06    -52.0521E+06    -22.2095E+06    -51.9841E+06    -5.50465E+06     55.3708E+03         26.8940
            1221     12.6580E-03     60.1465E-03     462.053E-03     433.597E-03        -1.60785     461.719E-03        -1.60752     433.597E-03    -1.19023E-03     53.9692E-03    -26.7255E-03    -27.2543E-03    -26.2514E-03     52.9663E-03    -26.7255E-03     17.8763E-03     7.30949E+06    -17.3710E+06    -26.1722E+06    -21.7174E+06    -4.69591E+06    -9.82035E+06     446.638E+03         28.1522
            1222     13.6325E-03     60.1667E-03     474.151E-03     435.748E-03        -1.61962     473.746E-03        -1.61922     435.748E-03     4.49850E-03     54.1798E-03    -26.6264E-03    -27.5315E-03    -25.9723E-03     52.6206E-03    -26.6264E-03     22.1795E-03     67.8919E+06    -4.13638E+06    -21.4216E+06    -21.4029E+06     67.8732E+06    -4.13638E+06     1.20587E+06         29.7679
            1223     14.6066E-03     60.1931E-03     488.419E-03     438.446E-03        -1.63818     488.028E-03        -1.63778     438.446E-03    -945.617E-06     53.7790E-03    -26.5631E-03    -27.2046E-03    -25.6184E-03     52.2443E-03    -26.6145E-03     21.8842E-03     149.230E+06     22.5544E+06    -18.6585E+06    -18.6427E+06     149.215E+06     22.5544E+06     905.688E+03         31.7235
            1224     15.5812E-03     60.2127E-03     487.144E-03     441.189E-03        -1.64107     486.900E-03        -1.64083     441.189E-03     15.1223E-03     54.3653E-03    -26.6664E-03    -27.6931E-03    -25.3424E-03     52.0660E-03    -26.7178E-03     26.1473E-03     191.335E+06     64.1467E+06    -13.8683E+06    -13.8597E+06     191.327E+06     64.1467E+06     237.629E+03         34.1199
            1225     16.5564E-03     60.2481E-03     494.394E-03     443.779E-03        -1.64506     493.814E-03        -1.64448     443.779E-03     6.02059E-03     53.6735E-03    -25.8250E-03    -27.8960E-03    -25.0519E-03     51.9283E-03    -26.9240E-03     17.6940E-03     200.806E+06     115.075E+06    -7.62725E+06    -7.62451E+06     200.804E+06     115.075E+06     173.628E+03         36.7081
            1226     973.327E-06     61.0837E-03         1.60158         1.10819        -3.42169    -352.191E-03        -1.58819         1.22845        -1.67998     54.3501E-03    -27.0883E-03    -27.2641E-03    -27.2322E-03     54.3353E-03    -27.1054E-03     2.05082E-03    -62.7238E+06    -64.8848E+06    -262.499E+06    -64.8855E+06    -262.499E+06    -62.7238E+06    -168.301E+03         23.9844
            1227     1.94679E-03     61.0867E-03     948.756E-03     432.178E-03        -2.08762     407.920E-03        -1.54678     432.178E-03     621.420E-03     54.3492E-03    -27.1516E-03    -27.1986E-03    -27.1089E-03     54.3065E-03    -27.1986E-03     3.64172E-03    -54.5134E+06    -62.2216E+06    -259.988E+06    -62.2222E+06    -259.987E+06    -54.5134E+06    -153.503E+03         24.0122
            1228     2.92029E-03     61.0914E-03     589.124E-03     421.098E-03        -1.71729     390.799E-03        -1.51896     421.098E-03    -419.681E-03     54.3677E-03    -27.1484E-03    -27.2211E-03    -27.0640E-03     54.2833E-03    -27.2211E-03     5.19071E-03    -42.7687E+06    -57.8600E+06    -254.115E+06    -57.8615E+06    -254.113E+06    -42.7687E+06     92.5172E+03         24.0652
            1229     3.89379E-03     61.0977E-03     445.122E-03     412.258E-03        -1.56236     387.715E-03        -1.50564     412.947E-03     194.516E-03     54.3696E-03    -27.1315E-03    -27.2409E-03    -27.0010E-03     54.2391E-03    -27.2409E-03     6.49395E-03    -29.6937E+06    -52.3415E+06    -242.100E+06    -52.3437E+06    -242.097E+06    -29.6937E+06     532.616E+03         24.1534
            1230     4.86738E-03     61.1050E-03     428.739E-03     408.982E-03        -1.53797     408.297E-03        -1.51821     409.671E-03    -57.7225E-03     54.3227E-03    -27.0921E-03    -27.2326E-03    -26.9127E-03     54.1434E-03    -27.2326E-03     7.61366E-03    -18.8395E+06    -46.7645E+06    -222.529E+06    -46.7678E+06    -222.526E+06    -18.8395E+06     738.814E+03         24.2780
            1231     5.84104E-03     61.1138E-03     430.153E-03     410.235E-03        -1.53902     418.920E-03        -1.52779     410.235E-03     29.2903E-03     54.2493E-03    -27.0454E-03    -27.2059E-03    -26.8190E-03     54.0229E-03    -27.2059E-03     8.55855E-03    -10.4351E+06    -41.5248E+06    -201.985E+06    -41.5292E+06    -201.981E+06    -10.4351E+06     832.543E+03         24.4345
            1232     6.81476E-03     61.1231E-03     438.006E-03     412.340E-03        -1.54805     432.323E-03        -1.54237     412.340E-03    -65.5626E-03     54.2167E-03    -27.0282E-03    -27.1881E-03    -26.7620E-03     53.9505E-03    -27.1881E-03     9.27940E-03    -2.72624E+06    -36.3915E+06    -184.971E+06    -36.3953E+06    -184.967E+06    -2.72624E+06     733.622E+03         24.6208
            1233     7.78847E-03     61.1334E-03     440.387E-03     409.387E-03        -1.54706     433.316E-03        -1.54546     414.857E-03     25.3207E-03     54.1621E-03    -27.0201E-03    -27.1371E-03    -26.7053E-03     53.8473E-03    -27.1371E-03     10.0806E-03     534.302E+03    -31.8826E+06    -163.093E+06    -31.8884E+06    -163.087E+06     534.302E+03     809.557E+03         24.8424
            1234     8.76236E-03     61.1444E-03     423.910E-03     401.567E-03        -1.52449     409.233E-03        -1.52384     415.591E-03    -15.4290E-03     54.0767E-03    -27.0132E-03    -27.0786E-03    -26.6379E-03     53.6972E-03    -27.0744E-03     11.0571E-03     952.521E+03    -28.3646E+06    -138.006E+06    -28.3724E+06    -137.998E+06     952.521E+03     722.091E+03         25.1139
            1235     9.73617E-03     61.1567E-03     428.337E-03     403.208E-03        -1.53283     415.711E-03        -1.53219     415.188E-03    -11.2762E-03     54.0039E-03    -26.9914E-03    -27.0334E-03    -26.5770E-03     53.5650E-03    -27.0089E-03     11.8893E-03     686.204E+03    -25.7535E+06    -113.548E+06    -25.7581E+06    -113.543E+06     686.204E+03     296.894E+03         25.4698
            1236     10.7101E-03     61.1693E-03     447.452E-03     412.901E-03        -1.56262     443.437E-03        -1.56203     416.327E-03    -13.9622E-03     53.9441E-03    -26.9167E-03    -27.0384E-03    -26.5104E-03     53.4161E-03    -26.9167E-03     13.0102E-03    -2.47762E+06    -23.6971E+06    -87.2120E+06    -23.7041E+06    -87.2049E+06    -2.47762E+06     33.6026E+03         26.0209
            1237     11.6840E-03     61.1839E-03     443.193E-03     418.409E-03        -1.56343     442.971E-03        -1.56321     418.409E-03     14.2582E-03     53.9310E-03    -26.8254E-03    -27.1334E-03    -26.4171E-03     53.2147E-03    -26.8254E-03     15.1151E-03    -6.26387E+06    -22.2538E+06    -52.1976E+06    -22.3003E+06    -52.1510E+06    -6.26387E+06     164.107E+03         26.9075
            1238     12.6582E-03     61.2009E-03     439.544E-03     419.966E-03        -1.55994     439.366E-03        -1.55976     419.966E-03     9.71417E-03     53.9664E-03    -26.7216E-03    -27.2529E-03    -26.2514E-03     52.9648E-03    -26.7216E-03     17.8673E-03     6.07094E+06    -17.1932E+06    -25.6374E+06    -20.9269E+06    -5.61470E+06    -10.2181E+06     844.377E+03         28.1732
            1239     13.6321E-03     61.2212E-03     456.989E-03     421.693E-03        -1.57890     456.622E-03        -1.57853     421.693E-03    -11.9454E-03     54.1681E-03    -26.6025E-03    -27.5474E-03    -25.9677E-03     52.5884E-03    -26.6025E-03     22.3018E-03     67.9106E+06    -7.37454E+06    -19.1342E+06    -19.1067E+06     67.8832E+06    -7.37454E+06     679.214E+03         29.7967
            1240     14.6069E-03     61.2477E-03     466.774E-03     424.044E-03        -1.59311     466.452E-03        -1.59279     424.044E-03    -20.0849E-03     53.7783E-03    -26.5664E-03    -27.2047E-03    -25.6246E-03     52.2130E-03    -26.5812E-03     22.0936E-03     149.664E+06     17.7418E+06    -17.1917E+06    -17.1786E+06     149.651E+06     17.7418E+06     166.220E+03         31.7609
            1241     15.5816E-03     61.2673E-03     466.005E-03     426.333E-03        -1.59392     465.892E-03        -1.59380     426.333E-03     533.674E-06     54.3778E-03    -26.6946E-03    -27.6835E-03    -25.3566E-03     52.0656E-03    -26.7094E-03     26.2377E-03     191.453E+06     62.9074E+06    -13.8220E+06    -13.8134E+06     191.445E+06     62.9074E+06     338.396E+03         34.1647
            1242     16.5561E-03     61.3026E-03     460.380E-03     428.170E-03        -1.58277     460.026E-03        -1.58241     428.170E-03    -11.1163E-03     53.6794E-03    -25.8429E-03    -27.8955E-03    -25.0630E-03     51.9287E-03    -26.9247E-03     17.7247E-03     201.083E+06     115.187E+06    -7.87239E+06    -7.87028E+06     201.081E+06     115.187E+06     171.710E+03         36.7571
            1243     973.448E-06     62.1384E-03         1.58580         1.07502        -3.34899    -393.956E-03        -1.50026         1.20604        -1.67999     54.3169E-03    -27.1068E-03    -27.2123E-03    -27.1881E-03     54.3019E-03    -27.1159E-03     2.07100E-03    -63.8997E+06    -65.8628E+06    -261.990E+06    -65.7468E+06    -261.990E+06    -64.0164E+06    -178.223E+03         23.9848
            1244     1.94686E-03     62.1412E-03     965.196E-03     412.599E-03        -2.06895     439.049E-03        -1.54280     412.599E-03     552.337E-03     54.3616E-03    -27.1662E-03    -27.1978E-03    -27.1312E-03     54.3184E-03    -27.1896E-03     3.66609E-03    -55.5119E+06    -63.0366E+06    -260.043E+06    -63.0367E+06    -260.043E+06    -55.5119E+06    -26.2717E+03         24.0125
            1245     2.92024E-03     62.1460E-03     622.126E-03     419.401E-03        -1.73613     421.049E-03        -1.53505     419.401E-03    -438.412E-03     54.3766E-03    -27.1544E-03    -27.2243E-03    -27.0699E-03     54.2921E-03    -27.2243E-03     5.19652E-03    -42.9811E+06    -58.4411E+06    -254.381E+06    -58.4412E+06    -254.381E+06    -42.9811E+06     59.1261E+03         24.0649
            1246     3.89381E-03     62.1522E-03     445.684E-03     414.620E-03        -1.55369     385.055E-03        -1.49424     415.799E-03     175.644E-03     54.3710E-03    -27.1288E-03    -27.2443E-03    -26.9972E-03     54.2394E-03    -27.2443E-03     6.51722E-03    -29.9533E+06    -52.7743E+06    -242.545E+06    -52.7753E+06    -242.544E+06    -29.9533E+06     280.447E+03         24.1523
            1247     4.86733E-03     62.1597E-03     416.297E-03     408.209E-03        -1.51476     390.803E-03        -1.49109     410.034E-03    -66.0499E-03     54.3325E-03    -27.0996E-03    -27.2349E-03    -26.9195E-03     54.1524E-03    -27.2349E-03     7.63310E-03    -19.0821E+06    -46.8081E+06    -222.889E+06    -46.8116E+06    -222.886E+06    -19.0821E+06     713.648E+03         24.2767
            1248     5.84101E-03     62.1682E-03     416.045E-03     403.954E-03        -1.50639     399.873E-03        -1.49374     407.474E-03     45.1418E-03     54.2570E-03    -27.0504E-03    -27.2089E-03    -26.8238E-03     54.0303E-03    -27.2089E-03     8.56321E-03    -10.4418E+06    -41.3554E+06    -202.065E+06    -41.3599E+06    -202.060E+06    -10.4418E+06     850.402E+03         24.4332
            1249     6.81473E-03     62.1777E-03     413.607E-03     403.300E-03        -1.50120     405.080E-03        -1.49606     406.691E-03    -82.3097E-03     54.2227E-03    -27.0332E-03    -27.1896E-03    -26.7645E-03     53.9540E-03    -27.1896E-03     9.32417E-03    -2.96917E+06    -36.4765E+06    -184.931E+06    -36.4800E+06    -184.928E+06    -2.96917E+06     718.571E+03         24.6195
            1250     7.78850E-03     62.1878E-03     424.164E-03     406.953E-03        -1.51438     422.818E-03        -1.51356     407.472E-03     20.6876E-03     54.1595E-03    -27.0169E-03    -27.1378E-03    -26.6991E-03     53.8417E-03    -27.1378E-03     10.1282E-03     148.585E+03    -31.9955E+06    -163.291E+06    -31.9990E+06    -163.287E+06     148.585E+03     670.191E+03         24.8409
            1251     8.76226E-03     62.1990E-03     420.623E-03     400.249E-03        -1.50447     412.011E-03        -1.50415     408.538E-03    -6.89797E-03     54.0517E-03    -26.9913E-03    -27.0743E-03    -26.6086E-03     53.6690E-03    -27.0743E-03     11.0995E-03     1.04377E+06    -28.0124E+06    -137.939E+06    -28.0179E+06    -137.933E+06     1.04377E+06     720.218E+03         25.1118
            1252     9.73626E-03     62.2111E-03     407.582E-03     387.304E-03        -1.48036     386.482E-03        -1.47954     407.582E-03    -30.7106E-03     53.9864E-03    -26.9718E-03    -27.0343E-03    -26.5575E-03     53.5450E-03    -27.0072E-03     11.9205E-03     1.31771E+06    -24.8434E+06    -113.227E+06    -24.8493E+06    -113.221E+06     1.31771E+06     520.144E+03         25.4699
            1253     10.7101E-03     62.2239E-03     413.642E-03     388.490E-03        -1.48821     395.199E-03        -1.48720     405.930E-03    -19.8031E-03     53.9623E-03    -26.9153E-03    -27.0576E-03    -26.5302E-03     53.4349E-03    -26.9153E-03     13.0066E-03    -1.79835E+06    -22.7333E+06    -86.8615E+06    -22.7382E+06    -86.8566E+06    -1.79835E+06     243.797E+03         26.0271
            1254     11.6841E-03     62.2383E-03     424.156E-03     400.360E-03        -1.50952     418.359E-03        -1.50918     405.812E-03     25.0513E-03     53.9191E-03    -26.8248E-03    -27.1201E-03    -26.4056E-03     53.2045E-03    -26.8248E-03     15.0927E-03    -5.70107E+06    -21.1155E+06    -52.6810E+06    -21.1378E+06    -52.6587E+06    -5.70107E+06     287.351E+03         26.9215
            1255     12.6581E-03     62.2556E-03     431.982E-03     407.081E-03        -1.52453     431.830E-03        -1.52438     407.081E-03    -2.77803E-03     53.9619E-03    -26.7173E-03    -27.2501E-03    -26.2458E-03     52.9577E-03    -26.7173E-03     17.8882E-03     6.97726E+06    -16.1101E+06    -26.0683E+06    -19.8547E+06    -5.74086E+06    -9.60559E+06     112.946E+03         28.1947
            1256     13.6326E-03     62.2756E-03     433.225E-03     408.653E-03        -1.53011     433.059E-03        -1.52994     408.653E-03    -12.2289E-03     54.1771E-03    -26.5971E-03    -27.5613E-03    -25.9946E-03     52.6105E-03    -26.5971E-03     22.2281E-03     68.3195E+06    -7.23017E+06    -18.8259E+06    -18.7894E+06     68.2830E+06    -7.23017E+06     94.5423E+03         29.8263
            1257     14.6068E-03     62.3021E-03     430.334E-03     409.653E-03        -1.53033     429.962E-03        -1.53021     409.908E-03    -7.88941E-03     53.7281E-03    -26.5297E-03    -27.1896E-03    -25.5841E-03     52.1710E-03    -26.5781E-03     22.0442E-03     149.288E+06     17.4089E+06    -17.3018E+06    -17.2878E+06     149.274E+06     17.4089E+06     509.835E+03         31.8002
            1258     15.5814E-03     62.3221E-03     442.421E-03     410.945E-03        -1.54217     442.043E-03        -1.54205     411.200E-03    -2.97301E-03     54.3110E-03    -26.6605E-03    -27.6522E-03    -25.3128E-03     52.0200E-03    -26.7089E-03     26.1476E-03     191.526E+06     63.5190E+06    -13.9170E+06    -13.9117E+06     191.520E+06     63.5190E+06     436.311E+03         34.2123
            1259     16.5567E-03     62.3567E-03     452.786E-03     412.994E-03        -1.55397     452.175E-03        -1.55336     412.994E-03     34.3595E-03     53.7071E-03    -25.9047E-03    -27.8704E-03    -25.1254E-03     51.9846E-03    -26.9272E-03     17.6776E-03     201.395E+06     116.199E+06    -7.70407E+06    -7.70322E+06     201.394E+06     116.199E+06     87.6871E+03         36.8069
            1260     973.433E-06     63.1928E-03         1.56551         1.00173        -3.23932    -414.256E-03        -1.45930         1.20147        -1.58885     54.3215E-03    -27.0821E-03    -27.2397E-03    -27.2245E-03     54.3062E-03    -27.0821E-03     2.10419E-03    -62.2692E+06    -64.8731E+06    -261.684E+06    -64.7569E+06    -261.683E+06    -62.3860E+06    -245.877E+03         23.9864
            1261     1.94681E-03     63.1960E-03     921.656E-03     398.446E-03        -1.99399     417.132E-03        -1.48947     398.446E-03     550.587E-03     54.3757E-03    -27.1685E-03    -27.2093E-03    -27.1380E-03     54.3333E-03    -27.1975E-03     3.63093E-03    -53.2957E+06    -61.4993E+06    -260.414E+06    -61.4997E+06    -260.414E+06    -53.2957E+06     46.5537E+03         24.0125
            1262     2.92030E-03     63.2006E-03     619.708E-03     407.326E-03        -1.70676     432.763E-03        -1.51981     407.326E-03    -406.978E-03     54.3791E-03    -27.1533E-03    -27.2275E-03    -27.0694E-03     54.2953E-03    -27.2275E-03     5.17312E-03    -41.7993E+06    -57.2893E+06    -254.336E+06    -57.2897E+06    -254.336E+06    -41.7993E+06     207.787E+03         24.0634
            1263     3.89377E-03     63.2068E-03     474.273E-03     412.283E-03        -1.56765     422.703E-03        -1.51657     412.773E-03     194.394E-03     54.3719E-03    -27.1296E-03    -27.2443E-03    -26.9979E-03     54.2403E-03    -27.2443E-03     6.51845E-03    -29.5267E+06    -52.2612E+06    -242.827E+06    -52.2626E+06    -242.826E+06    -29.5267E+06     397.001E+03         24.1502
            1264     4.86742E-03     63.2142E-03     420.045E-03     399.675E-03        -1.49830     389.157E-03        -1.47949     411.753E-03    -44.9713E-03     54.3157E-03    -27.0859E-03    -27.2316E-03    -26.9053E-03     54.1351E-03    -27.2316E-03     7.64112E-03    -19.2427E+06    -46.7855E+06    -223.358E+06    -46.7882E+06    -223.355E+06    -19.2427E+06     469.277E+03         24.2744
            1265     5.84102E-03     63.2228E-03     407.258E-03     390.698E-03        -1.47342     380.286E-03        -1.46301     407.258E-03     59.7490E-03     54.2572E-03    -27.0554E-03    -27.2045E-03    -26.8265E-03     54.0284E-03    -27.2045E-03     8.60338E-03    -10.5961E+06    -41.1553E+06    -202.335E+06    -41.1596E+06    -202.330E+06    -10.5961E+06     654.558E+03         24.4311
            1266     6.81473E-03     63.2322E-03     403.766E-03     390.002E-03        -1.46748     386.354E-03        -1.46383     403.766E-03    -54.8590E-03     54.2247E-03    -27.0400E-03    -27.1864E-03    -26.7685E-03     53.9532E-03    -27.1864E-03     9.37248E-03    -2.78432E+06    -36.1892E+06    -184.973E+06    -36.1955E+06    -184.967E+06    -2.78432E+06     929.831E+03         24.6178
            1267     7.78851E-03     63.2424E-03     405.410E-03     385.010E-03        -1.46157     388.005E-03        -1.46080     401.644E-03     31.7448E-03     54.1482E-03    -27.0101E-03    -27.1352E-03    -26.6921E-03     53.8303E-03    -27.1352E-03     10.1294E-03     424.004E+03    -31.9639E+06    -163.002E+06    -31.9680E+06    -162.998E+06     424.004E+03     629.536E+03         24.8395
            1268     8.76242E-03     63.2534E-03     409.302E-03     392.391E-03        -1.47274     400.600E-03        -1.47237     400.723E-03     14.1661E-03     54.0497E-03    -26.9906E-03    -27.0727E-03    -26.6088E-03     53.6679E-03    -27.0727E-03     11.0855E-03     1.17660E+06    -28.1690E+06    -138.021E+06    -28.1701E+06    -138.020E+06     1.17660E+06     294.135E+03         25.1109
            1269     9.73622E-03     63.2656E-03     404.959E-03     386.168E-03        -1.46422     390.375E-03        -1.46362     400.146E-03     3.53672E-03     53.9909E-03    -26.9762E-03    -27.0325E-03    -26.5585E-03     53.5474E-03    -27.0067E-03     11.9493E-03     1.68331E+06    -24.8758E+06    -113.257E+06    -24.8792E+06    -113.253E+06     1.68331E+06     450.419E+03         25.4711
            1270     10.7101E-03     63.2785E-03     397.863E-03     360.972E-03        -1.43188     360.270E-03        -1.43117     397.863E-03     8.44561E-03     53.9515E-03    -26.9152E-03    -27.0461E-03    -26.5191E-03     53.4245E-03    -26.9152E-03     13.0040E-03    -1.16906E+06    -22.5452E+06    -86.5663E+06    -22.5534E+06    -86.5580E+06    -1.16906E+06     516.212E+03         26.0337
            1271     11.6840E-03     63.2928E-03     400.525E-03     367.374E-03        -1.44000     372.340E-03        -1.43953     395.089E-03     18.6842E-03     53.9136E-03    -26.8260E-03    -27.1121E-03    -26.4026E-03     53.2041E-03    -26.8260E-03     15.0384E-03    -5.05531E+06    -21.0401E+06    -52.8404E+06    -21.0713E+06    -52.8093E+06    -5.05531E+06     282.401E+03         26.9350
            1272     12.6583E-03     63.3098E-03     420.664E-03     390.477E-03        -1.48535     416.226E-03        -1.48522     394.788E-03    -22.4074E-03     53.9588E-03    -26.7176E-03    -27.2487E-03    -26.2438E-03     52.9539E-03    -26.7176E-03     17.8889E-03     7.91289E+06    -16.0250E+06    -26.6732E+06    -20.2633E+06    -5.42671E+06    -9.09531E+06     213.151E+03         28.2154
            1273     13.6322E-03     63.3303E-03     425.592E-03     396.411E-03        -1.49813     425.382E-03        -1.49792     396.411E-03     5.24817E-03     54.2059E-03    -26.5951E-03    -27.5892E-03    -26.0250E-03     52.6416E-03    -26.5951E-03     22.2292E-03     68.1956E+06    -7.78886E+06    -19.7931E+06    -19.7388E+06     68.1413E+06    -7.78886E+06     174.992E+03         29.8546
            1274     14.6067E-03     63.3564E-03     406.138E-03     395.320E-03        -1.47855     403.614E-03        -1.47810     397.396E-03     29.9634E-03     53.7391E-03    -26.4962E-03    -27.2294E-03    -25.5890E-03     52.1878E-03    -26.5852E-03     22.0122E-03     148.928E+06     18.1136E+06    -17.8652E+06    -17.8504E+06     148.913E+06     18.1136E+06     310.884E+03         31.8375
            1275     15.5819E-03     63.3765E-03     421.595E-03     395.911E-03        -1.49449     419.161E-03        -1.49413     397.987E-03     3.91059E-03     54.2859E-03    -26.6283E-03    -27.6584E-03    -25.2828E-03     51.9994E-03    -26.7174E-03     26.1196E-03     191.784E+06     64.7756E+06    -13.7180E+06    -13.7139E+06     191.780E+06     64.7756E+06     275.911E+03         34.2568
            1276     16.5562E-03     63.4114E-03     468.911E-03     400.384E-03        -1.55239     467.907E-03        -1.55139     400.384E-03     45.4287E-03     53.7088E-03    -25.9103E-03    -27.8706E-03    -25.1331E-03     51.9906E-03    -26.9296E-03     17.6622E-03     201.504E+06     116.279E+06    -7.60228E+06    -7.60091E+06     201.503E+06     116.279E+06     99.2805E+03         36.8534
            1277     973.417E-06     64.2477E-03         1.54403     921.332E-03        -3.13071    -413.983E-03        -1.48341         1.23204        -1.51058     54.3477E-03    -27.0850E-03    -27.2623E-03    -27.2284E-03     54.3327E-03    -27.1039E-03     2.09873E-03    -62.1806E+06    -65.1240E+06    -261.696E+06    -64.9631E+06    -261.695E+06    -62.3428E+06     281.514E+03         23.9874
            1278     1.94680E-03     64.2504E-03     857.107E-03     406.005E-03        -1.92671     393.251E-03        -1.46286     406.005E-03     519.159E-03     54.3491E-03    -27.1466E-03    -27.2033E-03    -27.1082E-03     54.3071E-03    -27.1997E-03     3.60428E-03    -54.2122E+06    -62.2561E+06    -260.779E+06    -62.2572E+06    -260.778E+06    -54.2122E+06     320.917E+03         24.0121
            1279     2.92030E-03     64.2552E-03     588.009E-03     405.117E-03        -1.65675     418.739E-03        -1.48748     405.117E-03    -383.276E-03     54.3538E-03    -27.1372E-03    -27.2178E-03    -27.0532E-03     54.2697E-03    -27.2178E-03     5.17848E-03    -42.9657E+06    -57.8608E+06    -254.448E+06    -57.8622E+06    -254.447E+06    -42.9657E+06     461.913E+03         24.0614
            1280     3.89382E-03     64.2614E-03     460.388E-03     407.503E-03        -1.53197     415.852E-03        -1.48825     408.319E-03     201.882E-03     54.3524E-03    -27.1181E-03    -27.2353E-03    -26.9867E-03     54.2211E-03    -27.2353E-03     6.51025E-03    -30.1607E+06    -52.7250E+06    -243.233E+06    -52.7274E+06    -243.231E+06    -30.1607E+06     543.841E+03         24.1474
            1281     4.86739E-03     64.2688E-03     415.907E-03     395.630E-03        -1.47532     391.765E-03        -1.46317     407.615E-03    -53.7337E-03     54.2981E-03    -27.0752E-03    -27.2244E-03    -26.8945E-03     54.1174E-03    -27.2244E-03     7.64053E-03    -19.2430E+06    -47.0201E+06    -223.194E+06    -47.0219E+06    -223.192E+06    -19.2430E+06     341.919E+03         24.2718
            1282     5.84112E-03     64.2773E-03     404.050E-03     389.380E-03        -1.45586     381.136E-03        -1.44762     404.050E-03     965.316E-06     54.2391E-03    -27.0435E-03    -27.1983E-03    -26.8152E-03     54.0108E-03    -27.1983E-03     8.59356E-03    -10.5434E+06    -41.4569E+06    -202.833E+06    -41.4591E+06    -202.830E+06    -10.5434E+06     368.296E+03         24.4288
            1283     6.81484E-03     64.2868E-03     400.285E-03     380.033E-03        -1.44310     375.186E-03        -1.43825     400.285E-03    -71.6198E-03     54.2140E-03    -27.0357E-03    -27.1799E-03    -26.7637E-03     53.9419E-03    -27.1799E-03     9.37914E-03    -2.59522E+06    -36.1106E+06    -185.332E+06    -36.1160E+06    -185.326E+06    -2.59522E+06     772.827E+03         24.6157
            1284     7.78856E-03     64.2969E-03     396.420E-03     365.333E-03        -1.42514     364.266E-03        -1.42408     396.420E-03     15.3197E-03     54.1578E-03    -27.0263E-03    -27.1299E-03    -26.7075E-03     53.8389E-03    -27.1299E-03     10.1477E-03     1.07813E+06    -31.2836E+06    -162.453E+06    -31.2876E+06    -162.449E+06     1.07813E+06     622.418E+03         24.8385
            1285     8.76233E-03     64.3079E-03     398.150E-03     371.174E-03        -1.43253     375.381E-03        -1.43192     393.337E-03    -10.9097E-03     54.0754E-03    -27.0201E-03    -27.0705E-03    -26.6393E-03     53.6947E-03    -27.0705E-03     11.0739E-03     1.69994E+06    -27.7209E+06    -137.923E+06    -27.7227E+06    -137.921E+06     1.69994E+06     345.732E+03         25.1112
            1286     9.73625E-03     64.3201E-03     396.366E-03     373.498E-03        -1.43150     377.922E-03        -1.43111     391.553E-03     1.06388E-03     53.9916E-03    -26.9892E-03    -27.0206E-03    -26.5596E-03     53.5477E-03    -27.0064E-03     11.9532E-03     1.72609E+06    -25.1085E+06    -113.640E+06    -25.1121E+06    -113.636E+06     1.72609E+06     501.101E+03         25.4731
            1287     10.7101E-03     64.3330E-03     389.244E-03     356.631E-03        -1.40689     356.272E-03        -1.40653     389.244E-03     3.61332E-03     53.9153E-03    -26.9110E-03    -27.0145E-03    -26.4846E-03     53.3881E-03    -26.9136E-03     13.0023E-03    -1.15847E+06    -22.7336E+06    -86.5305E+06    -22.7408E+06    -86.5234E+06    -1.15847E+06     530.451E+03         26.0401
            1288     11.6842E-03     64.3472E-03     386.308E-03     355.329E-03        -1.40353     354.888E-03        -1.40309     386.308E-03    -2.95502E-03     53.9155E-03    -26.8240E-03    -27.1163E-03    -26.4062E-03     53.2053E-03    -26.8240E-03     15.0447E-03    -4.79523E+06    -21.0976E+06    -52.6830E+06    -21.1688E+06    -52.6118E+06    -4.79523E+06     528.027E+03         26.9475
            1289     12.6581E-03     64.3644E-03     395.713E-03     369.209E-03        -1.42864     379.985E-03        -1.42838     384.681E-03    -25.2270E-03     53.9716E-03    -26.7151E-03    -27.2648E-03    -26.2582E-03     52.9651E-03    -26.7151E-03     17.9068E-03     8.10767E+06    -16.4582E+06    -26.4258E+06    -20.1189E+06    -5.40211E+06    -9.25535E+06     430.375E+03         28.2341
            1290     13.6326E-03     64.3847E-03     405.932E-03     377.921E-03        -1.45008     398.893E-03        -1.44992     384.799E-03     15.4416E-03     54.1977E-03    -26.5911E-03    -27.5865E-03    -26.0119E-03     52.6231E-03    -26.5911E-03     22.2948E-03     68.1989E+06    -8.10448E+06    -19.1578E+06    -19.1061E+06     68.1472E+06    -8.10448E+06     155.223E+03         29.8798
            1291     14.6069E-03     64.4111E-03     410.323E-03     383.968E-03        -1.46152     408.072E-03        -1.46109     385.789E-03     33.0776E-03     53.7752E-03    -26.5260E-03    -27.2375E-03    -25.6304E-03     52.2235E-03    -26.5814E-03     22.0075E-03     149.025E+06     17.9224E+06    -17.4177E+06    -17.4021E+06     149.010E+06     17.9224E+06     54.0074E+03         31.8696
            1292     15.5812E-03     64.4307E-03     419.044E-03     385.376E-03        -1.47284     416.645E-03        -1.47227     387.197E-03    -7.59090E-03     54.3451E-03    -26.6631E-03    -27.6873E-03    -25.3290E-03     52.0422E-03    -26.7185E-03     26.1819E-03     191.896E+06     64.4204E+06    -13.8902E+06    -13.8828E+06     191.889E+06     64.4204E+06     212.783E+03         34.2942
            1293     16.5567E-03     64.4660E-03     446.946E-03     389.572E-03        -1.50606     446.013E-03        -1.50513     389.572E-03    -8.48776E-03     53.7022E-03    -25.8781E-03    -27.8974E-03    -25.0995E-03     51.9595E-03    -26.9334E-03     17.6890E-03     201.555E+06     116.149E+06    -7.95699E+06    -7.95408E+06     201.553E+06     116.149E+06     200.277E+03         36.8930
            1294     973.321E-06     65.3021E-03         1.53845     805.747E-03        -2.99680    -398.600E-03        -1.51169         1.25768        -1.33762     54.3279E-03    -27.1104E-03    -27.2170E-03    -27.1751E-03     54.3129E-03    -27.1372E-03     2.08312E-03    -63.3203E+06    -65.9186E+06    -262.496E+06    -65.7583E+06    -262.494E+06    -63.4825E+06     580.629E+03         23.9856
            1295     1.94687E-03     65.3051E-03     811.294E-03     424.912E-03        -1.89008     405.898E-03        -1.48468     424.912E-03     522.829E-03     54.3159E-03    -27.1305E-03    -27.1846E-03    -27.0880E-03     54.2734E-03    -27.1846E-03     3.62928E-03    -55.2883E+06    -62.5912E+06    -260.873E+06    -62.5921E+06    -260.872E+06    -55.2883E+06     367.859E+03         24.0103
            1296     2.92031E-03     65.3097E-03     532.896E-03     412.529E-03        -1.59397     384.548E-03        -1.44823     415.139E-03    -328.256E-03     54.3241E-03    -27.1201E-03    -27.2042E-03    -27.0355E-03     54.2395E-03    -27.2042E-03     5.19118E-03    -43.1912E+06    -58.0593E+06    -254.755E+06    -58.0608E+06    -254.754E+06    -43.1912E+06     478.032E+03         24.0590
            1297     3.89387E-03     65.3159E-03     417.695E-03     397.053E-03        -1.46065     369.480E-03        -1.42093     405.554E-03     216.609E-03     54.3317E-03    -27.1063E-03    -27.2245E-03    -26.9740E-03     54.1995E-03    -27.2245E-03     6.53247E-03    -29.6724E+06    -52.5849E+06    -243.467E+06    -52.5871E+06    -243.464E+06    -29.6724E+06     570.024E+03         24.1447
            1298     4.86749E-03     65.3233E-03     399.384E-03     392.469E-03        -1.43944     383.087E-03        -1.43005     399.384E-03    -18.9422E-03     54.3008E-03    -27.0870E-03    -27.2141E-03    -26.9057E-03     54.1195E-03    -27.2141E-03     7.65306E-03    -18.8532E+06    -46.9600E+06    -222.795E+06    -46.9612E+06    -222.794E+06    -18.8532E+06     381.628E+03         24.2696
            1299     5.84109E-03     65.3319E-03     396.222E-03     386.694E-03        -1.43378     378.557E-03        -1.42564     396.222E-03     2.21087E-03     54.2365E-03    -27.0475E-03    -27.1918E-03    -26.8201E-03     54.0091E-03    -27.1918E-03     8.57820E-03    -10.3569E+06    -41.7231E+06    -203.123E+06    -41.7240E+06    -203.122E+06    -10.3569E+06     334.479E+03         24.4268
            1300     6.81483E-03     65.3412E-03     392.774E-03     370.964E-03        -1.41890     366.173E-03        -1.41411     392.774E-03    -70.1881E-03     54.1868E-03    -27.0165E-03    -27.1710E-03    -26.7451E-03     53.9154E-03    -27.1710E-03     9.36515E-03    -3.17635E+06    -36.4984E+06    -185.510E+06    -36.5000E+06    -185.509E+06    -3.17635E+06     210.280E+03         24.6138
            1301     7.78868E-03     65.3515E-03     388.943E-03     360.568E-03        -1.40629     359.405E-03        -1.40513     388.943E-03     6.97931E-03     54.1450E-03    -27.0215E-03    -27.1200E-03    -26.7007E-03     53.8242E-03    -27.1200E-03     10.1767E-03     438.888E+03    -31.7724E+06    -162.536E+06    -31.7751E+06    -162.534E+06     438.888E+03     348.328E+03         24.8377
            1302     8.76246E-03     65.3625E-03     384.728E-03     344.523E-03        -1.38563     343.858E-03        -1.38497     384.728E-03    -22.3215E-03     54.0972E-03    -27.0407E-03    -27.0711E-03    -26.6636E-03     53.7142E-03    -27.0652E-03     11.1104E-03     1.79780E+06    -28.0794E+06    -138.091E+06    -28.0838E+06    -138.086E+06     1.79780E+06     672.197E+03         25.1117
            1303     9.73620E-03     65.3746E-03     380.754E-03     349.541E-03        -1.38187     349.132E-03        -1.38146     380.754E-03    -10.0916E-03     54.0058E-03    -26.9996E-03    -27.0246E-03    -26.5768E-03     53.5625E-03    -27.0042E-03     11.9480E-03     2.11656E+06    -24.9475E+06    -113.356E+06    -24.9518E+06    -113.352E+06     2.11656E+06     553.873E+03         25.4749
            1304     10.7103E-03     65.3874E-03     389.676E-03     368.502E-03        -1.40555     378.379E-03        -1.40477     379.013E-03     10.9086E-03     53.9148E-03    -26.9102E-03    -27.0139E-03    -26.4871E-03     53.3907E-03    -26.9128E-03     12.9644E-03    -1.05470E+06    -22.5451E+06    -86.8295E+06    -22.5527E+06    -86.8219E+06    -1.05470E+06     446.164E+03         26.0455
            1305     11.6841E-03     65.4018E-03     389.321E-03     363.728E-03        -1.40028     373.621E-03        -1.39951     378.659E-03     15.8793E-03     53.8971E-03    -26.8231E-03    -27.0997E-03    -26.3917E-03     53.1891E-03    -26.8231E-03     15.0174E-03    -4.53772E+06    -20.6870E+06    -52.8072E+06    -20.7555E+06    -52.7387E+06    -4.53772E+06     608.746E+03         26.9582
            1306     12.6585E-03     65.4190E-03     376.971E-03     341.915E-03        -1.36999     341.562E-03        -1.36964     376.971E-03    -10.0085E-03     53.9596E-03    -26.7122E-03    -27.2555E-03    -26.2534E-03     52.9575E-03    -26.7122E-03     17.8683E-03     8.47253E+06    -16.1491E+06    -26.1145E+06    -19.7191E+06    -5.06697E+06    -9.00496E+06     431.952E+03         28.2500
            1307     13.6322E-03     65.4391E-03     378.873E-03     346.371E-03        -1.37809     350.522E-03        -1.37795     374.581E-03     10.6502E-03     54.1956E-03    -26.5899E-03    -27.5855E-03    -26.0096E-03     52.6197E-03    -26.5899E-03     22.2932E-03     68.4271E+06    -7.72327E+06    -19.2535E+06    -19.2100E+06     68.3836E+06    -7.72327E+06     294.931E+03         29.9007
            1308     14.6069E-03     65.4657E-03     407.018E-03     370.809E-03        -1.43040     403.314E-03        -1.43035     374.461E-03     3.58226E-03     53.7861E-03    -26.5490E-03    -27.2261E-03    -25.6430E-03     52.2330E-03    -26.5790E-03     22.0093E-03     148.964E+06     17.6700E+06    -17.9644E+06    -17.9513E+06     148.950E+06     17.6700E+06     312.184E+03         31.8950
            1309     15.5819E-03     65.4853E-03     428.315E-03     376.766E-03        -1.45655     427.958E-03        -1.45619     376.766E-03    -23.3428E-03     54.3638E-03    -26.6872E-03    -27.6856E-03    -25.3559E-03     52.0641E-03    -26.7172E-03     26.1575E-03     191.907E+06     64.0005E+06    -14.4176E+06    -14.4082E+06     191.897E+06     64.0005E+06     191.779E+03         34.3232
            1310     16.5561E-03     65.5206E-03     412.986E-03     376.596E-03        -1.43794     409.862E-03        -1.43727     379.045E-03    -22.8139E-03     53.6878E-03    -25.8694E-03    -27.8989E-03    -25.0890E-03     51.9437E-03    -26.9352E-03     17.7292E-03     201.763E+06     116.309E+06    -7.99326E+06    -7.98977E+06     201.760E+06     116.309E+06     21.8252E+03         36.9246
            1311     973.505E-06     66.3567E-03         1.51413     639.574E-03        -2.80701    -403.162E-03        -1.54262         1.29248        -1.14658     54.2564E-03    -27.0832E-03    -27.1729E-03    -27.1443E-03     54.2415E-03    -27.0969E-03     2.00296E-03    -63.2879E+06    -65.8806E+06    -263.208E+06    -65.5949E+06    -263.207E+06    -63.5746E+06     249.928E+03         23.9817
            1312     1.94687E-03     66.3597E-03     733.540E-03     433.514E-03        -1.80985     388.794E-03        -1.46510     433.514E-03     449.340E-03     54.2734E-03    -27.1198E-03    -27.1539E-03    -27.0765E-03     54.2301E-03    -27.1539E-03     3.67733E-03    -55.1455E+06    -62.6424E+06    -261.060E+06    -62.6432E+06    -261.060E+06    -55.1455E+06     367.878E+03         24.0068
            1313     2.92041E-03     66.3642E-03     492.353E-03     410.409E-03        -1.54053     364.248E-03        -1.41599     413.973E-03    -330.166E-03     54.3010E-03    -27.1178E-03    -27.1835E-03    -27.0332E-03     54.2165E-03    -27.1835E-03     5.19035E-03    -42.8725E+06    -58.3687E+06    -255.073E+06    -58.3700E+06    -255.071E+06    -42.8725E+06     472.566E+03         24.0559
            1314     3.89396E-03     66.3704E-03     407.757E-03     392.847E-03        -1.43246     368.378E-03        -1.40171     401.485E-03     171.347E-03     54.3139E-03    -27.1050E-03    -27.2083E-03    -26.9726E-03     54.1815E-03    -27.2083E-03     6.53384E-03    -29.5497E+06    -52.8692E+06    -243.464E+06    -52.8708E+06    -243.462E+06    -29.5497E+06     540.259E+03         24.1421
            1315     4.86753E-03     66.3779E-03     402.027E-03     383.897E-03        -1.42130     380.077E-03        -1.41121     395.756E-03     10.8231E-03     54.2812E-03    -27.0817E-03    -27.1996E-03    -26.8998E-03     54.0993E-03    -27.1996E-03     7.66696E-03    -18.9579E+06    -47.1140E+06    -222.775E+06    -47.1155E+06    -222.773E+06    -18.9579E+06     459.672E+03         24.2678
            1316     5.84121E-03     66.3864E-03     391.547E-03     367.417E-03        -1.40025     359.979E-03        -1.39281     391.547E-03     58.0281E-03     54.2358E-03    -27.0568E-03    -27.1808E-03    -26.8283E-03     54.0073E-03    -27.1808E-03     8.59787E-03    -10.0578E+06    -41.4706E+06    -203.103E+06    -41.4716E+06    -203.102E+06    -10.0578E+06     321.978E+03         24.4254
            1317     6.81491E-03     66.3957E-03     386.172E-03     350.723E-03        -1.38249     348.160E-03        -1.37993     386.172E-03    -36.7564E-03     54.1992E-03    -27.0355E-03    -27.1639E-03    -26.7639E-03     53.9276E-03    -27.1639E-03     9.37019E-03    -2.83904E+06    -36.4891E+06    -185.324E+06    -36.4910E+06    -185.322E+06    -2.83904E+06     204.644E+03         24.6125
            1318     7.78867E-03     66.4059E-03     381.141E-03     345.809E-03        -1.37412     345.033E-03        -1.37334     381.141E-03     27.0207E-03     54.1388E-03    -27.0199E-03    -27.1146E-03    -26.6991E-03     53.8181E-03    -27.1146E-03     10.1750E-03     266.802E+03    -32.2345E+06    -162.930E+06    -32.2371E+06    -162.927E+06     266.802E+03     220.301E+03         24.8372
            1319     8.76250E-03     66.4171E-03     376.641E-03     338.567E-03        -1.35853     337.565E-03        -1.35753     376.641E-03     32.7961E-03     54.0712E-03    -27.0199E-03    -27.0650E-03    -26.6437E-03     53.6890E-03    -27.0590E-03     11.0961E-03     1.66562E+06    -28.2855E+06    -138.367E+06    -28.2884E+06    -138.364E+06     1.66562E+06     380.023E+03         25.1113
            1320     9.73638E-03     66.4291E-03     372.965E-03     345.031E-03        -1.35818     344.074E-03        -1.35722     372.965E-03     32.7013E-03     54.0143E-03    -26.9894E-03    -27.0427E-03    -26.5909E-03     53.5712E-03    -26.9982E-03     11.9464E-03     2.09093E+06    -25.0596E+06    -113.202E+06    -25.0632E+06    -113.198E+06     2.09093E+06     445.342E+03         25.4751
            1321     10.7101E-03     66.4419E-03     381.912E-03     356.847E-03        -1.37609     366.660E-03        -1.37524     371.249E-03     32.3495E-03     53.9558E-03    -26.9112E-03    -27.0541E-03    -26.5284E-03     53.4300E-03    -26.9112E-03     12.9913E-03    -949.199E+03    -22.6174E+06    -86.8351E+06    -22.6260E+06    -86.8266E+06    -949.199E+03     417.807E+03         26.0493
            1322     11.6842E-03     66.4562E-03     381.238E-03     352.299E-03        -1.36935     361.961E-03        -1.36835     370.575E-03     25.9145E-03     53.8981E-03    -26.8230E-03    -27.1004E-03    -26.3943E-03     53.1921E-03    -26.8230E-03     14.9986E-03    -4.43511E+06    -20.6827E+06    -52.8771E+06    -20.7203E+06    -52.8395E+06    -4.43511E+06     415.748E+03         26.9668
            1323     12.6582E-03     66.4734E-03     368.889E-03     338.683E-03        -1.34612     338.291E-03        -1.34572     368.889E-03    -12.7713E-03     53.9384E-03    -26.7121E-03    -27.2327E-03    -26.2298E-03     52.9354E-03    -26.7121E-03     17.8663E-03     8.36473E+06    -15.9163E+06    -26.0924E+06    -19.5934E+06    -5.27362E+06    -8.77702E+06     700.484E+03         28.2628
            1324     13.6327E-03     66.4937E-03     366.686E-03     342.366E-03        -1.34745     342.229E-03        -1.34732     366.686E-03     11.3588E-03     54.1955E-03    -26.5894E-03    -27.5845E-03    -26.0091E-03     52.6201E-03    -26.5894E-03     22.2963E-03     68.3917E+06    -7.37919E+06    -19.1792E+06    -19.1412E+06     68.3537E+06    -7.37919E+06     917.348E+03         29.9170
            1325     14.6070E-03     66.5201E-03     380.106E-03     360.899E-03        -1.37709     374.960E-03        -1.37702     365.976E-03     14.9471E-03     53.7891E-03    -26.5481E-03    -27.2298E-03    -25.6386E-03     52.2280E-03    -26.5781E-03     22.0826E-03     149.256E+06     18.1227E+06    -17.8507E+06    -17.8296E+06     149.235E+06     18.1227E+06     471.557E+03         31.9139
            1326     15.5812E-03     66.5400E-03     410.918E-03     367.462E-03        -1.41241     410.827E-03        -1.41232     367.462E-03     9.84189E-03     54.3445E-03    -26.6850E-03    -27.6705E-03    -25.3439E-03     52.0479E-03    -26.7150E-03     26.1770E-03     192.257E+06     64.1233E+06    -13.9275E+06    -13.9193E+06     192.249E+06     64.1233E+06    -149.280E+03         34.3445
            1327     16.5568E-03     66.5748E-03     421.174E-03     367.599E-03        -1.42244     417.877E-03        -1.42160     370.048E-03     48.3899E-03     53.6786E-03    -25.8793E-03    -27.8841E-03    -25.1004E-03     51.9486E-03    -26.9330E-03     17.7236E-03     201.787E+06     116.133E+06    -7.56557E+06    -7.56424E+06     201.786E+06     116.133E+06    -183.359E+03         36.9488
            1328     973.418E-06     67.4111E-03         1.40631     459.945E-03        -2.51171    -453.309E-03        -1.43727         1.24513    -992.007E-03     54.1632E-03    -26.9996E-03    -27.1634E-03    -27.1426E-03     54.1483E-03    -27.0055E-03     2.02779E-03    -63.5989E+06    -66.3871E+06    -263.854E+06    -66.1011E+06    -263.853E+06    -63.8856E+06     203.771E+03         23.9779
            1329     1.94705E-03     67.4142E-03     644.122E-03     389.715E-03        -1.66994     365.417E-03        -1.39124     389.715E-03     318.875E-03     54.2283E-03    -27.1032E-03    -27.1242E-03    -27.0652E-03     54.1845E-03    -27.1185E-03     3.68530E-03    -54.9175E+06    -63.3173E+06    -261.576E+06    -63.3202E+06    -261.573E+06    -54.9175E+06     692.867E+03         24.0029
            1330     2.92047E-03     67.4188E-03     500.610E-03     384.655E-03        -1.51312     398.725E-03        -1.41219     385.609E-03    -341.965E-03     54.2857E-03    -27.1255E-03    -27.1602E-03    -27.0414E-03     54.2015E-03    -27.1602E-03     5.18558E-03    -42.7061E+06    -58.8210E+06    -255.280E+06    -58.8239E+06    -255.277E+06    -42.7061E+06     673.458E+03         24.0525
            1331     3.89398E-03     67.4249E-03     418.884E-03     387.879E-03        -1.43074     398.283E-03        -1.41109     388.833E-03     111.386E-03     54.2931E-03    -27.1054E-03    -27.1887E-03    -26.9734E-03     54.1611E-03    -27.1887E-03     6.51856E-03    -30.0990E+06    -53.2428E+06    -243.308E+06    -53.2435E+06    -243.307E+06    -30.0990E+06     378.508E+03         24.1398
            1332     4.86763E-03     67.4324E-03     396.875E-03     375.452E-03        -1.39677     375.512E-03        -1.38856     388.599E-03    -14.1621E-03     54.2501E-03    -27.0658E-03    -27.1850E-03    -26.8837E-03     54.0680E-03    -27.1850E-03     7.67051E-03    -19.1330E+06    -47.4020E+06    -222.971E+06    -47.4031E+06    -222.970E+06    -19.1330E+06     416.073E+03         24.2663
            1333     5.84131E-03     67.4409E-03     384.189E-03     355.182E-03        -1.36580     348.277E-03        -1.35889     384.189E-03     12.0852E-03     54.2180E-03    -27.0497E-03    -27.1680E-03    -26.8219E-03     53.9903E-03    -27.1680E-03     8.58327E-03    -9.98677E+06    -42.0402E+06    -203.004E+06    -42.0414E+06    -203.003E+06    -9.98677E+06     378.043E+03         24.4240
            1334     6.81498E-03     67.4503E-03     378.081E-03     339.272E-03        -1.34789     336.023E-03        -1.34464     378.081E-03    -72.5701E-03     54.2077E-03    -27.0533E-03    -27.1536E-03    -26.7811E-03     53.9356E-03    -27.1536E-03     9.38132E-03    -2.76664E+06    -36.8727E+06    -185.267E+06    -36.8747E+06    -185.265E+06    -2.76664E+06     202.729E+03         24.6113
            1335     7.78870E-03     67.4604E-03     372.432E-03     332.195E-03        -1.33688     331.825E-03        -1.33651     372.432E-03     8.97987E-03     54.1527E-03    -27.0425E-03    -27.1067E-03    -26.7192E-03     53.8294E-03    -27.1067E-03     10.2175E-03     180.046E+03    -32.0633E+06    -162.955E+06    -32.0654E+06    -162.953E+06     180.046E+03     163.011E+03         24.8366
            1336     8.76250E-03     67.4715E-03     368.564E-03     347.398E-03        -1.34631     346.529E-03        -1.34544     368.564E-03     8.45491E-03     54.0606E-03    -27.0212E-03    -27.0528E-03    -26.6374E-03     53.6769E-03    -27.0528E-03     11.1201E-03     1.30032E+06    -28.4334E+06    -138.628E+06    -28.4345E+06    -138.627E+06     1.30032E+06     221.643E+03         25.1105
            1337     9.73637E-03     67.4836E-03     366.250E-03     347.916E-03        -1.34238     346.614E-03        -1.34108     366.250E-03    -10.3708E-03     53.9951E-03    -26.9827E-03    -27.0296E-03    -26.5756E-03     53.5517E-03    -26.9934E-03     11.9483E-03     1.85475E+06    -25.5065E+06    -113.413E+06    -25.5089E+06    -113.411E+06     1.85475E+06     357.310E+03         25.4745
            1338     10.7104E-03     67.4965E-03     363.443E-03     326.791E-03        -1.31686     325.945E-03        -1.31602     363.443E-03    -10.0682E-03     53.9490E-03    -26.9056E-03    -27.0519E-03    -26.5248E-03     53.4219E-03    -26.9056E-03     13.0069E-03    -997.231E+03    -23.0305E+06    -86.6368E+06    -23.0350E+06    -86.6324E+06    -997.231E+03     313.819E+03         26.0520
            1339     11.6841E-03     67.5108E-03     360.420E-03     332.902E-03        -1.31933     332.380E-03        -1.31881     360.420E-03     1.90322E-03     53.9144E-03    -26.8186E-03    -27.1199E-03    -26.4107E-03     53.2053E-03    -26.8186E-03     15.0343E-03    -4.55209E+06    -21.2146E+06    -52.9226E+06    -21.2479E+06    -52.8892E+06    -4.55209E+06     297.341E+03         26.9736
            1340     12.6584E-03     67.5277E-03     367.112E-03     352.224E-03        -1.34669     359.953E-03        -1.34642     359.109E-03    -32.3571E-03     53.9534E-03    -26.7100E-03    -27.2492E-03    -26.2399E-03     52.9441E-03    -26.7100E-03     17.9245E-03     7.79716E+06    -16.2757E+06    -26.1209E+06    -19.7656E+06    -5.90551E+06    -8.92829E+06     599.347E+03         28.2727
            1341     13.6324E-03     67.5482E-03     376.896E-03     356.492E-03        -1.35937     373.876E-03        -1.35934     359.480E-03    -13.6958E-03     54.2188E-03    -26.5878E-03    -27.6086E-03    -26.0261E-03     52.6363E-03    -26.5878E-03     22.3557E-03     68.2478E+06    -7.16672E+06    -18.4387E+06    -18.4098E+06     68.2189E+06    -7.16672E+06     875.602E+03         29.9293
            1342     14.6068E-03     67.5746E-03     373.365E-03     358.814E-03        -1.35717     371.896E-03        -1.35713     360.239E-03     3.99447E-03     53.7700E-03    -26.5067E-03    -27.2514E-03    -25.6290E-03     52.2153E-03    -26.5744E-03     22.0196E-03     150.090E+06     18.4525E+06    -16.4649E+06    -16.4464E+06     150.071E+06     18.4525E+06     416.642E+03         31.9275
            1343     15.5821E-03     67.5944E-03     386.611E-03     361.295E-03        -1.37128     386.508E-03        -1.37118     361.295E-03     21.8927E-03     54.3094E-03    -26.6439E-03    -27.6800E-03    -25.3152E-03     52.0123E-03    -26.7115E-03     26.1378E-03     192.495E+06     64.1588E+06    -13.0993E+06    -13.0941E+06     192.490E+06     64.1588E+06    -78.5650E+03         34.3596
            1344     16.5562E-03     67.6294E-03     432.087E-03     363.966E-03        -1.41870     431.297E-03        -1.41791     363.966E-03     62.0292E-03     53.7015E-03    -25.8932E-03    -27.8948E-03    -25.1181E-03     51.9623E-03    -26.9307E-03     17.7166E-03     201.630E+06     116.256E+06    -7.60350E+06    -7.60311E+06     201.630E+06     116.256E+06     101.739E+03         36.9667
            1345     973.647E-06     68.4656E-03         1.31701     258.571E-03        -2.20155    -514.170E-03        -1.26783         1.15603    -746.611E-03     54.1101E-03    -26.9605E-03    -27.1497E-03    -27.1347E-03     54.0950E-03    -26.9605E-03     2.08544E-03    -63.4050E+06    -66.2797E+06    -264.778E+06    -66.2824E+06    -264.776E+06    -63.4050E+06     665.466E+03         23.9751
            1346     1.94699E-03     68.4685E-03     592.977E-03     334.897E-03        -1.55282     390.556E-03        -1.35040     334.897E-03     292.642E-03     54.2198E-03    -27.0867E-03    -27.1315E-03    -27.0738E-03     54.1767E-03    -27.1013E-03     3.65266E-03    -53.9168E+06    -62.5897E+06    -262.086E+06    -62.5930E+06    -262.082E+06    -53.9168E+06     716.728E+03         24.0000
            1347     2.92055E-03     68.4734E-03     488.093E-03     359.267E-03        -1.46640     422.470E-03        -1.40078     359.267E-03    -261.786E-03     54.2551E-03    -27.1059E-03    -27.1486E-03    -27.0218E-03     54.1711E-03    -27.1486E-03     5.17980E-03    -41.5233E+06    -57.5958E+06    -255.581E+06    -57.5997E+06    -255.577E+06    -41.5233E+06     749.205E+03         24.0500
            1348     3.89408E-03     68.4793E-03     405.619E-03     368.537E-03        -1.38888     389.338E-03        -1.37596     371.892E-03     126.674E-03     54.2845E-03    -27.1061E-03    -27.1777E-03    -26.9750E-03     54.1534E-03    -27.1777E-03     6.49895E-03    -28.9038E+06    -52.1808E+06    -243.153E+06    -52.1835E+06    -243.150E+06    -28.9038E+06     643.117E+03         24.1380
            1349     4.86767E-03     68.4869E-03     374.277E-03     357.295E-03        -1.34484     355.575E-03        -1.34111     372.273E-03     3.63589E-03     54.2474E-03    -27.0716E-03    -27.1755E-03    -26.8904E-03     54.0662E-03    -27.1755E-03     7.64853E-03    -18.5627E+06    -46.8539E+06    -223.241E+06    -46.8561E+06    -223.238E+06    -18.5627E+06     582.293E+03         24.2649
            1350     5.84134E-03     68.4954E-03     371.637E-03     351.652E-03        -1.33704     350.135E-03        -1.33278     368.893E-03    -11.7106E-03     54.1989E-03    -27.0408E-03    -27.1580E-03    -26.8130E-03     53.9711E-03    -27.1580E-03     8.58148E-03    -9.75672E+06    -41.6359E+06    -202.845E+06    -41.6378E+06    -202.843E+06    -9.75672E+06     511.882E+03         24.4223
            1351     6.81508E-03     68.5048E-03     368.331E-03     343.170E-03        -1.32913     343.061E-03        -1.32628     365.588E-03    -57.5938E-03     54.1914E-03    -27.0457E-03    -27.1455E-03    -26.7733E-03     53.9189E-03    -27.1455E-03     9.38478E-03    -2.52431E+06    -36.6822E+06    -185.103E+06    -36.6836E+06    -185.101E+06    -2.52431E+06     202.469E+03         24.6095
            1352     7.78883E-03     68.5149E-03     361.599E-03     325.858E-03        -1.30553     325.409E-03        -1.30508     361.599E-03     9.29440E-03     54.1453E-03    -27.0439E-03    -27.0985E-03    -26.7205E-03     53.8220E-03    -27.0985E-03     10.2171E-03     68.6952E+03    -32.4433E+06    -163.213E+06    -32.4448E+06    -163.211E+06     68.6952E+03     177.441E+03         24.8352
            1353     8.76262E-03     68.5261E-03     357.480E-03     326.559E-03        -1.30144     326.357E-03        -1.30124     357.480E-03    -31.0257E-03     54.0697E-03    -27.0326E-03    -27.0516E-03    -26.6532E-03     53.6845E-03    -27.0458E-03     11.1409E-03     1.23309E+06    -28.7591E+06    -138.670E+06    -28.7602E+06    -138.669E+06     1.23309E+06     312.964E+03         25.1095
            1354     9.73644E-03     68.5382E-03     354.506E-03     333.328E-03        -1.30431     332.724E-03        -1.30370     354.506E-03    -43.6511E-03     53.9896E-03    -26.9870E-03    -27.0211E-03    -26.5736E-03     53.5439E-03    -26.9888E-03     11.9793E-03     1.92970E+06    -25.6148E+06    -113.411E+06    -25.6164E+06    -113.409E+06     1.92970E+06     310.987E+03         25.4745
            1355     10.7103E-03     68.5510E-03     355.357E-03     328.188E-03        -1.29883     330.564E-03        -1.29811     352.267E-03    -11.8477E-03     53.9181E-03    -26.8999E-03    -27.0255E-03    -26.4991E-03     53.3917E-03    -26.8999E-03     12.9953E-03    -1.00729E+06    -23.2966E+06    -86.6578E+06    -23.2999E+06    -86.6545E+06    -1.00729E+06     364.421E+03         26.0544
            1356     11.6844E-03     68.5652E-03     354.495E-03     335.194E-03        -1.30499     338.823E-03        -1.30478     350.650E-03     7.71763E-03     53.9165E-03    -26.8126E-03    -27.1272E-03    -26.4215E-03     53.2108E-03    -26.8126E-03     14.9994E-03    -4.75478E+06    -21.7519E+06    -52.9680E+06    -21.7765E+06    -52.9434E+06    -4.75478E+06     330.230E+03         26.9789
            1357     12.6583E-03     68.5823E-03     364.786E-03     349.986E-03        -1.33232     364.131E-03        -1.33224     350.559E-03    -21.5097E-03     53.9877E-03    -26.7053E-03    -27.2874E-03    -26.2858E-03     52.9860E-03    -26.7053E-03     17.8670E-03     7.49035E+06    -16.7585E+06    -26.6576E+06    -20.6289E+06    -6.03543E+06    -9.26146E+06     225.332E+03         28.2803
            1358     13.6327E-03     68.6026E-03     385.838E-03     352.147E-03        -1.35357     385.794E-03        -1.35352     352.147E-03    -8.41730E-03     54.2378E-03    -26.5849E-03    -27.6283E-03    -26.0383E-03     52.6478E-03    -26.5849E-03     22.3968E-03     68.0488E+06    -7.73906E+06    -19.4965E+06    -19.4706E+06     68.0229E+06    -7.73906E+06     210.011E+03         29.9383
            1359     14.6070E-03     68.6294E-03     387.479E-03     354.307E-03        -1.35463     387.431E-03        -1.35458     354.307E-03    -2.96175E-03     53.7586E-03    -26.4892E-03    -27.2554E-03    -25.6154E-03     52.2079E-03    -26.5786E-03     21.9593E-03     150.238E+06     18.8127E+06    -17.5383E+06    -17.5327E+06     150.232E+06     18.8127E+06     357.080E+03         31.9372
            1360     15.5812E-03     68.6486E-03     386.356E-03     356.201E-03        -1.35439     385.970E-03        -1.35400     356.201E-03    -14.0472E-03     54.2982E-03    -26.6253E-03    -27.6878E-03    -25.2989E-03     51.9986E-03    -26.7147E-03     26.0876E-03     192.625E+06     64.6301E+06    -13.8934E+06    -13.8897E+06     192.621E+06     64.6301E+06     425.755E+03         34.3702
            1361     16.5570E-03     68.6842E-03     405.399E-03     358.378E-03        -1.37065     404.691E-03        -1.36994     358.378E-03    -12.4115E-03     53.7421E-03    -25.9271E-03    -27.9009E-03    -25.1428E-03     51.9846E-03    -26.9277E-03     17.6990E-03     201.691E+06     115.817E+06    -7.90460E+06    -7.90293E+06     201.689E+06     115.817E+06     262.116E+03         36.9799
            1362     973.520E-06     69.5199E-03         1.28928     33.6073E-03        -1.93354    -518.473E-03        -1.28105         1.18887    -447.054E-03     54.1456E-03    -27.0007E-03    -27.1455E-03    -27.1096E-03     54.1300E-03    -27.0209E-03     2.13586E-03    -63.4474E+06    -66.0166E+06    -265.658E+06    -65.8686E+06    -265.653E+06    -63.5998E+06     935.788E+03         23.9742
            1363     1.94702E-03     69.5231E-03     504.414E-03     341.799E-03        -1.45222     367.142E-03        -1.31495     341.799E-03     258.662E-03     54.1931E-03    -27.0650E-03    -27.1288E-03    -27.0472E-03     54.1509E-03    -27.1043E-03     3.62110E-03    -54.8087E+06    -62.7695E+06    -262.567E+06    -62.7718E+06    -262.564E+06    -54.8087E+06     640.181E+03         23.9987
            1364     2.92053E-03     69.5276E-03     424.145E-03     344.349E-03        -1.37768     374.900E-03        -1.33608     351.992E-03    -191.732E-03     54.2163E-03    -27.0789E-03    -27.1377E-03    -26.9952E-03     54.1325E-03    -27.1377E-03     5.15943E-03    -42.7769E+06    -58.2217E+06    -255.920E+06    -58.2245E+06    -255.917E+06    -42.7769E+06     666.566E+03         24.0483
            1365     3.89415E-03     69.5340E-03     364.183E-03     340.091E-03        -1.30761     342.315E-03        -1.29988     354.236E-03     136.200E-03     54.2507E-03    -27.0834E-03    -27.1663E-03    -26.9526E-03     54.1199E-03    -27.1663E-03     6.49376E-03    -29.3739E+06    -52.7338E+06    -243.368E+06    -52.7377E+06    -243.364E+06    -29.3739E+06     833.842E+03         24.1363
            1366     4.86769E-03     69.5413E-03     364.240E-03     341.607E-03        -1.30989     352.265E-03        -1.30888     352.574E-03     7.61161E-03     54.2354E-03    -27.0701E-03    -27.1660E-03    -26.8894E-03     54.0547E-03    -27.1660E-03     7.63616E-03    -18.4850E+06    -46.9013E+06    -223.278E+06    -46.9044E+06    -223.275E+06    -18.4850E+06     710.348E+03         24.2634
            1367     5.84142E-03     69.5499E-03     371.760E-03     348.993E-03        -1.32680     365.990E-03        -1.32550     353.458E-03    -4.13121E-03     54.1933E-03    -27.0460E-03    -27.1497E-03    -26.8176E-03     53.9649E-03    -27.1497E-03     8.59458E-03    -9.58607E+06    -41.2604E+06    -202.660E+06    -41.2625E+06    -202.658E+06    -9.58607E+06     540.627E+03         24.4208
            1368     6.81511E-03     69.5592E-03     360.274E-03     337.245E-03        -1.30289     343.018E-03        -1.30203     353.638E-03     1.68261E-03     54.1846E-03    -27.0441E-03    -27.1409E-03    -26.7736E-03     53.9140E-03    -27.1409E-03     9.35317E-03    -1.86525E+06    -36.2042E+06    -185.059E+06    -36.2061E+06    -185.057E+06    -1.86525E+06     509.295E+03         24.6076
            1369     7.78887E-03     69.5695E-03     350.727E-03     318.369E-03        -1.27260     317.940E-03        -1.27217     350.727E-03     27.6898E-03     54.1326E-03    -27.0342E-03    -27.0936E-03    -26.7138E-03     53.8122E-03    -27.0936E-03     10.1693E-03     599.114E+03    -32.0326E+06    -163.374E+06    -32.0345E+06    -163.372E+06     599.114E+03     470.747E+03         24.8331
            1370     8.76267E-03     69.5805E-03     346.832E-03     315.535E-03        -1.26624     315.417E-03        -1.26612     346.832E-03     1.20362E-03     54.0521E-03    -27.0236E-03    -27.0431E-03    -26.6456E-03     53.6682E-03    -27.0371E-03     11.1205E-03     1.20487E+06    -28.4434E+06    -138.628E+06    -28.4443E+06    -138.627E+06     1.20487E+06     280.555E+03         25.1082
            1371     9.73650E-03     69.5927E-03     344.118E-03     326.616E-03        -1.27580     326.445E-03        -1.27563     344.118E-03     17.4623E-03     53.9908E-03    -26.9812E-03    -27.0299E-03    -26.5861E-03     53.5470E-03    -26.9812E-03     11.9556E-03     1.83841E+06    -25.4190E+06    -113.609E+06    -25.4211E+06    -113.606E+06     1.83841E+06     363.608E+03         25.4750
            1372     10.7105E-03     69.6054E-03     346.975E-03     341.029E-03        -1.29256     344.101E-03        -1.29186     343.199E-03     51.1676E-03     53.9485E-03    -26.8970E-03    -27.0637E-03    -26.5423E-03     53.4271E-03    -26.8970E-03     12.9395E-03    -1.03524E+06    -23.1930E+06    -86.6791E+06    -23.1994E+06    -86.6727E+06    -1.03524E+06     536.538E+03         26.0568
            1373     11.6843E-03     69.6198E-03     352.253E-03     343.486E-03        -1.30097     351.373E-03        -1.30009     343.486E-03     15.7972E-03     53.9279E-03    -26.8132E-03    -27.1418E-03    -26.4455E-03     53.2316E-03    -26.8132E-03     14.9024E-03    -4.71520E+06    -21.7673E+06    -53.0234E+06    -21.7926E+06    -52.9981E+06    -4.71520E+06     582.771E+03         26.9831
            1374     12.6585E-03     69.6369E-03     359.960E-03     344.310E-03        -1.31246     359.678E-03        -1.31218     344.310E-03    -36.8530E-03     53.9939E-03    -26.7042E-03    -27.2955E-03    -26.3003E-03     52.9987E-03    -26.7042E-03     17.8072E-03     8.09306E+06    -17.1558E+06    -27.1998E+06    -20.9820E+06    -5.68839E+06    -9.59219E+06     272.328E+03         28.2860
            1375     13.6323E-03     69.6572E-03     372.734E-03     345.746E-03        -1.32561     372.688E-03        -1.32556     345.746E-03    -8.11238E-03     54.2026E-03    -26.5817E-03    -27.5973E-03    -26.0137E-03     52.6190E-03    -26.5817E-03     22.3452E-03     67.8790E+06    -8.67860E+06    -20.1164E+06    -20.0950E+06     67.8576E+06    -8.67860E+06    -206.397E+03         29.9450
            1376     14.6069E-03     69.6839E-03     380.682E-03     347.667E-03        -1.33104     380.643E-03        -1.33100     347.667E-03    -6.67501E-03     53.7296E-03    -26.5094E-03    -27.2059E-03    -25.5834E-03     52.1746E-03    -26.5769E-03     21.9980E-03     149.560E+06     18.5268E+06    -18.1238E+06    -18.1124E+06     149.548E+06     18.5268E+06     111.474E+03         31.9442
            1377     15.5821E-03     69.7032E-03     385.033E-03     349.685E-03        -1.33567     384.505E-03        -1.33514     349.685E-03    -49.6908E-03     54.3754E-03    -26.6500E-03    -27.7471E-03    -25.3892E-03     52.0850E-03    -26.7175E-03     26.1121E-03     192.974E+06     65.5091E+06    -14.0420E+06    -14.0379E+06     192.970E+06     65.5091E+06     478.650E+03         34.3780
            1378     16.5561E-03     69.7385E-03     380.162E-03     351.423E-03        -1.33088     379.013E-03        -1.32973     351.423E-03    -32.3173E-03     53.7478E-03    -25.8738E-03    -27.9614E-03    -25.1653E-03     52.0097E-03    -26.9318E-03     17.6325E-03     202.034E+06     116.188E+06    -7.68887E+06    -7.68738E+06     202.033E+06     116.188E+06     241.178E+03         36.9898
            1379     973.377E-06     70.5744E-03         1.27066    -211.160E-03        -1.66122    -500.483E-03        -1.35077         1.24953    -235.882E-03     54.2012E-03    -27.0098E-03    -27.1911E-03    -27.1319E-03     54.1855E-03    -27.0533E-03     2.11852E-03    -64.9504E+06    -66.9881E+06    -266.690E+06    -66.7260E+06    -266.685E+06    -65.2179E+06     526.977E+03         23.9740
            1380     1.94701E-03     70.5774E-03     400.690E-03     347.194E-03        -1.34374     313.069E-03        -1.27122     362.303E-03     81.2783E-03     54.1553E-03    -27.0444E-03    -27.1114E-03    -27.0017E-03     54.1126E-03    -27.1114E-03     3.64608E-03    -57.0585E+06    -64.1803E+06    -263.014E+06    -64.1842E+06    -263.010E+06    -57.0585E+06     853.603E+03         23.9980
            1381     2.92055E-03     70.5821E-03     362.342E-03     327.742E-03        -1.28542     315.931E-03        -1.25635     345.084E-03    -143.627E-03     54.1938E-03    -27.0638E-03    -27.1301E-03    -26.9801E-03     54.1101E-03    -27.1301E-03     5.15682E-03    -44.6681E+06    -59.8307E+06    -256.029E+06    -59.8325E+06    -256.027E+06    -44.6681E+06     583.272E+03         24.0471
            1382     3.89411E-03     70.5883E-03     336.742E-03     315.741E-03        -1.24632     309.584E-03        -1.24016     336.742E-03     141.597E-03     54.2147E-03    -27.0559E-03    -27.1573E-03    -26.9243E-03     54.0832E-03    -27.1573E-03     6.50634E-03    -30.8010E+06    -54.0881E+06    -243.752E+06    -54.0901E+06    -243.750E+06    -30.8010E+06     595.065E+03         24.1349
            1383     4.86783E-03     70.5958E-03     348.969E-03     330.636E-03        -1.27320     344.926E-03        -1.27282     334.295E-03    -13.7072E-03     54.2081E-03    -27.0532E-03    -27.1569E-03    -26.8729E-03     54.0278E-03    -27.1569E-03     7.62872E-03    -19.1977E+06    -48.0124E+06    -223.111E+06    -48.0143E+06    -223.109E+06    -19.1977E+06     535.420E+03         24.2624
            1384     5.84142E-03     70.6043E-03     361.060E-03     337.176E-03        -1.29326     360.750E-03        -1.29295     337.176E-03    -42.5148E-03     54.1873E-03    -27.0498E-03    -27.1410E-03    -26.8219E-03     53.9595E-03    -27.1410E-03     8.58118E-03    -10.3479E+06    -42.2974E+06    -202.699E+06    -42.2984E+06    -202.698E+06    -10.3479E+06     368.448E+03         24.4201
            1385     6.81515E-03     70.6138E-03     354.580E-03     330.110E-03        -1.27994     344.963E-03        -1.27959     339.376E-03     313.615E-06     54.1791E-03    -27.0460E-03    -27.1318E-03    -26.7751E-03     53.9082E-03    -27.1318E-03     9.35823E-03    -2.78534E+06    -36.9150E+06    -185.240E+06    -36.9166E+06    -185.238E+06    -2.78534E+06     424.196E+03         24.6066
            1386     7.78889E-03     70.6239E-03     346.073E-03     324.194E-03        -1.26336     330.946E-03        -1.26315     339.119E-03     18.8068E-03     54.1332E-03    -27.0392E-03    -27.0879E-03    -26.7201E-03     53.8141E-03    -27.0879E-03     10.1479E-03     443.611E+03    -31.9818E+06    -163.192E+06    -31.9834E+06    -163.190E+06     443.611E+03     426.704E+03         24.8316
            1387     8.76271E-03     70.6350E-03     340.610E-03     328.756E-03        -1.26379     331.108E-03        -1.26364     338.109E-03     113.174E-06     54.0561E-03    -27.0240E-03    -27.0474E-03    -26.6583E-03     53.6762E-03    -27.0331E-03     11.0651E-03     1.02929E+06    -28.1241E+06    -138.591E+06    -28.1251E+06    -138.590E+06     1.02929E+06     299.361E+03         25.1074
            1388     9.73660E-03     70.6471E-03     340.329E-03     332.708E-03        -1.26816     335.208E-03        -1.26785     337.518E-03     1.25550E-03     54.0068E-03    -26.9787E-03    -27.0478E-03    -26.6108E-03     53.5699E-03    -26.9787E-03     11.8656E-03     1.62436E+06    -25.0229E+06    -113.840E+06    -25.0241E+06    -113.839E+06     1.62436E+06     232.103E+03         25.4758
            1389     10.7103E-03     70.6600E-03     340.226E-03     336.249E-03        -1.27219     338.243E-03        -1.27132     337.365E-03     44.3474E-03     53.9749E-03    -26.8972E-03    -27.0887E-03    -26.5714E-03     53.4576E-03    -26.8972E-03     12.8910E-03    -1.12087E+06    -22.4982E+06    -87.1424E+06    -22.5057E+06    -87.1349E+06    -1.12087E+06     524.985E+03         26.0589
            1390     11.6843E-03     70.6743E-03     348.302E-03     337.721E-03        -1.28364     347.170E-03        -1.28250     337.721E-03     8.44431E-03     53.9568E-03    -26.8165E-03    -27.1681E-03    -26.4760E-03     53.2646E-03    -26.8165E-03     14.8670E-03    -4.46718E+06    -20.7796E+06    -53.1325E+06    -20.8147E+06    -53.0973E+06    -4.46718E+06     787.774E+03         26.9864
            1391     12.6582E-03     70.6913E-03     354.773E-03     338.627E-03        -1.29220     354.313E-03        -1.29174     338.627E-03    -45.5474E-03     53.9784E-03    -26.7082E-03    -27.2770E-03    -26.2850E-03     52.9864E-03    -26.7082E-03     17.7692E-03     8.88301E+06    -16.4967E+06    -26.2732E+06    -19.7377E+06    -4.98801E+06    -9.16113E+06     542.656E+03         28.2904
            1392     13.6326E-03     70.7119E-03     357.248E-03     339.736E-03        -1.29320     357.193E-03        -1.29315     339.736E-03    -16.9685E-03     54.1606E-03    -26.5850E-03    -27.5556E-03    -25.9875E-03     52.5924E-03    -26.5850E-03     22.2392E-03     68.2342E+06    -8.30434E+06    -19.2803E+06    -19.2654E+06     68.2193E+06    -8.30434E+06     2.75594E+03         29.9502
            1393     14.6071E-03     70.7379E-03     371.327E-03     341.229E-03        -1.30551     371.289E-03        -1.30548     341.229E-03    -8.04319E-03     53.7737E-03    -26.5384E-03    -27.2249E-03    -25.6327E-03     52.2272E-03    -26.5842E-03     21.9695E-03     149.163E+06     19.4392E+06    -17.9734E+06    -17.9583E+06     149.148E+06     19.4392E+06    -235.551E+03         31.9495
            1394     15.5813E-03     70.7581E-03     390.890E-03     343.579E-03        -1.32500     390.655E-03        -1.32476     343.579E-03    -22.0847E-03     54.3863E-03    -26.6777E-03    -27.7241E-03    -25.3967E-03     52.1047E-03    -26.7235E-03     26.0927E-03     192.599E+06     66.1119E+06    -13.8953E+06    -13.8871E+06     192.591E+06     66.1119E+06     175.976E+03         34.3839
            1395     16.5565E-03     70.7932E-03     401.304E-03     346.522E-03        -1.34373     399.540E-03        -1.34197     346.522E-03     48.7323E-03     53.6592E-03    -25.8345E-03    -27.9092E-03    -25.0887E-03     51.9368E-03    -26.9325E-03     17.6145E-03     202.191E+06     116.278E+06    -7.48926E+06    -7.48728E+06     202.189E+06     116.278E+06     384.367E+03         36.9979
            1396     973.466E-06     71.6287E-03         1.24075    -386.299E-03        -1.43872    -518.830E-03        -1.29516         1.22972     29.9601E-03     54.1832E-03    -26.9973E-03    -27.1855E-03    -27.1472E-03     54.1681E-03    -27.0205E-03     2.05967E-03    -66.0899E+06    -68.2099E+06    -267.576E+06    -68.0988E+06    -267.572E+06    -66.2049E+06    -90.0287E+03         23.9737
            1397     1.94697E-03     71.6318E-03     360.797E-03     318.365E-03        -1.26310     309.311E-03        -1.23951     346.253E-03     27.1455E-03     54.1646E-03    -27.0497E-03    -27.1148E-03    -27.0137E-03     54.1208E-03    -27.1070E-03     3.68255E-03    -57.7747E+06    -64.6663E+06    -263.529E+06    -64.6699E+06    -263.525E+06    -57.7747E+06     435.340E+03         23.9981
            1398     2.92054E-03     71.6365E-03     334.215E-03     304.400E-03        -1.22547     293.306E-03        -1.21086     330.698E-03    -97.4970E-03     54.1842E-03    -27.0543E-03    -27.1284E-03    -26.9703E-03     54.1002E-03    -27.1284E-03     5.17660E-03    -45.2200E+06    -60.2453E+06    -256.225E+06    -60.2472E+06    -256.223E+06    -45.2200E+06     601.578E+03         24.0469
            1399     3.89417E-03     71.6426E-03     337.420E-03     309.875E-03        -1.23114     319.980E-03        -1.22773     323.904E-03     117.960E-03     54.2203E-03    -27.0620E-03    -27.1548E-03    -26.9308E-03     54.0891E-03    -27.1548E-03     6.49469E-03    -31.5667E+06    -54.8813E+06    -243.639E+06    -54.8827E+06    -243.637E+06    -31.5667E+06     393.318E+03         24.1346
            1400     4.86773E-03     71.6502E-03     339.588E-03     304.684E-03        -1.22859     320.094E-03        -1.22748     323.064E-03     44.8478E-03     54.1998E-03    -27.0474E-03    -27.1538E-03    -26.8671E-03     54.0195E-03    -27.1538E-03     7.62975E-03    -20.1767E+06    -48.6887E+06    -222.899E+06    -48.6896E+06    -222.898E+06    -20.1767E+06     73.4363E+03         24.2624
            1401     5.84147E-03     71.6588E-03     329.517E-03     295.271E-03        -1.20991     303.305E-03        -1.20962     321.192E-03    -24.7744E-03     54.1728E-03    -27.0377E-03    -27.1377E-03    -26.8114E-03     53.9466E-03    -27.1377E-03     8.55014E-03    -10.9741E+06    -42.5680E+06    -202.922E+06    -42.5685E+06    -202.922E+06    -10.9741E+06    -33.8925E+03         24.4203
            1402     6.81517E-03     71.6682E-03     348.538E-03     312.881E-03        -1.24748     340.257E-03        -1.24725     320.933E-03    -23.6582E-03     54.1786E-03    -27.0491E-03    -27.1275E-03    -26.7790E-03     53.9085E-03    -27.1275E-03     9.34431E-03    -3.42304E+06    -37.1822E+06    -185.334E+06    -37.1825E+06    -185.334E+06    -3.42304E+06     37.9639E+03         24.6068
            1403     7.78890E-03     71.6785E-03     366.753E-03     324.764E-03        -1.27521     366.645E-03        -1.27510     324.764E-03    -2.11264E-03     54.1527E-03    -27.0535E-03    -27.0951E-03    -26.7444E-03     53.8358E-03    -27.0874E-03     10.1175E-03     22.6727E+03    -32.3713E+06    -163.057E+06     -32.372E+06    -163.056E+06     22.6727E+03    -29.5828E+03         24.8313
            1404     8.76264E-03     71.6895E-03     349.613E-03     327.444E-03        -1.25948     348.624E-03        -1.25942     328.370E-03    -2.04919E-03     54.0881E-03    -27.0341E-03    -27.0714E-03    -26.6914E-03     53.7101E-03    -27.0361E-03     11.0390E-03     856.396E+03    -28.0203E+06    -138.389E+06    -28.0235E+06    -138.385E+06     856.396E+03    -257.143E+03         25.1070
            1405     9.73637E-03     71.7017E-03     333.797E-03     328.611E-03        -1.24811     332.656E-03        -1.24789     329.538E-03    -28.8504E-03     54.0198E-03    -26.9818E-03    -27.0575E-03    -26.6197E-03     53.5820E-03    -26.9818E-03     11.8785E-03     1.37808E+06    -24.3292E+06    -114.040E+06    -24.3320E+06    -114.038E+06     1.37808E+06    -193.700E+03         25.4762
            1406     10.7103E-03     71.7145E-03     348.742E-03     330.403E-03        -1.26743     348.349E-03        -1.26704     330.403E-03     2.86765E-03     53.9689E-03    -26.8989E-03    -27.0782E-03    -26.5583E-03     53.4490E-03    -26.8989E-03     12.9209E-03    -1.26887E+06    -21.5806E+06    -87.8320E+06    -21.5832E+06    -87.8294E+06    -1.26887E+06     225.202E+03         26.0604
            1407     11.6842E-03     71.7289E-03     361.216E-03     332.314E-03        -1.28163     360.741E-03        -1.28116     332.314E-03     1.81334E-03     53.9612E-03    -26.8175E-03    -27.1706E-03    -26.4730E-03     53.2636E-03    -26.8175E-03     14.9254E-03    -4.27498E+06    -19.4154E+06    -53.1832E+06    -19.4453E+06    -53.1534E+06    -4.27498E+06     592.143E+03         26.9889
            1408     12.6582E-03     71.7459E-03     350.740E-03     334.058E-03        -1.27185     350.379E-03        -1.27149     334.058E-03    -11.2800E-03     53.9759E-03    -26.7119E-03    -27.2729E-03    -26.2830E-03     52.9860E-03    -26.7119E-03     17.7566E-03     8.76283E+06    -15.4980E+06    -25.3700E+06    -18.3714E+06    -4.99121E+06    -8.74255E+06     807.822E+03         28.2938
            1409     13.6324E-03     71.7660E-03     350.356E-03     335.158E-03        -1.26939     350.182E-03        -1.26921     335.158E-03     13.3622E-03     54.2093E-03    -26.5905E-03    -27.6008E-03    -26.0298E-03     52.6382E-03    -26.5905E-03     22.2617E-03     69.0302E+06    -7.40601E+06    -17.9197E+06    -17.8841E+06     68.9946E+06    -7.40601E+06     534.378E+03         29.9543
            1410     14.6067E-03     71.7927E-03     378.258E-03     337.007E-03        -1.29524     378.184E-03        -1.29516     337.007E-03     8.72167E-03     53.8183E-03    -26.5365E-03    -27.2734E-03    -25.6673E-03     52.2539E-03    -26.5782E-03     22.1160E-03     149.421E+06     17.8176E+06    -16.6310E+06    -16.6212E+06     149.412E+06     17.8176E+06    -31.3595E+03         31.9539
            1411     15.5815E-03     71.8127E-03     403.393E-03     340.304E-03        -1.32191     403.366E-03        -1.32188     340.304E-03     4.29021E-03     54.2954E-03    -26.6693E-03    -27.6402E-03    -25.2931E-03     51.9900E-03    -26.7110E-03     26.2041E-03     191.485E+06     62.8646E+06    -13.7262E+06    -13.7184E+06     191.477E+06     62.8646E+06     234.318E+03         34.3891
            1412     16.5565E-03     71.8473E-03     423.648E-03     344.533E-03        -1.35237     422.415E-03        -1.35113     344.533E-03     25.5193E-03     53.6570E-03    -25.9185E-03    -27.8330E-03    -25.0870E-03     51.9204E-03    -26.9279E-03     17.6651E-03     202.400E+06     115.580E+06    -7.97166E+06    -7.96973E+06     202.399E+06     115.580E+06     464.906E+03         37.0053
            1413     973.561E-06     72.6833E-03         1.21709    -384.988E-03        -1.39949    -547.988E-03        -1.22546         1.20607     319.722E-03     54.1465E-03    -26.9939E-03    -27.1524E-03    -27.1375E-03     54.1316E-03    -26.9939E-03     2.07756E-03    -65.1471E+06    -67.6609E+06    -267.603E+06    -67.6625E+06    -267.601E+06    -65.1472E+06     79.6553E+03         23.9744
            1414     1.94698E-03     72.6862E-03     330.281E-03     278.860E-03        -1.17825     279.848E-03        -1.16822     319.255E-03     7.10832E-03     54.1915E-03    -27.0771E-03    -27.1145E-03    -27.0474E-03     54.1485E-03    -27.1012E-03     3.64304E-03    -57.1477E+06    -64.8301E+06    -264.286E+06    -64.8319E+06    -264.284E+06    -57.1477E+06     161.687E+03         23.9986
            1415     2.92057E-03     72.6909E-03     321.551E-03     290.843E-03        -1.18752     300.185E-03        -1.18328     307.974E-03    -116.959E-03     54.2045E-03    -27.0720E-03    -27.1320E-03    -26.9879E-03     54.1204E-03    -27.1320E-03     5.17844E-03    -45.2723E+06    -60.4501E+06    -256.702E+06    -60.4524E+06    -256.700E+06    -45.2723E+06     658.131E+03         24.0473
            1416     3.89408E-03     72.6971E-03     345.590E-03     305.959E-03        -1.22420     335.612E-03        -1.21804     309.778E-03     24.6074E-03     54.2344E-03    -27.0746E-03    -27.1569E-03    -26.9435E-03     54.1034E-03    -27.1569E-03     6.49384E-03    -32.1562E+06    -54.9497E+06    -242.876E+06    -54.9512E+06    -242.874E+06    -32.1562E+06     173.582E+03         24.1350
            1417     4.86774E-03     72.7047E-03     335.199E-03     294.442E-03        -1.20393     313.655E-03        -1.20091     312.964E-03     80.9299E-03     54.2072E-03    -27.0523E-03    -27.1557E-03    -26.8716E-03     54.0266E-03    -27.1557E-03     7.63593E-03    -21.1204E+06    -48.9501E+06    -222.558E+06    -48.9527E+06    -222.555E+06    -21.1204E+06    -545.651E+03         24.2627
            1418     5.84140E-03     72.7132E-03     310.610E-03     282.834E-03        -1.16855     282.566E-03        -1.16828     310.610E-03    -7.25829E-03     54.1819E-03    -27.0424E-03    -27.1408E-03    -26.8162E-03     53.9557E-03    -27.1408E-03     8.55185E-03    -11.7206E+06    -42.9305E+06    -203.041E+06    -42.9344E+06    -203.037E+06    -11.7206E+06    -684.278E+03         24.4208
            1419     6.81511E-03     72.7227E-03     325.203E-03     299.458E-03        -1.19835     315.687E-03        -1.19808     308.712E-03     6.40266E-03     54.1949E-03    -27.0605E-03    -27.1321E-03    -26.7920E-03     53.9265E-03    -27.1321E-03     9.31833E-03    -3.82117E+06    -37.2242E+06    -185.355E+06    -37.2266E+06    -185.353E+06    -3.82117E+06    -477.534E+03         24.6074
            1420     7.78883E-03     72.7330E-03     362.743E-03     312.273E-03        -1.24842     362.446E-03        -1.24812     312.273E-03     16.8273E-03     54.1580E-03    -27.0547E-03    -27.0995E-03    -26.7454E-03     53.8410E-03    -27.0918E-03     10.1190E-03    -358.484E+03    -32.0549E+06    -162.700E+06    -32.0644E+06    -162.691E+06    -358.484E+03    -804.526E+03         24.8313
            1421     8.76256E-03     72.7442E-03     368.609E-03     317.123E-03        -1.26043     367.382E-03        -1.26013     318.049E-03     35.7356E-03     54.0908E-03    -27.0347E-03    -27.0733E-03    -26.6857E-03     53.7101E-03    -27.0416E-03     11.0786E-03     693.653E+03    -27.7061E+06    -138.187E+06    -27.7202E+06    -138.173E+06     693.653E+03    -1.13031E+06         25.1064
            1422     9.73645E-03     72.7563E-03     345.712E-03     320.906E-03        -1.24133     344.445E-03        -1.24099     321.832E-03     3.64025E-03     54.0265E-03    -26.9869E-03    -27.0602E-03    -26.6207E-03     53.5870E-03    -26.9869E-03     11.9041E-03     1.08264E+06    -24.2515E+06    -114.497E+06    -24.2607E+06    -114.488E+06     1.08264E+06    -796.870E+03         25.4757
            1423     10.7103E-03     72.7691E-03     351.948E-03     324.149E-03        -1.25186     351.640E-03        -1.25155     324.149E-03     5.44138E-03     53.9654E-03    -26.9041E-03    -27.0720E-03    -26.5516E-03     53.4450E-03    -26.9041E-03     12.9250E-03    -1.35942E+06    -21.2020E+06    -88.1459E+06    -21.2136E+06    -88.1343E+06    -1.35942E+06    -534.526E+03         26.0609
            1424     11.6842E-03     72.7834E-03     369.006E-03     327.060E-03        -1.27174     368.543E-03        -1.27128     327.060E-03    -647.994E-06     53.9195E-03    -26.8204E-03    -27.1272E-03    -26.4289E-03     53.2212E-03    -26.8204E-03     14.9248E-03    -4.39780E+06    -18.8202E+06    -53.8992E+06    -18.8329E+06    -53.8864E+06    -4.39780E+06    -59.8964E+03         26.9907
            1425     12.6583E-03     72.8005E-03     368.218E-03     330.164E-03        -1.27307     367.834E-03        -1.27268     330.164E-03    -7.79376E-03     53.9863E-03    -26.7122E-03    -27.2809E-03    -26.2922E-03     52.9976E-03    -26.7122E-03     17.7505E-03     8.76370E+06    -14.4396E+06     -25.055E+06    -17.0746E+06    -5.39220E+06    -8.26411E+06     497.513E+03         28.2966
            1426     13.6326E-03     72.8205E-03     370.372E-03     332.897E-03        -1.27491     370.217E-03        -1.27476     332.897E-03     24.3594E-03     54.2731E-03    -26.5921E-03    -27.6570E-03    -26.0729E-03     52.6890E-03    -26.5921E-03     22.3569E-03     69.4118E+06    -6.38698E+06    -16.0069E+06    -15.9545E+06     69.3595E+06    -6.38698E+06     797.364E+03         29.9578
            1427     14.6069E-03     72.8474E-03     383.390E-03     335.804E-03        -1.28589     383.345E-03        -1.28585     335.804E-03     13.1763E-03     53.7578E-03    -26.4789E-03    -27.2664E-03    -25.5969E-03     52.1913E-03    -26.5819E-03     22.0913E-03     149.068E+06     18.5649E+06    -15.6501E+06    -15.6230E+06     149.041E+06     18.5649E+06     1.46775E+06         31.9581
            1428     15.5816E-03     72.8668E-03     391.939E-03     339.032E-03        -1.29533     391.926E-03        -1.29532     339.032E-03     7.65607E-03     54.2732E-03    -26.6137E-03    -27.6911E-03    -25.2954E-03     51.9804E-03    -26.7166E-03     26.1095E-03     191.636E+06     64.0139E+06    -13.7718E+06    -13.7605E+06     191.624E+06     64.0139E+06     1.19581E+06         34.3944
            1429     16.5567E-03     72.9021E-03     394.468E-03     342.190E-03        -1.30312     394.215E-03        -1.30287     342.190E-03    -27.0920E-03     53.7492E-03    -25.9667E-03    -27.9064E-03    -25.2047E-03     52.0126E-03    -26.9319E-03     17.7036E-03     203.021E+06     115.866E+06    -8.11471E+06    -8.11390E+06     203.021E+06     115.866E+06     206.253E+03         37.0122
            1430     973.494E-06     73.7377E-03         1.15893    -212.025E-03        -1.50815    -600.689E-03        -1.10044         1.13989     461.030E-03     54.1593E-03    -27.0192E-03    -27.1393E-03    -27.1130E-03     54.1447E-03    -27.0309E-03     2.04996E-03    -65.6298E+06    -68.0895E+06    -267.944E+06    -67.8968E+06    -267.942E+06    -65.8241E+06     443.447E+03         23.9751
            1431     1.94703E-03     73.7406E-03     331.061E-03     246.055E-03        -1.14269     290.558E-03        -1.12980     273.670E-03    -125.495E-03     54.2082E-03    -27.0887E-03    -27.1190E-03    -27.0521E-03     54.1662E-03    -27.1135E-03     3.60278E-03    -56.2516E+06    -64.9733E+06    -264.894E+06    -64.9757E+06    -264.891E+06    -56.2516E+06     608.803E+03         23.9991
            1432     2.92047E-03     73.7453E-03     336.871E-03     282.702E-03        -1.18694     328.023E-03        -1.18034     284.948E-03    -75.8530E-03     54.2401E-03    -27.0941E-03    -27.1454E-03    -27.0102E-03     54.1561E-03    -27.1454E-03     5.16909E-03    -44.2616E+06    -60.2654E+06    -257.046E+06    -60.2678E+06    -257.044E+06    -44.2616E+06     646.004E+03         24.0477
            1433     3.89410E-03     73.7515E-03     314.364E-03     279.716E-03        -1.15880     292.393E-03        -1.14918     292.067E-03     13.2483E-03     54.2421E-03    -27.0759E-03    -27.1626E-03    -26.9442E-03     54.1105E-03    -27.1626E-03     6.51080E-03    -32.6355E+06    -54.7782E+06    -241.898E+06    -54.7792E+06    -241.897E+06    -32.6355E+06    -20.3674E+03         24.1357
            1434     4.86767E-03     73.7590E-03     320.667E-03     281.503E-03        -1.16472     301.298E-03        -1.15664     292.793E-03     41.6654E-03     54.2209E-03    -27.0602E-03    -27.1604E-03    -26.8794E-03     54.0400E-03    -27.1604E-03     7.64088E-03    -21.8977E+06    -49.2513E+06    -221.852E+06    -49.2557E+06    -221.848E+06    -21.8977E+06    -788.345E+03         24.2635
            1435     5.84137E-03     73.7677E-03     343.744E-03     295.110E-03        -1.20008     338.954E-03        -1.19715     296.964E-03    -90.3574E-03     54.2035E-03    -27.0592E-03    -27.1461E-03    -26.8305E-03     53.9748E-03    -27.1461E-03     8.59951E-03    -12.8065E+06    -43.8207E+06    -202.889E+06    -43.8303E+06    -202.879E+06    -12.8065E+06    -1.21409E+06         24.4216
            1436     6.81501E-03     73.7772E-03     334.403E-03     301.318E-03        -1.19407     332.802E-03        -1.19368     302.519E-03    -4.67501E-03     54.2114E-03    -27.0714E-03    -27.1368E-03    -26.7997E-03     53.9397E-03    -27.1368E-03     9.37631E-03    -5.11546E+06    -37.9303E+06    -185.002E+06    -37.9570E+06    -184.976E+06    -5.11546E+06    -1.64046E+06         24.6079
            1437     7.78874E-03     73.7875E-03     324.885E-03     298.403E-03        -1.18419     317.615E-03        -1.18391     305.391E-03     9.99407E-03     54.1572E-03    -27.0571E-03    -27.0962E-03    -26.7384E-03     53.8384E-03    -27.0962E-03     10.1463E-03    -1.32414E+06    -32.3768E+06    -162.260E+06    -32.4115E+06    -162.226E+06    -1.32414E+06    -1.89089E+06         24.8312
            1438     8.76259E-03     73.7986E-03     362.238E-03     301.662E-03        -1.22948     354.916E-03        -1.22915     308.650E-03     17.5462E-03     54.0847E-03    -27.0394E-03    -27.0630E-03    -26.6745E-03     53.7052E-03    -27.0483E-03     11.0600E-03     215.169E+03    -28.3115E+06    -138.423E+06    -28.3346E+06    -138.400E+06     215.169E+03    -1.56729E+06         25.1056
            1439     9.73631E-03     73.8108E-03     385.127E-03     314.628E-03        -1.26540     384.710E-03        -1.26498     314.628E-03    -9.48799E-03     54.0231E-03    -26.9936E-03    -27.0505E-03    -26.6135E-03     53.5861E-03    -26.9936E-03     11.8677E-03     709.761E+03    -25.1254E+06    -114.657E+06    -25.1472E+06    -114.635E+06     709.761E+03    -1.35373E+06         25.4748
            1440     10.7102E-03     73.8236E-03     361.801E-03     319.936E-03        -1.24607     361.185E-03        -1.24546     319.936E-03     14.2134E-03     53.9511E-03    -26.9097E-03    -27.0547E-03    -26.5361E-03     53.4325E-03    -26.9097E-03     12.9004E-03    -1.99054E+06    -22.4950E+06    -88.1611E+06    -22.5238E+06    -88.1323E+06    -1.99054E+06    -1.34219E+06         26.0609
            1441     11.6842E-03     73.8379E-03     352.549E-03     322.965E-03        -1.23652     351.798E-03        -1.23576     322.965E-03     7.82985E-03     53.9046E-03    -26.8281E-03    -27.1068E-03    -26.4163E-03     53.2141E-03    -26.8281E-03     14.8426E-03    -4.94053E+06     -20.368E+06    -55.0468E+06    -20.4110E+06    -55.0037E+06    -4.94053E+06    -813.024E+03         26.9920
            1442     12.6583E-03     73.8548E-03     379.650E-03     326.156E-03        -1.26507     379.323E-03        -1.26475     326.156E-03    -20.7935E-03     53.9654E-03    -26.7165E-03    -27.2563E-03    -26.2689E-03     52.9781E-03    -26.7165E-03     17.7234E-03     8.99548E+06    -15.6362E+06    -27.8070E+06    -19.2993E+06    -6.23702E+06    -8.91138E+06     257.721E+03         28.2989
            1443     13.6323E-03     73.8753E-03     398.041E-03     330.539E-03        -1.28660     397.862E-03        -1.28642     330.539E-03    -7.39080E-03     54.2286E-03    -26.6105E-03    -27.5908E-03    -26.0168E-03     52.6546E-03    -26.6105E-03     22.2884E-03     68.6452E+06    -4.54323E+06    -19.3955E+06    -19.3334E+06     68.5831E+06    -4.54323E+06     1.49696E+06         29.9609
            1444     14.6069E-03     73.9017E-03     391.183E-03     334.763E-03        -1.28109     391.026E-03        -1.28094     334.763E-03    -14.1394E-03     53.7207E-03    -26.5074E-03    -27.2013E-03    -25.5857E-03     52.1826E-03    -26.5849E-03     21.8758E-03     148.529E+06     22.4140E+06    -17.6970E+06    -17.6658E+06     148.498E+06     22.4140E+06     2.13830E+06         31.9619
            1445     15.5817E-03     73.9214E-03     383.771E-03     338.031E-03        -1.27389     383.739E-03        -1.27386     338.031E-03    -3.70931E-03     54.3199E-03    -26.6259E-03    -27.7145E-03    -25.3467E-03     52.0296E-03    -26.7034E-03     26.0688E-03     192.778E+06     66.4061E+06    -13.0094E+06    -12.9958E+06     192.764E+06     66.4061E+06     1.48283E+06         34.3992
            1446     16.5562E-03     73.9568E-03     366.196E-03     339.609E-03        -1.25561     364.428E-03        -1.25439     340.153E-03     21.7547E-03     53.7433E-03    -25.8948E-03    -27.9458E-03    -25.1592E-03     51.9966E-03    -26.9347E-03     17.7287E-03     203.637E+06     116.564E+06    -6.85269E+06    -6.85020E+06     203.634E+06     116.564E+06     534.497E+03         37.0187
            1447     973.431E-06     74.7920E-03         1.12485    -17.0419E-03        -1.66562    -603.589E-03        -1.01410         1.05988     650.048E-03     54.2135E-03    -27.0682E-03    -27.1449E-03    -27.1062E-03     54.1990E-03    -27.0923E-03     1.99914E-03    -67.4319E+06    -69.7274E+06    -269.054E+06    -69.5361E+06    -269.051E+06    -67.6262E+06     204.155E+03         23.9747
            1448     1.94695E-03     74.7951E-03     368.072E-03     250.303E-03        -1.17718     338.651E-03        -1.14776     250.303E-03    -152.572E-03     54.2082E-03    -27.0797E-03    -27.1281E-03    -27.0374E-03     54.1659E-03    -27.1281E-03     3.62606E-03    -58.4048E+06    -66.4218E+06    -265.429E+06    -66.4247E+06    -265.426E+06    -58.4048E+06     717.646E+03         23.9993
            1449     2.92049E-03     74.7998E-03     330.433E-03     262.186E-03        -1.15065     308.963E-03        -1.14464     277.638E-03     46.6534E-03     54.2393E-03    -27.0879E-03    -27.1504E-03    -27.0038E-03     54.1553E-03    -27.1504E-03     5.16974E-03    -45.9228E+06    -61.5612E+06    -256.844E+06    -61.5627E+06    -256.842E+06    -45.9228E+06     453.852E+03         24.0484
            1450     3.89400E-03     74.8060E-03     279.850E-03     252.441E-03        -1.08530     244.211E-03        -1.07575     278.530E-03     74.1992E-03     54.2544E-03    -27.0804E-03    -27.1685E-03    -26.9481E-03     54.1221E-03    -27.1685E-03     6.52760E-03    -33.5398E+06    -55.7306E+06    -240.967E+06    -55.7327E+06    -240.965E+06    -33.5398E+06    -243.861E+03         24.1369
            1451     4.86764E-03     74.8136E-03     311.462E-03     264.958E-03        -1.12681     289.792E-03        -1.11578     275.595E-03     47.8470E-03     54.2389E-03    -27.0713E-03    -27.1665E-03    -26.8898E-03     54.0574E-03    -27.1665E-03     7.65667E-03    -22.7451E+06    -49.6958E+06    -220.917E+06    -49.7047E+06    -220.908E+06    -22.7451E+06    -1.11202E+06         24.2650
            1452     5.84127E-03     74.8221E-03     358.300E-03     282.898E-03        -1.19047     354.347E-03        -1.18651     282.898E-03    -84.1803E-03     54.2134E-03    -27.0648E-03    -27.1517E-03    -26.8351E-03     53.9837E-03    -27.1517E-03     8.61828E-03    -13.4966E+06    -43.7542E+06    -202.168E+06    -43.7761E+06    -202.146E+06    -13.4966E+06    -1.77897E+06         24.4230
            1453     6.81498E-03     74.8318E-03     353.176E-03     292.999E-03        -1.19501     352.402E-03        -1.19423     292.999E-03    -4.11782E-03     54.2068E-03    -27.0655E-03    -27.1394E-03    -26.7922E-03     53.9335E-03    -27.1394E-03     9.40322E-03    -6.21675E+06    -38.5379E+06    -184.111E+06    -38.5851E+06    -184.064E+06    -6.21675E+06    -2.51952E+06         24.6087
            1454     7.78871E-03     74.8420E-03     329.309E-03     291.629E-03        -1.17147     322.211E-03        -1.17136     298.618E-03    -17.5860E-03     54.1729E-03    -27.0652E-03    -27.1063E-03    -26.7521E-03     53.8532E-03    -27.0997E-03     10.1645E-03    -2.80435E+06    -34.0803E+06    -162.241E+06    -34.1359E+06    -162.185E+06    -2.80435E+06    -2.60787E+06         24.8311
            1455     8.76238E-03     74.8532E-03     341.399E-03     294.841E-03        -1.19044     334.333E-03        -1.19036     301.830E-03    -14.5538E-03     54.0889E-03    -27.0452E-03    -27.0645E-03    -26.6765E-03     53.7094E-03    -27.0538E-03     11.0605E-03    -1.06809E+06    -29.9070E+06    -138.835E+06    -29.9478E+06    -138.794E+06    -1.06809E+06    -2.05339E+06         25.1047
            1456     9.73628E-03     74.8653E-03     380.758E-03     307.238E-03        -1.24179     380.587E-03        -1.24162     307.238E-03    -24.4192E-03     53.9921E-03    -26.9908E-03    -27.0244E-03    -26.5804E-03     53.5545E-03    -26.9972E-03     11.8721E-03    -402.148E+03    -26.2978E+06    -114.484E+06    -26.3418E+06    -114.440E+06    -402.148E+03    -1.91975E+06         25.4738
            1457     10.7102E-03     74.8781E-03     391.055E-03     314.292E-03        -1.25674     390.635E-03        -1.25632     314.292E-03     13.3830E-03     53.9393E-03    -26.9090E-03    -27.0439E-03    -26.5250E-03     53.4204E-03    -26.9090E-03     12.9031E-03    -3.52390E+06    -23.9293E+06    -88.7469E+06    -23.9651E+06    -88.7111E+06    -3.52390E+06    -1.39828E+06         26.0607
            1458     11.6841E-03     74.8924E-03     373.343E-03     319.907E-03        -1.24063     372.924E-03        -1.24021     319.907E-03     5.75968E-03     53.9073E-03    -26.8258E-03    -27.1131E-03    -26.4224E-03     53.2167E-03    -26.8258E-03     14.8437E-03    -6.76838E+06    -22.7326E+06    -55.3617E+06    -22.7920E+06    -55.3022E+06    -6.76838E+06    -971.683E+03         26.9929
            1459     12.6581E-03     74.9094E-03     374.188E-03     324.017E-03        -1.24344     374.045E-03        -1.24330     324.017E-03    -13.5638E-03     53.9503E-03    -26.7139E-03    -27.2492E-03    -26.2558E-03     52.9569E-03    -26.7139E-03     17.7706E-03     5.96859E+06    -19.3354E+06    -28.2214E+06    -21.4880E+06    -8.22360E+06    -11.8767E+06     46.1734E+03         28.3007
            1460     13.6325E-03     74.9297E-03     392.180E-03     328.199E-03        -1.26766     391.978E-03        -1.26746     328.199E-03    -3.13987E-03     54.1981E-03    -26.6073E-03    -27.5686E-03    -25.9957E-03     52.6251E-03    -26.6073E-03     22.2850E-03     67.2020E+06    -6.74171E+06    -19.7579E+06    -19.6977E+06     67.1418E+06    -6.74171E+06     1.76088E+06         29.9634
            1461     14.6068E-03     74.9563E-03     401.191E-03     332.716E-03        -1.27956     400.978E-03        -1.27934     332.716E-03    -1.79246E-03     53.7377E-03    -26.5407E-03    -27.1851E-03    -25.6290E-03     52.1978E-03    -26.5570E-03     21.9098E-03     149.370E+06     20.5675E+06    -17.2781E+06    -17.2511E+06     149.343E+06     20.5675E+06     1.26310E+06         31.9651
            1462     15.5813E-03     74.9759E-03     390.937E-03     336.647E-03        -1.27368     390.856E-03        -1.27360     336.647E-03    -5.23277E-03     54.3088E-03    -26.6551E-03    -27.6592E-03    -25.3378E-03     52.0037E-03    -26.6714E-03     26.1582E-03     192.746E+06     62.8761E+06    -13.1697E+06    -13.1576E+06     192.734E+06     62.8761E+06     928.528E+03         34.4034
            1463     16.5565E-03     75.0114E-03     379.302E-03     338.877E-03        -1.26650     377.058E-03        -1.26480     339.421E-03     59.3757E-03     53.6623E-03    -25.8465E-03    -27.8899E-03    -25.0547E-03     51.9093E-03    -26.9286E-03     17.7191E-03     204.248E+06     115.096E+06    -7.34031E+06    -7.33122E+06     204.239E+06     115.096E+06     1.26104E+06         37.0248
            1464     973.420E-06     75.8464E-03         1.14368     77.0306E-03        -1.77159    -549.479E-03        -1.09358         1.09219     714.846E-03     54.2532E-03    -27.0540E-03    -27.1995E-03    -27.1724E-03     54.2385E-03    -27.0664E-03     2.00894E-03    -67.8724E+06    -69.9631E+06    -269.675E+06    -69.9446E+06    -269.672E+06    -67.8932E+06    -28.3465E+03         23.9744
            1465     1.94690E-03     75.8495E-03     334.862E-03     253.124E-03        -1.13362     258.348E-03        -1.07290     268.914E-03    -243.065E-03     54.2384E-03    -27.0930E-03    -27.1450E-03    -27.0523E-03     54.1959E-03    -27.1431E-03     3.63797E-03    -59.4482E+06    -66.6854E+06    -266.174E+06    -66.6872E+06    -266.172E+06    -59.4482E+06     465.987E+03         23.9995
            1466     2.92043E-03     75.8542E-03     294.712E-03     234.693E-03        -1.07038     252.459E-03        -1.05766     264.223E-03     33.6594E-03     54.2395E-03    -27.0816E-03    -27.1565E-03    -26.9969E-03     54.1547E-03    -27.1565E-03     5.18994E-03    -47.5136E+06    -62.1027E+06    -256.128E+06    -62.1052E+06    -256.126E+06    -47.5136E+06     3.12281E+03         24.0492
            1467     3.89401E-03     75.8606E-03     318.157E-03     251.829E-03        -1.10627     292.983E-03        -1.09483     265.568E-03     31.7414E-03     54.2741E-03    -27.0943E-03    -27.1745E-03    -26.9613E-03     54.1411E-03    -27.1745E-03     6.54971E-03    -34.5893E+06    -56.2468E+06    -239.873E+06    -56.2563E+06    -239.864E+06    -34.5893E+06    -1.02261E+06         24.1385
            1468     4.86756E-03     75.8680E-03     333.774E-03     274.048E-03        -1.14421     324.733E-03        -1.13517     274.048E-03     56.8941E-03     54.2614E-03    -27.0869E-03    -27.1740E-03    -26.9045E-03     54.0790E-03    -27.1740E-03     7.67543E-03    -23.5726E+06    -49.9242E+06    -219.767E+06    -49.9488E+06    -219.742E+06    -23.5726E+06    -1.93247E+06         24.2669
            1469     5.84121E-03     75.8769E-03     318.173E-03     280.288E-03        -1.13716     312.973E-03        -1.13344     281.769E-03    -18.2439E-03     54.2268E-03    -27.0705E-03    -27.1600E-03    -26.8408E-03     53.9972E-03    -27.1600E-03     8.62022E-03    -14.0502E+06    -43.9211E+06    -201.050E+06    -43.9668E+06    -201.004E+06    -14.0502E+06    -2.61582E+06         24.4246
            1470     6.81489E-03     75.8863E-03     325.177E-03     285.436E-03        -1.15129     322.224E-03        -1.14982     286.916E-03     65.0233E-03     54.2115E-03    -27.0636E-03    -27.1486E-03    -26.7915E-03     53.9394E-03    -27.1486E-03     9.38215E-03    -6.32879E+06    -38.5184E+06    -183.489E+06    -38.5738E+06    -183.433E+06    -6.32879E+06    -2.82030E+06         24.6096
            1471     7.78862E-03     75.8966E-03     349.467E-03     292.943E-03        -1.18519     349.241E-03        -1.18497     292.943E-03     20.6577E-03     54.1620E-03    -27.0489E-03    -27.1117E-03    -26.7346E-03     53.8411E-03    -27.1051E-03     10.1805E-03    -3.26438E+06    -33.8485E+06    -162.066E+06    -33.9170E+06    -161.997E+06    -3.26438E+06    -2.92570E+06         24.8307
            1472     8.76239E-03     75.9077E-03     343.396E-03     298.904E-03        -1.18356     343.176E-03        -1.18334     298.904E-03     3.70081E-03     54.0784E-03    -27.0315E-03    -27.0663E-03    -26.6612E-03     53.6963E-03    -27.0545E-03     11.0972E-03    -2.10182E+06    -29.7808E+06    -138.963E+06    -29.8625E+06    -138.881E+06    -2.10182E+06    -2.94479E+06         25.1035
            1473     9.73621E-03     75.9199E-03     343.621E-03     303.360E-03        -1.18333     343.526E-03        -1.18323     303.360E-03    -17.8597E-03     53.9954E-03    -26.9898E-03    -27.0287E-03    -26.5824E-03     53.5555E-03    -26.9962E-03     11.9019E-03    -1.47286E+06    -26.3760E+06    -114.620E+06    -26.4456E+06    -114.550E+06    -1.47286E+06    -2.43519E+06         25.4729
            1474     10.7101E-03     75.9326E-03     389.892E-03     309.000E-03        -1.23183     389.511E-03        -1.23145     309.000E-03     25.3134E-03     53.9255E-03    -26.9064E-03    -27.0291E-03    -26.5085E-03     53.4049E-03    -26.9064E-03     12.9222E-03    -4.54997E+06    -23.4983E+06    -89.7570E+06    -23.5590E+06    -89.6962E+06    -4.54997E+06    -1.79298E+06         26.0606
            1475     11.6841E-03     75.9470E-03     412.826E-03     316.605E-03        -1.26051     412.378E-03        -1.26006     316.605E-03     12.3636E-03     53.9005E-03    -26.8181E-03    -27.1104E-03    -26.4139E-03     53.2040E-03    -26.8181E-03     14.9025E-03    -7.82660E+06    -21.3471E+06    -55.6089E+06    -21.4081E+06    -55.5479E+06    -7.82660E+06    -910.549E+03         26.9937
            1476     12.6582E-03     75.9638E-03     394.836E-03     323.314E-03        -1.24974     394.730E-03        -1.24964     323.314E-03    -20.3148E-03     53.9856E-03    -26.7080E-03    -27.2874E-03    -26.2904E-03     52.9886E-03    -26.7080E-03     17.8180E-03     3.17286E+06    -19.1243E+06    -26.9654E+06    -20.4706E+06    -9.38111E+06    -13.0651E+06    -350.791E+03         28.3022
            1477     13.6322E-03     75.9843E-03     382.312E-03     328.006E-03        -1.24627     382.239E-03        -1.24620     328.006E-03     9.77518E-03     54.2257E-03    -26.5872E-03    -27.6179E-03    -26.0389E-03     52.6467E-03    -26.5872E-03     22.3304E-03     65.7951E+06    -10.6839E+06    -19.0090E+06    -18.9842E+06     65.7702E+06    -10.6839E+06     203.912E+03         29.9656
            1478     14.6068E-03     76.0107E-03     385.589E-03     331.751E-03        -1.25556     385.501E-03        -1.25547     331.751E-03     20.9289E-03     53.7356E-03    -26.4865E-03    -27.2364E-03    -25.6114E-03     52.1859E-03    -26.5617E-03     21.9758E-03     149.759E+06     17.2002E+06    -16.5813E+06    -16.5382E+06     149.716E+06     17.2002E+06     1.05689E+06         31.9679
            1479     15.5815E-03     76.0307E-03     380.881E-03     334.953E-03        -1.25510     380.828E-03        -1.25505     334.953E-03    -438.442E-06     54.2842E-03    -26.6182E-03    -27.6796E-03    -25.2990E-03     51.9788E-03    -26.6934E-03     26.1586E-03     192.102E+06     61.4056E+06    -14.0137E+06    -13.9852E+06     192.074E+06     61.4056E+06     1.55587E+06         34.4072
            1480     16.5563E-03     76.0653E-03     390.613E-03     337.867E-03        -1.27267     389.781E-03        -1.27184     337.867E-03     3.78658E-03     53.6502E-03    -25.8485E-03    -27.8858E-03    -25.0568E-03     51.8988E-03    -26.9261E-03     17.7341E-03     204.897E+06     113.943E+06    -8.47709E+06    -8.46796E+06     204.887E+06     113.943E+06     1.20120E+06         37.0305
            1481     973.476E-06     76.9011E-03         1.14815     121.029E-03        -1.80677    -557.413E-03        -1.09711         1.11693     739.851E-03     54.2482E-03    -27.0299E-03    -27.2177E-03    -27.2031E-03     54.2336E-03    -27.0299E-03     2.02897E-03    -67.3755E+06    -69.7950E+06    -269.646E+06    -69.6232E+06    -269.644E+06    -67.5490E+06    -341.238E+03         23.9764
            1482     1.94687E-03     76.9040E-03     301.888E-03     246.246E-03        -1.08131     190.927E-03    -986.140E-03     262.036E-03    -273.534E-03     54.2802E-03    -27.1256E-03    -27.1541E-03    -27.0850E-03     54.2373E-03    -27.1518E-03     3.64500E-03    -58.5631E+06    -66.3796E+06    -266.784E+06    -66.3803E+06    -266.783E+06    -58.5631E+06     50.0089E+03         24.0011
            1483     2.92039E-03     76.9087E-03     295.874E-03     230.357E-03        -1.05033     257.821E-03        -1.02807     246.148E-03     48.3534E-03     54.2835E-03    -27.1143E-03    -27.1676E-03    -27.0280E-03     54.1973E-03    -27.1676E-03     5.23913E-03    -47.3552E+06    -61.5178E+06    -254.815E+06    -61.5222E+06    -254.810E+06    -47.3552E+06    -499.746E+03         24.0507
            1484     3.89392E-03     76.9150E-03     357.444E-03     258.677E-03        -1.13836     343.358E-03        -1.12427     258.677E-03     2.93212E-03     54.2993E-03    -27.1116E-03    -27.1821E-03    -26.9779E-03     54.1656E-03    -27.1821E-03     6.56969E-03    -35.6446E+06    -56.0221E+06    -238.346E+06    -56.0442E+06    -238.323E+06    -35.6446E+06    -1.84501E+06         24.1399
            1485     4.86750E-03     76.9227E-03     348.599E-03     275.491E-03        -1.14678     337.820E-03        -1.13600     275.491E-03     41.1115E-03     54.2744E-03    -27.0922E-03    -27.1827E-03    -26.9089E-03     54.0911E-03    -27.1827E-03     7.69443E-03    -24.5236E+06    -50.3282E+06    -218.674E+06    -50.3763E+06    -218.626E+06    -24.5236E+06    -2.78796E+06         24.2681
            1486     5.84113E-03     76.9312E-03     307.915E-03     281.763E-03        -1.11337     301.787E-03        -1.10873     283.243E-03    -66.0727E-03     54.2385E-03    -27.0748E-03    -27.1681E-03    -26.8437E-03     54.0074E-03    -27.1681E-03     8.64903E-03    -15.0746E+06    -44.7664E+06    -199.991E+06    -44.8359E+06    -199.922E+06    -15.0746E+06    -3.25950E+06         24.4254
            1487     6.81478E-03     76.9409E-03     316.153E-03     285.199E-03        -1.12827     313.358E-03        -1.12696     286.679E-03     22.1247E-03     54.2116E-03    -27.0603E-03    -27.1528E-03    -26.7859E-03     53.9372E-03    -27.1528E-03     9.42094E-03    -7.66698E+06    -39.1183E+06    -182.870E+06    -39.2228E+06    -182.766E+06    -7.66698E+06    -3.73729E+06         24.6099
            1488     7.78852E-03     76.9511E-03     338.524E-03     291.485E-03        -1.16047     337.933E-03        -1.15988     291.485E-03     4.22172E-03     54.1322E-03    -27.0237E-03    -27.1044E-03    -26.7015E-03     53.8100E-03    -27.1044E-03     10.1977E-03    -4.41010E+06    -33.6921E+06    -161.619E+06    -33.8160E+06    -161.495E+06    -4.41010E+06    -3.87594E+06         24.8302
            1489     8.76238E-03     76.9624E-03     349.133E-03     297.245E-03        -1.17343     348.932E-03        -1.17322     297.245E-03     10.5603E-03     54.0555E-03    -27.0128E-03    -27.0580E-03    -26.6350E-03     53.6725E-03    -27.0528E-03     11.1067E-03    -2.83171E+06    -29.3650E+06    -138.833E+06    -29.4983E+06    -138.700E+06    -2.83171E+06    -3.77617E+06         25.1025
            1490     9.73625E-03     76.9744E-03     354.615E-03     302.693E-03        -1.17869     354.433E-03        -1.17851     302.693E-03    -27.7012E-03     54.0020E-03    -26.9875E-03    -27.0331E-03    -26.5856E-03     53.5601E-03    -26.9932E-03     11.9302E-03    -2.04314E+06    -25.7042E+06    -115.271E+06    -25.8363E+06    -115.138E+06    -2.04314E+06    -3.35456E+06         25.4721
            1491     10.7101E-03     76.9872E-03     373.651E-03     308.235E-03        -1.20162     372.943E-03        -1.20091     308.235E-03     23.7271E-03     53.9248E-03    -26.9053E-03    -27.0263E-03    -26.5067E-03     53.4052E-03    -26.9053E-03     12.9113E-03    -4.58381E+06    -22.6176E+06    -90.0614E+06    -22.7368E+06    -89.9422E+06    -4.58381E+06    -2.74885E+06         26.0606
            1492     11.6842E-03     77.0013E-03     404.778E-03     314.909E-03        -1.23859     404.178E-03        -1.23799     314.909E-03     32.9733E-03     53.9160E-03    -26.8173E-03    -27.1236E-03    -26.4248E-03     53.2172E-03    -26.8173E-03     14.9247E-03    -7.96910E+06    -20.0240E+06    -56.9177E+06    -20.1596E+06    -56.7822E+06    -7.96910E+06    -1.82478E+06         26.9944
            1493     12.6581E-03     77.0186E-03     412.364E-03     322.086E-03        -1.25337     412.315E-03        -1.25332     322.086E-03    -17.8249E-03     54.0035E-03    -26.7106E-03    -27.2962E-03    -26.3033E-03     53.0106E-03    -26.7106E-03     17.7928E-03     3.96107E+06    -16.2116E+06    -27.3114E+06    -18.2722E+06    -9.73051E+06    -11.5592E+06    -691.373E+03         28.3036
            1494     13.6325E-03     77.0386E-03     385.218E-03     327.576E-03        -1.23441     385.028E-03        -1.23422     327.576E-03    -15.8652E-03     54.2348E-03    -26.5730E-03    -27.6374E-03    -26.0452E-03     52.6425E-03    -26.5730E-03     22.4007E-03     65.0990E+06    -12.5584E+06    -18.0013E+06    -17.9908E+06     65.0885E+06    -12.5584E+06    -237.663E+03         29.9675
            1495     14.6066E-03     77.0656E-03     361.821E-03     330.615E-03        -1.21892     361.580E-03        -1.21868     330.615E-03    -18.2817E-03     53.7344E-03    -26.4690E-03    -27.2463E-03    -25.6120E-03     52.1753E-03    -26.5443E-03     22.0112E-03     147.644E+06     14.3643E+06    -17.5702E+06    -17.5400E+06     147.614E+06     14.3643E+06     1.30402E+06         31.9703
            1496     15.5816E-03     77.0846E-03     367.325E-03     332.669E-03        -1.22874     367.231E-03        -1.22864     332.669E-03    -17.8517E-03     54.2845E-03    -26.6247E-03    -27.6755E-03    -25.3028E-03     51.9870E-03    -26.6999E-03     26.0800E-03     192.484E+06     63.4063E+06    -13.7733E+06    -13.7457E+06     192.456E+06     63.4063E+06     2.11504E+06         34.4105
            1497     16.5565E-03     77.1206E-03     373.915E-03     333.436E-03        -1.23805     372.281E-03        -1.23777     334.795E-03    -32.2456E-03     53.6611E-03    -25.8435E-03    -27.9028E-03    -25.0611E-03     51.9064E-03    -26.9304E-03     17.6893E-03     205.899E+06     115.232E+06    -7.35868E+06    -7.35302E+06     205.893E+06     115.232E+06     918.965E+03         37.0356
            1498     973.452E-06     77.9556E-03         1.11492     182.055E-03        -1.81054    -538.453E-03        -1.02167         1.04655     868.305E-03     54.2282E-03    -27.0669E-03    -27.1607E-03    -27.1460E-03     54.2135E-03    -27.0669E-03     2.05595E-03    -67.4873E+06    -71.1993E+06    -269.410E+06    -71.0518E+06    -269.405E+06    -67.6399E+06     143.948E+03         23.9797
            1499     1.94695E-03     77.9585E-03     357.248E-03     257.371E-03        -1.12844     270.162E-03        -1.04135     257.371E-03    -142.916E-03     54.3055E-03    -27.1446E-03    -27.1613E-03    -27.1128E-03     54.2623E-03    -27.1499E-03     3.65107E-03    -59.2538E+06    -67.3909E+06    -266.572E+06    -67.3947E+06    -266.568E+06    -59.2538E+06    -455.051E+03         24.0041
            1500     2.92036E-03     77.9632E-03     320.341E-03     260.558E-03        -1.09267     281.899E-03        -1.05745     263.773E-03     102.297E-03     54.3260E-03    -27.1442E-03    -27.1811E-03    -27.0677E-03     54.2395E-03    -27.1712E-03     5.25226E-03    -48.9820E+06    -62.3319E+06    -253.352E+06    -62.3429E+06    -253.341E+06    -48.9820E+06    -1.29282E+06         24.0522
            1501     3.89384E-03     77.9696E-03     319.503E-03     266.976E-03        -1.09726     296.044E-03        -1.07701     270.191E-03     10.2790E-03     54.3140E-03    -27.1165E-03    -27.1904E-03    -26.9824E-03     54.1799E-03    -27.1904E-03     6.57833E-03    -37.0210E+06    -56.9753E+06    -236.477E+06    -57.0109E+06    -236.441E+06    -37.0210E+06    -2.36129E+06         24.1398
            1502     4.86743E-03     77.9771E-03     313.014E-03     275.894E-03        -1.10127     299.925E-03        -1.08818     275.894E-03     90.9063E-03     54.2750E-03    -27.0848E-03    -27.1895E-03    -26.9002E-03     54.0903E-03    -27.1895E-03     7.72129E-03    -25.8395E+06    -51.1773E+06    -217.220E+06    -51.2589E+06    -217.138E+06    -25.8395E+06    -3.58708E+06         24.2675
            1503     5.84105E-03     77.9859E-03     305.512E-03     280.179E-03        -1.10094     302.782E-03        -1.09821     280.179E-03    -65.9389E-03     54.2316E-03    -27.0643E-03    -27.1710E-03    -26.8315E-03     53.9988E-03    -27.1710E-03     8.68033E-03    -16.3416E+06    -44.9215E+06    -198.948E+06    -45.0504E+06    -198.819E+06    -16.3416E+06    -4.34419E+06         24.4249
            1504     6.81476E-03     77.9953E-03     318.734E-03     284.407E-03        -1.11952     317.656E-03        -1.11844     284.407E-03    -38.6941E-03     54.2021E-03    -27.0471E-03    -27.1547E-03    -26.7715E-03     53.9265E-03    -27.1547E-03     9.44088E-03    -8.48743E+06    -39.1346E+06    -181.846E+06    -39.3001E+06    -181.680E+06    -8.48743E+06    -4.78297E+06         24.6096
            1505     7.78853E-03     78.0056E-03     336.740E-03     289.628E-03        -1.14234     335.718E-03        -1.14132     289.628E-03    -41.3678E-03     54.1360E-03    -27.0261E-03    -27.1071E-03    -26.7043E-03     53.8142E-03    -27.1071E-03     10.1924E-03    -5.27440E+06    -34.3932E+06    -161.097E+06    -34.5995E+06    -160.891E+06    -5.27440E+06    -5.02334E+06         24.8300
            1506     8.76231E-03     78.0166E-03     360.866E-03     296.090E-03        -1.16955     360.817E-03        -1.16950     296.090E-03     9.85511E-03     54.0443E-03    -27.0074E-03    -27.0537E-03    -26.6250E-03     53.6619E-03    -27.0537E-03     11.0958E-03    -3.75426E+06    -29.8536E+06    -138.639E+06    -30.0935E+06    -138.399E+06    -3.75426E+06    -5.01605E+06         25.1022
            1507     9.73621E-03     78.0289E-03     378.058E-03     303.423E-03        -1.18900     377.923E-03        -1.18887     303.423E-03    -20.6951E-03     53.9694E-03    -26.9755E-03    -27.0122E-03    -26.5536E-03     53.5293E-03    -26.9939E-03     11.9025E-03    -2.83715E+06    -25.8541E+06    -115.842E+06    -26.0975E+06    -115.599E+06    -2.83715E+06    -4.62997E+06         25.4719
            1508     10.7102E-03     78.0416E-03     372.392E-03     309.990E-03        -1.19161     372.022E-03        -1.19124     309.990E-03     3.40449E-03     53.9431E-03    -26.9061E-03    -27.0465E-03    -26.5292E-03     53.4258E-03    -26.9061E-03     12.8846E-03    -5.28496E+06    -22.8745E+06    -90.5399E+06    -23.0984E+06    -90.3161E+06    -5.28496E+06    -3.82636E+06         26.0608
            1509     11.6840E-03     78.0559E-03     377.549E-03     315.403E-03        -1.20570     377.201E-03        -1.20535     315.403E-03     5.35723E-03     53.9342E-03    -26.8213E-03    -27.1402E-03    -26.4431E-03     53.2370E-03    -26.8213E-03     14.9104E-03    -8.71506E+06    -20.9047E+06    -58.3373E+06    -21.1184E+06    -58.1237E+06    -8.71506E+06    -2.68329E+06         26.9951
            1510     12.6581E-03     78.0729E-03     383.919E-03     320.405E-03        -1.21601     383.782E-03        -1.21587     320.405E-03    -14.6906E-03     53.9670E-03    -26.7144E-03    -27.2556E-03    -26.2631E-03     52.9746E-03    -26.7144E-03     17.7786E-03     3.89223E+06    -17.4202E+06    -29.9028E+06    -19.9670E+06    -11.0473E+06    -12.4164E+06    -1.32388E+06         28.3047
            1511     13.6322E-03     78.0932E-03     375.818E-03     324.599E-03        -1.21048     375.543E-03        -1.21020     324.599E-03    -25.7432E-03     54.2141E-03    -26.5879E-03    -27.5977E-03    -26.0187E-03     52.6352E-03    -26.5879E-03     22.3114E-03     63.8238E+06    -11.2119E+06    -19.4633E+06    -19.4432E+06     63.8036E+06    -11.2119E+06     591.558E+03         29.9691
            1512     14.6070E-03     78.1198E-03     367.641E-03     327.656E-03        -1.20820     367.310E-03        -1.20786     327.656E-03    -34.4886E-03     53.7656E-03    -26.5149E-03    -27.2275E-03    -25.6401E-03     52.2221E-03    -26.5588E-03     21.9165E-03     146.512E+06     15.7771E+06    -18.2573E+06    -18.2399E+06     146.495E+06     15.7771E+06     1.54306E+06         31.9723
            1513     15.5813E-03     78.1395E-03     369.483E-03     330.131E-03        -1.21228     369.206E-03        -1.21201     330.131E-03    -28.7489E-03     54.2712E-03    -26.6525E-03    -27.6318E-03    -25.3059E-03     51.9892E-03    -26.6963E-03     25.9930E-03     193.032E+06     62.5052E+06    -14.3187E+06    -14.3104E+06     193.023E+06     62.5052E+06     1.20663E+06         34.4134
            1514     16.5563E-03     78.1744E-03     357.336E-03     330.623E-03        -1.19971     354.960E-03        -1.19869     331.982E-03     7.87271E-03     53.5951E-03    -25.8210E-03    -27.8605E-03    -25.0124E-03     51.8542E-03    -26.9283E-03     17.6216E-03     206.460E+06     114.916E+06    -7.83406E+06    -7.82937E+06     206.456E+06     114.916E+06     846.636E+03         37.0402
            1515     973.488E-06     79.0100E-03         1.08603     219.467E-03        -1.80058    -461.617E-03        -1.04294         1.00948     872.727E-03     54.2498E-03    -27.0976E-03    -27.1532E-03    -27.1380E-03     54.2345E-03    -27.0976E-03     2.09678E-03    -68.6423E+06    -72.3568E+06    -269.398E+06    -71.6865E+06    -269.390E+06    -69.3203E+06     561.600E+03         23.9834
            1516     1.94686E-03     79.0130E-03     385.088E-03     281.331E-03        -1.16250     310.505E-03        -1.08792     281.331E-03    -183.072E-03     54.3396E-03    -27.1595E-03    -27.1818E-03    -27.1380E-03     54.2958E-03    -27.1595E-03     3.68569E-03    -60.6367E+06    -68.2621E+06    -265.127E+06    -68.2679E+06    -265.121E+06    -60.6367E+06    -809.052E+03         24.0068
            1517     2.92027E-03     79.0178E-03     315.332E-03     283.856E-03        -1.09857     277.529E-03        -1.06398     287.071E-03     17.9082E-03     54.3380E-03    -27.1449E-03    -27.1931E-03    -27.0700E-03     54.2524E-03    -27.1825E-03     5.22775E-03    -50.4714E+06    -63.8510E+06    -251.850E+06    -63.8778E+06    -251.823E+06    -50.4714E+06    -1.97608E+06         24.0527
            1518     3.89380E-03     79.0242E-03     285.072E-03     276.571E-03        -1.06358     255.790E-03        -1.03993     282.199E-03    -58.3786E-03     54.3063E-03    -27.1033E-03    -27.1955E-03    -26.9684E-03     54.1714E-03    -27.1955E-03     6.59017E-03    -38.5469E+06    -58.1750E+06    -234.286E+06    -58.2452E+06    -234.216E+06    -38.5469E+06    -3.36222E+06         24.1385
            1519     4.86736E-03     79.0317E-03     292.998E-03     276.627E-03        -1.07246     280.234E-03        -1.06210     279.040E-03     68.9752E-03     54.2778E-03    -27.0839E-03    -27.1910E-03    -26.8973E-03     54.0913E-03    -27.1910E-03     7.76435E-03    -27.2134E+06    -51.9317E+06    -215.089E+06    -52.0759E+06    -214.945E+06    -27.2134E+06    -4.69695E+06         24.2659
            1520     5.84101E-03     79.0404E-03     307.997E-03     281.211E-03        -1.09246     305.437E-03        -1.08990     281.211E-03    -43.8254E-03     54.2257E-03    -27.0557E-03    -27.1727E-03    -26.8232E-03     53.9932E-03    -27.1727E-03     8.67393E-03    -17.6491E+06    -45.9334E+06    -197.523E+06    -46.1552E+06    -197.301E+06    -17.6491E+06    -5.74127E+06         24.4237
            1521     6.81472E-03     79.0499E-03     323.841E-03     285.925E-03        -1.11281     322.881E-03        -1.11185     285.925E-03     7.34489E-03     54.1896E-03    -27.0322E-03    -27.1565E-03    -26.7577E-03     53.9151E-03    -27.1565E-03     9.42028E-03    -9.69037E+06    -40.0294E+06    -181.141E+06    -40.2990E+06    -180.871E+06    -9.69037E+06    -6.05405E+06         24.6088
            1522     7.78845E-03     79.0601E-03     347.317E-03     292.021E-03        -1.14248     346.082E-03        -1.14124     292.021E-03     13.7384E-03     54.1390E-03    -27.0272E-03    -27.1083E-03    -26.7050E-03     53.8167E-03    -27.1083E-03     10.1990E-03    -6.05706E+06    -34.4277E+06    -160.177E+06    -34.7456E+06    -159.859E+06    -6.05706E+06    -6.20449E+06         24.8294
            1523     8.76223E-03     79.0712E-03     365.138E-03     299.108E-03        -1.16314     364.512E-03        -1.16251     299.108E-03     34.0637E-03     54.0529E-03    -27.0155E-03    -27.0543E-03    -26.6340E-03     53.6715E-03    -27.0543E-03     11.0843E-03    -4.87447E+06    -30.1550E+06    -138.395E+06    -30.5163E+06    -138.033E+06    -4.87447E+06    -6.21787E+06         25.1021
            1524     9.73612E-03     79.0833E-03     370.360E-03     306.013E-03        -1.17347     370.335E-03        -1.17344     306.013E-03    -10.4834E-03     53.9662E-03    -26.9778E-03    -27.0087E-03    -26.5527E-03     53.5278E-03    -26.9953E-03     11.8785E-03    -4.22149E+06    -26.7408E+06    -116.166E+06    -27.1140E+06    -115.793E+06    -4.22149E+06    -5.73076E+06         25.4722
            1525     10.7100E-03     79.0963E-03     365.576E-03     311.707E-03        -1.17655     365.497E-03        -1.17647     311.707E-03     4.64449E-03     53.9388E-03    -26.9063E-03    -27.0437E-03    -26.5240E-03     53.4192E-03    -26.9063E-03     12.9132E-03    -6.95579E+06    -23.7976E+06    -91.4241E+06    -24.1674E+06    -91.0543E+06    -6.95579E+06    -4.94127E+06         26.0611
            1526     11.6840E-03     79.1104E-03     354.794E-03     315.773E-03        -1.17172     354.430E-03        -1.17135     315.773E-03    -17.7450E-03     53.9181E-03    -26.8215E-03    -27.1244E-03    -26.4318E-03     53.2255E-03    -26.8215E-03     14.8663E-03    -10.1177E+06    -21.4545E+06    -59.8250E+06    -21.8110E+06    -59.4685E+06    -10.1177E+06    -3.53530E+06         26.9956
            1527     12.6580E-03     79.1273E-03     357.039E-03     318.825E-03        -1.17752     356.667E-03        -1.17715     318.825E-03    -15.9435E-03     53.9705E-03    -26.7104E-03    -27.2671E-03    -26.2737E-03     52.9771E-03    -26.7104E-03     17.7786E-03     2.14117E+06    -18.9692E+06    -31.1425E+06    -20.3101E+06    -12.9550E+06    -14.7054E+06    -1.55562E+06         28.3055
            1528     13.6324E-03     79.1478E-03     372.057E-03     322.038E-03        -1.19359     371.842E-03        -1.19337     322.038E-03     8.69463E-03     54.2390E-03    -26.5821E-03    -27.6323E-03    -26.0600E-03     52.6667E-03    -26.5821E-03     22.2925E-03     61.5962E+06    -13.5468E+06    -19.8961E+06    -19.3842E+06     61.5795E+06    -14.0420E+06     276.058E+03         29.9702
            1529     14.6064E-03     79.1744E-03     377.921E-03     325.541E-03        -1.20155     377.744E-03        -1.20137     325.541E-03     3.97303E-03     53.7274E-03    -26.4847E-03    -27.2272E-03    -25.6165E-03     52.1869E-03    -26.5549E-03     21.9126E-03     146.358E+06     14.4750E+06    -17.5225E+06    -17.5061E+06     146.341E+06     14.4750E+06     1.33589E+06         31.9737
            1530     15.5815E-03     79.1940E-03     368.354E-03     328.503E-03        -1.19370     368.135E-03        -1.19348     328.503E-03    -2.36313E-03     54.2126E-03    -26.6187E-03    -27.6045E-03    -25.2620E-03     51.9403E-03    -26.6889E-03     25.9699E-03     193.514E+06     61.5171E+06    -14.0933E+06    -14.0852E+06     193.505E+06     61.5171E+06     1.12234E+06         34.4157
            1531     16.5563E-03     79.2289E-03     354.780E-03     330.399E-03        -1.18323     353.421E-03        -1.18187     330.399E-03     46.9863E-03     53.5700E-03    -25.7947E-03    -27.8397E-03    -24.9885E-03     51.8483E-03    -26.9241E-03     17.6282E-03     206.839E+06     114.405E+06    -8.20335E+06    -8.20156E+06     206.837E+06     114.405E+06     511.167E+03         37.0443
            1532     973.402E-06     80.0644E-03         1.07429     167.593E-03        -1.72320    -451.163E-03        -1.01484     984.683E-03     665.519E-03     54.3439E-03    -27.0883E-03    -27.2556E-03    -27.2280E-03     54.3284E-03    -27.1005E-03     2.09005E-03    -71.7513E+06    -73.9649E+06    -268.768E+06    -73.3000E+06    -268.755E+06    -72.4293E+06    -651.870E+03         23.9872
            1533     1.94681E-03     80.0676E-03     395.715E-03     274.215E-03        -1.15335     304.244E-03        -1.06188     274.215E-03    -304.797E-03     54.3566E-03    -27.1546E-03    -27.2036E-03    -27.1223E-03     54.3127E-03    -27.1922E-03     3.69654E-03    -62.8238E+06    -70.0202E+06    -263.478E+06    -70.0371E+06    -263.461E+06    -62.8238E+06    -1.39982E+06         24.0085
            1534     2.92022E-03     80.0726E-03     325.605E-03     284.708E-03        -1.09516     303.065E-03        -1.07262     284.708E-03     25.0661E-03     54.3311E-03    -27.1285E-03    -27.2015E-03    -27.0443E-03     54.2463E-03    -27.2009E-03     5.20130E-03    -51.1464E+06    -64.8488E+06    -249.322E+06    -64.9066E+06    -249.264E+06    -51.1464E+06    -2.94445E+06         24.0523
            1535     3.89374E-03     80.0787E-03     294.783E-03     276.886E-03        -1.06234     269.902E-03        -1.04636     285.783E-03    -36.4425E-03     54.3048E-03    -27.0939E-03    -27.2020E-03    -26.9594E-03     54.1703E-03    -27.2020E-03     6.57940E-03    -39.6554E+06    -58.7334E+06    -231.604E+06    -58.8705E+06    -231.467E+06    -39.6554E+06    -4.71074E+06         24.1373
            1536     4.86736E-03     80.0862E-03     302.164E-03     275.052E-03        -1.06796     285.042E-03        -1.05974     283.949E-03     32.5009E-03     54.2688E-03    -27.0716E-03    -27.1936E-03    -26.8844E-03     54.0816E-03    -27.1936E-03     7.77529E-03    -28.5083E+06    -52.6498E+06    -213.013E+06    -52.8794E+06    -212.783E+06    -28.5083E+06    -5.97781E+06         24.2645
            1537     5.84091E-03     80.0950E-03     336.042E-03     287.874E-03        -1.11260     332.860E-03        -1.10941     287.874E-03    -50.1820E-03     54.2265E-03    -27.0559E-03    -27.1736E-03    -26.8228E-03     53.9934E-03    -27.1736E-03     8.68374E-03    -18.9749E+06    -46.7220E+06    -195.623E+06    -47.0386E+06    -195.306E+06    -18.9749E+06    -6.80788E+06         24.4226
            1538     6.81463E-03     80.1044E-03     341.954E-03     295.013E-03        -1.12601     341.176E-03        -1.12523     295.013E-03     21.6038E-03     54.1899E-03    -27.0351E-03    -27.1545E-03    -26.7606E-03     53.9154E-03    -27.1545E-03     9.42005E-03    -11.5758E+06    -40.9873E+06    -179.788E+06    -41.4152E+06    -179.361E+06    -11.5758E+06    -7.62050E+06         24.6075
            1539     7.78842E-03     80.1148E-03     332.145E-03     300.322E-03        -1.12321     330.996E-03        -1.12206     300.322E-03    -3.37018E-03     54.1157E-03    -27.0071E-03    -27.1051E-03    -26.6842E-03     53.7929E-03    -27.1051E-03     10.2055E-03    -8.16268E+06    -35.6311E+06    -159.675E+06    -36.1313E+06    -159.175E+06    -8.16268E+06    -7.80424E+06         24.8278
            1540     8.76223E-03     80.1257E-03     343.203E-03     304.410E-03        -1.13822     342.297E-03        -1.13732     304.410E-03    -1.02327E-03     54.0542E-03    -27.0128E-03    -27.0568E-03    -26.6349E-03     53.6723E-03    -27.0528E-03     11.0912E-03    -6.43515E+06    -30.9984E+06    -138.173E+06    -31.5138E+06    -137.657E+06    -6.43515E+06    -7.35392E+06         25.1011
            1541     9.73602E-03     80.1379E-03     358.078E-03     308.992E-03        -1.15674     357.753E-03        -1.15642     308.992E-03    -33.6735E-03     53.9972E-03    -26.9901E-03    -27.0260E-03    -26.5828E-03     53.5587E-03    -26.9948E-03     11.8829E-03    -5.71274E+06    -27.2390E+06    -116.211E+06    -27.7843E+06    -115.665E+06    -5.71274E+06    -6.89420E+06         25.4719
            1542     10.7100E-03     80.1506E-03     355.289E-03     313.335E-03        -1.15959     354.721E-03        -1.15902     313.335E-03     7.88599E-03     53.9243E-03    -26.9065E-03    -27.0283E-03    -26.5065E-03     53.4026E-03    -26.9065E-03     12.9349E-03    -8.56179E+06    -24.2312E+06    -92.2553E+06    -24.7850E+06    -91.7015E+06    -8.56179E+06    -6.06685E+06         26.0611
            1543     11.6839E-03     80.1649E-03     341.556E-03     316.267E-03        -1.14862     341.017E-03        -1.14808     316.267E-03     8.38528E-03     53.9088E-03    -26.8213E-03    -27.1147E-03    -26.4242E-03     53.2182E-03    -26.8213E-03     14.8483E-03    -11.8139E+06    -21.6580E+06    -61.6265E+06    -22.3387E+06    -60.9457E+06    -11.8139E+06    -4.86987E+06         26.9958
            1544     12.6580E-03     80.1817E-03     349.269E-03     318.485E-03        -1.15859     348.964E-03        -1.15828     318.485E-03    -20.3607E-03     54.0157E-03    -26.7114E-03    -27.3148E-03    -26.3198E-03     53.0207E-03    -26.7114E-03     17.7946E-03    -116.907E+03    -19.7676E+06    -32.2354E+06    -20.2812E+06    -15.4224E+06    -16.4163E+06    -2.80900E+06         28.3061
            1545     13.6320E-03     80.2023E-03     369.751E-03     321.383E-03        -1.17835     369.619E-03        -1.17822     321.383E-03     7.18457E-03     54.2388E-03    -26.5880E-03    -27.6311E-03    -26.0592E-03     52.6669E-03    -26.5880E-03     22.2987E-03     59.3843E+06    -14.2348E+06    -19.4862E+06    -18.9287E+06     59.3221E+06    -14.7301E+06    -228.757E+03         29.9710
            1546     14.6068E-03     80.2287E-03     369.321E-03     324.575E-03        -1.17762     369.115E-03        -1.17741     324.575E-03    -2.79232E-03     53.6882E-03    -26.4759E-03    -27.1990E-03    -25.5760E-03     52.1497E-03    -26.5604E-03     21.8969E-03     145.584E+06     14.3868E+06    -17.5101E+06    -17.4978E+06     145.572E+06     14.3868E+06     1.03205E+06         31.9747
            1547     15.5813E-03     80.2485E-03     355.135E-03     326.893E-03        -1.16687     354.949E-03        -1.16668     326.893E-03    -7.57447E-03     54.1807E-03    -26.6107E-03    -27.5913E-03    -25.2442E-03     51.9181E-03    -26.6952E-03     25.9313E-03     194.015E+06     61.8199E+06    -13.4850E+06    -13.4781E+06     194.008E+06     61.8199E+06     921.556E+03         34.4173
            1548     16.5564E-03     80.2832E-03     343.877E-03     327.755E-03        -1.16080     342.919E-03        -1.16023     328.147E-03     9.41867E-03     53.5563E-03    -25.7916E-03    -27.8242E-03    -24.9801E-03     51.8487E-03    -26.9281E-03     17.5558E-03     207.518E+06     114.857E+06    -7.25560E+06    -7.25374E+06     207.516E+06     114.857E+06     522.931E+03         37.0477
            1549     973.241E-06     81.1190E-03         1.02876     144.534E-03        -1.64062    -416.870E-03    -994.202E-03     943.745E-03     641.748E-03     54.4557E-03    -27.1187E-03    -27.3366E-03    -27.2980E-03     54.4401E-03    -27.1416E-03     2.08050E-03    -71.8364E+06    -74.2196E+06    -267.001E+06    -74.2361E+06    -266.984E+06    -71.8364E+06    -1.52349E+06         23.9889
            1550     1.94663E-03     81.1223E-03     393.375E-03     274.707E-03        -1.14585     318.721E-03        -1.07120     274.707E-03    -224.004E-03     54.3896E-03    -27.1572E-03    -27.2324E-03    -27.1133E-03     54.3457E-03    -27.2324E-03     3.71039E-03    -63.4395E+06    -70.4587E+06    -260.996E+06    -70.4990E+06    -260.955E+06    -63.4395E+06    -2.45139E+06         24.0091
            1551     2.92016E-03     81.1270E-03     331.702E-03     290.070E-03        -1.09966     315.831E-03        -1.08383     290.111E-03     113.047E-03     54.3231E-03    -27.1065E-03    -27.2147E-03    -27.0218E-03     54.2384E-03    -27.2147E-03     5.19619E-03    -52.8633E+06    -65.3704E+06    -246.234E+06    -65.4853E+06    -246.119E+06    -52.8633E+06    -4.36979E+06         24.0513
            1552     3.89367E-03     81.1334E-03     310.561E-03     288.255E-03        -1.07445     297.074E-03        -1.06749     294.780E-03     27.0052E-03     54.3037E-03    -27.0871E-03    -27.2085E-03    -26.9526E-03     54.1693E-03    -27.2085E-03     6.58007E-03    -41.1392E+06    -59.7849E+06    -228.600E+06    -60.0037E+06    -228.382E+06    -41.1392E+06    -5.95468E+06         24.1354
            1553     4.86719E-03     81.1407E-03     320.915E-03     289.854E-03        -1.09069     307.839E-03        -1.08410     296.338E-03     31.3778E-03     54.2646E-03    -27.0645E-03    -27.1979E-03    -26.8775E-03     54.0776E-03    -27.1979E-03     7.76965E-03    -30.0168E+06    -53.5730E+06    -210.487E+06    -53.9287E+06    -210.131E+06    -30.0168E+06    -7.32731E+06         24.2626
            1554     5.84098E-03     81.1496E-03     335.094E-03     293.264E-03        -1.10905     326.116E-03        -1.10662     299.814E-03    -44.7377E-03     54.2160E-03    -27.0436E-03    -27.1746E-03    -26.8114E-03     53.9838E-03    -27.1746E-03     8.66832E-03    -20.4371E+06    -47.0713E+06    -193.593E+06    -47.5760E+06    -193.089E+06    -20.4371E+06    -8.46704E+06         24.4209
            1555     6.81457E-03     81.1590E-03     328.866E-03     296.837E-03        -1.10129     321.503E-03        -1.10048     303.386E-03    -2.80327E-03     54.1931E-03    -27.0352E-03    -27.1564E-03    -26.7619E-03     53.9199E-03    -27.1564E-03     9.39848E-03    -12.3569E+06    -40.8358E+06    -178.026E+06    -41.4572E+06    -177.405E+06    -12.3569E+06    -9.14564E+06         24.6059
            1556     7.78831E-03     81.1693E-03     325.505E-03     305.901E-03        -1.10452     324.813E-03        -1.10382     305.901E-03    -56.6952E-03     54.1202E-03    -27.0103E-03    -27.1079E-03    -26.6889E-03     53.7989E-03    -27.1079E-03     10.1830E-03    -9.14827E+06    -35.6002E+06    -159.040E+06    -36.3120E+06    -158.328E+06    -9.14827E+06    -9.30464E+06         24.8262
            1557     8.76215E-03     81.1802E-03     339.646E-03     308.815E-03        -1.12171     339.272E-03        -1.12134     308.815E-03    -24.1355E-03     54.0439E-03    -27.0040E-03    -27.0570E-03    -26.6246E-03     53.6605E-03    -27.0529E-03     11.1097E-03    -7.85822E+06    -31.0957E+06    -138.069E+06    -31.8608E+06    -137.304E+06    -7.85822E+06    -8.96633E+06         25.0994
            1558     9.73601E-03     81.1925E-03     344.994E-03     312.176E-03        -1.13096     344.604E-03        -1.13057     312.176E-03    -26.8458E-03     53.9957E-03    -26.9850E-03    -27.0304E-03    -26.5812E-03     53.5558E-03    -26.9943E-03     11.9037E-03    -6.96128E+06    -27.2002E+06    -116.314E+06    -27.9795E+06    -115.534E+06    -6.96128E+06    -8.25318E+06         25.4706
            1559     10.7098E-03     81.2050E-03     345.523E-03     315.183E-03        -1.13889     344.845E-03        -1.13821     315.183E-03     10.6696E-03     53.9301E-03    -26.9059E-03    -27.0344E-03    -26.5132E-03     53.4089E-03    -26.9059E-03     12.9265E-03    -9.98984E+06    -24.3458E+06    -93.2411E+06    -25.1159E+06    -92.4711E+06    -9.98984E+06    -7.20595E+06         26.0605
            1560     11.6839E-03     81.2194E-03     345.707E-03     317.707E-03        -1.14390     345.248E-03        -1.14344     317.707E-03     24.8357E-03     53.9323E-03    -26.8205E-03    -27.1375E-03    -26.4399E-03     53.2347E-03    -26.8205E-03     14.9236E-03    -13.4919E+06    -22.1060E+06    -62.9440E+06    -23.1496E+06    -61.9005E+06    -13.4919E+06    -6.00690E+06         26.9959
            1561     12.6578E-03     81.2362E-03     340.401E-03     317.964E-03        -1.13558     338.659E-03        -1.13549     319.614E-03    -21.7925E-03     54.0166E-03    -26.7110E-03    -27.3159E-03    -26.3159E-03     53.0167E-03    -26.7110E-03     17.8448E-03    -3.07987E+06    -21.1313E+06    -34.2162E+06    -21.7629E+06    -17.9105E+06    -18.7539E+06    -4.34988E+06         28.3065
            1562     13.6322E-03     81.2568E-03     344.373E-03     319.474E-03        -1.13919     342.655E-03        -1.13912     321.124E-03    -8.20012E-03     54.2265E-03    -26.5869E-03    -27.6212E-03    -26.0411E-03     52.6464E-03    -26.5869E-03     22.3447E-03     56.2662E+06    -15.7588E+06    -21.8271E+06    -20.2010E+06     56.0669E+06    -17.1857E+06    -1.36270E+06         29.9717
            1563     14.6063E-03     81.2832E-03     345.043E-03     322.603E-03        -1.14103     344.880E-03        -1.14086     322.603E-03    -10.4988E-03     53.7149E-03    -26.4636E-03    -27.2378E-03    -25.5748E-03     52.1762E-03    -26.5879E-03     21.8831E-03     145.210E+06     14.1996E+06    -18.3731E+06    -17.8569E+06     145.199E+06     13.6942E+06     687.516E+03         31.9753
            1564     15.5814E-03     81.3029E-03     334.452E-03     321.856E-03        -1.12830     332.554E-03        -1.12809     323.541E-03    -25.9314E-03     54.1802E-03    -26.5951E-03    -27.6100E-03    -25.2151E-03     51.9095E-03    -26.7194E-03     25.9295E-03     194.287E+06     60.6181E+06    -14.3628E+06    -14.3597E+06     194.283E+06     60.6181E+06     573.265E+03         34.4185
            1565     16.5562E-03     81.3377E-03     328.279E-03     321.705E-03        -1.12326     325.887E-03        -1.12294     323.782E-03    -18.4369E-03     53.5242E-03    -25.7644E-03    -27.8139E-03    -24.9301E-03     51.7993E-03    -26.9233E-03     17.6066E-03     207.625E+06     113.497E+06    -8.29335E+06    -8.29238E+06     207.624E+06     113.497E+06     344.999E+03         37.0507
            1566     973.350E-06     82.1741E-03     995.163E-03     88.3693E-03        -1.54520    -313.503E-03        -1.10726     959.100E-03     528.814E-03     54.4704E-03    -27.1780E-03    -27.2931E-03    -27.2667E-03     54.4547E-03    -27.1887E-03     2.11383E-03    -71.4868E+06    -73.8521E+06    -264.461E+06    -73.7893E+06    -264.448E+06    -71.5627E+06    -1.37337E+06         23.9871
            1567     1.94665E-03     82.1769E-03     358.218E-03     291.581E-03        -1.11601     288.327E-03        -1.07062     316.080E-03    -191.679E-03     54.4171E-03    -27.1781E-03    -27.2391E-03    -27.1366E-03     54.3730E-03    -27.2364E-03     3.70823E-03    -64.3539E+06    -70.7550E+06    -257.270E+06    -70.8230E+06    -257.202E+06    -64.3539E+06    -3.29736E+06         24.0080
            1568     2.92006E-03     82.1818E-03     322.154E-03     281.597E-03        -1.06601     287.589E-03        -1.05598     306.137E-03     68.4455E-03     54.3244E-03    -27.1051E-03    -27.2174E-03    -27.0190E-03     54.2383E-03    -27.2174E-03     5.24040E-03    -54.5715E+06    -66.2098E+06    -242.465E+06    -66.3884E+06    -242.287E+06    -54.5715E+06    -5.44275E+06         24.0494
            1569     3.89361E-03     82.1878E-03     337.959E-03     306.472E-03        -1.10571     333.773E-03        -1.10157     306.514E-03     1.44599E-03     54.3059E-03    -27.0887E-03    -27.2089E-03    -26.9520E-03     54.1691E-03    -27.2089E-03     6.63435E-03    -42.7606E+06    -60.6667E+06    -225.357E+06    -61.0023E+06    -225.021E+06    -42.7606E+06    -7.28638E+06         24.1323
            1570     4.86723E-03     82.1956E-03     338.199E-03     301.417E-03        -1.10560     323.668E-03        -1.10090     311.243E-03    -7.35598E-03     54.2796E-03    -27.0777E-03    -27.1991E-03    -26.8898E-03     54.0917E-03    -27.1991E-03     7.79403E-03    -31.4705E+06    -54.4412E+06    -207.371E+06    -54.9822E+06    -206.830E+06    -31.4705E+06    -8.94044E+06         24.2593
            1571     5.84070E-03     82.2040E-03     316.435E-03     289.349E-03        -1.07442     292.035E-03        -1.07165     310.981E-03    -72.5091E-03     54.2024E-03    -27.0291E-03    -27.1758E-03    -26.7958E-03     53.9691E-03    -27.1758E-03     8.68322E-03    -22.0548E+06    -48.1006E+06    -191.035E+06    -48.8718E+06    -190.263E+06    -22.0548E+06    -10.3871E+06         24.4183
            1572     6.81454E-03     82.2136E-03     327.401E-03     298.043E-03        -1.08855     315.202E-03        -1.08816     309.849E-03    -13.3309E-03     54.1650E-03    -27.0110E-03    -27.1520E-03    -26.7352E-03     53.8892E-03    -27.1520E-03     9.43941E-03    -14.4301E+06    -41.7540E+06    -176.487E+06    -42.7185E+06    -175.523E+06    -14.4301E+06    -11.2499E+06         24.6040
            1573     7.78826E-03     82.2237E-03     347.979E-03     312.512E-03        -1.11972     347.556E-03        -1.11929     312.512E-03    -11.9583E-03     54.1343E-03    -27.0266E-03    -27.1037E-03    -26.7027E-03     53.8104E-03    -27.1037E-03     10.2248E-03    -10.8327E+06    -35.6717E+06    -158.144E+06    -36.7390E+06    -157.077E+06    -10.8327E+06    -11.2846E+06         24.8245
            1574     8.76206E-03     82.2348E-03     341.032E-03     310.812E-03        -1.11037     335.682E-03        -1.11012     315.908E-03     24.6117E-03     54.0517E-03    -27.0174E-03    -27.0517E-03    -26.6325E-03     53.6669E-03    -27.0517E-03     11.1337E-03    -9.25256E+06    -30.6596E+06    -137.919E+06    -31.7658E+06    -136.813E+06    -9.25256E+06    -10.7756E+06         25.0975
            1575     9.73597E-03     82.2469E-03     327.714E-03     308.137E-03        -1.09645     318.447E-03        -1.09620     317.159E-03    -9.43761E-03     53.9639E-03    -26.9732E-03    -27.0105E-03    -26.5515E-03     53.5224E-03    -26.9908E-03     11.9204E-03    -8.43888E+06    -26.6682E+06    -116.971E+06    -27.7876E+06    -115.852E+06    -8.43888E+06    -9.93893E+06         25.4689
            1576     10.7099E-03     82.2596E-03     328.472E-03     313.343E-03        -1.10650     323.918E-03        -1.10616     317.561E-03    -5.36553E-03     53.9423E-03    -26.9018E-03    -27.0487E-03    -26.5264E-03     53.4200E-03    -26.9018E-03     12.9459E-03    -11.2232E+06    -23.4669E+06    -94.2893E+06    -24.5388E+06    -93.2174E+06    -11.2232E+06    -8.60225E+06         26.0597
            1577     11.6838E-03     82.2738E-03     341.330E-03     318.494E-03        -1.12347     340.845E-03        -1.12328     318.788E-03     3.86556E-03     53.9453E-03    -26.8162E-03    -27.1526E-03    -26.4466E-03     53.2394E-03    -26.8162E-03     15.0059E-03    -14.7577E+06    -21.0969E+06    -64.1525E+06    -22.3916E+06    -62.8579E+06    -14.7577E+06    -6.96854E+06         26.9960
            1578     12.6579E-03     82.2909E-03     340.045E-03     318.748E-03        -1.11995     338.291E-03        -1.11985     320.398E-03    -23.3694E-03     54.0059E-03    -26.7073E-03    -27.3066E-03    -26.3026E-03     53.0019E-03    -26.7073E-03     17.8918E-03    -4.73441E+06    -20.5696E+06    -34.8474E+06    -20.9380E+06    -19.3603E+06    -19.8531E+06    -5.38800E+06         28.3070
            1579     13.6320E-03     82.3111E-03     328.221E-03     310.927E-03        -1.10095     318.092E-03        -1.10088     320.983E-03    -5.82796E-03     54.2320E-03    -26.5671E-03    -27.6462E-03    -26.0599E-03     52.6457E-03    -26.5671E-03     22.3783E-03     53.0812E+06    -19.6955E+06    -21.8095E+06    -19.4964E+06     52.6485E+06    -21.5758E+06    -3.24376E+06         29.9725
            1580     14.6067E-03     82.3379E-03     323.879E-03     309.531E-03        -1.09391     312.766E-03        -1.09387     320.603E-03     12.7535E-03     53.6784E-03    -26.4141E-03    -27.2503E-03    -25.5555E-03     52.1309E-03    -26.5613E-03     21.9285E-03     143.118E+06     9.09829E+06    -17.8651E+06    -17.3353E+06     143.094E+06     8.59284E+06    -227.221E+03         31.9763
            1581     15.5812E-03     82.3569E-03     322.240E-03     315.870E-03        -1.09842     317.730E-03        -1.09826     320.221E-03     7.83671E-03     54.1493E-03    -26.5547E-03    -27.6030E-03    -25.1758E-03     51.8693E-03    -26.7019E-03     25.9575E-03     194.905E+06     58.5767E+06    -13.9692E+06    -13.9635E+06     194.899E+06     58.5767E+06     936.799E+03         34.4201
            1582     16.5565E-03     82.3922E-03     322.552E-03     314.376E-03        -1.09458     316.370E-03        -1.09401     319.988E-03     33.4353E-03     53.5526E-03    -25.7768E-03    -27.8120E-03    -24.9417E-03     51.8164E-03    -26.9110E-03     17.6315E-03     208.027E+06     112.690E+06    -8.25790E+06    -8.25648E+06     208.026E+06     112.690E+06     56.3492E+03         37.0540
            1583     973.309E-06     83.2286E-03     976.008E-03    -35.4153E-03        -1.39753    -285.783E-03        -1.12979     958.638E-03     334.587E-03     54.4176E-03    -27.1594E-03    -27.2594E-03    -27.2309E-03     54.4020E-03    -27.1723E-03     2.12363E-03    -73.7705E+06    -75.7215E+06    -261.251E+06    -75.4405E+06    -261.222E+06    -74.0811E+06    -2.01158E+06         23.9839
            1584     1.94665E-03     83.2319E-03     350.109E-03     304.076E-03        -1.10608     297.297E-03        -1.07776     328.574E-03    -176.149E-03     54.3796E-03    -27.1658E-03    -27.2152E-03    -27.1248E-03     54.3359E-03    -27.2126E-03     3.68563E-03    -65.9454E+06    -72.0817E+06    -252.967E+06    -72.1851E+06    -252.863E+06    -65.9454E+06    -4.06891E+06         24.0050
            1585     2.92011E-03     83.2362E-03     342.062E-03     295.047E-03        -1.08103     312.087E-03        -1.07555     319.545E-03     18.8799E-03     54.3305E-03    -27.1258E-03    -27.2031E-03    -27.0390E-03     54.2438E-03    -27.2031E-03     5.25866E-03    -55.8673E+06    -67.4899E+06    -237.827E+06    -67.7597E+06    -237.558E+06    -55.8673E+06    -6.53640E+06         24.0462
            1586     3.89363E-03     83.2426E-03     353.475E-03     318.149E-03        -1.11238     345.815E-03        -1.10803     321.460E-03     17.3985E-03     54.3169E-03    -27.1060E-03    -27.2015E-03    -26.9672E-03     54.1781E-03    -27.2015E-03     6.68427E-03    -44.2311E+06    -61.5831E+06    -221.286E+06    -62.0940E+06    -220.775E+06    -44.2311E+06    -8.85819E+06         24.1286
            1587     4.86706E-03     83.2501E-03     337.170E-03     302.998E-03        -1.08711     312.435E-03        -1.08288     323.509E-03     41.9954E-03     54.2606E-03    -27.0631E-03    -27.1932E-03    -26.8735E-03     54.0710E-03    -27.1932E-03     7.82810E-03    -32.9945E+06    -55.1410E+06    -203.967E+06    -55.9382E+06    -203.170E+06    -32.9945E+06    -10.7258E+06         24.2559
            1588     5.84086E-03     83.2587E-03     326.205E-03     298.488E-03        -1.07888     302.230E-03        -1.07736     320.944E-03    -46.3947E-03     54.1876E-03    -27.0222E-03    -27.1689E-03    -26.7858E-03     53.9512E-03    -27.1689E-03     8.73831E-03    -23.5148E+06    -48.4190E+06    -187.809E+06    -49.5313E+06    -186.697E+06    -23.5148E+06    -12.2911E+06         24.4158
            1589     6.81446E-03     83.2681E-03     343.690E-03     315.508E-03        -1.11342     338.346E-03        -1.11333     320.764E-03    -15.8214E-03     54.1668E-03    -27.0212E-03    -27.1451E-03    -26.7425E-03     53.8881E-03    -27.1451E-03     9.49259E-03    -15.9682E+06    -42.0417E+06    -174.239E+06    -43.4559E+06    -172.825E+06    -15.9682E+06    -13.5209E+06         24.6023
            1590     7.78828E-03     83.2783E-03     347.318E-03     313.076E-03        -1.11120     337.096E-03        -1.11093     323.019E-03     958.344E-06     54.1276E-03    -27.0228E-03    -27.0977E-03    -26.6965E-03     53.8013E-03    -27.0977E-03     10.2612E-03    -12.6468E+06    -36.2259E+06    -157.468E+06    -37.8274E+06    -155.866E+06    -12.6468E+06    -13.7726E+06         24.8230
            1591     8.76201E-03     83.2894E-03     329.720E-03     300.804E-03        -1.08212     307.124E-03        -1.08181     323.086E-03     3.99881E-03     54.0566E-03    -27.0177E-03    -27.0532E-03    -26.6388E-03     53.6700E-03    -27.0456E-03     11.1601E-03    -11.0626E+06    -30.6772E+06    -137.865E+06    -32.4111E+06    -136.132E+06    -11.0626E+06    -13.3893E+06         25.0962
            1592     9.73586E-03     83.3013E-03     321.317E-03     303.505E-03        -1.07699     302.939E-03        -1.07642     321.317E-03    -44.5969E-03     53.9797E-03    -26.9782E-03    -27.0199E-03    -26.5699E-03     53.5380E-03    -26.9865E-03     11.9255E-03    -9.96946E+06    -25.7717E+06    -117.822E+06    -27.4945E+06    -116.099E+06    -9.96946E+06    -12.3834E+06         25.4681
            1593     10.7099E-03     83.3142E-03     320.073E-03     312.903E-03        -1.08220     312.288E-03        -1.08158     320.073E-03    -19.3692E-03     53.9452E-03    -26.9002E-03    -27.0523E-03    -26.5298E-03     53.4227E-03    -26.9002E-03     12.9490E-03    -12.2878E+06    -21.8953E+06    -95.5970E+06    -23.5397E+06    -93.9526E+06    -12.2878E+06    -10.7822E+06         26.0595
            1594     11.6838E-03     83.3283E-03     326.557E-03     314.649E-03        -1.08839     321.188E-03        -1.08818     319.804E-03     4.18879E-03     53.9374E-03    -26.8153E-03    -27.1448E-03    -26.4472E-03     53.2398E-03    -26.8153E-03     14.9218E-03    -15.4296E+06    -19.0717E+06    -66.2995E+06    -20.6257E+06    -64.6096E+06    -15.5655E+06    -8.58017E+06         26.9961
            1595     12.6579E-03     83.3452E-03     331.370E-03     310.931E-03        -1.09171     322.242E-03        -1.09161     319.951E-03    -23.5978E-03     53.9811E-03    -26.7072E-03    -27.2792E-03    -26.2774E-03     52.9794E-03    -26.7072E-03     17.8535E-03    -4.43287E+06    -18.8292E+06    -36.0252E+06    -18.8555E+06    -20.5651E+06    -19.8667E+06    -6.55197E+06         28.3076
            1596     13.6321E-03     83.3659E-03     324.150E-03     300.596E-03        -1.07379     305.168E-03        -1.07370     319.483E-03    -17.2341E-03     54.2132E-03    -26.5642E-03    -27.6252E-03    -26.0377E-03     52.6256E-03    -26.5642E-03     22.3926E-03     50.4202E+06    -18.6770E+06    -22.5892E+06    -18.1738E+06     49.6834E+06    -22.3556E+06    -4.50258E+06         29.9736
            1597     14.6064E-03     83.3918E-03     320.816E-03     302.444E-03        -1.06869     304.350E-03        -1.06821     318.435E-03    -23.6119E-03     53.6454E-03    -26.3910E-03    -27.2375E-03    -25.5442E-03     52.1063E-03    -26.5452E-03     21.8608E-03     139.416E+06     7.11127E+06    -19.1633E+06    -17.0529E+06     139.372E+06     5.04494E+06    -1.12411E+06         31.9778
            1598     15.5816E-03     83.4115E-03     321.485E-03     311.238E-03        -1.07599     314.324E-03        -1.07538     317.789E-03     3.26136E-03     54.1271E-03    -26.5363E-03    -27.5972E-03    -25.1746E-03     51.8588E-03    -26.6905E-03     25.8860E-03     195.498E+06     57.2432E+06    -13.2703E+06    -13.2673E+06     195.495E+06     57.2432E+06     639.119E+03         34.4223
            1599     16.5563E-03     83.4463E-03     318.622E-03     305.926E-03        -1.07087     306.590E-03        -1.07022     317.308E-03     31.6375E-03     53.5874E-03    -25.8172E-03    -27.8188E-03    -24.9951E-03     51.8585E-03    -26.9121E-03     17.6154E-03     208.793E+06     113.703E+06    -7.11857E+06    -7.11706E+06     208.792E+06     113.703E+06     124.872E+03         37.0576
            1600     973.313E-06     84.2835E-03     925.610E-03    -112.548E-03        -1.25930    -268.900E-03        -1.09238     915.046E-03     312.993E-03     54.3483E-03    -27.1011E-03    -27.2481E-03    -27.2115E-03     54.3328E-03    -27.1223E-03     2.07891E-03    -75.3933E+06    -77.5345E+06    -256.703E+06    -77.3556E+06    -256.648E+06    -75.6279E+06    -3.00646E+06         23.9816
            1601     1.94676E-03     84.2864E-03     353.625E-03     323.442E-03        -1.11763     342.929E-03        -1.11062     327.126E-03    -80.9813E-03     54.3218E-03    -27.1442E-03    -27.1788E-03    -27.1005E-03     54.2777E-03    -27.1785E-03     3.70831E-03    -68.0688E+06    -74.0598E+06    -248.118E+06    -74.2279E+06    -247.950E+06    -68.0688E+06    -5.16227E+06         24.0025
            1602     2.92014E-03     84.2911E-03     361.287E-03     335.317E-03        -1.12587     360.304E-03        -1.12488     335.317E-03    -25.8229E-03     54.3230E-03    -27.1429E-03    -27.1791E-03    -27.0557E-03     54.2355E-03    -27.1788E-03     5.27827E-03    -57.5430E+06    -68.9558E+06    -232.379E+06    -69.3740E+06    -231.961E+06    -57.5430E+06    -7.97293E+06         24.0437
            1603     3.89353E-03     84.2972E-03     349.561E-03     331.861E-03        -1.11037     339.116E-03        -1.10758     339.526E-03     24.6647E-03     54.2940E-03    -27.0993E-03    -27.1855E-03    -26.9595E-03     54.1543E-03    -27.1855E-03     6.70736E-03    -45.7128E+06    -62.8035E+06    -216.461E+06    -63.5675E+06    -215.697E+06    -45.7128E+06    -10.6553E+06         24.1264
            1604     4.86721E-03     84.3047E-03     350.147E-03     323.952E-03        -1.10962     332.898E-03        -1.10741     338.989E-03     76.6182E-03     54.2271E-03    -27.0444E-03    -27.1773E-03    -26.8534E-03     54.0361E-03    -27.1773E-03     7.85438E-03    -34.5676E+06    -55.9586E+06    -199.871E+06    -57.1211E+06    -198.709E+06    -34.5676E+06    -12.7206E+06         24.2540
            1605     5.84075E-03     84.3132E-03     354.773E-03     319.788E-03        -1.11683     336.023E-03        -1.11665     338.355E-03    -3.14331E-03     54.1834E-03    -27.0310E-03    -27.1551E-03    -26.7939E-03     53.9463E-03    -27.1551E-03     8.75456E-03    -25.0756E+06    -49.1299E+06    -184.272E+06    -50.7457E+06    -182.656E+06    -25.0756E+06    -14.5632E+06         24.4144
            1606     6.81453E-03     84.3227E-03     343.459E-03     300.208E-03        -1.08836     307.232E-03        -1.08818     336.254E-03    -7.48638E-03     54.1764E-03    -27.0396E-03    -27.1370E-03    -26.7601E-03     53.8969E-03    -27.1370E-03     9.50552E-03    -17.0847E+06    -42.3945E+06    -171.596E+06    -44.3831E+06    -169.607E+06    -17.0847E+06    -15.8078E+06         24.6016
            1607     7.78814E-03     84.3328E-03     333.465E-03     285.450E-03        -1.06090     287.332E-03        -1.06084     331.521E-03     1.73958E-03     54.1268E-03    -27.0271E-03    -27.0925E-03    -26.7004E-03     53.8001E-03    -27.0925E-03     10.2688E-03    -13.8905E+06    -36.0077E+06    -156.112E+06    -38.3458E+06    -153.774E+06    -13.8905E+06    -16.4645E+06         24.8227
            1608     8.76206E-03     84.3439E-03     327.017E-03     295.028E-03        -1.06282     294.785E-03        -1.06258     327.017E-03    -3.90907E-03     54.0568E-03    -27.0171E-03    -27.0519E-03    -26.6425E-03     53.6700E-03    -27.0398E-03     11.1629E-03    -12.8327E+06    -30.3576E+06    -137.578E+06    -32.9894E+06    -134.946E+06    -12.8327E+06    -16.4910E+06         25.0961
            1609     9.73585E-03     84.3560E-03     324.535E-03     310.548E-03        -1.07405     309.856E-03        -1.07336     324.535E-03    -34.6645E-03     54.0169E-03    -26.9835E-03    -27.0503E-03    -26.6088E-03     53.5754E-03    -26.9835E-03     11.9295E-03    -11.7911E+06    -25.2836E+06    -118.857E+06    -28.0345E+06    -116.107E+06    -11.7911E+06    -15.6722E+06         25.4681
            1610     10.7097E-03     84.3686E-03     323.323E-03     312.619E-03        -1.07240     311.723E-03        -1.07151     323.323E-03    -1.14101E-03     53.9684E-03    -26.9005E-03    -27.0746E-03    -26.5521E-03     53.4459E-03    -26.9005E-03     12.9507E-03    -14.0759E+06    -20.9540E+06    -97.6817E+06    -23.5596E+06    -95.0761E+06    -14.0759E+06    -13.7827E+06         26.0595
            1611     11.6837E-03     84.3829E-03     321.785E-03     297.100E-03        -1.05714     296.558E-03        -1.05660     321.785E-03     17.9410E-03     53.9281E-03    -26.8191E-03    -27.1316E-03    -26.4372E-03     53.2338E-03    -26.8191E-03     14.8902E-03    -16.0213E+06    -18.3244E+06    -69.3817E+06    -20.1368E+06    -66.7874E+06    -16.8032E+06    -11.0571E+06         26.9963
            1612     12.6577E-03     84.3998E-03     319.408E-03     284.816E-03        -1.04190     284.626E-03        -1.04171     319.408E-03    -10.1022E-03     53.9442E-03    -26.7093E-03    -27.2401E-03    -26.2457E-03     52.9498E-03    -26.7093E-03     17.7776E-03    -4.23627E+06    -18.2321E+06    -38.7387E+06    -17.8784E+06    -22.4739E+06    -20.8547E+06    -8.24281E+06         28.3083
            1613     13.6322E-03     84.4200E-03     317.104E-03     290.954E-03        -1.04299     290.756E-03        -1.04279     317.104E-03     9.85230E-03     54.1699E-03    -26.5776E-03    -27.5677E-03    -25.9915E-03     52.5937E-03    -26.5776E-03     22.3030E-03     47.1889E+06    -16.5916E+06    -22.8106E+06    -17.1300E+06     46.1973E+06    -21.2806E+06    -4.82796E+06         29.9748
            1614     14.6067E-03     84.4466E-03     317.906E-03     296.183E-03        -1.04733     297.926E-03        -1.04669     315.525E-03    -32.5076E-03     53.6548E-03    -26.4286E-03    -27.2084E-03    -25.5572E-03     52.1311E-03    -26.5562E-03     21.7497E-03     136.070E+06     7.99821E+06    -18.5039E+06    -16.3975E+06     136.030E+06     5.93188E+06    -1.54413E+06         31.9797
            1615     15.5813E-03     84.4656E-03     316.646E-03     293.913E-03        -1.04482     295.662E-03        -1.04419     314.265E-03    -20.6426E-03     54.1457E-03    -26.5609E-03    -27.5909E-03    -25.1930E-03     51.8754E-03    -26.6885E-03     25.8736E-03     195.420E+06     56.3660E+06    -13.2239E+06    -13.2230E+06     195.419E+06     56.3660E+06    -34.3757E+03         34.4251
            1616     16.5565E-03     84.5011E-03     315.060E-03     299.894E-03        -1.05036     301.419E-03        -1.05005     313.227E-03    -7.94260E-03     53.5768E-03    -25.8162E-03    -27.8166E-03    -24.9811E-03     51.8393E-03    -26.9142E-03     17.6449E-03     208.993E+06     113.387E+06    -7.45732E+06    -7.45682E+06     208.993E+06     113.387E+06     291.503E+03         37.0615
            1617     973.387E-06     85.3380E-03     897.274E-03    -155.146E-03        -1.17019    -178.271E-03        -1.12905     879.258E-03     196.758E-03     54.2821E-03    -27.0592E-03    -27.2221E-03    -27.1988E-03     54.2671E-03    -27.0674E-03     2.05896E-03    -76.8260E+06    -79.0085E+06    -250.799E+06    -79.0432E+06    -250.725E+06    -76.8659E+06    -3.16578E+06         23.9809
            1618     1.94676E-03     85.3411E-03     382.725E-03     333.494E-03        -1.14466     361.969E-03        -1.14334     352.937E-03    -19.1176E-03     54.2852E-03    -27.1216E-03    -27.1639E-03    -27.0905E-03     54.2409E-03    -27.1506E-03     3.70572E-03    -69.1953E+06    -75.2061E+06    -241.811E+06    -75.4899E+06    -241.527E+06    -69.1953E+06    -6.51078E+06         24.0024
            1619     2.92014E-03     85.3458E-03     366.980E-03     331.677E-03        -1.11635     343.282E-03        -1.11456     353.584E-03    -27.7203E-03     54.2569E-03    -27.1047E-03    -27.1522E-03    -27.0155E-03     54.1674E-03    -27.1519E-03     5.33564E-03    -58.9171E+06    -69.8744E+06    -226.411E+06    -70.4861E+06    -225.799E+06    -58.9171E+06    -9.57708E+06         24.0435
            1620     3.89367E-03     85.3520E-03     357.241E-03     340.735E-03        -1.11739     345.671E-03        -1.11632     351.237E-03     12.0412E-03     54.2573E-03    -27.0889E-03    -27.1591E-03    -26.9485E-03     54.1169E-03    -27.1591E-03     6.72625E-03    -46.9095E+06    -63.8173E+06    -210.928E+06    -64.8886E+06    -209.857E+06    -46.9095E+06    -12.3279E+06         24.1261
            1621     4.86716E-03     85.3592E-03     371.515E-03     347.691E-03        -1.14635     366.511E-03        -1.14570     352.044E-03    -16.8058E-03     54.2229E-03    -27.0583E-03    -27.1572E-03    -26.8665E-03     54.0311E-03    -27.1572E-03     7.86766E-03    -35.8342E+06    -57.0558E+06    -195.181E+06    -58.7113E+06    -193.526E+06    -35.8342E+06    -14.8656E+06         24.2535
            1622     5.84085E-03     85.3681E-03     367.818E-03     328.392E-03        -1.12639     342.870E-03        -1.12578     352.727E-03    -38.8846E-03     54.1809E-03    -27.0430E-03    -27.1398E-03    -26.8036E-03     53.9414E-03    -27.1398E-03     8.79930E-03    -26.6238E+06    -50.0113E+06    -180.183E+06    -52.2726E+06    -177.922E+06    -26.6238E+06    -16.8863E+06         24.4142
            1623     6.81441E-03     85.3772E-03     347.077E-03     279.077E-03        -1.05459     278.778E-03        -1.05429     347.077E-03    -19.5960E-03     54.1667E-03    -27.0450E-03    -27.1238E-03    -26.7638E-03     53.8856E-03    -27.1238E-03     9.53359E-03    -18.9860E+06    -43.0711E+06    -168.670E+06    -45.8871E+06    -165.854E+06    -18.9860E+06    -18.4859E+06         24.6022
            1624     7.78826E-03     85.3874E-03     338.236E-03     273.993E-03        -1.04001     273.903E-03        -1.03992     338.236E-03    -1.88613E-03     54.1360E-03    -27.0422E-03    -27.0889E-03    -26.7197E-03     53.8082E-03    -27.0835E-03     10.2879E-03    -15.7720E+06    -36.3708E+06    -154.109E+06    -39.7356E+06    -150.744E+06    -15.7720E+06    -19.4794E+06         24.8236
            1625     8.76186E-03     85.3983E-03     332.552E-03     301.492E-03        -1.06091     301.231E-03        -1.06065     332.552E-03     16.4036E-03     54.0796E-03    -27.0305E-03    -27.0608E-03    -26.6688E-03     53.6917E-03    -27.0346E-03     11.1813E-03    -14.8074E+06    -30.2381E+06    -136.937E+06    -34.0858E+06    -133.089E+06    -14.8074E+06    -19.7619E+06         25.0965
            1626     9.73576E-03     85.4105E-03     329.542E-03     303.399E-03        -1.05885     302.637E-03        -1.05809     329.542E-03    -12.5954E-03     54.0213E-03    -26.9798E-03    -27.0565E-03    -26.6125E-03     53.5773E-03    -26.9798E-03     11.9628E-03    -14.0653E+06    -25.0734E+06    -119.695E+06    -29.1410E+06    -115.628E+06    -14.0653E+06    -19.0925E+06         25.4681
            1627     10.7096E-03     85.4231E-03     326.518E-03     289.505E-03        -1.04151     288.564E-03        -1.04057     326.518E-03    -5.32171E-03     53.9744E-03    -26.8966E-03    -27.0848E-03    -26.5601E-03     53.4497E-03    -26.8966E-03     12.9803E-03    -16.3119E+06    -21.4027E+06    -100.418E+06    -24.8724E+06    -96.3711E+06    -16.8893E+06    -17.3532E+06         26.0594
            1628     11.6835E-03     85.4373E-03     322.814E-03     275.707E-03        -1.02284     275.109E-03        -1.02225     322.814E-03     9.95071E-03     53.9209E-03    -26.8178E-03    -27.1286E-03    -26.4319E-03     53.2242E-03    -26.8178E-03     14.9131E-03    -16.6082E+06    -19.7016E+06    -73.2930E+06    -20.9456E+06    -69.2369E+06    -19.4202E+06    -14.3018E+06         26.9965
            1629     12.6578E-03     85.4540E-03     319.045E-03     273.234E-03        -1.01402     272.956E-03        -1.01374     319.045E-03    -9.29779E-03     53.9643E-03    -26.7126E-03    -27.2614E-03    -26.2707E-03     52.9736E-03    -26.7126E-03     17.7569E-03    -5.50539E+06    -20.2386E+06    -41.9410E+06    -18.6462E+06    -25.6733E+06    -23.3655E+06    -10.1237E+06         28.3089
            1630     13.6319E-03     85.4744E-03     315.921E-03     278.630E-03        -1.01268     278.463E-03        -1.01251     315.921E-03     20.4603E-03     54.1594E-03    -26.6005E-03    -27.5379E-03    -25.9791E-03     52.6006E-03    -26.6005E-03     22.1754E-03     43.5387E+06    -17.2458E+06    -22.1197E+06      -17.51E+06     42.0559E+06    -20.3727E+06    -5.62285E+06         29.9760
            1631     14.6064E-03     85.5007E-03     313.077E-03     269.087E-03        -1.00486     268.796E-03        -1.00457     313.077E-03    -15.1280E-03     53.5911E-03    -26.4478E-03    -27.1273E-03    -25.4933E-03     52.0697E-03    -26.5603E-03     21.7365E-03     133.199E+06     5.18544E+06    -15.6337E+06    -15.5668E+06     133.132E+06     5.18544E+06    -2.23896E+06         31.9817
            1632     15.5814E-03     85.5203E-03     310.422E-03     275.047E-03        -1.01496     274.828E-03        -1.01474     310.422E-03    -19.0682E-03     54.1580E-03    -26.5557E-03    -27.6103E-03    -25.2159E-03     51.8761E-03    -26.6682E-03     25.9736E-03     194.283E+06     52.3208E+06    -12.5727E+06    -12.5661E+06     194.276E+06     52.3208E+06    -41.7622E+03         34.4280
            1633     16.5563E-03     85.5551E-03     310.660E-03     293.484E-03        -1.02702     294.924E-03        -1.02663     308.827E-03     12.1737E-03     53.5563E-03    -25.7594E-03    -27.8515E-03    -24.9620E-03     51.8168E-03    -26.9094E-03     17.6709E-03     209.178E+06      112.49E+06    -7.48284E+06    -7.47882E+06     209.174E+06      112.49E+06     706.518E+03         37.0657
            1634     973.425E-06     86.3930E-03     894.388E-03    -105.741E-03        -1.20437    -131.889E-03        -1.15195     868.117E-03    -30.9188E-03     54.2347E-03    -27.0402E-03    -27.1934E-03    -27.1687E-03     54.2193E-03    -27.0495E-03     2.11201E-03    -78.5085E+06    -80.3924E+06    -243.531E+06    -80.3044E+06    -243.396E+06    -78.7307E+06    -4.08708E+06         23.9807
            1635     1.94670E-03     86.3956E-03     400.733E-03     354.206E-03        -1.17091     377.104E-03        -1.16304     369.964E-03    -7.66116E-03     54.2273E-03    -27.0897E-03    -27.1386E-03    -27.0579E-03     54.1826E-03    -27.1257E-03     3.71226E-03    -70.3405E+06    -76.2046E+06    -234.137E+06    -76.6225E+06    -233.719E+06    -70.3405E+06    -7.82820E+06         24.0021
            1636     2.92026E-03     86.4004E-03     373.192E-03     346.167E-03        -1.12905     345.847E-03        -1.12362     368.075E-03    -39.6334E-03     54.1924E-03    -27.0667E-03    -27.1257E-03    -26.9773E-03     54.1029E-03    -27.1257E-03     5.33569E-03    -60.0582E+06    -71.0318E+06    -219.902E+06    -71.8936E+06    -219.040E+06    -60.0582E+06    -11.0747E+06         24.0430
            1637     3.89374E-03     86.4065E-03     367.262E-03     341.564E-03        -1.11849     344.791E-03        -1.11672     362.262E-03     35.1271E-03     54.2158E-03    -27.0747E-03    -27.1324E-03    -26.9346E-03     54.0757E-03    -27.1324E-03     6.71540E-03    -48.0713E+06    -64.7507E+06    -204.719E+06    -66.1897E+06    -203.280E+06    -48.0713E+06    -13.9492E+06         24.1255
            1638     4.86724E-03     86.4140E-03     366.422E-03     330.270E-03        -1.10954     337.885E-03        -1.10884     358.110E-03    -61.7254E-03     54.2143E-03    -27.0703E-03    -27.1360E-03    -26.8786E-03     54.0226E-03    -27.1360E-03     7.86707E-03    -36.9117E+06    -57.7408E+06    -189.626E+06    -60.0005E+06    -187.367E+06    -36.9117E+06    -16.9045E+06         24.2530
            1639     5.84079E-03     86.4225E-03     358.749E-03     327.783E-03        -1.10111     331.818E-03        -1.10061     354.215E-03    -43.4174E-03     54.1721E-03    -27.0490E-03    -27.1238E-03    -26.8080E-03     53.9311E-03    -27.1238E-03     8.82421E-03    -28.0129E+06    -50.3077E+06    -175.771E+06    -53.4058E+06    -172.673E+06    -28.0129E+06    -19.3524E+06         24.4142
            1640     6.81452E-03     86.4321E-03     350.337E-03     312.966E-03        -1.08041     313.362E-03        -1.08021     349.737E-03    -2.53576E-03     54.1731E-03    -27.0617E-03    -27.1136E-03    -26.7817E-03     53.8914E-03    -27.1119E-03     9.54697E-03    -20.4321E+06    -43.0422E+06    -164.997E+06    -46.8936E+06    -161.145E+06    -20.4321E+06    -21.2093E+06         24.6030
            1641     7.78808E-03     86.4420E-03     344.090E-03     295.483E-03        -1.05587     294.892E-03        -1.05528     344.090E-03    -22.2000E-03     54.1442E-03    -27.0558E-03    -27.0825E-03    -26.7347E-03     53.8161E-03    -27.0755E-03     10.2931E-03    -17.3815E+06    -36.1759E+06    -151.679E+06    -40.8482E+06    -147.007E+06    -17.3815E+06    -22.6231E+06         24.8248
            1642     8.76193E-03     86.4532E-03     338.336E-03     289.934E-03        -1.04253     289.329E-03        -1.04193     338.336E-03    -19.6177E-03     54.0778E-03    -27.0234E-03    -27.0643E-03    -26.6694E-03     53.6868E-03    -27.0273E-03     11.2271E-03    -16.9383E+06    -30.1182E+06    -136.044E+06    -35.4717E+06    -130.691E+06    -16.9383E+06    -23.1020E+06         25.0972
            1643     9.73564E-03     86.4650E-03     332.835E-03     277.898E-03        -1.02494     276.824E-03        -1.02386     332.835E-03    -37.2549E-03     54.0267E-03    -26.9724E-03    -27.0684E-03    -26.6191E-03     53.5774E-03    -26.9724E-03     12.0342E-03    -16.6139E+06    -24.9486E+06    -120.360E+06    -30.6504E+06    -114.658E+06    -16.6139E+06    -22.5138E+06         25.4678
            1644     10.7095E-03     86.4777E-03     327.169E-03     265.470E-03        -1.00682     264.257E-03        -1.00561     327.169E-03    -24.7250E-03     53.9672E-03    -26.8903E-03    -27.0850E-03    -26.5610E-03     53.4432E-03    -26.8903E-03     12.9759E-03    -18.0618E+06    -22.4312E+06    -102.706E+06    -26.5227E+06    -96.9578E+06    -19.7182E+06    -20.8332E+06         26.0591
            1645     11.6836E-03     86.4917E-03     322.146E-03     271.009E-03        -1.00760     270.614E-03        -1.00720     322.146E-03     5.73493E-03     53.9305E-03    -26.8115E-03    -27.1481E-03    -26.4558E-03     53.2382E-03    -26.8115E-03     14.8645E-03    -16.9611E+06    -23.1472E+06    -77.8648E+06    -23.1128E+06    -71.7131E+06    -23.1472E+06    -18.0422E+06         26.9966
            1646     12.6575E-03     86.5085E-03     318.254E-03     273.576E-03        -1.00538     273.372E-03        -1.00518     318.254E-03    -8.78506E-03     53.9763E-03    -26.7104E-03    -27.2759E-03    -26.2827E-03     52.9831E-03    -26.7104E-03     17.7796E-03    -7.35073E+06    -23.8384E+06    -46.4788E+06    -19.6700E+06    -30.8416E+06    -27.1564E+06    -13.1180E+06         28.3094
            1647     13.6318E-03     86.5289E-03     314.568E-03     260.788E-03    -989.208E-03     260.724E-03    -989.143E-03     314.568E-03     10.9827E-03     54.1623E-03    -26.6062E-03    -27.5333E-03    -25.9781E-03     52.6071E-03    -26.6062E-03     22.1575E-03     39.9132E+06    -18.8680E+06    -23.8282E+06    -17.4938E+06     36.8968E+06    -22.1860E+06    -7.01244E+06         29.9770
            1648     14.6065E-03     86.5548E-03     310.855E-03     258.944E-03    -986.115E-03     258.785E-03    -985.957E-03     310.855E-03    -17.6631E-03     53.5916E-03    -26.4483E-03    -27.1286E-03    -25.4984E-03     52.0738E-03    -26.5606E-03     21.7197E-03     130.417E+06     2.92759E+06    -16.9889E+06    -16.8991E+06     130.327E+06     2.92759E+06    -2.44774E+06         31.9835
            1649     15.5814E-03     86.5745E-03     307.833E-03     268.582E-03    -990.916E-03     268.438E-03    -990.773E-03     307.833E-03    -17.8138E-03     54.0805E-03    -26.5422E-03    -27.5581E-03    -25.1666E-03     51.8014E-03    -26.6546E-03     25.9442E-03     192.687E+06     48.1318E+06    -14.2515E+06    -14.2442E+06     192.679E+06     48.1318E+06    -236.940E+03         34.4307
            1650     16.5563E-03     86.6098E-03     305.418E-03     267.122E-03    -985.501E-03     266.773E-03    -985.152E-03     305.418E-03     28.2255E-03     53.4483E-03    -25.7064E-03    -27.8022E-03    -24.8758E-03     51.7142E-03    -26.8987E-03     17.6057E-03     209.057E+06     110.292E+06    -7.95997E+06    -7.95455E+06     209.052E+06     110.292E+06     384.328E+03         37.0698
            1651     973.296E-06     87.4475E-03     850.551E-03    -26.0178E-03        -1.21609    -126.650E-03        -1.10259     837.685E-03    -220.498E-03     54.1775E-03    -27.0235E-03    -27.1539E-03    -27.1116E-03     54.1617E-03    -27.0500E-03     2.10082E-03    -78.9327E+06    -80.6751E+06    -234.339E+06    -80.5577E+06    -234.139E+06    -79.2501E+06    -5.25376E+06         23.9795
            1652     1.94688E-03     87.4504E-03     402.883E-03     361.613E-03        -1.16293     386.162E-03        -1.14621     361.613E-03    -6.80071E-03     54.1600E-03    -27.0624E-03    -27.0989E-03    -27.0210E-03     54.1143E-03    -27.0947E-03     3.76149E-03    -71.5306E+06    -77.1017E+06    -225.897E+06    -77.6728E+06    -225.326E+06    -71.5306E+06    -8.89021E+06         24.0002
            1653     2.92017E-03     87.4550E-03     413.281E-03     372.605E-03        -1.18429     401.835E-03        -1.17284     372.605E-03    -69.3917E-03     54.1845E-03    -27.0763E-03    -27.1073E-03    -26.9907E-03     54.0947E-03    -27.1032E-03     5.34452E-03    -60.7865E+06    -71.8105E+06    -212.362E+06    -72.9678E+06    -211.204E+06    -60.7865E+06    -12.4814E+06         24.0410
            1654     3.89370E-03     87.4612E-03     387.406E-03     346.831E-03        -1.13380     356.018E-03        -1.13071     375.134E-03     81.5409E-03     54.1845E-03    -27.0615E-03    -27.1152E-03    -26.9210E-03     54.0440E-03    -27.1152E-03     6.72225E-03    -48.9688E+06    -65.1726E+06    -197.969E+06    -67.1361E+06    -196.006E+06    -48.9688E+06    -15.8094E+06         24.1234
            1655     4.86728E-03     87.4687E-03     366.787E-03     307.060E-03        -1.07196     306.328E-03        -1.07123     366.787E-03     4.69293E-03     54.1843E-03    -27.0583E-03    -27.1185E-03    -26.8670E-03     53.9929E-03    -27.1185E-03     7.85790E-03    -37.8144E+06    -57.6249E+06    -183.302E+06    -60.6282E+06    -180.299E+06    -37.8144E+06    -18.9897E+06         24.2513
            1656     5.84084E-03     87.4772E-03     357.895E-03     314.857E-03        -1.07237     314.866E-03        -1.07177     357.294E-03     16.5912E-03     54.1673E-03    -27.0569E-03    -27.1109E-03    -26.8167E-03     53.9272E-03    -27.1109E-03     8.81010E-03    -28.8567E+06    -50.0147E+06    -170.546E+06    -54.1460E+06    -166.415E+06    -28.8567E+06    -21.7987E+06         24.4132
            1657     6.81442E-03     87.4866E-03     352.925E-03     331.738E-03        -1.08691     331.387E-03        -1.08596     352.325E-03     45.2859E-03     54.1620E-03    -27.0615E-03    -27.1017E-03    -26.7789E-03     53.8778E-03    -27.1000E-03     9.58687E-03    -21.7512E+06    -42.6119E+06    -161.004E+06    -47.7576E+06    -155.858E+06    -21.7512E+06    -24.0253E+06         24.6028
            1658     7.78812E-03     87.4967E-03     348.095E-03     305.289E-03        -1.05552     303.741E-03        -1.05397     348.095E-03     8.11734E-03     54.1406E-03    -27.0495E-03    -27.0830E-03    -26.7373E-03     53.8108E-03    -27.0655E-03     10.3209E-03    -18.8881E+06    -35.6163E+06    -148.772E+06    -41.8198E+06    -142.569E+06    -18.8881E+06    -25.6222E+06         24.8256
            1659     8.76181E-03     87.5075E-03     341.367E-03     270.666E-03        -1.01292     269.691E-03        -1.01195     341.367E-03    -15.7386E-03     54.0765E-03    -27.0158E-03    -27.0671E-03    -26.6725E-03     53.6858E-03    -27.0197E-03     11.2213E-03    -18.6333E+06    -29.4344E+06    -134.801E+06    -36.5508E+06    -127.684E+06    -18.6333E+06    -26.3407E+06         25.0980
            1660     9.73571E-03     87.5197E-03     333.698E-03     260.647E-03    -993.331E-03     259.643E-03    -992.327E-03     333.698E-03    -9.59205E-03     54.0208E-03    -26.9641E-03    -27.0677E-03    -26.6180E-03     53.5711E-03    -26.9641E-03     12.0399E-03    -18.8555E+06    -24.1974E+06    -120.834E+06    -31.8524E+06    -113.179E+06    -18.8555E+06    -26.0142E+06         25.4676
            1661     10.7095E-03     87.5321E-03     326.906E-03     259.697E-03    -985.816E-03     258.770E-03    -984.889E-03     326.906E-03    -4.49019E-03     53.9863E-03    -26.8850E-03    -27.1114E-03    -26.5872E-03     53.4621E-03    -26.8850E-03     12.9819E-03    -18.8777E+06    -23.4061E+06    -105.006E+06    -27.6763E+06    -97.2890E+06    -22.3244E+06    -24.3615E+06         26.0585
            1662     11.6834E-03     87.5462E-03     321.237E-03     260.229E-03    -983.046E-03     259.656E-03    -982.474E-03     321.237E-03     3.98609E-03     53.9493E-03    -26.8076E-03    -27.1735E-03    -26.4813E-03     53.2571E-03    -26.8076E-03     14.8686E-03    -16.1644E+06    -26.3884E+06    -81.8326E+06    -24.3982E+06    -73.5988E+06    -26.3884E+06    -21.4419E+06         26.9963
            1663     12.6575E-03     87.5629E-03     316.305E-03     255.996E-03    -974.093E-03     255.682E-03    -973.780E-03     316.305E-03    -16.3050E-03     53.9567E-03    -26.7051E-03    -27.2595E-03    -26.2715E-03     52.9687E-03    -26.7051E-03     17.7311E-03    -8.93531E+06    -29.8797E+06    -51.6061E+06    -22.0779E+06    -36.4989E+06    -31.8443E+06    -16.8012E+06         28.3096
            1664     13.6319E-03     87.5831E-03     311.909E-03     255.974E-03    -970.490E-03     255.886E-03    -970.403E-03     311.909E-03     3.65856E-03     54.1610E-03    -26.6050E-03    -27.5297E-03    -25.9854E-03     52.6167E-03    -26.6050E-03     22.0813E-03     35.0331E+06    -24.1332E+06    -27.8901E+06    -19.9576E+06     29.4324E+06    -26.4650E+06    -9.14857E+06         29.9778
            1665     14.6062E-03     87.6093E-03     308.317E-03     262.977E-03    -975.552E-03     262.556E-03    -975.130E-03     308.317E-03    -30.6641E-03     53.6317E-03    -26.4786E-03    -27.1366E-03    -25.5464E-03     52.1176E-03    -26.5547E-03     21.7130E-03     127.003E+06    -401.468E+03    -17.9938E+06    -17.5033E+06     126.880E+06    -768.622E+03    -2.93946E+06         31.9849
            1666     15.5809E-03     87.6289E-03     305.138E-03     255.162E-03    -961.645E-03     254.781E-03    -961.263E-03     305.138E-03    -24.1383E-03     54.0049E-03    -26.5615E-03    -27.4628E-03    -25.1055E-03     51.7237E-03    -26.6376E-03     25.9323E-03     191.519E+06     43.3875E+06    -14.1613E+06    -14.1520E+06     191.509E+06     43.3875E+06    -994.023E+03         34.4331
            1667     16.5564E-03     87.6636E-03     302.111E-03     255.660E-03    -963.778E-03     255.599E-03    -963.717E-03     302.111E-03     10.8457E-03     53.3097E-03    -25.6546E-03    -27.7130E-03    -24.7461E-03     51.5760E-03    -26.8878E-03     17.5857E-03     208.625E+06     107.740E+06    -8.37603E+06    -8.37368E+06     208.622E+06     107.740E+06    -350.504E+03         37.0738
            1668     973.438E-06     88.5019E-03     848.284E-03     63.4742E-03        -1.27950    -76.3725E-03        -1.10401     812.645E-03    -261.455E-03     54.1124E-03    -26.9588E-03    -27.1537E-03    -27.1205E-03     54.0964E-03    -26.9759E-03     2.10397E-03    -77.9513E+06    -80.1167E+06    -224.410E+06    -80.2202E+06    -224.171E+06    -78.0863E+06    -5.48832E+06         23.9769
            1669     1.94679E-03     88.5051E-03     433.501E-03     367.589E-03        -1.17346     396.434E-03        -1.14276     373.955E-03     65.1265E-03     54.1377E-03    -27.0380E-03    -27.0998E-03    -27.0204E-03     54.0913E-03    -27.0711E-03     3.79285E-03    -70.5915E+06    -76.3715E+06    -216.482E+06    -77.0823E+06    -215.771E+06    -70.5915E+06    -9.63358E+06         23.9980
            1670     2.92032E-03     88.5098E-03     416.446E-03     368.971E-03        -1.16501     388.160E-03        -1.14864     380.887E-03    -46.6186E-03     54.1544E-03    -27.0647E-03    -27.0889E-03    -26.9777E-03     54.0633E-03    -27.0848E-03     5.38224E-03    -60.5588E+06    -71.0392E+06    -203.977E+06    -72.5691E+06    -202.447E+06    -60.5588E+06    -13.8881E+06         24.0386
            1671     3.89370E-03     88.5159E-03     391.690E-03     358.420E-03        -1.13459     363.373E-03        -1.12789     380.038E-03     102.182E-03     54.1791E-03    -27.0753E-03    -27.0988E-03    -26.9330E-03     54.0368E-03    -27.0988E-03     6.76701E-03    -49.0827E+06    -64.2501E+06    -190.396E+06    -66.8559E+06    -187.790E+06    -49.0827E+06    -17.7374E+06         24.1206
            1672     4.86721E-03     88.5234E-03     373.266E-03     327.756E-03        -1.08645     326.432E-03        -1.08512     373.266E-03    -14.1896E-03     54.1674E-03    -27.0557E-03    -27.1046E-03    -26.8617E-03     53.9733E-03    -27.1046E-03     7.91115E-03    -38.2628E+06    -56.6803E+06    -176.567E+06    -60.5720E+06    -172.675E+06    -38.2628E+06    -21.0613E+06         24.2486
            1673     5.84080E-03     88.5319E-03     363.300E-03     301.712E-03        -1.05221     299.788E-03        -1.05029     363.300E-03    -25.3354E-03     54.1488E-03    -27.0490E-03    -27.0988E-03    -26.8070E-03     53.9067E-03    -27.0988E-03     8.84405E-03    -29.3331E+06    -48.9907E+06    -164.575E+06    -54.2791E+06    -159.287E+06    -29.3331E+06    -24.0232E+06         24.4112
            1674     6.81443E-03     88.5413E-03     354.461E-03     307.044E-03        -1.04412     304.775E-03        -1.04185     354.461E-03     1.29794E-03     54.1404E-03    -27.0531E-03    -27.0887E-03    -26.7669E-03     53.8542E-03    -27.0887E-03     9.61527E-03    -22.4282E+06    -41.6132E+06    -156.316E+06    -48.2671E+06    -149.662E+06    -22.4282E+06    -26.7043E+06         24.6020
            1675     7.78813E-03     88.5514E-03     348.313E-03     308.456E-03        -1.03613     307.054E-03        -1.03473     348.313E-03     9.64915E-03     54.1356E-03    -27.0396E-03    -27.0876E-03    -26.7398E-03     53.8033E-03    -27.0549E-03     10.3626E-03    -19.9493E+06    -34.4225E+06    -145.608E+06    -42.4546E+06    -137.576E+06    -19.9493E+06    -28.6507E+06         24.8260
            1676     8.76181E-03     88.5623E-03     342.127E-03     278.430E-03        -1.00357     277.504E-03        -1.00264     342.127E-03    -2.96532E-03     54.1018E-03    -27.0130E-03    -27.0955E-03    -26.7057E-03     53.7120E-03    -27.0130E-03     11.2142E-03    -19.8343E+06    -27.7474E+06    -133.117E+06    -37.0127E+06    -123.852E+06    -19.8343E+06    -29.7450E+06         25.0986
            1677     9.73549E-03     88.5741E-03     334.757E-03     260.048E-03    -978.211E-03     259.121E-03    -977.284E-03     334.757E-03     3.82112E-03     54.0203E-03    -26.9592E-03    -27.0727E-03    -26.6244E-03     53.5720E-03    -26.9592E-03     12.0205E-03    -19.2750E+06    -23.3507E+06    -121.069E+06    -32.0887E+06    -111.147E+06    -20.4592E+06    -29.6412E+06         25.4672
            1678     10.7095E-03     88.5868E-03     327.492E-03     251.671E-03    -963.624E-03     250.693E-03    -962.646E-03     327.492E-03     6.85774E-03     53.9704E-03    -26.8798E-03    -27.1025E-03    -26.5765E-03     53.4444E-03    -26.8798E-03     13.0017E-03    -17.5444E+06    -24.6100E+06    -107.348E+06    -27.7834E+06    -97.3282E+06    -24.3909E+06    -28.1850E+06         26.0576
            1679     11.6834E-03     88.6007E-03     320.415E-03     235.237E-03    -942.374E-03     234.489E-03    -941.626E-03     320.415E-03     17.1696E-03     53.9607E-03    -26.8010E-03    -27.1913E-03    -26.4989E-03     53.2683E-03    -26.8010E-03     14.8767E-03    -13.7413E+06    -28.9791E+06    -85.8730E+06    -24.1014E+06    -75.5129E+06    -28.9791E+06    -25.0966E+06         26.9957
            1680     12.6574E-03     88.6173E-03     314.003E-03     241.367E-03    -940.061E-03     241.020E-03    -939.715E-03     314.003E-03    -6.47199E-03     53.9917E-03    -26.7016E-03    -27.2973E-03    -26.3176E-03     53.0121E-03    -26.7016E-03     17.6690E-03    -7.60869E+06    -34.5718E+06    -55.4122E+06    -21.3069E+06    -41.4043E+06    -34.8814E+06    -20.0692E+06         28.3092
            1681     13.6316E-03     88.6374E-03     309.430E-03     261.267E-03    -953.624E-03     261.056E-03    -953.412E-03     309.430E-03     13.4598E-03     54.1868E-03    -26.5841E-03    -27.5778E-03    -26.0239E-03     52.6329E-03    -26.5841E-03     22.1378E-03     30.2504E+06    -28.3731E+06    -33.6901E+06    -18.8097E+06     20.5423E+06    -33.5454E+06    -12.7328E+06         29.9779
            1682     14.6062E-03     88.6636E-03     305.943E-03     254.962E-03    -945.508E-03     254.484E-03    -945.030E-03     305.943E-03    -10.4137E-03     53.5815E-03    -26.4162E-03    -27.1492E-03    -25.5119E-03     52.0480E-03    -26.5201E-03     21.8330E-03     121.916E+06    -4.03566E+06    -21.4682E+06    -16.0863E+06     121.397E+06    -8.89825E+06    -4.97576E+06         31.9858
            1683     15.5813E-03     88.6830E-03     302.575E-03     251.860E-03    -941.253E-03     251.117E-03    -940.510E-03     302.575E-03     10.5870E-03     53.9660E-03    -26.5130E-03    -27.4625E-03    -25.0834E-03     51.6908E-03    -26.6169E-03     25.9088E-03     191.067E+06     39.7150E+06    -12.9025E+06    -12.8878E+06     191.052E+06     39.7150E+06    -1.44044E+06         34.4351
            1684     16.5563E-03     88.7178E-03     300.043E-03     270.058E-03    -957.317E-03     269.678E-03    -956.937E-03     300.043E-03     25.6279E-03     53.2529E-03    -25.5773E-03    -27.7247E-03    -24.6970E-03     51.5270E-03    -26.8791E-03     17.6137E-03     208.003E+06     106.574E+06    -7.48045E+06    -7.47393E+06     207.996E+06     106.574E+06    -809.471E+03         37.0772
            1685     973.499E-06     89.5569E-03     863.106E-03     215.442E-03        -1.43359     8.67868E-03        -1.19147     827.749E-03    -367.909E-03     54.0470E-03    -26.9282E-03    -27.1202E-03    -27.1035E-03     54.0302E-03    -26.9282E-03     2.21369E-03    -76.2757E+06    -78.7224E+06    -213.748E+06    -78.6173E+06    -213.466E+06    -76.6628E+06    -5.58859E+06         23.9730
            1686     1.94681E-03     89.5596E-03     445.429E-03     395.686E-03        -1.19941     376.764E-03        -1.14513     410.073E-03     102.274E-03     54.1274E-03    -27.0318E-03    -27.0964E-03    -27.0330E-03     54.0799E-03    -27.0477E-03     3.82755E-03    -68.9937E+06    -74.5404E+06    -206.297E+06    -75.4318E+06    -205.406E+06    -68.9937E+06    -10.4473E+06         23.9946
            1687     2.92023E-03     89.5644E-03     391.455E-03     359.473E-03        -1.11622     329.422E-03        -1.08617     391.455E-03    -70.5102E-03     54.1290E-03    -27.0431E-03    -27.0850E-03    -26.9664E-03     54.0366E-03    -27.0694E-03     5.42628E-03    -59.2449E+06    -68.8805E+06    -194.315E+06    -70.8278E+06    -192.368E+06    -59.2449E+06    -15.1841E+06         24.0351
            1688     3.89376E-03     89.5707E-03     375.168E-03     338.838E-03        -1.08563     327.802E-03        -1.07459     375.168E-03     103.652E-03     54.1430E-03    -27.0575E-03    -27.0819E-03    -26.9141E-03     53.9996E-03    -27.0819E-03     6.78874E-03    -48.1075E+06    -61.9221E+06    -182.011E+06    -65.2441E+06    -178.689E+06    -48.1075E+06    -19.5042E+06         24.1168
            1689     4.86724E-03     89.5783E-03     365.339E-03     328.666E-03        -1.06718     327.192E-03        -1.06570     365.339E-03    -60.2856E-03     54.1474E-03    -27.0531E-03    -27.0871E-03    -26.8550E-03     53.9493E-03    -27.0871E-03     7.99163E-03    -37.7310E+06    -54.5331E+06    -169.551E+06    -59.3923E+06    -164.692E+06    -37.7310E+06    -22.9583E+06         24.2450
            1690     5.84083E-03     89.5866E-03     357.464E-03     312.550E-03        -1.04112     310.167E-03        -1.03874     357.464E-03    -75.5176E-03     54.1394E-03    -27.0511E-03    -27.0859E-03    -26.8071E-03     53.8927E-03    -27.0831E-03     8.92982E-03    -29.1311E+06    -47.0345E+06    -158.277E+06    -53.5983E+06    -151.713E+06    -29.1311E+06    -26.0884E+06         24.4087
            1691     6.81445E-03     89.5960E-03     349.865E-03     302.632E-03        -1.01838     299.995E-03        -1.01574     349.865E-03    -46.6562E-03     54.1486E-03    -27.0615E-03    -27.0882E-03    -26.7852E-03     53.8610E-03    -27.0768E-03     9.64370E-03    -22.1156E+06    -39.4010E+06    -150.645E+06    -47.6825E+06    -142.364E+06    -22.1156E+06    -29.1021E+06         24.6008
            1692     7.78805E-03     89.6060E-03     343.970E-03     308.567E-03        -1.01594     307.726E-03        -1.01510     343.970E-03    -3.50349E-03     54.1380E-03    -27.0434E-03    -27.0853E-03    -26.7469E-03     53.8028E-03    -27.0466E-03     10.4049E-03    -19.9637E+06    -31.9142E+06    -141.729E+06    -42.0246E+06    -131.619E+06    -19.9637E+06    -31.6256E+06         24.8257
            1693     8.76178E-03     89.6170E-03     339.045E-03     293.084E-03        -1.00019     292.233E-03    -999.344E-03     339.045E-03    -3.33091E-03     54.1025E-03    -27.0049E-03    -27.1032E-03    -26.7107E-03     53.7100E-03    -27.0049E-03     11.2555E-03    -20.3674E+06    -25.1952E+06    -130.984E+06    -36.9472E+06    -119.232E+06    -20.3674E+06    -33.1466E+06         25.0982
            1694     9.73552E-03     89.6288E-03     332.989E-03     266.796E-03    -970.126E-03     265.025E-03    -968.356E-03     332.989E-03    -26.8009E-03     54.0483E-03    -26.9540E-03    -27.1040E-03    -26.6550E-03     53.5993E-03    -26.9540E-03     12.0339E-03    -18.2027E+06    -22.3330E+06    -120.988E+06    -32.0049E+06    -108.305E+06    -21.2135E+06    -33.5234E+06         25.4663
            1695     10.7093E-03     89.6413E-03     326.103E-03     252.475E-03    -949.783E-03     250.444E-03    -947.752E-03     326.103E-03    -17.2128E-03     53.9722E-03    -26.8777E-03    -27.1052E-03    -26.5791E-03     53.4460E-03    -26.8777E-03     13.0049E-03    -14.5932E+06    -25.4834E+06    -109.449E+06    -27.4035E+06    -96.6392E+06    -25.4834E+06    -32.3601E+06         26.0563
            1696     11.6834E-03     89.6552E-03     319.333E-03     240.835E-03    -934.094E-03     240.160E-03    -933.419E-03     319.333E-03     35.1089E-03     53.9431E-03    -26.7979E-03    -27.1753E-03    -26.4845E-03     53.2523E-03    -26.7979E-03     14.8559E-03    -10.8045E+06    -30.8758E+06    -90.6756E+06    -23.7150E+06    -77.7650E+06    -30.8758E+06    -29.2675E+06         26.9944
            1697     12.6573E-03     89.6717E-03     313.150E-03     238.535E-03    -924.809E-03     238.416E-03    -924.690E-03     313.150E-03     5.72971E-03     54.0182E-03    -26.7021E-03    -27.3209E-03    -26.3416E-03     53.0389E-03    -26.7021E-03     17.6715E-03    -5.51006E+06    -36.6391E+06    -61.5703E+06    -20.8646E+06    -46.2158E+06    -36.6391E+06    -24.0739E+06         28.3081
            1698     13.6317E-03     89.6915E-03     307.934E-03     243.082E-03    -924.494E-03     242.876E-03    -924.288E-03     307.934E-03     13.7270E-03     54.2125E-03    -26.5861E-03    -27.5997E-03    -26.0541E-03     52.6669E-03    -26.5861E-03     22.0914E-03     25.1039E+06    -30.0123E+06    -38.8192E+06    -18.9079E+06     11.7082E+06    -36.5280E+06    -16.1785E+06         29.9772
            1699     14.6062E-03     89.7178E-03     303.942E-03     255.498E-03    -936.042E-03     255.110E-03    -935.654E-03     303.942E-03    -7.37714E-03     53.5135E-03    -26.3672E-03    -27.1294E-03    -25.4704E-03     51.9901E-03    -26.5028E-03     21.7519E-03     114.990E+06    -8.65372E+06    -24.1739E+06    -16.6583E+06     113.990E+06    -15.1694E+06    -7.63504E+06         31.9859
            1700     15.5811E-03     89.7372E-03     301.309E-03     270.847E-03    -949.895E-03     270.191E-03    -949.239E-03     301.309E-03     11.5291E-03     53.8633E-03    -26.4498E-03    -27.4184E-03    -25.0055E-03     51.5860E-03    -26.5854E-03     25.8857E-03     189.738E+06     33.7757E+06    -12.9655E+06    -12.8983E+06     189.671E+06     33.7757E+06    -2.65050E+06         34.4363
            1701     16.5565E-03     89.7720E-03     299.113E-03     258.412E-03    -929.644E-03     257.986E-03    -929.218E-03     299.113E-03     32.5127E-03     53.1628E-03    -25.5117E-03    -27.6941E-03    -24.6158E-03     51.4338E-03    -26.8610E-03     17.5772E-03     207.128E+06     104.131E+06    -7.45077E+06    -7.44367E+06     207.121E+06     104.131E+06    -940.246E+03         37.0800
            1702     973.421E-06     90.6113E-03     826.626E-03     318.119E-03        -1.50217     31.3766E-03        -1.19363     804.834E-03    -487.925E-03     54.0154E-03    -26.9568E-03    -27.0605E-03    -27.0423E-03     53.9972E-03    -26.9568E-03     2.32224E-03    -73.9988E+06    -76.2974E+06    -202.066E+06    -76.2495E+06    -201.727E+06    -74.3859E+06    -5.84748E+06         23.9686
            1703     1.94694E-03     90.6146E-03     428.153E-03     394.807E-03        -1.18255     342.249E-03        -1.10467     402.828E-03     84.1150E-03     54.0840E-03    -27.0263E-03    -27.0591E-03    -27.0084E-03     54.0358E-03    -27.0288E-03     3.86554E-03    -66.9233E+06    -71.8791E+06    -195.126E+06    -73.0378E+06    -193.967E+06    -66.9233E+06    -11.4653E+06         23.9898
            1704     2.92027E-03     90.6191E-03     380.484E-03     349.915E-03        -1.09168     313.564E-03        -1.05180     376.950E-03    -149.248E-03     54.0963E-03    -27.0294E-03    -27.0660E-03    -26.9507E-03     54.0020E-03    -27.0504E-03     5.47266E-03    -57.0842E+06    -65.8273E+06    -183.955E+06    -68.3022E+06    -181.480E+06    -57.0842E+06    -16.6051E+06         24.0305
            1705     3.89373E-03     90.6254E-03     360.158E-03     322.748E-03        -1.04655     311.552E-03        -1.03535     360.158E-03     70.5159E-03     54.0954E-03    -27.0300E-03    -27.0616E-03    -26.8831E-03     53.9486E-03    -27.0616E-03     6.86813E-03    -46.1743E+06    -58.9501E+06    -173.014E+06    -63.0604E+06    -168.904E+06    -46.1743E+06    -21.0720E+06         24.1125
            1706     4.86735E-03     90.6329E-03     351.021E-03     324.801E-03        -1.03497     321.571E-03        -1.03174     351.021E-03    -42.4825E-03     54.1212E-03    -27.0463E-03    -27.0673E-03    -26.8456E-03     53.9205E-03    -27.0673E-03     8.04314E-03    -35.8563E+06    -51.2941E+06    -162.009E+06    -57.2205E+06    -156.082E+06    -35.8563E+06    -24.7583E+06         24.2410
            1707     5.84091E-03     90.6415E-03     346.339E-03     328.207E-03        -1.02725     326.476E-03        -1.02551     346.339E-03    -12.5928E-03     54.1362E-03    -27.0582E-03    -27.0762E-03    -26.8182E-03     53.8862E-03    -27.0662E-03     8.98948E-03    -27.4642E+06    -43.3918E+06    -151.327E+06    -51.2604E+06    -143.459E+06    -27.4642E+06    -27.9522E+06         24.4058
            1708     6.81446E-03     90.6508E-03     342.611E-03     315.958E-03        -1.00784     314.474E-03        -1.00636     342.611E-03    -20.5043E-03     54.1594E-03    -27.0634E-03    -27.0987E-03    -26.8066E-03     53.8674E-03    -27.0634E-03     9.71953E-03    -20.6549E+06    -35.8544E+06    -144.364E+06    -45.8045E+06    -134.414E+06    -20.6549E+06    -31.2217E+06         24.5990
            1709     7.78809E-03     90.6609E-03     338.206E-03     301.465E-03    -991.083E-03     300.783E-03    -990.401E-03     338.206E-03     3.15227E-03     54.1469E-03    -27.0383E-03    -27.0990E-03    -26.7608E-03     53.8087E-03    -27.0383E-03     10.4540E-03    -18.4809E+06    -28.3293E+06    -136.798E+06    -40.6389E+06    -124.488E+06    -18.4809E+06    -34.2833E+06         24.8245
            1710     8.76178E-03     90.6716E-03     333.301E-03     289.408E-03    -976.339E-03     288.204E-03    -975.135E-03     333.301E-03     20.3834E-03     54.0990E-03    -26.9974E-03    -27.1044E-03    -26.7080E-03     53.7026E-03    -26.9974E-03     11.3099E-03    -18.6506E+06    -22.0829E+06    -128.194E+06    -35.6982E+06     -113.85E+06    -19.3796E+06    -36.3649E+06         25.0970
            1711     9.73552E-03     90.6834E-03     327.859E-03     272.670E-03    -954.210E-03     270.455E-03    -951.995E-03     327.859E-03    -7.39743E-03     54.0641E-03    -26.9475E-03    -27.1225E-03    -26.6720E-03     53.6137E-03    -26.9475E-03     12.0575E-03    -15.9485E+06    -21.0777E+06    -120.158E+06    -31.5010E+06    -104.706E+06    -20.9770E+06    -36.9690E+06         25.4647
            1712     10.7094E-03     90.6958E-03     321.961E-03     258.548E-03    -937.329E-03     256.757E-03    -935.538E-03     321.961E-03    -21.1699E-03     54.0117E-03    -26.8760E-03    -27.1451E-03    -26.6183E-03     53.4850E-03    -26.8760E-03     13.0162E-03    -11.9864E+06    -26.0288E+06    -110.967E+06    -27.9302E+06    -95.0236E+06    -26.0288E+06    -36.3311E+06         26.0543
            1713     11.6832E-03     90.7097E-03     316.337E-03     254.948E-03    -929.625E-03     254.067E-03    -928.744E-03     316.337E-03     8.38209E-03     53.9409E-03    -26.7991E-03    -27.1723E-03    -26.4846E-03     53.2531E-03    -26.7991E-03     14.8289E-03    -8.21173E+06    -32.1828E+06    -95.4668E+06    -24.3110E+06    -79.3675E+06    -32.1828E+06    -33.7463E+06         26.9922
            1714     12.6575E-03     90.7261E-03     311.078E-03     244.071E-03    -914.047E-03     243.654E-03    -913.631E-03     311.078E-03    -31.5497E-03     53.9915E-03    -26.7029E-03    -27.2936E-03    -26.3169E-03     53.0148E-03    -26.7029E-03     17.6349E-03    -3.67143E+06    -38.7551E+06    -68.8896E+06    -21.2278E+06    -51.3332E+06    -38.7551E+06    -28.2177E+06         28.3060
            1715     13.6314E-03     90.7461E-03     305.939E-03     236.628E-03    -903.914E-03     236.553E-03    -903.838E-03     305.939E-03    -7.68812E-03     54.2301E-03    -26.5848E-03    -27.6148E-03    -26.0776E-03     52.6929E-03    -26.5848E-03     22.0496E-03     20.8973E+06    -32.2083E+06    -44.9273E+06    -18.8704E+06     2.58690E+06    -39.9548E+06    -19.7340E+06         29.9754
            1716     14.6060E-03     90.7716E-03     301.756E-03     252.931E-03    -916.960E-03     252.322E-03    -916.351E-03     301.756E-03    -37.6920E-03     53.4891E-03    -26.3450E-03    -27.1232E-03    -25.4783E-03     51.9758E-03    -26.4765E-03     21.6898E-03     107.839E+06    -15.2536E+06    -26.4549E+06    -16.6171E+06     105.747E+06    -23.0001E+06    -10.5847E+06         31.9846
            1717     15.5813E-03     90.7912E-03     298.747E-03     258.622E-03    -917.079E-03     258.056E-03    -916.513E-03     298.747E-03    -33.3654E-03     53.7050E-03    -26.4023E-03    -27.2994E-03    -24.8806E-03     51.4178E-03    -26.5338E-03     25.8848E-03     186.432E+06     23.9549E+06    -13.7311E+06    -13.6063E+06     186.307E+06     23.9549E+06    -4.29745E+06         34.4362
            1718     16.5567E-03     90.8258E-03     295.754E-03     241.416E-03    -903.089E-03     241.059E-03    -902.732E-03     295.754E-03    -8.27502E-03     53.0092E-03    -25.4409E-03    -27.5926E-03    -24.4692E-03     51.2720E-03    -26.8270E-03     17.5354E-03     205.664E+06     99.9353E+06    -7.97583E+06    -7.95760E+06     205.645E+06     99.9353E+06    -1.52659E+06         37.0815
            1719     973.465E-06     91.6661E-03     757.078E-03     345.028E-03        -1.46184     6.82717E-03        -1.05506     688.499E-03    -537.509E-03     54.0531E-03    -26.9529E-03    -27.1013E-03    -27.0560E-03     54.0351E-03    -26.9802E-03     2.29388E-03    -69.7051E+06    -72.0073E+06    -189.607E+06    -71.8268E+06    -189.181E+06    -70.3119E+06    -6.40135E+06         23.9620
            1720     1.94679E-03     91.6693E-03     435.930E-03     346.193E-03        -1.13835     341.175E-03        -1.04360     346.193E-03     131.836E-03     54.0066E-03    -26.9722E-03    -27.0352E-03    -26.9294E-03     53.9576E-03    -27.0290E-03     3.89186E-03    -62.7766E+06    -67.4837E+06    -182.622E+06    -68.9071E+06    -181.198E+06    -62.7766E+06    -12.2813E+06         23.9835
            1721     2.92036E-03     91.6739E-03     374.896E-03     335.035E-03        -1.06892     325.596E-03        -1.02659     342.005E-03    -148.072E-03     54.0167E-03    -26.9885E-03    -27.0278E-03    -26.8923E-03     53.9205E-03    -27.0278E-03     5.52298E-03    -53.1599E+06    -61.6121E+06    -173.068E+06    -64.6852E+06    -169.995E+06    -53.1599E+06    -17.9360E+06         24.0253
            1722     3.89393E-03     91.6800E-03     362.047E-03     330.414E-03        -1.05016     341.259E-03        -1.03832     339.360E-03     77.4437E-03     54.0731E-03    -27.0258E-03    -27.0473E-03    -26.8861E-03     53.9230E-03    -27.0368E-03     6.94340E-03    -42.3438E+06    -54.3484E+06    -163.486E+06    -59.3152E+06    -158.519E+06    -42.3438E+06    -22.6001E+06         24.1081
            1723     4.86738E-03     91.6876E-03     354.053E-03     337.013E-03        -1.04323     346.937E-03        -1.03928     340.183E-03    -16.8960E-03     54.1124E-03    -27.0448E-03    -27.0625E-03    -26.8554E-03     53.9084E-03    -27.0480E-03     8.10953E-03    -32.4485E+06    -46.4903E+06    -153.785E+06    -53.5866E+06    -146.689E+06    -32.4485E+06    -26.4937E+06         24.2372
            1724     5.84095E-03     91.6962E-03     342.637E-03     325.580E-03        -1.01603     326.710E-03        -1.01425     339.722E-03     32.5237E-03     54.1190E-03    -27.0481E-03    -27.0687E-03    -26.8124E-03     53.8647E-03    -27.0500E-03     9.06352E-03    -24.5854E+06    -38.6108E+06    -144.267E+06    -47.8975E+06    -134.981E+06    -24.5854E+06    -29.8295E+06         24.4026
            1725     6.81460E-03     91.7057E-03     336.640E-03     310.174E-03    -990.038E-03     309.362E-03    -989.226E-03     336.640E-03     1.83910E-03     54.1462E-03    -27.0477E-03    -27.1021E-03    -26.8044E-03     53.8484E-03    -27.0477E-03     9.81419E-03    -17.7921E+06    -30.7731E+06    -137.421E+06    -42.3320E+06    -125.862E+06    -17.7921E+06    -33.0666E+06         24.5966
            1726     7.78815E-03     91.7155E-03     332.398E-03     297.257E-03    -970.818E-03     296.609E-03    -970.170E-03     332.398E-03     17.9173E-03     54.1540E-03    -27.0260E-03    -27.1191E-03    -26.7774E-03     53.8122E-03    -27.0260E-03     10.5113E-03    -15.6544E+06    -23.2589E+06    -130.712E+06    -37.5234E+06    -116.447E+06    -15.6544E+06    -36.3770E+06         24.8231
            1727     8.76182E-03     91.7264E-03     327.468E-03     281.685E-03    -950.558E-03     280.073E-03    -948.946E-03     327.468E-03     44.6876E-03     54.1124E-03    -26.9898E-03    -27.1246E-03    -26.7245E-03     53.7123E-03    -26.9898E-03     11.3638E-03    -15.8513E+06    -18.7943E+06    -124.434E+06    -33.8691E+06    -107.974E+06    -17.2366E+06    -38.5679E+06         25.0958
            1728     9.73557E-03     91.7381E-03     322.090E-03     270.760E-03    -932.434E-03     268.496E-03    -930.169E-03     322.090E-03     14.2478E-03     54.0798E-03    -26.9416E-03    -27.1442E-03    -26.6891E-03     53.6247E-03    -26.9416E-03     12.1222E-03    -12.7206E+06    -19.6746E+06    -118.278E+06    -30.6984E+06      -100.3E+06    -19.6746E+06    -39.6285E+06         25.4628
            1729     10.7093E-03     91.7505E-03     316.600E-03     257.367E-03    -917.419E-03     256.325E-03    -916.378E-03     316.600E-03    -22.9838E-03     54.0259E-03    -26.8726E-03    -27.1636E-03    -26.6387E-03     53.5009E-03    -26.8726E-03     12.9999E-03    -8.68698E+06    -25.3018E+06    -111.130E+06    -27.5713E+06    -92.2459E+06    -25.3018E+06    -39.6910E+06         26.0516
            1730     11.6833E-03     91.7642E-03     311.354E-03     253.609E-03    -911.681E-03     252.996E-03    -911.069E-03     311.354E-03     6.44328E-03     53.9814E-03    -26.7981E-03    -27.2139E-03    -26.5264E-03     53.2938E-03    -26.7981E-03     14.8273E-03    -5.40422E+06    -32.6697E+06    -99.1514E+06    -24.6733E+06    -79.8824E+06    -32.6697E+06    -37.8239E+06         26.9889
            1731     12.6572E-03     91.7803E-03     306.974E-03     258.640E-03    -911.766E-03     258.200E-03    -911.326E-03     306.974E-03    -17.3221E-03     54.0030E-03    -26.7047E-03    -27.3036E-03    -26.3330E-03     53.0323E-03    -26.7047E-03     17.5911E-03    -1.50930E+06    -40.4571E+06    -76.3167E+06    -21.6685E+06    -56.1575E+06    -40.4571E+06    -32.8601E+06         28.3025
            1732     13.6318E-03     91.8002E-03     303.246E-03     253.245E-03    -906.190E-03     253.179E-03    -906.123E-03     303.246E-03    -1.59741E-03     54.1620E-03    -26.5852E-03    -27.5516E-03    -26.0207E-03     52.6311E-03    -26.5852E-03     21.9728E-03     17.2869E+06    -34.6459E+06    -51.3126E+06    -18.8160E+06    -7.06225E+06    -42.7933E+06    -24.1583E+06         29.9722
            1733     14.6062E-03     91.8259E-03     299.189E-03     233.574E-03    -884.312E-03     232.901E-03    -883.639E-03     299.189E-03    -36.6459E-03     53.4432E-03    -26.3379E-03    -27.0884E-03    -25.4400E-03     51.9322E-03    -26.4752E-03     21.6517E-03     100.146E+06    -17.1375E+06    -28.1938E+06    -16.2978E+06     96.3975E+06    -25.2850E+06    -13.7764E+06         31.9820
            1734     15.5811E-03     91.8448E-03     294.727E-03     226.255E-03    -871.182E-03     225.354E-03    -870.282E-03     294.727E-03    -18.4215E-03     53.6289E-03    -26.3672E-03    -27.2516E-03    -24.8330E-03     51.3477E-03    -26.5046E-03     25.8107E-03     182.020E+06     19.6684E+06    -12.9290E+06    -12.6640E+06     181.756E+06     19.6684E+06    -6.22854E+06         34.4344
            1735     16.5570E-03     91.8794E-03     291.091E-03     244.818E-03    -893.250E-03     244.253E-03    -892.685E-03     291.091E-03     2.25029E-03     52.8632E-03    -25.3584E-03    -27.5368E-03    -24.3684E-03     51.1263E-03    -26.7898E-03     17.5104E-03     203.371E+06     95.9850E+06    -7.15675E+06    -7.11935E+06     203.334E+06     95.9850E+06    -2.43119E+06         37.0810
            1736     973.226E-06     92.7209E-03     681.145E-03     406.001E-03        -1.42496     26.0818E-03    -939.709E-03     575.808E-03    -550.850E-03     54.0164E-03    -26.9350E-03    -27.0825E-03    -27.0117E-03     53.9982E-03    -26.9877E-03     2.23702E-03    -62.7955E+06    -64.7661E+06    -176.280E+06    -64.6842E+06    -175.755E+06    -63.4023E+06    -7.14915E+06         23.9529
            1737     1.94691E-03     92.7238E-03     450.557E-03     308.588E-03        -1.11383     339.290E-03        -1.00257     308.588E-03     240.925E-03     53.9345E-03    -26.9239E-03    -27.0109E-03    -26.8787E-03     53.8821E-03    -27.0036E-03     4.02275E-03    -56.1447E+06    -60.5064E+06    -169.678E+06    -62.1197E+06    -168.064E+06    -56.1447E+06    -12.7427E+06         23.9765
            1738     2.92048E-03     92.7286E-03     378.253E-03     319.589E-03        -1.04681     339.770E-03        -1.00833     319.589E-03    -75.4687E-03     53.9850E-03    -26.9731E-03    -27.0119E-03    -26.8845E-03     53.8860E-03    -27.0016E-03     5.61231E-03    -46.5524E+06    -54.9196E+06    -160.975E+06    -58.3760E+06    -157.518E+06    -46.5524E+06    -18.5430E+06         24.0201
            1739     3.89395E-03     92.7349E-03     364.324E-03     325.701E-03        -1.03129     348.056E-03        -1.01502     325.701E-03     99.1672E-03     54.0451E-03    -27.0138E-03    -27.0334E-03    -26.8793E-03     53.8923E-03    -27.0152E-03     7.00144E-03    -36.4175E+06    -48.0995E+06    -153.095E+06    -53.8175E+06    -147.377E+06    -36.4175E+06    -23.6724E+06         24.1036
            1740     4.86753E-03     92.7425E-03     352.273E-03     330.121E-03        -1.02129     347.108E-03        -1.01612     330.121E-03    -19.5993E-03     54.0882E-03    -27.0282E-03    -27.0582E-03    -26.8501E-03     53.8802E-03    -27.0282E-03     8.19009E-03    -27.3159E+06    -40.1790E+06    -144.858E+06    -48.4729E+06    -136.564E+06    -27.3159E+06    -28.1137E+06         24.2330
            1741     5.84110E-03     92.7511E-03     336.665E-03     320.494E-03    -994.464E-03     323.667E-03    -992.075E-03     331.103E-03     31.1101E-03     54.1076E-03    -27.0319E-03    -27.0737E-03    -26.8140E-03     53.8479E-03    -27.0319E-03     9.15716E-03    -20.1291E+06    -31.9226E+06    -136.898E+06    -42.7641E+06    -126.057E+06    -20.1291E+06    -31.8766E+06         24.3986
            1742     6.81468E-03     92.7603E-03     328.349E-03     300.925E-03    -963.772E-03     299.893E-03    -962.740E-03     328.349E-03    -10.0091E-03     54.1229E-03    -27.0276E-03    -27.0974E-03    -26.7929E-03     53.8184E-03    -27.0276E-03     9.92219E-03    -13.9471E+06    -24.1829E+06    -130.467E+06    -37.3849E+06    -117.265E+06    -13.9471E+06    -34.9850E+06         24.5935
            1743     7.78834E-03     92.7705E-03     323.572E-03     282.548E-03    -940.129E-03     281.406E-03    -938.987E-03     323.572E-03     593.910E-06     54.1490E-03    -27.0131E-03    -27.1284E-03    -26.7825E-03     53.8031E-03    -27.0131E-03     10.5769E-03    -11.2870E+06    -17.7993E+06    -124.139E+06    -33.2136E+06    -108.724E+06    -11.2870E+06    -37.3959E+06         24.8218
            1744     8.76197E-03     92.7810E-03     318.265E-03     274.006E-03    -923.850E-03     272.447E-03    -922.291E-03     318.265E-03     1.43447E-03     54.1463E-03    -26.9830E-03    -27.1642E-03    -26.7635E-03     53.7456E-03    -26.9830E-03     11.3783E-03    -10.8874E+06    -14.4926E+06    -118.963E+06    -30.3216E+06    -101.284E+06    -12.7375E+06    -39.5449E+06         25.0953
            1745     9.73565E-03     92.7928E-03     313.756E-03     278.972E-03    -920.012E-03     277.057E-03    -918.097E-03     313.756E-03    -21.4625E-03     54.1028E-03    -26.9347E-03    -27.1705E-03    -26.7122E-03     53.6446E-03    -26.9347E-03     12.1665E-03    -7.85687E+06    -16.1891E+06    -114.432E+06    -27.7963E+06    -94.4922E+06    -16.1891E+06    -41.5367E+06         25.4608
            1746     10.7094E-03     92.8052E-03     310.268E-03     277.625E-03    -916.641E-03     276.149E-03    -915.165E-03     310.268E-03    -21.8304E-03     54.0403E-03    -26.8698E-03    -27.1828E-03    -26.6586E-03     53.5162E-03    -26.8698E-03     12.9970E-03    -4.08268E+06    -22.8088E+06    -109.955E+06    -25.3032E+06    -88.7348E+06    -22.8088E+06    -42.3708E+06         26.0476
            1747     11.6833E-03     92.8185E-03     307.063E-03     269.324E-03    -907.427E-03     268.890E-03    -906.994E-03     307.063E-03     34.0346E-03     54.0117E-03    -26.7984E-03    -27.2467E-03    -26.5590E-03     53.3240E-03    -26.7984E-03     14.8277E-03    -1.42824E+06    -31.2280E+06    -100.997E+06    -23.0948E+06    -79.3302E+06    -31.2280E+06    -41.0437E+06         26.9838
            1748     12.6574E-03     92.8350E-03     303.761E-03     260.451E-03    -898.903E-03     260.393E-03    -898.844E-03     303.761E-03     3.78155E-03     54.0222E-03    -26.7044E-03    -27.3252E-03    -26.3574E-03     53.0544E-03    -26.7044E-03     17.5787E-03     1.65009E+06    -40.9735E+06    -82.5227E+06    -21.1968E+06    -59.6758E+06    -40.9735E+06    -37.1580E+06         28.2972
            1749     13.6313E-03     92.8540E-03     300.297E-03     251.776E-03    -888.448E-03     251.674E-03    -888.346E-03     300.297E-03     2.87402E-03     54.1189E-03    -26.5821E-03    -27.5168E-03    -25.9901E-03     52.5921E-03    -26.5821E-03     21.9207E-03     15.9803E+06    -38.6320E+06    -57.3591E+06    -18.4124E+06    -16.2899E+06    -45.3084E+06    -29.5147E+06         29.9673
            1750     14.6064E-03     92.8797E-03     296.515E-03     237.645E-03    -873.467E-03     237.205E-03    -873.027E-03     296.515E-03    -7.49230E-03     53.3842E-03    -26.3217E-03    -27.0477E-03    -25.3830E-03     51.8694E-03    -26.4716E-03     21.6614E-03     92.7379E+06    -20.5663E+06    -28.6672E+06    -14.4608E+06     85.2080E+06    -27.2427E+06    -18.3119E+06         31.9778
            1751     15.5817E-03     92.8987E-03     292.443E-03     227.608E-03    -866.560E-03     226.724E-03    -865.676E-03     292.443E-03     21.8431E-03     53.5899E-03    -26.3660E-03    -27.2190E-03    -24.8222E-03     51.3429E-03    -26.5159E-03     25.6410E-03     175.576E+06     20.9667E+06    -11.5646E+06    -11.0835E+06     175.095E+06     20.9667E+06    -8.04738E+06         34.4306
            1752     16.5570E-03     92.9328E-03     288.649E-03     230.544E-03    -859.456E-03     229.993E-03    -858.905E-03     288.649E-03     30.3268E-03     52.7334E-03    -25.2752E-03    -27.4962E-03    -24.2756E-03     51.0307E-03    -26.7931E-03     17.4169E-03     200.425E+06     97.1867E+06    -7.00213E+06    -6.96304E+06     200.386E+06     97.1867E+06    -2.35952E+06         37.0780
            1753     973.621E-06     93.7753E-03     654.286E-03     446.348E-03        -1.43640     53.4459E-03    -952.914E-03     563.699E-03    -598.080E-03     53.8134E-03    -26.8116E-03    -27.0028E-03    -26.9581E-03     53.7941E-03    -26.8370E-03     2.28239E-03    -55.0876E+06    -56.5570E+06    -162.712E+06    -57.0036E+06    -162.092E+06    -55.2615E+06    -7.54034E+06         23.9452
            1754     1.94713E-03     93.7784E-03     430.129E-03     311.290E-03        -1.07857     321.848E-03    -970.289E-03     311.290E-03     264.488E-03     53.9084E-03    -26.9055E-03    -27.0030E-03    -26.9231E-03     53.8540E-03    -26.9309E-03     4.11732E-03    -48.1558E+06    -51.9514E+06    -156.141E+06    -53.8719E+06    -154.220E+06    -48.1558E+06    -13.5381E+06         23.9701
            1755     2.92054E-03     93.7834E-03     357.260E-03     315.225E-03        -1.00460     322.924E-03    -970.266E-03     315.225E-03    -51.0153E-03     53.9813E-03    -26.9720E-03    -27.0095E-03    -26.9075E-03     53.8793E-03    -26.9720E-03     5.69369E-03    -37.8340E+06    -45.4525E+06    -148.680E+06    -49.2626E+06    -144.869E+06    -37.8340E+06    -19.2535E+06         24.0148
            1756     3.89413E-03     93.7896E-03     335.829E-03     313.967E-03    -974.160E-03     316.008E-03    -956.783E-03     316.411E-03     84.6020E-03     54.0196E-03    -26.9977E-03    -27.0237E-03    -26.8674E-03     53.8633E-03    -26.9977E-03     7.08454E-03    -27.2578E+06    -38.2218E+06    -141.706E+06    -44.3661E+06    -135.562E+06    -27.2578E+06    -24.2960E+06         24.0982
            1757     4.86767E-03     93.7972E-03     324.661E-03     313.835E-03    -958.490E-03     316.508E-03    -952.781E-03     316.279E-03    -38.2229E-03     54.0506E-03    -27.0078E-03    -27.0422E-03    -26.8290E-03     53.8374E-03    -27.0078E-03     8.28565E-03    -19.0386E+06    -30.4483E+06    -134.609E+06    -39.4636E+06    -125.594E+06    -19.0386E+06    -29.1617E+06         24.2271
            1758     5.84127E-03     93.8059E-03     319.278E-03     313.932E-03    -956.729E-03     314.827E-03    -954.405E-03     316.059E-03     19.1822E-03     54.0904E-03    -27.0099E-03    -27.0787E-03    -26.8114E-03     53.8232E-03    -27.0099E-03     9.28900E-03    -13.3333E+06    -23.2748E+06    -128.366E+06    -35.0616E+06    -116.580E+06    -13.3333E+06    -33.1104E+06         24.3928
            1759     6.81490E-03     93.8151E-03     314.732E-03     293.465E-03    -931.906E-03     292.686E-03    -930.653E-03     314.259E-03    -14.9400E-03     54.1111E-03    -27.0062E-03    -27.1054E-03    -26.7927E-03     53.7983E-03    -27.0062E-03     10.0550E-03    -8.40247E+06    -17.3230E+06    -123.106E+06    -31.4699E+06    -108.960E+06    -8.40247E+06    -35.9648E+06         24.5890
            1760     7.78854E-03     93.8252E-03     309.699E-03     265.180E-03    -896.597E-03     263.953E-03    -895.370E-03     309.699E-03    -4.82274E-03     54.1429E-03    -26.9953E-03    -27.1426E-03    -26.7872E-03     53.7875E-03    -26.9953E-03     10.7212E-03    -6.13201E+06    -11.7141E+06    -117.768E+06    -27.9732E+06    -101.508E+06    -6.13201E+06    -38.1784E+06         24.8196
            1761     8.76213E-03     93.8360E-03     306.830E-03     272.396E-03    -899.773E-03     273.331E-03    -898.809E-03     304.932E-03    -19.7141E-03     54.1782E-03    -26.9679E-03    -27.2110E-03    -26.8022E-03     53.7694E-03    -26.9679E-03     11.4974E-03    -4.48441E+06    -8.34363E+06    -112.454E+06    -24.4462E+06    -93.7668E+06    -7.06947E+06    -40.5032E+06         25.0939
            1762     9.73577E-03     93.8476E-03     313.180E-03     294.995E-03    -925.149E-03     304.039E-03    -924.105E-03     303.092E-03    -29.3256E-03     54.1272E-03    -26.9235E-03    -27.2007E-03    -26.7384E-03     53.6648E-03    -26.9235E-03     12.2254E-03    -1.22310E+06    -10.7162E+06    -108.877E+06    -22.0454E+06    -88.0551E+06    -10.7162E+06     -42.514E+06         25.4572
            1763     10.7096E-03     93.8599E-03     311.195E-03     295.370E-03    -923.949E-03     302.374E-03    -922.763E-03     303.005E-03    -17.3232E-03     54.0539E-03    -26.8647E-03    -27.2015E-03    -26.6687E-03     53.5211E-03    -26.8647E-03     13.1018E-03     1.01031E+06    -18.3731E+06    -106.541E+06    -21.0798E+06    -84.4512E+06    -18.3731E+06    -43.4398E+06         26.0411
            1764     11.6834E-03     93.8733E-03     301.930E-03     279.683E-03    -901.104E-03     279.129E-03    -900.550E-03     301.930E-03     10.7452E-03     54.0125E-03    -26.7956E-03    -27.2532E-03    -26.5582E-03     53.3176E-03    -26.7956E-03     14.9132E-03     2.98092E+06    -27.8428E+06    -100.684E+06    -20.4405E+06    -77.2631E+06    -27.8428E+06    -43.3121E+06         26.9758
            1765     12.6574E-03     93.8892E-03     299.468E-03     263.058E-03    -883.704E-03     262.744E-03    -883.390E-03     299.468E-03    -31.1494E-03     53.9996E-03    -26.7019E-03    -27.3054E-03    -26.3293E-03     53.0235E-03    -26.7019E-03     17.6430E-03     5.56366E+06    -38.8119E+06    -86.6652E+06    -19.0682E+06    -62.0332E+06    -38.8119E+06    -40.6868E+06         28.2896
            1766     13.6320E-03     93.9083E-03     296.669E-03     260.653E-03    -879.129E-03     260.396E-03    -878.872E-03     296.669E-03     1.26422E-03     54.1712E-03    -26.5784E-03    -27.5703E-03    -26.0435E-03     52.6444E-03    -26.5784E-03     21.9542E-03     16.1120E+06    -41.1230E+06    -61.8376E+06    -17.6545E+06    -23.8159E+06    -45.3782E+06     -34.144E+06         29.9609
            1767     14.6064E-03     93.9335E-03     294.027E-03     255.950E-03    -873.813E-03     255.636E-03    -873.499E-03     294.027E-03     11.2574E-03     53.4068E-03    -26.2824E-03    -27.1061E-03    -25.4095E-03     51.8964E-03    -26.4685E-03     21.6503E-03     83.6904E+06    -25.4234E+06    -31.7818E+06    -16.2291E+06     72.3929E+06    -29.6787E+06    -22.6322E+06         31.9723
            1768     15.5816E-03     93.9528E-03     290.848E-03     232.491E-03    -851.340E-03     232.034E-03    -850.884E-03     290.848E-03     13.9893E-03     53.4500E-03    -26.3045E-03    -27.1382E-03    -24.7082E-03     51.2061E-03    -26.4905E-03     25.5945E-03     165.678E+06     15.2217E+06    -14.0136E+06    -13.1829E+06     164.847E+06     15.2217E+06    -9.94525E+06         34.4254
            1769     16.5574E-03     93.9862E-03     286.644E-03     208.698E-03    -821.129E-03     208.281E-03    -820.712E-03     286.644E-03     25.2901E-03     52.5316E-03    -25.1526E-03    -27.3994E-03    -24.1040E-03     50.8354E-03    -26.7517E-03     17.3877E-03     197.057E+06     92.6651E+06    -7.60468E+06    -7.55061E+06     197.003E+06     92.6651E+06    -2.69422E+06         37.0733
            1770     973.787E-06     94.8299E-03     622.082E-03     459.117E-03        -1.39621     73.0109E-03    -915.215E-03     527.189E-03    -691.876E-03     53.6909E-03    -26.7220E-03    -26.9693E-03    -26.9506E-03     53.6722E-03    -26.7220E-03     2.30274E-03    -45.5484E+06    -46.6101E+06    -147.718E+06    -47.0943E+06    -146.919E+06    -45.8633E+06    -8.19768E+06         23.9388
            1771     1.94714E-03     94.8333E-03     408.758E-03     301.591E-03        -1.02154     307.867E-03    -920.647E-03     301.591E-03     166.890E-03     53.8493E-03    -26.8829E-03    -26.9667E-03    -26.9128E-03     53.7954E-03    -26.8829E-03     4.07259E-03    -38.7132E+06    -41.7866E+06    -141.793E+06    -44.1228E+06    -139.457E+06    -38.7132E+06    -14.7229E+06         23.9638
            1772     2.92077E-03     94.8380E-03     348.867E-03     303.527E-03    -963.223E-03     306.457E-03    -920.812E-03     303.527E-03    -95.1600E-03     53.9041E-03    -26.9334E-03    -26.9706E-03    -26.8652E-03     53.7986E-03    -26.9334E-03     5.78061E-03    -29.1475E+06    -35.1640E+06    -136.515E+06    -39.7078E+06    -131.972E+06    -29.1475E+06    -20.7296E+06         24.0086
            1773     3.89427E-03     94.8444E-03     316.643E-03     295.122E-03    -919.512E-03     292.512E-03    -902.896E-03     302.638E-03     88.3979E-03     53.9557E-03    -26.9578E-03    -26.9992E-03    -26.8369E-03     53.7934E-03    -26.9578E-03     7.21361E-03    -18.4518E+06    -26.5952E+06    -130.486E+06    -33.6973E+06    -123.384E+06    -18.4518E+06    -26.0460E+06         24.0905
            1774     4.86794E-03     94.8518E-03     299.649E-03     286.933E-03    -897.009E-03     282.554E-03    -892.531E-03     299.550E-03    -49.0810E-03     54.0078E-03    -26.9771E-03    -27.0315E-03    -26.8112E-03     53.7875E-03    -26.9771E-03     8.42013E-03    -9.18057E+06    -18.7626E+06    -124.404E+06    -28.1407E+06    -115.026E+06    -9.18057E+06    -29.9812E+06         24.2165
            1775     5.84160E-03     94.8605E-03     297.689E-03     291.075E-03    -900.239E-03     290.176E-03    -898.767E-03     297.117E-03     2.93243E-03     54.0517E-03    -26.9846E-03    -27.0659E-03    -26.7907E-03     53.7765E-03    -26.9846E-03     9.42368E-03    -3.16996E+06    -12.8053E+06    -118.794E+06    -24.3211E+06    -107.278E+06    -3.16996E+06    -32.9162E+06         24.3808
            1776     6.81523E-03     94.8700E-03     299.833E-03     286.151E-03    -900.393E-03     288.826E-03    -899.094E-03     295.859E-03    -1.21291E-03     54.0890E-03    -26.9783E-03    -27.1108E-03    -26.7855E-03     53.7637E-03    -26.9783E-03     10.2500E-03     541.774E+03    -7.09115E+06    -114.193E+06    -21.0732E+06    -100.210E+06     541.774E+03    -36.0351E+06         24.5795
            1777     7.78888E-03     94.8800E-03     310.204E-03     275.127E-03    -900.162E-03     289.751E-03    -899.464E-03     294.882E-03     27.5376E-03     54.1394E-03    -26.9632E-03    -27.1767E-03    -26.8031E-03     53.7658E-03    -26.9632E-03     10.9926E-03     1.77444E+06    -1.78173E+06    -110.245E+06    -17.9286E+06    -93.7829E+06     1.45970E+06    -38.9393E+06         24.8138
            1778     8.76257E-03     94.8909E-03     313.284E-03     283.865E-03    -908.035E-03     301.801E-03    -907.539E-03     294.851E-03     22.4624E-03     54.1610E-03    -26.9371E-03    -27.2241E-03    -26.7961E-03     53.7330E-03    -26.9371E-03     11.7637E-03     3.03704E+06     15.5021E+03    -105.413E+06    -15.8481E+06    -86.6435E+06     130.808E+03    -40.9533E+06         25.0888
            1779     9.73620E-03     94.9024E-03     310.244E-03     286.560E-03    -905.123E-03     300.720E-03    -904.482E-03     295.442E-03     19.4035E-03     54.1301E-03    -26.9020E-03    -27.2172E-03    -26.7380E-03     53.6510E-03    -26.9020E-03     12.4457E-03     5.35883E+06    -3.47995E+06    -102.546E+06    -15.0032E+06    -82.1844E+06    -3.47995E+06    -42.2101E+06         25.4492
            1780     10.7099E-03     94.9143E-03     303.379E-03     277.581E-03    -888.709E-03     285.501E-03    -888.438E-03     295.189E-03    -464.774E-06     54.0579E-03    -26.8485E-03    -27.2214E-03    -26.6660E-03     53.5025E-03    -26.8485E-03     13.3730E-03     6.30878E+06    -11.7073E+06    -101.085E+06    -15.1883E+06    -79.5882E+06    -11.7073E+06    -42.9541E+06         26.0291
            1781     11.6839E-03     94.9280E-03     295.756E-03     277.330E-03    -884.949E-03     278.815E-03    -884.684E-03     294.006E-03    -2.68052E-03     53.9813E-03    -26.7804E-03    -27.2405E-03    -26.5297E-03     53.2705E-03    -26.7804E-03     15.0911E-03     7.11402E+06    -22.0917E+06    -97.0640E+06    -16.2922E+06    -73.6578E+06    -22.0917E+06    -43.4256E+06         26.9626
            1782     12.6580E-03     94.9434E-03     294.552E-03     279.626E-03    -885.804E-03     281.048E-03    -885.476E-03     292.801E-03    -33.3658E-03     54.0065E-03    -26.6862E-03    -27.3289E-03    -26.3373E-03     53.0149E-03    -26.6862E-03     17.7760E-03     7.79896E+06    -35.2051E+06    -88.1606E+06    -17.8777E+06    -62.4839E+06    -35.2051E+06    -42.3728E+06         28.2786
            1783     13.6321E-03     94.9624E-03     291.489E-03     271.228E-03    -870.425E-03     270.914E-03    -870.112E-03     291.489E-03    -19.0170E-03     54.2200E-03    -26.5673E-03    -27.6272E-03    -26.0811E-03     52.6739E-03    -26.5673E-03     22.1175E-03     15.5491E+06    -43.7741E+06    -63.8867E+06    -18.2990E+06    -29.8935E+06    -43.9192E+06    -37.2289E+06         29.9533
            1784     14.6067E-03     94.9875E-03     289.305E-03     250.885E-03    -848.618E-03     250.060E-03    -847.793E-03     289.305E-03    -37.3438E-03     53.4091E-03    -26.2777E-03    -27.1126E-03    -25.4125E-03     51.8826E-03    -26.4511E-03     21.7778E-03     73.8580E+06    -29.9363E+06    -33.0767E+06    -16.3863E+06     58.7414E+06    -31.5101E+06    -26.1775E+06         31.9675
            1785     15.5821E-03     95.0059E-03     286.241E-03     235.836E-03    -831.726E-03     235.145E-03    -831.034E-03     286.241E-03    -27.0531E-03     53.3520E-03    -26.2509E-03    -27.0953E-03    -24.6279E-03     51.0581E-03    -26.4243E-03     25.8426E-03     153.929E+06     6.88630E+06    -15.8941E+06    -13.0269E+06     152.491E+06     5.45764E+06    -12.7555E+06         34.4214
            1786     16.5581E-03     95.0396E-03     282.908E-03     228.745E-03    -829.229E-03     228.511E-03    -828.995E-03     282.908E-03     10.2189E-03     52.3281E-03    -25.0017E-03    -27.3460E-03    -23.9389E-03     50.5943E-03    -26.6750E-03     17.4875E-03     192.817E+06     84.3159E+06    -7.77418E+06    -7.65407E+06     192.697E+06     84.3159E+06    -4.00026E+06         37.0696
            1787     973.492E-06     95.8847E-03     571.867E-03     455.608E-03        -1.31269     82.3884E-03    -823.215E-03     455.608E-03    -667.847E-03     53.7209E-03    -26.7798E-03    -26.9408E-03    -26.8863E-03     53.7003E-03    -26.8137E-03     2.46503E-03    -31.0456E+06    -31.4523E+06    -130.921E+06    -32.1898E+06    -130.004E+06    -31.2251E+06    -8.87114E+06         23.9282
            1788     1.94726E-03     95.8878E-03     395.481E-03     271.058E-03    -951.372E-03     279.634E-03    -835.525E-03     271.058E-03     160.256E-03     53.7130E-03    -26.8264E-03    -26.8861E-03    -26.7961E-03     53.6567E-03    -26.8602E-03     4.14846E-03    -26.2309E+06    -27.8828E+06    -126.914E+06    -30.3082E+06    -124.265E+06    -26.4541E+06    -15.5866E+06         23.9546
            1789     2.92088E-03     95.8927E-03     334.109E-03     275.237E-03    -894.874E-03     288.357E-03    -849.123E-03     275.237E-03    -132.375E-03     53.7438E-03    -26.8582E-03    -26.8849E-03    -26.7646E-03     53.6333E-03    -26.8679E-03     5.90810E-03    -18.6111E+06    -22.1813E+06    -122.922E+06    -27.1709E+06    -117.709E+06    -18.8343E+06    -22.1180E+06         23.9999
            1790     3.89466E-03     95.8990E-03     303.615E-03     272.703E-03    -869.028E-03     282.205E-03    -852.689E-03     277.775E-03     44.3705E-03     53.8072E-03    -26.8758E-03    -26.9310E-03    -26.7479E-03     53.6338E-03    -26.8855E-03     7.44087E-03    -9.65062E+06    -15.1932E+06    -118.928E+06    -23.2987E+06    -110.822E+06    -9.65062E+06    -27.7198E+06         24.0792
            1791     4.86831E-03     95.9066E-03     294.113E-03     267.935E-03    -856.213E-03     277.957E-03    -850.231E-03     278.109E-03    -86.7061E-03     53.9040E-03    -26.9096E-03    -26.9932E-03    -26.7582E-03     53.6690E-03    -26.9096E-03     8.68837E-03    -504.218E+03    -8.76585E+06    -115.531E+06    -18.7876E+06    -105.509E+06    -504.218E+03    -31.1273E+06         24.1995
            1792     5.84195E-03     95.9152E-03     284.134E-03     271.007E-03    -850.280E-03     276.675E-03    -849.637E-03     277.824E-03     9.34321E-03     53.9422E-03    -26.9168E-03    -27.0233E-03    -26.7296E-03     53.6485E-03    -26.9168E-03     9.71826E-03     5.97275E+06     -1.9448E+06    -109.980E+06    -13.7400E+06    -98.1847E+06     5.97275E+06    -33.6042E+06         24.3579
            1793     6.81580E-03     95.9246E-03     290.713E-03     276.584E-03    -867.248E-03     288.397E-03    -866.647E-03     278.299E-03     7.64606E-03     53.9845E-03    -26.9098E-03    -27.0749E-03    -26.7232E-03     53.6328E-03    -26.9098E-03     10.6432E-03     10.0417E+06     4.99235E+06    -105.036E+06    -9.11830E+06    -90.9250E+06     10.0417E+06    -36.7607E+06         24.5545
            1794     7.78955E-03     95.9349E-03     318.105E-03     281.147E-03    -903.741E-03     317.437E-03    -903.073E-03     281.147E-03    -2.31405E-03     54.0583E-03    -26.8963E-03    -27.1629E-03    -26.7564E-03     53.6518E-03    -26.8963E-03     11.4521E-03     11.6485E+06      9.0205E+06    -102.333E+06    -6.13711E+06    -86.5436E+06     11.0167E+06    -38.9507E+06         24.7907
            1795     8.76318E-03     95.9457E-03     320.209E-03     285.174E-03    -910.082E-03     319.319E-03    -909.192E-03     285.174E-03    -28.2112E-03     54.0770E-03    -26.8776E-03    -27.2031E-03    -26.7403E-03     53.6143E-03    -26.8776E-03     12.2199E-03     12.0599E+06     9.64383E+06    -97.7934E+06    -5.17287E+06    -80.5607E+06     9.64383E+06    -39.9008E+06         25.0677
            1796     9.73703E-03     95.9572E-03     297.451E-03     277.784E-03    -877.680E-03     287.473E-03    -876.877E-03     286.960E-03    -18.0189E-03     54.0657E-03    -26.8535E-03    -27.2146E-03    -26.6988E-03     53.5499E-03    -26.8535E-03     12.9017E-03     13.0929E+06     6.42330E+06    -95.2773E+06    -5.34702E+06    -76.8374E+06     6.42330E+06    -40.6761E+06         25.4276
            1797     10.7108E-03     95.9691E-03     289.603E-03     271.819E-03    -859.985E-03     274.721E-03    -859.616E-03     286.332E-03    -11.9625E-03     54.0259E-03    -26.7987E-03    -27.2486E-03    -26.6549E-03     53.4322E-03    -26.7987E-03     13.8243E-03     13.4854E+06    -2.39747E+06    -94.2304E+06    -6.16968E+06    -74.5752E+06    -2.39747E+06    -41.5453E+06         26.0054
            1798     11.6847E-03     95.9823E-03     292.165E-03     280.400E-03    -867.881E-03     286.756E-03    -867.809E-03     285.737E-03     1.22841E-06     53.9827E-03    -26.7294E-03    -27.2906E-03    -26.5435E-03     53.2357E-03    -26.7294E-03     15.4749E-03     13.1101E+06    -13.2355E+06    -90.9880E+06    -7.94425E+06    -69.9336E+06    -13.2355E+06    -41.7228E+06         26.9406
            1799     12.6588E-03     95.9975E-03     288.666E-03     278.355E-03    -861.050E-03     281.386E-03    -860.923E-03     285.509E-03    -20.4758E-03     54.0492E-03    -26.6355E-03    -27.4206E-03    -26.3851E-03     53.0138E-03    -26.6355E-03     18.1722E-03     12.4288E+06    -27.6090E+06    -83.7188E+06    -10.7934E+06    -60.4966E+06    -27.6090E+06    -40.9622E+06         28.2629
            1800     13.6331E-03     96.0166E-03     284.231E-03     257.329E-03    -834.100E-03     256.975E-03    -833.746E-03     284.231E-03    -14.0435E-03     54.2176E-03    -26.5119E-03    -27.6815E-03    -26.0771E-03     52.6132E-03    -26.5119E-03     22.5357E-03     17.5638E+06    -40.6207E+06    -64.7433E+06    -13.5533E+06    -33.4810E+06    -40.7659E+06    -38.5080E+06         29.9454
            1801     14.6078E-03     96.0407E-03     281.812E-03     244.327E-03    -815.980E-03     243.459E-03    -815.111E-03     281.812E-03    -32.9696E-03     53.3886E-03    -26.2965E-03    -27.0786E-03    -25.4194E-03     51.8197E-03    -26.3867E-03     22.0646E-03     65.3229E+06    -31.1547E+06    -37.6166E+06    -14.2952E+06     45.3953E+06    -34.5485E+06    -29.4318E+06         31.9665
            1802     15.5831E-03     96.0590E-03     279.395E-03     248.931E-03    -816.818E-03     248.268E-03    -816.156E-03     279.395E-03    -26.6499E-03     53.3262E-03    -26.2598E-03    -27.0679E-03    -24.6502E-03     50.9987E-03    -26.3501E-03     26.0318E-03     141.612E+06     1.75899E+06    -17.9161E+06    -12.3612E+06     139.306E+06    -1.48961E+06    -15.5697E+06         34.4236
            1803     16.5589E-03     96.0924E-03     277.520E-03     251.731E-03    -816.817E-03     251.418E-03    -816.504E-03     277.520E-03    -15.8343E-03     52.1094E-03    -24.8139E-03    -27.3094E-03    -23.7739E-03     50.3515E-03    -26.5916E-03     17.6144E-03     186.798E+06     78.2235E+06    -7.88093E+06    -7.65842E+06     186.575E+06     78.2235E+06    -5.47834E+06         37.0736
            1804     973.625E-06     96.9390E-03     559.004E-03     418.515E-03        -1.25176     77.1107E-03    -769.869E-03     418.515E-03    -655.060E-03     53.5392E-03    -26.6999E-03    -26.8388E-03    -26.7809E-03     53.5151E-03    -26.7338E-03     2.61185E-03    -17.6315E+06    -18.2685E+06    -113.658E+06    -18.8582E+06    -112.593E+06    -18.1067E+06    -9.36673E+06         23.9032
            1805     1.94744E-03     96.9425E-03     359.117E-03     247.427E-03    -873.962E-03     246.104E-03    -760.949E-03     247.427E-03     170.964E-03     53.4951E-03    -26.7089E-03    -26.7861E-03    -26.6764E-03     53.4321E-03    -26.7556E-03     4.40590E-03    -13.2521E+06    -13.9067E+06    -110.902E+06    -16.5125E+06    -107.803E+06    -13.7449E+06    -16.6250E+06         23.9313
            1806     2.92126E-03     96.9471E-03     289.525E-03     246.904E-03    -806.471E-03     246.385E-03    -763.330E-03     246.904E-03    -116.877E-03     53.5006E-03    -26.7282E-03    -26.7709E-03    -26.6278E-03     53.3801E-03    -26.7508E-03     6.15143E-03    -6.12875E+06    -7.66398E+06    -108.447E+06    -13.1915E+06    -102.662E+06    -6.38590E+06    -23.3111E+06         23.9791
            1807     3.89514E-03     96.9535E-03     293.539E-03     250.274E-03    -817.654E-03     279.011E-03    -803.126E-03     250.274E-03     54.0168E-03     53.5628E-03    -26.7558E-03    -26.8039E-03    -26.6030E-03     53.3716E-03    -26.7656E-03     7.78932E-03     2.46000E+06    -1.64567E+06    -106.654E+06    -9.86225E+06    -98.4379E+06     2.46000E+06    -28.1182E+06         24.0581
            1808     4.86899E-03     96.9613E-03     304.062E-03     257.768E-03    -837.890E-03     298.045E-03    -831.872E-03     257.768E-03    -36.4075E-03     53.6293E-03    -26.7740E-03    -26.8501E-03    -26.5879E-03     53.3671E-03    -26.7740E-03     9.14773E-03     9.95248E+06     3.98848E+06    -105.894E+06    -6.31959E+06    -95.5862E+06     9.95248E+06    -32.0021E+06         24.1737
            1809     5.84293E-03     96.9697E-03     283.389E-03     262.384E-03    -825.422E-03     280.747E-03    -823.556E-03     263.160E-03     58.5381E-03     53.6880E-03    -26.7633E-03    -26.9209E-03    -26.5854E-03     53.3525E-03    -26.7633E-03     10.3532E-03     14.5529E+06     10.4635E+06    -101.473E+06    -2.20886E+06    -88.8003E+06     14.5529E+06    -35.3816E+06         24.3235
            1810     6.81675E-03     96.9793E-03     283.927E-03     264.995E-03    -833.217E-03     283.066E-03    -833.132E-03     265.771E-03     12.2972E-03     53.7441E-03    -26.7581E-03    -26.9861E-03    -26.5822E-03     53.3402E-03    -26.7581E-03     11.3731E-03     18.6062E+06     15.4719E+06    -96.8376E+06     1.17862E+06    -82.5443E+06     18.6062E+06    -37.4256E+06         24.5097
            1811     7.79067E-03     96.9894E-03     296.906E-03     268.644E-03    -853.244E-03     296.448E-03    -852.786E-03     268.644E-03    -9.14480E-03     53.7855E-03    -26.7470E-03    -27.0377E-03    -26.5682E-03     53.3160E-03    -26.7470E-03     12.2621E-03     20.3221E+06     17.4090E+06    -95.4576E+06     3.16018E+06    -80.4769E+06     19.5903E+06    -38.4201E+06         24.7388
            1812     8.76466E-03     97.0004E-03     294.420E-03     271.475E-03    -853.391E-03     293.529E-03    -852.500E-03     271.475E-03    -20.5971E-03     53.8533E-03    -26.7247E-03    -27.1334E-03    -26.5930E-03     53.3128E-03    -26.7247E-03     13.1639E-03     20.2249E+06     17.7361E+06    -91.1260E+06     4.48230E+06    -75.3835E+06     17.7361E+06    -38.7748E+06         25.0145
            1813     9.73844E-03     97.0117E-03     294.488E-03     273.240E-03    -854.620E-03     293.338E-03    -853.763E-03     273.533E-03    -26.6384E-03     53.9178E-03    -26.7121E-03    -27.2199E-03    -26.6191E-03     53.3171E-03    -26.7121E-03     13.8901E-03     21.6238E+06     15.7155E+06    -88.0604E+06     5.11514E+06    -71.5517E+06     15.7155E+06    -39.2007E+06         25.3772
            1814     10.7124E-03     97.0239E-03     303.522E-03     275.318E-03    -862.617E-03     302.839E-03    -862.227E-03     275.612E-03    -34.8380E-03     53.9390E-03    -26.6682E-03    -27.2909E-03    -26.6094E-03     53.2575E-03    -26.6682E-03     14.7885E-03     21.3394E+06     7.36357E+06    -87.2288E+06     4.28884E+06    -70.1782E+06     7.36357E+06    -39.4526E+06         25.9607
            1815     11.6864E-03     97.0367E-03     294.322E-03     275.203E-03    -849.914E-03     292.110E-03    -849.834E-03     277.335E-03    -8.20298E-03     54.0055E-03    -26.6067E-03    -27.4190E-03    -26.5736E-03     53.1601E-03    -26.6067E-03     16.4585E-03     19.5574E+06    -3.40185E+06    -84.6409E+06     1.76689E+06    -66.8503E+06    -3.40185E+06    -39.1217E+06         26.9053
            1816     12.6604E-03     97.0522E-03     278.884E-03     267.294E-03    -825.287E-03     268.578E-03    -825.165E-03     277.478E-03    -10.9099E-03     54.0785E-03    -26.5269E-03    -27.5521E-03    -26.4199E-03     52.9463E-03    -26.5269E-03     19.0247E-03     17.5480E+06    -17.0890E+06    -77.6144E+06    -1.80737E+06    -58.2591E+06    -17.0890E+06    -38.1522E+06         28.2409
            1817     13.6347E-03     97.0705E-03     279.418E-03     259.386E-03    -815.825E-03     261.970E-03    -815.465E-03     276.475E-03     11.9396E-03     54.2340E-03    -26.4270E-03    -27.7879E-03    -26.0911E-03     52.5372E-03    -26.4270E-03     23.1885E-03     18.9513E+06    -29.9610E+06    -60.2901E+06    -6.79875E+06    -34.5400E+06    -29.9610E+06    -35.8027E+06         29.9384
            1818     14.6094E-03     97.0946E-03     278.124E-03     253.184E-03    -806.330E-03     255.718E-03    -805.920E-03     275.180E-03     17.0941E-03     53.4889E-03    -26.2905E-03    -27.1902E-03    -25.5220E-03     51.8328E-03    -26.3027E-03     22.6999E-03     57.4084E+06    -26.1057E+06    -36.8392E+06    -11.2313E+06     35.4986E+06    -29.8038E+06    -29.7527E+06         31.9736
            1819     15.5845E-03     97.1123E-03     273.411E-03     241.552E-03    -790.620E-03     241.396E-03    -790.464E-03     273.411E-03    -1.26156E-03     53.3199E-03    -26.1943E-03    -27.1270E-03    -24.7179E-03     50.9229E-03    -26.2065E-03     26.4803E-03     129.500E+06    -7.83545E+06    -18.3256E+06    -11.1724E+06     126.045E+06    -11.5336E+06    -18.4052E+06         34.4404
            1820     16.5608E-03     97.1452E-03     270.747E-03     218.221E-03    -767.663E-03     217.988E-03    -767.431E-03     270.747E-03    -11.9867E-03     51.8313E-03    -24.5750E-03    -27.2592E-03    -23.6106E-03     50.0401E-03    -26.4324E-03     17.8180E-03     178.779E+06     66.4068E+06    -7.17192E+06    -6.76046E+06     178.368E+06     66.4068E+06    -7.13764E+06         37.0971
            1821     974.115E-06     97.9935E-03     496.546E-03     373.970E-03        -1.13227     79.6881E-03    -736.554E-03     395.115E-03    -553.851E-03     53.0833E-03    -26.4451E-03    -26.6385E-03    -26.5820E-03     53.0593E-03    -26.4776E-03     2.56695E-03    -3.80675E+06    -4.61136E+06    -95.1953E+06    -5.35037E+06    -93.9046E+06    -4.35844E+06    -10.0854E+06         23.8566
            1822     1.94787E-03     97.9966E-03     316.336E-03     235.500E-03    -817.432E-03     227.829E-03    -728.925E-03     235.500E-03     183.768E-03     53.0393E-03    -26.4852E-03    -26.5543E-03    -26.4388E-03     52.9693E-03    -26.5307E-03     4.60457E-03     522.325E+03    -200.209E+03    -93.9222E+06    -3.33779E+06    -90.3150E+06     52.7069E+03     -17.674E+06         23.8820
            1823     2.92199E-03     98.0013E-03     272.217E-03     234.728E-03    -771.560E-03     241.663E-03    -741.006E-03     234.728E-03    -55.7412E-03     53.0477E-03    -26.5059E-03    -26.5408E-03    -26.3871E-03     52.9070E-03    -26.5189E-03     6.60490E-03     5.95951E+06     5.17510E+06    -93.9428E+06    -869.564E+03    -87.5678E+06     5.62918E+06    -24.2536E+06         23.9303
            1824     3.89599E-03     98.0078E-03     274.964E-03     238.782E-03    -774.669E-03     262.013E-03    -761.718E-03     238.782E-03     68.0393E-03     53.0714E-03    -26.5152E-03    -26.5548E-03    -26.3303E-03     52.8469E-03    -26.5152E-03     8.39454E-03     12.3897E+06     10.3028E+06    -95.2654E+06     2.26729E+06    -86.7131E+06     11.8729E+06    -28.8449E+06         24.0096
            1825     4.87026E-03     98.0151E-03     276.717E-03     244.400E-03    -783.288E-03     272.111E-03    -778.682E-03     244.400E-03    -21.5685E-03     53.0918E-03    -26.5068E-03    -26.5831E-03    -26.2697E-03     52.7784E-03    -26.5068E-03     9.93008E-03     19.0123E+06     16.2999E+06    -94.8740E+06     5.95340E+06    -84.1070E+06     18.5919E+06    -32.8761E+06         24.1214
            1826     5.84447E-03     98.0240E-03     279.198E-03     249.293E-03    -790.843E-03     276.222E-03    -787.867E-03     249.293E-03     17.5165E-03     53.1641E-03    -26.4869E-03    -26.6742E-03    -26.2660E-03     52.7558E-03    -26.4869E-03     11.3484E-03     22.7898E+06     21.4125E+06    -92.6253E+06     8.69752E+06    -79.9104E+06     22.7898E+06    -35.8582E+06         24.2637
            1827     6.81867E-03     98.0336E-03     289.618E-03     253.863E-03    -808.020E-03     288.388E-03    -806.790E-03     253.863E-03    -43.8977E-03     53.2383E-03    -26.4744E-03    -26.7625E-03    -26.2613E-03     52.7372E-03    -26.4744E-03     12.5833E-03     25.6226E+06     24.0333E+06    -89.4232E+06     10.3282E+06    -75.7182E+06     25.6226E+06    -36.9573E+06         24.4395
            1828     7.79286E-03     98.0435E-03     280.431E-03     257.630E-03    -806.818E-03     280.356E-03    -806.744E-03     257.630E-03    -4.44700E-03     53.3059E-03    -26.4618E-03    -26.8461E-03    -26.2549E-03     52.7148E-03    -26.4618E-03     13.6710E-03     27.4607E+06     25.5830E+06    -88.5176E+06     11.8024E+06    -74.2472E+06     26.9709E+06    -37.8292E+06         24.6584
            1829     8.76714E-03     98.0544E-03     274.228E-03     259.737E-03    -802.242E-03     273.951E-03    -801.965E-03     259.737E-03     24.9451E-03     53.4206E-03    -26.4317E-03    -26.9935E-03    -26.3005E-03     52.7276E-03    -26.4317E-03     14.8117E-03     27.5393E+06     24.4568E+06    -85.7301E+06     12.8396E+06    -71.0304E+06     24.4568E+06    -38.0432E+06         24.9272
            1830     9.74134E-03     98.0661E-03     290.240E-03     261.829E-03    -820.918E-03     289.821E-03    -820.499E-03     261.829E-03     3.54033E-03     53.5811E-03    -26.4227E-03    -27.1678E-03    -26.3939E-03     52.8072E-03    -26.4227E-03     15.6875E-03     27.9615E+06     22.8498E+06    -82.0693E+06     12.8222E+06    -66.9299E+06     22.8498E+06    -37.8875E+06         25.2911
            1831     10.7154E-03     98.0778E-03     304.154E-03     264.895E-03    -839.446E-03     303.966E-03    -839.257E-03     264.895E-03    -25.0716E-03     53.7700E-03    -26.4020E-03    -27.3761E-03    -26.5068E-03     52.9006E-03    -26.4020E-03     16.6518E-03     26.1271E+06     15.6707E+06    -82.1532E+06     11.5312E+06    -67.5573E+06     15.6707E+06    -36.9311E+06         25.8875
            1832     11.6894E-03     98.0911E-03     295.489E-03     265.478E-03    -832.780E-03     293.235E-03    -832.658E-03     267.610E-03     5.69388E-03     53.9716E-03    -26.3628E-03    -27.6174E-03    -26.5636E-03     52.9178E-03    -26.3628E-03     18.3571E-03     23.4203E+06     5.24011E+06    -78.6268E+06     8.62505E+06    -63.8316E+06     5.24011E+06    -35.8111E+06         26.8522
            1833     12.6634E-03     98.1062E-03     277.316E-03     264.787E-03    -813.303E-03     273.293E-03    -813.207E-03     268.715E-03     7.69912E-03     54.1401E-03    -26.3078E-03    -27.8342E-03    -26.4981E-03     52.8040E-03    -26.3078E-03     20.6895E-03     19.5989E+06    -8.20906E+06    -72.8017E+06     4.25717E+06    -57.4600E+06    -8.20906E+06    -34.2759E+06         28.2106
            1834     13.6377E-03     98.1244E-03     272.613E-03     267.011E-03    -804.916E-03     270.646E-03    -804.745E-03     268.807E-03     1.93833E-03     54.4321E-03    -26.2386E-03    -28.1845E-03    -26.2766E-03     52.5242E-03    -26.2386E-03     24.6624E-03     18.8048E+06    -19.8756E+06    -55.0801E+06    -959.906E+03    -35.3154E+06    -19.8756E+06    -31.1712E+06         29.9325
            1835     14.6122E-03     98.1483E-03     272.009E-03     261.897E-03    -795.231E-03     265.086E-03    -795.011E-03     268.600E-03     4.61985E-03     53.7092E-03    -26.1530E-03    -27.5500E-03    -25.7217E-03     51.8809E-03    -26.1530E-03     23.9058E-03     51.8413E+06    -16.7856E+06    -28.5527E+06    -5.48375E+06     30.6505E+06    -18.6638E+06     -27.184E+06         31.9927
            1836     15.5874E-03     98.1658E-03     267.172E-03     230.530E-03    -757.543E-03     230.452E-03    -757.465E-03     267.172E-03    -204.226E-06     53.4175E-03    -26.0208E-03    -27.3926E-03    -24.8742E-03     50.8990E-03    -26.0208E-03     27.2693E-03     118.277E+06    -10.5007E+06    -16.1444E+06    -8.02432E+06     114.273E+06    -14.6164E+06    -19.2835E+06         34.4826
            1837     16.5633E-03     98.1972E-03     263.479E-03     182.523E-03    -718.686E-03     181.801E-03    -717.965E-03     263.479E-03     23.1690E-03     51.7139E-03    -24.4148E-03    -27.3001E-03    -23.6424E-03     49.8586E-03    -26.2172E-03     18.1968E-03     169.093E+06     57.6014E+06    -9.24530E+06    -6.39010E+06     168.475E+06     55.3639E+06    -8.60736E+06         37.1567
            1838     973.985E-06     99.0473E-03     401.588E-03     342.407E-03        -1.01523     96.1596E-03    -736.312E-03     368.914E-03    -439.433E-03     52.2736E-03    -26.0348E-03    -26.2389E-03    -26.1708E-03     52.2455E-03    -26.0749E-03     2.72840E-03     10.8928E+06     9.72631E+06    -75.6566E+06     9.12973E+06    -74.2366E+06     10.0694E+06    -10.1665E+06         23.7806
            1839     1.94876E-03     99.0502E-03     290.626E-03     231.589E-03    -786.580E-03     227.738E-03    -723.693E-03     231.589E-03     143.165E-03     52.1803E-03    -26.0684E-03    -26.1108E-03    -25.9850E-03     52.0946E-03    -26.1085E-03     5.02488E-03     13.8879E+06     11.9849E+06    -76.4323E+06     9.80276E+06    -72.6001E+06     12.2379E+06    -17.8606E+06         23.8014
            1840     2.92317E-03     99.0550E-03     266.567E-03     229.405E-03    -755.079E-03     243.251E-03    -734.777E-03     232.418E-03    -54.2283E-03     52.1639E-03    -26.0733E-03    -26.0904E-03    -25.9171E-03     51.9907E-03    -26.0734E-03     7.26253E-03     17.2619E+06     15.2409E+06    -79.2065E+06     10.6839E+06    -72.6285E+06     15.2409E+06    -24.2197E+06         23.8465
            1841     3.89784E-03     99.0613E-03     239.784E-03     213.333E-03    -708.415E-03     210.648E-03    -697.497E-03     231.550E-03     27.3920E-03     52.1422E-03    -26.0444E-03    -26.1001E-03    -25.8186E-03     51.8608E-03    -26.0444E-03     9.29591E-03     21.1965E+06     18.7441E+06    -83.3826E+06     12.1165E+06    -74.3026E+06     18.7441E+06    -29.4096E+06         23.9221
            1842     4.87244E-03     99.0686E-03     242.025E-03     213.027E-03    -700.258E-03     222.451E-03    -695.888E-03     228.231E-03    -83.2872E-03     52.1515E-03    -26.0153E-03    -26.1385E-03    -25.7307E-03     51.7437E-03    -26.0153E-03     11.1957E-03     25.3869E+06     22.9581E+06    -84.0906E+06     13.8150E+06    -72.6831E+06     23.1226E+06    -33.3676E+06         24.0256
            1843     5.84718E-03     99.0771E-03     281.066E-03     231.512E-03    -755.021E-03     279.724E-03    -753.678E-03     231.512E-03    -39.5745E-03     52.1909E-03    -25.9878E-03    -26.2036E-03    -25.6620E-03     51.6494E-03    -25.9878E-03     12.9133E-03     28.2313E+06     26.8392E+06    -84.5764E+06     15.3019E+06    -72.1477E+06     27.3399E+06    -35.2231E+06         24.1556
            1844     6.82204E-03     99.0868E-03     296.623E-03     239.382E-03    -781.184E-03     295.353E-03    -779.914E-03     239.382E-03    -47.5399E-03     52.2661E-03    -25.9512E-03    -26.3141E-03    -25.6329E-03     51.5849E-03    -25.9512E-03     14.4859E-03     29.9004E+06     28.3728E+06    -82.5529E+06     16.3041E+06    -69.4696E+06     28.8858E+06    -35.9167E+06         24.3209
            1845     7.79689E-03     99.0971E-03     277.316E-03     245.234E-03    -772.387E-03     277.078E-03    -772.148E-03     245.234E-03    -17.2136E-03     52.4522E-03    -25.9306E-03    -26.5197E-03    -25.6973E-03     51.6298E-03    -25.9306E-03     15.9446E-03     31.4951E+06     29.2061E+06    -81.7373E+06     16.6914E+06    -68.1328E+06     30.4054E+06    -36.5774E+06         24.5318
            1846     8.77153E-03     99.1077E-03     279.811E-03     248.787E-03    -786.472E-03     279.369E-03    -786.030E-03     248.787E-03    -23.3114E-03     52.6773E-03    -25.9043E-03    -26.7736E-03    -25.7963E-03     51.6999E-03    -25.9043E-03     17.4109E-03     30.9042E+06     26.8734E+06    -81.0026E+06     16.2056E+06    -67.3265E+06     27.8959E+06    -36.4357E+06         24.7933
            1847     9.74622E-03     99.1196E-03     291.863E-03     252.316E-03    -801.721E-03     291.445E-03    -801.303E-03     252.316E-03    -28.5787E-03     52.9586E-03    -25.8964E-03    -27.0685E-03    -25.9586E-03     51.8487E-03    -25.8964E-03     18.6107E-03     29.2994E+06     25.1900E+06    -77.1678E+06     14.9171E+06    -63.4339E+06     25.8384E+06    -35.5580E+06         25.1609
            1848     10.7206E-03     99.1316E-03     282.284E-03     254.817E-03    -791.564E-03     281.583E-03    -791.395E-03     255.349E-03    -11.7985E-03     53.4004E-03    -25.9020E-03    -27.5048E-03    -26.2667E-03     52.1622E-03    -25.9020E-03     19.7486E-03     26.7130E+06     19.4288E+06    -78.7634E+06     13.1867E+06    -65.8854E+06     20.0772E+06    -34.3975E+06         25.7814
            1849     11.6948E-03     99.1448E-03     275.475E-03     256.614E-03    -785.785E-03     274.802E-03    -785.644E-03     257.146E-03     5.62758E-03     53.8551E-03    -25.8985E-03    -27.9661E-03    -26.5161E-03     52.4051E-03    -25.8985E-03     21.4831E-03     22.9369E+06     10.1519E+06    -74.4582E+06     10.6669E+06    -62.1883E+06     10.1519E+06    -32.2540E+06         26.7786
            1850     12.6688E-03     99.1602E-03     278.271E-03     258.463E-03    -791.451E-03     277.932E-03    -791.111E-03     258.463E-03    -17.0656E-03     54.3058E-03    -25.9008E-03    -28.4112E-03    -26.6785E-03     52.5731E-03    -25.9008E-03     23.6044E-03     17.1698E+06    -1.49669E+06    -69.4160E+06     5.87390E+06    -58.1201E+06    -1.49669E+06    -29.0750E+06         28.1690
            1851     13.6428E-03     99.1780E-03     268.561E-03     257.077E-03    -779.006E-03     266.121E-03    -778.742E-03     259.252E-03    -26.5670E-03     54.8534E-03    -25.8881E-03    -28.9705E-03    -26.6601E-03     52.5430E-03    -25.8881E-03     27.2913E-03     15.6857E+06    -11.7930E+06    -51.3587E+06    -157.003E+03     -35.516E+06    -11.7930E+06    -26.2645E+06         29.9260
            1852     14.6168E-03     99.2021E-03     259.363E-03     247.339E-03    -758.253E-03     247.509E-03    -757.957E-03     258.897E-03    -29.7052E-03     54.1255E-03    -25.8786E-03    -28.2506E-03    -26.1072E-03     51.9821E-03    -25.8786E-03     25.9757E-03     48.0146E+06    -5.94296E+06    -22.3708E+06    -3.99871E+06     29.6425E+06    -5.94296E+06    -24.5596E+06         32.0255
            1853     15.5916E-03     99.2184E-03     257.293E-03     226.425E-03    -733.577E-03     226.130E-03    -733.282E-03     257.293E-03    -27.9449E-03     53.8588E-03    -25.7925E-03    -28.0627E-03    -25.3039E-03     51.1001E-03    -25.7925E-03     28.8056E-03     108.572E+06    -1.71302E+06    -11.1020E+06    -4.73212E+06     104.439E+06    -3.95058E+06    -18.9056E+06         34.5577
            1854     16.5675E-03     99.2498E-03     255.381E-03     208.943E-03    -712.568E-03     208.343E-03    -711.314E-03     254.727E-03    -5.39985E-03     52.1068E-03    -24.5226E-03    -27.5824E-03    -24.1295E-03     50.1162E-03    -25.9849E-03     18.8432E-03     158.137E+06     59.0938E+06    -6.27836E+06    -3.34198E+06     157.438E+06     56.8562E+06    -8.30634E+06         37.2667
            1855     975.289E-06     100.100E-03     375.791E-03     299.390E-03    -937.294E-03     130.661E-03    -697.527E-03     304.753E-03    -411.972E-03     50.7476E-03    -25.2912E-03    -25.4563E-03    -25.4117E-03     50.7105E-03    -25.2988E-03     3.10191E-03     24.0779E+06     21.8797E+06    -57.1174E+06     22.6478E+06    -55.7775E+06     21.9699E+06    -9.36423E+06         23.6575
            1856     1.95005E-03     100.103E-03     276.880E-03     219.396E-03    -756.752E-03     226.356E-03    -706.228E-03     219.396E-03     90.3692E-03     50.7433E-03    -25.3308E-03    -25.4113E-03    -25.2915E-03     50.6310E-03    -25.3383E-03     5.67709E-03     24.8979E+06     21.2327E+06    -58.6037E+06     21.2487E+06    -54.9545E+06     21.2327E+06    -16.8293E+06         23.6761
            1857     2.92534E-03     100.107E-03     232.616E-03     211.714E-03    -695.530E-03     203.826E-03    -673.600E-03     218.574E-03    -76.3268E-03     50.6593E-03    -25.3076E-03    -25.3514E-03    -25.1240E-03     50.4318E-03    -25.3076E-03     8.18337E-03     26.4807E+06     22.2258E+06    -64.4209E+06     20.0864E+06    -58.0266E+06     22.2258E+06    -23.1258E+06         23.7162
            1858     3.90065E-03     100.113E-03     231.280E-03     192.185E-03    -665.675E-03     200.348E-03    -656.808E-03     214.249E-03     27.6274E-03     50.5914E-03    -25.2547E-03    -25.3377E-03    -24.9583E-03     50.2120E-03    -25.2547E-03     10.5904E-03     28.5511E+06     23.8150E+06    -70.1579E+06     19.4949E+06    -61.1017E+06     23.8150E+06    -28.4536E+06         23.7833
            1859     4.87624E-03     100.121E-03     260.181E-03     199.882E-03    -694.483E-03     241.593E-03    -691.099E-03     215.086E-03    -62.9432E-03     50.5525E-03    -25.1920E-03    -25.3616E-03    -24.7962E-03     49.9872E-03    -25.1920E-03     12.9404E-03     29.4171E+06     24.6000E+06    -73.8794E+06     18.4061E+06    -62.8684E+06     24.6000E+06    -31.8498E+06         23.8744
            1860     5.85191E-03     100.129E-03     276.721E-03     222.224E-03    -728.195E-03     276.251E-03    -727.725E-03     222.224E-03     13.9058E-03     50.5801E-03    -25.1327E-03    -25.4495E-03    -24.6760E-03     49.8066E-03    -25.1327E-03     15.1377E-03     29.5286E+06     25.9557E+06    -76.7788E+06     17.3802E+06    -64.8191E+06     26.1444E+06    -33.5395E+06         23.9893
            1861     6.82768E-03     100.138E-03     265.782E-03     229.280E-03    -730.710E-03     265.422E-03    -730.350E-03     229.280E-03     21.2043E-03     50.7182E-03    -25.0710E-03    -25.6461E-03    -24.6470E-03     49.7192E-03    -25.0710E-03     17.2181E-03     28.7475E+06     26.3250E+06    -76.3773E+06     16.1982E+06    -64.0167E+06     26.5137E+06    -33.7920E+06         24.1397
            1862     7.80342E-03     100.149E-03     262.219E-03     233.556E-03    -736.630E-03     261.891E-03    -736.302E-03     233.556E-03     2.24259E-03     51.0078E-03    -25.0332E-03    -25.9698E-03    -24.7372E-03     49.7752E-03    -25.0332E-03     19.1758E-03     28.6729E+06     25.3958E+06    -75.4214E+06     14.2407E+06    -62.8474E+06     27.2540E+06    -33.5530E+06         24.3385
            1863     8.77906E-03     100.160E-03     280.889E-03     237.607E-03    -761.554E-03     280.471E-03    -761.135E-03     237.607E-03    -29.2320E-03     51.4613E-03    -25.0138E-03    -26.4450E-03    -24.9685E-03     49.9848E-03    -25.0138E-03     21.0870E-03     26.8891E+06     22.8482E+06    -76.5884E+06     11.8770E+06    -64.1037E+06     25.3755E+06    -33.2061E+06         24.5937
            1864     9.75440E-03     100.172E-03     286.540E-03     242.081E-03    -773.039E-03     286.215E-03    -772.714E-03     242.081E-03    -28.4968E-03     52.0344E-03    -25.0215E-03    -27.0124E-03    -25.3180E-03     50.3400E-03    -25.0215E-03     22.7439E-03     24.2499E+06     20.2036E+06    -73.2591E+06     9.24329E+06    -60.7853E+06     22.7363E+06    -32.0265E+06         24.9783
            1865     10.7294E-03     100.185E-03     268.995E-03     244.673E-03    -752.446E-03     268.295E-03    -752.277E-03     245.205E-03     1.88230E-03     52.7879E-03    -25.0680E-03    -27.7220E-03    -25.8435E-03     50.9093E-03    -25.0680E-03     24.1559E-03     21.1781E+06     15.7270E+06    -75.6651E+06     6.51112E+06    -63.8016E+06     18.5306E+06    -31.1475E+06         25.6455
            1866     11.7037E-03     100.198E-03     253.099E-03     244.887E-03    -734.148E-03     251.405E-03    -733.885E-03     246.317E-03    -3.74871E-03     53.6595E-03    -25.1216E-03    -28.5450E-03    -26.4327E-03     51.5472E-03    -25.1216E-03     25.8785E-03     14.5253E+06     7.84218E+06    -73.9168E+06     3.18572E+06    -63.5171E+06     8.78215E+06    -28.3062E+06         26.6904
            1867     12.6777E-03     100.214E-03     263.120E-03     246.031E-03    -747.587E-03     261.834E-03    -747.201E-03     246.930E-03    -31.2468E-03     54.5803E-03    -25.2088E-03    -29.3792E-03    -26.9735E-03     52.1746E-03    -25.2088E-03     27.9029E-03     7.61509E+06    -549.566E+03    -68.4014E+06    -883.925E+03    -59.9024E+06    -549.566E+03    -23.8982E+06         28.1118
            1868     13.6511E-03     100.232E-03     261.093E-03     245.124E-03    -745.718E-03     258.234E-03    -745.398E-03     247.663E-03    -8.74524E-03     55.4760E-03    -25.2934E-03    -30.1988E-03    -27.2366E-03     52.5138E-03    -25.2934E-03     31.1730E-03     9.38904E+06    -7.33974E+06    -48.7309E+06    -4.82216E+06    -34.5197E+06    -7.33974E+06    -21.5761E+06         29.9033
            1869     14.6247E-03     100.256E-03     246.967E-03     222.127E-03    -711.556E-03     221.818E-03    -711.248E-03     246.967E-03    -9.66429E-03     54.8735E-03    -25.3921E-03    -29.4972E-03    -26.8707E-03     52.2469E-03    -25.3921E-03     29.0133E-03     45.8549E+06     3.13699E+06    -21.7935E+06    -8.10866E+06     32.1701E+06     3.13699E+06    -21.7276E+06         32.0644
            1870     15.5988E-03     100.272E-03     244.724E-03     208.267E-03    -696.659E-03     208.019E-03    -696.411E-03     244.724E-03    -20.4135E-03     54.9149E-03    -25.4325E-03    -29.4851E-03    -26.3899E-03     51.8196E-03    -25.4325E-03     31.1177E-03     100.034E+06     8.48168E+06    -13.7746E+06    -10.0941E+06     96.3534E+06     8.48168E+06    -18.2158E+06         34.6730
            1871     16.5732E-03     100.303E-03     243.205E-03     215.963E-03    -698.604E-03     215.107E-03    -697.094E-03     242.550E-03    -56.7757E-03     53.3429E-03    -25.0467E-03    -28.2862E-03    -25.4708E-03     51.1883E-03    -25.7074E-03     19.4656E-03     146.300E+06     64.3080E+06    -8.46015E+06    -7.69190E+06     145.532E+06     64.3080E+06    -8.35873E+06         37.4362
            1872     976.142E-06     101.151E-03     337.912E-03     267.343E-03    -839.190E-03     126.780E-03    -639.047E-03     278.331E-03    -368.049E-03     48.3897E-03    -24.1233E-03    -24.2668E-03    -24.2167E-03     48.3395E-03    -24.1233E-03     3.55255E-03     31.9641E+06     30.0543E+06    -40.0952E+06     30.7605E+06    -38.9737E+06     30.1364E+06    -8.14744E+06         23.4734
            1873     1.95244E-03     101.154E-03     238.722E-03     202.305E-03    -678.464E-03     201.383E-03    -641.125E-03     202.305E-03     105.486E-03     48.3986E-03    -24.1469E-03    -24.2518E-03    -24.1020E-03     48.2488E-03    -24.1469E-03     6.38477E-03     31.7474E+06     27.8079E+06    -42.1587E+06     28.5844E+06    -38.9957E+06     27.8079E+06    -14.7097E+06         23.4880
            1874     2.92868E-03     101.158E-03     218.489E-03     197.431E-03    -655.208E-03     196.798E-03    -637.364E-03     201.278E-03    -1.08317E-03     48.3000E-03    -24.0991E-03    -24.2018E-03    -23.8875E-03     47.9857E-03    -24.0991E-03     9.36043E-03     31.2938E+06     25.8241E+06    -49.8260E+06     25.5921E+06    -44.1243E+06     25.8241E+06    -20.6283E+06         23.5194
            1875     3.90533E-03     101.163E-03     254.932E-03     201.262E-03    -686.639E-03     241.790E-03    -677.344E-03     205.109E-03     68.3685E-03     48.1800E-03    -24.0136E-03    -24.1663E-03    -23.6294E-03     47.6430E-03    -24.0136E-03     12.2653E-03     29.7550E+06     23.3074E+06    -57.0886E+06     21.7632E+06    -49.0968E+06     23.3074E+06    -25.0649E+06         23.5736
            1876     4.88212E-03     101.171E-03     268.017E-03     212.336E-03    -704.419E-03     264.176E-03    -702.918E-03     214.676E-03    -39.7051E-03     48.1160E-03    -23.9139E-03    -24.2023E-03    -23.3903E-03     47.3040E-03    -23.9139E-03     15.0845E-03     27.1100E+06     20.3726E+06    -63.7995E+06     17.5572E+06    -54.2468E+06     20.3726E+06    -27.8666E+06         23.6520
            1877     5.85928E-03     101.179E-03     241.168E-03     207.773E-03    -674.892E-03     227.626E-03    -673.818E-03     220.240E-03    -1.14382E-03     48.1792E-03    -23.8157E-03    -24.3649E-03    -23.2292E-03     47.0435E-03    -23.8157E-03     17.8458E-03     23.3646E+06     18.3046E+06    -68.5460E+06     12.9089E+06    -58.0903E+06     18.3046E+06    -29.1749E+06         23.7569
            1878     6.83644E-03     101.188E-03     240.256E-03     211.176E-03    -677.866E-03     228.530E-03    -676.266E-03     221.303E-03    -22.8570E-03     48.4413E-03    -23.7348E-03    -24.7073E-03    -23.2099E-03     46.9439E-03    -23.7348E-03     20.5403E-03     19.0212E+06     16.5267E+06    -70.8049E+06     7.90662E+06    -60.1588E+06     16.9952E+06    -28.9444E+06         23.8967
            1879     7.81352E-03     101.198E-03     264.641E-03     224.185E-03    -717.189E-03     263.586E-03    -716.134E-03     224.185E-03    -28.7174E-03     48.9314E-03    -23.6864E-03    -25.2449E-03    -23.3687E-03     47.0552E-03    -23.6864E-03     23.1093E-03     17.1104E+06     13.2233E+06    -69.7677E+06     2.84081E+06    -58.9809E+06     16.7061E+06    -27.9528E+06         24.0862
            1880     8.79043E-03     101.209E-03     265.581E-03     228.587E-03    -726.258E-03     265.239E-03    -725.917E-03     228.587E-03    -24.0271E-03     49.7492E-03    -23.6908E-03    -26.0592E-03    -23.8080E-03     47.4981E-03    -23.6908E-03     25.5534E-03     16.6621E+06     8.37199E+06    -71.8258E+06    -2.37549E+06    -61.0783E+06     16.6621E+06    -27.2849E+06         24.3458
            1881     9.76672E-03     101.222E-03     249.676E-03     230.678E-03    -708.479E-03     248.603E-03    -708.090E-03     231.362E-03    -29.6843E-03     50.7828E-03    -23.7397E-03    -27.0392E-03    -24.4794E-03     48.2230E-03    -23.7397E-03     27.5963E-03     14.6117E+06     4.27021E+06    -70.0001E+06    -7.23228E+06    -58.4977E+06     14.6117E+06    -26.5856E+06         24.7667
            1882     10.7423E-03     101.236E-03     256.842E-03     232.405E-03    -711.949E-03     255.763E-03    -711.554E-03     233.089E-03    -12.6993E-03     52.0231E-03    -23.8604E-03    -28.1589E-03    -25.3668E-03     49.2310E-03    -23.8604E-03     29.2572E-03     12.3337E+06    -182.825E+03    -72.8228E+06    -11.4563E+06    -61.5493E+06     12.3337E+06    -25.9903E+06         25.4987
            1883     11.7170E-03     101.250E-03     263.707E-03     234.185E-03    -720.629E-03     262.586E-03    -720.407E-03     235.084E-03    -7.11320E-03     53.4552E-03    -24.0162E-03    -29.4418E-03    -26.4303E-03     50.4438E-03    -24.0162E-03     30.9111E-03     4.95122E+06    -4.92450E+06    -75.3148E+06    -14.2543E+06    -65.3101E+06     4.27629E+06    -24.5539E+06         26.6022
            1884     12.6907E-03     101.267E-03     253.623E-03     225.975E-03    -703.822E-03     243.104E-03    -703.644E-03     236.316E-03    -10.1216E-03     54.9251E-03    -24.2164E-03    -30.7133E-03    -27.4661E-03     51.6779E-03    -24.2164E-03     32.6449E-03    -1.54385E+06    -8.09840E+06    -70.4064E+06    -15.0045E+06    -61.9950E+06    -3.04917E+06    -21.3509E+06         28.0529
            1885     13.6637E-03     101.287E-03     241.000E-03     221.136E-03    -691.732E-03     226.007E-03    -691.620E-03     236.017E-03     13.6355E-03     56.2803E-03    -24.4383E-03    -31.8521E-03    -28.1905E-03     52.6186E-03    -24.4383E-03     35.1248E-03     4.58454E+06    -8.37273E+06    -50.2365E+06    -15.4664E+06    -33.4850E+06    -5.07337E+06    -18.8697E+06         29.8704
            1886     14.6360E-03     101.310E-03     234.677E-03     212.512E-03    -682.751E-03     212.158E-03    -682.397E-03     234.677E-03     22.1746E-03     56.0096E-03    -24.6949E-03    -31.3253E-03    -28.2780E-03     52.9623E-03    -24.6949E-03     31.7133E-03     43.8601E+06     10.1134E+06    -25.2219E+06    -16.8076E+06     35.4458E+06     10.1134E+06    -18.2792E+06         32.1219
            1887     15.6084E-03     101.326E-03     232.414E-03     192.339E-03    -658.122E-03     191.852E-03    -657.635E-03     232.414E-03     1.94830E-03     56.6068E-03    -24.9208E-03    -31.6925E-03    -28.3440E-03     53.2584E-03    -24.9208E-03     33.2196E-03     95.0601E+06     19.2274E+06    -19.4663E+06    -16.6875E+06     92.2813E+06     19.2274E+06    -17.0218E+06         34.8568
            1888     16.5805E-03     101.358E-03     228.978E-03     163.826E-03    -625.217E-03     161.615E-03    -623.007E-03     228.978E-03    -15.3449E-03     55.9628E-03    -25.3255E-03    -30.6426E-03    -28.3056E-03     53.6845E-03    -25.3841E-03     19.7790E-03     136.179E+06     74.7925E+06    -12.3493E+06    -11.1982E+06     135.028E+06     74.7925E+06    -11.2562E+06         37.6814
            1889     977.762E-06     102.198E-03     273.559E-03     240.609E-03    -710.518E-03     112.014E-03    -578.477E-03     270.113E-03    -321.075E-03     45.0974E-03    -22.4953E-03    -22.6024E-03    -22.5288E-03     45.0278E-03    -22.4993E-03     4.02744E-03     36.1818E+06     34.7021E+06    -25.0577E+06     35.1927E+06    -24.1507E+06     34.7842E+06    -6.91967E+06         23.2201
            1890     1.95563E-03     102.201E-03     208.971E-03     191.589E-03    -601.759E-03     193.793E-03    -586.582E-03     191.589E-03     83.8628E-03     44.9734E-03    -22.4580E-03    -22.5159E-03    -22.3056E-03     44.7670E-03    -22.4619E-03     7.22343E-03     34.5769E+06     31.2456E+06    -28.2505E+06     32.2321E+06    -25.9058E+06     31.2456E+06    -11.6919E+06         23.2291
            1891     2.93376E-03     102.205E-03     238.089E-03     197.803E-03    -648.036E-03     231.750E-03    -641.697E-03     197.803E-03     13.9467E-03     44.8752E-03    -22.3589E-03    -22.5173E-03    -22.0818E-03     44.4397E-03    -22.3589E-03     10.5988E-03     31.0579E+06     25.5393E+06    -36.7780E+06     27.0534E+06    -32.7736E+06     25.5393E+06    -15.8363E+06         23.2516
            1892     3.91206E-03     102.210E-03     254.412E-03     204.299E-03    -671.107E-03     244.575E-03    -665.019E-03     208.048E-03     16.3726E-03     44.7648E-03    -22.2319E-03    -22.5333E-03    -21.7770E-03     44.0085E-03    -22.2319E-03     14.0033E-03     25.6290E+06     18.2778E+06    -45.3686E+06     20.1121E+06    -39.8517E+06     18.2778E+06    -18.8810E+06         23.2942
            1893     4.89080E-03     102.217E-03     233.330E-03     202.140E-03    -643.360E-03     220.549E-03    -641.755E-03     213.317E-03    -61.1721E-03     44.7644E-03    -22.1010E-03    -22.6633E-03    -21.5018E-03     43.6029E-03    -22.1010E-03     17.3596E-03     17.9620E+06     11.4107E+06    -54.0638E+06     11.5749E+06    -47.6767E+06     11.4107E+06    -20.3494E+06         23.3607
            1894     5.86963E-03     102.225E-03     224.375E-03     195.797E-03    -629.795E-03     205.884E-03    -628.858E-03     213.350E-03    -19.5295E-03     44.9541E-03    -21.9776E-03    -22.9781E-03    -21.3316E-03     43.3076E-03    -21.9776E-03     20.6999E-03     8.76994E+06     4.98494E+06    -60.2076E+06     1.57832E+06    -53.5075E+06     5.47644E+06    -20.2081E+06         23.4586
            1895     6.84867E-03     102.234E-03     242.481E-03     203.750E-03    -658.472E-03     230.763E-03    -656.882E-03     213.877E-03    -24.0188E-03     45.4311E-03    -21.8914E-03    -23.5432E-03    -21.3592E-03     43.2471E-03    -21.8914E-03     23.9667E-03     2.98783E+06    -2.66949E+06    -64.2039E+06    -8.75995E+06    -57.3067E+06     2.18106E+06    -19.5217E+06         23.6002
            1896     7.82758E-03     102.244E-03     248.929E-03     214.474E-03    -678.476E-03     245.572E-03    -677.473E-03     216.828E-03    -29.2592E-03     46.3293E-03    -21.8699E-03    -24.4605E-03    -21.7245E-03     43.5933E-03    -21.8699E-03     27.1164E-03     2.24255E+06    -10.6221E+06    -64.5507E+06    -18.1884E+06    -56.9844E+06     2.24255E+06    -18.5351E+06         23.7985
            1897     8.80586E-03     102.256E-03     233.935E-03     216.841E-03    -668.524E-03     231.213E-03    -668.157E-03     219.195E-03    -18.0482E-03     47.6825E-03    -21.9389E-03    -25.7490E-03    -22.5009E-03     44.4343E-03    -21.9389E-03     30.0477E-03     5.52285E+06    -16.9589E+06    -66.3795E+06    -25.5992E+06    -57.7392E+06     5.52285E+06    -18.5864E+06         24.0844
            1898     9.78326E-03     102.270E-03     224.561E-03     219.213E-03    -655.891E-03     223.492E-03    -655.507E-03     219.898E-03    -23.4575E-03     49.3316E-03    -22.0811E-03    -27.2549E-03    -23.6449E-03     45.7215E-03    -22.0811E-03     32.3477E-03     7.31581E+06    -19.8427E+06    -66.8857E+06    -30.5405E+06    -56.1879E+06     7.31581E+06    -19.2349E+06         24.5625
            1899     10.7595E-03     102.285E-03     246.415E-03     220.336E-03    -675.518E-03     245.410E-03    -675.197E-03     221.020E-03    -22.9736E-03     51.2675E-03    -22.3240E-03    -28.9418E-03    -25.1188E-03     47.4445E-03    -22.3240E-03     34.0937E-03     8.42662E+06    -20.4973E+06    -70.0043E+06    -32.6843E+06    -57.8173E+06     8.42662E+06    -20.8302E+06         25.3658
            1900     11.7340E-03     102.302E-03     259.797E-03     223.447E-03    -694.603E-03     259.735E-03    -694.541E-03     223.447E-03    -10.9420E-03     53.3984E-03    -22.6349E-03    -30.7628E-03    -26.8242E-03     49.4598E-03    -22.6349E-03     35.4987E-03     3.47685E+06    -18.7716E+06    -75.9004E+06    -31.2724E+06    -63.3996E+06     3.47685E+06    -23.2841E+06         26.5306
            1901     12.7071E-03     102.320E-03     240.214E-03     211.762E-03    -664.539E-03     227.090E-03    -664.467E-03     224.814E-03    -4.89312E-03     55.4769E-03    -23.0059E-03    -32.4696E-03    -28.4824E-03     51.4897E-03    -23.0059E-03     36.5700E-03    -2.44458E+06    -17.1468E+06    -75.1350E+06    -27.7287E+06    -64.5531E+06    -2.44458E+06    -22.1158E+06         28.0253
            1902     13.6785E-03     102.341E-03     223.551E-03     193.687E-03    -629.801E-03     193.367E-03    -629.481E-03     223.551E-03    -13.4759E-03     57.3818E-03    -23.4182E-03    -33.9651E-03    -29.7941E-03     53.2108E-03    -23.4182E-03     38.1292E-03     5.62328E+06    -8.53218E+06    -53.9550E+06    -23.9181E+06    -32.6088E+06    -336.976E+03    -19.6161E+06         29.8879
            1903     14.6491E-03     102.366E-03     221.215E-03     192.413E-03    -628.767E-03     191.845E-03    -628.199E-03     221.215E-03    -3.22081E-03     57.6195E-03    -23.8876E-03    -33.7339E-03    -30.4684E-03     54.3541E-03    -23.8876E-03     33.4626E-03     45.6324E+06     20.5556E+06    -25.4892E+06    -18.0121E+06     38.1554E+06     20.5556E+06    -19.3734E+06         32.2564
            1904     15.6190E-03     102.382E-03     218.738E-03     181.931E-03    -617.785E-03     180.862E-03    -616.716E-03     218.738E-03    -20.8023E-03     59.0933E-03    -24.3708E-03    -34.7308E-03    -31.3407E-03     55.7032E-03    -24.3708E-03     34.5366E-03     94.9801E+06     38.3343E+06    -13.9894E+06    -10.5039E+06     91.4946E+06     38.3343E+06    -18.5683E+06         35.1403
            1905     16.5884E-03     102.416E-03     215.402E-03     154.119E-03    -584.669E-03     151.564E-03    -582.114E-03     215.402E-03     15.6108E-03     60.0447E-03    -25.0928E-03    -34.9722E-03    -32.6776E-03     57.7500E-03    -25.0928E-03     19.9741E-03     129.527E+06     88.5800E+06    -6.09781E+06    -4.57657E+06     125.736E+06     90.8504E+06    -12.6970E+06         38.0138
            1906     979.825E-06     103.243E-03     240.885E-03     209.479E-03    -612.294E-03     146.189E-03    -542.554E-03     234.435E-03    -218.899E-03     40.6385E-03    -20.2319E-03    -20.4063E-03    -20.3089E-03     40.5450E-03    -20.2358E-03     4.42621E-03     35.0088E+06     33.1678E+06    -13.9318E+06     34.3188E+06    -13.4605E+06     33.3865E+06    -4.29484E+06         22.8865
            1907     1.96002E-03     103.245E-03     219.638E-03     194.849E-03    -588.637E-03     212.884E-03    -581.884E-03     194.849E-03     47.3591E-03     40.4719E-03    -20.1896E-03    -20.2826E-03    -19.9991E-03     40.1924E-03    -20.1935E-03     7.96361E-03     29.0367E+06     25.8592E+06    -18.3135E+06     27.9740E+06    -17.2508E+06     25.8592E+06    -6.68488E+06         22.8931
            1908     2.94040E-03     103.248E-03     235.279E-03     198.343E-03    -616.765E-03     227.247E-03    -613.757E-03     203.367E-03    -4.64630E-03     40.3469E-03    -20.0523E-03    -20.2953E-03    -19.7046E-03     39.7562E-03    -20.0523E-03     11.6886E-03     21.1026E+06     16.1881E+06    -27.2304E+06     19.4436E+06    -25.5713E+06     16.1881E+06    -8.45442E+06         22.9114
            1909     3.92109E-03     103.253E-03     220.879E-03     196.532E-03    -603.261E-03     207.041E-03    -600.199E-03     207.307E-03     948.941E-06     40.3289E-03    -19.8942E-03    -20.4347E-03    -19.4010E-03     39.2953E-03    -19.8942E-03     15.5039E-03     10.4524E+06     4.43888E+06    -37.2093E+06     8.29290E+06    -35.0498E+06     4.43888E+06    -9.04536E+06         22.9495
            1910     4.90202E-03     103.259E-03     217.996E-03     196.274E-03    -604.681E-03     205.804E-03    -603.327E-03     207.112E-03    -33.7386E-03     40.5075E-03    -19.7477E-03    -20.7580E-03    -19.1541E-03     38.9037E-03    -19.7477E-03     19.3604E-03    -2.45760E+06    -6.98587E+06    -47.6023E+06    -5.43639E+06    -45.4727E+06    -6.13662E+06    -7.74808E+06         23.0133
            1911     5.88321E-03     103.267E-03     235.880E-03     203.686E-03    -634.141E-03     230.391E-03    -633.738E-03     208.773E-03     12.1049E-03     41.0083E-03    -19.6399E-03    -21.3684E-03    -19.0914E-03     38.7313E-03    -19.6399E-03     23.2081E-03    -12.2347E+06    -18.7223E+06    -54.6537E+06    -20.4372E+06    -52.2124E+06    -12.9611E+06    -5.86821E+06         23.1158
            1912     6.86431E-03     103.276E-03     232.113E-03     204.683E-03    -635.954E-03     224.299E-03    -634.946E-03     211.489E-03    -5.67751E-03     41.9856E-03    -19.6114E-03    -22.3707E-03    -19.3700E-03     38.9849E-03    -19.6114E-03     26.9784E-03    -13.4493E+06    -31.3399E+06    -58.1098E+06    -34.1563E+06    -55.2934E+06    -13.4493E+06    -5.33647E+06         23.2760
            1913     7.84489E-03     103.287E-03     215.940E-03     194.741E-03    -615.434E-03     198.282E-03    -614.575E-03     211.539E-03    -19.4579E-03     43.4913E-03    -19.6821E-03    -23.8054E-03    -20.0974E-03     39.7833E-03    -19.6821E-03     30.5814E-03    -8.50445E+06    -38.5826E+06    -59.8166E+06    -43.8683E+06    -54.5309E+06    -8.50445E+06    -6.75175E+06         23.5036
            1914     8.82460E-03     103.300E-03     211.897E-03     200.158E-03    -615.024E-03     201.569E-03    -614.688E-03     210.149E-03     10.3631E-03     45.5237E-03    -19.8674E-03    -25.6634E-03    -21.3487E-03     41.2090E-03    -19.8674E-03     33.8767E-03    -298.228E+03    -39.3570E+06    -62.7425E+06    -48.6669E+06    -53.4326E+06    -298.228E+03    -9.71183E+06         23.8350
            1915     9.80280E-03     103.315E-03     218.231E-03     209.946E-03    -629.392E-03     217.804E-03    -628.965E-03     209.946E-03     569.385E-06     47.9645E-03    -20.1621E-03    -27.8091E-03    -23.1324E-03     43.2879E-03    -20.1621E-03     36.3993E-03     6.36154E+06    -36.4278E+06    -65.0590E+06    -49.1372E+06    -52.3496E+06     6.36154E+06    -13.3217E+06         24.3818
            1916     10.7790E-03     103.333E-03     225.979E-03     208.840E-03    -634.264E-03     223.700E-03    -633.916E-03     210.771E-03    -30.5805E-03     50.7089E-03    -20.5743E-03    -30.1370E-03    -25.3294E-03     45.9014E-03    -20.5743E-03     38.1888E-03     10.5637E+06    -28.2397E+06    -67.6612E+06    -45.7520E+06    -50.1489E+06     10.5637E+06    -18.9999E+06         25.2576
            1917     11.7531E-03     103.352E-03     222.993E-03     202.089E-03    -623.303E-03     213.638E-03    -623.104E-03     211.245E-03    -9.25026E-03     53.6592E-03    -21.0868E-03    -32.5725E-03    -27.8124E-03     48.8991E-03    -21.0868E-03     39.3469E-03     7.48495E+06    -21.4769E+06    -76.1155E+06    -39.8732E+06    -57.7193E+06     7.48495E+06    -25.0709E+06         26.4869
            1918     12.7245E-03     103.373E-03     213.733E-03     197.117E-03    -607.943E-03     200.077E-03    -607.826E-03     210.657E-03     9.62053E-03     56.4659E-03    -21.6865E-03    -34.7750E-03    -30.2259E-03     51.9168E-03    -21.6865E-03     39.6932E-03     1.31695E+06    -18.5076E+06    -80.8083E+06    -32.7885E+06    -66.5274E+06     1.31695E+06    -25.9626E+06         28.0446
            1919     13.6942E-03     103.396E-03     208.833E-03     179.079E-03    -587.143E-03     178.617E-03    -586.681E-03     208.833E-03    -19.0094E-03     58.9650E-03    -22.3422E-03    -36.6192E-03    -32.1537E-03     54.4995E-03    -22.3422E-03     40.3409E-03     13.0894E+06    -2.25938E+06    -57.3173E+06    -23.6736E+06    -29.3902E+06     6.57660E+06    -25.6173E+06         29.9872
            1920     14.6622E-03     103.424E-03     205.990E-03     163.490E-03    -569.752E-03     163.064E-03    -569.326E-03     205.990E-03    -22.6145E-03     59.8617E-03    -23.0753E-03    -36.7847E-03    -33.5057E-03     56.5826E-03    -23.0753E-03     34.3188E-03     51.5814E+06     30.4757E+06    -25.2270E+06    -13.5882E+06     39.9426E+06     30.4757E+06    -25.6639E+06         32.4873
            1921     15.6292E-03     103.441E-03     202.946E-03     163.273E-03    -564.409E-03     162.537E-03    -563.674E-03     202.946E-03    -10.0869E-03     62.4238E-03    -23.8515E-03    -38.5775E-03    -35.2710E-03     59.1172E-03    -23.8515E-03     35.3789E-03     91.2013E+06     51.2378E+06    -12.0996E+06    -7.41461E+06     86.5163E+06     51.2378E+06    -20.1102E+06         35.5033
            1922     16.5929E-03     103.479E-03     200.328E-03     166.451E-03    -565.649E-03     164.792E-03    -563.991E-03     200.328E-03    -520.322E-06     64.3247E-03    -24.8298E-03    -39.5227E-03    -37.2370E-03     62.0389E-03    -24.8298E-03     20.8695E-03     123.084E+06     91.5887E+06    -5.79939E+06    -4.59580E+06     115.756E+06     97.7134E+06    -10.3923E+06         38.4227
            1923     982.778E-06     104.281E-03     245.622E-03     219.051E-03    -614.645E-03     174.872E-03    -564.919E-03     240.074E-03    -188.962E-03     35.0021E-03    -17.4113E-03    -17.5902E-03    -17.4720E-03     34.8839E-03    -17.4113E-03     4.62671E-03     18.9697E+06     17.5057E+06    -10.4753E+06     18.0431E+06    -9.99467E+06     17.9517E+06     243.262E+03         22.4735
            1924     1.96545E-03     104.283E-03     220.006E-03     200.797E-03    -575.590E-03     203.195E-03    -564.625E-03     206.642E-03    -8.33895E-03     34.9342E-03    -17.3657E-03    -17.5707E-03    -17.2105E-03     34.5740E-03    -17.3657E-03     8.38546E-03     11.2680E+06     7.83669E+06    -16.2279E+06     10.0878E+06    -15.0477E+06     7.83669E+06     1.15697E+06         22.4833
            1925     2.94856E-03     104.286E-03     214.495E-03     198.268E-03    -574.969E-03     199.159E-03    -566.200E-03     204.834E-03    -38.0145E-03     34.8893E-03    -17.2268E-03    -17.6648E-03    -16.8971E-03     34.1216E-03    -17.2268E-03     12.3770E-03     1.12841E+06    -5.51783E+06    -27.6806E+06    -1.86689E+06    -24.6853E+06    -5.51783E+06     2.50386E+06         22.5049
            1926     3.93199E-03     104.290E-03     211.194E-03     196.520E-03    -580.052E-03     200.905E-03    -576.788E-03     203.545E-03     13.1830E-03     35.0624E-03    -17.0828E-03    -17.9786E-03    -16.6354E-03     33.7192E-03    -17.0828E-03     16.4569E-03    -11.5157E+06    -19.1840E+06    -42.5080E+06    -17.3185E+06    -36.7052E+06    -19.1840E+06     5.56230E+06         22.5506
            1927     4.91561E-03     104.296E-03     221.524E-03     202.546E-03    -600.786E-03     217.933E-03    -599.196E-03     204.548E-03    -44.4278E-03     35.6188E-03    -16.9802E-03    -18.6369E-03    -16.5541E-03     33.5361E-03    -16.9802E-03     20.6631E-03    -24.2632E+06    -29.2716E+06    -57.2744E+06    -34.1005E+06    -48.2864E+06    -28.4224E+06     9.05967E+06         22.6315
            1928     5.89916E-03     104.303E-03     222.713E-03     196.787E-03    -602.402E-03     212.144E-03    -601.388E-03     206.342E-03    -32.0498E-03     36.7007E-03    -16.9627E-03    -19.7391E-03    -16.8009E-03     33.7624E-03    -16.9627E-03     24.9261E-03    -28.4317E+06    -37.2663E+06    -65.6221E+06    -48.5860E+06    -53.5786E+06    -29.1555E+06     10.7596E+06         22.7604
            1929     6.88226E-03     104.313E-03     210.727E-03     184.794E-03    -584.019E-03     188.631E-03    -582.657E-03     205.528E-03    -58.3804E-03     38.4038E-03    -17.0586E-03    -21.3430E-03    -17.5105E-03     34.5713E-03    -17.0586E-03     29.1614E-03    -21.7761E+06    -44.7505E+06    -65.7957E+06    -57.9272E+06    -52.6190E+06    -21.7761E+06     8.59992E+06         22.9558
            1930     7.86434E-03     104.325E-03     206.032E-03     184.277E-03    -578.514E-03     185.690E-03    -576.989E-03     203.093E-03    -63.6880E-03     40.6954E-03    -17.2792E-03    -23.4141E-03    -18.7501E-03     36.0314E-03    -17.2792E-03     33.2196E-03    -10.1356E+06    -47.6488E+06    -63.8488E+06    -61.8678E+06    -49.6297E+06    -10.1356E+06     3.28751E+06         23.2276
            1931     8.84499E-03     104.340E-03     206.251E-03     193.639E-03    -586.519E-03     197.322E-03    -585.566E-03     201.615E-03    -16.3084E-03     43.5512E-03    -17.6261E-03    -25.9259E-03    -20.5855E-03     38.2108E-03    -17.6261E-03     36.9559E-03     1.62488E+06    -44.0854E+06    -63.2596E+06    -60.9743E+06    -46.3707E+06     1.62488E+06    -3.76989E+06         23.6148
            1932     9.82356E-03     104.359E-03     204.808E-03     194.264E-03    -584.864E-03     197.212E-03    -584.023E-03     201.019E-03    -15.1435E-03     46.8605E-03    -18.1056E-03    -28.7502E-03    -23.0512E-03     41.1615E-03    -18.1056E-03     39.8712E-03     9.84686E+06    -37.0220E+06    -63.9603E+06    -55.9273E+06    -45.0549E+06     9.84686E+06    -11.5808E+06         24.2288
            1933     10.7995E-03     104.379E-03     201.808E-03     178.740E-03    -564.334E-03     180.037E-03    -563.540E-03     199.717E-03    -45.1264E-03     50.4761E-03    -18.7300E-03    -31.7472E-03    -26.0026E-03     44.7316E-03    -18.7300E-03     41.8780E-03     15.0675E+06    -24.1703E+06    -64.7812E+06    -49.3274E+06    -39.6241E+06     15.0675E+06    -19.5345E+06         25.1731
            1934     11.7724E-03     104.402E-03     197.297E-03     168.308E-03    -546.538E-03     167.702E-03    -545.932E-03     197.297E-03    -24.8928E-03     54.2991E-03    -19.4907E-03    -34.8115E-03    -29.2776E-03     48.7652E-03    -19.4907E-03     42.9621E-03     13.1909E+06    -15.9399E+06    -75.4313E+06    -42.6833E+06    -48.6879E+06     13.1909E+06    -27.9984E+06         26.4688
            1935     12.7422E-03     104.427E-03     194.767E-03     171.023E-03    -546.841E-03     170.490E-03    -546.308E-03     194.767E-03    -8.16834E-03     58.0063E-03    -20.3538E-03    -37.6493E-03    -32.5772E-03     52.9342E-03    -20.3538E-03     42.8197E-03     5.03582E+06    -12.3116E+06    -85.9982E+06    -33.6165E+06    -64.6932E+06     5.03582E+06    -33.1538E+06         28.0982
            1936     13.7090E-03     104.453E-03     192.527E-03     167.904E-03    -545.743E-03     167.658E-03    -545.498E-03     192.527E-03    -12.5735E-03     61.2638E-03    -21.2934E-03    -39.9637E-03    -35.2844E-03     56.5845E-03    -21.2934E-03     42.4918E-03     19.9392E+06     6.84500E+06    -62.7121E+06    -22.9031E+06    -24.3654E+06     11.3406E+06    -34.5113E+06         30.1329
            1937     14.6737E-03     104.484E-03     190.106E-03     156.087E-03    -533.206E-03     155.911E-03    -533.031E-03     190.106E-03    -11.9494E-03     62.8640E-03    -22.3309E-03    -40.5299E-03    -37.2822E-03     59.6163E-03    -22.3309E-03     35.2533E-03     51.2863E+06     33.4789E+06    -30.4033E+06    -15.3336E+06     36.2167E+06     33.4789E+06    -30.2117E+06         32.7568
            1938     15.6360E-03     104.504E-03     187.198E-03     143.051E-03    -514.289E-03     142.873E-03    -514.112E-03     187.198E-03     15.6032E-03     65.9726E-03    -23.3740E-03    -42.6370E-03    -39.2878E-03     62.6233E-03    -23.3740E-03     36.8176E-03     80.3321E+06     48.2770E+06    -16.6332E+06    -11.6327E+06     75.3315E+06     48.2770E+06    -19.1292E+06         35.8863
            1939     16.5967E-03     104.547E-03     183.809E-03     127.255E-03    -498.234E-03     126.536E-03    -497.515E-03     183.809E-03    -12.6111E-03     67.7636E-03    -24.5923E-03    -43.2455E-03    -40.8644E-03     65.3825E-03    -24.5923E-03     22.6139E-03     118.016E+06     84.7814E+06    -8.43079E+06    -7.56288E+06     106.760E+06     95.1702E+06    -8.89401E+06         38.8795
            1940     985.746E-06     105.314E-03     266.737E-03     207.963E-03    -628.283E-03     175.566E-03    -595.886E-03     266.737E-03    -130.938E-03     28.6172E-03    -14.2445E-03    -14.3725E-03    -14.2286E-03     28.4734E-03    -14.2445E-03     4.61108E-03    -2.96602E+06    -10.6649E+06    -25.5003E+06    -11.5881E+06    -17.1055E+06    -10.4377E+06     7.40427E+06         22.0124
            1941     1.97175E-03     105.315E-03     211.852E-03     185.813E-03    -548.328E-03     174.641E-03    -537.156E-03     211.852E-03    -9.51889E-03     28.6597E-03    -14.1727E-03    -14.4889E-03    -14.0549E-03     28.2257E-03    -14.1727E-03     8.33895E-03    -7.07272E+06    -22.3698E+06    -36.3858E+06    -22.1209E+06    -21.3376E+06    -22.3698E+06     12.0870E+06         22.0319
            1942     2.95783E-03     105.318E-03     207.433E-03     191.784E-03    -551.361E-03     190.353E-03    -543.295E-03     200.799E-03    -46.9595E-03     28.8715E-03    -14.0778E-03    -14.7945E-03    -13.8658E-03     27.9428E-03    -14.0778E-03     12.3799E-03    -15.1539E+06    -35.7392E+06    -53.4015E+06    -36.3945E+06    -32.1609E+06    -35.7392E+06     17.3214E+06         22.0696
            1943     3.94408E-03     105.322E-03     218.780E-03     200.891E-03    -577.777E-03     215.649E-03    -574.646E-03     200.891E-03    -12.4078E-03     29.4453E-03    -14.0172E-03    -15.4267E-03    -13.7884E-03     27.8070E-03    -14.0172E-03     16.6405E-03    -24.6190E+06    -44.9304E+06    -71.6849E+06    -51.5008E+06    -44.8032E+06    -44.9304E+06     22.5097E+06         22.1382
            1944     4.93033E-03     105.327E-03     214.173E-03     192.712E-03    -573.684E-03     201.766E-03    -571.197E-03     202.631E-03    -55.9191E-03     30.6177E-03    -14.0395E-03    -16.5801E-03    -14.0497E-03     28.0873E-03    -14.0395E-03     21.1144E-03    -32.7786E+06    -45.0048E+06    -84.3512E+06    -63.4724E+06    -53.6574E+06    -45.0048E+06     24.9420E+06         22.2516
            1945     5.91608E-03     105.335E-03     200.350E-03     171.739E-03    -541.284E-03     170.785E-03    -540.043E-03     200.063E-03    -13.4838E-03     32.4549E-03    -14.1725E-03    -18.2856E-03    -14.7416E-03     28.9109E-03    -14.1725E-03     25.7551E-03    -33.3409E+06    -40.4481E+06    -86.1982E+06    -69.2214E+06    -54.4546E+06    -36.3113E+06     22.9838E+06         22.4207
            1946     6.90084E-03     105.346E-03     195.583E-03     168.936E-03    -532.942E-03     168.074E-03    -532.080E-03     195.583E-03    -31.5431E-03     34.9389E-03    -14.4300E-03    -20.5129E-03    -15.9238E-03     30.3498E-03    -14.4300E-03     30.4782E-03    -21.9149E+06    -38.2234E+06    -79.1117E+06    -69.4564E+06    -47.8787E+06    -21.9149E+06     16.9760E+06         22.6618
            1947     7.88428E-03     105.360E-03     195.810E-03     180.691E-03    -541.707E-03     182.681E-03    -540.759E-03     192.871E-03    -47.5584E-03     38.0813E-03    -14.8254E-03    -23.2592E-03    -17.7142E-03     32.5364E-03    -14.8254E-03     35.1249E-03    -5.93891E+06    -38.9956E+06    -68.8796E+06    -65.7582E+06     -42.117E+06    -5.93891E+06     8.43763E+06         22.9864
            1948     8.86555E-03     105.378E-03     194.704E-03     184.013E-03    -538.129E-03     186.254E-03    -537.431E-03     191.765E-03    -25.0637E-03     41.8337E-03    -15.3575E-03    -26.4804E-03    -20.1595E-03     35.5127E-03    -15.3575E-03     39.5482E-03     7.56715E+06    -34.3039E+06    -60.7508E+06    -59.4275E+06    -35.6273E+06     7.56715E+06    -1.80583E+06         23.4313
            1949     9.84427E-03     105.399E-03     190.042E-03     166.738E-03    -517.140E-03     166.237E-03    -516.639E-03     190.042E-03    -19.8510E-03     46.0344E-03    -16.0456E-03    -29.9986E-03    -23.2770E-03     39.3129E-03    -16.0456E-03     43.1218E-03     16.2269E+06    -26.7236E+06    -59.5042E+06    -51.8261E+06    -34.4017E+06     16.2269E+06    -12.4450E+06         24.1030
            1950     10.8197E-03     105.424E-03     186.358E-03     138.331E-03    -488.353E-03     137.761E-03    -487.783E-03     186.358E-03    -32.7149E-03     50.5613E-03    -16.8981E-03    -33.6743E-03    -26.9400E-03     43.8269E-03    -16.8981E-03     45.6400E-03     21.1267E+06    -15.6761E+06    -58.9101E+06    -44.5604E+06    -30.0258E+06     21.1267E+06    -20.3081E+06         25.1056
            1951     11.7913E-03     105.452E-03     181.743E-03     132.864E-03    -480.354E-03     132.307E-03    -479.797E-03     181.743E-03    -33.0424E-03     55.3255E-03    -17.9175E-03    -37.4045E-03    -30.9905E-03     48.9115E-03    -17.9175E-03     46.9851E-03     21.5355E+06    -5.32613E+06    -67.8792E+06    -38.2567E+06    -34.9487E+06     21.5355E+06    -29.9115E+06         26.4631
            1952     12.7590E-03     105.481E-03     178.034E-03     146.532E-03    -491.916E-03     145.933E-03    -491.316E-03     178.034E-03    -21.0274E-03     60.1043E-03    -19.0570E-03    -41.0376E-03    -35.2633E-03     54.3300E-03    -19.0570E-03     46.8464E-03     10.6890E+06    -2.26527E+06    -86.6339E+06    -31.4953E+06    -57.0283E+06     10.3135E+06    -39.9700E+06         28.1614
            1953     13.7227E-03     105.513E-03     175.528E-03     153.543E-03    -493.041E-03     153.339E-03    -492.837E-03     175.528E-03    -8.01009E-03     64.2533E-03    -20.3037E-03    -43.9383E-03    -38.8455E-03     59.1604E-03    -20.3037E-03     45.7754E-03     21.0124E+06     12.1718E+06    -69.2838E+06    -25.2539E+06    -23.5729E+06     12.7273E+06    -40.1203E+06         30.2809
            1954     14.6832E-03     105.548E-03     173.177E-03     140.892E-03    -478.066E-03     140.620E-03    -477.793E-03     173.177E-03    -21.5245E-03     66.3092E-03    -21.6537E-03    -44.6500E-03    -41.1945E-03     62.8537E-03    -21.6537E-03     37.7534E-03     44.4121E+06     31.6312E+06    -36.8058E+06    -20.4610E+06     28.0673E+06     31.6312E+06    -31.9321E+06         33.0097
            1955     15.6421E-03     105.571E-03     170.154E-03     124.321E-03    -462.283E-03     124.020E-03    -461.982E-03     170.154E-03    -14.7526E-03     69.4010E-03    -22.9391E-03    -46.5100E-03    -42.9131E-03     65.8040E-03    -22.9391E-03     39.4378E-03     69.1829E+06     41.2807E+06    -21.1808E+06    -14.5714E+06     62.5735E+06     41.2807E+06    -20.7639E+06         36.2444
            1956     16.5998E-03     105.617E-03     166.538E-03     108.305E-03    -444.311E-03     107.429E-03    -443.436E-03     166.538E-03    -1.34325E-03     70.7370E-03    -24.3795E-03    -46.3968E-03    -43.8616E-03     68.2018E-03    -24.3795E-03     24.7338E-03     114.384E+06     75.9635E+06    -8.60834E+06    -7.39845E+06     97.7845E+06     91.3531E+06    -9.85449E+06         39.3350
            1957     989.054E-06     106.339E-03     257.701E-03     187.906E-03    -607.666E-03     185.639E-03    -598.770E-03     251.073E-03    -40.3362E-03     21.9644E-03    -10.8805E-03    -11.0840E-03    -10.9217E-03     21.8022E-03    -10.8805E-03     4.30645E-03    -29.4700E+06    -65.3917E+06    -74.8621E+06    -66.8370E+06    -37.4951E+06    -65.3917E+06     15.9058E+06         21.5455
            1958     1.97813E-03     106.340E-03     220.518E-03     193.091E-03    -564.570E-03     196.029E-03    -560.880E-03     213.890E-03     25.0701E-03     22.1982E-03    -10.8798E-03    -11.3177E-03    -10.8335E-03     21.7140E-03    -10.8798E-03     7.76055E-03    -24.9264E+06    -72.1380E+06    -87.0023E+06    -74.9585E+06    -36.9702E+06    -72.1380E+06     23.8495E+06         21.5821
            1959     2.96722E-03     106.343E-03     210.358E-03     179.908E-03    -534.127E-03     182.261E-03    -531.689E-03     205.567E-03     591.502E-06     22.8121E-03    -10.8916E-03    -11.9188E-03    -10.8685E-03     21.7618E-03    -10.8916E-03     11.6918E-03    -28.6571E+06    -74.6877E+06    -100.115E+06    -82.6917E+06    -46.0805E+06    -74.6877E+06     30.1430E+06         21.6474
            1960     3.95626E-03     106.346E-03     210.639E-03     182.795E-03    -536.447E-03     189.802E-03    -533.192E-03     200.376E-03    -40.4439E-03     24.0527E-03    -10.9829E-03    -13.0670E-03    -11.1943E-03     22.1800E-03    -10.9829E-03     16.0960E-03    -33.6936E+06    -69.6009E+06    -107.323E+06    -85.9771E+06    -55.0397E+06    -69.6009E+06     33.1449E+06         21.7507
            1961     4.94474E-03     106.353E-03     203.462E-03     184.306E-03    -537.796E-03     187.596E-03    -535.614E-03     197.990E-03    -31.1280E-03     25.9534E-03    -11.1762E-03    -14.7792E-03    -11.8851E-03     23.0593E-03    -11.1762E-03     20.8215E-03    -36.4025E+06    -57.1497E+06    -104.382E+06    -83.0362E+06    -57.7482E+06    -57.1497E+06     31.4378E+06         21.9038
            1962     5.93231E-03     106.362E-03     194.250E-03     162.795E-03    -511.296E-03     162.348E-03    -510.849E-03     194.250E-03     28.1488E-03     28.5103E-03    -11.4785E-03    -17.0360E-03    -12.9900E-03     24.4643E-03    -11.4785E-03     25.8388E-03    -33.9901E+06    -41.8156E+06      -93.27E+06    -76.2662E+06    -52.9492E+06    -39.8603E+06     26.0867E+06         22.1175
            1963     6.91869E-03     106.374E-03     189.375E-03     159.312E-03    -498.639E-03     158.996E-03    -498.324E-03     189.375E-03    -10.7850E-03     31.7420E-03    -11.9058E-03    -19.8370E-03    -14.6023E-03     26.5073E-03    -11.9058E-03     31.0995E-03    -20.2157E+06    -32.0712E+06    -77.7967E+06    -67.9990E+06    -41.8689E+06    -20.2157E+06     18.4894E+06         22.4060
            1964     7.90310E-03     106.391E-03     185.334E-03     156.982E-03    -489.291E-03     156.665E-03    -488.974E-03     185.334E-03    -27.5253E-03     35.6690E-03    -12.4741E-03    -23.1956E-03    -16.8474E-03     29.3208E-03    -12.4741E-03     36.4790E-03    -1.75015E+06    -29.0903E+06    -62.3659E+06    -59.1735E+06    -32.2827E+06    -1.75015E+06     8.48239E+06         22.7811
            1965     8.88517E-03     106.412E-03     181.607E-03     149.745E-03    -473.002E-03     149.663E-03    -472.920E-03     181.607E-03    -7.16012E-03     40.2861E-03    -13.1911E-03    -27.0972E-03    -19.8100E-03     32.9988E-03    -13.1911E-03     41.8181E-03     13.5211E+06    -22.4476E+06    -51.6358E+06    -50.4092E+06    -23.6742E+06     13.5211E+06    -2.52348E+06         23.2769
            1966     9.86390E-03     106.438E-03     177.440E-03     134.910E-03    -451.384E-03     134.794E-03    -451.269E-03     177.440E-03     2.86558E-03     45.4016E-03    -14.0848E-03    -31.3262E-03    -23.5112E-03     37.5867E-03    -14.0848E-03     46.3628E-03     23.8549E+06    -13.6401E+06    -50.1766E+06    -42.2488E+06    -21.5679E+06     23.8549E+06    -13.6669E+06         23.9943
            1967     10.8388E-03     106.468E-03     172.567E-03     119.568E-03    -435.064E-03     119.414E-03    -434.910E-03     172.567E-03    -6.20945E-03     50.8636E-03    -15.1543E-03    -35.7202E-03    -27.8271E-03     42.9705E-03    -15.1543E-03     49.7807E-03     28.2663E+06    -5.34677E+06    -51.1949E+06    -34.2934E+06    -22.2483E+06     28.2663E+06    -21.8553E+06         25.0433
            1968     11.8095E-03     106.502E-03     167.568E-03     114.140E-03    -430.937E-03     113.755E-03    -430.553E-03     167.568E-03    -2.50452E-03     56.6196E-03    -16.4063E-03    -40.2093E-03    -32.6343E-03     49.0446E-03    -16.4063E-03     51.9068E-03     31.1637E+06     6.90519E+06    -54.6286E+06    -28.3506E+06    -19.3729E+06     31.1637E+06    -29.8969E+06         26.4533
            1969     12.7752E-03     106.538E-03     162.989E-03     112.166E-03    -427.948E-03     111.702E-03    -427.484E-03     162.989E-03     15.5080E-03     62.4860E-03    -17.8195E-03    -44.6568E-03    -37.8020E-03     55.6313E-03    -17.8195E-03     52.3106E-03     20.6158E+06     9.30939E+06    -79.0836E+06    -25.5394E+06    -43.8592E+06     20.2403E+06    -41.4478E+06         28.2097
            1970     13.7358E-03     106.576E-03     158.867E-03     111.458E-03    -422.095E-03     111.256E-03    -421.892E-03     158.867E-03     10.3898E-03     67.4548E-03    -19.3477E-03    -48.0984E-03    -42.1613E-03     61.5177E-03    -19.3477E-03     50.9110E-03     24.8154E+06     15.1220E+06    -71.8348E+06    -21.1511E+06    -27.1875E+06     16.4411E+06    -43.3273E+06         30.4029
            1971     14.6932E-03     106.615E-03     154.992E-03     104.757E-03    -410.688E-03     104.480E-03    -410.411E-03     154.992E-03    -8.52305E-03     69.7704E-03    -20.9690E-03    -48.7960E-03    -44.8162E-03     65.7907E-03    -20.9690E-03     41.8794E-03     41.7883E+06     31.0305E+06    -36.6278E+06    -14.8721E+06     19.2118E+06     31.8515E+06    -34.1401E+06         33.2268
            1972     15.6485E-03     106.641E-03     151.394E-03     107.680E-03    -412.372E-03     107.267E-03    -411.958E-03     151.394E-03    -22.5118E-03     72.9712E-03    -22.5268E-03    -50.4687E-03    -46.4525E-03     68.9550E-03    -22.5268E-03     43.0993E-03     60.6388E+06     41.5406E+06    -20.5914E+06    -10.8647E+06     50.0912E+06     42.3615E+06    -22.2786E+06         36.5636
            1973     16.6030E-03     106.690E-03     150.182E-03     122.642E-03    -427.907E-03     123.397E-03    -427.258E-03     148.779E-03     1.81853E-03     73.9923E-03    -24.1779E-03    -49.8110E-03    -47.0385E-03     71.2198E-03    -24.1779E-03     27.3293E-03     107.636E+06     71.9864E+06    -8.85159E+06    -7.34009E+06     86.8141E+06     91.2969E+06    -10.4205E+06         39.7533
            1974     992.092E-06     107.358E-03     233.010E-03     157.455E-03    -538.783E-03     208.933E-03    -533.682E-03     176.430E-03    -89.4717E-03     15.7500E-03    -7.78131E-03    -7.96846E-03    -7.80298E-03     15.5845E-03    -7.78131E-03     3.67671E-03    -61.2649E+06    -146.142E+06    -151.552E+06    -145.946E+06    -65.4037E+06    -147.610E+06     15.9830E+06         21.1234
            1975     1.98388E-03     107.359E-03     234.895E-03     200.009E-03    -574.930E-03     232.546E-03    -573.186E-03     200.615E-03    -20.7400E-03     16.2392E-03    -7.82725E-03    -8.41090E-03    -7.89645E-03     15.7247E-03    -7.82725E-03     6.82931E-03    -49.1924E+06    -137.787E+06    -147.439E+06    -138.372E+06    -57.1042E+06    -138.942E+06     24.5412E+06         21.1808
            1976     2.97579E-03     107.361E-03     209.036E-03     187.658E-03    -528.110E-03     189.590E-03    -526.851E-03     205.845E-03    -15.4337E-03     17.4403E-03    -7.98493E-03    -9.45469E-03    -8.31963E-03     16.3052E-03    -7.98493E-03     10.6576E-03    -48.2251E+06    -121.359E+06    -138.279E+06    -126.740E+06    -59.7641E+06    -121.359E+06     28.4709E+06         21.2760
            1977     3.96697E-03     107.366E-03     199.255E-03     164.727E-03    -494.443E-03     163.237E-03    -492.380E-03     198.681E-03    -69.7645E-03     19.3347E-03    -8.25722E-03    -11.0763E-03    -9.06115E-03     17.3196E-03    -8.25722E-03     15.0231E-03    -48.6761E+06    -98.0544E+06    -123.435E+06    -110.246E+06    -61.8653E+06    -98.0544E+06     27.3879E+06         21.4161
            1978     4.95731E-03     107.373E-03     191.099E-03     160.915E-03    -483.982E-03     159.786E-03    -482.831E-03     191.077E-03    -26.4402E-03     21.8324E-03    -8.61779E-03    -13.2162E-03    -10.0899E-03     18.7061E-03    -8.61779E-03     19.9051E-03    -46.2769E+06    -74.3415E+06    -105.155E+06    -92.1423E+06    -59.2899E+06    -74.3415E+06     23.7099E+06         21.6084
            1979     5.94664E-03     107.384E-03     185.788E-03     161.735E-03    -482.050E-03     161.222E-03    -481.537E-03     185.788E-03    -9.82764E-03     24.9845E-03    -9.07886E-03    -15.9070E-03    -11.5096E-03     20.5870E-03    -9.07886E-03     25.2881E-03    -39.4025E+06    -49.5646E+06    -85.9164E+06    -75.1953E+06    -50.7832E+06    -48.9050E+06     19.0968E+06         21.8595
            1980     6.93424E-03     107.399E-03     181.327E-03     151.071E-03    -465.898E-03     149.968E-03    -464.796E-03     181.327E-03    -42.7311E-03     28.8149E-03    -9.65492E-03    -19.1587E-03    -13.4185E-03     23.0747E-03    -9.65492E-03     31.1055E-03    -21.7147E+06    -31.2667E+06    -65.9652E+06    -60.0482E+06    -35.7339E+06    -23.1645E+06     12.7769E+06         22.1862
            1981     7.91989E-03     107.419E-03     175.746E-03     127.658E-03    -432.905E-03     125.902E-03    -431.149E-03     175.746E-03    -52.1749E-03     33.4144E-03    -10.3720E-03    -23.0398E-03    -15.9801E-03     26.3547E-03    -10.3720E-03     37.3187E-03     152.561E+03    -20.6739E+06    -48.7360E+06    -47.0139E+06    -22.3960E+06     152.561E+03     4.50168E+06         22.6019
            1982     8.90258E-03     107.444E-03     169.115E-03     112.861E-03    -411.465E-03     111.529E-03    -410.133E-03     169.115E-03    -35.4158E-03     38.7940E-03    -11.2475E-03    -27.5403E-03    -19.2996E-03     30.5533E-03    -11.2475E-03     43.7272E-03     18.7629E+06    -11.8569E+06    -38.5223E+06    -37.1367E+06    -13.2424E+06     18.7629E+06    -4.07729E+06         23.1365
            1983     9.88184E-03     107.476E-03     162.950E-03     112.607E-03    -402.888E-03     112.128E-03    -402.409E-03     162.950E-03    -13.0241E-03     44.7454E-03    -12.2971E-03    -32.4337E-03    -23.4063E-03     35.7180E-03    -12.2971E-03     49.5523E-03     30.9056E+06    -1.62526E+06    -37.5690E+06    -30.7500E+06    -8.44426E+06     30.9056E+06    -13.4664E+06         23.8888
            1984     10.8567E-03     107.512E-03     157.990E-03     117.369E-03    -403.131E-03     115.897E-03    -401.659E-03     157.990E-03    -30.7493E-03     51.1743E-03    -13.5427E-03    -37.6207E-03    -28.3141E-03     41.8677E-03    -13.5427E-03     54.3173E-03     35.4646E+06     4.13904E+06    -43.8449E+06    -26.2198E+06    -13.4860E+06     35.4646E+06    -22.3507E+06         24.9731
            1985     11.8266E-03     107.552E-03     153.376E-03     103.524E-03    -389.733E-03     101.856E-03    -388.065E-03     153.376E-03    -24.4564E-03     57.8809E-03    -14.9856E-03    -42.8964E-03    -33.7579E-03     48.7424E-03    -14.9856E-03     57.7619E-03     39.0336E+06     15.4417E+06    -44.8305E+06    -22.0721E+06    -7.31663E+06     39.0336E+06    -28.7317E+06         26.4235
            1986     12.7909E-03     107.596E-03     147.884E-03     77.6482E-03    -360.770E-03     76.2435E-03    -359.365E-03     147.884E-03    -12.0268E-03     64.6589E-03    -16.6216E-03    -48.0358E-03    -39.5596E-03     56.1827E-03    -16.6216E-03     59.2697E-03     33.1778E+06     20.5703E+06    -65.7324E+06    -18.9616E+06    -26.2005E+06     33.1778E+06    -39.6247E+06         28.2254
            1987     13.7497E-03     107.641E-03     141.968E-03     71.6059E-03    -348.348E-03     70.6014E-03    -347.343E-03     141.968E-03    -7.92614E-03     70.5352E-03    -18.3616E-03    -52.1882E-03    -44.8778E-03     63.2249E-03    -18.3616E-03     57.8944E-03     29.9042E+06     16.4782E+06    -71.0536E+06    -16.5999E+06    -29.5955E+06     21.5243E+06    -45.4189E+06         30.4826
            1988     14.7042E-03     107.685E-03     137.111E-03     84.7007E-03    -354.428E-03     84.6395E-03    -354.366E-03     137.111E-03     8.86663E-03     73.3362E-03    -20.2245E-03    -53.1282E-03    -48.3768E-03     68.5848E-03    -20.2245E-03     47.0549E-03     38.6831E+06     25.2499E+06    -40.7889E+06    -14.2977E+06     7.13856E+06     30.3032E+06    -34.9320E+06         33.4011
            1989     15.6565E-03     107.714E-03     133.581E-03     93.8689E-03    -359.420E-03     93.7323E-03    -359.283E-03     133.581E-03    -4.85374E-03     76.6681E-03    -22.0779E-03    -54.6095E-03    -50.1828E-03     72.2414E-03    -22.0779E-03     46.7729E-03     54.3863E+06     40.8052E+06    -21.5135E+06    -11.2444E+06     39.0639E+06     45.8585E+06    -22.0505E+06         36.8416
            1990     16.6075E-03     107.767E-03     132.322E-03     97.3962E-03    -369.318E-03     98.4018E-03    -368.920E-03     130.919E-03    -15.9790E-03     77.5441E-03    -23.9458E-03    -53.6457E-03    -50.6555E-03     74.5538E-03    -23.9458E-03     29.7789E-03     100.336E+06     68.1877E+06    -8.83697E+06    -6.65758E+06     74.5361E+06     91.8087E+06    -10.9338E+06         40.1293
            1991     993.968E-06     108.371E-03     217.396E-03     146.204E-03    -496.372E-03     181.407E-03    -481.624E-03     167.445E-03    -128.303E-03     11.1097E-03    -5.47606E-03    -5.63289E-03    -5.46963E-03     10.9465E-03    -5.47606E-03     3.05553E-03    -83.6295E+06    -184.820E+06    -187.462E+06    -184.040E+06    -84.4096E+06    -187.462E+06     5.02351E+06         20.8219
            1992     1.98857E-03     108.372E-03     227.280E-03     173.557E-03    -529.108E-03     215.161E-03    -526.005E-03     182.572E-03     16.4089E-03     11.8259E-03    -5.53842E-03    -6.28595E-03    -5.77227E-03     11.3122E-03    -5.53842E-03     5.86380E-03    -69.3320E+06    -170.555E+06    -174.587E+06    -168.902E+06    -71.2762E+06    -174.296E+06     9.26732E+06         20.8890
            1993     2.98217E-03     108.376E-03     216.089E-03     194.085E-03    -528.621E-03     214.457E-03    -526.989E-03     194.085E-03     25.4833E-03     13.3620E-03    -5.74860E-03    -7.61295E-03    -6.47458E-03     12.2236E-03    -5.74860E-03     9.40127E-03    -63.6774E+06    -149.660E+06    -160.358E+06    -149.239E+06    -66.6059E+06    -157.850E+06     10.0795E+06         20.9986
            1994     3.97501E-03     108.381E-03     195.379E-03     158.039E-03    -469.601E-03     158.104E-03    -467.358E-03     193.070E-03    -24.7524E-03     15.5312E-03    -6.07879E-03    -9.45283E-03    -7.40140E-03     13.4797E-03    -6.07879E-03     13.6445E-03    -58.9270E+06    -126.101E+06    -143.214E+06    -127.916E+06    -62.3338E+06    -137.992E+06     6.82949E+06         21.1580
            1995     4.96703E-03     108.390E-03     182.773E-03     125.043E-03    -428.138E-03     124.084E-03    -427.179E-03     182.773E-03    -27.8050E-03     18.4053E-03    -6.55071E-03    -11.8565E-03    -8.64711E-03     15.1959E-03    -6.55071E-03     18.5919E-03    -54.7689E+06    -100.925E+06    -116.394E+06    -104.757E+06    -58.8558E+06    -108.475E+06     3.34680E+06         21.3717
            1996     5.95758E-03     108.403E-03     173.717E-03     137.418E-03    -434.070E-03     136.909E-03    -433.562E-03     173.717E-03    -11.8246E-03     21.9376E-03    -7.14532E-03    -14.7912E-03    -10.2430E-03     17.3894E-03    -7.14532E-03     24.1682E-03    -44.3746E+06    -71.0372E+06    -86.1500E+06    -80.3497E+06    -48.7985E+06    -72.4135E+06     924.289E+03         21.6441
            1997     6.94660E-03     108.421E-03     167.909E-03     133.700E-03    -419.340E-03     132.654E-03    -418.295E-03     167.909E-03    -30.8111E-03     26.1662E-03    -7.83759E-03    -18.3264E-03    -12.2975E-03     20.1373E-03    -7.83759E-03     30.4375E-03    -25.3653E+06    -40.8533E+06    -60.7546E+06    -57.5404E+06    -31.6687E+06    -37.7640E+06    -1.38587E+06         21.9935
            1998     7.93325E-03     108.444E-03     161.729E-03     109.912E-03    -382.845E-03     108.157E-03    -381.091E-03     161.729E-03    -34.2431E-03     31.2351E-03    -8.66254E-03    -22.5697E-03    -14.9958E-03     23.6612E-03    -8.66254E-03     37.4076E-03    -4.49238E+06    -17.4287E+06    -41.9636E+06    -40.4820E+06    -16.8665E+06    -6.53610E+06    -3.29263E+06         22.4361
            1999     8.91710E-03     108.474E-03     154.502E-03     92.8734E-03    -355.110E-03     91.2397E-03    -353.476E-03     154.502E-03    -16.5862E-03     37.1659E-03    -9.63578E-03    -27.5270E-03    -18.4600E-03     28.0990E-03    -9.63578E-03     44.8917E-03     17.9073E+06    -3.61077E+06    -31.6448E+06    -29.5547E+06    -5.70084E+06     17.9073E+06    -6.71326E+06         22.9990
            2000     9.89715E-03     108.511E-03     147.856E-03     94.8115E-03    -351.447E-03     93.6917E-03    -350.327E-03     147.856E-03     3.15595E-03     43.7988E-03    -10.7778E-03    -33.0126E-03    -22.7918E-03     33.5780E-03    -10.7778E-03     52.1318E-03     35.5215E+06     9.00986E+06    -27.6756E+06    -21.7809E+06     3.11521E+06     35.5215E+06    -13.3254E+06         23.7752
            2001     10.8727E-03     108.553E-03     142.004E-03     86.8657E-03    -341.287E-03     84.7960E-03    -339.217E-03     142.004E-03    -26.9603E-03     51.0831E-03    -12.1310E-03    -38.9443E-03    -28.0671E-03     40.2060E-03    -12.1310E-03     58.6048E-03     45.3060E+06     15.2661E+06    -33.2941E+06    -15.1269E+06    -2.90101E+06     45.3060E+06    -21.7668E+06         24.8822
            2002     11.8425E-03     108.602E-03     135.841E-03     69.0749E-03    -321.894E-03     67.4710E-03    -320.290E-03     135.841E-03    -44.0319E-03     58.6267E-03    -13.6827E-03    -44.9439E-03    -33.9423E-03     47.6251E-03    -13.6827E-03     63.7101E-03     48.6947E+06     19.4634E+06    -33.6082E+06    -11.7648E+06    -2.37994E+06     48.6947E+06    -25.1808E+06         26.3590
            2003     12.8070E-03     108.653E-03     129.671E-03     65.9392E-03    -313.994E-03     64.7593E-03    -312.814E-03     129.671E-03    -27.7346E-03     66.2545E-03    -15.4476E-03    -50.8034E-03    -40.2945E-03     55.7456E-03    -15.4476E-03     66.7546E-03     47.7525E+06     24.1455E+06    -45.3712E+06    -15.1998E+06    -6.02587E+06     47.7525E+06    -32.3175E+06         28.1930
            2004     13.7650E-03     108.707E-03     124.242E-03     65.6264E-03    -306.981E-03     64.6122E-03    -305.967E-03     124.242E-03    -8.51202E-03     73.4121E-03    -17.3618E-03    -56.0626E-03    -46.9707E-03     64.3202E-03    -17.3618E-03     65.8725E-03     34.5992E+06     17.9744E+06    -66.7310E+06    -19.7966E+06    -25.1843E+06     30.8234E+06    -42.6199E+06         30.5033
            2005     14.7167E-03     108.759E-03     119.886E-03     73.4386E-03    -308.862E-03     73.0792E-03    -308.502E-03     119.886E-03    -3.54049E-03     77.1781E-03    -19.4462E-03    -57.7494E-03    -52.0144E-03     71.4431E-03    -19.4462E-03     53.1178E-03     34.0034E+06     22.4468E+06    -51.2900E+06    -16.6999E+06    -8.36759E+06     30.2276E+06    -36.7808E+06         33.5126
            2006     15.6643E-03     108.791E-03     116.473E-03     76.8312E-03    -307.835E-03     76.5115E-03    -307.515E-03     116.473E-03    -6.61805E-03     80.3940E-03    -21.5482E-03    -58.8565E-03    -54.0574E-03     75.5949E-03    -21.5482E-03     50.3213E-03     48.6738E+06     38.0836E+06    -23.3293E+06    -10.6930E+06     29.4870E+06     44.6341E+06    -23.4952E+06         37.0571
            2007     16.6119E-03     108.847E-03     113.247E-03     63.9607E-03    -296.788E-03     63.2258E-03    -296.053E-03     113.247E-03    -18.3678E-03     81.3934E-03    -23.6619E-03    -57.8029E-03    -54.6430E-03     78.2335E-03    -23.6619E-03     32.9915E-03     91.6856E+06     59.6732E+06    -9.71481E+06    -6.92688E+06     60.9251E+06     87.6458E+06    -10.8158E+06         40.4419
            2008     995.892E-06     109.380E-03     217.153E-03     157.538E-03    -484.557E-03     145.522E-03    -472.542E-03     217.153E-03    -101.426E-03     8.71401E-03    -4.23386E-03    -4.47961E-03    -4.33758E-03     8.59939E-03    -4.26126E-03     2.21590E-03    -84.4589E+06    -162.247E+06    -165.829E+06    -164.053E+06    -85.0619E+06    -163.420E+06    -5.01604E+06         20.6839
            2009     1.99093E-03     109.382E-03     197.225E-03     153.565E-03    -449.570E-03     167.096E-03    -444.348E-03     178.472E-03    -19.0007E-03     9.53794E-03    -4.39670E-03    -5.14051E-03    -4.74961E-03     9.14703E-03    -4.39670E-03     4.56430E-03    -71.0428E+06    -152.755E+06    -157.940E+06    -154.021E+06    -72.3762E+06    -155.341E+06    -7.57778E+06         20.7458
            2010     2.98574E-03     109.386E-03     199.750E-03     178.465E-03    -475.351E-03     196.044E-03    -471.645E-03     178.465E-03     5.31463E-03     10.8576E-03    -4.58750E-03    -6.26919E-03    -5.32987E-03     9.91829E-03    -4.58750E-03     7.68774E-03    -62.1998E+06    -142.631E+06    -152.090E+06    -141.586E+06    -64.5046E+06    -150.830E+06    -10.0279E+06         20.8495
            2011     3.97997E-03     109.393E-03     182.726E-03     160.445E-03    -442.952E-03     162.026E-03    -440.911E-03     179.103E-03    -4.69870E-03     12.9603E-03    -4.86031E-03    -8.09846E-03    -6.26802E-03     11.1298E-03    -4.86031E-03     11.8017E-03    -52.3371E+06    -132.374E+06    -144.435E+06    -128.504E+06    -56.2073E+06    -144.435E+06    -14.4495E+06         21.0031
            2012     4.97290E-03     109.404E-03     173.238E-03     125.586E-03    -398.705E-03     125.447E-03    -397.475E-03     172.147E-03    -32.6341E-03     15.8833E-03    -5.29907E-03    -10.5846E-03    -7.57759E-03     12.8763E-03    -5.29907E-03     16.7703E-03    -46.4982E+06    -119.136E+06    -127.941E+06    -113.095E+06    -53.6311E+06    -126.849E+06    -19.8496E+06         21.2123
            2013     5.96454E-03     109.419E-03     162.810E-03     108.621E-03    -371.278E-03     108.522E-03    -371.179E-03     162.810E-03     5.02363E-03     19.5113E-03    -5.87468E-03    -13.6366E-03    -9.21706E-03     15.0917E-03    -5.87468E-03     22.5194E-03     -34.605E+06    -98.8748E+06    -104.435E+06    -93.0046E+06    -44.6588E+06    -100.251E+06    -23.4284E+06         21.4838
            2014     6.95444E-03     109.440E-03     154.631E-03     106.575E-03    -360.650E-03     106.273E-03    -360.348E-03     154.631E-03     10.2101E-03     23.9256E-03    -6.59001E-03    -17.3367E-03    -11.3198E-03     17.9087E-03    -6.59001E-03     29.1182E-03    -18.5703E+06    -66.2014E+06    -80.8889E+06    -69.4892E+06    -29.9701E+06    -66.2014E+06    -23.5586E+06         21.8325
            2015     7.94224E-03     109.467E-03     147.784E-03     98.6691E-03    -342.728E-03     98.1807E-03    -342.240E-03     147.784E-03     22.4193E-03     29.2091E-03    -7.47367E-03    -21.7371E-03    -14.0096E-03     21.4816E-03    -7.47367E-03     36.5452E-03    -6.06384E+06    -28.0410E+06    -56.2392E+06    -45.6591E+06    -18.6461E+06    -26.0389E+06    -18.9074E+06         22.2788
            2016     8.92717E-03     109.501E-03     140.998E-03     82.3971E-03    -317.312E-03     81.5735E-03    -316.489E-03     140.998E-03     12.1368E-03     35.4171E-03    -8.49372E-03    -26.9194E-03    -17.4242E-03     25.9220E-03    -8.49372E-03     44.7920E-03     14.2490E+06     570.311E+03    -34.2513E+06    -26.7324E+06    -3.15896E+06     10.4593E+06    -14.2551E+06         22.8551
            2017     9.90851E-03     109.543E-03     133.697E-03     64.8773E-03    -294.444E-03     63.7305E-03    -293.298E-03     133.697E-03     7.35367E-03     42.4077E-03    -9.67065E-03    -32.7383E-03    -21.6991E-03     31.3686E-03    -9.67065E-03     53.1819E-03     36.8214E+06     15.0867E+06    -23.0186E+06    -17.1254E+06     9.19359E+06     36.8214E+06    -13.4108E+06         23.6472
            2018     10.8852E-03     109.593E-03     125.807E-03     44.2180E-03    -269.376E-03     43.4010E-03    -268.559E-03     125.807E-03    -1.63944E-03     50.1355E-03    -11.0318E-03    -39.1073E-03    -26.9051E-03     37.9332E-03    -11.0318E-03     61.2704E-03     51.2559E+06     23.7597E+06    -27.8701E+06    -14.3270E+06     10.2165E+06     51.2559E+06    -19.8674E+06         24.7643
            2019     11.8568E-03     109.649E-03     118.156E-03     42.6078E-03    -261.132E-03     42.2809E-03    -260.805E-03     118.156E-03    -11.0076E-03     58.3363E-03    -12.5981E-03    -45.7354E-03    -33.0443E-03     45.6453E-03    -12.5981E-03     68.0098E-03     56.7049E+06     23.9353E+06    -34.0168E+06    -8.47989E+06    -1.60164E+06     56.7049E+06    -25.3120E+06         26.2453
            2020     12.8220E-03     109.709E-03     112.032E-03     56.2286E-03    -268.006E-03     55.6689E-03    -267.446E-03     112.032E-03     14.8187E-03     66.9977E-03    -14.3999E-03    -52.5959E-03    -40.1213E-03     54.5231E-03    -14.3999E-03     72.9773E-03     63.5848E+06     26.6441E+06    -24.5304E+06    -2.17844E+06     4.29215E+06     63.5848E+06    -23.6257E+06         28.0888
            2021     13.7799E-03     109.774E-03     107.138E-03     54.8408E-03    -263.146E-03     54.3168E-03    -262.622E-03     107.138E-03     18.6889E-03     75.5669E-03    -16.4212E-03    -59.1396E-03    -48.0304E-03     64.4577E-03    -16.4212E-03     73.7654E-03     53.1718E+06     27.8271E+06    -41.0834E+06    -4.83743E+06    -8.41891E+06     53.1718E+06    -32.2418E+06         30.4386
            2022     14.7294E-03     109.835E-03     102.807E-03     52.9144E-03    -256.929E-03     52.3764E-03    -256.391E-03     102.807E-03    -12.9867E-03     80.5539E-03    -18.6431E-03    -61.9079E-03    -54.7880E-03     73.4340E-03    -18.6431E-03     60.5388E-03     36.2002E+06     23.7178E+06    -52.7850E+06    -9.07991E+06    -19.9873E+06     36.2002E+06    -36.9599E+06         33.5265
            2023     15.6738E-03     109.873E-03     99.1599E-03     58.9428E-03    -259.068E-03     57.3896E-03    -257.515E-03     99.1599E-03     3.32793E-03     84.0790E-03    -20.9703E-03    -63.1166E-03    -57.8734E-03     78.8358E-03    -20.9703E-03     54.3368E-03     45.2324E+06     30.9903E+06    -26.7950E+06    -9.97680E+06     14.8889E+06     44.5156E+06    -22.7003E+06         37.1696
            2024     16.6185E-03     109.928E-03     96.1552E-03     58.3697E-03    -253.434E-03     56.8417E-03    -251.906E-03     96.1552E-03     6.44370E-03     85.9016E-03    -23.3711E-03    -62.5709E-03    -59.2568E-03     82.5875E-03    -23.3711E-03     37.6451E-03     91.8015E+06     50.4290E+06    -10.1032E+06    -8.01905E+06     49.0617E+06     91.0847E+06    -9.15151E+06         40.6440
            2025     995.656E-06     110.388E-03     203.175E-03     156.256E-03    -434.956E-03     158.599E-03    -428.755E-03     194.630E-03    -21.2982E-03     8.74880E-03    -4.27332E-03    -4.47513E-03    -4.35212E-03     8.70629E-03    -4.35381E-03     1.28713E-03    -69.9961E+06    -122.766E+06    -128.400E+06    -125.280E+06    -71.9959E+06    -123.886E+06    -9.39455E+06         20.6860
            2026     1.99100E-03     110.391E-03     178.139E-03     134.238E-03    -387.283E-03     138.409E-03    -382.255E-03     168.939E-03    -51.6935E-03     9.24838E-03    -4.40893E-03    -4.83938E-03    -4.62726E-03     9.06083E-03    -4.43351E-03     2.94572E-03    -57.9293E+06    -116.059E+06    -124.805E+06    -120.298E+06    -62.4358E+06    -116.059E+06    -15.8279E+06         20.7403
            2027     2.98624E-03     110.395E-03     160.083E-03     137.551E-03    -372.352E-03     136.050E-03    -368.379E-03     157.612E-03    -5.44288E-03     10.2410E-03    -4.59505E-03    -5.64580E-03    -5.09392E-03     9.68911E-03    -4.59505E-03     5.55637E-03    -46.7615E+06    -108.156E+06    -120.361E+06    -112.422E+06    -54.6919E+06    -108.165E+06    -21.7765E+06         20.8345
            2028     3.98081E-03     110.403E-03     163.346E-03     153.331E-03    -391.839E-03     160.865E-03    -390.609E-03     154.582E-03    -21.6602E-03     11.9558E-03    -4.83022E-03    -7.12493E-03    -5.88812E-03     10.7190E-03    -4.83022E-03     9.18921E-03    -34.9212E+06    -100.467E+06    -114.900E+06    -103.679E+06    -45.9716E+06    -100.638E+06    -26.8026E+06         20.9731
            2029     4.97446E-03     110.416E-03     161.848E-03     135.161E-03    -373.579E-03     141.901E-03    -372.330E-03     153.858E-03    -38.9379E-03     14.4657E-03    -5.16617E-03    -9.29973E-03    -7.01681E-03     12.1828E-03    -5.16617E-03     13.8748E-03    -25.3968E+06    -93.5119E+06    -112.504E+06    -96.1381E+06    -41.6006E+06    -93.6739E+06    -33.1704E+06         21.1607
            2030     5.96678E-03     110.433E-03     148.679E-03     105.551E-03    -331.157E-03     104.937E-03    -330.543E-03     148.679E-03    -20.5786E-03     17.8835E-03    -5.61652E-03    -12.2670E-03    -8.56190E-03     14.1784E-03    -5.61652E-03     19.7244E-03    -14.4228E+06    -84.9145E+06    -109.860E+06    -88.4068E+06    -35.8765E+06    -84.9145E+06    -39.6005E+06         21.4104
            2031     6.95734E-03     110.456E-03     140.889E-03     88.6913E-03    -307.062E-03     88.0219E-03    -306.393E-03     140.889E-03    -5.67160E-03     22.2148E-03    -6.21811E-03    -16.0004E-03    -10.5813E-03     16.7957E-03    -6.21811E-03     26.6348E-03    -2.96598E+06    -68.8719E+06    -101.414E+06    -77.8472E+06    -26.5328E+06    -68.8719E+06    -41.8198E+06         21.7360
            2032     7.94566E-03     110.487E-03     133.092E-03     76.8642E-03    -289.210E-03     76.2819E-03    -288.628E-03     133.092E-03     8.87595E-03     27.5276E-03    -7.00444E-03    -20.5272E-03    -13.1959E-03     20.1964E-03    -7.00444E-03     34.5503E-03     3.22957E+06    -42.7816E+06    -85.7168E+06    -61.2268E+06    -21.2604E+06    -42.7816E+06    -39.6386E+06         22.1561
            2033     8.93145E-03     110.526E-03     125.065E-03     57.0235E-03    -265.514E-03     56.2003E-03    -264.691E-03     125.065E-03    -17.3434E-03     33.7567E-03    -7.96409E-03    -25.7874E-03    -16.4495E-03     24.4188E-03    -7.96409E-03     43.3040E-03     14.3744E+06    -11.0064E+06    -58.4925E+06    -38.4068E+06    -8.25636E+06    -8.46135E+06    -31.6736E+06         22.7183
            2034     9.91388E-03     110.573E-03     116.297E-03     35.4589E-03    -236.238E-03     34.5118E-03    -235.291E-03     116.297E-03    -30.2552E-03     40.7560E-03    -9.11533E-03    -31.6381E-03    -20.4557E-03     29.5736E-03    -9.11533E-03     52.3216E-03     34.6850E+06     12.6888E+06    -30.0661E+06    -16.5835E+06     5.11638E+06     28.7748E+06    -20.5105E+06         23.5137
            2035     10.8924E-03     110.629E-03     108.019E-03     38.6662E-03    -229.960E-03     37.6488E-03    -228.943E-03     108.019E-03    -30.3106E-03     48.5504E-03    -10.4433E-03    -38.1056E-03    -25.3976E-03     35.8424E-03    -10.4433E-03     61.2960E-03     58.2201E+06     28.0624E+06    -14.6208E+06    -5.69300E+06     19.1345E+06     58.2201E+06    -15.5236E+06         24.6245
            2036     11.8656E-03     110.693E-03     101.328E-03     43.6958E-03    -226.807E-03     42.3097E-03    -225.421E-03     101.328E-03    -25.3584E-03     56.9973E-03    -11.9560E-03    -45.0374E-03    -31.4559E-03     43.4159E-03    -11.9560E-03     69.2638E-03     67.0244E+06     25.2554E+06    -26.6635E+06    -7.27623E+06     5.86808E+06     67.0244E+06    -21.3532E+06         26.0756
            2037     12.8327E-03     110.763E-03     95.5053E-03     37.6093E-03    -214.235E-03     35.9906E-03    -212.617E-03     95.5053E-03    -6.63549E-03     66.4518E-03    -13.6796E-03    -52.7703E-03    -38.8121E-03     52.4937E-03    -13.6796E-03     76.5764E-03     67.3204E+06     21.6555E+06    -28.6266E+06    -7.73330E+06     762.134E+03     67.3204E+06    -22.3533E+06         27.8939
            2038     13.7919E-03     110.840E-03     90.1901E-03     37.7426E-03    -206.239E-03     36.6311E-03    -205.127E-03     90.1901E-03     11.2571E-03     75.6984E-03    -15.6771E-03    -60.0092E-03    -46.9927E-03     62.6819E-03    -15.6771E-03     79.6219E-03     69.7105E+06     32.2268E+06    -25.7498E+06    -4.32547E+06     10.8025E+06     69.7105E+06    -24.2078E+06         30.2638
            2039     14.7428E-03     110.913E-03     85.6752E-03     39.9088E-03    -204.784E-03     37.1634E-03    -202.039E-03     85.6752E-03    -20.6238E-03     82.2077E-03    -17.9302E-03    -64.2695E-03    -55.4963E-03     73.4345E-03    -17.9302E-03     67.9538E-03     49.3323E+06     24.6408E+06    -50.9279E+06    -5.23063E+06    -21.0565E+06     49.3323E+06    -30.8086E+06         33.4121
            2040     15.6851E-03     110.959E-03     82.2094E-03     52.1908E-03    -214.738E-03     48.2304E-03    -210.777E-03     82.2094E-03     125.106E-06     87.8042E-03    -20.4069E-03    -67.4033E-03    -61.7625E-03     82.1633E-03    -20.4069E-03     57.9826E-03     47.6547E+06     22.8607E+06    -35.3990E+06    -5.61053E+06    -6.92783E+06     47.6547E+06    -19.4363E+06         37.1225
            2041     16.6243E-03     111.014E-03     79.8357E-03     57.6528E-03    -217.230E-03     56.0707E-03    -215.648E-03     79.8357E-03     26.4097E-03     90.4423E-03    -23.0710E-03    -67.3732E-03    -64.1494E-03     87.2186E-03    -23.0710E-03     40.6790E-03     96.8057E+06     43.0491E+06    -4.69813E+06    -3.58374E+06     41.9347E+06     96.8057E+06    -6.62182E+06         40.6589
            2042     994.328E-06     111.397E-03     161.619E-03     137.234E-03    -360.553E-03     147.853E-03    -346.787E-03     137.234E-03    -49.1075E-03     10.8732E-03    -5.40034E-03    -5.47272E-03    -5.40074E-03     10.8634E-03    -5.46249E-03     601.972E-06    -50.3177E+06    -77.6667E+06    -86.2314E+06    -81.2236E+06    -54.2052E+06    -78.7870E+06    -10.1542E+06         20.8098
            2043     1.98925E-03     111.400E-03     150.903E-03     120.723E-03    -333.060E-03     128.090E-03    -329.056E-03     139.532E-03    -33.9347E-03     11.1045E-03    -5.45598E-03    -5.64816E-03    -5.56175E-03     11.0517E-03    -5.48961E-03     1.53719E-03    -37.8781E+06    -72.4341E+06    -87.3189E+06    -78.6517E+06    -46.5453E+06    -72.4341E+06    -17.9649E+06         20.8600
            2044     2.98357E-03     111.405E-03     135.111E-03     110.878E-03    -299.876E-03     108.626E-03    -295.015E-03     132.502E-03    -26.9340E-03     11.8525E-03    -5.64003E-03    -6.21271E-03    -6.01595E-03     11.6557E-03    -5.64003E-03     3.24664E-03    -26.3376E+06    -61.8438E+06    -88.6778E+06    -74.7495E+06    -40.2660E+06    -61.8438E+06    -25.4396E+06         20.9457
            2045     3.97733E-03     111.415E-03     134.551E-03     118.154E-03    -304.987E-03     122.727E-03    -302.661E-03     127.652E-03    -37.0465E-03     12.9647E-03    -5.85893E-03    -7.10726E-03    -6.56697E-03     12.4244E-03    -5.85893E-03     5.94548E-03    -15.2869E+06    -52.1572E+06    -87.9903E+06    -69.3432E+06    -33.9341E+06    -52.1572E+06    -31.2594E+06         21.0681
            2046     4.97067E-03     111.428E-03     136.684E-03     116.287E-03    -307.947E-03     124.573E-03    -305.987E-03     126.438E-03    -46.7137E-03     14.7369E-03    -6.13987E-03    -8.59663E-03    -7.39011E-03     13.5304E-03    -6.13987E-03     9.84225E-03    -5.81542E+06    -42.4088E+06    -86.5885E+06    -64.1492E+06    -28.2547E+06    -42.4088E+06    -35.8492E+06         21.2316
            2047     5.96295E-03     111.447E-03     128.304E-03     110.690E-03    -295.328E-03     111.274E-03    -292.170E-03     124.561E-03    -65.1982E-03     17.4243E-03    -6.50727E-03    -10.9178E-03    -8.61666E-03     15.1231E-03    -6.50727E-03     15.0970E-03     2.37153E+06    -33.8368E+06    -88.1708E+06    -62.1130E+06    -23.6863E+06    -33.8368E+06    -40.8747E+06         21.4508
            2048     6.95381E-03     111.473E-03     120.565E-03     85.5533E-03    -265.740E-03     83.8060E-03    -263.598E-03     120.170E-03    -43.5389E-03     21.1595E-03    -6.97084E-03    -14.1919E-03    -10.3153E-03     17.2829E-03    -6.97084E-03     21.8388E-03     9.70492E+06    -27.8959E+06    -90.1253E+06    -61.5524E+06    -18.8680E+06    -27.8959E+06    -44.9938E+06         21.7391
            2049     7.94272E-03     111.506E-03     113.107E-03     54.4838E-03    -229.704E-03     54.0574E-03    -229.277E-03     113.107E-03    -17.1219E-03     26.1264E-03    -7.57474E-03    -18.5513E-03    -12.6410E-03     20.2162E-03    -7.57474E-03     30.1435E-03     14.8910E+06    -20.5529E+06    -90.6497E+06    -59.5443E+06    -16.2144E+06    -20.5529E+06    -47.9962E+06         22.1134
            2050     8.92875E-03     111.549E-03     104.404E-03     30.7796E-03    -201.201E-03     30.3859E-03    -200.807E-03     104.404E-03    -18.0452E-03     32.1506E-03    -8.34511E-03    -23.7950E-03    -15.6010E-03     23.9567E-03    -8.34511E-03     39.5115E-03     17.3931E+06    -9.19799E+06    -83.5712E+06    -52.6939E+06    -13.4842E+06    -9.19799E+06    -46.4852E+06         22.6360
            2051     9.91203E-03     111.601E-03     95.8385E-03     27.6210E-03    -191.226E-03     27.0682E-03    -190.673E-03     95.8385E-03    -18.0133E-03     39.0680E-03    -9.31643E-03    -29.7233E-03    -19.3199E-03     28.6646E-03    -9.31643E-03     49.2803E-03     25.4857E+06     8.01317E+06    -62.3017E+06    -37.4014E+06    -5.07222E+06     13.6707E+06    -37.0848E+06         23.4069
            2052     10.8914E-03     111.663E-03     88.9435E-03     38.5189E-03    -189.439E-03     37.1971E-03    -188.117E-03     88.9435E-03    -30.6180E-03     46.7452E-03    -10.5272E-03    -36.1988E-03    -23.9454E-03     34.4917E-03    -10.5272E-03     58.8558E-03     49.1283E+06     23.4900E+06    -30.8629E+06    -17.6454E+06     11.9159E+06     47.4848E+06    -22.4057E+06         24.4807
            2053     11.8663E-03     111.735E-03     83.2508E-03     34.6285E-03    -176.663E-03     32.1020E-03    -174.137E-03     83.2508E-03    -22.1489E-03     55.2106E-03    -11.9552E-03    -43.2542E-03    -29.7837E-03     41.7401E-03    -11.9552E-03     67.6418E-03     71.9707E+06     21.5599E+06    -13.7152E+06    -5.64959E+06     13.4942E+06     71.9707E+06    -13.8432E+06         25.8639
            2054     12.8352E-03     111.814E-03     77.5990E-03     22.3908E-03    -159.531E-03     20.2125E-03    -157.353E-03     77.5990E-03    -15.7305E-03     64.7102E-03    -13.5694E-03    -51.1362E-03    -36.7729E-03     50.3469E-03    -13.5694E-03     76.3302E-03     76.6879E+06     19.0612E+06    -21.1229E+06    -4.25432E+06     2.19256E+06     76.6879E+06    -17.2573E+06         27.6192
            2055     13.7970E-03     111.902E-03     72.4557E-03     29.3193E-03    -157.311E-03     28.3290E-03    -156.320E-03     72.4557E-03    -1.18694E-03     73.4214E-03    -15.4133E-03    -57.9937E-03    -44.0493E-03     59.4770E-03    -15.4133E-03     80.7677E-03     80.7842E+06     30.0210E+06    -20.4760E+06    -6.03509E+06     15.5800E+06     80.7842E+06    -17.5968E+06         29.9803
            2056     14.7519E-03     111.985E-03     68.5710E-03     40.1631E-03    -167.394E-03     36.3015E-03    -163.533E-03     68.5710E-03    -24.7962E-03     81.7233E-03    -17.5663E-03    -64.1488E-03    -53.8325E-03     71.4069E-03    -17.5663E-03     73.5489E-03     69.3340E+06     22.2457E+06    -40.4885E+06    -9.41827E+06    -8.82455E+06     69.3340E+06    -22.0159E+06         33.1534
            2057     15.6938E-03     112.050E-03     65.7191E-03     45.1842E-03    -177.544E-03     40.3463E-03    -172.706E-03     65.7191E-03    -12.6024E-03     90.9012E-03    -20.0084E-03    -70.8986E-03    -64.5603E-03     84.5629E-03    -20.0084E-03     62.1571E-03     45.1000E+06     14.0021E+06    -45.3852E+06    -5.82799E+06    -25.5550E+06     45.1000E+06    -22.2268E+06         36.8863
            2058     16.6268E-03     112.108E-03     66.4713E-03     49.9084E-03    -187.572E-03     51.0877E-03    -186.119E-03     63.8390E-03     20.9068E-03     93.4484E-03    -22.8060E-03    -70.6410E-03    -67.6940E-03     90.5014E-03    -22.8060E-03     40.1198E-03     85.2682E+06     38.4849E+06    -10.3867E+06     1.70073E+06     26.3974E+06     85.2682E+06    -5.43421E+06         40.4543
            2059     993.071E-06     112.409E-03     130.465E-03     94.3124E-03    -268.908E-03     94.6228E-03    -253.379E-03     114.626E-03    -32.7094E-03     14.6156E-03    -7.23318E-03    -7.38202E-03    -7.36308E-03     14.6134E-03    -7.24994E-03    -92.9712E-06    -24.9465E+06    -35.7136E+06    -49.4824E+06    -37.9246E+06    -36.5043E+06    -35.7136E+06    -9.13384E+06         21.0613
            2060     1.98565E-03     112.412E-03     120.559E-03     97.4432E-03    -255.797E-03     104.579E-03    -246.922E-03     104.548E-03     12.0888E-03     15.1347E-03    -7.41538E-03    -7.71839E-03    -7.70179E-03     15.1272E-03    -7.42444E-03     197.354E-06    -14.8230E+06    -29.0240E+06    -51.2441E+06    -36.5785E+06    -29.4885E+06    -29.0240E+06    -16.9462E+06         21.1117
            2061     2.97783E-03     112.419E-03     122.331E-03     104.333E-03    -260.447E-03     114.885E-03    -254.565E-03     105.897E-03    -12.9464E-03     15.7325E-03    -7.63732E-03    -8.09394E-03    -8.06386E-03     15.7024E-03    -7.63732E-03     979.240E-06    -4.94602E+06    -20.6425E+06    -54.9768E+06    -34.8497E+06    -25.0731E+06    -20.6425E+06    -23.7585E+06         21.1910
            2062     3.96981E-03     112.428E-03     106.460E-03     86.7541E-03    -228.901E-03     85.4773E-03    -225.941E-03     104.777E-03     6.09783E-03     16.5468E-03    -7.87771E-03    -8.67015E-03    -8.55113E-03     16.4277E-03    -7.87771E-03     2.57363E-03     2.47517E+06    -12.0413E+06    -57.9236E+06    -34.0647E+06    -21.3837E+06    -12.0413E+06    -29.1152E+06         21.3007
            2063     4.96120E-03     112.443E-03     103.754E-03     81.9373E-03    -214.717E-03     83.8254E-03    -213.257E-03     100.406E-03    -4.98103E-03     17.6903E-03    -8.15274E-03    -9.53945E-03    -9.17558E-03     17.3265E-03    -8.15274E-03     5.25017E-03     7.64095E+06    -3.99459E+06    -59.5822E+06    -34.0315E+06    -17.9098E+06    -3.99459E+06    -32.4017E+06         21.4451
            2064     5.95196E-03     112.463E-03     101.647E-03     94.3788E-03    -223.873E-03     93.2952E-03    -219.047E-03     97.9044E-03    -15.4305E-03     19.3731E-03    -8.48208E-03    -10.8938E-03    -10.0122E-03     18.4915E-03    -8.48208E-03     9.15518E-03     14.8852E+06     4.25041E+06    -59.6969E+06     -33.465E+06    -12.7345E+06     5.63816E+06    -34.9394E+06         21.6306
            2065     6.94184E-03     112.490E-03     95.4991E-03     73.9486E-03    -202.001E-03     70.4282E-03    -198.086E-03     95.1043E-03    -4.21512E-03     21.9381E-03    -8.88180E-03    -13.0563E-03    -11.2170E-03     20.0988E-03    -8.88180E-03     14.6626E-03     23.6290E+06     9.78860E+06    -61.5795E+06    -33.8329E+06    -9.58078E+06     15.2518E+06    -37.8738E+06         21.8710
            2066     7.93026E-03     112.526E-03     89.6805E-03     45.1568E-03    -172.832E-03     44.5002E-03    -172.176E-03     89.6805E-03     3.13880E-03     25.6351E-03    -9.36588E-03    -16.2619E-03    -12.8891E-03     22.2624E-03    -9.36588E-03     22.0339E-03     29.0129E+06     12.2848E+06    -65.0441E+06    -37.1022E+06    -8.29316E+06     21.6489E+06    -39.7487E+06         22.1907
            2067     8.91701E-03     112.572E-03     83.1084E-03     33.4068E-03    -162.550E-03     32.5791E-03    -161.722E-03     83.1084E-03     12.0174E-03     30.5989E-03    -9.95426E-03    -20.6337E-03    -15.1996E-03     25.1648E-03    -9.95426E-03     31.0415E-03     30.9775E+06     10.5639E+06    -71.1944E+06    -43.2888E+06    -9.79668E+06     23.4325E+06    -41.3790E+06         22.6561
            2068     9.90065E-03     112.628E-03     76.8158E-03     27.5256E-03    -155.433E-03     27.0014E-03    -154.909E-03     76.8158E-03     8.36521E-03     36.8593E-03    -10.6799E-03    -26.1592E-03    -18.2868E-03     28.9869E-03    -10.6799E-03     41.3987E-03     31.7140E+06     10.7035E+06    -73.8709E+06    -47.5980E+06    -9.66455E+06     25.8092E+06    -40.8112E+06         23.3642
            2069     10.8808E-03     112.697E-03     70.9764E-03     22.0305E-03    -140.297E-03     21.4238E-03    -139.691E-03     70.9764E-03    -3.34656E-03     44.2645E-03    -11.6172E-03    -32.6644E-03    -22.3723E-03     33.9724E-03    -11.6172E-03     52.2800E-03     40.2130E+06     16.3684E+06    -61.5657E+06    -42.5535E+06    -1.00034E+06     38.5696E+06    -33.4487E+06         24.3599
            2070     11.8567E-03     112.774E-03     65.3683E-03     16.1799E-03    -122.016E-03     14.5813E-03    -120.417E-03     65.3683E-03     9.86393E-03     52.8450E-03    -12.8125E-03    -40.0818E-03    -27.7718E-03     40.5350E-03    -12.8125E-03     62.9759E-03     61.2929E+06     18.1278E+06    -37.3104E+06    -26.6943E+06     7.51165E+06     61.2929E+06    -21.6173E+06         25.6426
            2071     12.8265E-03     112.863E-03     59.9494E-03     10.7207E-03    -109.996E-03     9.37956E-03    -108.655E-03     59.9494E-03     10.6806E-03     62.2204E-03    -14.2592E-03    -47.9806E-03    -34.1841E-03     48.4238E-03    -14.2592E-03     72.9240E-03     80.4142E+06     19.7439E+06    -24.8874E+06    -12.1005E+06     6.95709E+06     80.4142E+06    -14.9788E+06         27.3056
            2072     13.7911E-03     112.958E-03     55.4086E-03     22.3496E-03    -116.330E-03     21.9822E-03    -115.963E-03     55.4086E-03     717.878E-06     70.7712E-03    -15.9253E-03    -54.8409E-03    -41.3994E-03     57.3297E-03    -15.9253E-03     77.4545E-03     88.9394E+06     21.4883E+06    -17.5318E+06    -6.73538E+06     10.6920E+06     88.9394E+06    -11.0058E+06         29.6292
            2073     14.7503E-03     113.053E-03     52.2993E-03     36.4405E-03    -129.916E-03     34.8576E-03    -128.333E-03     52.2993E-03    -14.4189E-03     78.8759E-03    -17.8912E-03    -60.9835E-03    -50.2931E-03     68.1855E-03    -17.8912E-03     73.7374E-03     91.1987E+06     14.1986E+06    -15.6529E+06    -6.58219E+06     5.12784E+06     91.1987E+06    -11.1587E+06         32.7771
            2074     15.6956E-03     113.142E-03     49.8040E-03     27.9407E-03    -128.879E-03     25.5478E-03    -126.486E-03     49.8040E-03    -10.2217E-03     88.6662E-03    -20.0727E-03    -68.5982E-03    -60.7893E-03     80.8573E-03    -20.0727E-03     67.5160E-03     55.0943E+06    -356.629E+03    -40.8900E+06    -12.8577E+06    -28.3889E+06     55.0943E+06    -17.4575E+06         36.4919
            2075     16.6265E-03     113.209E-03     50.3831E-03     32.0273E-03    -139.622E-03     31.9653E-03    -136.928E-03     47.7508E-03    -8.68972E-03     94.0240E-03    -22.6700E-03    -71.3550E-03    -67.5696E-03     90.2386E-03    -22.6700E-03     44.0698E-03     70.7875E+06     25.8480E+06    -37.8605E+06    -16.6156E+06     4.60313E+06     70.7875E+06    -8.74833E+06         40.0687
            2076     990.652E-06     113.427E-03     103.297E-03     67.7794E-03    -205.820E-03     64.9064E-03    -193.288E-03     93.6377E-03     37.7757E-03     20.1919E-03    -9.96533E-03    -10.2258E-03    -10.0983E-03     20.1862E-03    -10.0871E-03    -765.483E-06     8.86222E+06     2.68441E+06    -24.1318E+06     4.09953E+06    -20.3618E+06     3.67712E+06    -8.48893E+06         21.4218
            2077     1.98015E-03     113.430E-03     107.919E-03     73.7654E-03    -205.177E-03     87.7777E-03    -192.140E-03     80.8703E-03    -4.29521E-03     20.8157E-03    -10.2207E-03    -10.5938E-03    -10.5845E-03     20.8064E-03    -10.2207E-03    -1.01783E-03     12.2729E+06     7.37691E+06    -23.8054E+06     2.53872E+06    -14.8452E+06     8.15086E+06    -13.8047E+06         21.4749
            2078     2.96971E-03     113.437E-03     102.889E-03     77.6245E-03    -202.731E-03     92.0712E-03    -198.106E-03     83.8174E-03     19.0490E-03     21.6208E-03    -10.4866E-03    -11.1329E-03    -11.1242E-03     21.6121E-03    -10.4866E-03    -834.100E-06     17.8353E+06     11.0704E+06    -26.3406E+06     745.264E+03    -12.2569E+06     14.0768E+06    -18.5683E+06         21.5567
            2079     3.95848E-03     113.447E-03     87.9875E-03     67.3530E-03    -173.017E-03     70.3544E-03    -171.353E-03     83.3224E-03     26.9742E-03     22.6498E-03    -10.8152E-03    -11.8354E-03    -11.8229E-03     22.6373E-03    -10.8152E-03    -252.237E-06     23.6925E+06     14.9326E+06    -29.4445E+06    -1.56207E+06    -11.0441E+06     21.7869E+06    -21.6901E+06         21.6672
            2080     4.94648E-03     113.462E-03     82.8953E-03     63.2833E-03    -157.801E-03     65.2863E-03    -156.822E-03     79.9130E-03    -920.030E-06     23.7605E-03    -11.1841E-03    -12.5784E-03    -12.5356E-03     23.7177E-03    -11.1841E-03     1.03839E-03     29.7959E+06     18.6606E+06    -32.0111E+06    -3.79763E+06    -9.15445E+06     29.3974E+06    -24.4400E+06         21.8052
            2081     5.93390E-03     113.484E-03     76.1231E-03     56.2366E-03    -140.611E-03     53.3968E-03    -137.771E-03     76.1231E-03     16.0452E-03     25.0028E-03    -11.5731E-03    -13.4289E-03    -13.2753E-03     24.8491E-03    -11.5731E-03     3.31714E-03     36.0852E+06     21.2384E+06    -32.9956E+06    -6.22868E+06    -5.48426E+06     36.0409E+06    -26.4440E+06         21.9715
            2082     6.92048E-03     113.512E-03     71.2753E-03     41.3327E-03    -120.850E-03     38.7541E-03    -118.271E-03     71.2753E-03     28.8402E-03     26.6489E-03    -12.0052E-03    -14.6378E-03    -14.1935E-03     26.2046E-03    -12.0052E-03     6.74959E-03     43.3138E+06     20.0987E+06    -33.6430E+06    -10.0130E+06    -3.53134E+06     43.3138E+06    -26.3930E+06         22.1767
            2083     7.90627E-03     113.550E-03     66.3614E-03     39.5742E-03    -119.672E-03     38.4447E-03    -118.542E-03     66.3614E-03     10.3080E-03     28.8613E-03    -12.4910E-03    -16.3659E-03    -15.3212E-03     27.8166E-03    -12.4910E-03     11.5121E-03     50.6475E+06     16.9538E+06    -35.7813E+06    -15.2445E+06    -3.58294E+06     50.6475E+06    -25.4202E+06         22.4396
            2084     8.89080E-03     113.598E-03     62.1019E-03     36.6956E-03    -120.965E-03     35.3923E-03    -119.662E-03     62.1019E-03     5.88726E-03     31.7873E-03    -13.0298E-03    -18.7652E-03    -16.7000E-03     29.7221E-03    -13.0298E-03     17.8313E-03     57.5598E+06     15.2674E+06    -38.9726E+06    -20.3207E+06    -3.38454E+06     57.5598E+06    -25.5034E+06         22.8153
            2085     9.87404E-03     113.657E-03     57.6323E-03     25.8449E-03    -112.751E-03     22.0227E-03    -108.929E-03     57.6323E-03    -11.0267E-03     35.7831E-03    -13.6214E-03    -22.1744E-03    -18.5714E-03     32.1801E-03    -13.6214E-03     25.9078E-03     60.5431E+06     13.7623E+06    -44.6487E+06    -25.4110E+06    -5.47539E+06     60.5431E+06    -27.3760E+06         23.4073
            2086     10.8554E-03     113.728E-03     52.6957E-03     16.7871E-03    -97.0468E-03     13.1394E-03    -93.3991E-03     52.6957E-03    -9.10925E-03     41.0206E-03    -14.2967E-03    -26.7944E-03    -21.1931E-03     35.4193E-03    -14.2967E-03     35.7128E-03     60.2734E+06     12.6083E+06    -48.3258E+06    -30.6820E+06    -5.03541E+06     60.2734E+06    -27.5039E+06         24.2848
            2087     11.8327E-03     113.812E-03     47.7898E-03     9.16474E-03    -81.3858E-03     8.44977E-03    -80.6708E-03     47.7898E-03     8.51321E-03     47.7256E-03    -15.1163E-03    -32.7218E-03    -24.6843E-03     39.6880E-03    -15.1163E-03     47.3462E-03     63.7371E+06     11.5277E+06    -46.8060E+06    -34.6774E+06    -600.871E+03     63.7371E+06    -23.4633E+06         25.4484
            2088     12.8065E-03     113.907E-03     45.0981E-03     14.1772E-03    -84.8605E-03     13.9728E-03    -83.0685E-03     43.5105E-03     14.7587E-03     56.5076E-03    -16.1536E-03    -40.4382E-03    -29.8477E-03     45.9171E-03    -16.1536E-03     60.1658E-03     73.7532E+06     11.5843E+06    -40.0361E+06    -32.7398E+06     4.28805E+06     73.7532E+06    -17.2839E+06         27.0129
            2089     13.7731E-03     114.013E-03     41.7739E-03     19.3945E-03    -84.6413E-03     19.5480E-03    -83.2072E-03     40.1863E-03     14.9865E-03     66.2476E-03    -17.4472E-03    -48.8271E-03    -36.9760E-03     54.3966E-03    -17.4472E-03     69.8040E-03     82.5703E+06     10.7498E+06    -28.4310E+06    -23.4429E+06     5.76168E+06     82.5703E+06    -12.2425E+06         29.2855
            2090     14.7282E-03     114.120E-03     37.2457E-03     13.4569E-03    -76.8095E-03     12.4841E-03    -75.8368E-03     37.2457E-03    -7.39773E-03     73.6388E-03    -18.9992E-03    -54.6311E-03    -43.5568E-03     62.5645E-03    -18.9992E-03     71.7317E-03     90.1965E+06     9.22900E+06    -16.5768E+06    -13.6369E+06     6.28914E+06     90.1965E+06    -7.86029E+06         32.3830
            2091     15.6849E-03     114.216E-03     34.2861E-03     8.77346E-03    -74.3343E-03     7.79165E-03    -73.3525E-03     34.2861E-03    -12.4382E-03     81.1880E-03    -20.7124E-03    -60.5082E-03    -50.8559E-03     71.5357E-03    -20.7124E-03     70.9998E-03     74.9039E+06    -407.957E+03    -31.9165E+06    -11.7850E+06    -20.5395E+06     74.9039E+06    -6.23589E+06         36.0460
            2092     16.6379E-03     114.303E-03     31.8328E-03     15.5598E-03    -86.4307E-03     11.5754E-03    -82.4463E-03     31.8328E-03    -31.9242E-03     90.5658E-03    -22.7984E-03    -67.7874E-03    -62.5794E-03     85.3577E-03    -22.7984E-03     50.5516E-03     81.8074E+06     22.7804E+06    -30.0916E+06    -4.36901E+06    -2.94214E+06     81.8074E+06    -8.37133E+06         39.6110
            2093     986.291E-06     114.450E-03     92.6154E-03     33.8949E-03    -148.280E-03     55.8708E-03    -92.3716E-03     14.7308E-03    -19.0341E-03     27.2668E-03    -13.4811E-03    -13.7856E-03    -13.6270E-03     27.2589E-03    -13.6318E-03    -1.08899E-03     41.7759E+06     37.9863E+06    -8.53833E+06     38.5939E+06    -7.48957E+06     40.1196E+06    -5.96448E+06         21.7833
            2094     1.97360E-03     114.455E-03     82.3320E-03     41.6300E-03    -138.354E-03     68.4081E-03    -124.430E-03     41.6300E-03    -103.703E-03     27.7712E-03    -13.6890E-03    -14.0787E-03    -14.0293E-03     27.7584E-03    -13.7257E-03    -1.41898E-03     40.5103E+06     35.6575E+06    -7.17075E+06     34.9043E+06    -4.76121E+06     38.8540E+06    -8.24303E+06         21.8391
            2095     2.95935E-03     114.462E-03     73.7938E-03     43.7332E-03    -120.072E-03     62.0599E-03    -114.531E-03     49.9261E-03    -40.2721E-03     29.0734E-03    -14.0396E-03    -15.0318E-03    -15.0150E-03     29.0566E-03    -14.0396E-03    -1.71402E-03     43.5938E+06     33.7525E+06    -8.06039E+06     29.6866E+06    -3.99456E+06     43.5938E+06    -10.1959E+06         21.9315
            2096     3.94407E-03     114.474E-03     69.8949E-03     46.3845E-03    -115.774E-03     61.6054E-03    -113.678E-03     52.5774E-03    -18.3057E-03     30.6444E-03    -14.5136E-03    -16.1356E-03    -16.1172E-03     30.6260E-03    -14.5136E-03    -1.84886E-03     50.5139E+06     30.8743E+06    -9.75848E+06     25.4245E+06    -4.30868E+06     50.5139E+06    -11.9248E+06         22.0551
            2097     4.92767E-03     114.490E-03     58.6075E-03     47.2799E-03    -100.662E-03     42.4628E-03    -89.3615E-03     52.1238E-03    -48.1214E-03     32.3734E-03    -15.0569E-03    -17.3160E-03    -17.2985E-03     32.3559E-03    -15.0569E-03    -1.70300E-03     56.9825E+06     28.6303E+06    -9.95836E+06     21.4768E+06    -2.80483E+06     56.9825E+06    -13.3710E+06         22.2037
            2098     5.91001E-03     114.512E-03     53.4213E-03     31.8601E-03    -77.9765E-03     22.6034E-03    -63.5196E-03     48.2211E-03    -53.8277E-03     34.2206E-03    -15.6524E-03    -18.5613E-03    -18.5403E-03     34.1995E-03    -15.6524E-03    -1.14845E-03     62.0032E+06     25.2634E+06    -10.5021E+06     16.1637E+06    -1.40236E+06     62.0032E+06    -13.7028E+06         22.3769
            2099     6.89125E-03     114.542E-03     52.2988E-03     26.0625E-03    -71.6974E-03     28.8283E-03    -66.1928E-03     44.0284E-03    -23.6782E-03     36.1546E-03    -16.3093E-03    -19.8402E-03    -19.7941E-03     36.1085E-03    -16.3093E-03    -147.894E-06     68.0392E+06     20.7282E+06    -11.6442E+06     10.7022E+06    -1.61809E+06     68.0392E+06    -12.7380E+06         22.5770
            2100     7.87089E-03     114.581E-03     48.6245E-03     31.9520E-03    -75.3717E-03     34.9825E-03    -71.2295E-03     41.4519E-03    -23.0281E-03     38.0951E-03    -17.0134E-03    -21.0877E-03    -20.9699E-03     37.9774E-03    -17.0134E-03     1.39812E-03     77.3856E+06     17.5263E+06    -11.4259E+06     7.44736E+06    -1.34695E+06     77.3856E+06    -11.7964E+06         22.8066
            2101     8.84937E-03     114.630E-03     42.2366E-03     28.1121E-03    -74.8895E-03     23.3732E-03    -66.8816E-03     38.9676E-03    -12.5283E-03     40.0164E-03    -17.7231E-03    -22.3045E-03    -22.0157E-03     39.7276E-03    -17.7231E-03     3.61208E-03     85.6144E+06     16.0987E+06    -11.2680E+06     5.19655E+06    -365.783E+03     85.6144E+06    -11.2679E+06         23.0914
            2102     9.82706E-03     114.690E-03     36.3542E-03     24.7393E-03    -68.6659E-03     12.2895E-03    -55.4059E-03     35.5440E-03    -22.1307E-03     41.8470E-03    -18.4132E-03    -23.4357E-03    -22.8181E-03     41.2293E-03    -18.4132E-03     6.64957E-03     89.6016E+06     14.7212E+06    -14.0060E+06     1.70758E+06    -992.334E+03     89.6016E+06    -11.0185E+06         23.5325
            2103     10.8032E-03     114.763E-03     33.5282E-03     20.8570E-03    -58.1717E-03     13.1208E-03    -48.8531E-03     31.9457E-03    -32.1006E-03     43.4602E-03    -19.0655E-03    -24.4711E-03    -23.2418E-03     42.2309E-03    -19.0655E-03     11.1152E-03     89.2743E+06     12.6816E+06    -18.5461E+06    -3.03452E+06    -2.82995E+06     89.2743E+06    -11.3177E+06         24.2619
            2104     11.7805E-03     114.848E-03     34.8369E-03     14.3235E-03    -54.1394E-03     19.2632E-03    -53.2435E-03     29.0014E-03    -7.03413E-03     46.1686E-03    -19.6997E-03    -26.6116E-03    -24.2864E-03     43.8433E-03    -19.6997E-03     17.4774E-03     88.1961E+06     11.5750E+06    -19.5104E+06    -5.76033E+06    -2.17504E+06     88.1961E+06    -10.7523E+06         25.3096
            2105     12.7571E-03     114.947E-03     36.0766E-03     20.2231E-03    -61.1152E-03     25.1038E-03    -56.7316E-03     26.8124E-03    -8.03992E-03     50.4112E-03    -20.3921E-03    -30.1291E-03    -26.2400E-03     46.5221E-03    -20.3921E-03     25.2828E-03     89.7497E+06     11.1164E+06    -16.2390E+06    -6.02361E+06     900.992E+03     89.7497E+06    -9.37553E+06         26.7923
            2106     13.7305E-03     115.061E-03     28.9369E-03     17.5350E-03    -49.3482E-03     17.3534E-03    -44.9659E-03     24.7361E-03    -3.23980E-03     53.5752E-03    -19.4090E-03    -34.1987E-03    -27.0740E-03     48.1181E-03    -21.0767E-03     33.9750E-03     86.6146E+06     10.2126E+06    -14.2956E+06    -6.96006E+06     2.87700E+06     86.6146E+06    -6.55783E+06         29.0219
            2107     14.7041E-03     115.177E-03     24.6777E-03     4.82440E-03    -34.4844E-03    -735.150E-06    -26.2621E-03     22.0150E-03    -21.9030E-03     57.4046E-03    -20.0744E-03    -37.3528E-03    -29.4169E-03     51.1363E-03    -21.7421E-03     42.1387E-03     79.3950E+06     10.8262E+06    -14.2676E+06    -8.29847E+06     4.85705E+06     79.3950E+06    -3.22866E+06         32.0928
            2108     15.6687E-03     115.279E-03     21.7458E-03     4.60819E-03    -36.3334E-03    -978.771E-06    -28.0838E-03     19.0831E-03    -21.6522E-03     67.2813E-03    -22.6416E-03    -44.7029E-03    -38.4958E-03     61.0742E-03    -22.6416E-03     48.7163E-03     70.1392E+06     9.06376E+06    -28.9247E+06    -1.77827E+06    -18.0827E+06     70.1392E+06    -3.42404E+06         35.7344
            2109     16.6207E-03     115.383E-03     23.2426E-03     9.65828E-03    -50.5960E-03     11.2408E-03    -46.0213E-03     17.0853E-03    -29.0441E-03     73.4329E-03    -23.8666E-03    -49.5724E-03    -46.1162E-03     69.9766E-03    -23.8666E-03     35.4773E-03     75.4630E+06     26.7046E+06    -22.4771E+06     8.86441E+06    -4.63691E+06     75.4630E+06    -7.53167E+06         39.2637


