********************************************************************************
Field Output Report, written Tue May  6 16:32:24 2025

Source 1
---------

   ODB: D:/AISI_1020/Vel_20/1020_2a_8_rd_250_cal_50_v_20_f_0100.odb
   Step: Step-1
   Frame: Increment   4022426: Step Time =   0.5630

Loc 1 : Nodal values from source 1

Output sorted by column "Node Label".

Field Output reported at nodes for region: DIE_2A_8_D0_36-1.Region_1
   Computation algorithm: EXTRAPOLATE_COMPUTE_AVERAGE
   Averaged at nodes
   Averaging regions: ODB_REGIONS

      Node Label     COORD.COOR1     COORD.COOR2
                          @Loc 1          @Loc 1
-------------------------------------------------
               1     18.7742E-03     156.734E-03


Field Output reported at nodes for region: DIE_2A_8_D0_36-1.Region_2
   Computation algorithm: EXTRAPOLATE_COMPUTE_AVERAGE
   Averaged at nodes
   Averaging regions: ODB_REGIONS

      Node Label     COORD.COOR1     COORD.COOR2
                          @Loc 1          @Loc 1
-------------------------------------------------
               1     18.7742E-03     156.734E-03


Field Output reported at nodes for part: WIRE_1-1
   Computation algorithm: EXTRAPOLATE_COMPUTE_AVERAGE
   Averaged at nodes
   Averaging regions: ODB_REGIONS

      Node Label     COORD.COOR1     COORD.COOR2    ER.Max. Prin    ER.Mid. Prin    ER.Min. Prin         ER.ER11         ER.ER22         ER.ER33         ER.ER12    PE.Max. Prin    PE.Mid. Prin    PE.Min. Prin         PE.PE11         PE.PE22         PE.PE33         PE.PE12     S.Max. Prin     S.Mid. Prin     S.Min. Prin           S.S11           S.S22           S.S33           S.S12            TEMP
                          @Loc 1          @Loc 1          @Loc 1          @Loc 1          @Loc 1          @Loc 1          @Loc 1          @Loc 1          @Loc 1          @Loc 1          @Loc 1          @Loc 1          @Loc 1          @Loc 1          @Loc 1          @Loc 1          @Loc 1          @Loc 1          @Loc 1          @Loc 1          @Loc 1          @Loc 1          @Loc 1          @Loc 1
-----------------------------------------------------------------------------------------------------------------------------------------------------------------------------------------------------------------------------------------------------------------------------------------------------------------------------------------------------------------------------------------------------------------
               1     17.5251E-03     58.2236E-03     991.236E-03    -257.586E-03    -294.008E-03    -293.899E-03     991.128E-03    -257.586E-03    -1.26956E-03     53.0781E-03    -25.5492E-03    -27.5563E-03    -25.2092E-03     52.7381E-03    -27.5563E-03     10.3185E-03     198.007E+06     157.047E+06    -4.45403E+06    -4.45398E+06     198.007E+06     157.047E+06     94.5308E+03         43.6248
               2     80.4528E-09     57.9654E-03         3.33980        -1.33430        -1.58704     963.945E-03     788.811E-03        -1.33430         4.92365     55.0587E-03    -27.4127E-03    -27.6472E-03    -27.6435E-03     55.0550E-03    -27.4127E-03     1.10868E-03    -64.5022E+06    -66.7294E+06    -264.346E+06    -65.9516E+06    -264.346E+06    -65.2802E+06     193.606E+03         24.0252
               3     585.508E-09     96.8575E-09         1.23664    -290.747E-03    -334.723E-03    -290.496E-03         1.23639    -334.723E-03    -39.1947E-03     107.281E-03    -53.4385E-03    -53.8421E-03    -53.8409E-03     107.279E-03    -53.4385E-03     889.299E-06    -56.3663E+06    -57.1558E+06    -253.951E+06    -57.1602E+06    -253.946E+06    -56.3663E+06    -931.462E+03         28.5381
               4     17.3661E-03     96.8575E-09         1.55580    -371.270E-03    -478.168E-03    -476.791E-03         1.55442    -371.270E-03     105.823E-03     86.0915E-03    -34.7282E-03    -51.4707E-03    -45.5422E-03     80.1630E-03    -34.7282E-03     55.8708E-03     195.626E+06     159.625E+06    -7.91785E+06    -7.76017E+06     195.468E+06     159.625E+06     5.66300E+06         43.9113
               5     17.5590E-03     116.605E-03     26.7878E-03     138.670E-06    -5.42238E-03     16.5274E-03     10.3991E-03    -5.42238E-03    -25.9349E-03     33.4536E-03    -7.52277E-03    -25.8702E-03    -7.48990E-03     33.4207E-03    -25.8702E-03     2.32014E-03     63.9382E+06     1.74002E+06    -38.3151E+06    -38.2568E+06     1.68176E+06     63.9382E+06    -1.52655E+06         56.5880
               6    -167.518E-09     115.538E-03     101.800E-03    -35.6700E-03    -128.088E-03    -127.535E-03     101.247E-03    -35.6700E-03    -22.5225E-03     31.0434E-03    -15.2531E-03    -15.7923E-03    -15.7859E-03     31.0370E-03    -15.2531E-03    -1.09051E-03     67.2547E+06     64.7483E+06     601.332E+03     64.4326E+06     917.015E+03     67.2547E+06    -4.48893E+06         21.9200
               7     16.5503E-03     58.2125E-03     988.481E-03    -256.656E-03    -293.152E-03    -293.040E-03     988.369E-03    -256.656E-03    -6.89761E-03     56.2754E-03    -26.4572E-03    -29.8463E-03    -25.5258E-03     52.9585E-03    -27.4607E-03     28.3316E-03     192.448E+06     134.960E+06    -8.88800E+06    -8.88565E+06     192.445E+06     134.960E+06     454.767E+03         42.3326
               8     15.5756E-03     58.1637E-03     975.467E-03    -254.972E-03    -285.568E-03    -284.914E-03     974.813E-03    -254.972E-03     28.0003E-03     57.2443E-03    -27.2533E-03    -30.0107E-03    -25.8105E-03     53.0441E-03    -27.2533E-03     36.2180E-03     175.801E+06     83.3719E+06    -16.3416E+06    -16.3344E+06     175.794E+06     83.3719E+06     904.896E+03         39.3509
               9     14.6012E-03     58.1364E-03     961.409E-03    -253.704E-03    -274.876E-03    -273.061E-03     959.593E-03    -253.704E-03    -20.3130E-03     55.6658E-03    -27.0170E-03    -28.6637E-03    -25.9949E-03     52.9969E-03    -27.0170E-03     29.3753E-03     155.998E+06     23.1417E+06    -20.4809E+06    -20.4759E+06     155.993E+06     23.1417E+06     626.728E+03         36.0262
              10     13.6270E-03     58.1019E-03     957.689E-03    -252.680E-03    -272.170E-03    -270.376E-03     955.896E-03    -252.680E-03    -18.5675E-03     55.7078E-03    -26.9564E-03    -28.7717E-03    -26.4050E-03     53.3411E-03    -26.9564E-03     27.4080E-03     97.0232E+06    -11.7299E+06    -21.8252E+06    -21.8248E+06     97.0229E+06    -11.7299E+06     109.416E+03         33.1190
              11     12.6533E-03     58.0787E-03     961.622E-03    -251.295E-03    -277.242E-03    -276.628E-03     961.009E-03    -251.295E-03     27.7216E-03     54.9251E-03    -27.0997E-03    -27.8395E-03    -26.6358E-03     53.7214E-03    -27.0997E-03     19.6631E-03     18.1171E+06    -17.0281E+06    -22.3377E+06    -22.3221E+06     14.2745E+06    -13.2012E+06     37.1011E+03         30.8396
              12     11.6795E-03     58.0606E-03     965.519E-03    -249.067E-03    -283.630E-03    -283.415E-03     965.304E-03    -249.067E-03    -28.3093E-03     54.6888E-03    -27.2295E-03    -27.4882E-03    -26.7452E-03     53.9457E-03    -27.2295E-03     15.4636E-03    -8.99707E+06    -20.8937E+06    -43.3830E+06    -23.1000E+06    -41.1767E+06    -8.99707E+06     104.016E+03         28.9820
              13     10.7058E-03     58.0462E-03     954.971E-03    -246.361E-03    -277.844E-03    -277.368E-03     954.495E-03    -246.361E-03    -13.2011E-03     54.6465E-03    -27.3106E-03    -27.3868E-03    -26.8639E-03     54.1404E-03    -27.3274E-03     12.8092E-03    -4.93768E+06    -24.6671E+06    -80.4333E+06    -24.6684E+06    -80.4321E+06    -4.93768E+06     155.562E+03         27.4470
              14     9.73229E-03     58.0337E-03     936.408E-03    -244.040E-03    -265.038E-03    -264.304E-03     935.674E-03    -244.040E-03    -8.87580E-03     54.7325E-03    -27.3407E-03    -27.4086E-03    -26.9375E-03     54.3292E-03    -27.4086E-03     11.4708E-03    -1.25640E+06    -27.1155E+06    -109.760E+06    -27.1162E+06    -109.759E+06    -1.25640E+06     207.120E+03         26.2533
              15     8.75879E-03     58.0221E-03     929.954E-03    -241.948E-03    -263.538E-03    -263.025E-03     929.441E-03    -241.948E-03    -8.55468E-03     54.8457E-03    -27.3609E-03    -27.4750E-03    -27.0233E-03     54.5081E-03    -27.4750E-03     10.4978E-03    -1.11681E+06    -30.1290E+06    -135.596E+06    -30.1305E+06    -135.594E+06    -1.11681E+06     331.077E+03         25.4252
              16     7.78540E-03     58.0117E-03     924.346E-03    -239.189E-03    -259.633E-03    -258.752E-03     923.956E-03    -239.680E-03    -14.8043E-03     54.9393E-03    -27.4040E-03    -27.5324E-03    -27.1295E-03     54.6648E-03    -27.5324E-03     9.48227E-03    -2.80130E+06    -33.6711E+06    -160.149E+06    -33.6743E+06    -160.146E+06    -2.80130E+06     576.019E+03         24.9391
              17     6.81204E-03     58.0022E-03     902.266E-03    -228.085E-03    -246.049E-03    -233.979E-03     901.035E-03    -238.925E-03     19.4859E-03     55.0015E-03    -27.4263E-03    -27.5731E-03    -27.2005E-03     54.7757E-03    -27.5731E-03     8.60523E-03    -6.18353E+06    -37.6465E+06    -183.203E+06    -37.6492E+06    -183.200E+06    -6.18353E+06     581.026E+03         24.6714
              18     5.83876E-03     57.9936E-03     905.461E-03    -230.024E-03    -246.524E-03    -228.042E-03     897.328E-03    -240.373E-03    -87.5763E-03     55.0542E-03    -27.4495E-03    -27.6048E-03    -27.2666E-03     54.8713E-03    -27.6048E-03     7.74932E-03    -12.5357E+06    -42.1230E+06    -205.456E+06    -42.1238E+06    -205.455E+06    -12.5357E+06     267.554E+03         24.4894
              19     4.86549E-03     57.9859E-03     942.665E-03    -240.734E-03    -272.071E-03    -247.942E-03     918.536E-03    -240.734E-03     66.9392E-03     55.0945E-03    -27.4740E-03    -27.6205E-03    -27.3304E-03     54.9509E-03    -27.6205E-03     6.86337E-03    -20.8605E+06    -47.2136E+06    -226.575E+06    -47.2140E+06    -226.575E+06    -20.8605E+06    -149.320E+03         24.3407
              20     3.89234E-03     57.9792E-03     982.860E-03    -237.600E-03    -316.543E-03    -257.184E-03     923.501E-03    -237.600E-03    -131.187E-03     55.1059E-03    -27.4920E-03    -27.6130E-03    -27.3883E-03     55.0021E-03    -27.6130E-03     5.82246E-03    -31.5186E+06    -52.3197E+06    -242.539E+06    -52.3207E+06    -242.538E+06    -31.5186E+06    -428.844E+03         24.2195
              21     2.91914E-03     57.9737E-03         1.06458    -230.113E-03    -407.164E-03    -260.395E-03     917.808E-03    -230.113E-03     211.046E-03     55.1317E-03    -27.5372E-03    -27.5947E-03    -27.4719E-03     55.0663E-03    -27.5947E-03     4.59861E-03    -42.6056E+06    -57.2621E+06    -253.308E+06    -57.2628E+06    -253.307E+06    -42.6056E+06    -226.785E+03         24.1267
              22     1.94623E-03     57.9695E-03         1.30051    -215.265E-03    -656.994E-03    -254.458E-03     897.970E-03    -215.265E-03    -475.134E-03     55.0900E-03    -27.5280E-03    -27.5620E-03    -27.4987E-03     55.0576E-03    -27.5588E-03     3.18660E-03    -53.2253E+06    -61.6909E+06    -259.948E+06    -61.6920E+06    -259.947E+06    -53.2253E+06     159.725E+03         24.0653
              23     972.946E-06     57.9670E-03         2.40783    -769.880E-03        -1.21469     359.015E-03     834.124E-03    -769.880E-03         1.44851     55.0450E-03    -27.4513E-03    -27.5936E-03    -27.5609E-03     55.0342E-03    -27.4732E-03     1.77054E-03    -61.6164E+06    -65.1685E+06    -262.980E+06    -64.7806E+06    -262.979E+06    -62.0055E+06     233.812E+03         24.0341
              24     209.982E-09     56.9104E-03         3.28695        -1.30418        -1.54170         1.06323     843.112E-03        -1.46527         4.66228     54.9166E-03    -27.3077E-03    -27.6080E-03    -27.6052E-03     54.9138E-03    -27.3077E-03     944.534E-06    -64.3168E+06    -67.3161E+06    -263.649E+06    -65.7672E+06    -263.648E+06    -65.8670E+06    -338.117E+03         24.0251
              25     95.3454E-09     55.8557E-03         3.20900        -1.11173        -1.64800         1.13328     963.987E-03        -1.64800         4.31692     55.0254E-03    -27.3623E-03    -27.6632E-03    -27.6611E-03     55.0233E-03    -27.3623E-03     827.282E-06    -63.6150E+06    -66.9195E+06    -263.428E+06    -65.3728E+06    -263.425E+06    -65.1651E+06    -826.838E+03         24.0246
              26     179.982E-09     54.7994E-03         3.20352    -880.577E-03        -1.85675         1.21880         1.10414        -1.85675         4.08245     55.1029E-03    -27.4605E-03    -27.6442E-03    -27.6415E-03     55.1003E-03    -27.4605E-03     938.290E-06    -64.4519E+06    -67.5543E+06    -264.326E+06    -66.2142E+06    -264.318E+06    -65.7999E+06    -1.22179E+06         24.0240
              27    -118.988E-09     53.7443E-03         3.08686    -752.222E-03        -1.86630         1.36229     972.354E-03        -1.86630         3.80962     54.9660E-03    -27.3751E-03    -27.5926E-03    -27.5893E-03     54.9628E-03    -27.3751E-03     1.03933E-03    -66.9116E+06    -68.7487E+06    -265.776E+06    -66.9210E+06    -265.767E+06    -68.7487E+06    -161.128E+03         24.0233
              28     480.821E-09     52.6888E-03         2.88978    -550.559E-03        -1.87834         1.43676     902.454E-03        -1.87834         3.39792     54.9985E-03    -27.3582E-03    -27.6403E-03    -27.6364E-03     54.9945E-03    -27.3582E-03     1.14372E-03    -66.1637E+06    -67.3000E+06    -265.072E+06    -66.8148E+06    -265.068E+06    -66.6527E+06     763.112E+03         24.0236
              29    -298.749E-09     51.6334E-03         2.75538    -201.758E-03        -2.07578         1.39988         1.15374        -2.07578         2.94264     55.0235E-03    -27.4069E-03    -27.6152E-03    -27.6119E-03     55.0202E-03    -27.4069E-03     1.03982E-03    -65.8236E+06    -66.6944E+06    -264.166E+06    -66.4714E+06    -264.165E+06    -66.0471E+06     8.14703E+03         24.0241
              30     510.562E-09     50.5780E-03         2.55305     33.6847E-03        -2.11164         1.40921         1.17753        -2.11164         2.50194     54.9741E-03    -27.3551E-03    -27.6171E-03    -27.6145E-03     54.9714E-03    -27.3551E-03     925.901E-06    -65.2426E+06    -65.5193E+06    -264.204E+06    -65.2450E+06    -264.201E+06    -65.5193E+06    -624.285E+03         24.0240
              31    -180.159E-09     49.5228E-03         2.23922     265.607E-03        -2.03642         1.44830         1.05653        -2.03642         1.93349     54.9997E-03    -27.3930E-03    -27.6055E-03    -27.6028E-03     54.9970E-03    -27.3930E-03     934.625E-06    -64.5921E+06    -64.6846E+06    -263.733E+06    -64.6339E+06    -263.730E+06    -64.6452E+06    -275.533E+03         24.0234
              32     259.848E-09     48.4672E-03         1.94076     639.979E-03        -2.10642         1.41332         1.16742        -2.10642         1.27500     54.9744E-03    -27.3898E-03    -27.5850E-03    -27.5822E-03     54.9717E-03    -27.3898E-03     944.991E-06    -66.9225E+06    -67.0259E+06    -263.166E+06    -67.0263E+06    -263.166E+06    -66.9225E+06     248.611E+03         24.0218
              33     28.5632E-09     47.4117E-03         1.57573         1.04593        -2.14078         1.35457         1.26710        -2.14078     517.690E-03     54.8977E-03    -27.3369E-03    -27.5617E-03    -27.5589E-03     54.8949E-03    -27.3369E-03     955.712E-06    -67.8197E+06    -68.5454E+06    -263.767E+06    -67.8838E+06    -263.767E+06    -68.4814E+06    -3.42646E+03         24.0200
              34     127.100E-09     46.3572E-03         1.53261         1.04677        -2.08236         1.37177         1.20761        -2.08236    -298.609E-03     55.0262E-03    -27.3631E-03    -27.6626E-03    -27.6606E-03     55.0243E-03    -27.3631E-03     804.584E-06    -66.6485E+06    -67.6231E+06    -262.994E+06    -66.9625E+06    -262.993E+06    -67.3102E+06     260.743E+03         24.0210
              35     283.704E-09     45.3011E-03         1.79356     831.203E-03        -2.10810         1.38320         1.24157        -2.10810    -942.187E-03     55.1427E-03    -27.4397E-03    -27.7016E-03    -27.6990E-03     55.1401E-03    -27.4397E-03     899.839E-06    -66.5173E+06    -66.9461E+06    -262.293E+06    -66.8326E+06    -262.291E+06    -66.6332E+06     675.201E+03         24.0232
              36    -191.318E-09     44.2457E-03         2.00298     697.435E-03        -2.16052         1.31208         1.38833        -2.16052        -1.29932     55.0441E-03    -27.4585E-03    -27.5856E-03    -27.5815E-03     55.0400E-03    -27.4585E-03     1.16161E-03    -65.3878E+06    -65.8231E+06    -261.190E+06    -65.7086E+06    -261.188E+06    -65.5037E+06     231.160E+03         24.0234
              37     351.988E-09     43.1896E-03         2.20425     422.909E-03        -2.10634         1.26406         1.36310        -2.10634        -1.77537     54.9420E-03    -27.3035E-03    -27.6386E-03    -27.6343E-03     54.9376E-03    -27.3035E-03     1.19766E-03    -66.5513E+06    -66.9719E+06    -261.252E+06    -66.9731E+06    -261.251E+06    -66.5513E+06    -443.045E+03         24.0231
              38     128.268E-09     42.1355E-03         2.47560     123.126E-03        -2.07520         1.26541         1.33332        -2.07520        -2.35097     54.9141E-03    -27.3221E-03    -27.5930E-03    -27.5894E-03     54.9106E-03    -27.3221E-03     1.08074E-03    -69.1956E+06    -69.7728E+06    -263.184E+06    -69.2983E+06    -263.182E+06    -69.6716E+06    -99.2246E+03         24.0220
              39    -106.890E-09     41.0795E-03         2.67343     32.5346E-03        -2.15881         1.23667         1.46930        -2.15881        -2.62848     54.9595E-03    -27.4427E-03    -27.5174E-03    -27.5142E-03     54.9563E-03    -27.4427E-03     1.02025E-03    -66.0097E+06    -67.0329E+06    -262.005E+06    -66.5577E+06    -262.004E+06    -66.4857E+06     377.636E+03         24.0196
              40     222.913E-09     40.0244E-03         2.75434    -88.3675E-03        -2.13784         1.15990         1.50607        -2.13784        -2.82151     54.9580E-03    -27.3576E-03    -27.6003E-03    -27.5970E-03     54.9546E-03    -27.3576E-03     1.04856E-03    -67.0018E+06    -68.0824E+06    -263.678E+06    -67.5493E+06    -263.678E+06    -67.5352E+06     129.928E+03         24.0188
              41     133.819E-09     38.9690E-03         2.80380    -184.728E-03        -2.08500         1.10341         1.51566        -2.08500        -2.95922     55.0376E-03    -27.3636E-03    -27.6744E-03    -27.6710E-03     55.0342E-03    -27.3636E-03     1.05397E-03    -67.3503E+06    -68.6311E+06    -263.409E+06    -68.0981E+06    -263.409E+06    -67.8837E+06    -213.120E+03         24.0196
              42     104.140E-09     37.9136E-03         2.87207    -258.717E-03        -2.06824         1.07987         1.53349        -2.06824        -3.09742     55.0508E-03    -27.4005E-03    -27.6508E-03    -27.6478E-03     55.0478E-03    -27.4005E-03     997.250E-06    -66.4006E+06    -67.5926E+06    -261.870E+06    -67.1485E+06    -261.869E+06    -66.8452E+06    -315.135E+03         24.0198
              43     137.568E-09     36.8579E-03         2.85306    -387.124E-03        -1.92118         1.04808         1.41786        -1.92118        -3.21851     54.8652E-03    -27.2969E-03    -27.5687E-03    -27.5656E-03     54.8621E-03    -27.2969E-03     1.00743E-03    -68.3282E+06    -68.8117E+06    -262.696E+06    -68.3675E+06    -262.696E+06    -68.7728E+06    -260.341E+03         24.0188
              44     142.916E-09     35.8035E-03         2.87296    -476.764E-03        -1.82541         1.00364         1.39255        -1.82541        -3.32645     54.9060E-03    -27.3431E-03    -27.5629E-03    -27.5603E-03     54.9034E-03    -27.3431E-03     911.547E-06    -68.2032E+06    -68.2562E+06    -261.496E+06    -68.2423E+06    -261.496E+06    -68.2173E+06    -88.6583E+03         24.0182
              45    -6.99398E-09     34.7478E-03         2.94877    -521.367E-03        -1.85298     851.207E-03         1.57619        -1.85298        -3.38275     55.0762E-03    -27.4513E-03    -27.6248E-03    -27.6225E-03     55.0739E-03    -27.4513E-03     861.280E-06    -66.5387E+06    -66.6705E+06    -260.612E+06    -66.5390E+06    -260.612E+06    -66.6705E+06     221.184E+03         24.0207
              46     208.437E-09     33.6918E-03         2.92263    -501.989E-03        -1.84501     705.100E-03         1.71554        -1.84501        -3.27201     55.1487E-03    -27.4636E-03    -27.6868E-03    -27.6836E-03     55.1454E-03    -27.4636E-03     1.03886E-03    -64.5476E+06    -64.9545E+06    -261.019E+06    -64.8378E+06    -261.018E+06    -64.6653E+06    -70.9403E+03         24.0242
              47     38.9524E-09     32.6367E-03         2.77892    -517.071E-03        -1.68302     710.812E-03         1.55103        -1.68302        -3.18239     55.2042E-03    -27.5047E-03    -27.7015E-03    -27.6978E-03     55.2006E-03    -27.5047E-03     1.10019E-03    -65.5009E+06    -65.8694E+06    -261.899E+06    -65.7934E+06    -261.896E+06    -65.5802E+06    -750.015E+03         24.0250
              48     100.158E-09     31.5806E-03         2.69184    -610.665E-03        -1.49307     676.370E-03         1.40481        -1.49307        -3.22060     55.0958E-03    -27.4484E-03    -27.6473E-03    -27.6439E-03     55.0924E-03    -27.4484E-03     1.05851E-03    -67.3795E+06    -67.7509E+06    -262.875E+06    -67.3823E+06    -262.872E+06    -67.7509E+06    -652.034E+03         24.0246
              49     159.176E-09     30.5256E-03         2.73990    -578.875E-03        -1.54291     593.454E-03         1.56757        -1.54291        -3.16615     54.9207E-03    -27.3037E-03    -27.6170E-03    -27.6139E-03     54.9176E-03    -27.3037E-03     1.01232E-03    -68.4803E+06    -68.8180E+06    -265.054E+06    -68.4812E+06    -265.053E+06    -68.8180E+06    -404.067E+03         24.0241
              50     197.929E-09     29.4703E-03         2.66220    -460.776E-03        -1.58865     548.253E-03         1.65317        -1.58865        -2.92098     54.8577E-03    -27.3180E-03    -27.5403E-03    -27.5370E-03     54.8544E-03    -27.3180E-03     1.03569E-03    -68.4003E+06    -68.5997E+06    -266.335E+06    -68.5696E+06    -266.320E+06    -68.4458E+06     951.491E+03         24.0229
              51    -130.930E-09     28.4149E-03         2.50589    -422.777E-03        -1.46972     463.949E-03         1.61916        -1.46972        -2.68773     54.8798E-03    -27.3685E-03    -27.5127E-03    -27.5100E-03     54.8771E-03    -27.3685E-03     930.874E-06    -67.6248E+06    -68.2470E+06    -266.243E+06    -67.7981E+06    -266.223E+06    -68.0930E+06     527.338E+03         24.0199
              52     334.408E-09     27.3602E-03         2.47639    -437.782E-03        -1.42326     393.437E-03         1.64517        -1.42326        -2.63147     55.0784E-03    -27.3985E-03    -27.6810E-03    -27.6788E-03     55.0761E-03    -27.3985E-03     860.391E-06    -68.0584E+06    -69.0861E+06    -266.477E+06    -68.6243E+06    -266.471E+06    -68.5266E+06    -1.10377E+06         24.0158
              53    -1.95061E-09     26.3042E-03         2.38476    -416.443E-03        -1.36022     394.275E-03         1.57404        -1.36022        -2.54065     55.2372E-03    -27.4873E-03    -27.7494E-03    -27.7462E-03     55.2340E-03    -27.4873E-03     1.02251E-03    -67.9690E+06    -69.2506E+06    -265.430E+06    -68.5304E+06    -265.428E+06    -68.6912E+06    -284.630E+03         24.0141
              54     167.880E-09     25.2483E-03         2.30583    -499.796E-03        -1.22976     305.897E-03         1.50014        -1.22976        -2.53874     55.1268E-03    -27.5044E-03    -27.6228E-03    -27.6174E-03     55.1213E-03    -27.5044E-03     1.32826E-03    -66.1252E+06    -68.0499E+06    -263.668E+06    -67.3281E+06    -263.668E+06    -66.8475E+06     282.904E+03         24.0148
              55    -105.666E-09     24.1925E-03         2.45180    -636.019E-03        -1.23174     190.449E-03         1.62534        -1.23174        -2.73141     54.8654E-03    -27.3011E-03    -27.5648E-03    -27.5592E-03     54.8598E-03    -27.3011E-03     1.34492E-03    -66.3574E+06    -68.8571E+06    -263.920E+06    -67.5605E+06    -263.919E+06    -67.6546E+06    -57.9409E+03         24.0151
              56     542.921E-09     23.1382E-03         2.48414    -624.528E-03        -1.25087     167.564E-03         1.69205        -1.25087        -2.70901     54.6234E-03    -27.0968E-03    -27.5259E-03    -27.5225E-03     54.6200E-03    -27.0968E-03     1.05148E-03    -67.9094E+06    -69.6903E+06    -265.159E+06    -67.9125E+06    -265.156E+06    -69.6903E+06     310.947E+03         24.0122
              57    -149.126E-09     22.0835E-03         2.39084    -687.475E-03        -1.09715     91.7603E-03         1.61161        -1.09715        -2.67659     54.6011E-03    -27.1693E-03    -27.4316E-03    -27.4300E-03     54.5995E-03    -27.1693E-03     666.528E-06    -68.8584E+06    -70.6335E+06    -266.274E+06    -70.1525E+06    -266.271E+06    -69.3421E+06     444.693E+03         24.0063
              58     267.119E-09     21.0286E-03         2.36771    -802.631E-03    -949.725E-03     60.3641E-03         1.50471    -949.725E-03        -2.81676     54.7127E-03    -27.2394E-03    -27.4723E-03    -27.4708E-03     54.7112E-03    -27.2394E-03     646.917E-06    -69.2923E+06    -71.5541E+06     -265.48E+06    -70.5858E+06    -265.478E+06    -70.2627E+06     375.542E+03         23.9996
              59     29.7884E-09     19.9729E-03         2.35259    -818.854E-03    -916.043E-03     66.0109E-03         1.46773    -916.043E-03        -2.84215     54.6473E-03    -27.2002E-03    -27.4454E-03    -27.4431E-03     54.6450E-03    -27.2002E-03     865.567E-06    -69.1648E+06    -70.3741E+06    -262.486E+06    -69.4085E+06    -262.482E+06    -70.1352E+06    -74.5523E+03         23.9864
              60     144.617E-09     18.9185E-03         2.30895    -806.949E-03    -889.685E-03    -48.2130E-03         1.55022    -889.685E-03        -2.67177     54.3994E-03    -27.0877E-03    -27.3110E-03    -27.3094E-03     54.3978E-03    -27.0877E-03     710.196E-06    -69.9115E+06     -70.638E+06    -262.348E+06    -70.6428E+06    -262.343E+06    -69.9115E+06    -957.121E+03         23.9552
              61     107.660E-09     17.8634E-03         2.25625    -801.293E-03    -857.663E-03    -140.839E-03         1.59580    -857.663E-03        -2.51518     53.7849E-03    -26.7908E-03    -26.9951E-03    -26.9937E-03     53.7835E-03    -26.7908E-03     668.636E-06    -70.0026E+06    -70.7799E+06    -262.652E+06    -70.5004E+06    -262.641E+06    -70.2924E+06     448.448E+03         23.8955
              62     14.2741E-09     16.8094E-03         2.14935    -729.689E-03    -818.970E-03    -169.449E-03         1.54370    -773.560E-03        -2.37007     52.4969E-03    -26.1757E-03    -26.3230E-03    -26.3219E-03     52.4958E-03    -26.1757E-03     552.917E-06    -69.4334E+06    -69.9859E+06    -261.641E+06    -69.4438E+06    -261.631E+06    -69.9859E+06     1.34147E+06         23.7932
              63     163.015E-09     15.7579E-03         1.93552    -640.441E-03    -704.255E-03    -172.497E-03         1.40376    -640.441E-03        -2.11670     50.5602E-03    -25.1771E-03    -25.3837E-03    -25.3834E-03     50.5598E-03    -25.1771E-03     320.401E-06    -69.0003E+06    -69.3295E+06    -259.540E+06    -69.0114E+06    -259.529E+06    -69.3295E+06     1.37533E+06         23.6351
              64     43.2481E-09     14.7080E-03         1.80152    -538.920E-03    -651.187E-03    -200.551E-03         1.44475    -632.783E-03        -1.66827     47.8123E-03    -23.8448E-03    -23.9676E-03    -23.9649E-03     47.8121E-03    -23.8473E-03     40.5490E-06    -67.0227E+06    -67.8084E+06    -256.735E+06    -67.7518E+06    -256.725E+06    -67.0893E+06     640.945E+03         23.4168
              65    -23.0099E-09     13.6621E-03         1.70718    -499.330E-03    -595.732E-03    -294.908E-03         1.50276    -595.732E-03        -1.27198     44.1418E-03    -21.9980E-03    -22.1444E-03    -22.1412E-03     44.1410E-03    -22.0005E-03    -385.950E-06    -61.6703E+06    -64.9494E+06    -254.048E+06    -62.4054E+06    -254.032E+06    -64.2302E+06     928.036E+03         23.1416
              66     286.209E-09     12.6203E-03         1.52005    -408.927E-03    -507.078E-03    -295.001E-03         1.40613    -507.078E-03    -899.901E-03     39.6016E-03    -19.6725E-03    -19.9299E-03    -19.9260E-03     39.5977E-03    -19.6725E-03    -892.549E-06    -55.3859E+06    -60.0199E+06    -248.685E+06    -57.5077E+06    -248.637E+06    -57.9458E+06     2.96016E+06         22.8203
              67    -52.0144E-09     11.5840E-03         1.52582    -358.402E-03    -533.042E-03    -309.635E-03         1.47705    -533.042E-03    -569.195E-03     34.6092E-03    -17.2337E-03    -17.3754E-03    -17.3697E-03     34.6034E-03    -17.2337E-03    -1.09404E-03    -45.0076E+06    -47.8056E+06    -238.743E+06    -47.1369E+06    -238.688E+06    -45.7315E+06     3.23486E+06         22.4819
              68     101.366E-09     10.5519E-03         1.43403    -358.870E-03    -456.704E-03    -345.694E-03         1.42085    -456.704E-03    -284.738E-03     29.8792E-03    -14.9111E-03    -14.9676E-03    -14.9639E-03     29.8755E-03    -14.9111E-03    -810.034E-06    -35.9060E+06    -38.3867E+06    -232.104E+06    -37.6872E+06    -232.080E+06    -36.6299E+06     1.06453E+06         22.1805
              69    -6.26579E-09     9.52520E-03         1.25499    -258.106E-03    -371.695E-03    -256.496E-03         1.25338    -371.695E-03    -79.9241E-03     25.9606E-03    -12.9246E-03    -13.0357E-03    -13.0337E-03     25.9587E-03    -12.9246E-03    -541.388E-06    -32.7662E+06    -36.4170E+06    -228.309E+06    -34.5253E+06    -228.306E+06    -34.6601E+06    -618.602E+03         21.9844
              70     136.121E-09     8.50236E-03         1.36072    -316.857E-03    -426.706E-03    -312.357E-03         1.35622    -426.706E-03     121.622E-03     24.2337E-03    -12.0145E-03    -12.2188E-03    -12.2180E-03     24.2329E-03    -12.0145E-03    -311.389E-06    -34.5370E+06    -36.9172E+06    -227.836E+06    -35.0256E+06    -227.833E+06    -36.4309E+06     231.321E+03         21.9662
              71     119.286E-09     7.47981E-03         1.48067    -413.009E-03    -458.026E-03    -392.688E-03         1.46035    -458.026E-03     371.992E-03     26.1391E-03    -12.9821E-03    -13.1570E-03    -13.1027E-03     26.1382E-03    -13.0356E-03     154.917E-06    -39.1392E+06    -40.4835E+06    -232.397E+06    -40.4854E+06    -232.395E+06    -39.1392E+06     395.050E+03         22.1802
              72    -205.971E-09     6.45242E-03         1.42620    -372.917E-03    -421.358E-03    -343.990E-03         1.39728    -421.358E-03     452.382E-03     32.2120E-03    -16.0345E-03    -16.1794E-03    -16.1187E-03     32.2048E-03    -16.0879E-03     1.08873E-03    -42.0433E+06    -43.3522E+06    -235.236E+06    -43.3692E+06    -235.219E+06    -42.0433E+06    -1.31108E+06         22.6603
              73     391.217E-09     5.41695E-03         1.33816    -318.273E-03    -403.067E-03    -365.261E-03         1.31884    -336.766E-03     356.833E-03     42.7029E-03    -21.2272E-03    -21.4782E-03    -21.4581E-03     42.6828E-03    -21.2272E-03     2.25897E-03    -44.0787E+06    -44.9347E+06    -239.214E+06    -44.9534E+06    -239.195E+06    -44.0787E+06    -1.67460E+06         23.4279
              74    -84.8037E-09     4.36798E-03         1.23848    -248.377E-03    -370.237E-03    -302.014E-03         1.22582    -303.936E-03     278.841E-03     57.1181E-03    -28.4129E-03    -28.7060E-03    -28.5436E-03     57.0893E-03    -28.5465E-03     3.14012E-03    -46.8689E+06    -48.6729E+06    -244.496E+06    -47.2760E+06    -244.494E+06    -48.2679E+06    -614.439E+03         24.4530
              75    -211.079E-09     3.30194E-03         1.26555    -279.988E-03    -353.110E-03    -266.149E-03         1.25171    -353.110E-03     291.153E-03     74.2079E-03    -36.9820E-03    -37.2278E-03    -37.0644E-03     74.1780E-03    -37.1156E-03     3.63631E-03    -51.1231E+06    -52.5931E+06    -249.037E+06    -51.1298E+06    -249.030E+06    -52.5931E+06    -1.00312E+06         25.6280
              76     404.403E-09     2.21577E-03         1.47546    -393.582E-03    -444.041E-03    -366.809E-03         1.44869    -444.041E-03     436.278E-03     90.8822E-03    -45.3363E-03    -45.5474E-03    -45.5261E-03     90.8608E-03    -45.3363E-03     3.32062E-03    -54.9056E+06    -55.3426E+06    -252.066E+06    -54.9121E+06    -252.060E+06    -55.3426E+06    -612.312E+03         26.7968
              77    -268.153E-09     1.11317E-03         1.41562    -366.843E-03    -421.727E-03    -347.356E-03         1.39614    -421.727E-03     258.613E-03     102.897E-03    -51.2981E-03    -51.5989E-03    -51.5915E-03     102.890E-03    -51.2981E-03     1.85350E-03    -56.6779E+06    -57.4387E+06    -253.426E+06    -57.0752E+06    -253.423E+06    -57.0439E+06    -291.352E+03         27.9484
              78     946.790E-06     96.8575E-09         1.33171    -324.545E-03    -393.054E-03    -370.353E-03         1.33100    -346.533E-03    -66.5625E-03     106.389E-03    -52.8693E-03    -53.5199E-03    -53.0665E-03     106.384E-03    -53.3181E-03     1.56749E-03    -53.1832E+06    -55.7115E+06    -253.535E+06    -55.7142E+06    -253.532E+06    -53.1832E+06    -685.819E+03         28.4855
              79     1.89537E-03     96.8575E-09         1.40674    -367.019E-03    -415.723E-03    -412.681E-03         1.40589    -369.202E-03    -77.8686E-03     103.888E-03    -51.1155E-03    -52.7719E-03    -51.1022E-03     103.875E-03    -52.7719E-03     2.80259E-03    -50.9576E+06    -53.1586E+06    -251.981E+06    -53.1598E+06    -251.979E+06    -50.9576E+06    -494.535E+03         28.3573
              80     2.84597E-03     96.8575E-09         1.34839    -346.424E-03    -375.198E-03    -346.080E-03         1.34805    -375.198E-03    -15.5676E-03     100.051E-03    -48.2928E-03    -51.7595E-03    -48.2660E-03     100.025E-03    -51.7595E-03     3.93166E-03    -52.0728E+06    -53.4845E+06    -252.576E+06    -52.1411E+06    -252.575E+06    -53.4171E+06    -388.125E+03         28.2251
              81     3.79995E-03     96.8575E-09         1.32090    -326.466E-03    -365.392E-03    -326.144E-03         1.32057    -365.392E-03    -13.5498E-03     95.2535E-03    -44.7985E-03    -50.4367E-03    -44.7527E-03     95.2078E-03    -50.4367E-03     5.01809E-03    -52.2558E+06    -59.0541E+06    -256.764E+06    -52.2658E+06    -256.754E+06    -59.0541E+06    -1.12307E+06         28.1612
              82     4.75794E-03     96.8575E-09         1.33802    -344.727E-03    -358.925E-03    -344.010E-03         1.33731    -358.925E-03    -68.6635E-03     90.0267E-03    -41.1034E-03    -48.8755E-03    -41.0377E-03     89.9610E-03    -48.8755E-03     5.84586E-03    -51.3854E+06    -69.2380E+06    -260.688E+06    -51.4427E+06    -260.631E+06    -69.2380E+06    -3.25044E+06         28.2038
              83     5.71947E-03     96.8575E-09         1.34830    -355.704E-03    -362.036E-03    -359.621E-03         1.34775    -357.568E-03    -22.6388E-03     84.6791E-03    -37.4893E-03    -47.1711E-03    -37.4045E-03     84.5943E-03    -47.1711E-03     6.41699E-03    -48.2962E+06    -83.3669E+06    -259.477E+06    -48.4490E+06    -259.324E+06    -83.3669E+06    -5.57034E+06         28.3724
              84     6.68472E-03     96.8575E-09         1.34538    -356.352E-03    -362.399E-03    -360.627E-03         1.34518    -357.931E-03    -1.93183E-03     79.4041E-03    -34.0559E-03    -45.3660E-03    -33.9513E-03     79.2995E-03    -45.3660E-03     6.87290E-03    -43.5906E+06    -101.001E+06    -240.544E+06    -43.8687E+06    -240.266E+06    -101.001E+06    -7.30359E+06         28.6877
              85     7.65320E-03     96.8575E-09         1.32819    -348.048E-03    -357.515E-03    -347.926E-03         1.32807    -357.515E-03    -26.0978E-03     74.4661E-03    -30.9656E-03    -43.5360E-03    -30.8425E-03     74.3430E-03    -43.5360E-03     7.19022E-03    -37.6864E+06    -118.698E+06    -206.541E+06    -38.2028E+06    -206.025E+06    -118.698E+06    -9.11461E+06         29.1575
              86     8.62471E-03     96.8575E-09         1.33385    -349.012E-03    -364.775E-03    -356.868E-03         1.33383    -356.900E-03    -10.7985E-03     69.9135E-03    -28.2139E-03    -41.7702E-03    -28.0731E-03     69.7727E-03    -41.7702E-03     7.41935E-03    -30.3923E+06    -131.658E+06    -169.061E+06    -31.2023E+06    -168.251E+06    -131.658E+06    -10.4723E+06         29.7765
              87     9.59847E-03     96.8575E-09         1.36152    -358.096E-03    -381.751E-03    -381.732E-03         1.36150    -358.096E-03     3.37476E-03     65.5412E-03    -25.5378E-03    -40.0742E-03    -25.3914E-03     65.3948E-03    -40.0742E-03     7.29633E-03    -21.6466E+06    -120.389E+06    -144.940E+06    -22.9582E+06    -125.504E+06    -138.513E+06    -11.3539E+06         30.5211
              88     10.5757E-03     96.8575E-09         1.36716    -360.312E-03    -382.606E-03    -382.248E-03         1.36680    -360.312E-03     41.6375E-03     61.6697E-03    -23.2240E-03    -38.4696E-03    -23.0890E-03     61.5347E-03    -38.4696E-03     6.76462E-03    -13.0233E+06    -75.0998E+06    -137.469E+06    -14.9425E+06    -73.1806E+06    -137.469E+06    -10.3265E+06         31.3936
              89     11.5551E-03     96.8575E-09         1.36180    -361.677E-03    -370.791E-03    -370.002E-03         1.36101    -361.677E-03     73.7446E-03     60.8499E-03    -23.7872E-03    -37.0770E-03    -23.5223E-03     60.5851E-03    -37.0770E-03     9.13707E-03     12.4511E+06    -27.4278E+06    -127.484E+06    -10.0570E+06    -4.91964E+06    -127.484E+06    -5.89432E+06         32.4522
              90     12.5285E-03     96.8575E-09         1.37031    -362.560E-03    -376.944E-03    -376.400E-03         1.36977    -362.560E-03     20.7121E-03     62.9485E-03    -26.9259E-03    -36.0902E-03    -26.3910E-03     62.4137E-03    -36.0902E-03     13.7416E-03     70.1196E+06    -8.54439E+06    -102.034E+06    -8.37269E+06     69.9479E+06    -102.034E+06    -3.34163E+06         33.7828
              91     13.4964E-03     96.8575E-09         1.37223    -363.609E-03    -378.995E-03    -378.153E-03         1.37139    -363.609E-03    -69.3902E-03     61.6744E-03    -26.1253E-03    -35.5261E-03    -25.4888E-03     61.0380E-03    -35.5261E-03     14.8960E-03     127.064E+06    -9.57946E+06    -47.4729E+06    -9.52463E+06     127.010E+06    -47.4729E+06    -2.03881E+06         35.4903
              92     14.4750E-03     96.8575E-09         1.37933    -364.661E-03    -381.502E-03    -380.732E-03         1.37856    -364.661E-03    -60.2940E-03     57.1775E-03    -22.0127E-03    -35.0419E-03    -21.2627E-03     56.4274E-03    -35.0419E-03     15.2275E-03     158.589E+06     25.6563E+06    -9.14204E+06    -8.91201E+06     158.573E+06     25.4418E+06    -1.41673E+06         37.6259
              93     15.4564E-03     96.8575E-09         1.40895    -366.169E-03    -396.966E-03    -396.773E-03         1.40876    -366.169E-03    -34.2299E-03     58.1896E-03    -23.5710E-03    -34.5875E-03    -22.3155E-03     56.9340E-03    -34.5875E-03     19.9879E-03     182.271E+06     96.4125E+06    -5.80887E+06    -5.77135E+06     182.234E+06     96.4125E+06     387.753E+03         40.1507
              94     16.4280E-03     96.8575E-09         1.49070    -369.205E-03    -440.212E-03    -439.356E-03         1.48984    -369.205E-03     28.1269E-03     73.6477E-03    -30.7754E-03    -42.9441E-03    -35.3741E-03     69.8752E-03    -34.5729E-03     39.7544E-03     195.513E+06     145.055E+06    -6.35445E+06    -6.25259E+06     195.411E+06     145.055E+06     4.34914E+06         42.7065
              95     17.4215E-03     1.10270E-03         1.47990    -372.975E-03    -444.617E-03    -441.585E-03         1.47687    -372.975E-03     145.035E-03     76.9811E-03    -33.6903E-03    -43.4103E-03    -35.9691E-03     69.5399E-03    -33.6903E-03     56.9881E-03     197.581E+06     161.740E+06    -4.03438E+06    -3.89487E+06     197.441E+06     161.740E+06     5.29183E+06         43.4327
              96     17.4560E-03     2.15703E-03         1.38929    -376.212E-03    -395.430E-03    -392.721E-03         1.38658    -376.212E-03     127.908E-03     66.4893E-03    -31.7075E-03    -34.8975E-03    -28.0137E-03     59.6056E-03    -31.7075E-03     50.4077E-03     199.663E+06     163.020E+06    -3.39494E+06    -3.25197E+06     199.520E+06     163.020E+06     5.37377E+06         42.6785
              97     17.4820E-03     3.21407E-03         1.40651    -380.063E-03    -418.871E-03    -418.474E-03         1.40612    -380.063E-03     46.6548E-03     66.9216E-03    -29.9984E-03    -37.0537E-03    -33.6958E-03     63.5637E-03    -29.9984E-03     35.5879E-03     198.461E+06     162.602E+06    -4.87468E+06    -4.75512E+06     198.341E+06     162.602E+06     4.84420E+06         42.2748
              98     17.5005E-03     4.28743E-03         1.45139    -384.031E-03    -456.451E-03    -455.367E-03         1.45031    -384.031E-03     74.4064E-03     69.7562E-03    -28.7088E-03    -41.2521E-03    -39.5727E-03     68.0768E-03    -28.7088E-03     27.0144E-03     196.689E+06     161.841E+06    -5.09229E+06    -5.04210E+06     196.639E+06     161.841E+06     3.07747E+06         42.1237
              99     17.5137E-03     5.36288E-03         1.43258    -386.429E-03    -430.750E-03    -429.643E-03         1.43147    -386.429E-03     77.5399E-03     70.9821E-03    -27.8649E-03    -43.3448E-03    -41.9893E-03     69.6266E-03    -27.8649E-03     24.7287E-03     196.433E+06     161.648E+06    -5.23207E+06    -5.21815E+06     196.419E+06     161.648E+06     1.46020E+06         42.1474
             100     17.5211E-03     6.43962E-03         1.38147    -389.214E-03    -402.916E-03    -402.783E-03         1.38134    -389.214E-03    -2.67741E-03     70.6232E-03    -27.3974E-03    -43.4200E-03    -42.2035E-03     69.4067E-03    -27.3974E-03     23.4296E-03     195.616E+06     163.146E+06    -4.64815E+06    -4.64717E+06     195.615E+06     163.146E+06     304.964E+03         42.2793
             101     17.5248E-03     7.51405E-03         1.38420    -394.293E-03    -403.340E-03    -402.865E-03         1.38373    -394.293E-03    -54.5752E-03     69.0215E-03    -27.2118E-03    -41.9833E-03    -40.7919E-03     67.8300E-03    -27.2118E-03     22.8745E-03     194.461E+06     163.648E+06    -4.75065E+06    -4.74978E+06     194.461E+06     163.648E+06    -300.723E+03         42.4646
             102     17.5257E-03     8.58545E-03         1.42195    -398.343E-03    -411.694E-03    -410.635E-03         1.42089    -398.343E-03     11.6582E-03     66.6429E-03    -27.1878E-03    -39.5973E-03    -38.3586E-03     65.4042E-03    -27.1878E-03     22.8013E-03     193.851E+06     161.937E+06    -4.41448E+06    -4.41359E+06     193.850E+06     161.937E+06    -344.658E+03         42.6619
             103     17.5260E-03     9.65320E-03         1.44510    -400.944E-03    -419.607E-03    -418.600E-03         1.44409    -400.944E-03     13.6337E-03     64.1840E-03    -27.2381E-03    -36.9865E-03    -35.6943E-03     62.8918E-03    -27.2381E-03     22.7165E-03     193.243E+06     160.370E+06    -4.38123E+06    -4.38002E+06     193.242E+06     160.370E+06    -394.698E+03         42.8413
             104     17.5254E-03     10.7172E-03         1.46992    -405.666E-03    -430.809E-03    -430.461E-03         1.46957    -405.666E-03    -31.9996E-03     62.1356E-03    -27.3153E-03    -34.7951E-03    -33.5569E-03     60.8974E-03    -27.3153E-03     21.7663E-03     192.676E+06     159.801E+06    -4.19227E+06    -4.19081E+06     192.674E+06     159.801E+06    -504.221E+03         42.9864
             105     17.5251E-03     11.7790E-03         1.45955    -411.930E-03    -433.695E-03    -433.403E-03         1.45925    -411.930E-03    -28.8437E-03     60.0824E-03    -27.3884E-03    -32.7059E-03    -31.6198E-03     58.9963E-03    -27.3884E-03     19.9531E-03     192.244E+06     158.565E+06    -4.35927E+06    -4.35898E+06     192.243E+06     158.565E+06    -205.242E+03         43.0920
             106     17.5251E-03     12.8382E-03         1.43099    -411.963E-03    -424.022E-03    -418.382E-03         1.43045    -417.062E-03    -2.27391E-03     57.9492E-03    -27.4571E-03    -30.5399E-03    -29.6329E-03     57.0422E-03    -27.4571E-03     17.8079E-03     192.080E+06     157.865E+06    -4.21069E+06    -4.21067E+06     192.080E+06     157.865E+06    -52.5646E+03         43.1614
             107     17.5247E-03     13.8962E-03         1.44962    -412.557E-03    -420.383E-03    -411.417E-03         1.44848    -420.383E-03    -27.3149E-03     56.1954E-03    -27.5155E-03    -28.7617E-03    -28.0402E-03     55.4739E-03    -27.5155E-03     15.5718E-03     191.993E+06     157.250E+06    -4.33267E+06    -4.33264E+06     191.993E+06     157.250E+06    -51.3477E+03         43.2030
             108     17.5245E-03     14.9523E-03         1.48212    -422.415E-03    -433.892E-03    -429.836E-03         1.48079    -425.142E-03    -99.2565E-03     54.9319E-03    -27.2398E-03    -27.7942E-03    -26.9106E-03     54.3631E-03    -27.5547E-03     13.6262E-03     192.220E+06     156.213E+06    -4.33131E+06    -4.33091E+06     192.219E+06     156.213E+06     152.423E+03         43.2268
             109     17.5245E-03     16.0078E-03         1.49181    -431.482E-03    -440.861E-03    -440.411E-03         1.49136    -431.482E-03    -46.7400E-03     54.0826E-03    -26.6006E-03    -27.5789E-03    -26.1396E-03     53.6215E-03    -27.5789E-03     12.1535E-03     192.490E+06     155.599E+06    -4.45390E+06    -4.45331E+06     192.489E+06     155.599E+06     335.153E+03         43.2421
             110     17.5245E-03     17.0635E-03         1.48402    -422.877E-03    -436.886E-03    -423.406E-03         1.48392    -436.258E-03     13.3914E-03     53.6637E-03    -26.1605E-03    -27.5922E-03    -25.7565E-03     53.2598E-03    -27.5922E-03     11.3259E-03     193.041E+06     155.866E+06    -4.30378E+06    -4.30310E+06     193.040E+06     155.866E+06     359.213E+03         43.2555
             111     17.5245E-03     18.1188E-03         1.46683    -418.330E-03    -440.441E-03    -418.101E-03         1.46660    -440.441E-03    -3.97830E-03     53.4525E-03    -25.9456E-03    -27.5923E-03    -25.5683E-03     53.0752E-03    -27.5923E-03     10.9198E-03     193.460E+06     155.724E+06    -4.43248E+06    -4.43172E+06     193.459E+06     155.724E+06     384.162E+03         43.2704
             112     17.5247E-03     19.1745E-03         1.46492    -422.388E-03    -444.671E-03    -422.233E-03         1.46476    -444.671E-03    -31.0172E-03     53.2452E-03    -25.7560E-03    -27.5912E-03    -25.3936E-03     52.8827E-03    -27.5912E-03     10.6771E-03     193.906E+06     155.355E+06    -4.56866E+06    -4.56788E+06     193.906E+06     155.355E+06     389.810E+03         43.2877
             113     17.5247E-03     20.2294E-03         1.47045    -397.094E-03    -446.950E-03    -396.951E-03         1.47031    -446.950E-03     13.0464E-03     53.1432E-03    -25.6575E-03    -27.5917E-03    -25.3067E-03     52.7924E-03    -27.5917E-03     10.4917E-03     194.825E+06     155.722E+06    -4.29305E+06    -4.29238E+06     194.825E+06     155.722E+06     352.644E+03         43.3065
             114     17.5248E-03     21.2853E-03         1.48285    -396.573E-03    -449.116E-03    -396.356E-03         1.48264    -449.116E-03     40.2069E-03     53.1470E-03    -25.6539E-03    -27.5931E-03    -25.2994E-03     52.7925E-03    -27.5931E-03     10.5449E-03     195.287E+06     156.010E+06    -4.50605E+06    -4.50549E+06     195.286E+06     156.010E+06     328.546E+03         43.3247
             115     17.5246E-03     22.3407E-03         1.50855    -438.407E-03    -461.135E-03    -444.714E-03         1.50837    -454.647E-03     37.5631E-03     53.1933E-03    -25.7106E-03    -27.5963E-03    -25.3551E-03     52.8377E-03    -27.5963E-03     10.5686E-03     195.789E+06     156.625E+06    -4.49155E+06    -4.49086E+06     195.788E+06     156.625E+06     368.951E+03         43.3400
             116     17.5247E-03     23.3960E-03         1.50124    -439.158E-03    -467.281E-03    -445.507E-03         1.50110    -460.793E-03     32.6789E-03     53.1202E-03    -25.6461E-03    -27.5942E-03    -25.3053E-03     52.7793E-03    -27.5942E-03     10.3397E-03     196.329E+06     156.719E+06    -4.50881E+06    -4.50848E+06     196.329E+06     156.719E+06     235.873E+03         43.3497
             117     17.5248E-03     24.4512E-03         1.47246    -404.075E-03    -464.087E-03    -404.012E-03         1.47239    -464.087E-03     20.4341E-03     53.0832E-03    -25.6281E-03    -27.5922E-03    -25.2857E-03     52.7408E-03    -27.5922E-03     10.3605E-03     196.961E+06     156.562E+06    -4.59366E+06    -4.59359E+06     196.961E+06     156.562E+06     114.348E+03         43.3517
             118     17.5248E-03     25.5069E-03         1.46680    -408.058E-03    -465.952E-03    -407.903E-03         1.46664    -465.952E-03     29.8748E-03     53.1713E-03    -25.7094E-03    -27.5848E-03    -25.3650E-03     52.8269E-03    -27.5848E-03     10.4023E-03     197.754E+06     157.093E+06    -4.34257E+06    -4.34230E+06     197.754E+06     157.093E+06     206.838E+03         43.3447
             119     17.5248E-03     26.5622E-03         1.49047    -425.727E-03    -467.488E-03    -425.369E-03         1.49012    -467.488E-03     52.1017E-03     53.1380E-03    -25.6420E-03    -27.5822E-03    -25.2986E-03     52.7946E-03    -27.5822E-03     10.3793E-03     198.139E+06     157.161E+06    -4.48948E+06    -4.48861E+06     198.138E+06     157.161E+06     409.413E+03         43.3286
             120     17.5249E-03     27.6177E-03         1.49583    -416.305E-03    -468.079E-03    -415.931E-03         1.49546    -468.079E-03     53.3671E-03     53.0416E-03    -25.5567E-03    -27.5791E-03    -25.2097E-03     52.6946E-03    -27.5791E-03     10.4214E-03     198.550E+06     156.978E+06    -4.57753E+06    -4.57663E+06     198.549E+06     156.978E+06     421.782E+03         43.3047
             121     17.5250E-03     28.6728E-03         1.48328    -414.608E-03    -468.596E-03    -414.295E-03         1.48297    -468.596E-03     48.7042E-03     53.0835E-03    -25.6219E-03    -27.5721E-03    -25.2784E-03     52.7401E-03    -27.5721E-03     10.3751E-03     198.860E+06     157.011E+06    -4.61338E+06    -4.61309E+06     198.860E+06     157.011E+06     140.788E+03         43.2758
             122     17.5249E-03     29.7285E-03         1.47263    -411.933E-03    -469.585E-03    -411.604E-03         1.47230    -469.585E-03     49.7672E-03     53.0902E-03    -25.6225E-03    -27.5742E-03    -25.2882E-03     52.7560E-03    -27.5742E-03     10.2362E-03     199.274E+06     157.168E+06    -4.58989E+06    -4.58959E+06     199.274E+06     157.168E+06     143.632E+03         43.2455
             123     17.5251E-03     30.7837E-03         1.46123    -405.653E-03    -469.783E-03    -405.140E-03         1.46072    -469.783E-03     61.0904E-03     52.9680E-03    -25.5016E-03    -27.5757E-03    -25.1626E-03     52.6290E-03    -27.5757E-03     10.2913E-03     199.751E+06     156.983E+06    -4.55790E+06    -4.55725E+06     199.751E+06     156.983E+06     363.461E+03         43.2180
             124     17.5250E-03     31.8389E-03         1.46533    -410.443E-03    -468.694E-03    -409.921E-03         1.46481    -468.694E-03     61.9118E-03     53.0025E-03    -25.5433E-03    -27.5720E-03    -25.1973E-03     52.6565E-03    -27.5720E-03     10.4031E-03     200.168E+06     157.123E+06    -4.48526E+06    -4.48491E+06     200.168E+06     157.123E+06     194.256E+03         43.1966
             125     17.5250E-03     32.8945E-03         1.45998    -406.059E-03    -466.256E-03    -405.175E-03         1.45910    -466.256E-03     77.2691E-03     53.1032E-03    -25.6506E-03    -27.5691E-03    -25.3095E-03     52.7621E-03    -27.5691E-03     10.3437E-03     200.598E+06     157.697E+06    -4.42357E+06    -4.42353E+06     200.598E+06     157.697E+06    -56.6501E+03         43.1833
             126     17.5250E-03     33.9495E-03         1.43739    -401.396E-03    -462.521E-03    -400.644E-03         1.43664    -462.521E-03     64.7926E-03     53.0414E-03    -25.5883E-03    -27.5696E-03    -25.2536E-03     52.7066E-03    -27.5696E-03     10.2386E-03     200.351E+06     157.549E+06    -4.65977E+06    -4.65972E+06     200.351E+06     157.549E+06    -93.1548E+03         43.1784
             127     17.5251E-03     35.0055E-03         1.43942    -413.058E-03    -458.127E-03    -412.779E-03         1.43915    -458.127E-03     43.0453E-03     52.9467E-03    -25.4722E-03    -27.5762E-03    -25.1288E-03     52.6033E-03    -27.5762E-03     10.3542E-03     200.272E+06     157.512E+06    -4.59086E+06    -4.59066E+06     200.272E+06     157.512E+06     106.651E+03         43.1810
             128     17.5249E-03     36.0601E-03         1.42460    -408.729E-03    -452.961E-03    -408.437E-03         1.42431    -452.961E-03     44.5116E-03     53.0091E-03    -25.5539E-03    -27.5790E-03    -25.2162E-03     52.6714E-03    -27.5790E-03     10.2752E-03     200.522E+06     157.709E+06    -4.44268E+06    -4.44249E+06     200.522E+06     157.709E+06     122.921E+03         43.1900
             129     17.5251E-03     37.1156E-03         1.38463    -376.156E-03    -447.193E-03    -376.031E-03         1.38451    -447.193E-03     29.7234E-03     53.0919E-03    -25.6625E-03    -27.5752E-03    -25.3305E-03     52.7598E-03    -27.5752E-03     10.2037E-03     200.377E+06     157.652E+06    -4.68253E+06    -4.68252E+06     200.377E+06     157.652E+06     11.6487E+03         43.2034
             130     17.5250E-03     38.1715E-03         1.38941    -380.746E-03    -441.150E-03    -380.686E-03         1.38935    -441.150E-03     16.8274E-03     53.1180E-03    -25.6856E-03    -27.5724E-03    -25.3396E-03     52.7720E-03    -27.5724E-03     10.4199E-03     200.285E+06     157.888E+06    -4.54049E+06    -4.54044E+06     200.285E+06     157.888E+06    -43.7876E+03         43.2194
             131     17.5250E-03     39.2264E-03         1.39289    -407.298E-03    -434.023E-03    -406.624E-03         1.39222    -434.023E-03     51.6066E-03     53.0944E-03    -25.6608E-03    -27.5717E-03    -25.3239E-03     52.7576E-03    -27.5717E-03     10.2787E-03     200.202E+06     158.002E+06    -4.39665E+06    -4.39660E+06     200.202E+06     158.002E+06    -90.5507E+03         43.2369
             132     17.5252E-03     40.2820E-03         1.34744    -381.436E-03    -425.517E-03    -380.753E-03         1.34676    -425.517E-03     55.1026E-03     52.9941E-03    -25.5632E-03    -27.5723E-03    -25.2291E-03     52.6599E-03    -27.5723E-03     10.2245E-03     199.969E+06     157.691E+06    -4.42642E+06    -4.42633E+06     199.969E+06     157.691E+06    -116.722E+03         43.2551
             133     17.5251E-03     41.3373E-03         1.32149    -363.491E-03    -416.689E-03    -363.411E-03         1.32141    -416.689E-03    -9.19240E-03     53.0253E-03    -25.5948E-03    -27.5730E-03    -25.2573E-03     52.6879E-03    -27.5730E-03     10.2793E-03     200.005E+06     157.574E+06    -4.57188E+06    -4.57179E+06     200.005E+06     157.574E+06    -119.253E+03         43.2736
             134     17.5250E-03     42.3926E-03         1.32616    -379.300E-03    -408.684E-03    -379.060E-03         1.32592    -408.684E-03    -39.4389E-03     53.1167E-03    -25.6925E-03    -27.5727E-03    -25.3591E-03     52.7833E-03    -27.5727E-03     10.2305E-03     200.081E+06     157.751E+06    -4.52071E+06    -4.52068E+06     200.081E+06     157.751E+06     23.6194E+03         43.2923
             135     17.5252E-03     43.4483E-03         1.30433    -375.931E-03    -400.167E-03    -373.659E-03         1.30206    -400.167E-03     59.0365E-03     53.0983E-03    -25.6746E-03    -27.5707E-03    -25.3332E-03     52.7569E-03    -27.5707E-03     10.3484E-03     199.887E+06     157.844E+06    -4.53162E+06    -4.53154E+06     199.886E+06     157.844E+06     124.067E+03         43.3108
             136     17.5251E-03     44.5036E-03         1.26268    -358.242E-03    -389.462E-03    -356.135E-03         1.26057    -389.462E-03     87.3359E-03     53.1010E-03    -25.6576E-03    -27.5716E-03    -25.3152E-03     52.7586E-03    -27.5716E-03     10.3631E-03     199.691E+06     157.838E+06    -4.58953E+06    -4.58921E+06     199.691E+06     157.838E+06    -85.2760E+03         43.3290
             137     17.5250E-03     45.5591E-03         1.24400    -351.095E-03    -379.018E-03    -350.906E-03         1.24382    -379.018E-03    -20.0857E-03     53.0828E-03    -25.6265E-03    -27.5772E-03    -25.2883E-03     52.7446E-03    -27.5772E-03     10.2963E-03     199.718E+06     157.823E+06    -4.31638E+06    -4.31606E+06     199.718E+06     157.823E+06    -83.3945E+03         43.3464
             138     17.5250E-03     46.6145E-03         1.25029    -359.655E-03    -375.575E-03    -364.729E-03         1.25007    -370.279E-03    -35.4322E-03     52.9446E-03    -25.4756E-03    -27.5806E-03    -25.1344E-03     52.6033E-03    -27.5806E-03     10.3233E-03     199.539E+06     157.416E+06    -4.50687E+06    -4.50681E+06     199.539E+06     157.416E+06     45.9770E+03         43.3628
             139     17.5251E-03     47.6695E-03         1.22704    -358.386E-03    -365.880E-03    -360.727E-03         1.22408    -360.584E-03     83.7242E-03     52.9383E-03    -25.4774E-03    -27.5765E-03    -25.1315E-03     52.5924E-03    -27.5765E-03     10.3924E-03     199.108E+06     156.990E+06    -4.88391E+06    -4.88369E+06     199.107E+06     156.990E+06    -181.608E+03         43.3783
             140     17.5250E-03     48.7249E-03         1.16193    -326.808E-03    -349.522E-03    -323.781E-03         1.15890    -349.522E-03     112.561E-03     53.0753E-03    -25.6181E-03    -27.5690E-03    -25.2692E-03     52.7264E-03    -27.5690E-03     10.4563E-03     198.704E+06     157.562E+06    -4.39672E+06    -4.39650E+06     198.703E+06     157.562E+06    -175.752E+03         43.3923
             141     17.5253E-03     49.7805E-03         1.13172    -319.185E-03    -340.665E-03    -319.931E-03         1.13151    -339.702E-03    -213.504E-06     53.0522E-03    -25.5940E-03    -27.5659E-03    -25.2480E-03     52.7063E-03    -27.5659E-03     10.4091E-03     198.231E+06     157.937E+06    -4.54210E+06    -4.54200E+06     198.231E+06     157.937E+06    -124.335E+03         43.4045
             142     17.5251E-03     50.8355E-03         1.16605    -329.555E-03    -354.652E-03    -354.494E-03         1.16590    -329.555E-03    -5.34766E-03     53.0696E-03    -25.6142E-03    -27.5658E-03    -25.2727E-03     52.7282E-03    -27.5658E-03     10.3436E-03     197.916E+06     157.626E+06    -4.68487E+06    -4.68471E+06     197.916E+06     157.626E+06    -176.624E+03         43.4152
             143     17.5250E-03     51.8914E-03         1.15246    -317.764E-03    -346.719E-03    -346.411E-03         1.15215    -317.764E-03     39.6759E-03     53.1176E-03    -25.6702E-03    -27.5733E-03    -25.3254E-03     52.7728E-03    -27.5733E-03     10.4003E-03     197.584E+06     157.358E+06    -4.39331E+06    -4.39319E+06     197.583E+06     157.358E+06    -6.07712E+03         43.4252
             144     17.5249E-03     52.9466E-03         1.06463    -288.876E-03    -312.143E-03    -293.438E-03         1.06438    -307.322E-03     29.0732E-03     53.0127E-03    -25.5587E-03    -27.5736E-03    -25.2116E-03     52.6655E-03    -27.5736E-03     10.4213E-03     197.304E+06     157.086E+06    -4.36237E+06    -4.36230E+06     197.304E+06     157.086E+06     35.6579E+03         43.4366
             145     17.5251E-03     54.0016E-03         1.03776    -280.290E-03    -311.090E-03    -292.622E-03         1.03774    -298.737E-03    -5.61598E-03     53.0077E-03    -25.5564E-03    -27.5654E-03    -25.2151E-03     52.6664E-03    -27.5654E-03     10.3334E-03     197.179E+06     156.609E+06    -4.19575E+06    -4.19558E+06     197.179E+06     156.609E+06     85.3350E+03         43.4519
             146     17.5250E-03     55.0573E-03         1.06282    -289.562E-03    -330.718E-03    -330.697E-03         1.06280    -289.562E-03    -7.19761E-03     53.1554E-03    -25.7053E-03    -27.5600E-03    -25.3625E-03     52.8125E-03    -27.5600E-03     10.3763E-03     197.302E+06     156.486E+06    -4.69569E+06    -4.69554E+06     197.302E+06     156.486E+06     149.763E+03         43.4743
             147     17.5250E-03     56.1127E-03         1.04063    -278.727E-03    -316.922E-03    -316.877E-03         1.04059    -278.727E-03     11.2353E-03     53.1540E-03    -25.6957E-03    -27.5554E-03    -25.3533E-03     52.8115E-03    -27.5554E-03     10.3701E-03     197.628E+06     156.661E+06    -4.51032E+06    -4.51020E+06     197.628E+06     156.661E+06     131.856E+03         43.5082
             148     17.5252E-03     57.1681E-03         1.00161    -267.575E-03    -285.373E-03    -285.278E-03         1.00151    -267.575E-03     22.0541E-03     53.0798E-03    -25.5932E-03    -27.5552E-03    -25.2526E-03     52.7393E-03    -27.5552E-03     10.3299E-03     197.946E+06     156.885E+06    -4.37482E+06    -4.37466E+06     197.945E+06     156.885E+06     171.894E+03         43.5575
             149     17.5251E-03     59.2787E-03     972.217E-03    -248.942E-03    -304.065E-03    -304.005E-03     972.157E-03    -248.942E-03    -13.7086E-03     53.0470E-03    -25.5606E-03    -27.5611E-03    -25.2205E-03     52.7069E-03    -27.5611E-03     10.3193E-03     198.345E+06     157.397E+06    -4.42219E+06    -4.42203E+06     198.345E+06     157.397E+06     150.129E+03         43.7098
             150     17.5251E-03     60.3341E-03     920.885E-03    -240.603E-03    -270.184E-03    -269.731E-03     920.432E-03    -240.603E-03     30.6708E-03     53.0943E-03    -25.5805E-03    -27.5645E-03    -25.2413E-03     52.7551E-03    -27.5645E-03     10.3094E-03     198.931E+06     158.611E+06    -4.48097E+06    -4.48082E+06     198.931E+06     158.611E+06     129.976E+03         43.8089
             151     17.5251E-03     61.3896E-03     888.612E-03    -232.924E-03    -250.551E-03    -249.985E-03     888.046E-03    -232.924E-03     15.8110E-03     53.0688E-03    -25.5530E-03    -27.5688E-03    -25.2120E-03     52.7278E-03    -27.5688E-03     10.3334E-03     199.086E+06     159.021E+06    -4.45182E+06    -4.45182E+06     199.086E+06     159.021E+06    -6.52011E+03         43.9153
             152     17.5251E-03     62.4449E-03     909.995E-03    -226.516E-03    -287.190E-03    -287.072E-03     909.876E-03    -226.516E-03    -12.6734E-03     53.0442E-03    -25.5891E-03    -27.5740E-03    -25.2391E-03     52.6941E-03    -27.5740E-03     10.4694E-03     199.264E+06     158.930E+06    -4.59796E+06    -4.59745E+06     199.264E+06     158.930E+06     213.291E+03         44.0209
             153     17.5251E-03     63.5005E-03     907.406E-03    -220.120E-03    -294.786E-03    -294.588E-03     907.209E-03    -220.120E-03     24.5905E-03     53.1076E-03    -25.6480E-03    -27.5783E-03    -25.2988E-03     52.7584E-03    -27.5783E-03     10.4642E-03     199.759E+06     159.448E+06    -4.66249E+06    -4.66183E+06     199.759E+06     159.448E+06     348.692E+03         44.1178
             154     17.5251E-03     64.5555E-03     842.001E-03    -213.161E-03    -245.323E-03    -244.994E-03     841.673E-03    -213.161E-03     37.7609E-03     53.0810E-03    -25.6203E-03    -27.5805E-03    -25.2866E-03     52.7472E-03    -27.5805E-03     10.2269E-03     200.177E+06     160.176E+06    -4.50125E+06    -4.50110E+06     200.177E+06     160.176E+06     128.777E+03         44.2001
             155     17.5252E-03     65.6110E-03     828.900E-03    -207.547E-03    -239.243E-03    -237.445E-03     827.101E-03    -207.547E-03    -44.2229E-03     53.0700E-03    -25.6134E-03    -27.5834E-03    -25.2779E-03     52.7345E-03    -27.5834E-03     10.2519E-03     200.331E+06     160.666E+06    -4.51905E+06    -4.51894E+06     200.331E+06     160.666E+06     110.037E+03         44.2647
             156     17.5251E-03     66.6670E-03     861.914E-03    -203.680E-03    -283.187E-03    -280.735E-03     859.462E-03    -203.680E-03    -17.8765E-03     53.0413E-03    -25.5762E-03    -27.5875E-03    -25.2241E-03     52.6892E-03    -27.5875E-03     10.4990E-03     200.736E+06     160.651E+06    -4.68716E+06    -4.68682E+06     200.735E+06     160.651E+06     256.618E+03         44.3121
             157     17.5251E-03     67.7219E-03     826.239E-03    -199.078E-03    -265.251E-03    -263.710E-03     824.699E-03    -199.078E-03     81.9183E-03     52.9487E-03    -25.4826E-03    -27.5894E-03    -25.1304E-03     52.5965E-03    -27.5894E-03     10.4880E-03     201.413E+06     160.614E+06    -4.52979E+06    -4.52941E+06     201.412E+06     160.614E+06     276.348E+03         44.3452
             158     17.5250E-03     68.7774E-03     763.624E-03    -194.454E-03    -212.278E-03    -211.524E-03     762.870E-03    -194.454E-03     36.0618E-03     52.9504E-03    -25.4992E-03    -27.5904E-03    -25.1503E-03     52.6014E-03    -27.5904E-03     10.4405E-03     201.920E+06     160.783E+06    -4.50582E+06    -4.50561E+06     201.920E+06     160.783E+06     198.636E+03         44.3681
             159     17.5251E-03     69.8325E-03     788.473E-03    -192.684E-03    -243.949E-03    -241.072E-03     785.595E-03    -192.684E-03    -83.0190E-03     52.9843E-03    -25.5461E-03    -27.5858E-03    -25.1955E-03     52.6337E-03    -27.5858E-03     10.4713E-03     202.064E+06     160.921E+06    -4.45980E+06    -4.45973E+06     202.064E+06     160.921E+06     52.7774E+03         44.3844
             160     17.5254E-03     70.8879E-03     814.543E-03    -192.071E-03    -275.875E-03    -269.923E-03     808.591E-03    -192.071E-03     267.014E-06     53.0789E-03    -25.6345E-03    -27.5783E-03    -25.2835E-03     52.7279E-03    -27.5783E-03     10.4890E-03     201.918E+06     160.866E+06    -4.67199E+06    -4.67198E+06     201.918E+06     160.866E+06    -40.2317E+03         44.3967
             161     17.5252E-03     71.9437E-03     743.615E-03    -181.257E-03    -224.024E-03    -211.097E-03     738.437E-03    -189.006E-03     140.477E-03     53.1622E-03    -25.7198E-03    -27.5788E-03    -25.3755E-03     52.8178E-03    -27.5788E-03     10.4008E-03     202.380E+06     160.941E+06    -4.51816E+06    -4.51797E+06     202.379E+06     160.941E+06     124.564E+03         44.4063
             162     17.5252E-03     72.9989E-03     711.818E-03    -179.012E-03    -200.706E-03    -189.794E-03     708.654E-03    -186.761E-03     15.1990E-03     53.0234E-03    -25.5953E-03    -27.5823E-03    -25.2501E-03     52.6782E-03    -27.5823E-03     10.3949E-03     202.926E+06     160.556E+06    -4.48909E+06    -4.48689E+06     202.924E+06     160.556E+06     597.225E+03         44.4143
             163     17.5251E-03     74.0547E-03     765.623E-03    -188.381E-03    -249.208E-03    -247.616E-03     764.031E-03    -188.381E-03    -78.6189E-03     52.9047E-03    -25.4734E-03    -27.5879E-03    -25.1198E-03     52.5511E-03    -27.5879E-03     10.5057E-03     204.454E+06     160.803E+06    -4.50548E+06    -4.49975E+06     204.449E+06     160.803E+06     1.08263E+06         44.4215
             164     17.5250E-03     75.1096E-03     770.170E-03    -189.336E-03    -256.008E-03    -252.791E-03     766.953E-03    -189.336E-03     38.2314E-03     52.9337E-03    -25.4839E-03    -27.5939E-03    -25.1376E-03     52.5875E-03    -27.5939E-03     10.3977E-03     207.216E+06     162.039E+06    -4.34069E+06    -4.33252E+06     207.208E+06     162.039E+06     1.31364E+06         44.4284
             165     17.5250E-03     76.1648E-03     693.541E-03    -167.663E-03    -207.369E-03    -183.800E-03     689.888E-03    -187.579E-03     111.041E-03     52.9369E-03    -25.4725E-03    -27.5945E-03    -25.1327E-03     52.5971E-03    -27.5945E-03     10.3006E-03     209.178E+06     162.819E+06    -5.14139E+06    -5.13675E+06     209.173E+06     162.819E+06     829.308E+03         44.4352
             166     17.5252E-03     77.2205E-03     678.452E-03    -167.979E-03    -199.454E-03    -177.177E-03     676.092E-03    -187.896E-03    -11.6748E-03     52.9488E-03    -25.4799E-03    -27.5906E-03    -25.1346E-03     52.6035E-03    -27.5906E-03     10.3843E-03     210.093E+06     163.118E+06    -5.04658E+06    -5.04610E+06     210.093E+06     163.118E+06    -35.7806E+03         44.4417
             167     17.5250E-03     78.2757E-03     736.396E-03    -191.470E-03    -240.557E-03    -239.109E-03     734.948E-03    -191.470E-03    -60.8897E-03     53.0079E-03    -25.5053E-03    -27.5884E-03    -25.1513E-03     52.6538E-03    -27.5884E-03     10.5207E-03     210.112E+06     163.180E+06    -4.38103E+06    -4.38059E+06     210.111E+06     163.180E+06    -53.4826E+03         44.4474
             168     17.5251E-03     79.3312E-03     723.953E-03    -193.593E-03    -239.714E-03    -238.893E-03     723.132E-03    -193.593E-03     26.9686E-03     52.9620E-03    -25.3990E-03    -27.5905E-03    -25.0409E-03     52.6039E-03    -27.5905E-03     10.5707E-03     210.052E+06     163.362E+06     -4.5238E+06    -4.52309E+06     210.051E+06     163.362E+06     371.127E+03         44.4524
             169     17.5251E-03     80.3862E-03     663.192E-03    -173.083E-03    -201.712E-03    -180.829E-03     662.346E-03    -193.120E-03     26.2062E-03     52.9433E-03    -25.3457E-03    -27.5892E-03    -24.9974E-03     52.5950E-03    -27.5892E-03     10.4197E-03     210.746E+06     163.879E+06    -4.80144E+06    -4.79989E+06     210.744E+06     163.879E+06     573.144E+03         44.4570
             170     17.5251E-03     81.4414E-03     661.564E-03    -173.174E-03    -202.393E-03    -179.863E-03     659.071E-03    -193.211E-03    -76.5326E-03     52.9621E-03    -25.3591E-03    -27.5867E-03    -25.0141E-03     52.6171E-03    -27.5867E-03     10.3740E-03     211.864E+06     164.496E+06    -4.82884E+06    -4.82719E+06     211.862E+06     164.496E+06     597.011E+03         44.4616
             171     17.5252E-03     82.4971E-03     689.311E-03    -194.425E-03    -215.964E-03    -213.253E-03     686.600E-03    -194.425E-03    -42.4164E-03     52.9020E-03    -25.3216E-03    -27.5839E-03    -24.9649E-03     52.5452E-03    -27.5839E-03     10.5410E-03     213.471E+06     165.124E+06    -4.30765E+06    -4.30284E+06     213.466E+06     165.124E+06     943.875E+03         44.4677
             172     17.5252E-03     83.5519E-03     644.192E-03    -171.125E-03    -207.080E-03    -183.063E-03     643.774E-03    -194.724E-03     36.7524E-03     52.8521E-03    -25.3001E-03    -27.5810E-03    -24.9441E-03     52.4961E-03    -27.5810E-03     10.5249E-03     215.804E+06     166.240E+06    -4.79349E+06    -4.78808E+06     215.799E+06     166.240E+06     1.04940E+06         44.4799
             173     17.5253E-03     84.6072E-03     611.535E-03    -157.628E-03    -195.525E-03    -153.943E-03     607.851E-03    -195.525E-03    -61.5038E-03     52.8108E-03    -25.2592E-03    -27.5815E-03    -24.9128E-03     52.4644E-03    -27.5815E-03     10.3777E-03     217.045E+06     167.147E+06    -5.47583E+06    -5.47232E+06     217.042E+06     167.147E+06    -122.506E+03         44.5088
             174     17.5254E-03     85.6621E-03     673.642E-03    -184.202E-03    -223.231E-03    -203.070E-03     667.778E-03    -198.500E-03    -141.642E-03     52.8386E-03    -25.2657E-03    -27.5776E-03    -24.9169E-03     52.4898E-03    -27.5776E-03     10.4154E-03     215.695E+06     167.023E+06    -4.73654E+06    -4.73319E+06     215.692E+06     167.023E+06    -848.129E+03         44.5629
             175     17.5255E-03     86.7176E-03     686.981E-03    -199.700E-03    -231.380E-03    -226.543E-03     682.144E-03    -199.700E-03    -337.958E-06     52.7991E-03    -25.2362E-03    -27.5723E-03    -24.8818E-03     52.4447E-03    -27.5723E-03     10.4935E-03     214.275E+06     166.979E+06    -4.40777E+06    -4.40642E+06     214.274E+06     166.979E+06    -187.266E+03         44.6332
             176     17.5257E-03     87.7725E-03     583.656E-03    -140.028E-03    -204.146E-03    -144.350E-03     581.029E-03    -197.197E-03     76.7231E-03     52.6421E-03    -25.1305E-03    -27.5734E-03    -24.7798E-03     52.2914E-03    -27.5734E-03     10.4210E-03     214.627E+06     167.569E+06    -4.62747E+06    -4.62678E+06     214.626E+06     167.569E+06     382.750E+03         44.7067
             177     17.5258E-03     88.8272E-03     546.414E-03    -120.911E-03    -196.250E-03    -115.642E-03     541.145E-03    -196.250E-03    -76.6347E-03     52.5300E-03    -25.0392E-03    -27.5726E-03    -24.6913E-03     52.1821E-03    -27.5726E-03     10.3667E-03     214.680E+06     167.834E+06    -5.34946E+06    -5.34851E+06     214.679E+06     167.834E+06    -15.8359E+03         44.7794
             178     17.5261E-03     89.8825E-03     642.608E-03    -180.159E-03    -229.491E-03    -205.956E-03     637.243E-03    -198.329E-03    -106.233E-03     52.3422E-03    -24.8359E-03    -27.5718E-03    -24.4800E-03     51.9864E-03    -27.5718E-03     10.4563E-03     213.975E+06     168.602E+06    -4.78281E+06    -4.78189E+06     213.974E+06     168.602E+06    -451.993E+03         44.8503
             179     17.5264E-03     90.9364E-03     625.308E-03    -169.179E-03    -229.790E-03    -197.426E-03     622.393E-03    -198.628E-03     41.8700E-03     52.1380E-03    -24.6099E-03    -27.5682E-03    -24.2571E-03     51.7852E-03    -27.5682E-03     10.3819E-03     212.398E+06     168.628E+06    -5.32832E+06    -5.32242E+06     212.393E+06     168.628E+06    -988.375E+03         44.9184
             180     17.5268E-03     91.9909E-03     515.779E-03    -103.793E-03    -195.435E-03    -101.001E-03     512.988E-03    -195.435E-03     69.4947E-03     51.9499E-03    -24.4612E-03    -27.5598E-03    -24.1078E-03     51.5965E-03    -27.5598E-03     10.3677E-03     210.080E+06     168.660E+06    -4.62563E+06    -4.61810E+06     210.072E+06     168.660E+06    -1.23797E+06         44.9829
             181     17.5276E-03     93.0450E-03     538.387E-03    -130.702E-03    -197.526E-03    -131.565E-03     534.620E-03    -192.895E-03    -67.8592E-03     51.7393E-03    -24.2761E-03    -27.5420E-03    -23.9043E-03     51.3675E-03    -27.5420E-03     10.6049E-03     207.157E+06     169.041E+06    -5.01052E+06    -5.00606E+06     207.152E+06     169.041E+06    -972.903E+03         45.0437
             182     17.5285E-03     94.0988E-03     585.227E-03    -192.634E-03    -198.255E-03    -194.502E-03     581.473E-03    -192.634E-03    -67.4168E-03     51.4641E-03    -24.0391E-03    -27.4923E-03    -23.6605E-03     51.0855E-03    -27.4923E-03     10.6668E-03     204.127E+06     168.862E+06    -4.80034E+06    -4.79550E+06     204.122E+06     168.862E+06    -1.00553E+06         45.1027
             183     17.5301E-03     95.1517E-03     531.050E-03    -141.314E-03    -190.984E-03    -141.043E-03     529.788E-03    -189.993E-03     46.2079E-03     50.9729E-03    -23.6451E-03    -27.4189E-03    -23.2698E-03     50.5976E-03    -27.4189E-03     10.5566E-03     201.522E+06     168.145E+06    -5.11210E+06    -5.10276E+06     201.513E+06     168.145E+06    -1.34733E+06         45.1671
             184     17.5321E-03     96.2042E-03     463.189E-03    -95.8216E-03    -184.906E-03    -92.2826E-03     459.650E-03    -184.906E-03    -12.8199E-03     50.4962E-03    -23.2534E-03    -27.3076E-03    -22.8674E-03     50.1102E-03    -27.3076E-03     10.6411E-03     197.605E+06     166.778E+06    -4.85397E+06    -4.84009E+06     197.591E+06     166.778E+06    -1.67664E+06         45.2606
             185     17.5349E-03     97.2564E-03     476.099E-03    -124.797E-03    -180.480E-03    -121.675E-03     472.978E-03    -180.480E-03    -82.3463E-03     50.0840E-03    -22.9695E-03    -27.1356E-03    -22.5548E-03     49.6693E-03    -27.1356E-03     10.9740E-03     191.532E+06     164.423E+06    -5.46461E+06    -5.43037E+06     191.497E+06     164.423E+06    -2.46902E+06         45.4376
             186     17.5388E-03     98.3075E-03     502.324E-03    -141.949E-03    -175.544E-03    -140.972E-03     501.347E-03    -175.544E-03    -17.0681E-03     49.8119E-03    -22.9372E-03    -26.9021E-03    -22.5183E-03     49.3930E-03    -26.9021E-03     11.0074E-03     183.956E+06     162.380E+06    -4.86421E+06    -4.80428E+06     183.896E+06     162.380E+06    -3.35561E+06         45.8112
             187     17.5441E-03     99.3579E-03     458.623E-03    -115.023E-03    -169.873E-03    -114.839E-03     458.439E-03    -169.873E-03     15.3627E-03     50.1892E-03    -23.5915E-03    -26.6089E-03    -23.2180E-03     49.8157E-03    -26.6089E-03     10.4586E-03     176.148E+06     163.474E+06    -3.94160E+06    -3.89990E+06     176.107E+06     163.474E+06    -2.61635E+06         46.4813
             188     17.5499E-03     100.410E-03     414.028E-03    -98.6002E-03    -164.275E-03    -97.8744E-03     413.302E-03    -164.275E-03    -26.9557E-03     52.0545E-03    -25.1181E-03    -26.9165E-03    -25.4395E-03     51.7420E-03    -26.2825E-03     9.82316E-03     168.524E+06     162.259E+06    -7.99407E+06    -7.75671E+06     165.883E+06     164.662E+06    -5.27565E+06         47.4857
             189     17.5540E-03     101.465E-03     416.805E-03    -123.619E-03    -157.473E-03    -122.648E-03     415.834E-03    -157.473E-03    -43.8776E-03     56.3834E-03    -25.9925E-03    -30.4239E-03    -30.1862E-03     56.1456E-03    -25.9925E-03     8.99036E-03     164.168E+06     152.132E+06    -3.85993E+06    -3.50702E+06     151.779E+06     164.168E+06    -7.36552E+06         48.7606
             190     17.5546E-03     102.529E-03     403.398E-03    -116.925E-03    -148.052E-03    -116.225E-03     402.698E-03    -148.052E-03     3.81034E-03     61.8307E-03    -25.7900E-03    -36.0951E-03    -35.9052E-03     61.6407E-03    -25.7900E-03     8.61438E-03     163.064E+06     140.531E+06    -2.48307E+06    -2.34341E+06     140.392E+06     163.064E+06    -4.02737E+06         50.0983
             191     17.5555E-03     103.597E-03     345.003E-03    -77.5289E-03    -137.411E-03    -76.6616E-03     344.136E-03    -137.411E-03     2.94617E-03     66.1187E-03    -25.6369E-03    -40.5408E-03    -40.3138E-03     65.8917E-03    -25.6369E-03     9.80936E-03     161.690E+06     133.092E+06    -7.40229E+06     -7.2314E+06     132.921E+06     161.690E+06    -4.32157E+06         51.3408
             192     17.5559E-03     104.669E-03     318.401E-03    -82.9108E-03    -128.012E-03    -81.9705E-03     317.461E-03    -128.012E-03    -38.7857E-03     69.3700E-03    -25.5184E-03    -43.9961E-03    -43.6784E-03     69.0524E-03    -25.5184E-03     11.9549E-03     161.414E+06     123.333E+06    -3.82340E+06    -3.58718E+06     123.097E+06     161.414E+06    -5.43871E+06         52.4539
             193     17.5571E-03     105.744E-03     308.226E-03    -83.3013E-03    -118.689E-03    -82.7307E-03     307.656E-03    -118.689E-03    -26.6967E-03     72.5563E-03    -25.4184E-03    -47.2702E-03    -46.8663E-03     72.1524E-03    -25.4184E-03     13.8849E-03     162.653E+06     117.479E+06    -4.29101E+06    -4.20342E+06     117.391E+06     162.653E+06    -2.83001E+06         53.4672
             194     17.5569E-03     106.823E-03     270.756E-03    -60.2908E-03    -107.857E-03    -59.9350E-03     270.400E-03    -107.857E-03     8.21823E-03     75.7208E-03    -25.2893E-03    -50.4527E-03    -49.9619E-03     75.2300E-03    -25.2893E-03     15.6931E-03     158.731E+06     105.736E+06    -5.30426E+06    -5.27188E+06     105.704E+06     158.731E+06    -1.76557E+06         54.4801
             195     17.5589E-03     107.903E-03     242.076E-03    -60.2987E-03    -95.8491E-03    -59.9265E-03     241.704E-03    -95.8491E-03     19.7521E-03     79.2923E-03    -25.1350E-03    -54.1697E-03    -53.5611E-03     78.6838E-03    -25.1350E-03     17.9706E-03     151.655E+06     89.3840E+06    -8.46331E+06    -8.28712E+06     89.2078E+06     151.655E+06    -3.85587E+06         55.4953
             196     17.5587E-03     108.991E-03     219.207E-03    -55.9285E-03    -84.2654E-03    -51.5478E-03     214.827E-03    -84.2654E-03    -39.6271E-03     84.2843E-03    -24.9602E-03    -59.3510E-03    -58.4315E-03     83.3649E-03    -24.9602E-03     22.7561E-03     152.934E+06     81.7080E+06    -4.36615E+06    -4.05593E+06     81.3978E+06     152.934E+06    -5.12925E+06         56.3549
             197     17.5607E-03     110.086E-03     188.846E-03    -49.3013E-03    -73.3713E-03    -44.9624E-03     184.507E-03    -73.3713E-03    -48.4344E-03     90.6572E-03    -24.7567E-03    -65.9074E-03    -64.2616E-03     89.0114E-03    -24.7567E-03     31.6792E-03     150.106E+06     72.8185E+06    -1.56514E+06    -1.33995E+06     72.5933E+06     150.106E+06    -3.96777E+06         56.8981
             198     17.5602E-03     111.190E-03     168.945E-03    -53.0899E-03    -65.0920E-03    -57.5816E-03     168.905E-03    -60.5605E-03    -5.99176E-03     94.2857E-03    -24.5951E-03    -69.6904E-03    -67.5913E-03     92.1867E-03    -24.5951E-03     36.8655E-03     136.955E+06     59.7781E+06    -12.1715E+06    -7.68229E+06     55.2888E+06     136.955E+06    -12.7951E+06         56.9393
             199     17.5618E-03     112.285E-03     123.845E-03    -22.4574E-03    -51.0184E-03    -26.7349E-03     123.591E-03    -46.4869E-03    -9.06389E-03     96.2565E-03    -24.5008E-03    -71.7502E-03    -69.4156E-03     93.9219E-03    -24.5008E-03     39.2919E-03     140.128E+06     67.4300E+06    -1.97667E+06     9.23882E+06     56.2146E+06     140.128E+06     3.06108E+06         56.5168
             200     17.5609E-03     113.386E-03     77.9382E-03    -9.84803E-03    -34.8476E-03    -831.185E-06     67.9514E-03    -33.8776E-03    -46.0152E-03     100.669E-03    -24.4020E-03    -76.2459E-03    -73.3091E-03     97.7318E-03    -24.4020E-03     45.1641E-03     142.771E+06     75.8662E+06    -16.9134E+06    -10.0668E+06     69.0196E+06     142.771E+06     12.5027E+06         56.0111
             201     17.5611E-03     114.506E-03     88.7528E-03    -22.3778E-03    -48.2338E-03    -38.1700E-03     78.6889E-03    -22.3778E-03    -50.4040E-03     96.1224E-03    -24.2908E-03    -71.8216E-03    -67.9042E-03     92.2050E-03    -24.2908E-03     50.2852E-03     107.435E+06     69.6026E+06    -15.9712E+06     6.18780E+06     47.4436E+06     107.435E+06    -14.5139E+06         55.9567
             202     17.5648E-03     115.591E-03     66.1692E-03    -8.25765E-03    -35.9242E-03    -24.6406E-03     57.6660E-03    -11.0382E-03    -23.2551E-03     61.1987E-03    -15.8801E-03    -45.2966E-03    -33.8278E-03     58.9037E-03    -25.0538E-03     27.2278E-03     71.5776E+06     35.9001E+06    -13.6065E+06     8.52726E+06     13.7664E+06     71.5776E+06    -13.5307E+06         56.3543
             203     16.5313E-03     116.579E-03     32.5508E-03    -3.29122E-03    -9.58950E-03     2.12728E-03     23.6145E-03    -6.07174E-03    -4.30360E-03     48.4978E-03    -16.6469E-03    -31.8113E-03    -21.1904E-03     47.0506E-03    -25.8207E-03     17.9429E-03     55.8997E+06     12.4687E+06    -20.3324E+06    -14.8136E+06     6.94997E+06     55.8997E+06    -7.08669E+06         53.6839
             204     15.5591E-03     116.450E-03     19.3208E-03    -6.94598E-03    -10.9404E-03    -6.49812E-03     15.3552E-03    -7.42269E-03     6.06044E-03     58.6127E-03    -25.4157E-03    -33.2631E-03    -31.1996E-03     56.5492E-03    -25.4157E-03     26.9191E-03     46.9517E+06     17.7929E+06    -20.7982E+06     10.1385E+06    -13.1437E+06     46.9517E+06    -3.25260E+06         46.8399
             205     14.5869E-03     116.307E-03     20.9716E-03    -8.58029E-03    -11.0629E-03    -1.04107E-03     11.4265E-03    -9.05700E-03    -25.9124E-03     48.0257E-03    -21.3289E-03    -26.7968E-03    -22.4615E-03     47.3017E-03    -24.9401E-03     13.4406E-03     63.0609E+06     30.2765E+06    -14.3808E+06     11.6543E+06     4.24140E+06     63.0609E+06     6.34688E+06         39.3181
             206     13.6052E-03     116.184E-03     31.8174E-03    -8.47928E-03    -12.8266E-03    -4.16243E-03     25.4947E-03    -10.8207E-03    -23.0321E-03     46.1797E-03    -21.1011E-03    -25.2166E-03    -21.5124E-03     46.0868E-03    -24.7123E-03     2.80207E-03     80.3127E+06     26.8144E+06    -11.4983E+06     8.05317E+06     7.26290E+06     80.3127E+06     167.341E+03         33.1124
             207     12.6406E-03     116.070E-03     14.3050E-03    -1.17609E-03    -12.8034E-03    -204.153E-06     13.3330E-03    -12.8034E-03     529.133E-06     51.1501E-03    -24.2528E-03    -27.0295E-03    -27.0252E-03     51.1458E-03    -24.2528E-03    -1.15408E-03     92.8581E+06     17.8964E+06    -16.2979E+06     3.95587E+06    -2.35738E+06     92.8581E+06    -7.27170E+06         28.8598
             208     11.6827E-03     115.960E-03     16.4200E-03     206.397E-06    -15.3643E-03     3.99558E-03     12.6308E-03    -15.3643E-03    -11.5754E-03     51.2017E-03    -23.5234E-03    -27.6969E-03    -27.6875E-03     51.1923E-03    -23.5234E-03    -1.67788E-03     100.110E+06     19.2867E+06    -15.5175E+06     5.78983E+06    -2.02070E+06     100.110E+06    -5.31180E+06         26.3161
             209     10.7201E-03     115.873E-03     27.9153E-03    -11.0337E-03    -24.2302E-03    -15.1038E-03     25.0738E-03    -17.3185E-03    -13.5049E-03     50.1135E-03    -22.7393E-03    -27.3831E-03    -27.3579E-03     50.0883E-03    -22.7393E-03    -2.71729E-03     100.702E+06     17.0808E+06    -12.4803E+06     8.56665E+06    -3.96617E+06     100.702E+06    -4.09863E+06         24.8410
             210     9.75462E-03     115.797E-03     43.5663E-03    -17.1066E-03    -44.4934E-03    -40.8923E-03     39.9651E-03    -17.1066E-03     26.0843E-03     49.6871E-03    -21.8604E-03    -27.8349E-03    -27.7882E-03     49.6404E-03    -21.8604E-03    -3.78087E-03     97.2885E+06     20.3752E+06    -7.71939E+06     11.1058E+06     1.54998E+06     97.2885E+06    -6.77237E+06         23.9141
             211     8.79097E-03     115.735E-03     41.6050E-03    -15.9950E-03    -45.1780E-03    -30.7859E-03     27.2128E-03    -15.9950E-03     56.0832E-03     48.0393E-03    -20.9196E-03    -27.1201E-03    -27.0645E-03     47.9836E-03    -20.9196E-03    -4.08764E-03     92.8821E+06     19.2076E+06    -4.89911E+06     16.1378E+06    -1.82939E+06     92.8821E+06    -6.52244E+06         23.3613
             212     7.82297E-03     115.683E-03     18.2385E-03    -7.58478E-03    -25.5054E-03    -5.07433E-03     7.02021E-03    -16.7976E-03     31.0990E-03     45.8047E-03    -19.9810E-03    -25.8233E-03    -25.7687E-03     45.7501E-03    -19.9810E-03    -3.95472E-03     90.7974E+06     23.7857E+06    -2.02517E+06     20.9789E+06     781.595E+03     90.7974E+06    -6.02112E+06         23.0566
             213     6.85325E-03     115.643E-03     31.2447E-03    -9.59313E-03    -21.0487E-03    -11.2436E-03     30.6524E-03    -18.8060E-03    -2.54783E-03     43.3427E-03    -19.0179E-03    -24.3281E-03    -24.2766E-03     43.2912E-03    -19.0179E-03    -3.73217E-03     82.3329E+06     28.1144E+06    -2.71841E+06     25.8503E+06    -454.324E+03     82.3329E+06    -7.19720E+06         22.8225
             214     5.88064E-03     115.610E-03     71.3740E-03    -18.2472E-03    -54.4146E-03    -38.3505E-03     55.3099E-03    -18.2472E-03     62.2962E-03     40.5223E-03    -18.1105E-03    -22.4128E-03    -22.3682E-03     40.4776E-03    -18.1105E-03    -3.35020E-03     77.2977E+06     35.3453E+06    -3.51212E+06     32.8676E+06    -1.03436E+06     77.2977E+06    -8.48918E+06         22.6032
             215     4.90570E-03     115.587E-03     69.2578E-03    -15.9752E-03    -52.5065E-03    -26.9406E-03     43.6920E-03    -15.9752E-03     36.9997E-03     37.8672E-03    -17.3158E-03    -20.5506E-03    -20.5142E-03     37.8308E-03    -17.3158E-03    -2.91384E-03     76.8029E+06     41.0421E+06    -4.81726E+06     39.9732E+06    -3.74830E+06     76.8029E+06    -6.87503E+06         22.4119
             216     3.92762E-03     115.567E-03     59.7008E-03    -21.6982E-03    -26.0836E-03     30.6145E-03     3.00263E-03    -21.6982E-03    -60.9554E-03     35.4191E-03    -16.5819E-03    -18.8399E-03    -18.8123E-03     35.3915E-03    -16.5819E-03    -2.44242E-03     71.4261E+06     46.7076E+06     746.917E+03     46.0933E+06     1.36118E+06     71.4261E+06    -5.24855E+06         22.2475
             217     2.94782E-03     115.555E-03     70.9586E-03    -33.3725E-03    -43.0389E-03     37.2456E-03    -1.43818E-03    -41.2602E-03    -84.4329E-03     33.2410E-03    -15.9771E-03    -17.2569E-03    -17.2378E-03     33.2219E-03    -15.9771E-03    -1.95440E-03     62.5770E+06     51.7663E+06    -2.57482E+06     51.2674E+06    -2.07586E+06     62.5770E+06    -5.14901E+06         22.1067
             218     1.96559E-03     115.544E-03     89.5141E-03    -56.4073E-03    -68.2542E-03    -23.9635E-03     53.1112E-03    -64.2950E-03     6.97326E-03     31.6433E-03    -15.6104E-03    -16.0262E-03    -15.9900E-03     31.6321E-03    -15.6355E-03    -1.43954E-03     65.4975E+06     56.6321E+06    -1.91929E+06     56.0428E+06    -1.32997E+06     65.4975E+06    -5.78732E+06         22.0015
             219     983.738E-06     115.540E-03     105.437E-03    -55.0115E-03    -105.179E-03    -93.8884E-03     94.1462E-03    -55.0115E-03     49.8113E-03     31.0419E-03    -15.3740E-03    -15.6686E-03    -15.6367E-03     31.0350E-03    -15.3991E-03    -1.13368E-03     68.1630E+06     62.1311E+06    -2.59900E+06     61.5658E+06    -2.03367E+06     68.1630E+06    -5.86953E+06         21.9400
             220     666.040E-09     114.509E-03     102.858E-03    -18.1084E-03    -143.874E-03    -129.795E-03     36.5480E-03     34.1227E-03    -71.5129E-03     27.2821E-03    -13.3943E-03    -13.8886E-03    -13.6578E-03     27.2760E-03    -13.6190E-03    -996.852E-06     49.3344E+06     47.9622E+06    -14.2517E+06     47.2698E+06    -13.5593E+06     49.3344E+06    -6.22253E+06         21.7600
             221    -1.11682E-06     113.482E-03     99.6071E-03     18.6058E-03    -134.557E-03    -40.0052E-03    -47.1760E-03     70.8369E-03    -143.831E-03     19.8671E-03    -9.80800E-03    -10.0589E-03    -9.80448E-03     19.8636E-03    -10.0589E-03    -623.924E-06     8.20816E+06     3.73150E+06    -33.0302E+06     7.29810E+06    -32.2391E+06     3.85049E+06    -5.63661E+06         21.3961
             222     1.00079E-06     112.469E-03     220.964E-03    -16.3790E-03    -171.127E-03    -73.2865E-03     123.123E-03    -16.3790E-03    -220.097E-03     14.0071E-03    -6.96859E-03    -7.03857E-03    -7.01124E-03     14.0059E-03    -6.99471E-03    -318.821E-06    -34.5769E+06    -40.9003E+06    -50.7315E+06    -39.3770E+06    -45.9314E+06    -40.9003E+06    -3.35322E+06         21.0303
             223    -882.870E-09     111.455E-03     331.441E-03    -98.9555E-03    -194.659E-03    -176.221E-03     313.003E-03    -98.9555E-03    -172.112E-03     10.5800E-03    -5.24305E-03    -5.33725E-03    -5.28630E-03     10.5794E-03    -5.29339E-03    -130.913E-06    -58.6291E+06    -71.1024E+06    -76.8487E+06    -75.1643E+06    -60.3135E+06    -71.1024E+06    -5.24687E+06         20.7610
             224     798.851E-09     110.448E-03     281.761E-03    -88.4643E-03    -117.197E-03    -110.022E-03     274.585E-03    -88.4643E-03    -96.0400E-03     8.55880E-03    -4.21565E-03    -4.34348E-03    -4.21014E-03     8.55329E-03    -4.34348E-03     372.032E-06    -81.9193E+06    -117.256E+06    -123.037E+06    -119.607E+06    -85.3490E+06    -117.256E+06    -11.3683E+06         20.5883
             225    -952.706E-09     109.438E-03     261.990E-03    -33.3899E-03    -168.247E-03    -151.467E-03     245.210E-03    -33.3899E-03    -166.494E-03     7.71420E-03    -3.78000E-03    -3.93432E-03    -3.75499E-03     7.68919E-03    -3.93432E-03     1.02312E-03    -111.007E+06    -166.793E+06    -175.556E+06    -167.648E+06    -113.397E+06    -172.311E+06    -7.21354E+06         20.5234
             226     690.526E-09     108.432E-03     341.777E-03    -75.1834E-03    -215.331E-03    -175.282E-03     301.728E-03    -75.1834E-03    -280.121E-03     8.94075E-03    -4.41856E-03    -4.52210E-03    -4.39880E-03     8.89427E-03    -4.49538E-03     1.57473E-03    -114.404E+06    -189.384E+06    -198.760E+06    -193.052E+06    -114.593E+06    -194.902E+06     3.51036E+06         20.6203
             227    -642.699E-09     107.421E-03     345.987E-03    -104.024E-03    -155.722E-03    -125.788E-03     316.054E-03    -104.024E-03    -200.670E-03     12.7803E-03    -6.34838E-03    -6.43179E-03    -6.37397E-03     12.7225E-03    -6.34838E-03     2.10009E-03    -87.2576E+06    -153.768E+06    -159.231E+06    -153.221E+06    -91.6623E+06    -155.374E+06     11.6936E+06         20.8976
             228     603.278E-09     106.406E-03     349.574E-03     19.5968E-03    -297.522E-03    -233.971E-03     286.023E-03     19.5968E-03    -332.124E-03     18.5777E-03    -9.20039E-03    -9.37780E-03    -9.32034E-03     18.5202E-03    -9.20039E-03     2.51254E-03    -42.6036E+06    -66.2400E+06    -79.4931E+06    -68.3827E+06    -53.2576E+06    -66.6963E+06     14.5838E+06         21.3109
             229    -321.607E-09     105.384E-03     524.433E-03     57.3823E-03    -473.525E-03    -274.713E-03     325.621E-03     57.3823E-03    -787.682E-03     25.2996E-03    -12.5856E-03    -12.7145E-03    -12.6631E-03     25.2482E-03    -12.5856E-03     2.78406E-03     2.85858E+06    -2.84614E+06    -25.0002E+06    -4.74951E+06    -18.5416E+06    -1.69664E+06     6.94910E+06         21.7933
             230     227.857E-09     104.355E-03     737.304E-03    -10.9943E-03    -575.602E-03    -265.734E-03     427.437E-03    -10.9943E-03        -1.11490     32.1325E-03    -15.9858E-03    -16.1462E-03    -16.1040E-03     32.0902E-03    -15.9858E-03     2.82811E-03     35.2930E+06     25.4856E+06    -5.51360E+06     29.8984E+06    -5.37121E+06     30.7378E+06     101.626E+03         22.2805
             231     97.7264E-09     103.318E-03     809.848E-03     63.0013E-03    -729.925E-03    -372.183E-03     452.106E-03     63.0013E-03        -1.30056     38.2563E-03    -18.9340E-03    -19.3235E-03    -19.2934E-03     38.2261E-03    -18.9340E-03     2.61768E-03     48.6540E+06     39.9423E+06    -8.09157E+06     43.1706E+06    -7.86040E+06     45.1945E+06    -3.38716E+06         22.7260
             232     297.857E-09     102.278E-03     942.510E-03     135.572E-03    -946.438E-03    -417.696E-03     413.768E-03     135.572E-03        -1.68765     43.3916E-03    -21.5692E-03    -21.8238E-03    -21.8022E-03     43.3700E-03    -21.5692E-03     2.35962E-03     44.1552E+06     39.3561E+06    -19.2847E+06     42.4619E+06    -18.9310E+06     40.6957E+06    -4.67294E+06         23.1085
             233    -259.242E-09     101.230E-03         1.15722     74.8498E-03        -1.08997    -482.268E-03     549.513E-03     74.8498E-03        -1.98478     47.4741E-03    -23.6796E-03    -23.7947E-03    -23.7789E-03     47.4583E-03    -23.6796E-03     2.11847E-03     42.5882E+06     39.2791E+06    -34.2952E+06     41.0169E+06    -34.0635E+06     40.6187E+06    -3.90307E+06         23.4156
             234     416.820E-09     100.180E-03         1.15255     96.9680E-03        -1.09700    -554.167E-03     609.717E-03     96.9680E-03        -1.92393     50.3450E-03    -25.0310E-03    -25.3130E-03    -25.3010E-03     50.3329E-03    -25.0310E-03     1.90290E-03     35.3880E+06     30.9876E+06    -49.4741E+06     32.7469E+06    -49.2639E+06     33.4185E+06    -3.98796E+06         23.6400
             235    -56.1447E-09     99.1278E-03         1.00154     225.022E-03        -1.06453    -575.609E-03     512.626E-03     225.022E-03        -1.75388     52.3054E-03    -26.0159E-03    -26.2880E-03    -26.2795E-03     52.2969E-03    -26.0159E-03     1.62877E-03     18.5703E+06     14.1553E+06    -67.9586E+06     15.7963E+06    -67.6155E+06     16.5862E+06    -5.36059E+06         23.7894
             236     182.785E-09     98.0735E-03     972.646E-03     252.037E-03        -1.06410    -662.417E-03     570.965E-03     252.037E-03        -1.61809     53.6971E-03    -26.7527E-03    -26.9431E-03    -26.9361E-03     53.6901E-03    -26.7527E-03     1.50053E-03     3.35549E+06    -302.144E+03    -88.1218E+06     1.04702E+06    -87.4868E+06     1.37137E+06    -7.33556E+06         23.8849
             237     18.7683E-09     97.0177E-03     925.112E-03     222.263E-03    -965.398E-03    -722.959E-03     682.673E-03     222.263E-03        -1.21443     54.4802E-03    -27.1350E-03    -27.3449E-03    -27.3370E-03     54.4722E-03    -27.1350E-03     1.61395E-03    -10.8384E+06    -15.4934E+06    -109.374E+06    -13.1228E+06    -108.763E+06    -13.8199E+06    -7.34561E+06         23.9441
             238     118.278E-09     95.9616E-03     661.904E-03     312.922E-03    -792.875E-03    -735.630E-03     604.659E-03     312.922E-03    -528.291E-03     54.5455E-03    -27.1428E-03    -27.4025E-03    -27.3955E-03     54.5385E-03    -27.1428E-03     1.50695E-03    -26.3864E+06    -30.7265E+06    -128.195E+06    -27.9615E+06    -127.978E+06    -29.3679E+06    -4.52115E+06         23.9688
             239     191.195E-09     94.9072E-03     580.843E-03     424.231E-03    -830.161E-03    -778.193E-03     528.876E-03     424.231E-03     223.462E-03     54.5459E-03    -27.1595E-03    -27.3839E-03    -27.3786E-03     54.5406E-03    -27.1595E-03     1.31964E-03    -43.1454E+06    -45.6553E+06    -144.243E+06    -44.6616E+06    -144.085E+06    -44.2967E+06    -3.91891E+06         23.9714
             240    -64.9774E-09     93.8515E-03     883.877E-03     370.861E-03        -1.05699    -912.854E-03     739.743E-03     370.861E-03         1.01248     54.8289E-03    -27.3330E-03    -27.4938E-03    -27.4869E-03     54.8221E-03    -27.3330E-03     1.49464E-03    -51.9906E+06    -54.2418E+06    -159.401E+06    -53.4027E+06    -159.089E+06    -53.1419E+06    -5.67928E+06         23.9730
             241     244.418E-09     92.7945E-03         1.27895     348.157E-03        -1.41383        -1.01792     883.040E-03     348.157E-03         1.85948     54.7701E-03    -27.2151E-03    -27.5547E-03    -27.5472E-03     54.7626E-03    -27.2151E-03     1.56936E-03    -61.5965E+06    -64.6117E+06    -177.124E+06    -63.0173E+06    -176.803E+06    -63.5118E+06    -5.95624E+06         23.9801
             242     217.759E-09     91.7408E-03         1.57302     481.803E-03        -1.81157    -956.939E-03     718.391E-03     481.803E-03         2.91120     54.6059E-03    -27.1618E-03    -27.4454E-03    -27.4405E-03     54.6010E-03    -27.1618E-03     1.24209E-03    -70.1817E+06    -73.2763E+06    -194.033E+06    -71.5173E+06    -193.877E+06    -72.0969E+06    -4.24515E+06         23.9884
             243    -141.408E-09     90.6851E-03         1.92909     601.642E-03        -2.28314    -994.284E-03     640.238E-03     601.642E-03         3.88192     54.7100E-03    -27.2921E-03    -27.4191E-03    -27.4167E-03     54.7077E-03    -27.2921E-03     873.651E-06    -76.1931E+06    -78.0354E+06    -207.413E+06    -77.5244E+06    -207.261E+06     -76.856E+06    -4.34758E+06         23.9930
             244     317.377E-09     89.6296E-03         2.23772     673.315E-03        -2.66259        -1.14634     721.475E-03     673.315E-03         4.53037     54.9313E-03    -27.3403E-03    -27.5910E-03    -27.5876E-03     54.9279E-03    -27.3403E-03     1.02459E-03    -80.6945E+06    -81.9876E+06    -221.224E+06    -80.8171E+06    -221.102E+06    -81.9876E+06    -3.69621E+06         23.9949
             245    -26.7669E-09     88.5738E-03         2.34829     758.742E-03        -2.85524        -1.19110     684.149E-03     758.742E-03         4.85234     55.2273E-03    -27.5135E-03    -27.7146E-03    -27.7097E-03     55.2224E-03    -27.5135E-03     1.27577E-03    -81.2897E+06    -83.0826E+06    -231.599E+06    -82.5108E+06    -231.540E+06    -81.9199E+06    -2.83452E+06         23.9972
             246     123.989E-09     87.5176E-03         2.33611     840.468E-03        -2.96020        -1.20887     584.788E-03     840.468E-03         4.98333     55.1562E-03    -27.4761E-03    -27.6814E-03    -27.6760E-03     55.1509E-03    -27.4761E-03     1.32531E-03    -81.0261E+06    -83.8099E+06    -242.333E+06    -82.2666E+06    -242.255E+06    -82.6472E+06    -3.50842E+06         24.0013
             247     164.823E-09     86.4620E-03         2.39125     832.803E-03        -3.00816        -1.27386     656.947E-03     832.803E-03         5.04121     54.8754E-03    -27.2848E-03    -27.5907E-03    -27.5857E-03     54.8704E-03    -27.2848E-03     1.28186E-03    -81.2271E+06    -83.7887E+06    -252.238E+06     -82.206E+06    -252.199E+06    -82.8482E+06    -2.36783E+06         24.0063
             248     124.585E-09     85.4078E-03         2.48053     771.704E-03        -3.00632        -1.33335     807.560E-03     771.704E-03         5.05121     54.9598E-03    -27.3757E-03    -27.5849E-03    -27.5822E-03     54.9571E-03    -27.3757E-03     913.920E-06    -80.2803E+06    -81.6153E+06    -260.261E+06    -81.2726E+06    -260.209E+06    -80.6748E+06    -2.78128E+06         24.0100
             249    -4.71414E-09     84.3518E-03         2.40995     830.920E-03        -2.98842        -1.32220     743.725E-03     830.920E-03         4.98575     55.1847E-03    -27.4862E-03    -27.6991E-03    -27.6969E-03     55.1824E-03    -27.4862E-03     848.706E-06    -79.5713E+06    -80.9905E+06    -267.726E+06    -79.6177E+06    -267.679E+06    -80.9905E+06    -2.31641E+06         24.0119
             250     278.947E-09     83.2960E-03         2.17806     969.484E-03        -2.88512        -1.28412     577.052E-03     969.484E-03         4.70851     55.2674E-03    -27.5098E-03    -27.7571E-03    -27.7535E-03     55.2638E-03    -27.5098E-03     1.09424E-03    -78.1646E+06    -80.1518E+06    -270.683E+06    -79.1279E+06    -270.682E+06    -79.1893E+06    -250.436E+03         24.0135
             251    -87.3347E-09     82.2404E-03         1.95140     985.047E-03        -2.67425        -1.25867     535.823E-03     985.047E-03         4.26291     55.2641E-03    -27.5235E-03    -27.7414E-03    -27.7383E-03     55.2610E-03    -27.5235E-03     1.00581E-03    -74.6198E+06    -76.3719E+06    -270.934E+06    -75.5834E+06    -270.933E+06    -75.4094E+06     336.451E+03         24.0160
             252     309.377E-09     81.1850E-03         1.90272     897.472E-03        -2.51831        -1.25988     644.282E-03     897.472E-03         3.98724     55.3004E-03    -27.4935E-03    -27.8062E-03    -27.8029E-03     55.2971E-03    -27.4935E-03     1.03887E-03    -73.3366E+06    -74.9753E+06    -270.117E+06    -74.1904E+06    -270.112E+06    -74.1262E+06    -258.340E+03         24.0186
             253     76.4297E-09     80.1285E-03         1.81130     872.045E-03        -2.38593        -1.30415     729.518E-03     872.045E-03         3.66974     55.2749E-03    -27.5018E-03    -27.7725E-03    -27.7680E-03     55.2704E-03    -27.5018E-03     1.22152E-03    -74.1198E+06    -76.2605E+06    -271.380E+06    -74.9727E+06    -271.376E+06    -75.4113E+06    -444.911E+03         24.0196
             254     37.0381E-09     79.0736E-03         1.59448     885.343E-03        -2.18527        -1.27020     679.414E-03     885.343E-03         3.23802     55.2096E-03    -27.5588E-03    -27.6511E-03    -27.6464E-03     55.2050E-03    -27.5588E-03     1.24420E-03    -73.7502E+06    -75.6941E+06    -271.926E+06    -74.4057E+06    -271.923E+06    -75.0418E+06     675.411E+03         24.0193
             255     2.14868E-09     78.0178E-03         1.47883     840.980E-03        -1.99428        -1.15371     638.261E-03     840.980E-03         2.97501     55.1393E-03    -27.4734E-03    -27.6656E-03    -27.6618E-03     55.1355E-03    -27.4734E-03     1.10569E-03    -72.5890E+06    -73.5985E+06    -270.391E+06    -73.6014E+06    -270.388E+06    -72.5890E+06     537.630E+03         24.0199
             256     346.035E-09     76.9623E-03         1.43107     833.067E-03        -1.93638        -1.12062     615.315E-03     833.067E-03         2.88542     54.9638E-03    -27.2949E-03    -27.6708E-03    -27.6672E-03     54.9602E-03    -27.2949E-03     1.08295E-03    -70.9634E+06    -71.4819E+06    -269.894E+06    -71.4821E+06    -269.894E+06    -70.9634E+06    -137.956E+03         24.0208
             257     29.2154E-09     75.9076E-03         1.26137     854.920E-03        -1.79401        -1.10627     573.639E-03     854.920E-03         2.54963     54.9592E-03    -27.3722E-03    -27.5896E-03    -27.5861E-03     54.9558E-03    -27.3722E-03     1.05669E-03    -70.8806E+06    -71.2863E+06    -270.067E+06    -71.0431E+06    -270.066E+06    -71.1249E+06    -435.134E+03         24.0207
             258    -7.28892E-09     74.8520E-03         1.18446     739.873E-03        -1.58916        -1.01733     612.632E-03     739.873E-03         2.24410     55.0326E-03    -27.4507E-03    -27.5843E-03    -27.5814E-03     55.0297E-03    -27.4507E-03     976.171E-06    -70.8392E+06    -71.3750E+06    -270.346E+06    -70.8409E+06    -270.344E+06    -71.3750E+06    -6.69688E+03         24.0207
             259     218.330E-09     73.7965E-03         1.31124     569.260E-03        -1.56637    -976.452E-03     721.319E-03     569.260E-03         2.32339     54.9633E-03    -27.3184E-03    -27.6465E-03    -27.6427E-03     54.9594E-03    -27.3184E-03     1.12630E-03    -69.7872E+06    -71.2433E+06    -269.602E+06    -70.9531E+06    -269.601E+06    -70.0787E+06     88.3306E+03         24.0207
             260     192.434E-09     72.7413E-03         1.34059     527.213E-03        -1.55751    -902.120E-03     685.203E-03     527.213E-03         2.42043     54.9553E-03    -27.3177E-03    -27.6387E-03    -27.6349E-03     54.9516E-03    -27.3177E-03     1.10831E-03    -67.7747E+06    -70.1866E+06    -270.003E+06    -68.9403E+06    -270.002E+06    -69.0220E+06     35.8488E+03         24.0208
             261    -2.72002E-09     71.6862E-03         1.34085     468.082E-03        -1.48830    -751.763E-03     604.312E-03     468.082E-03         2.48166     55.0704E-03    -27.4402E-03    -27.6318E-03    -27.6290E-03     55.0676E-03    -27.4402E-03     966.162E-06    -66.5701E+06    -67.8704E+06    -268.531E+06    -66.6302E+06    -268.524E+06    -67.8174E+06     1.04042E+06         24.0224
             262     176.291E-09     70.6304E-03         1.54007     273.260E-03        -1.47770    -630.127E-03     692.504E-03     273.260E-03         2.71199     55.1376E-03    -27.4468E-03    -27.6916E-03    -27.6874E-03     55.1334E-03    -27.4468E-03     1.15049E-03    -65.4537E+06    -65.9827E+06    -266.105E+06    -65.9893E+06    -266.098E+06    -65.4537E+06     902.790E+03         24.0231
             263     140.570E-09     69.5744E-03         1.80297     141.440E-03        -1.58625    -492.325E-03     709.047E-03     141.440E-03         3.16031     54.9221E-03    -27.3280E-03    -27.5943E-03    -27.5898E-03     54.9176E-03    -27.3280E-03     1.21554E-03    -66.8721E+06    -67.5581E+06    -265.874E+06    -67.3483E+06    -265.873E+06    -67.0822E+06    -38.0220E+03         24.0205
             264     67.9261E-09     68.5202E-03         2.02626     56.6223E-03        -1.70819    -391.636E-03     709.702E-03     56.6223E-03         3.56835     54.7830E-03    -27.2765E-03    -27.5060E-03    -27.5031E-03     54.7801E-03    -27.2765E-03     971.456E-06    -67.4556E+06    -68.3870E+06    -265.446E+06    -67.4560E+06    -265.445E+06    -68.3870E+06    -5.12702E+03         24.0173
             265     199.346E-09     67.4647E-03         2.20883    -106.607E-03        -1.72286    -325.824E-03     811.794E-03    -106.607E-03         3.76340     54.9491E-03    -27.3497E-03    -27.5988E-03    -27.5963E-03     54.9466E-03    -27.3497E-03     905.003E-06    -65.4252E+06    -66.8572E+06    -264.471E+06    -66.1360E+06    -264.471E+06    -66.1466E+06     244.418E+03         24.0155
             266     31.6551E-09     66.4091E-03         2.43598    -245.741E-03        -1.81006    -138.671E-03     764.585E-03    -245.741E-03         4.13902     55.0052E-03    -27.3972E-03    -27.6082E-03    -27.6055E-03     55.0025E-03    -27.3972E-03     947.975E-06    -67.8355E+06    -69.0793E+06    -264.496E+06    -68.5518E+06    -264.491E+06    -68.3687E+06     847.948E+03         24.0145
             267     120.083E-09     65.3541E-03         2.73228    -359.761E-03        -1.98525     1.61577E-03     745.416E-03    -359.761E-03         4.65842     55.0559E-03    -27.4223E-03    -27.6332E-03    -27.6300E-03     55.0528E-03    -27.4223E-03     1.02156E-03    -67.2105E+06    -68.4231E+06    -263.138E+06    -67.8988E+06    -263.129E+06    -67.7437E+06     164.066E+03         24.0143
             268     137.731E-09     64.2979E-03         2.98691    -540.943E-03        -2.04548     22.9808E-03     918.449E-03    -540.943E-03         4.95157     55.1079E-03    -27.4324E-03    -27.6749E-03    -27.6708E-03     55.1038E-03    -27.4324E-03     1.16396E-03    -66.2059E+06    -67.5123E+06    -263.515E+06    -66.8904E+06    -263.510E+06    -66.8329E+06    -984.631E+03         24.0144
             269     49.2341E-09     63.2426E-03         3.08915    -661.485E-03        -2.01100     234.032E-03     844.121E-03    -661.485E-03         5.04988     54.9847E-03    -27.3895E-03    -27.5943E-03    -27.5899E-03     54.9803E-03    -27.3895E-03     1.19697E-03    -68.6541E+06    -69.5424E+06    -265.287E+06    -68.9200E+06    -265.283E+06    -69.2811E+06     110.808E+03         24.0161
             270     129.030E-09     62.1874E-03         3.16006    -705.180E-03        -2.04829     489.917E-03     621.850E-03    -705.180E-03         5.20553     54.9253E-03    -27.3441E-03    -27.5805E-03    -27.5771E-03     54.9220E-03    -27.3441E-03     1.04591E-03    -67.8778E+06    -68.9696E+06    -264.192E+06    -68.1422E+06    -264.189E+06    -68.7082E+06     684.126E+03         24.0183
             271     162.748E-09     61.1323E-03         3.25968    -914.520E-03        -1.94251     529.620E-03     787.555E-03    -914.520E-03         5.19028     55.0185E-03    -27.3593E-03    -27.6588E-03    -27.6556E-03     55.0152E-03    -27.3593E-03     1.03088E-03    -64.6069E+06    -65.8255E+06    -262.973E+06    -64.9956E+06    -262.972E+06    -65.4373E+06    -6.33631E+03         24.0189
             272     119.734E-09     60.0766E-03         3.35436        -1.18234        -1.75212     589.060E-03         1.01318        -1.18234         5.08836     55.0492E-03    -27.4037E-03    -27.6448E-03    -27.6420E-03     55.0465E-03    -27.4037E-03     952.634E-06    -65.3945E+06    -65.9508E+06    -263.182E+06    -65.7858E+06    -263.179E+06    -65.5626E+06    -681.424E+03         24.0206
             273     75.8786E-09     59.0217E-03         3.35461        -1.27001        -1.66953     789.428E-03     895.647E-03        -1.27001         5.01681     55.0725E-03    -27.4453E-03    -27.6283E-03    -27.6254E-03     55.0696E-03    -27.4453E-03     966.786E-06    -66.1409E+06    -67.0870E+06    -264.133E+06    -66.1439E+06    -264.130E+06    -67.0870E+06    -346.761E+03         24.0236
             274     16.5503E-03     57.1573E-03         1.00494    -266.992E-03    -292.008E-03    -291.953E-03         1.00488    -266.992E-03     10.7589E-03     56.2591E-03    -26.4785E-03    -29.8279E-03    -25.5305E-03     52.9427E-03    -27.4595E-03     28.3253E-03     191.658E+06     134.691E+06    -8.43599E+06    -8.43370E+06     191.656E+06     134.691E+06     430.578E+03         42.2675
             275     15.5756E-03     57.1084E-03         1.00922    -265.502E-03    -301.543E-03    -300.948E-03         1.00863    -265.502E-03     33.7299E-03     57.2354E-03    -27.2513E-03    -30.0049E-03    -25.8257E-03     53.0562E-03    -27.2513E-03     36.0867E-03     175.928E+06     83.5966E+06    -15.3764E+06    -15.3735E+06     175.925E+06     83.5966E+06     551.204E+03         39.2909
             276     14.6012E-03     57.0810E-03     998.470E-03    -263.798E-03    -293.932E-03    -292.593E-03     997.131E-03    -263.798E-03    -8.49606E-03     55.6843E-03    -27.0119E-03    -28.6892E-03    -26.0383E-03     53.0334E-03    -27.0119E-03     29.2714E-03     157.034E+06     23.3905E+06    -19.7429E+06    -19.7421E+06     157.033E+06     23.3905E+06     315.489E+03         35.9724
             277     13.6272E-03     57.0465E-03     983.770E-03    -262.493E-03    -282.225E-03    -280.798E-03     982.343E-03    -262.493E-03    -3.29661E-03     55.6661E-03    -26.9531E-03    -28.7333E-03    -26.3642E-03     53.2970E-03    -26.9531E-03     27.4108E-03     97.0924E+06    -11.7407E+06    -21.7158E+06    -21.7155E+06     97.0920E+06    -11.7407E+06     190.836E+03         33.0721
             278     12.6532E-03     57.0232E-03     982.355E-03    -261.372E-03    -280.597E-03    -279.879E-03     981.637E-03    -261.372E-03     34.2277E-03     54.8749E-03    -27.0999E-03    -27.7901E-03    -26.5879E-03     53.6727E-03    -27.0999E-03     19.6351E-03     17.8621E+06    -16.8004E+06    -22.6278E+06    -22.6248E+06     14.2806E+06    -13.2219E+06     23.6958E+03         30.7999
             279     11.6795E-03     57.0054E-03     987.747E-03    -259.790E-03    -285.161E-03    -285.078E-03     987.664E-03    -259.790E-03    -12.7988E-03     54.7027E-03    -27.2292E-03    -27.5045E-03    -26.7606E-03     53.9588E-03    -27.2292E-03     15.4801E-03    -9.22806E+06    -21.1359E+06    -43.6525E+06    -23.6439E+06    -41.1445E+06    -9.22806E+06     45.6557E+03         28.9497
             280     10.7059E-03     56.9908E-03     985.045E-03    -257.563E-03    -287.430E-03    -287.137E-03     984.752E-03    -257.563E-03     15.1238E-03     54.6477E-03    -27.2994E-03    -27.3998E-03    -26.8636E-03     54.1387E-03    -27.3266E-03     12.8448E-03    -5.07169E+06    -25.0086E+06    -80.4093E+06    -25.0100E+06    -80.4078E+06    -5.07169E+06     268.071E+03         27.4222
             281     9.73230E-03     56.9784E-03     968.055E-03    -255.354E-03    -276.330E-03    -276.034E-03     967.759E-03    -255.354E-03     33.1132E-03     54.7228E-03    -27.3290E-03    -27.4084E-03    -26.9256E-03     54.3194E-03    -27.4084E-03     11.4710E-03    -1.31123E+06    -27.1488E+06    -109.697E+06    -27.1509E+06    -109.695E+06    -1.31123E+06     367.099E+03         26.2363
             282     8.75878E-03     56.9668E-03     956.004E-03    -253.636E-03    -269.030E-03    -268.784E-03     955.758E-03    -253.636E-03     32.1945E-03     54.8512E-03    -27.3657E-03    -27.4754E-03    -27.0262E-03     54.5117E-03    -27.4754E-03     10.5305E-03    -1.17794E+06    -30.2174E+06    -135.577E+06    -30.2200E+06    -135.574E+06    -1.17794E+06     421.303E+03         25.4165
             283     7.78536E-03     56.9563E-03     956.212E-03    -251.716E-03    -271.764E-03    -271.228E-03     955.675E-03    -251.716E-03     8.94619E-03     54.9342E-03    -27.4015E-03    -27.5319E-03    -27.1260E-03     54.6587E-03    -27.5319E-03     9.49632E-03    -2.95056E+06    -33.6513E+06    -160.086E+06    -33.6529E+06    -160.084E+06    -2.95056E+06     353.628E+03         24.9369
             284     6.81205E-03     56.9468E-03     956.139E-03    -243.539E-03    -277.562E-03    -271.134E-03     955.210E-03    -249.037E-03     23.8497E-03     54.9967E-03    -27.4239E-03    -27.5721E-03    -27.1980E-03     54.7709E-03    -27.5721E-03     8.60736E-03    -6.30299E+06    -37.4476E+06    -182.888E+06    -37.4482E+06    -182.887E+06    -6.30299E+06     261.202E+03         24.6715
             285     5.83873E-03     56.9383E-03     955.464E-03    -240.598E-03    -277.133E-03    -263.279E-03     947.109E-03    -246.097E-03    -99.9909E-03     55.0605E-03    -27.4584E-03    -27.6029E-03    -27.2740E-03     54.8761E-03    -27.6029E-03     7.78070E-03    -12.7196E+06    -42.0135E+06    -204.994E+06    -42.0139E+06    -204.994E+06    -12.7196E+06     211.606E+03         24.4895
             286     4.86555E-03     56.9305E-03     962.697E-03    -242.797E-03    -281.236E-03    -261.563E-03     943.025E-03    -242.797E-03     32.9118E-03     55.0921E-03    -27.4751E-03    -27.6177E-03    -27.3316E-03     54.9487E-03    -27.6177E-03     6.85866E-03    -21.0449E+06    -47.1041E+06    -225.935E+06    -47.1046E+06    -225.935E+06    -21.0449E+06    -103.407E+03         24.3409
             287     3.89226E-03     56.9239E-03     992.529E-03    -238.194E-03    -315.199E-03    -259.886E-03     937.216E-03    -238.194E-03    -162.111E-03     55.1097E-03    -27.4960E-03    -27.6128E-03    -27.3916E-03     55.0053E-03    -27.6128E-03     5.84645E-03    -31.4289E+06    -52.5213E+06    -242.551E+06    -52.5221E+06    -242.550E+06    -31.4289E+06    -339.894E+03         24.2199
             288     2.91922E-03     56.9182E-03         1.07441    -233.853E-03    -398.533E-03    -243.675E-03     919.549E-03    -233.853E-03     219.488E-03     55.1171E-03    -27.5259E-03    -27.5920E-03    -27.4592E-03     55.0504E-03    -27.5920E-03     4.64326E-03    -43.4514E+06    -57.8336E+06    -253.748E+06    -57.8341E+06    -253.747E+06    -43.4514E+06    -150.732E+03         24.1278
             289     1.94601E-03     56.9141E-03         1.31437    -226.956E-03    -645.445E-03    -248.176E-03     917.098E-03    -226.956E-03    -451.050E-03     55.0993E-03    -27.5224E-03    -27.5786E-03    -27.5225E-03     55.0661E-03    -27.5453E-03     3.22971E-03    -54.7533E+06    -62.0013E+06    -259.937E+06    -62.0015E+06    -259.937E+06    -54.7533E+06    -71.4910E+03         24.0670
             290     973.212E-06     56.9115E-03         2.39159    -762.933E-03        -1.18801     400.267E-03     883.861E-03    -843.478E-03         1.32865     55.0057E-03    -27.4111E-03    -27.5945E-03    -27.5837E-03     54.9948E-03    -27.4111E-03     1.72262E-03    -62.0627E+06    -65.5019E+06    -262.658E+06    -64.7276E+06    -262.657E+06    -62.8378E+06    -240.667E+03         24.0350
             291     16.5503E-03     56.1019E-03         1.03429    -277.823E-03    -313.429E-03    -313.398E-03         1.03426    -277.823E-03     5.79242E-03     56.3104E-03    -26.5299E-03    -29.8352E-03    -25.6022E-03     53.0072E-03    -27.4597E-03     28.3027E-03     191.641E+06     134.873E+06    -8.64672E+06    -8.64665E+06     191.641E+06     134.873E+06     97.5354E+03         42.2218
             292     15.5758E-03     56.0529E-03         1.02308    -276.271E-03    -303.074E-03    -302.968E-03         1.02297    -276.271E-03     16.0752E-03     57.2584E-03    -27.2464E-03    -30.0325E-03    -25.8475E-03     53.0734E-03    -27.2464E-03     36.1692E-03     175.933E+06     83.1676E+06    -15.8097E+06    -15.8090E+06     175.932E+06     83.1676E+06     175.618E+03         39.2509
             293     14.6014E-03     56.0256E-03         1.01990    -275.009E-03    -298.938E-03    -298.331E-03         1.01929    -275.009E-03    -20.7434E-03     55.6712E-03    -27.0034E-03    -28.6874E-03    -26.0274E-03     53.0113E-03    -27.0034E-03     29.3348E-03     157.264E+06     22.7258E+06    -20.1335E+06    -20.1319E+06     157.263E+06     22.7258E+06     383.333E+03         35.9352
             294     13.6272E-03     55.9911E-03         1.02273    -273.512E-03    -303.937E-03    -302.679E-03         1.02147    -273.512E-03     6.51028E-03     55.6068E-03    -26.9500E-03    -28.6727E-03    -26.3046E-03     53.2387E-03    -26.9500E-03     27.4100E-03     97.4819E+06    -11.4915E+06    -21.6980E+06    -21.6968E+06     97.4807E+06    -11.4915E+06     245.169E+03         33.0369
             295     12.6532E-03     55.9679E-03         1.01476    -271.860E-03    -295.461E-03    -294.665E-03         1.01396    -271.860E-03     37.4692E-03     54.8400E-03    -27.1035E-03    -27.7529E-03    -26.5382E-03     53.6253E-03    -27.1035E-03     19.7208E-03     18.1095E+06    -16.5760E+06    -22.3445E+06    -22.3439E+06     14.3394E+06    -12.8065E+06     21.1526E+03         30.7685
             296     11.6795E-03     55.9498E-03         1.00188    -270.694E-03    -282.358E-03    -282.133E-03         1.00165    -270.694E-03    -21.2552E-03     54.7241E-03    -27.2336E-03    -27.5206E-03    -26.7746E-03     53.9781E-03    -27.2336E-03     15.5024E-03    -9.04563E+06    -20.9341E+06    -43.6269E+06    -23.3127E+06    -41.2484E+06    -9.04563E+06     86.7449E+03         28.9232
             297     10.7059E-03     55.9355E-03     998.401E-03    -269.830E-03    -281.940E-03    -281.653E-03     998.114E-03    -269.830E-03    -19.2902E-03     54.6689E-03    -27.3023E-03    -27.4164E-03    -26.8806E-03     54.1602E-03    -27.3295E-03     12.8443E-03    -4.93125E+06    -24.8925E+06    -80.4053E+06    -24.8945E+06    -80.4033E+06    -4.93125E+06     301.706E+03         27.4015
             298     9.73225E-03     55.9230E-03     999.910E-03    -268.503E-03    -287.152E-03    -287.007E-03     999.765E-03    -268.503E-03    -5.13532E-03     54.7399E-03    -27.3438E-03    -27.4100E-03    -26.9394E-03     54.3355E-03    -27.4100E-03     11.4885E-03    -1.26388E+06    -27.1710E+06    -109.594E+06    -27.1742E+06    -109.590E+06    -1.26388E+06     465.937E+03         26.2218
             299     8.75880E-03     55.9115E-03     990.278E-03    -265.168E-03    -282.071E-03    -280.065E-03     990.086E-03    -266.982E-03     4.77793E-03     54.8608E-03    -27.3753E-03    -27.4741E-03    -27.0345E-03     54.5199E-03    -27.4741E-03     10.5517E-03    -1.24039E+06    -29.9843E+06    -135.402E+06    -29.9863E+06      -135.4E+06    -1.24039E+06     378.398E+03         25.4086
             300     7.78542E-03     55.9008E-03     981.550E-03    -264.146E-03    -274.819E-03    -272.812E-03     981.358E-03    -265.960E-03     14.7316E-03     54.9153E-03    -27.3852E-03    -27.5306E-03    -27.1097E-03     54.6397E-03    -27.5306E-03     9.49496E-03    -3.00190E+06    -33.3879E+06    -159.861E+06    -33.3884E+06    -159.861E+06    -3.00190E+06     150.090E+03         24.9344
             301     6.81200E-03     55.8915E-03         1.00648    -263.107E-03    -300.440E-03    -298.972E-03         1.00502    -263.107E-03     69.8557E-03     54.9859E-03    -27.4150E-03    -27.5718E-03    -27.1884E-03     54.7594E-03    -27.5718E-03     8.62052E-03    -6.60229E+06    -37.5131E+06    -182.885E+06    -37.5131E+06    -182.885E+06    -6.60229E+06     70.2823E+03         24.6710
             302     5.83872E-03     55.8827E-03         1.01485    -256.687E-03    -311.415E-03    -304.614E-03         1.00805    -256.687E-03    -54.6575E-03     55.0609E-03    -27.4579E-03    -27.6043E-03    -27.2728E-03     54.8759E-03    -27.6043E-03     7.79351E-03    -12.9225E+06    -42.0045E+06    -204.793E+06    -42.0047E+06    -204.793E+06    -12.9225E+06     108.183E+03         24.4891
             303     4.86547E-03     55.8752E-03     996.046E-03    -251.213E-03    -294.807E-03    -267.350E-03     968.589E-03    -251.213E-03     115.253E-03     55.1062E-03    -27.4866E-03    -27.6203E-03    -27.3428E-03     54.9625E-03    -27.6203E-03     6.86981E-03    -21.0219E+06    -46.9744E+06    -225.439E+06    -46.9753E+06    -225.438E+06    -21.0219E+06     135.133E+03         24.3410
             304     3.89235E-03     55.8684E-03         1.01006    -249.286E-03    -311.628E-03    -252.861E-03     951.292E-03    -249.286E-03    -75.1649E-03     55.1229E-03    -27.5116E-03    -27.6122E-03    -27.4071E-03     55.0183E-03    -27.6122E-03     5.84940E-03    -31.4986E+06    -52.5485E+06    -242.415E+06    -52.5493E+06    -242.415E+06    -31.4986E+06     106.138E+03         24.2207
             305     2.91915E-03     55.8629E-03         1.08382    -251.177E-03    -385.642E-03    -237.935E-03     936.116E-03    -251.177E-03     242.154E-03     55.1124E-03    -27.5262E-03    -27.5878E-03    -27.4604E-03     55.0465E-03    -27.5878E-03     4.61461E-03    -43.7527E+06    -57.8104E+06    -253.608E+06    -57.8106E+06    -253.607E+06    -43.7527E+06    -95.3359E+03         24.1288
             306     1.94612E-03     55.8587E-03         1.30556    -257.120E-03    -596.877E-03    -242.650E-03     951.333E-03    -257.120E-03    -369.576E-03     55.0790E-03    -27.4995E-03    -27.5812E-03    -27.4964E-03     55.0458E-03    -27.5511E-03     3.23773E-03    -54.6630E+06    -61.8933E+06    -259.982E+06    -61.8940E+06    -259.981E+06    -54.6630E+06    -280.313E+03         24.0674
             307     973.052E-06     55.8560E-03         2.34045    -686.261E-03        -1.20099     432.847E-03     974.748E-03    -954.397E-03         1.24034     55.0414E-03    -27.4149E-03    -27.6274E-03    -27.5846E-03     55.0305E-03    -27.4468E-03     1.68508E-03    -61.4408E+06    -65.2411E+06    -262.885E+06    -64.4684E+06    -262.883E+06    -62.2159E+06    -582.128E+03         24.0346
             308     16.5504E-03     55.0461E-03         1.06078    -288.586E-03    -327.005E-03    -326.976E-03         1.06075    -288.586E-03    -5.51023E-03     56.3029E-03    -26.5358E-03    -29.8204E-03    -25.5911E-03     53.0009E-03    -27.4632E-03     28.2941E-03     191.841E+06     134.916E+06    -8.76344E+06    -8.76313E+06     191.840E+06     134.916E+06    -11.1182E+03         42.1916
             309     15.5757E-03     54.9979E-03         1.05070    -286.935E-03    -315.027E-03    -314.944E-03         1.05061    -286.935E-03     10.0162E-03     57.2763E-03    -27.2483E-03    -30.0501E-03    -25.8421E-03     53.0683E-03    -27.2483E-03     36.3149E-03     176.006E+06     83.1824E+06    -15.6953E+06    -15.6951E+06     176.005E+06     83.1824E+06    -117.267E+03         39.2260
             310     14.6012E-03     54.9699E-03         1.04686    -285.623E-03    -309.865E-03    -309.078E-03         1.04608    -285.623E-03    -32.2890E-03     55.6661E-03    -27.0039E-03    -28.6907E-03    -26.0218E-03     52.9972E-03    -27.0039E-03     29.4045E-03     157.269E+06     22.6333E+06    -19.7142E+06    -19.7123E+06     157.267E+06     22.6333E+06    -48.7628E+03         35.9107
             311     13.6272E-03     54.9361E-03         1.04883    -284.113E-03    -313.198E-03    -312.230E-03         1.04787    -284.113E-03    -19.9218E-03     55.5980E-03    -26.9474E-03    -28.6631E-03    -26.2972E-03     53.2320E-03    -26.9474E-03     27.4234E-03     97.7242E+06    -11.8212E+06    -21.0097E+06    -21.0074E+06     97.7219E+06    -11.8212E+06         139.566         33.0116
             312     12.6531E-03     54.9125E-03         1.04147    -282.433E-03    -306.311E-03    -306.016E-03         1.04118    -282.433E-03     13.7846E-03     54.8589E-03    -27.1033E-03    -27.7720E-03    -26.5424E-03     53.6292E-03    -27.1033E-03     19.8366E-03     18.2781E+06    -16.9375E+06    -21.6240E+06    -21.6037E+06     14.2589E+06    -12.9385E+06     173.099E+03         30.7447
             313     11.6794E-03     54.8946E-03         1.03133    -281.123E-03    -295.380E-03    -295.111E-03         1.03106    -281.123E-03    -33.1232E-03     54.7232E-03    -27.2366E-03    -27.5170E-03    -26.7704E-03     53.9766E-03    -27.2366E-03     15.5047E-03    -9.06540E+06    -20.9601E+06    -43.3151E+06    -23.0012E+06    -41.2740E+06    -9.06540E+06     410.985E+03         28.9024
             314     10.7058E-03     54.8800E-03         1.02710    -280.005E-03    -295.168E-03    -294.870E-03         1.02680    -280.005E-03    -32.2804E-03     54.6893E-03    -27.3173E-03    -27.4158E-03    -26.8952E-03     54.1820E-03    -27.3306E-03     12.8308E-03    -5.18064E+06    -24.8755E+06    -80.3972E+06    -24.8818E+06    -80.3909E+06    -5.18064E+06     477.153E+03         27.3847
             315     9.73228E-03     54.8678E-03         1.02228    -278.674E-03    -293.741E-03    -293.234E-03         1.02181    -278.714E-03    -36.8292E-03     54.7683E-03    -27.3689E-03    -27.4103E-03    -26.9615E-03     54.3608E-03    -27.4103E-03     11.5362E-03    -1.44069E+06    -27.0847E+06    -109.402E+06    -27.0872E+06    -109.399E+06    -1.44069E+06     401.560E+03         26.2099
             316     8.75879E-03     54.8559E-03         1.01385    -275.833E-03    -287.159E-03    -284.842E-03         1.01339    -277.687E-03    -41.0876E-03     54.8730E-03    -27.3858E-03    -27.4725E-03    -27.0425E-03     54.5298E-03    -27.4725E-03     10.5871E-03    -1.50514E+06    -29.8135E+06    -135.104E+06    -29.8147E+06    -135.103E+06    -1.50514E+06     311.188E+03         25.4022
             317     7.78536E-03     54.8456E-03         1.01565    -274.929E-03    -288.903E-03    -286.781E-03         1.01534    -276.743E-03    -29.0877E-03     54.9216E-03    -27.3900E-03    -27.5282E-03    -27.1145E-03     54.6461E-03    -27.5282E-03     9.49535E-03    -3.16564E+06    -33.3419E+06    -159.626E+06    -33.3430E+06    -159.625E+06    -3.16564E+06     260.886E+03         24.9319
             318     6.81201E-03     54.8360E-03         1.01897    -268.087E-03    -298.239E-03    -289.835E-03         1.01762    -275.133E-03     35.2013E-03     54.9820E-03    -27.4103E-03    -27.5721E-03    -27.1845E-03     54.7562E-03    -27.5721E-03     8.60421E-03    -6.68130E+06    -37.6107E+06    -182.757E+06    -37.6115E+06    -182.757E+06    -6.68130E+06     122.965E+03         24.6689
             319     5.83869E-03     54.8275E-03         1.02347    -266.080E-03    -302.371E-03    -285.666E-03         1.01381    -273.126E-03    -92.6665E-03     55.0519E-03    -27.4460E-03    -27.6063E-03    -27.2623E-03     54.8681E-03    -27.6063E-03     7.76640E-03    -12.9995E+06    -42.3116E+06    -204.677E+06    -42.3117E+06    -204.677E+06    -12.9995E+06     7.24003E+03         24.4873
             320     4.86547E-03     54.8197E-03         1.03344    -272.078E-03    -304.289E-03    -273.421E-03         1.00257    -272.078E-03     94.5543E-03     55.1072E-03    -27.4866E-03    -27.6220E-03    -27.3431E-03     54.9637E-03    -27.6220E-03     6.86217E-03    -21.2739E+06    -47.2947E+06    -225.530E+06    -47.2957E+06    -225.529E+06    -21.2739E+06     87.9055E+03         24.3412
             321     3.89229E-03     54.8130E-03         1.06077    -271.530E-03    -331.393E-03    -275.948E-03         1.00532    -271.530E-03    -63.8801E-03     55.1395E-03    -27.5297E-03    -27.6118E-03    -27.4253E-03     55.0352E-03    -27.6118E-03     5.84477E-03    -31.4182E+06    -52.1246E+06    -242.008E+06    -52.1255E+06    -242.007E+06    -31.4182E+06     131.169E+03         24.2221
             322     2.91924E-03     54.8074E-03         1.11139    -270.673E-03    -385.350E-03    -273.101E-03     999.145E-03    -270.673E-03     161.919E-03     55.1296E-03    -27.5458E-03    -27.5851E-03    -27.4798E-03     55.0636E-03    -27.5851E-03     4.61833E-03    -42.8748E+06    -56.7952E+06    -253.253E+06    -56.7956E+06    -253.253E+06    -42.8748E+06    -113.975E+03         24.1297
             323     1.94615E-03     54.8033E-03         1.27089    -279.482E-03    -537.029E-03    -242.813E-03     976.679E-03    -279.482E-03    -373.566E-03     55.0608E-03    -27.5038E-03    -27.5576E-03    -27.4713E-03     55.0283E-03    -27.5576E-03     3.19394E-03    -52.9114E+06    -61.3226E+06    -259.979E+06    -61.3238E+06    -259.977E+06    -52.9114E+06    -462.516E+03         24.0669
             324     972.923E-06     54.8008E-03         2.30322    -584.619E-03        -1.25739     495.464E-03         1.03845        -1.07271         1.20427     55.0598E-03    -27.4649E-03    -27.5959E-03    -27.5462E-03     55.0493E-03    -27.5040E-03     1.69918E-03    -60.7175E+06    -65.5405E+06    -263.079E+06    -64.8714E+06    -263.074E+06    -61.3916E+06    -902.271E+03         24.0336
             325     16.5502E-03     53.9910E-03         1.05694    -289.373E-03    -317.285E-03    -308.028E-03         1.05690    -298.597E-03    -10.8967E-03     56.2626E-03    -26.4659E-03    -29.8507E-03    -25.5323E-03     52.9486E-03    -27.4704E-03     28.3327E-03     192.192E+06     135.057E+06    -8.53275E+06    -8.53238E+06     192.192E+06     135.057E+06    -8.54766E+03         42.1724
             326     15.5756E-03     53.9422E-03         1.08250    -297.610E-03    -330.762E-03    -330.724E-03         1.08246    -297.610E-03    -1.56689E-03     57.3003E-03    -27.2570E-03    -30.0585E-03    -25.8457E-03     53.0875E-03    -27.2570E-03     36.3227E-03     176.535E+06     84.8571E+06    -15.9363E+06    -15.9326E+06     176.531E+06     84.8571E+06    -443.670E+03         39.2110
             327     14.6013E-03     53.9146E-03         1.08271    -295.758E-03    -330.973E-03    -330.353E-03         1.08209    -295.758E-03    -33.6094E-03     55.6526E-03    -27.0107E-03    -28.6691E-03    -26.0079E-03     52.9914E-03    -27.0107E-03     29.3524E-03     156.992E+06     23.5439E+06    -20.1046E+06    -20.0998E+06     156.987E+06     23.5439E+06    -737.138E+03         35.8949
             328     13.6269E-03     53.8807E-03         1.06798    -294.115E-03    -316.618E-03    -315.899E-03         1.06726    -294.115E-03    -22.5645E-03     55.6330E-03    -26.9504E-03    -28.6989E-03    -26.3367E-03     53.2708E-03    -26.9504E-03     27.4052E-03     97.2749E+06    -12.8186E+06    -21.6223E+06    -21.6197E+06     97.2723E+06    -12.8186E+06    -154.747E+03         32.9938
             329     12.6531E-03     53.8572E-03         1.05511    -292.698E-03    -305.424E-03    -304.866E-03         1.05499    -293.136E-03     14.9859E-03     54.8875E-03    -27.1038E-03    -27.8023E-03    -26.5757E-03     53.6609E-03    -27.1038E-03     19.8259E-03     17.8702E+06    -17.4825E+06    -22.6875E+06    -22.6265E+06     13.9299E+06    -13.6031E+06     566.228E+03         30.7270
             330     11.6794E-03     53.8390E-03         1.05098    -292.088E-03    -301.763E-03    -301.248E-03         1.05090    -292.526E-03    -16.3920E-03     54.6998E-03    -27.2386E-03    -27.4944E-03    -26.7477E-03     53.9530E-03    -27.2386E-03     15.4991E-03     -9.3582E+06    -21.3810E+06    -43.5617E+06    -23.7716E+06    -41.1710E+06     -9.3582E+06     714.919E+03         28.8864
             331     10.7057E-03     53.8247E-03         1.05533    -291.769E-03    -305.308E-03    -304.494E-03         1.05451    -291.769E-03     18.5448E-03     54.6957E-03    -27.3314E-03    -27.4022E-03    -26.8950E-03     54.1892E-03    -27.3321E-03     12.8214E-03    -5.41610E+06    -25.1922E+06    -80.0847E+06    -25.1989E+06    -80.0781E+06    -5.41610E+06     475.539E+03         27.3715
             332     9.73221E-03     53.8123E-03         1.06000    -290.412E-03    -309.824E-03    -308.675E-03         1.05889    -290.452E-03     11.4040E-03     54.7938E-03    -27.3850E-03    -27.4133E-03    -26.9806E-03     54.3878E-03    -27.4117E-03     11.5180E-03    -1.52045E+06    -27.2350E+06    -109.128E+06    -27.2362E+06    -109.127E+06    -1.52045E+06     276.654E+03         26.2005
             333     8.75875E-03     53.8006E-03         1.06315    -288.138E-03    -316.059E-03    -315.404E-03         1.06254    -288.177E-03    -11.3042E-03     54.8908E-03    -27.3984E-03    -27.4719E-03    -27.0576E-03     54.5500E-03    -27.4719E-03     10.5512E-03    -1.65774E+06    -30.1281E+06    -134.890E+06    -30.1292E+06    -134.889E+06    -1.65774E+06     277.498E+03         25.3973
             334     7.78539E-03     53.7901E-03         1.05753    -285.088E-03    -312.643E-03    -312.079E-03         1.05697    -285.088E-03    -18.6710E-03     54.9361E-03    -27.4008E-03    -27.5258E-03    -27.1277E-03     54.6629E-03    -27.5258E-03     9.45637E-03    -3.29290E+06    -33.6279E+06    -159.583E+06    -33.6293E+06    -159.581E+06    -3.29290E+06     382.424E+03         24.9301
             335     6.81206E-03     53.7807E-03         1.02562    -273.280E-03    -293.945E-03    -282.458E-03         1.02442    -283.564E-03     16.3097E-03     54.9821E-03    -27.4094E-03    -27.5712E-03    -27.1844E-03     54.7571E-03    -27.5712E-03     8.59099E-03    -6.44392E+06    -37.7398E+06    -182.264E+06    -37.7410E+06    -182.262E+06    -6.44392E+06     325.943E+03         24.6672
             336     5.83872E-03     53.7720E-03         1.02356    -274.722E-03    -290.636E-03    -269.512E-03         1.01272    -285.006E-03    -115.056E-03     55.0503E-03    -27.4450E-03    -27.6050E-03    -27.2611E-03     54.8663E-03    -27.6050E-03     7.76938E-03    -13.0129E+06    -42.5301E+06    -204.545E+06    -42.5308E+06    -204.544E+06    -13.0129E+06     25.1094E+03         24.4854
             337     4.86550E-03     53.7643E-03         1.05858    -286.179E-03    -310.223E-03    -287.925E-03         1.03628    -286.179E-03     22.4364E-03     55.1036E-03    -27.4877E-03    -27.6191E-03    -27.3447E-03     54.9606E-03    -27.6191E-03     6.84945E-03    -21.3960E+06    -47.5774E+06    -225.660E+06    -47.5782E+06    -225.659E+06    -21.3960E+06    -49.4679E+03         24.3406
             338     3.89230E-03     53.7575E-03         1.08987    -284.439E-03    -340.167E-03    -297.250E-03         1.04695    -284.439E-03    -110.529E-03     55.1220E-03    -27.5213E-03    -27.6033E-03    -27.4178E-03     55.0185E-03    -27.6033E-03     5.81985E-03    -32.3906E+06    -52.7848E+06    -241.451E+06    -52.7857E+06    -241.450E+06    -32.3906E+06    -99.7491E+03         24.2230
             339     2.91922E-03     53.7520E-03         1.12657    -280.405E-03    -381.521E-03    -295.170E-03         1.04022    -280.405E-03     108.059E-03     55.1063E-03    -27.5280E-03    -27.5792E-03    -27.4630E-03     55.0413E-03    -27.5792E-03     4.58261E-03    -44.0970E+06    -57.4463E+06    -253.063E+06    -57.4474E+06    -253.062E+06    -44.0970E+06    -373.128E+03         24.1310
             340     1.94608E-03     53.7480E-03         1.27845    -272.344E-03    -541.212E-03    -294.768E-03         1.03201    -272.344E-03    -399.358E-03     55.0733E-03    -27.5190E-03    -27.5546E-03    -27.4901E-03     55.0409E-03    -27.5511E-03     3.19267E-03    -53.2586E+06    -61.4049E+06    -260.040E+06    -61.4059E+06    -260.039E+06    -53.2586E+06    -384.188E+03         24.0676
             341     973.197E-06     53.7452E-03         2.24917    -509.476E-03        -1.27158     533.376E-03         1.00125        -1.06651         1.10474     55.0142E-03    -27.4477E-03    -27.5671E-03    -27.5489E-03     55.0032E-03    -27.4549E-03     1.76297E-03    -61.9341E+06    -66.0303E+06    -263.566E+06    -65.1168E+06    -263.561E+06    -62.8526E+06    -198.069E+03         24.0334
             342     16.5501E-03     52.9356E-03         1.07358    -296.348E-03    -314.362E-03    -302.995E-03         1.07344    -307.575E-03     11.1021E-03     56.2829E-03    -26.4691E-03    -29.8761E-03    -25.5644E-03     52.9787E-03    -27.4766E-03     28.3441E-03     192.637E+06     135.406E+06    -8.53255E+06    -8.53158E+06     192.636E+06     135.406E+06    -138.778E+03         42.1598
             343     15.5756E-03     52.8867E-03         1.09372    -305.530E-03    -324.284E-03    -322.259E-03         1.09369    -307.534E-03     2.35422E-03     57.2238E-03    -27.2588E-03    -29.9891E-03    -25.8128E-03     53.0475E-03    -27.2588E-03     36.1164E-03     177.157E+06     85.2729E+06    -16.0220E+06    -16.0177E+06     177.153E+06     85.2729E+06    -501.672E+03         39.2016
             344     14.6010E-03     52.8593E-03         1.10153    -306.633E-03    -330.263E-03    -329.813E-03         1.10108    -306.633E-03    -29.4284E-03     55.5956E-03    -27.0130E-03    -28.6144E-03    -25.9580E-03     52.9392E-03    -27.0130E-03     29.2859E-03     156.523E+06     23.0979E+06    -21.2087E+06    -21.2045E+06     156.519E+06     23.0979E+06    -588.983E+03         35.8845
             345     13.6270E-03     52.8252E-03         1.08846    -305.726E-03    -319.778E-03    -319.089E-03         1.08778    -305.726E-03    -9.55439E-03     55.6872E-03    -26.9573E-03    -28.7491E-03    -26.3794E-03     53.3175E-03    -26.9573E-03     27.4342E-03     96.5159E+06    -13.5651E+06    -23.5085E+06    -23.5069E+06     96.5143E+06    -13.5651E+06    -91.9302E+03         32.9811
             346     12.6531E-03     52.8018E-03         1.07757    -304.917E-03    -311.271E-03    -310.532E-03         1.07727    -305.355E-03     34.3992E-03     54.9096E-03    -27.1072E-03    -27.8233E-03    -26.6059E-03     53.6921E-03    -27.1072E-03     19.7708E-03     17.5275E+06    -17.5182E+06    -23.9704E+06    -23.9291E+06     13.8584E+06    -13.8904E+06     372.661E+03         30.7139
             347     11.6793E-03     52.7838E-03         1.07483    -304.586E-03    -309.187E-03    -308.286E-03         1.07461    -305.262E-03    -11.7827E-03     54.7061E-03    -27.2372E-03    -27.5034E-03    -26.7570E-03     53.9597E-03    -27.2372E-03     15.4917E-03    -9.57058E+06    -21.5891E+06    -43.7941E+06    -24.2856E+06    -41.0976E+06    -9.57058E+06     443.869E+03         28.8741
             348     10.7057E-03     52.7693E-03         1.07670    -303.647E-03    -307.410E-03    -304.782E-03         1.07577    -305.346E-03     15.5199E-03     54.6964E-03    -27.3287E-03    -27.4035E-03    -26.8992E-03     54.1939E-03    -27.3304E-03     12.7721E-03    -5.20210E+06    -25.4256E+06    -79.6136E+06    -25.4286E+06    -79.6106E+06    -5.20210E+06     342.840E+03         27.3613
             349     9.73223E-03     52.7569E-03         1.09813    -303.164E-03    -325.131E-03    -322.766E-03         1.09722    -304.626E-03     22.1466E-03     54.8005E-03    -27.3914E-03    -27.4104E-03    -26.9913E-03     54.3989E-03    -27.4087E-03     11.4561E-03    -1.56239E+06    -27.6215E+06    -108.953E+06    -27.6221E+06    -108.953E+06    -1.56239E+06     193.682E+03         26.1932
             350     8.75881E-03     52.7451E-03         1.10970    -301.840E-03    -338.832E-03    -338.472E-03         1.10934    -301.840E-03     6.30166E-03     54.8810E-03    -27.3928E-03    -27.4675E-03    -27.0557E-03     54.5439E-03    -27.4675E-03     10.4951E-03    -1.80284E+06    -30.5746E+06    -134.952E+06    -30.5756E+06    -134.951E+06    -1.80284E+06     301.346E+03         25.3939
             351     7.78543E-03     52.7347E-03         1.08297    -295.955E-03    -319.811E-03    -316.604E-03         1.08267    -298.858E-03     12.1331E-03     54.9150E-03    -27.3856E-03    -27.5213E-03    -27.1120E-03     54.6414E-03    -27.5213E-03     9.46315E-03    -3.59621E+06    -34.0122E+06    -159.417E+06    -34.0134E+06    -159.415E+06    -3.59621E+06     341.281E+03         24.9299
             352     6.81204E-03     52.7253E-03         1.05821    -291.704E-03    -301.485E-03    -293.277E-03         1.05658    -298.278E-03     56.3017E-03     54.9947E-03    -27.4247E-03    -27.5693E-03    -27.1986E-03     54.7686E-03    -27.5693E-03     8.61134E-03    -6.60978E+06    -37.8801E+06    -181.903E+06    -37.8808E+06    -181.902E+06    -6.60978E+06     171.330E+03         24.6675
             353     5.83877E-03     52.7166E-03         1.06612    -295.123E-03    -307.864E-03    -298.856E-03         1.06079    -298.794E-03    -28.9240E-03     55.0653E-03    -27.4630E-03    -27.6016E-03    -27.2799E-03     54.8822E-03    -27.6016E-03     7.75122E-03    -12.7758E+06    -42.2941E+06    -204.205E+06    -42.2948E+06    -204.204E+06    -12.7758E+06    -2.40142E+03         24.4850
             354     4.86551E-03     52.7089E-03         1.08848    -298.115E-03    -321.731E-03    -306.222E-03         1.07297    -298.115E-03     86.8427E-03     55.0950E-03    -27.4858E-03    -27.6118E-03    -27.3432E-03     54.9524E-03    -27.6118E-03     6.84336E-03    -21.1132E+06    -47.3869E+06    -225.559E+06    -47.3877E+06    -225.559E+06    -21.1132E+06    -66.6870E+03         24.3398
             355     3.89241E-03     52.7021E-03         1.09962    -297.557E-03    -329.113E-03    -296.512E-03         1.06702    -297.557E-03    -58.0299E-03     55.0971E-03    -27.5003E-03    -27.5985E-03    -27.3970E-03     54.9938E-03    -27.5985E-03     5.80885E-03    -31.9817E+06    -52.5591E+06    -241.191E+06    -52.5600E+06    -241.190E+06    -31.9817E+06    -130.981E+03         24.2224
             356     2.91919E-03     52.6967E-03         1.14463    -297.249E-03    -375.895E-03    -300.611E-03         1.06935    -297.249E-03     165.387E-03     55.0911E-03    -27.5131E-03    -27.5788E-03    -27.4487E-03     55.0267E-03    -27.5788E-03     4.56217E-03    -43.9052E+06    -57.4273E+06    -252.802E+06    -57.4282E+06    -252.801E+06    -43.9052E+06    -320.972E+03         24.1310
             357     1.94615E-03     52.6924E-03         1.28814    -282.935E-03    -528.229E-03    -338.440E-03         1.09835    -282.935E-03    -284.734E-03     55.0718E-03    -27.5183E-03    -27.5538E-03    -27.4893E-03     55.0392E-03    -27.5503E-03     3.20226E-03    -53.9213E+06    -62.0012E+06    -260.404E+06    -62.0017E+06    -260.404E+06    -53.9213E+06    -190.160E+03         24.0681
             358     972.965E-06     52.6900E-03         2.13880    -409.839E-03        -1.25739     535.555E-03         1.00975        -1.07373         1.01068     55.0261E-03    -27.4359E-03    -27.5896E-03    -27.5689E-03     55.0146E-03    -27.4451E-03     1.82150E-03    -62.2190E+06    -65.7671E+06    -263.670E+06    -65.5245E+06    -263.668E+06    -62.4635E+06     388.316E+03         24.0338
             359     16.5502E-03     51.8800E-03         1.13026    -315.496E-03    -333.867E-03    -331.554E-03         1.12995    -317.500E-03     35.0945E-03     56.2871E-03    -26.5216E-03    -29.8358E-03    -25.5763E-03     52.9792E-03    -27.4732E-03     28.3259E-03     192.996E+06     135.193E+06    -8.62465E+06    -8.62333E+06     192.994E+06     135.193E+06    -352.532E+03         42.1504
             360     15.5757E-03     51.8313E-03         1.10469    -309.345E-03    -320.098E-03    -311.572E-03         1.10444    -317.617E-03     29.3893E-03     57.1553E-03    -27.2458E-03    -29.9496E-03    -25.7864E-03     52.9921E-03    -27.2458E-03     35.9968E-03     176.992E+06     85.6165E+06    -16.0623E+06    -16.0609E+06     176.990E+06     85.6165E+06    -259.846E+03         39.1947
             361     14.6012E-03     51.8043E-03         1.10622    -309.247E-03    -323.035E-03    -313.362E-03         1.10564    -318.339E-03    -22.9086E-03     55.5636E-03    -27.0023E-03    -28.6024E-03    -25.9603E-03     52.9214E-03    -27.0023E-03     29.1872E-03     156.368E+06     24.0122E+06    -21.1513E+06    -21.1497E+06     156.367E+06     24.0122E+06     208.561E+03         35.8767
             362     13.6268E-03     51.7696E-03         1.11513    -315.798E-03    -328.700E-03    -325.191E-03         1.11444    -318.623E-03    -15.1915E-03     55.6544E-03    -26.9576E-03    -28.7148E-03    -26.3502E-03     53.2899E-03    -26.9576E-03     27.3774E-03     96.5262E+06    -13.2871E+06      -23.31E+06    -23.3041E+06     96.5203E+06    -13.2871E+06    -126.012E+03         32.9714
             363     12.6531E-03     51.7466E-03         1.11935    -318.175E-03    -331.818E-03    -331.522E-03         1.11906    -318.175E-03     22.6016E-03     54.9196E-03    -27.1068E-03    -27.8334E-03    -26.6255E-03     53.7118E-03    -27.1068E-03     19.7009E-03     17.2033E+06    -17.3549E+06    -23.8267E+06    -23.8221E+06     13.7828E+06    -13.9390E+06    -250.539E+03         30.7036
             364     11.6794E-03     51.7282E-03         1.11814    -317.097E-03    -331.056E-03    -330.208E-03         1.11753    -317.335E-03    -37.0824E-03     54.7387E-03    -27.2329E-03    -27.5391E-03    -26.7938E-03     53.9934E-03    -27.2329E-03     15.4870E-03    -9.75086E+06    -21.5920E+06    -43.7692E+06    -24.4684E+06    -40.8928E+06    -9.75086E+06     18.5351E+03         28.8644
             365     10.7058E-03     51.7139E-03         1.11505    -314.926E-03    -326.073E-03    -323.691E-03         1.11437    -316.626E-03    -18.7904E-03     54.6989E-03    -27.3226E-03    -27.4089E-03    -26.9032E-03     54.1949E-03    -27.3243E-03     12.7940E-03    -5.36891E+06    -25.7626E+06    -79.4737E+06    -25.7646E+06    -79.4717E+06    -5.36891E+06     155.730E+03         27.3531
             366     9.73227E-03     51.7014E-03         1.11256    -307.478E-03    -328.214E-03    -319.101E-03         1.11225    -316.280E-03     3.80612E-03     54.7801E-03    -27.3699E-03    -27.4099E-03    -26.9727E-03     54.3762E-03    -27.4031E-03     11.4849E-03    -1.69156E+06    -27.9146E+06    -108.912E+06    -27.9156E+06    -108.911E+06    -1.69156E+06     271.571E+03         26.1874
             367     8.75887E-03     51.6898E-03         1.10838    -303.160E-03    -329.510E-03    -316.228E-03         1.10820    -316.265E-03    -17.9927E-03     54.8565E-03    -27.3754E-03    -27.4642E-03    -27.0374E-03     54.5185E-03    -27.4642E-03     10.5058E-03    -1.84952E+06    -30.7616E+06    -134.929E+06    -30.7625E+06    -134.928E+06    -1.84952E+06     230.322E+03         25.3913
             368     7.78536E-03     51.6794E-03         1.10402    -307.939E-03    -322.458E-03    -313.607E-03         1.10384    -316.607E-03    -14.8197E-03     54.9182E-03    -27.3970E-03    -27.5176E-03    -27.1225E-03     54.6437E-03    -27.5176E-03     9.47933E-03    -3.66614E+06    -34.0950E+06    -159.018E+06    -34.0954E+06    -159.018E+06    -3.66614E+06     88.9309E+03         24.9300
             369     6.81208E-03     51.6698E-03         1.10601    -313.596E-03    -321.552E-03    -317.197E-03         1.10499    -316.931E-03     30.5977E-03     54.9997E-03    -27.4360E-03    -27.5660E-03    -27.2104E-03     54.7741E-03    -27.5660E-03     8.60183E-03    -6.80936E+06    -38.0302E+06    -181.622E+06    -38.0303E+06    -181.622E+06    -6.80936E+06    -105.776E+03         24.6680
             370     5.83881E-03     51.6612E-03         1.11216    -315.140E-03    -327.012E-03    -322.596E-03         1.10915    -316.545E-03    -32.9107E-03     55.0650E-03    -27.4686E-03    -27.5967E-03    -27.2855E-03     54.8819E-03    -27.5967E-03     7.75329E-03    -12.8128E+06    -42.5509E+06    -204.019E+06    -42.5512E+06    -204.019E+06    -12.8128E+06    -92.5493E+03         24.4848
             371     4.86565E-03     51.6535E-03         1.11623    -315.282E-03    -328.002E-03    -315.378E-03         1.10458    -316.255E-03     83.0141E-03     55.0776E-03    -27.4752E-03    -27.6034E-03    -27.3322E-03     54.9346E-03    -27.6034E-03     6.84862E-03    -21.0765E+06    -47.4489E+06    -225.145E+06    -47.4494E+06    -225.144E+06    -21.0765E+06    -191.005E+03         24.3391
             372     3.89233E-03     51.6468E-03         1.13577    -316.554E-03    -342.393E-03    -315.781E-03         1.10916    -316.554E-03    -66.1397E-03     55.0788E-03    -27.4825E-03    -27.5960E-03    -27.3792E-03     54.9755E-03    -27.5960E-03     5.81054E-03    -31.7942E+06    -52.5716E+06    -241.444E+06    -52.5721E+06    -241.444E+06    -31.7942E+06    -256.293E+03         24.2213
             373     2.91925E-03     51.6412E-03         1.16872    -316.621E-03    -375.257E-03    -317.279E-03         1.11074    -316.621E-03     122.481E-03     55.0815E-03    -27.5040E-03    -27.5774E-03    -27.4391E-03     55.0166E-03    -27.5774E-03     4.57981E-03    -44.0952E+06    -57.5132E+06    -252.860E+06    -57.5142E+06    -252.859E+06    -44.0952E+06     112.679E+03         24.1302
             374     1.94609E-03     51.6372E-03         1.26111    -320.691E-03    -464.020E-03    -304.237E-03         1.10133    -320.691E-03    -276.745E-03     55.0616E-03    -27.5122E-03    -27.5494E-03    -27.4805E-03     55.0289E-03    -27.5483E-03     3.21094E-03    -54.7407E+06    -61.9013E+06    -260.365E+06    -61.9023E+06    -260.364E+06    -54.7407E+06     117.801E+03         24.0679
             375     973.133E-06     51.6344E-03         2.04727    -263.300E-03        -1.30609     550.654E-03         1.12754        -1.20031     847.365E-03     55.0382E-03    -27.4612E-03    -27.5756E-03    -27.5552E-03     55.0269E-03    -27.4704E-03     1.77638E-03    -62.4261E+06    -65.2977E+06    -263.547E+06    -65.1863E+06    -263.546E+06    -62.5379E+06    -44.2662E+03         24.0342
             376     16.5504E-03     50.8249E-03         1.15758    -329.254E-03    -345.759E-03    -345.501E-03         1.15732    -329.254E-03     18.4096E-03     56.2291E-03    -26.4899E-03    -29.7981E-03    -25.5176E-03     52.9244E-03    -27.4657E-03     28.2741E-03     193.343E+06     134.738E+06    -9.03303E+06     -9.0325E+06     193.343E+06     134.738E+06    -170.290E+03         42.1418
             377     15.5755E-03     50.7759E-03         1.13643    -320.917E-03    -333.291E-03    -324.553E-03         1.13611    -329.335E-03     40.8782E-03     57.1669E-03    -27.2393E-03    -29.9515E-03    -25.7796E-03     52.9951E-03    -27.2393E-03     36.0481E-03     176.547E+06     84.6255E+06    -16.5259E+06    -16.5244E+06     176.546E+06     84.6255E+06    -250.579E+03         39.1879
             378     14.6013E-03     50.7488E-03         1.13060    -318.758E-03    -330.291E-03    -318.306E-03         1.13014    -330.291E-03    -9.67328E-03     55.6269E-03    -26.9988E-03    -28.6572E-03    -26.0068E-03     52.9765E-03    -26.9988E-03     29.2600E-03     156.239E+06     24.2712E+06    -20.6465E+06    -20.6442E+06     156.237E+06     24.2712E+06    -5.23514E+03         35.8696
             379     13.6272E-03     50.7144E-03         1.14899    -327.689E-03    -340.415E-03    -336.945E-03         1.14863    -330.803E-03    -17.8523E-03     55.6491E-03    -26.9556E-03    -28.7125E-03    -26.3468E-03     53.2834E-03    -26.9556E-03     27.3914E-03     97.0533E+06    -12.4599E+06    -22.2030E+06    -22.1927E+06     97.0429E+06    -12.4599E+06     175.514E+03         32.9632
             380     12.6530E-03     50.6909E-03         1.15687    -330.177E-03    -347.904E-03    -347.804E-03         1.15677    -330.177E-03     8.53367E-03     54.8846E-03    -27.1044E-03    -27.7991E-03    -26.5937E-03     53.6792E-03    -27.1044E-03     19.6622E-03     17.3989E+06    -17.0725E+06    -23.3544E+06    -23.3126E+06     13.8919E+06    -13.6074E+06    -183.637E+03         30.6950
             381     11.6794E-03     50.6730E-03         1.15621    -328.868E-03    -349.393E-03    -348.964E-03         1.15578    -328.868E-03    -28.1211E-03     54.7358E-03    -27.2307E-03    -27.5356E-03    -26.7926E-03     53.9929E-03    -27.2307E-03     15.4712E-03    -9.67420E+06    -21.5334E+06    -43.7612E+06    -24.4216E+06    -40.8730E+06    -9.67420E+06    -266.350E+03         28.8563
             382     10.7058E-03     50.6585E-03         1.15303    -327.496E-03    -343.594E-03    -343.003E-03         1.15244    -327.496E-03    -268.977E-06     54.6994E-03    -27.3140E-03    -27.4179E-03    -26.9024E-03     54.1927E-03    -27.3227E-03     12.8261E-03    -5.35334E+06    -25.8935E+06    -79.6846E+06    -25.8944E+06    -79.6836E+06    -5.35334E+06    -3.90617E+03         27.3462
             383     9.73236E-03     50.6460E-03         1.13140    -313.424E-03    -331.161E-03    -316.840E-03         1.13112    -327.473E-03     15.3976E-03     54.7543E-03    -27.3457E-03    -27.4098E-03    -26.9488E-03     54.3507E-03    -27.4030E-03     11.4774E-03    -1.43741E+06    -27.9743E+06    -108.913E+06    -27.9751E+06    -108.912E+06    -1.43741E+06     172.965E+03         26.1823
             384     8.75873E-03     50.6344E-03         1.11867    -302.503E-03    -329.662E-03    -302.394E-03         1.11856    -329.662E-03    -21.8990E-03     54.8618E-03    -27.3824E-03    -27.4643E-03    -27.0438E-03     54.5232E-03    -27.4643E-03     10.5168E-03    -1.56091E+06    -30.6849E+06    -134.543E+06    -30.6854E+06    -134.543E+06    -1.56091E+06     31.9725E+03         25.3887
             385     7.78549E-03     50.6239E-03         1.14148    -318.473E-03    -340.484E-03    -327.167E-03         1.14127    -331.582E-03    -29.7529E-03     54.9382E-03    -27.4189E-03    -27.5150E-03    -27.1446E-03     54.6640E-03    -27.5150E-03     9.47679E-03    -3.43323E+06    -34.0337E+06    -158.606E+06    -34.0340E+06    -158.606E+06    -3.43323E+06    -179.720E+03         24.9292
             386     6.81212E-03     50.6145E-03         1.15666    -330.641E-03    -349.398E-03    -349.157E-03         1.15642    -330.641E-03    -15.1955E-03     54.9805E-03    -27.4208E-03    -27.5612E-03    -27.1943E-03     54.7539E-03    -27.5612E-03     8.62015E-03    -6.90284E+06    -38.0121E+06    -181.487E+06    -38.0126E+06    -181.487E+06    -6.90284E+06    -237.739E+03         24.6675
             387     5.83880E-03     50.6057E-03         1.13739    -324.001E-03    -339.119E-03    -330.894E-03         1.13443    -329.264E-03    -88.5912E-03     55.0438E-03    -27.4511E-03    -27.5937E-03    -27.2656E-03     54.8583E-03    -27.5937E-03     7.80106E-03    -13.0831E+06    -42.5758E+06    -204.023E+06    -42.5765E+06    -204.023E+06    -13.0831E+06    -301.267E+03         24.4841
             388     4.86555E-03     50.5981E-03         1.13627    -324.914E-03    -334.776E-03    -320.358E-03         1.12712    -330.177E-03     44.7437E-03     55.0808E-03    -27.4794E-03    -27.6025E-03    -27.3358E-03     54.9372E-03    -27.6025E-03     6.86157E-03    -21.1889E+06    -47.5941E+06    -224.932E+06    -47.5948E+06    -224.931E+06    -21.1889E+06    -201.646E+03         24.3388
             389     3.89245E-03     50.5914E-03         1.16771    -330.274E-03    -357.925E-03    -337.856E-03         1.14764    -330.274E-03    -65.9075E-03     55.0789E-03    -27.4869E-03    -27.5924E-03    -27.3835E-03     54.9756E-03    -27.5924E-03     5.81247E-03    -32.2992E+06    -53.0654E+06    -241.612E+06    -53.0658E+06    -241.611E+06    -32.2992E+06    -47.7870E+03         24.2211
             390     2.91919E-03     50.5859E-03         1.17506    -330.249E-03    -367.095E-03    -325.103E-03         1.13307    -330.249E-03     85.9705E-03     55.0718E-03    -27.4983E-03    -27.5736E-03    -27.4334E-03     55.0069E-03    -27.5736E-03     4.57780E-03    -44.5568E+06    -57.9222E+06    -253.059E+06    -57.9234E+06    -253.058E+06    -44.5568E+06     100.893E+03         24.1300
             391     1.94612E-03     50.5817E-03         1.25557    -336.952E-03    -437.617E-03    -313.766E-03         1.13172    -336.952E-03    -271.679E-03     55.0587E-03    -27.5133E-03    -27.5460E-03    -27.4854E-03     55.0260E-03    -27.5412E-03     3.21381E-03    -55.2684E+06    -61.5303E+06    -260.056E+06    -61.5339E+06    -260.052E+06    -55.2684E+06     411.050E+03         24.0679
             392     972.995E-06     50.5791E-03         1.94999    -154.540E-03        -1.31407     541.999E-03         1.16659        -1.22720     692.046E-03     55.0127E-03    -27.4382E-03    -27.5740E-03    -27.5630E-03     55.0017E-03    -27.4382E-03     1.72814E-03    -62.6771E+06    -64.3236E+06    -263.404E+06    -64.1890E+06    -263.400E+06    -62.8155E+06    -17.0424E+03         24.0342
             393     16.5503E-03     49.7692E-03         1.14981    -326.661E-03    -342.727E-03    -328.724E-03         1.14932    -340.178E-03    -16.9994E-03     56.1955E-03    -26.4753E-03    -29.7787E-03    -25.5045E-03     52.9073E-03    -27.4613E-03     28.2308E-03     193.438E+06     134.669E+06    -8.62774E+06    -8.62704E+06     193.437E+06     134.669E+06    -175.682E+03         42.1323
             394     15.5758E-03     49.7209E-03         1.16556    -335.345E-03    -343.038E-03    -336.989E-03         1.16514    -340.971E-03    -8.10662E-03     57.1540E-03    -27.2381E-03    -29.9201E-03    -25.7468E-03     52.9808E-03    -27.2381E-03     36.0940E-03     176.692E+06     82.9659E+06    -15.7848E+06    -15.7829E+06     176.690E+06     82.9659E+06    -196.417E+03         39.1801
             395     14.6010E-03     49.6932E-03         1.16926    -338.787E-03    -344.242E-03    -341.255E-03         1.16893    -341.443E-03    -20.2690E-03     55.6571E-03    -27.0046E-03    -28.6595E-03    -26.0014E-03     52.9991E-03    -27.0046E-03     29.3271E-03     156.115E+06     23.2561E+06    -20.8126E+06    -20.8113E+06     156.114E+06     23.2561E+06    -139.846E+03         35.8619
             396     13.6270E-03     49.6590E-03         1.17258    -337.273E-03    -348.300E-03    -343.596E-03         1.17227    -341.671E-03    -23.7990E-03     55.6777E-03    -26.9584E-03    -28.7357E-03    -26.3742E-03     53.3162E-03    -26.9584E-03     27.3995E-03     97.1188E+06    -11.6433E+06    -22.8305E+06    -22.8242E+06     97.1125E+06    -11.6433E+06     67.3672E+03         32.9550
             397     12.6533E-03     49.6356E-03         1.17562    -337.516E-03    -351.694E-03    -347.540E-03         1.17557    -341.625E-03     5.97480E-03     54.8730E-03    -27.1034E-03    -27.7850E-03    -26.5689E-03     53.6570E-03    -27.1034E-03     19.7423E-03     17.9722E+06    -16.6209E+06    -23.1515E+06    -23.1105E+06     14.3461E+06    -13.0358E+06    -28.8266E+03         30.6870
             398     11.6794E-03     49.6176E-03         1.18276    -341.077E-03    -353.934E-03    -353.698E-03         1.18252    -341.077E-03    -18.7253E-03     54.7209E-03    -27.2297E-03    -27.5188E-03    -26.7720E-03     53.9741E-03    -27.2297E-03     15.5073E-03    -9.31973E+06    -21.3347E+06    -43.6689E+06    -24.0206E+06    -40.9830E+06    -9.31973E+06    -282.265E+03         28.8489
             399     10.7059E-03     49.6030E-03         1.17308    -334.293E-03    -347.639E-03    -340.862E-03         1.17274    -340.731E-03     94.4752E-06     54.6963E-03    -27.3143E-03    -27.4178E-03    -26.9035E-03     54.1906E-03    -27.3230E-03     12.8083E-03    -5.05009E+06    -25.5113E+06    -79.8215E+06    -25.5131E+06    -79.8198E+06    -5.05009E+06    -178.222E+03         27.3399
             400     9.73225E-03     49.5908E-03         1.16065    -325.836E-03    -341.990E-03    -325.817E-03         1.16034    -341.699E-03     24.6123E-03     54.7615E-03    -27.3651E-03    -27.4022E-03    -26.9636E-03     54.3598E-03    -27.4019E-03     11.4535E-03    -1.14498E+06    -27.5496E+06    -108.729E+06    -27.5499E+06    -108.729E+06    -1.14498E+06    -96.2436E+03         26.1777
             401     8.75892E-03     49.5789E-03         1.16775    -326.634E-03    -347.012E-03    -330.019E-03         1.16753    -343.404E-03     1.93269E-03     54.8579E-03    -27.3835E-03    -27.4610E-03    -27.0439E-03     54.5183E-03    -27.4610E-03     10.5319E-03    -1.43328E+06    -30.3022E+06    -134.212E+06    -30.3026E+06    -134.211E+06    -1.43328E+06    -160.872E+03         25.3859
             402     7.78544E-03     49.5685E-03         1.18391    -336.508E-03    -358.106E-03    -350.715E-03         1.18387    -343.853E-03    -3.65084E-03     54.9086E-03    -27.3912E-03    -27.5134E-03    -27.1153E-03     54.6327E-03    -27.5134E-03     9.50260E-03    -3.49057E+06    -33.6956E+06    -158.637E+06    -33.6963E+06    -158.636E+06    -3.49057E+06    -290.071E+03         24.9280
             403     6.81212E-03     49.5591E-03         1.18186    -338.689E-03    -359.632E-03    -355.630E-03         1.18178    -342.607E-03    -15.7383E-03     54.9775E-03    -27.4167E-03    -27.5612E-03    -27.1882E-03     54.7490E-03    -27.5612E-03     8.65761E-03    -7.01637E+06    -37.7158E+06    -181.432E+06    -37.7164E+06    -181.432E+06    -7.01637E+06    -292.315E+03         24.6671
             404     5.83880E-03     49.5505E-03         1.17046    -333.550E-03    -351.847E-03    -342.193E-03         1.16901    -341.759E-03    -71.8158E-03     55.0419E-03    -27.4477E-03    -27.5935E-03    -27.2616E-03     54.8558E-03    -27.5935E-03     7.81438E-03    -13.4424E+06    -42.5492E+06    -203.861E+06    -42.5498E+06    -203.861E+06    -13.4424E+06    -222.221E+03         24.4842
             405     4.86557E-03     49.5426E-03         1.17084    -332.366E-03    -350.658E-03    -332.246E-03         1.16297    -342.907E-03     82.3801E-03     55.0775E-03    -27.4727E-03    -27.6046E-03    -27.3292E-03     54.9339E-03    -27.6046E-03     6.86136E-03    -21.7070E+06    -47.8685E+06    -225.246E+06    -47.8691E+06    -225.245E+06    -21.7070E+06    -132.792E+03         24.3393
             406     3.89234E-03     49.5361E-03         1.18031    -338.440E-03    -354.905E-03    -333.581E-03         1.16613    -345.584E-03    -14.1471E-03     55.1020E-03    -27.5088E-03    -27.5948E-03    -27.4053E-03     54.9985E-03    -27.5948E-03     5.81832E-03    -32.2056E+06    -52.9919E+06    -241.577E+06    -52.9923E+06    -241.576E+06    -32.2056E+06     91.4504E+03         24.2219
             407     2.91928E-03     49.5305E-03         1.20288    -347.124E-03    -369.517E-03    -343.055E-03         1.17731    -348.018E-03     76.0755E-03     55.0937E-03    -27.5249E-03    -27.5708E-03    -27.4600E-03     55.0287E-03    -27.5708E-03     4.57922E-03    -43.9599E+06    -58.0030E+06    -252.989E+06    -58.0035E+06    -252.988E+06    -43.9599E+06     128.766E+03         24.1304
             408     1.94613E-03     49.5264E-03         1.27424    -340.078E-03    -447.306E-03    -375.432E-03         1.20236    -340.078E-03    -197.899E-03     55.0384E-03    -27.5036E-03    -27.5354E-03    -27.4746E-03     55.0057E-03    -27.5316E-03     3.21589E-03    -55.0357E+06    -62.1257E+06    -259.949E+06    -62.1297E+06    -259.945E+06    -55.0357E+06     119.637E+03         24.0676
             409     973.160E-06     49.5237E-03         1.78483    -32.8273E-03        -1.27485     521.496E-03         1.13950        -1.18384     539.655E-03     55.0024E-03    -27.4406E-03    -27.5610E-03    -27.5394E-03     54.9913E-03    -27.4511E-03     1.73869E-03    -62.3670E+06    -64.2018E+06    -262.883E+06    -64.1801E+06    -262.878E+06    -62.3936E+06    -28.9062E+03         24.0336
             410     16.5506E-03     48.7141E-03         1.17167    -333.777E-03    -350.202E-03    -331.906E-03         1.16980    -350.202E-03     30.3220E-03     56.2184E-03    -26.4897E-03    -29.7988E-03    -25.5176E-03     52.9127E-03    -27.4651E-03     28.3175E-03     193.780E+06     134.716E+06    -8.64575E+06    -8.64493E+06     193.779E+06     134.716E+06    -339.127E+03         42.1211
             411     15.5754E-03     48.6655E-03         1.18853    -345.928E-03    -352.238E-03    -346.477E-03         1.18805    -351.212E-03    -11.8217E-03     57.2250E-03    -27.2415E-03    -30.0031E-03    -25.8035E-03     53.0254E-03    -27.2415E-03     36.2388E-03     176.478E+06     82.0932E+06    -15.9139E+06    -15.9129E+06     176.476E+06     82.0932E+06    -155.877E+03         39.1704
             412     14.6014E-03     48.6379E-03         1.19372    -346.061E-03    -355.597E-03    -349.436E-03         1.19327    -351.772E-03    -17.7051E-03     55.6765E-03    -27.0020E-03    -28.6850E-03    -26.0253E-03     53.0168E-03    -27.0020E-03     29.3515E-03     156.300E+06     22.2505E+06    -20.1499E+06    -20.1495E+06     156.300E+06     22.2505E+06     146.168E+03         35.8529
             413     13.6272E-03     48.6035E-03         1.19069    -341.333E-03    -355.271E-03    -343.605E-03         1.19016    -352.471E-03    -14.7493E-03     55.6338E-03    -26.9505E-03    -28.6952E-03    -26.3402E-03     53.2788E-03    -26.9505E-03     27.3562E-03     97.2361E+06    -12.0799E+06    -21.9602E+06    -21.9583E+06     97.2342E+06    -12.0799E+06    -189.208E+03         32.9463
             414     12.6531E-03     48.5803E-03         1.19802    -345.468E-03    -355.949E-03    -347.752E-03         1.19762    -353.273E-03     30.2533E-03     54.8942E-03    -27.0987E-03    -27.8098E-03    -26.5868E-03     53.6711E-03    -27.0987E-03     19.8081E-03     17.7435E+06    -16.8535E+06    -22.7351E+06    -22.7251E+06     14.2935E+06    -13.4134E+06    -277.585E+03         30.6788
             415     11.6795E-03     48.5621E-03         1.20200    -347.408E-03    -356.805E-03    -349.851E-03         1.20151    -353.872E-03    -16.1884E-03     54.7330E-03    -27.2279E-03    -27.5329E-03    -26.7820E-03     53.9821E-03    -27.2279E-03     15.5475E-03    -9.38800E+06    -20.6948E+06    -43.6263E+06    -23.4648E+06    -40.8563E+06    -9.38800E+06    -179.348E+03         28.8416
             416     10.7058E-03     48.5478E-03         1.19328    -340.707E-03    -355.136E-03    -340.603E-03         1.19292    -354.879E-03    -17.0818E-03     54.6917E-03    -27.3206E-03    -27.4067E-03    -26.9006E-03     54.1856E-03    -27.3206E-03     12.8146E-03    -5.40893E+06    -24.9950E+06    -79.9032E+06    -24.9971E+06    -79.9010E+06    -5.40893E+06    -255.778E+03         27.3339
             417     9.73240E-03     48.5352E-03         1.19849    -343.712E-03    -357.153E-03    -344.264E-03         1.19818    -356.297E-03     13.0467E-03     54.7650E-03    -27.3704E-03    -27.4015E-03    -26.9679E-03     54.3600E-03    -27.3990E-03     11.5011E-03    -1.55677E+06    -27.2638E+06    -108.586E+06    -27.2644E+06    -108.585E+06    -1.55677E+06    -201.631E+03         26.1733
             418     8.75887E-03     48.5236E-03         1.21229    -353.515E-03    -361.468E-03    -357.728E-03         1.21203    -357.004E-03     1.33859E-03     54.8460E-03    -27.3746E-03    -27.4586E-03    -27.0310E-03     54.5024E-03    -27.4586E-03     10.5928E-03    -1.85533E+06    -30.1583E+06    -134.117E+06    -30.1590E+06    -134.116E+06    -1.85533E+06    -256.315E+03         25.3833
             419     7.78546E-03     48.5132E-03         1.20817    -349.952E-03    -363.645E-03    -356.366E-03         1.20808    -357.148E-03     12.4791E-03     54.9063E-03    -27.3898E-03    -27.5132E-03    -27.1128E-03     54.6292E-03    -27.5132E-03     9.51931E-03    -3.78104E+06    -33.6003E+06    -158.687E+06    -33.6011E+06    -158.686E+06    -3.78104E+06    -267.876E+03         24.9270
             420     6.81204E-03     48.5037E-03         1.19738    -342.082E-03    -361.190E-03    -344.850E-03         1.19726    -358.303E-03     255.859E-06     54.9816E-03    -27.4205E-03    -27.5618E-03    -27.1942E-03     54.7553E-03    -27.5618E-03     8.61581E-03    -7.19734E+06    -37.7958E+06    -181.388E+06    -37.7962E+06    -181.388E+06    -7.19734E+06    -95.2024E+03         24.6673
             421     5.83882E-03     48.4950E-03         1.21349    -350.001E-03    -365.238E-03    -355.242E-03         1.21330    -359.798E-03    -30.7461E-03     55.0390E-03    -27.4441E-03    -27.5938E-03    -27.2597E-03     54.8547E-03    -27.5938E-03     7.77758E-03    -13.5595E+06    -42.5364E+06    -203.731E+06    -42.5366E+06    -203.730E+06    -13.5595E+06    -16.4785E+03         24.4849
             422     4.86553E-03     48.4874E-03         1.22204    -354.189E-03    -368.935E-03    -359.270E-03         1.21863    -360.440E-03     76.2897E-03     55.0699E-03    -27.4624E-03    -27.6067E-03    -27.3193E-03     54.9267E-03    -27.6067E-03     6.85207E-03    -21.8248E+06    -47.6880E+06    -225.326E+06    -47.6883E+06    -225.326E+06    -21.8248E+06     -43.843E+03         24.3403
             423     3.89236E-03     48.4806E-03         1.22011    -354.363E-03    -369.748E-03    -354.750E-03         1.21225    -361.507E-03    -18.9198E-03     55.1030E-03    -27.5031E-03    -27.6005E-03    -27.3993E-03     54.9993E-03    -27.6005E-03     5.82648E-03    -32.1720E+06    -53.0920E+06    -241.760E+06    -53.0924E+06    -241.760E+06    -32.1720E+06     97.0985E+03         24.2230
             424     2.91924E-03     48.4751E-03         1.22653    -356.508E-03    -379.605E-03    -361.831E-03         1.21477    -362.526E-03     33.6796E-03     55.1123E-03    -27.5390E-03    -27.5746E-03    -27.4732E-03     55.0465E-03    -27.5746E-03     4.61602E-03    -43.8833E+06    -58.1830E+06    -252.616E+06    -58.1834E+06    -252.616E+06    -43.8833E+06     160.532E+03         24.1311
             425     1.94621E-03     48.4711E-03         1.24614    -351.926E-03    -409.925E-03    -370.593E-03         1.21495    -360.066E-03    -125.839E-03     55.0485E-03    -27.5159E-03    -27.5326E-03    -27.4826E-03     55.0152E-03    -27.5326E-03     3.23510E-03    -54.5241E+06    -62.3189E+06    -259.718E+06    -62.3205E+06    -259.716E+06    -54.5241E+06    -291.239E+03         24.0675
             426     972.969E-06     48.4684E-03         1.60404     144.270E-03        -1.26991     516.995E-03         1.19335        -1.23194     363.693E-03     54.9877E-03    -27.4394E-03    -27.5478E-03    -27.5260E-03     54.9767E-03    -27.4502E-03     1.73429E-03    -63.0313E+06    -65.5172E+06    -262.881E+06    -65.5187E+06    -262.879E+06    -63.0313E+06    -206.977E+03         24.0325
             427     16.5500E-03     47.6587E-03         1.21977    -354.707E-03    -363.527E-03    -355.872E-03         1.21829    -360.878E-03     39.0417E-03     56.2232E-03    -26.4286E-03    -29.8719E-03    -25.5049E-03     52.9058E-03    -27.4781E-03     28.3692E-03     194.158E+06     134.839E+06    -8.98252E+06    -8.98224E+06     194.157E+06     134.839E+06    -218.294E+03         42.1078
             428     15.5757E-03     47.6101E-03         1.21809    -356.373E-03    -364.077E-03    -358.879E-03         1.21796    -361.446E-03     9.34285E-03     57.3429E-03    -27.2566E-03    -30.1160E-03    -25.8968E-03     53.1237E-03    -27.2566E-03     36.3755E-03     176.442E+06     82.2166E+06    -16.0990E+06    -16.0969E+06     176.440E+06     82.2166E+06    -448.929E+03         39.1586
             429     14.6012E-03     47.5822E-03         1.21461    -348.810E-03    -364.886E-03    -350.810E-03         1.21398    -362.255E-03    -26.4923E-03     55.7109E-03    -27.0065E-03    -28.7217E-03    -26.0532E-03     53.0423E-03    -27.0065E-03     29.4126E-03     155.861E+06     21.2859E+06    -20.1736E+06    -20.1713E+06     155.859E+06     21.2859E+06    -391.103E+03         35.8423
             430     13.6270E-03     47.5485E-03         1.21274    -343.661E-03    -363.687E-03    -342.882E-03         1.21196    -363.687E-03    -10.5406E-03     55.6428E-03    -26.9458E-03    -28.7120E-03    -26.3481E-03     53.2789E-03    -26.9458E-03     27.4169E-03     97.6196E+06    -13.0622E+06    -21.4570E+06    -21.4550E+06     97.6176E+06    -13.0622E+06     2.21302E+03         32.9367
             431     12.6532E-03     47.5248E-03         1.21766    -348.481E-03    -365.369E-03    -347.991E-03         1.21717    -365.369E-03     37.7368E-03     54.9134E-03    -27.0945E-03    -27.8359E-03    -26.6100E-03     53.6874E-03    -27.0945E-03     19.8269E-03     17.9722E+06    -17.5434E+06    -22.3623E+06    -22.3519E+06     14.5177E+06    -14.0993E+06    -73.0412E+03         30.6702
             432     11.6794E-03     47.5068E-03         1.21773    -347.086E-03    -367.113E-03    -346.659E-03         1.21730    -367.113E-03    -15.6033E-03     54.7302E-03    -27.2249E-03    -27.5353E-03    -26.7875E-03     53.9824E-03    -27.2249E-03     15.5197E-03    -10.1042E+06    -21.1960E+06    -43.3781E+06    -23.6394E+06    -40.9347E+06    -10.1042E+06    -158.295E+03         28.8342
             433     10.7059E-03     47.4923E-03         1.23568    -355.160E-03    -378.180E-03    -364.804E-03         1.23546    -368.311E-03    -17.1609E-03     54.6752E-03    -27.3053E-03    -27.4058E-03    -26.8853E-03     54.1674E-03    -27.3180E-03     12.8340E-03    -6.06594E+06    -25.1637E+06    -79.8755E+06    -25.1641E+06    -79.8751E+06    -6.06594E+06    -106.357E+03         27.3278
             434     9.73224E-03     47.4799E-03         1.24739    -364.711E-03    -381.098E-03    -377.507E-03         1.24723    -368.143E-03    -11.9001E-03     54.7530E-03    -27.3589E-03    -27.4008E-03    -26.9552E-03     54.3470E-03    -27.3986E-03     11.5125E-03    -2.11910E+06    -27.4505E+06    -108.607E+06    -27.4511E+06    -108.606E+06    -2.11910E+06    -173.282E+03         26.1688
             435     8.75881E-03     47.4683E-03         1.22509    -351.644E-03    -371.655E-03    -354.482E-03         1.22484    -368.570E-03    -35.5695E-03     54.8701E-03    -27.3965E-03    -27.4591E-03    -27.0552E-03     54.5288E-03    -27.4591E-03     10.5573E-03    -2.12393E+06    -30.4499E+06    -133.927E+06    -30.4505E+06    -133.927E+06    -2.12393E+06    -144.685E+03         25.3809
             436     7.78542E-03     47.4578E-03         1.21526    -342.761E-03    -371.269E-03    -342.498E-03         1.21500    -371.269E-03     6.27185E-03     54.9257E-03    -27.4095E-03    -27.5110E-03    -27.1354E-03     54.6516E-03    -27.5110E-03     9.47300E-03    -3.98516E+06    -34.0883E+06    -158.554E+06    -34.0887E+06    -158.553E+06    -3.98516E+06    -66.2474E+03         24.9263
             437     6.81219E-03     47.4483E-03         1.23726    -356.977E-03    -375.151E-03    -357.029E-03         1.23660    -374.437E-03    -10.4826E-03     54.9670E-03    -27.4097E-03    -27.5573E-03    -27.1845E-03     54.7417E-03    -27.5573E-03     8.59364E-03    -7.57033E+06    -38.3247E+06    -181.440E+06    -38.3248E+06    -181.440E+06    -7.57033E+06    -4.93268E+03         24.6670
             438     5.83878E-03     47.4396E-03         1.25481    -368.998E-03    -378.687E-03    -370.868E-03         1.25423    -376.241E-03    -46.3479E-03     55.0235E-03    -27.4303E-03    -27.5919E-03    -27.2467E-03     54.8399E-03    -27.5919E-03     7.76053E-03    -13.7014E+06    -42.9990E+06    -203.765E+06    -42.9994E+06    -203.764E+06    -13.7014E+06     55.2095E+03         24.4848
             439     4.86555E-03     47.4320E-03         1.26618    -374.612E-03    -386.253E-03    -384.015E-03         1.26530    -375.976E-03     33.9853E-03     55.0662E-03    -27.4595E-03    -27.6068E-03    -27.3168E-03     54.9235E-03    -27.6068E-03     6.83907E-03    -21.7996E+06    -48.1045E+06    -225.209E+06    -48.1049E+06    -225.208E+06    -21.7996E+06     84.1011E+03         24.3405
             440     3.89233E-03     47.4253E-03         1.26516    -373.254E-03    -391.597E-03    -389.210E-03         1.26278    -373.254E-03    -23.7440E-03     55.0852E-03    -27.4814E-03    -27.6042E-03    -27.3781E-03     54.9818E-03    -27.6042E-03     5.81404E-03    -32.0848E+06    -53.3529E+06    -241.742E+06    -53.3531E+06    -241.742E+06    -32.0848E+06     61.3896E+03         24.2233
             441     2.91916E-03     47.4197E-03         1.22494    -347.957E-03    -384.621E-03    -353.843E-03         1.22102    -374.823E-03     3.67054E-03     55.1010E-03    -27.5143E-03    -27.5865E-03    -27.4484E-03     55.0351E-03    -27.5865E-03     4.61884E-03    -43.7282E+06      -58.11E+06    -252.301E+06    -58.1102E+06    -252.300E+06    -43.7282E+06    -82.7542E+03         24.1313
             442     1.94607E-03     47.4156E-03         1.24362    -355.857E-03    -395.498E-03    -356.332E-03         1.23433    -385.738E-03    -57.6983E-03     55.0935E-03    -27.5275E-03    -27.5659E-03    -27.5157E-03     55.0605E-03    -27.5447E-03     3.21276E-03    -54.5860E+06    -62.6305E+06    -259.499E+06    -62.6319E+06    -259.497E+06    -54.5860E+06     24.2086E+03         24.0673
             443     973.209E-06     47.4131E-03         1.43499     329.419E-03        -1.27671     480.930E-03         1.27372        -1.26695     125.758E-03     54.9880E-03    -27.4273E-03    -27.5611E-03    -27.5503E-03     54.9775E-03    -27.4275E-03     1.70731E-03    -63.5782E+06    -66.7687E+06    -263.155E+06    -66.4392E+06    -263.153E+06    -63.9091E+06     140.815E+03         24.0313
             444     16.5501E-03     46.6035E-03         1.24459    -357.694E-03    -373.368E-03    -360.124E-03         1.24437    -370.720E-03    -4.47662E-03     56.2317E-03    -26.4280E-03    -29.8803E-03    -25.5146E-03     52.9185E-03    -27.4805E-03     28.3314E-03     194.404E+06     135.012E+06    -8.75244E+06    -8.75224E+06     194.403E+06     135.012E+06    -104.456E+03         42.0932
             445     15.5753E-03     46.5544E-03         1.24062    -359.017E-03    -373.294E-03    -360.501E-03         1.24050    -371.689E-03     7.05890E-03     57.2749E-03    -27.2630E-03    -30.0420E-03    -25.8511E-03     53.0840E-03    -27.2630E-03     36.1872E-03     176.655E+06     83.4494E+06    -16.3960E+06    -16.3940E+06     176.653E+06     83.4494E+06    -443.660E+03         39.1454
             446     14.6011E-03     46.5271E-03         1.23949    -357.202E-03    -374.461E-03    -358.338E-03         1.23902    -372.856E-03    -41.7749E-03     55.6798E-03    -27.0169E-03    -28.6810E-03    -26.0242E-03     53.0230E-03    -27.0169E-03     29.3151E-03     155.399E+06     22.2209E+06    -21.4191E+06    -21.4158E+06     155.396E+06     22.2209E+06    -641.235E+03         35.8305
             447     13.6270E-03     46.4929E-03         1.23833    -352.195E-03    -374.458E-03    -351.526E-03         1.23766    -374.458E-03    -9.76524E-03     55.7077E-03    -26.9532E-03    -28.7735E-03    -26.4093E-03     53.3435E-03    -26.9532E-03     27.4068E-03     97.4835E+06    -13.1389E+06    -23.0657E+06    -23.0623E+06     97.4800E+06    -13.1389E+06    -293.492E+03         32.9263
             448     12.6531E-03     46.4695E-03         1.23397    -345.300E-03    -376.747E-03    -344.998E-03         1.23367    -376.747E-03     9.44921E-03     54.9086E-03    -27.0965E-03    -27.8318E-03    -26.6183E-03     53.6951E-03    -27.0965E-03     19.7417E-03     18.1676E+06    -17.4240E+06    -23.3765E+06    -23.3671E+06     14.8867E+06    -14.1525E+06     62.0215E+03         30.6611
             449     11.6794E-03     46.4514E-03         1.23821    -348.412E-03    -379.464E-03    -348.182E-03         1.23798    -379.464E-03    -24.1028E-03     54.7016E-03    -27.2244E-03    -27.5083E-03    -26.7607E-03     53.9541E-03    -27.2244E-03     15.5063E-03    -10.2686E+06    -21.7535E+06    -43.5008E+06    -24.3700E+06    -40.8842E+06    -10.2686E+06        -316.459         28.8265
             450     10.7058E-03     46.4369E-03         1.26488    -367.169E-03    -391.009E-03    -376.670E-03         1.26451    -381.139E-03     16.2781E-03     54.6769E-03    -27.3044E-03    -27.4069E-03    -26.8909E-03     54.1736E-03    -27.3171E-03     12.7774E-03    -6.15464E+06    -25.9783E+06    -79.6451E+06    -25.9793E+06    -79.6441E+06    -6.15464E+06    -160.443E+03         27.3216
             451     9.73226E-03     46.4246E-03         1.27235    -375.116E-03    -393.328E-03    -386.926E-03         1.27206    -381.229E-03     24.7195E-03     54.7691E-03    -27.3718E-03    -27.4018E-03    -26.9759E-03     54.3674E-03    -27.3959E-03     11.4550E-03    -2.28765E+06    -28.0434E+06    -108.566E+06    -28.0445E+06    -108.565E+06    -2.28765E+06    -170.745E+03         26.1643
             452     8.75886E-03     46.4128E-03         1.25250    -362.525E-03    -385.986E-03    -366.349E-03         1.25233    -381.992E-03    -14.3688E-03     54.8728E-03    -27.4024E-03    -27.4556E-03    -27.0657E-03     54.5361E-03    -27.4556E-03     10.4873E-03    -2.10436E+06    -30.8416E+06    -133.924E+06    -30.8419E+06    -133.924E+06    -2.10436E+06     6.47898E+03         25.3783
             453     7.78555E-03     46.4024E-03         1.25258    -362.365E-03    -386.071E-03    -363.578E-03         1.25203    -384.305E-03     21.2167E-03     54.9004E-03    -27.3878E-03    -27.5073E-03    -27.1158E-03     54.6284E-03    -27.5073E-03     9.43614E-03    -3.95173E+06    -34.3371E+06    -158.520E+06    -34.3372E+06    -158.520E+06    -3.95173E+06     89.1461E+03         24.9252
             454     6.81207E-03     46.3929E-03         1.27226    -378.408E-03    -387.033E-03    -377.684E-03         1.27083    -386.319E-03    -21.1354E-03     54.9506E-03    -27.3965E-03    -27.5549E-03    -27.1712E-03     54.7253E-03    -27.5549E-03     8.59294E-03    -7.51875E+06    -38.5356E+06    -181.356E+06    -38.5357E+06    -181.356E+06    -7.51875E+06    -18.5570E+03         24.6660
             455     5.83885E-03     46.3843E-03         1.28294    -383.745E-03    -389.180E-03    -384.584E-03         1.28184    -387.234E-03    -56.5913E-03     55.0184E-03    -27.4274E-03    -27.5907E-03    -27.2437E-03     54.8348E-03    -27.5907E-03     7.76123E-03    -13.6254E+06    -43.3234E+06    -203.837E+06    -43.3238E+06    -203.837E+06    -13.6254E+06     50.2174E+03         24.4838
             456     4.86554E-03     46.3765E-03         1.28196    -378.410E-03    -394.563E-03    -384.719E-03         1.28155    -387.841E-03     32.1743E-03     55.0586E-03    -27.4540E-03    -27.6061E-03    -27.3108E-03     54.9154E-03    -27.6061E-03     6.84986E-03    -21.6264E+06    -48.4236E+06    -225.074E+06    -48.4240E+06    -225.073E+06    -21.6264E+06     138.639E+03         24.3399
             457     3.89237E-03     46.3699E-03         1.28611    -379.604E-03    -401.237E-03    -392.229E-03         1.28517    -387.671E-03    -4.97776E-03     55.0807E-03    -27.4821E-03    -27.6006E-03    -27.3793E-03     54.9778E-03    -27.6006E-03     5.79757E-03    -32.3600E+06    -53.5944E+06    -241.205E+06    -53.5952E+06    -241.205E+06    -32.3600E+06    -167.024E+03         24.2228
             458     2.91920E-03     46.3643E-03         1.27698    -366.094E-03    -407.665E-03    -383.924E-03         1.27498    -387.835E-03    -61.9211E-03     55.0781E-03    -27.4952E-03    -27.5840E-03    -27.4300E-03     55.0129E-03    -27.5840E-03     4.59455E-03    -44.5368E+06    -58.6763E+06    -252.434E+06    -58.6775E+06    -252.432E+06    -44.5368E+06    -115.014E+03         24.1304
             459     1.94610E-03     46.3601E-03         1.28943    -363.178E-03    -423.968E-03    -399.252E-03         1.28646    -384.919E-03    -15.3335E-03     55.0739E-03    -27.4945E-03    -27.5792E-03    -27.4825E-03     55.0407E-03    -27.5580E-03     3.22911E-03    -55.2772E+06    -63.1244E+06    -259.750E+06    -63.1260E+06    -259.748E+06    -55.2772E+06     344.044E+03         24.0665
             460     973.024E-06     46.3575E-03         1.42540     332.727E-03        -1.25913     469.550E-03         1.26128        -1.23184    -139.021E-03     55.0550E-03    -27.4298E-03    -27.6243E-03    -27.5902E-03     55.0446E-03    -27.4533E-03     1.65301E-03    -63.2164E+06    -66.3232E+06    -262.611E+06     -65.994E+06    -262.609E+06    -63.5472E+06     394.094E+03         24.0316
             461     16.5503E-03     45.5482E-03         1.24872    -352.527E-03    -379.971E-03    -352.320E-03         1.24851    -379.971E-03     5.99155E-03     56.2750E-03    -26.4960E-03    -29.8587E-03    -25.5493E-03     52.9410E-03    -27.4713E-03     28.3814E-03     194.494E+06     134.874E+06    -8.64856E+06    -8.64760E+06     194.493E+06     134.874E+06     64.2995E+03         42.0775
             462     15.5758E-03     45.4990E-03         1.25290    -355.818E-03    -381.934E-03    -355.674E-03         1.25276    -381.934E-03     16.7556E-03     57.1936E-03    -27.2524E-03    -29.9767E-03    -25.7879E-03     53.0048E-03    -27.2524E-03     36.0871E-03     176.958E+06     83.4216E+06    -16.3827E+06    -16.3818E+06     176.957E+06     83.4216E+06     26.5775E+03         39.1314
             463     14.6011E-03     45.4720E-03         1.26378    -366.870E-03    -383.676E-03    -366.600E-03         1.26351    -383.676E-03    -27.0481E-03     55.6480E-03    -27.0115E-03    -28.6613E-03    -26.0122E-03     52.9989E-03    -27.0115E-03     29.2431E-03     155.896E+06     22.6589E+06    -21.3216E+06    -21.3204E+06     155.895E+06     22.6589E+06    -322.840E+03         35.8179
             464     13.6270E-03     45.4371E-03         1.26918    -366.710E-03    -385.238E-03    -366.302E-03         1.26877    -385.238E-03    -6.14046E-03     55.7023E-03    -26.9529E-03    -28.7692E-03    -26.4055E-03     53.3385E-03    -26.9529E-03     27.3662E-03     96.9626E+06    -12.7867E+06    -23.4034E+06    -23.4001E+06     96.9593E+06    -12.7867E+06    -521.268E+03         32.9152
             465     12.6533E-03     45.4143E-03         1.26233    -353.830E-03    -387.480E-03    -353.580E-03         1.26208    -387.480E-03     5.67235E-03     54.8858E-03    -27.0975E-03    -27.8084E-03    -26.6085E-03     53.6859E-03    -27.0975E-03     19.6439E-03     17.5534E+06    -16.6688E+06    -24.1997E+06    -24.1929E+06     14.7003E+06    -13.8225E+06    -206.837E+03         30.6517
             466     11.6794E-03     45.3959E-03         1.26604    -357.975E-03    -390.327E-03    -357.827E-03         1.26589    -390.327E-03    -18.3588E-03     54.6982E-03    -27.2234E-03    -27.5039E-03    -26.7554E-03     53.9497E-03    -27.2234E-03     15.5085E-03    -10.0448E+06    -21.3749E+06    -44.1080E+06    -24.9151E+06    -40.5679E+06    -10.0448E+06    -88.0379E+03         28.8186
             467     10.7059E-03     45.3816E-03         1.26254    -358.545E-03    -393.436E-03    -358.264E-03         1.26225    -393.436E-03     12.8735E-03     54.6937E-03    -27.3154E-03    -27.4099E-03    -26.9081E-03     54.1919E-03    -27.3154E-03     12.7635E-03    -5.85141E+06    -26.3306E+06    -79.4308E+06    -26.3333E+06    -79.4281E+06    -5.85141E+06    -273.029E+03         27.3153
             468     9.73237E-03     45.3691E-03         1.27051    -363.583E-03    -396.873E-03    -363.323E-03         1.27025    -396.873E-03     27.0935E-03     54.7820E-03    -27.3721E-03    -27.4129E-03    -26.9909E-03     54.3793E-03    -27.3915E-03     11.4697E-03    -2.16745E+06    -28.4892E+06    -108.478E+06    -28.4910E+06    -108.476E+06    -2.16745E+06    -239.572E+03         26.1598
             469     8.75897E-03     45.3574E-03         1.30876    -387.046E-03    -414.079E-03    -402.483E-03         1.30863    -398.504E-03    -3.54291E-03     54.8412E-03    -27.3768E-03    -27.4506E-03    -27.0391E-03     54.5035E-03    -27.4506E-03     10.4988E-03    -2.05235E+06    -31.0946E+06    -134.170E+06    -31.0958E+06    -134.169E+06    -2.05235E+06    -204.668E+03         25.3756
             470     7.78546E-03     45.3470E-03         1.32225    -396.467E-03    -419.776E-03    -418.500E-03         1.32161    -397.097E-03     27.7741E-03     54.8838E-03    -27.3752E-03    -27.5043E-03    -27.1033E-03     54.6119E-03    -27.5043E-03     9.43077E-03    -3.65914E+06    -34.3444E+06    -158.452E+06    -34.3449E+06    -158.452E+06    -3.65914E+06    -114.105E+03         24.9238
             471     6.81222E-03     45.3376E-03         1.30308    -389.093E-03    -403.085E-03    -394.369E-03         1.30125    -395.980E-03    -21.7506E-03     54.9431E-03    -27.3901E-03    -27.5535E-03    -27.1660E-03     54.7190E-03    -27.5535E-03     8.57008E-03    -7.07114E+06    -38.3428E+06    -181.225E+06    -38.3430E+06    -181.225E+06    -7.07114E+06    -19.8320E+03         24.6651
             472     5.83878E-03     45.3289E-03         1.29888    -387.768E-03    -398.195E-03    -387.551E-03         1.29743    -396.962E-03    -40.7186E-03     55.0104E-03    -27.4212E-03    -27.5886E-03    -27.2381E-03     54.8273E-03    -27.5886E-03     7.74819E-03    -13.2945E+06    -42.8964E+06    -203.819E+06    -42.8965E+06    -203.819E+06    -13.2945E+06    -39.6077E+03         24.4831
             473     4.86558E-03     45.3213E-03         1.29772    -384.713E-03    -400.449E-03    -385.290E-03         1.29707    -399.216E-03     17.8305E-03     55.0549E-03    -27.4532E-03    -27.6036E-03    -27.3105E-03     54.9122E-03    -27.6036E-03     6.83893E-03    -21.1863E+06    -47.8533E+06    -224.881E+06    -47.8534E+06    -224.881E+06    -21.1863E+06    -8.12680E+03         24.3392
             474     3.89232E-03     45.3145E-03         1.31427    -389.516E-03    -410.044E-03    -397.826E-03         1.31362    -401.084E-03     6.63387E-03     55.0755E-03    -27.4811E-03    -27.5968E-03    -27.3783E-03     54.9726E-03    -27.5968E-03     5.79659E-03    -32.0605E+06    -53.1583E+06    -240.780E+06    -53.1592E+06    -240.779E+06    -32.0605E+06    -51.5310E+03         24.2220
             475     2.91924E-03     45.3090E-03         1.34277    -396.505E-03    -431.023E-03    -426.703E-03         1.33845    -396.505E-03    -105.394E-03     55.0739E-03    -27.4980E-03    -27.5775E-03    -27.4328E-03     55.0087E-03    -27.5775E-03     4.59668E-03    -44.7946E+06    -58.2960E+06    -252.751E+06    -58.2973E+06    -252.749E+06    -44.7946E+06    -36.9737E+03         24.1296
             476     1.94607E-03     45.3048E-03         1.34027    -383.110E-03    -434.295E-03    -416.705E-03         1.32268    -383.110E-03     70.6969E-03     55.0426E-03    -27.4805E-03    -27.5626E-03    -27.4473E-03     55.0094E-03    -27.5626E-03     3.22944E-03    -55.0055E+06    -62.2940E+06    -259.902E+06    -62.2945E+06    -259.902E+06    -55.0055E+06     111.336E+03         24.0662
             477     972.940E-06     45.3022E-03         1.56338     228.236E-03        -1.26704     492.045E-03         1.27395        -1.24141    -282.032E-03     55.0855E-03    -27.4536E-03    -27.6310E-03    -27.5738E-03     55.0748E-03    -27.5001E-03     1.69813E-03    -62.6985E+06    -65.4305E+06    -262.004E+06    -65.3737E+06    -262.003E+06    -62.7564E+06     387.702E+03         24.0328
             478     16.5504E-03     44.4928E-03         1.26612    -355.750E-03    -390.687E-03    -354.687E-03         1.26506    -390.687E-03     49.2109E-03     56.2542E-03    -26.5075E-03    -29.8320E-03    -25.5422E-03     52.9214E-03    -27.4645E-03     28.3888E-03     194.471E+06     134.714E+06    -8.87358E+06    -8.87264E+06     194.470E+06     134.714E+06     73.0696E+03         42.0609
             479     15.5755E-03     44.4437E-03         1.27602    -362.861E-03    -393.091E-03    -362.297E-03         1.27545    -393.091E-03     41.1108E-03     57.2113E-03    -27.2398E-03    -30.0106E-03    -25.8062E-03     53.0069E-03    -27.2398E-03     36.1936E-03     177.176E+06     82.7389E+06    -16.0806E+06    -16.0794E+06     177.175E+06     82.7389E+06     184.916E+03         39.1165
             480     14.6013E-03     44.4164E-03         1.29243    -378.134E-03    -395.033E-03    -377.260E-03         1.29155    -395.033E-03     2.75119E-03     55.6675E-03    -26.9984E-03    -28.6927E-03    -26.0386E-03     53.0133E-03    -26.9984E-03     29.2968E-03     156.462E+06     22.3467E+06    -20.6354E+06    -20.6350E+06     156.462E+06     22.3467E+06     42.4585E+03         35.8048
             481     13.6271E-03     44.3819E-03         1.29576    -374.344E-03    -396.779E-03    -373.842E-03         1.29526    -396.779E-03    -10.1697E-03     55.6355E-03    -26.9468E-03    -28.7029E-03    -26.3425E-03     53.2751E-03    -26.9468E-03     27.3535E-03     96.9311E+06    -12.5154E+06    -22.7876E+06    -22.7860E+06     96.9295E+06    -12.5154E+06    -223.617E+03         32.9038
             482     12.6531E-03     44.3588E-03         1.29561    -369.673E-03    -399.023E-03    -369.379E-03         1.29532    -399.023E-03     27.3424E-03     54.8703E-03    -27.0951E-03    -27.7924E-03    -26.5878E-03     53.6658E-03    -27.0951E-03     19.6597E-03     17.3846E+06    -16.4447E+06    -23.7546E+06    -23.7317E+06     14.4698E+06    -13.5529E+06    -393.261E+03         30.6418
             483     11.6796E-03     44.3406E-03         1.30169    -376.270E-03    -401.432E-03    -376.100E-03         1.30152    -401.432E-03     1.05150E-03     54.7272E-03    -27.2212E-03    -27.5359E-03    -26.7882E-03     53.9794E-03    -27.2212E-03     15.5199E-03    -9.80325E+06      -21.13E+06    -43.9268E+06    -24.6845E+06    -40.3723E+06    -9.80325E+06    -384.652E+03         28.8104
             484     10.7059E-03     44.3261E-03         1.29086    -365.977E-03    -404.402E-03    -365.787E-03         1.29067    -404.402E-03    -21.4578E-03     54.6914E-03    -27.3138E-03    -27.4121E-03    -26.9044E-03     54.1837E-03    -27.3138E-03     12.8339E-03    -5.51469E+06    -26.0595E+06    -79.3777E+06    -26.0625E+06    -79.3747E+06    -5.51469E+06    -306.183E+03         27.3089
             485     9.73243E-03     44.3136E-03         1.29718    -367.815E-03    -408.302E-03    -367.640E-03         1.29701    -408.302E-03    -6.07228E-03     54.7623E-03    -27.3605E-03    -27.4062E-03    -26.9733E-03     54.3594E-03    -27.3905E-03     11.4701E-03    -1.73793E+06    -28.2094E+06    -108.348E+06    -28.2114E+06    -108.346E+06    -1.73793E+06    -322.366E+03         26.1551
             486     8.75893E-03     44.3021E-03         1.33812    -394.929E-03    -424.363E-03    -408.109E-03         1.33749    -410.554E-03    -30.6080E-03     54.8324E-03    -27.3707E-03    -27.4487E-03    -27.0316E-03     54.4933E-03    -27.4487E-03     10.5212E-03    -1.98031E+06    -31.1761E+06    -134.160E+06    -31.1786E+06    -134.158E+06    -1.98031E+06    -470.907E+03         25.3727
             487     7.78560E-03     44.2916E-03         1.35528    -408.227E-03    -431.754E-03    -429.449E-03         1.35429    -409.538E-03    -4.31961E-03     54.8864E-03    -27.3809E-03    -27.5019E-03    -27.1071E-03     54.6126E-03    -27.5019E-03     9.46183E-03    -3.73706E+06    -34.5374E+06    -158.516E+06    -34.5395E+06    -158.514E+06    -3.73706E+06    -465.445E+03         24.9225
             488     6.81217E-03     44.2822E-03         1.33076    -395.653E-03    -417.262E-03    -402.676E-03         1.32938    -408.855E-03    -16.4321E-03     54.9473E-03    -27.3967E-03    -27.5502E-03    -27.1717E-03     54.7223E-03    -27.5502E-03     8.58934E-03    -7.00408E+06    -38.2761E+06    -181.169E+06    -38.2770E+06    -181.168E+06    -7.00408E+06    -269.741E+03         24.6648
             489     5.83889E-03     44.2736E-03         1.32826    -394.874E-03    -411.821E-03    -392.085E-03         1.32466    -411.011E-03     26.4894E-03     55.0133E-03    -27.4282E-03    -27.5836E-03    -27.2446E-03     54.8296E-03    -27.5836E-03     7.75986E-03    -13.2842E+06    -42.8403E+06    -203.705E+06    -42.8408E+06    -203.704E+06    -13.2842E+06    -65.3792E+03         24.4829
             490     4.86560E-03     44.2658E-03         1.34895    -406.365E-03    -421.499E-03    -411.936E-03         1.34583    -412.801E-03     38.9857E-03     55.0423E-03    -27.4460E-03    -27.5968E-03    -27.3039E-03     54.9002E-03    -27.5968E-03     6.82496E-03    -21.4330E+06    -47.9894E+06    -224.857E+06    -47.9897E+06    -224.857E+06    -21.4330E+06    -99.5407E+03         24.3385
             491     3.89243E-03     44.2592E-03         1.35177    -408.182E-03    -425.624E-03    -418.192E-03         1.34839    -412.239E-03     43.8317E-03     55.0533E-03    -27.4617E-03    -27.5929E-03    -27.3583E-03     54.9499E-03    -27.5929E-03     5.81279E-03    -32.0928E+06    -53.2702E+06    -240.929E+06    -53.2705E+06    -240.929E+06    -32.0928E+06    -26.1646E+03         24.2212
             492     2.91918E-03     44.2535E-03         1.35218    -400.103E-03    -431.372E-03    -409.136E-03         1.34191    -412.070E-03    -74.6195E-03     55.0826E-03    -27.5069E-03    -27.5759E-03    -27.4411E-03     55.0169E-03    -27.5759E-03     4.61061E-03    -44.1983E+06    -58.0225E+06    -252.513E+06    -58.0228E+06    -252.513E+06    -44.1983E+06     13.2329E+03         24.1296
             493     1.94615E-03     44.2495E-03         1.38140    -404.001E-03    -447.422E-03    -404.482E-03         1.34988    -415.413E-03     135.242E-03     55.0550E-03    -27.5087E-03    -27.5471E-03    -27.4761E-03     55.0224E-03    -27.5471E-03     3.19299E-03    -54.7404E+06    -62.0693E+06    -259.863E+06    -62.0696E+06    -259.863E+06    -54.7404E+06    -133.336E+03         24.0670
             494     973.069E-06     44.2467E-03         1.70515     139.609E-03        -1.30757     452.854E-03         1.37370        -1.28937    -354.002E-03     55.0289E-03    -27.4709E-03    -27.5589E-03    -27.5234E-03     55.0178E-03    -27.4953E-03     1.80164E-03    -62.3241E+06    -64.9178E+06    -261.705E+06    -64.8608E+06    -261.704E+06    -62.3821E+06     47.7682E+03         24.0334
             495     16.5503E-03     43.4372E-03         1.30114    -371.720E-03    -401.202E-03    -370.304E-03         1.29972    -401.202E-03     10.4727E-03     56.2415E-03    -26.5166E-03    -29.8248E-03    -25.5669E-03     52.9317E-03    -27.4647E-03     28.3003E-03     194.630E+06     134.938E+06    -8.74821E+06    -8.74806E+06     194.630E+06     134.938E+06    -36.0085E+03         42.0438
             496     15.5759E-03     43.3886E-03         1.30285    -371.776E-03    -403.412E-03    -370.955E-03         1.30203    -403.412E-03     8.41868E-03     57.2125E-03    -27.2384E-03    -30.0262E-03    -25.8239E-03     53.0102E-03    -27.2384E-03     36.2407E-03     176.992E+06     81.9620E+06    -15.9647E+06    -15.9642E+06     176.992E+06     81.9620E+06     31.3677E+03         39.1012
             497     14.6013E-03     43.3606E-03         1.30620    -371.041E-03    -405.935E-03    -370.086E-03         1.30524    -405.935E-03    -9.49450E-03     55.6535E-03    -26.9957E-03    -28.6879E-03    -26.0303E-03     52.9959E-03    -26.9957E-03     29.3322E-03     156.672E+06     21.8392E+06    -20.3276E+06    -20.3269E+06     156.671E+06     21.8392E+06     243.661E+03         35.7913
             498     13.6272E-03     43.3269E-03         1.31869    -378.634E-03    -408.530E-03    -377.958E-03         1.31802    -408.530E-03    -7.13062E-03     55.6203E-03    -26.9421E-03    -28.6872E-03    -26.3329E-03     53.2659E-03    -26.9421E-03     27.3427E-03     97.3729E+06    -12.2976E+06    -22.1627E+06    -22.1620E+06     97.3722E+06    -12.2976E+06     1.51195E+03         32.8921
             499     12.6533E-03     43.3032E-03         1.33382    -391.033E-03    -410.669E-03    -390.459E-03         1.33325    -410.669E-03     21.4873E-03     54.8676E-03    -27.0908E-03    -27.7889E-03    -26.5759E-03     53.6547E-03    -27.0908E-03     19.7157E-03     17.6260E+06    -16.7488E+06    -23.0506E+06    -23.0227E+06     14.4200E+06    -13.5708E+06    -394.622E+03         30.6318
             500     11.6795E-03     43.2853E-03         1.33343    -390.363E-03    -412.582E-03    -389.944E-03         1.33301    -412.582E-03    -16.0782E-03     54.7370E-03    -27.2194E-03    -27.5472E-03    -26.8020E-03     53.9918E-03    -27.2194E-03     15.4968E-03    -9.50613E+06    -20.8389E+06    -43.4681E+06    -23.9884E+06    -40.3186E+06    -9.50613E+06    -467.644E+03         28.8021
             501     10.7060E-03     43.2707E-03         1.34017    -395.508E-03    -415.377E-03    -396.134E-03         1.33993    -414.507E-03    -27.2588E-03     54.6858E-03    -27.3002E-03    -27.4218E-03    -26.9036E-03     54.1788E-03    -27.3115E-03     12.8248E-03    -5.43065E+06    -25.5369E+06    -79.4355E+06    -25.5399E+06    -79.4325E+06    -5.43065E+06    -351.876E+03         27.3024
             502     9.73243E-03     43.2583E-03         1.34615    -398.989E-03    -417.183E-03    -399.189E-03         1.34547    -416.313E-03     17.5755E-03     54.7331E-03    -27.3490E-03    -27.3894E-03    -26.9471E-03     54.3312E-03    -27.3893E-03     11.4522E-03    -1.61741E+06    -27.8461E+06    -108.276E+06    -27.8476E+06    -108.274E+06    -1.61741E+06    -321.499E+03         26.1504
             503     8.75895E-03     43.2467E-03         1.34202    -394.838E-03    -418.644E-03    -393.786E-03         1.34097    -418.644E-03     1.22372E-03     54.8270E-03    -27.3677E-03    -27.4484E-03    -27.0288E-03     54.4882E-03    -27.4484E-03     10.5184E-03    -1.92410E+06    -30.8607E+06    -133.829E+06    -30.8626E+06    -133.827E+06    -1.92410E+06    -407.305E+03         25.3699
             504     7.78551E-03     43.2363E-03         1.34477    -395.384E-03    -423.053E-03    -395.788E-03         1.34387    -421.751E-03     511.438E-06     54.8808E-03    -27.3776E-03    -27.5018E-03    -27.1024E-03     54.6056E-03    -27.5018E-03     9.48718E-03    -4.01290E+06    -34.6105E+06    -158.544E+06    -34.6130E+06    -158.541E+06    -4.01290E+06    -522.539E+03         24.9214
             505     6.81218E-03     43.2269E-03         1.35169    -399.839E-03    -426.657E-03    -399.458E-03         1.35001    -425.355E-03    -26.5045E-03     54.9571E-03    -27.4089E-03    -27.5490E-03    -27.1824E-03     54.7306E-03    -27.5490E-03     8.61772E-03    -7.56126E+06    -38.9472E+06    -181.400E+06    -38.9487E+06    -181.399E+06    -7.56126E+06    -445.281E+03         24.6648
             506     5.83889E-03     43.2182E-03         1.37266    -415.811E-03    -431.812E-03    -413.738E-03         1.36735    -428.582E-03     56.6074E-03     55.0155E-03    -27.4350E-03    -27.5809E-03    -27.2500E-03     54.8304E-03    -27.5809E-03     7.79147E-03    -13.7241E+06    -43.4538E+06    -203.717E+06    -43.4550E+06    -203.716E+06    -13.7241E+06    -284.608E+03         24.4832
             507     4.86564E-03     43.2106E-03         1.39589    -429.112E-03    -442.847E-03    -437.435E-03         1.39048    -429.112E-03     53.0169E-03     55.0377E-03    -27.4454E-03    -27.5937E-03    -27.3017E-03     54.8941E-03    -27.5937E-03     6.86068E-03    -21.7438E+06    -48.2970E+06    -224.824E+06    -48.2980E+06    -224.823E+06    -21.7438E+06    -150.657E+03         24.3386
             508     3.89234E-03     43.2038E-03         1.38781    -425.434E-03    -438.541E-03    -430.878E-03         1.38275    -428.035E-03     43.8612E-03     55.0662E-03    -27.4793E-03    -27.5877E-03    -27.3756E-03     54.9625E-03    -27.5877E-03     5.82231E-03    -32.2370E+06    -53.8304E+06    -241.105E+06    -53.8307E+06    -241.105E+06    -32.2370E+06     16.3856E+03         24.2213
             509     2.91925E-03     43.1983E-03         1.37784    -418.573E-03    -433.405E-03    -403.739E-03         1.36218    -432.585E-03    -94.4992E-03     55.0691E-03    -27.5038E-03    -27.5653E-03    -27.4384E-03     55.0037E-03    -27.5653E-03     4.59518E-03    -44.3923E+06    -59.1222E+06    -252.173E+06    -59.1222E+06    -252.173E+06    -44.3923E+06     47.6600E+03         24.1302
             510     1.94615E-03     43.1939E-03         1.44331    -427.146E-03    -486.030E-03    -434.119E-03         1.40281    -438.557E-03     130.513E-03     55.0313E-03    -27.4993E-03    -27.5319E-03    -27.4746E-03     54.9989E-03    -27.5242E-03     3.18967E-03    -55.8645E+06    -63.1604E+06    -259.618E+06    -63.1624E+06    -259.616E+06    -55.8645E+06    -402.200E+03         24.0679
             511     973.084E-06     43.1917E-03         1.85519    -8.38465E-03        -1.31966     394.030E-03         1.40612        -1.27301    -552.334E-03     54.9775E-03    -27.4003E-03    -27.5771E-03    -27.5642E-03     54.9662E-03    -27.4018E-03     1.83108E-03    -63.8054E+06    -65.9038E+06    -261.960E+06    -65.9064E+06    -261.957E+06    -63.8054E+06    -614.285E+03         24.0338
             512     16.5505E-03     42.3820E-03         1.32343    -377.903E-03    -409.757E-03    -377.168E-03         1.32269    -409.757E-03    -17.3229E-03     56.2872E-03    -26.5277E-03    -29.8627E-03    -25.6077E-03     52.9723E-03    -27.4678E-03     28.2921E-03     194.772E+06     135.176E+06    -8.73614E+06    -8.73609E+06     194.772E+06     135.176E+06    -49.9500E+03         42.0262
             513     15.5757E-03     42.3331E-03         1.31931    -374.753E-03    -412.179E-03    -374.088E-03         1.31865    -412.179E-03     8.42026E-03     57.2289E-03    -27.2418E-03    -30.0436E-03    -25.8313E-03     53.0166E-03    -27.2418E-03     36.2907E-03     176.892E+06     81.7394E+06    -15.9323E+06    -15.9322E+06     176.892E+06     81.7394E+06    -70.0323E+03         39.0855
             514     14.6014E-03     42.3056E-03         1.31695    -366.481E-03    -415.298E-03    -365.963E-03         1.31643    -415.298E-03    -33.5990E-03     55.6310E-03    -26.9964E-03    -28.6680E-03    -26.0001E-03     52.9631E-03    -26.9964E-03     29.3765E-03     156.595E+06     21.1619E+06    -20.2253E+06    -20.2250E+06     156.594E+06     21.1619E+06     57.8986E+03         35.7775
             515     13.6272E-03     42.2712E-03         1.33587    -380.822E-03    -418.559E-03    -380.100E-03         1.33515    -418.559E-03    -9.96972E-03     55.6442E-03    -26.9378E-03    -28.7171E-03    -26.3582E-03     53.2852E-03    -26.9378E-03     27.3606E-03     97.8507E+06    -12.5848E+06    -21.8354E+06    -21.8348E+06     97.8500E+06    -12.5848E+06     9.46688E+03         32.8801
             516     12.6533E-03     42.2481E-03         1.35969    -403.108E-03    -420.842E-03    -402.602E-03         1.35919    -420.842E-03     3.26493E-03     54.8970E-03    -27.0853E-03    -27.8231E-03    -26.6076E-03     53.6815E-03    -27.0853E-03     19.7579E-03     18.0080E+06    -16.8681E+06    -22.5978E+06    -22.5900E+06     14.8486E+06    -13.7164E+06    -196.605E+03         30.6217
             517     11.6796E-03     42.2297E-03         1.35868    -399.358E-03    -422.699E-03    -398.976E-03         1.35830    -422.699E-03    -31.0031E-03     54.7223E-03    -27.2157E-03    -27.5352E-03    -26.7874E-03     53.9746E-03    -27.2157E-03     15.5076E-03    -9.82013E+06    -20.8580E+06    -43.4259E+06    -23.8234E+06    -40.4605E+06    -9.82013E+06    -288.555E+03         28.7939
             518     10.7060E-03     42.2154E-03         1.36289    -402.212E-03    -425.697E-03    -402.916E-03         1.36272    -424.827E-03    -3.06699E-03     54.6637E-03    -27.2962E-03    -27.4047E-03    -26.8886E-03     54.1599E-03    -27.3086E-03     12.7874E-03    -5.79767E+06    -25.4177E+06    -79.4978E+06    -25.4200E+06    -79.4955E+06    -5.79767E+06    -281.591E+03         27.2960
             519     9.73242E-03     42.2030E-03         1.37223    -410.039E-03    -427.661E-03    -410.193E-03         1.37151    -426.791E-03     49.1459E-03     54.7212E-03    -27.3404E-03    -27.3879E-03    -26.9355E-03     54.3162E-03    -27.3879E-03     11.4931E-03    -1.86129E+06    -27.7237E+06    -108.246E+06    -27.7247E+06    -108.245E+06    -1.86129E+06    -246.210E+03         26.1459
             520     8.75893E-03     42.1913E-03         1.36391    -400.488E-03    -429.412E-03    -399.685E-03         1.36311    -429.412E-03     27.8332E-03     54.8206E-03    -27.3597E-03    -27.4495E-03    -27.0207E-03     54.4815E-03    -27.4495E-03     10.5179E-03    -1.99777E+06    -30.8063E+06    -133.731E+06    -30.8069E+06    -133.730E+06    -1.99777E+06    -195.916E+03         25.3674
             521     7.78555E-03     42.1810E-03         1.36307    -396.495E-03    -433.518E-03    -396.185E-03         1.36276    -433.518E-03     2.72142E-03     54.8818E-03    -27.3756E-03    -27.5037E-03    -27.1011E-03     54.6073E-03    -27.5037E-03     9.47607E-03    -3.96047E+06    -34.6201E+06    -158.437E+06    -34.6208E+06    -158.436E+06    -3.96047E+06    -220.963E+03         24.9206
             522     6.81215E-03     42.1714E-03         1.38833    -416.824E-03    -438.153E-03    -414.879E-03         1.38578    -437.557E-03    -70.4671E-03     54.9505E-03    -27.3998E-03    -27.5514E-03    -27.1729E-03     54.7235E-03    -27.5514E-03     8.62535E-03    -7.61735E+06    -39.1056E+06    -181.410E+06    -39.1068E+06    -181.409E+06    -7.61735E+06    -335.440E+03         24.6651
             523     5.83887E-03     42.1629E-03         1.41108    -435.915E-03    -443.850E-03    -434.936E-03         1.40587    -439.619E-03     10.0025E-03     55.0137E-03    -27.4302E-03    -27.5849E-03    -27.2449E-03     54.8284E-03    -27.5849E-03     7.79557E-03    -13.8604E+06    -43.9048E+06    -203.738E+06    -43.9069E+06    -203.736E+06    -13.8604E+06    -559.620E+03         24.4841
             524     4.86556E-03     42.1552E-03         1.40780    -429.747E-03    -447.355E-03    -430.599E-03         1.40240    -441.102E-03     6.73949E-03     55.0652E-03    -27.4691E-03    -27.5974E-03    -27.3248E-03     54.9208E-03    -27.5974E-03     6.87893E-03    -21.8471E+06    -49.0745E+06    -225.268E+06    -49.0761E+06    -225.266E+06    -21.8471E+06    -321.668E+03         24.3398
             525     3.89245E-03     42.1485E-03         1.42126    -429.549E-03    -457.054E-03    -437.032E-03         1.41463    -442.948E-03     23.7735E-03     55.0920E-03    -27.5083E-03    -27.5832E-03    -27.4039E-03     54.9876E-03    -27.5832E-03     5.84395E-03    -32.4746E+06    -54.4279E+06    -241.014E+06    -54.4291E+06    -241.012E+06    -32.4746E+06     327.247E+03         24.2223
             526     2.91935E-03     42.1428E-03         1.45369    -439.639E-03    -479.012E-03    -453.969E-03         1.43069    -441.684E-03    -148.637E-03     55.0519E-03    -27.5022E-03    -27.5496E-03    -27.4366E-03     54.9863E-03    -27.5496E-03     4.60016E-03    -45.3261E+06    -59.6806E+06    -251.765E+06    -59.6832E+06    -251.762E+06    -45.3261E+06     6.79281E+03         24.1306
             527     1.94614E-03     42.1389E-03         1.49935    -432.736E-03    -529.603E-03    -460.318E-03         1.43006    -432.736E-03     172.475E-03     54.9931E-03    -27.4779E-03    -27.5145E-03    -27.4527E-03     54.9602E-03    -27.5069E-03     3.21568E-03    -57.0030E+06    -64.0638E+06    -259.310E+06    -64.0679E+06    -259.306E+06    -57.0030E+06    -388.154E+03         24.0677
             528     973.126E-06     42.1358E-03         2.00504    -151.349E-03        -1.32154     399.128E-03         1.38354        -1.25051    -734.381E-03     54.9456E-03    -27.3988E-03    -27.5466E-03    -27.5304E-03     54.9342E-03    -27.4035E-03     1.80271E-03    -65.5833E+06    -67.8398E+06    -262.560E+06    -67.6052E+06    -262.557E+06    -65.8213E+06    -158.145E+03         24.0329
             529     16.5502E-03     41.3264E-03         1.32955    -369.034E-03    -418.284E-03    -368.568E-03         1.32909    -418.284E-03     7.18877E-03     56.2598E-03    -26.4814E-03    -29.8745E-03    -25.5615E-03     52.9359E-03    -27.4705E-03     28.3486E-03     194.796E+06     135.198E+06    -8.79232E+06    -8.79216E+06     194.796E+06     135.198E+06    -26.3255E+03         42.0084
             530     15.5758E-03     41.2777E-03         1.34241    -383.152E-03    -421.260E-03    -382.671E-03         1.34193    -421.260E-03     24.7256E-03     57.2751E-03    -27.2477E-03    -30.0741E-03    -25.8570E-03     53.0580E-03    -27.2477E-03     36.3170E-03     177.040E+06     82.1959E+06    -16.0792E+06    -16.0786E+06     177.039E+06     82.1959E+06    -127.297E+03         39.0695
             531     14.6013E-03     41.2502E-03         1.35361    -392.995E-03    -423.813E-03    -392.384E-03         1.35300    -423.813E-03    -31.0386E-03     55.6768E-03    -26.9996E-03    -28.7075E-03    -26.0347E-03     53.0040E-03    -26.9996E-03     29.4130E-03     156.501E+06     21.1667E+06    -20.3988E+06    -20.3983E+06     156.501E+06     21.1667E+06    -211.733E+03         35.7635
             532     13.6271E-03     41.2159E-03         1.35280    -387.319E-03    -426.520E-03    -386.424E-03         1.35191    -426.520E-03    -9.87894E-03     55.6625E-03    -26.9361E-03    -28.7422E-03    -26.3812E-03     53.3015E-03    -26.9361E-03     27.3671E-03     98.1825E+06    -12.9481E+06    -22.0350E+06    -22.0349E+06     98.1823E+06    -12.9481E+06    -78.9228E+03         32.8681
             533     12.6533E-03     41.1925E-03         1.35613    -388.363E-03    -429.751E-03    -387.822E-03         1.35559    -429.751E-03     10.1110E-03     54.8904E-03    -27.0827E-03    -27.8219E-03    -26.6109E-03     53.6794E-03    -27.0827E-03     19.7262E-03     18.3534E+06    -17.0533E+06    -22.8172E+06    -22.8121E+06     15.1985E+06    -13.9035E+06     5.96609E+03         30.6117
             534     11.6796E-03     41.1744E-03         1.37779    -406.674E-03    -432.617E-03    -406.424E-03         1.37753    -432.617E-03    -20.5226E-03     54.6940E-03    -27.2150E-03    -27.5076E-03    -26.7541E-03     53.9405E-03    -27.2150E-03     15.5676E-03    -9.99841E+06    -21.1101E+06    -43.3277E+06    -23.9897E+06    -40.4482E+06    -9.99841E+06     45.7019E+03         28.7858
             535     10.7060E-03     41.1600E-03         1.38695    -411.337E-03    -434.930E-03    -411.134E-03         1.38675    -434.930E-03    -5.52963E-03     54.6554E-03    -27.3084E-03    -27.3850E-03    -26.8761E-03     54.1475E-03    -27.3095E-03     12.8312E-03    -6.03462E+06    -25.7648E+06    -79.3866E+06    -25.7655E+06    -79.3859E+06    -6.03462E+06    -92.0102E+03         27.2898
             536     9.73244E-03     41.1477E-03         1.38820    -409.222E-03    -437.564E-03    -408.809E-03         1.38778    -437.564E-03     20.8166E-03     54.7321E-03    -27.3499E-03    -27.3908E-03    -26.9460E-03     54.3266E-03    -27.3892E-03     11.5034E-03    -2.15234E+06    -28.1087E+06    -108.296E+06    -28.1093E+06    -108.296E+06    -2.15234E+06    -153.673E+03         26.1416
             537     8.75891E-03     41.1360E-03         1.39635    -414.732E-03    -440.573E-03    -414.104E-03         1.39573    -440.573E-03    -5.97097E-03     54.8262E-03    -27.3613E-03    -27.4508E-03    -27.0210E-03     54.4859E-03    -27.4508E-03     10.5356E-03    -2.19631E+06    -31.1519E+06    -133.825E+06    -31.1520E+06    -133.825E+06    -2.19631E+06    -29.7902E+03         25.3652
             538     7.78553E-03     41.1255E-03         1.41086    -426.188E-03    -443.268E-03    -425.148E-03         1.40982    -443.268E-03     4.74668E-03     54.8830E-03    -27.3715E-03    -27.5055E-03    -27.0974E-03     54.6089E-03    -27.5055E-03     9.46968E-03    -3.91754E+06    -34.7422E+06    -158.249E+06    -34.7423E+06    -158.249E+06    -3.91754E+06    -9.86754E+03         24.9203
             539     6.81215E-03     41.1162E-03         1.43080    -440.134E-03    -451.065E-03    -443.871E-03         1.42799    -444.517E-03    -49.2039E-03     54.9391E-03    -27.3851E-03    -27.5537E-03    -27.1579E-03     54.7118E-03    -27.5537E-03     8.62954E-03    -7.46844E+06    -38.9506E+06    -181.105E+06    -38.9512E+06    -181.104E+06    -7.46844E+06    -219.727E+03         24.6658
             540     5.83879E-03     41.1074E-03         1.43488    -444.329E-03    -452.307E-03    -447.716E-03         1.43029    -444.329E-03     5.82607E-03     55.0253E-03    -27.4375E-03    -27.5886E-03    -27.2526E-03     54.8404E-03    -27.5886E-03     7.78668E-03    -13.7799E+06     -43.972E+06    -203.717E+06    -43.9734E+06    -203.715E+06    -13.7799E+06    -399.781E+03         24.4850
             541     4.86562E-03     41.0998E-03         1.41615    -428.775E-03    -447.882E-03    -422.708E-03         1.40866    -446.451E-03    -35.5951E-03     55.0742E-03    -27.4747E-03    -27.6008E-03    -27.3307E-03     54.9302E-03    -27.6008E-03     6.87397E-03    -22.0194E+06    -49.6397E+06    -225.794E+06    -49.6406E+06    -225.793E+06    -22.0194E+06    -221.798E+03         24.3407
             542     3.89239E-03     41.0929E-03         1.43895    -433.382E-03    -463.085E-03    -429.653E-03         1.42373    -451.596E-03     62.7757E-03     55.0736E-03    -27.4905E-03    -27.5835E-03    -27.3848E-03     54.9680E-03    -27.5835E-03     5.87760E-03    -33.5217E+06    -55.0915E+06    -241.343E+06    -55.0929E+06    -241.341E+06    -33.5217E+06     102.976E+03         24.2231
             543     2.91923E-03     41.0876E-03         1.49326    -451.321E-03    -502.753E-03    -467.057E-03         1.45810    -451.859E-03    -121.076E-03     55.0677E-03    -27.5138E-03    -27.5536E-03    -27.4512E-03     55.0008E-03    -27.5493E-03     4.64836E-03    -46.1531E+06    -59.8784E+06    -251.042E+06    -59.8826E+06    -251.038E+06    -46.1531E+06     119.574E+03         24.1308
             544     1.94625E-03     41.0833E-03         1.53940    -448.931E-03    -556.715E-03    -450.903E-03         1.43359    -448.931E-03     250.778E-03     55.0062E-03    -27.4935E-03    -27.5116E-03    -27.4645E-03     54.9728E-03    -27.5073E-03     3.23860E-03    -57.3136E+06    -64.0784E+06    -259.374E+06    -64.0830E+06    -259.369E+06    -57.3136E+06    -18.1891E+03         24.0668
             545     973.057E-06     41.0809E-03         2.11992    -207.982E-03        -1.37203     406.529E-03         1.43703        -1.30365    -748.452E-03     54.9546E-03    -27.4533E-03    -27.5012E-03    -27.4794E-03     54.9434E-03    -27.4639E-03     1.77099E-03    -64.2424E+06    -66.5104E+06    -262.548E+06    -66.2745E+06    -262.546E+06    -64.4805E+06     165.983E+03         24.0309
             546     16.5503E-03     40.2711E-03         1.35121    -381.470E-03    -426.980E-03    -380.978E-03         1.35072    -426.980E-03     4.73265E-03     56.2052E-03    -26.4653E-03    -29.8302E-03    -25.4971E-03     52.8766E-03    -27.4698E-03     28.3201E-03     194.811E+06     134.950E+06    -8.79394E+06    -8.79369E+06     194.811E+06     134.950E+06    -65.8087E+03         41.9906
             547     15.5754E-03     40.2222E-03         1.36266    -389.379E-03    -429.870E-03    -388.701E-03         1.36198    -429.870E-03     11.6490E-03     57.2717E-03    -27.2540E-03    -30.0568E-03    -25.8370E-03     53.0520E-03    -27.2540E-03     36.3038E-03     177.312E+06     82.7432E+06    -16.2440E+06    -16.2433E+06     177.311E+06     82.7432E+06    -114.560E+03         39.0534
             548     14.6013E-03     40.1948E-03         1.38108    -404.968E-03    -432.377E-03    -403.823E-03         1.37994    -432.377E-03    -12.6664E-03     55.7430E-03    -27.0084E-03    -28.7636E-03    -26.0946E-03     53.0740E-03    -27.0084E-03     29.4126E-03     156.657E+06     22.1537E+06    -20.8374E+06    -20.8362E+06     156.655E+06     22.1537E+06    -285.663E+03         35.7496
             549     13.6272E-03     40.1604E-03         1.38174    -401.293E-03    -434.820E-03    -400.199E-03         1.38064    -434.820E-03    -6.31555E-03     55.6792E-03    -26.9422E-03    -28.7554E-03    -26.3884E-03     53.3122E-03    -26.9422E-03     27.4183E-03     98.0626E+06    -12.4810E+06    -22.6204E+06    -22.6191E+06     98.0614E+06    -12.4810E+06    -136.117E+03         32.8564
             550     12.6534E-03     40.1372E-03         1.37266    -389.438E-03    -438.167E-03    -388.778E-03         1.37200    -438.167E-03     20.8785E-03     54.8672E-03    -27.0877E-03    -27.7952E-03    -26.5790E-03     53.6510E-03    -27.0877E-03     19.7558E-03     18.2720E+06    -16.7513E+06    -23.2721E+06    -23.2676E+06     15.1322E+06    -13.6160E+06     133.435E+03         30.6020
             551     11.6794E-03     40.1192E-03         1.39583    -409.322E-03    -441.568E-03    -409.010E-03         1.39552    -441.568E-03    -9.76640E-03     54.6933E-03    -27.2184E-03    -27.5020E-03    -26.7485E-03     53.9399E-03    -27.2184E-03     15.5689E-03    -9.79484E+06    -21.2247E+06    -43.4337E+06    -24.2919E+06    -40.3665E+06    -9.79484E+06     178.347E+03         28.7780
             552     10.7059E-03     40.1045E-03         1.41954    -428.632E-03    -443.744E-03    -428.204E-03         1.41911    -443.744E-03    -23.0425E-03     54.6606E-03    -27.3051E-03    -27.3918E-03    -26.8757E-03     54.1532E-03    -27.3138E-03     12.8236E-03    -5.67861E+06    -25.9182E+06    -79.1130E+06    -25.9186E+06    -79.1125E+06    -5.67861E+06     72.5412E+03         27.2839
             553     9.73234E-03     40.0923E-03         1.41606    -421.744E-03    -445.782E-03    -421.027E-03         1.41535    -445.782E-03     3.69272E-03     54.7451E-03    -27.3579E-03    -27.3947E-03    -26.9553E-03     54.3409E-03    -27.3931E-03     11.4879E-03    -1.93591E+06    -28.2789E+06    -108.194E+06    -28.2790E+06    -108.194E+06    -1.93591E+06    -58.7885E+03         26.1377
             554     8.75895E-03     40.0805E-03         1.42151    -425.867E-03    -448.414E-03    -424.697E-03         1.42034    -448.414E-03    -15.5853E-03     54.8343E-03    -27.3678E-03    -27.4530E-03    -27.0268E-03     54.4932E-03    -27.4530E-03     10.5493E-03    -2.13800E+06    -31.1814E+06    -133.880E+06    -31.1817E+06    -133.880E+06    -2.13800E+06    -94.3105E+03         25.3635
             555     7.78549E-03     40.0702E-03         1.43701    -438.382E-03    -450.660E-03    -436.802E-03         1.43543    -450.660E-03     688.553E-06     54.8808E-03    -27.3683E-03    -27.5084E-03    -27.0942E-03     54.6067E-03    -27.5084E-03     9.46875E-03    -3.70908E+06    -34.5187E+06    -158.022E+06    -34.5191E+06    -158.022E+06    -3.70908E+06    -88.4419E+03         24.9204
             556     6.81211E-03     40.0608E-03         1.45069    -443.656E-03    -457.875E-03    -447.226E-03         1.44831    -451.925E-03    -23.7429E-03     54.9534E-03    -27.3960E-03    -27.5574E-03    -27.1692E-03     54.7267E-03    -27.5574E-03     8.62233E-03    -7.11625E+06    -38.8049E+06    -180.982E+06    -38.8052E+06    -180.982E+06    -7.11625E+06    -46.4054E+03         24.6667
             557     5.83883E-03     40.0522E-03         1.45945    -449.147E-03    -462.559E-03    -454.927E-03         1.45477    -452.101E-03     31.2822E-03     55.0269E-03    -27.4359E-03    -27.5906E-03    -27.2501E-03     54.8411E-03    -27.5906E-03     7.80684E-03    -13.7319E+06    -43.8948E+06    -203.722E+06    -43.8950E+06    -203.722E+06    -13.7319E+06    -7.92061E+03         24.4855
             558     4.86558E-03     40.0443E-03         1.45434    -446.321E-03    -460.549E-03    -445.634E-03         1.44575    -452.642E-03    -32.5741E-03     55.0701E-03    -27.4675E-03    -27.6043E-03    -27.3231E-03     54.9257E-03    -27.6043E-03     6.88265E-03    -22.0068E+06    -49.1486E+06    -225.802E+06    -49.1493E+06    -225.802E+06    -22.0068E+06    -174.186E+03         24.3407
             559     3.89235E-03     40.0378E-03         1.45554    -445.903E-03    -460.204E-03    -429.492E-03         1.43573    -456.804E-03     91.6711E-03     55.0800E-03    -27.4908E-03    -27.5912E-03    -27.3864E-03     54.9756E-03    -27.5912E-03     5.84148E-03    -33.0314E+06    -54.3364E+06    -241.606E+06    -54.3373E+06    -241.606E+06    -33.0314E+06    -275.796E+03         24.2230
             560     2.91922E-03     40.0320E-03         1.49218    -462.190E-03    -481.251E-03    -427.653E-03         1.44316    -466.771E-03    -133.475E-03     55.0673E-03    -27.4998E-03    -27.5684E-03    -27.4383E-03     55.0014E-03    -27.5641E-03     4.61500E-03    -45.2410E+06    -59.0834E+06    -250.979E+06    -59.0852E+06    -250.978E+06    -45.2410E+06     114.049E+03         24.1304
             561     1.94611E-03     40.0281E-03         1.60108    -479.340E-03    -571.997E-03    -455.344E-03         1.48442    -479.340E-03     225.749E-03     55.0419E-03    -27.4992E-03    -27.5430E-03    -27.4785E-03     55.0090E-03    -27.5308E-03     3.21352E-03    -55.7367E+06    -63.0201E+06    -258.802E+06    -63.0226E+06    -258.799E+06    -55.7367E+06     35.3655E+03         24.0660
             562     973.092E-06     40.0255E-03         2.21703    -286.870E-03        -1.38978     341.065E-03         1.51092        -1.31161    -819.076E-03     54.9936E-03    -27.4293E-03    -27.5645E-03    -27.5476E-03     54.9826E-03    -27.4351E-03     1.76462E-03    -63.6402E+06    -66.4231E+06    -263.037E+06    -66.1575E+06    -263.036E+06    -63.9069E+06    -114.960E+03         24.0301
             563     16.5504E-03     39.2160E-03         1.38791    -400.072E-03    -435.187E-03    -399.568E-03         1.38741    -435.187E-03     1.59347E-03     56.2440E-03    -26.5117E-03    -29.8116E-03    -25.5506E-03     52.9385E-03    -27.4672E-03     28.2554E-03     195.047E+06     135.086E+06    -8.74309E+06    -8.74292E+06     195.046E+06     135.086E+06    -78.2223E+03         41.9734
             564     15.5757E-03     39.1668E-03         1.38470    -394.428E-03    -437.893E-03    -393.448E-03         1.38372    -437.893E-03     29.0704E-03     57.2167E-03    -27.2482E-03    -29.9969E-03    -25.7974E-03     53.0171E-03    -27.2482E-03     36.2239E-03     177.351E+06     81.9335E+06    -16.2213E+06    -16.2211E+06     177.350E+06     81.9335E+06    -25.4250E+03         39.0381
             565     14.6012E-03     39.1392E-03         1.39117    -397.878E-03    -441.053E-03    -396.387E-03         1.38968    -441.053E-03     4.17483E-03     55.6700E-03    -27.0063E-03    -28.6882E-03    -26.0274E-03     53.0092E-03    -27.0063E-03     29.3505E-03     156.725E+06     21.5229E+06    -20.8056E+06    -20.8048E+06     156.725E+06     21.5229E+06    -193.844E+03         35.7362
             566     13.6271E-03     39.1051E-03         1.40677    -410.752E-03    -444.029E-03    -409.547E-03         1.40556    -444.029E-03    -5.15329E-03     55.6555E-03    -26.9471E-03    -28.7225E-03    -26.3583E-03     53.2914E-03    -26.9471E-03     27.4151E-03     97.6671E+06    -12.4165E+06    -22.6422E+06    -22.6407E+06     97.6655E+06    -12.4165E+06    -197.739E+03         32.8451
             567     12.6531E-03     39.0819E-03         1.41971    -423.001E-03    -446.451E-03    -422.345E-03         1.41900    -446.396E-03     23.1007E-03     54.9084E-03    -27.0938E-03    -27.8293E-03    -26.6067E-03     53.6857E-03    -27.0938E-03     19.8030E-03     17.9744E+06    -16.3762E+06    -23.4133E+06    -23.4044E+06     15.0525E+06    -13.4632E+06     145.729E+03         30.5928
             568     11.6795E-03     39.0637E-03         1.41995    -420.612E-03    -448.687E-03    -420.361E-03         1.41964    -448.632E-03    -3.76152E-03     54.7268E-03    -27.2217E-03    -27.5325E-03    -26.7839E-03     53.9782E-03    -27.2217E-03     15.5273E-03    -9.53948E+06    -20.7164E+06    -43.5733E+06    -24.3233E+06    -39.9664E+06    -9.53948E+06     172.049E+03         28.7708
             569     10.7059E-03     39.0494E-03         1.42620    -421.247E-03    -451.298E-03    -420.639E-03         1.42559    -451.298E-03    -24.8751E-03     54.6591E-03    -27.3053E-03    -27.3889E-03    -26.8706E-03     54.1513E-03    -27.3159E-03     12.8315E-03    -5.57184E+06    -25.7790E+06    -79.1210E+06    -25.7794E+06    -79.1207E+06    -5.57184E+06     56.4466E+03         27.2786
             570     9.73235E-03     39.0369E-03         1.43943    -430.332E-03    -454.049E-03    -428.827E-03         1.43793    -454.049E-03     19.0487E-03     54.7424E-03    -27.3521E-03    -27.3962E-03    -26.9475E-03     54.3378E-03    -27.3962E-03     11.4916E-03    -1.69893E+06    -27.9772E+06    -108.057E+06    -27.9772E+06    -108.057E+06    -1.69893E+06     7.77640E+03         26.1343
             571     8.75888E-03     39.0253E-03         1.45543    -443.962E-03    -458.598E-03    -445.038E-03         1.45393    -456.020E-03     29.3879E-03     54.8329E-03    -27.3634E-03    -27.4564E-03    -27.0224E-03     54.4919E-03    -27.4564E-03     10.5506E-03    -2.00216E+06    -30.9970E+06    -133.629E+06    -30.9974E+06    -133.629E+06    -2.00216E+06    -164.728E+03         25.3620
             572     7.78545E-03     39.0149E-03         1.46211    -449.840E-03    -460.263E-03    -452.252E-03         1.46126    -457.008E-03     5.44561E-03     54.8936E-03    -27.3806E-03    -27.5110E-03    -27.1045E-03     54.6175E-03    -27.5110E-03     9.50229E-03    -4.01712E+06    -34.6823E+06    -158.151E+06    -34.6827E+06    -158.150E+06    -4.01712E+06    -172.723E+03         24.9207
             573     6.81214E-03     39.0053E-03         1.45098    -438.341E-03    -459.594E-03    -437.157E-03         1.44912    -458.916E-03    -37.6790E-03     54.9713E-03    -27.4112E-03    -27.5604E-03    -27.1838E-03     54.7438E-03    -27.5604E-03     8.63634E-03    -7.22195E+06    -38.8083E+06    -181.047E+06    -38.8085E+06    -181.047E+06    -7.22195E+06     76.1960E+03         24.6676
             574     5.83880E-03     38.9967E-03         1.46585    -445.643E-03    -466.219E-03    -445.158E-03         1.46107    -461.926E-03     37.4880E-03     55.0316E-03    -27.4374E-03    -27.5927E-03    -27.2516E-03     54.8458E-03    -27.5927E-03     7.80631E-03    -13.5933E+06    -43.4155E+06    -203.438E+06    -43.4157E+06    -203.437E+06    -13.5933E+06     108.315E+03         24.4861
             575     4.86550E-03     38.9891E-03         1.50065    -461.235E-03    -483.559E-03    -474.492E-03         1.49250    -462.157E-03    -26.1138E-03     55.0800E-03    -27.4746E-03    -27.6052E-03    -27.3308E-03     54.9362E-03    -27.6052E-03     6.86732E-03    -21.8566E+06    -48.6603E+06    -225.377E+06    -48.6610E+06    -225.376E+06    -21.8566E+06    -239.681E+03         24.3407
             576     3.89241E-03     38.9823E-03         1.49993    -456.106E-03    -486.484E-03    -466.727E-03         1.48422    -460.148E-03     62.7093E-03     55.0997E-03    -27.5052E-03    -27.5945E-03    -27.4019E-03     54.9964E-03    -27.5945E-03     5.81006E-03    -32.2934E+06    -54.1819E+06    -241.863E+06    -54.1828E+06    -241.862E+06    -32.2934E+06    -339.789E+03         24.2223
             577     2.91925E-03     38.9768E-03         1.50213    -461.140E-03    -484.952E-03    -429.968E-03         1.45119    -465.182E-03    -192.224E-03     55.0536E-03    -27.4876E-03    -27.5666E-03    -27.4230E-03     54.9889E-03    -27.5666E-03     4.56861E-03    -44.8326E+06    -59.2312E+06    -251.176E+06    -59.2315E+06    -251.176E+06    -44.8326E+06    -141.045E+03         24.1291
             578     1.94608E-03     38.9726E-03         1.60803    -479.269E-03    -577.968E-03    -446.164E-03         1.47622    -479.269E-03     232.428E-03     55.0250E-03    -27.4761E-03    -27.5502E-03    -27.4515E-03     54.9924E-03    -27.5423E-03     3.20120E-03    -55.9355E+06    -63.5162E+06    -258.619E+06    -63.5163E+06    -258.619E+06    -55.9355E+06     21.0562E+03         24.0648
             579     973.081E-06     38.9701E-03         2.25093    -336.120E-03        -1.37441     311.501E-03         1.51515        -1.28626    -853.895E-03     55.0382E-03    -27.4267E-03    -27.6130E-03    -27.5788E-03     55.0270E-03    -27.4497E-03     1.78081E-03    -63.8952E+06    -67.0437E+06    -263.155E+06    -66.7772E+06    -263.155E+06    -64.1619E+06    -39.1674E+03         24.0300
             580     16.5503E-03     38.1599E-03         1.39903    -390.596E-03    -442.796E-03    -390.434E-03         1.39887    -442.796E-03    -12.4202E-03     56.2969E-03    -26.5254E-03    -29.8439E-03    -25.6052E-03     53.0017E-03    -27.4689E-03     28.2955E-03     195.245E+06     135.310E+06    -8.80170E+06    -8.80138E+06     195.245E+06     135.310E+06    -94.2662E+03         41.9567
             581     15.5758E-03     38.1120E-03         1.41264    -403.427E-03    -445.935E-03    -402.726E-03         1.41194    -445.935E-03     24.7067E-03     57.2422E-03    -27.2423E-03    -30.0241E-03    -25.8247E-03     53.0428E-03    -27.2423E-03     36.2777E-03     177.501E+06     81.3353E+06    -15.9742E+06    -15.9739E+06     177.501E+06     81.3353E+06    -90.8760E+03         39.0234
             582     14.6013E-03     38.0836E-03         1.41698    -406.554E-03    -448.999E-03    -405.099E-03         1.41552    -448.999E-03    -11.2031E-03     55.5686E-03    -26.9966E-03    -28.5999E-03    -25.9342E-03     52.9028E-03    -26.9966E-03     29.3547E-03     156.683E+06     20.0971E+06    -20.3302E+06    -20.3301E+06     156.683E+06     20.0971E+06    -61.5772E+03         35.7236
             583     13.6270E-03     38.0500E-03         1.42650    -416.241E-03    -451.985E-03    -414.915E-03         1.42518    -451.985E-03    -16.2789E-03     55.6034E-03    -26.9445E-03    -28.6715E-03    -26.3097E-03     53.2417E-03    -26.9445E-03     27.3953E-03     97.5076E+06    -13.4044E+06    -22.2581E+06    -22.2569E+06     97.5064E+06    -13.4044E+06    -13.9491E+03         32.8347
             584     12.6532E-03     38.0262E-03         1.44472    -435.465E-03    -454.272E-03    -434.891E-03         1.44409    -454.217E-03     25.1345E-03     54.9379E-03    -27.0960E-03    -27.8557E-03    -26.6292E-03     53.7114E-03    -27.0960E-03     19.8310E-03     17.8600E+06    -16.8673E+06    -23.1680E+06    -23.1539E+06     14.8740E+06    -13.8953E+06     70.3028E+03         30.5845
             585     11.6794E-03     38.0084E-03         1.44594    -436.260E-03    -455.986E-03    -435.922E-03         1.44554    -455.931E-03     6.65601E-03     54.7371E-03    -27.2256E-03    -27.5408E-03    -26.7931E-03     53.9894E-03    -27.2256E-03     15.5255E-03    -9.60085E+06    -20.5906E+06    -43.1222E+06    -24.0409E+06    -39.6719E+06    -9.60085E+06     117.860E+03         28.7645
             586     10.7058E-03     37.9939E-03         1.43894    -422.262E-03    -458.552E-03    -421.705E-03         1.43838    -458.552E-03    -10.0630E-03     54.6857E-03    -27.3167E-03    -27.4047E-03    -26.8899E-03     54.1727E-03    -27.3185E-03     12.9020E-03    -5.78580E+06    -25.5716E+06    -78.9992E+06    -25.5727E+06    -78.9981E+06    -5.78580E+06     118.053E+03         27.2741
             587     9.73234E-03     37.9816E-03         1.45763    -436.721E-03    -461.609E-03    -435.641E-03         1.45655    -461.609E-03     13.7578E-03     54.7501E-03    -27.3567E-03    -27.3984E-03    -26.9505E-03     54.3436E-03    -27.3982E-03     11.5166E-03    -2.00820E+06    -27.9519E+06    -107.990E+06    -27.9520E+06    -107.990E+06    -2.00820E+06     75.9614E+03         26.1314
             588     8.75882E-03     37.9698E-03         1.47935    -457.137E-03    -465.806E-03    -458.600E-03         1.47824    -463.228E-03     17.0795E-03     54.8338E-03    -27.3601E-03    -27.4596E-03    -27.0197E-03     54.4934E-03    -27.4596E-03     10.5432E-03    -2.25381E+06    -31.0223E+06    -133.379E+06    -31.0228E+06    -133.378E+06    -2.25381E+06     59.6845E+03         25.3607
             589     7.78542E-03     37.9595E-03         1.47725    -456.069E-03    -467.124E-03    -458.733E-03         1.47666    -463.868E-03    -3.75879E-03     54.9049E-03    -27.3863E-03    -27.5146E-03    -27.1092E-03     54.6277E-03    -27.5146E-03     9.52318E-03    -4.39413E+06    -34.8715E+06    -158.303E+06    -34.8719E+06    -158.302E+06    -4.39413E+06     8.99455E+03         24.9206
             590     6.81206E-03     37.9499E-03         1.46082    -446.040E-03    -466.402E-03    -445.183E-03         1.45929    -465.724E-03    -45.0493E-03     54.9858E-03    -27.4230E-03    -27.5628E-03    -27.1950E-03     54.7578E-03    -27.5628E-03     8.64798E-03    -7.78076E+06    -39.1604E+06    -181.106E+06    -39.1607E+06    -181.105E+06    -7.78076E+06    -72.4127E+03         24.6681
             591     5.83878E-03     37.9414E-03         1.47424    -453.244E-03    -471.888E-03    -449.982E-03         1.46790    -468.816E-03     65.3960E-03     55.0582E-03    -27.4641E-03    -27.5935E-03    -27.2782E-03     54.8723E-03    -27.5935E-03     7.81276E-03    -13.8923E+06    -43.8256E+06    -203.225E+06    -43.8261E+06    -203.225E+06    -13.8923E+06    -5.46372E+03         24.4868
             592     4.86563E-03     37.9336E-03         1.51868    -468.213E-03    -494.102E-03    -481.989E-03         1.50749    -469.135E-03    -23.4090E-03     55.0846E-03    -27.4833E-03    -27.6021E-03    -27.3397E-03     54.9411E-03    -27.6021E-03     6.85975E-03    -22.0162E+06    -48.9849E+06    -224.894E+06    -48.9851E+06    -224.894E+06    -22.0162E+06    -46.7656E+03         24.3410
             593     3.89235E-03     37.9270E-03         1.53318    -464.817E-03    -505.684E-03    -489.328E-03         1.51682    -464.817E-03     40.8833E-03     55.0791E-03    -27.4871E-03    -27.5929E-03    -27.3841E-03     54.9761E-03    -27.5929E-03     5.80444E-03    -32.5462E+06    -54.5626E+06    -242.044E+06    -54.5634E+06    -242.043E+06    -32.5462E+06    -349.885E+03         24.2217
             594     2.91926E-03     37.9213E-03         1.53120    -461.917E-03    -507.059E-03    -461.157E-03         1.48530    -461.917E-03    -175.882E-03     55.0600E-03    -27.4974E-03    -27.5633E-03    -27.4324E-03     54.9950E-03    -27.5633E-03     4.58138E-03    -45.5188E+06    -59.7114E+06    -251.360E+06    -59.7123E+06    -251.359E+06    -45.5188E+06    -349.611E+03         24.1282
             595     1.94617E-03     37.9174E-03         1.60959    -469.049E-03    -590.170E-03    -441.120E-03         1.46054    -469.049E-03     318.048E-03     55.0208E-03    -27.4882E-03    -27.5339E-03    -27.4556E-03     54.9881E-03    -27.5339E-03     3.20508E-03    -56.7672E+06    -63.5745E+06    -258.831E+06    -63.5747E+06    -258.831E+06    -56.7672E+06    -48.0990E+03         24.0641
             596     972.914E-06     37.9145E-03         2.27798    -367.376E-03        -1.36709     320.285E-03         1.49536        -1.27214    -855.075E-03     55.0269E-03    -27.4395E-03    -27.5895E-03    -27.5536E-03     55.0158E-03    -27.4644E-03     1.75359E-03    -63.6907E+06    -66.3872E+06    -262.915E+06    -66.1652E+06    -262.915E+06    -63.9130E+06    -108.326E+03         24.0299
             597     16.5503E-03     37.1051E-03         1.39971    -384.678E-03    -449.176E-03    -384.487E-03         1.39952    -449.176E-03    -5.70173E-03     56.2868E-03    -26.5170E-03    -29.8476E-03    -25.5629E-03     52.9585E-03    -27.4733E-03     28.3256E-03     195.285E+06     135.207E+06    -8.81606E+06    -8.81580E+06     195.285E+06     135.207E+06    -97.5496E+03         41.9411
             598     15.5756E-03     37.0558E-03         1.42405    -402.353E-03    -452.861E-03    -401.889E-03         1.42359    -452.861E-03     12.6699E-03     57.2508E-03    -27.2504E-03    -30.0298E-03    -25.8034E-03     53.0244E-03    -27.2504E-03     36.3390E-03     177.603E+06     81.9726E+06    -16.0437E+06    -16.0432E+06     177.603E+06     81.9726E+06    -198.899E+03         39.0090
             599     14.6013E-03     37.0289E-03         1.44310    -421.222E-03    -455.845E-03    -420.283E-03         1.44217    -455.845E-03    -11.6655E-03     55.6427E-03    -27.0041E-03    -28.6724E-03    -25.9856E-03     52.9559E-03    -27.0041E-03     29.4708E-03     156.726E+06     20.6376E+06    -20.6173E+06    -20.6169E+06     156.726E+06     20.6376E+06    -33.0907E+03         35.7118
             600     13.6270E-03     36.9943E-03         1.45058    -429.166E-03    -458.280E-03    -428.336E-03         1.44975    -458.280E-03    -18.4491E-03     55.6437E-03    -26.9467E-03    -28.7124E-03    -26.3263E-03     53.2576E-03    -26.9467E-03     27.5111E-03     97.6886E+06    -13.5624E+06    -22.2885E+06    -22.2876E+06     97.6877E+06    -13.5624E+06     153.419E+03         32.8258
             601     12.6531E-03     36.9709E-03         1.44690    -428.288E-03    -460.753E-03    -427.888E-03         1.44650    -460.753E-03     12.1573E-03     54.8868E-03    -27.0988E-03    -27.8036E-03    -26.5810E-03     53.6643E-03    -27.0988E-03     19.8028E-03     17.8943E+06    -17.2769E+06    -22.8753E+06    -22.8650E+06     14.7909E+06    -14.1838E+06     89.4684E+03         30.5777
             602     11.6793E-03     36.9530E-03         1.45743    -437.802E-03    -463.201E-03    -437.267E-03         1.45690    -463.201E-03    -12.3058E-03     54.7365E-03    -27.2316E-03    -27.5367E-03    -26.7891E-03     53.9889E-03    -27.2316E-03     15.5088E-03    -9.95563E+06    -21.1556E+06    -42.9602E+06    -24.1144E+06    -40.0014E+06    -9.95563E+06     134.857E+03         28.7594
             603     10.7058E-03     36.9386E-03         1.47756    -446.981E-03    -470.240E-03    -451.743E-03         1.47705    -464.966E-03    -21.0726E-03     54.7003E-03    -27.3109E-03    -27.4262E-03    -26.9060E-03     54.1926E-03    -27.3233E-03     12.8442E-03    -6.06937E+06    -25.8483E+06    -78.7614E+06    -25.8502E+06    -78.7595E+06    -6.06937E+06     255.853E+03         27.2705
             604     9.73222E-03     36.9261E-03         1.48858    -454.648E-03    -471.212E-03    -459.546E-03         1.48821    -465.939E-03     5.41706E-03     54.7589E-03    -27.3625E-03    -27.4025E-03    -26.9547E-03     54.3509E-03    -27.4023E-03     11.5400E-03    -2.38754E+06    -28.1213E+06    -107.896E+06    -28.1221E+06    -107.895E+06    -2.38754E+06     192.390E+03         26.1293
             605     8.75882E-03     36.9146E-03         1.48072    -451.906E-03    -467.179E-03    -451.121E-03         1.47993    -467.179E-03    -16.8316E-03     54.8660E-03    -27.3875E-03    -27.4644E-03    -27.0466E-03     54.5251E-03    -27.4644E-03     10.5538E-03    -2.44145E+06     -31.144E+06    -133.439E+06    -31.1457E+06    -133.438E+06    -2.44145E+06     352.482E+03         25.3599
             606     7.78537E-03     36.9041E-03         1.47068    -443.505E-03    -469.789E-03    -442.842E-03         1.47001    -469.789E-03    -26.3825E-03     54.9148E-03    -27.3920E-03    -27.5182E-03    -27.1158E-03     54.6385E-03    -27.5182E-03     9.50818E-03    -4.28667E+06    -34.7772E+06    -157.891E+06    -34.7788E+06    -157.890E+06    -4.28667E+06     333.848E+03         24.9206
             607     6.81202E-03     36.8946E-03         1.48724    -456.944E-03    -476.415E-03    -459.338E-03         1.48568    -472.457E-03    -56.0144E-03     54.9911E-03    -27.4272E-03    -27.5649E-03    -27.1994E-03     54.7633E-03    -27.5649E-03     8.64458E-03    -7.90678E+06    -39.1639E+06    -180.888E+06    -39.1642E+06    -180.887E+06    -7.90678E+06    -49.8869E+03         24.6680
             608     5.83880E-03     36.8859E-03         1.51143    -470.934E-03    -486.251E-03    -476.252E-03         1.50368    -473.178E-03     82.8616E-03     55.0713E-03    -27.4755E-03    -27.5961E-03    -27.2891E-03     54.8849E-03    -27.5961E-03     7.82309E-03    -14.0840E+06    -44.0277E+06    -203.433E+06    -44.0282E+06    -203.432E+06    -14.0840E+06    -85.2582E+03         24.4866
             609     4.86554E-03     36.8782E-03         1.51709    -465.428E-03    -490.624E-03    -469.599E-03         1.50396    -473.323E-03    -6.15510E-03     55.0847E-03    -27.4817E-03    -27.6044E-03    -27.3377E-03     54.9407E-03    -27.6044E-03     6.87098E-03    -22.1880E+06    -49.2348E+06    -224.750E+06    -49.2349E+06    -224.750E+06    -22.1880E+06    -12.5409E+03         24.3406
             610     3.89243E-03     36.8716E-03         1.52870    -466.828E-03    -492.876E-03    -465.323E-03         1.50927    -474.946E-03     61.2219E-03     55.0766E-03    -27.4843E-03    -27.5945E-03    -27.3807E-03     54.9730E-03    -27.5945E-03     5.81815E-03    -32.9078E+06    -54.5056E+06    -241.491E+06    -54.5071E+06    -241.489E+06    -32.9078E+06    -398.524E+03         24.2216
             611     2.91917E-03     36.8661E-03         1.57741    -474.594E-03    -530.660E-03    -483.285E-03         1.53026    -474.816E-03    -156.517E-03     55.0777E-03    -27.5108E-03    -27.5685E-03    -27.4454E-03     55.0122E-03    -27.5685E-03     4.59959E-03    -45.4405E+06    -59.3202E+06    -252.038E+06    -59.3221E+06    -252.036E+06    -45.4405E+06    -567.945E+03         24.1289
             612     1.94611E-03     36.8618E-03         1.67262    -465.437E-03    -638.641E-03    -497.534E-03         1.53151    -465.437E-03     307.244E-03     55.0581E-03    -27.5104E-03    -27.5493E-03    -27.5044E-03     55.0257E-03    -27.5228E-03     3.18870E-03    -56.2178E+06    -63.4808E+06    -258.973E+06    -63.4821E+06    -258.972E+06    -56.2178E+06     17.8857E+03         24.0648
             613     973.236E-06     36.8594E-03         2.29321    -422.274E-03        -1.31641     274.781E-03         1.46905        -1.18930    -920.314E-03     54.9530E-03    -27.3952E-03    -27.5595E-03    -27.5470E-03     54.9423E-03    -27.3971E-03     1.73036E-03    -64.3825E+06    -67.0950E+06    -262.480E+06    -66.8737E+06    -262.479E+06    -64.6048E+06     88.5819E+03         24.0296
             614     16.5502E-03     36.0497E-03         1.42335    -399.438E-03    -454.664E-03    -399.161E-03         1.42307    -454.664E-03     1.35981E-03     56.2539E-03    -26.4638E-03    -29.8564E-03    -25.5160E-03     52.9261E-03    -27.4763E-03     28.3537E-03     195.423E+06     135.138E+06    -8.71529E+06    -8.71517E+06     195.423E+06     135.138E+06     41.5870E+03         41.9278
             615     15.5755E-03     36.0006E-03         1.42734    -400.037E-03    -458.289E-03    -399.650E-03         1.42695    -458.289E-03     8.74340E-03     57.2292E-03    -27.2567E-03    -29.9979E-03    -25.7960E-03     53.0273E-03    -27.2567E-03     36.1931E-03     177.655E+06     82.8499E+06    -16.3189E+06    -16.3186E+06     177.654E+06     82.8499E+06    -102.551E+03         38.9968
             616     14.6009E-03     35.9735E-03         1.44682    -420.999E-03    -461.662E-03    -420.418E-03         1.44624    -461.662E-03    -5.03806E-03     55.6617E-03    -27.0103E-03    -28.6838E-03    -26.0211E-03     52.9990E-03    -27.0103E-03     29.3376E-03     156.534E+06     21.3131E+06    -20.9668E+06    -20.9661E+06     156.533E+06     21.3131E+06    -132.024E+03         35.7022
             617     13.6271E-03     35.9389E-03         1.46843    -439.608E-03    -464.081E-03    -439.193E-03         1.46802    -464.081E-03    -16.4546E-03     55.6749E-03    -26.9483E-03    -28.7467E-03    -26.3688E-03     53.2971E-03    -26.9483E-03     27.4738E-03     97.7469E+06    -13.7763E+06    -22.6098E+06    -22.6092E+06     97.7463E+06    -13.7763E+06    -27.8061E+03         32.8192
             618     12.6530E-03     35.9159E-03         1.47223    -444.457E-03    -465.934E-03    -444.193E-03         1.47196    -465.934E-03    -3.13569E-03     54.8633E-03    -27.0991E-03    -27.7829E-03    -26.5652E-03     53.6456E-03    -27.0991E-03     19.7628E-03     17.8440E+06    -17.3557E+06    -23.3539E+06    -23.3378E+06     14.8568E+06    -14.3845E+06     235.849E+03         30.5731
             619     11.6793E-03     35.8974E-03         1.47576    -446.441E-03    -467.747E-03    -446.057E-03         1.47538    -467.747E-03    -29.2235E-03     54.7130E-03    -27.2328E-03    -27.5104E-03    -26.7628E-03     53.9654E-03    -27.2328E-03     15.5040E-03    -10.2889E+06    -21.4405E+06    -43.2316E+06    -24.4786E+06    -40.1935E+06    -10.2889E+06     338.757E+03         28.7562
             620     10.7058E-03     35.8833E-03         1.49375    -453.860E-03    -474.437E-03    -458.805E-03         1.49342    -469.163E-03    -25.7307E-03     54.6969E-03    -27.3142E-03    -27.4175E-03    -26.9025E-03     54.1943E-03    -27.3266E-03     12.7728E-03    -6.16669E+06    -26.2163E+06    -78.6366E+06    -26.2183E+06    -78.6346E+06    -6.16669E+06     301.547E+03         27.2683
             621     9.73219E-03     35.8707E-03         1.50043    -457.959E-03    -475.331E-03    -462.574E-03         1.49977    -470.058E-03     27.3629E-03     54.7666E-03    -27.3560E-03    -27.4172E-03    -26.9630E-03     54.3625E-03    -27.4062E-03     11.4869E-03    -2.53009E+06    -28.5707E+06    -107.872E+06    -28.5729E+06    -107.870E+06    -2.53009E+06     365.118E+03         26.1279
             622     8.75870E-03     35.8590E-03         1.49068    -451.847E-03    -471.658E-03    -450.775E-03         1.48961    -471.658E-03     565.581E-06     54.8709E-03    -27.3892E-03    -27.4676E-03    -27.0496E-03     54.5313E-03    -27.4676E-03     10.5312E-03    -2.63341E+06    -31.5630E+06    -133.530E+06    -31.5655E+06    -133.528E+06    -2.63341E+06     362.600E+03         25.3596
             623     7.78543E-03     35.8486E-03         1.49160    -451.737E-03    -476.022E-03    -452.857E-03         1.49091    -474.209E-03    -19.5910E-03     54.9335E-03    -27.4086E-03    -27.5201E-03    -27.1336E-03     54.6585E-03    -27.5201E-03     9.49084E-03    -4.29653E+06    -34.9894E+06    -157.493E+06    -34.9912E+06    -157.491E+06    -4.29653E+06     336.194E+03         24.9210
             624     6.81203E-03     35.8392E-03         1.51675    -467.023E-03    -489.650E-03    -479.544E-03         1.51488    -475.259E-03    -58.0567E-03     54.9892E-03    -27.4239E-03    -27.5662E-03    -27.1951E-03     54.7604E-03    -27.5662E-03     8.66300E-03    -7.78175E+06    -39.0077E+06    -180.439E+06    -39.0081E+06    -180.438E+06    -7.78175E+06     169.232E+03         24.6679
             625     5.83876E-03     35.8304E-03         1.52319    -472.983E-03    -492.548E-03    -486.148E-03         1.51773    -473.927E-03     37.0733E-03     55.0512E-03    -27.4515E-03    -27.6004E-03    -27.2654E-03     54.8650E-03    -27.6004E-03     7.81530E-03    -14.1140E+06    -43.7932E+06    -203.505E+06    -43.7932E+06    -203.505E+06    -14.1140E+06    -38.5141E+03         24.4856
             626     4.86555E-03     35.8228E-03         1.50029    -458.604E-03    -481.085E-03    -453.586E-03         1.48922    -475.042E-03    -47.4397E-03     55.0790E-03    -27.4663E-03    -27.6136E-03    -27.3220E-03     54.9347E-03    -27.6136E-03     6.88068E-03    -22.2174E+06    -48.9908E+06    -224.571E+06    -48.9908E+06    -224.571E+06    -22.2174E+06    -90.5713E+03         24.3393
             627     3.89228E-03     35.8162E-03         1.52202    -465.529E-03    -483.892E-03    -448.740E-03         1.50259    -481.246E-03     53.6591E-03     55.1115E-03    -27.5077E-03    -27.6051E-03    -27.4028E-03     55.0066E-03    -27.6051E-03     5.85813E-03    -33.0033E+06    -54.4841E+06    -240.950E+06    -54.4852E+06    -240.948E+06    -33.0033E+06    -335.013E+03         24.2208
             628     2.91926E-03     35.8107E-03         1.60511    -482.594E-03    -545.679E-03    -497.733E-03         1.55739    -482.817E-03    -173.170E-03     55.1170E-03    -27.5418E-03    -27.5770E-03    -27.4755E-03     55.0507E-03    -27.5770E-03     4.62919E-03    -45.5336E+06    -59.9929E+06    -252.603E+06    -59.9942E+06    -252.601E+06    -45.5336E+06    -352.229E+03         24.1291
             629     1.94617E-03     35.8066E-03         1.69289    -464.676E-03    -658.280E-03    -527.280E-03         1.56189    -464.676E-03     261.394E-03     55.0576E-03    -27.5060E-03    -27.5524E-03    -27.4995E-03     55.0246E-03    -27.5260E-03     3.22238E-03    -56.8946E+06    -64.5250E+06    -259.666E+06    -64.5261E+06    -259.665E+06    -56.8946E+06     84.8993E+03         24.0655
             630     973.094E-06     35.8039E-03         2.30148    -462.895E-03        -1.27060     239.316E-03         1.46588        -1.13722        -1.00736     54.9632E-03    -27.4074E-03    -27.5561E-03    -27.5330E-03     54.9524E-03    -27.4197E-03     1.70695E-03    -65.0344E+06    -67.3274E+06    -261.799E+06    -67.3213E+06    -261.798E+06    -65.0415E+06     102.226E+03         24.0295
             631     16.5499E-03     34.9938E-03         1.43854    -411.417E-03    -459.627E-03    -410.913E-03         1.43803    -459.627E-03    -10.9843E-03     56.1924E-03    -26.4207E-03    -29.8254E-03    -25.4639E-03     52.8829E-03    -27.4727E-03     28.3051E-03     195.445E+06     134.648E+06    -8.84128E+06    -8.84116E+06     195.445E+06     134.648E+06     28.9277E+03         41.9190
             632     15.5756E-03     34.9455E-03         1.44209    -413.470E-03    -462.776E-03    -412.598E-03         1.44122    -462.776E-03     10.6907E-03     57.2567E-03    -27.2572E-03    -30.0175E-03    -25.8300E-03     53.0692E-03    -27.2572E-03     36.1631E-03     177.940E+06     83.4968E+06    -16.1719E+06    -16.1718E+06     177.940E+06     83.4968E+06    -17.0180E+03         38.9890
             633     14.6014E-03     34.9179E-03         1.45393    -419.982E-03    -466.051E-03    -418.905E-03         1.45286    -466.051E-03    -2.69494E-03     55.6652E-03    -27.0116E-03    -28.6784E-03    -26.0235E-03     53.0104E-03    -27.0116E-03     29.3035E-03     156.564E+06     22.0784E+06    -20.8353E+06    -20.8337E+06     156.563E+06     22.0784E+06     113.350E+03         35.6967
             634     13.6268E-03     34.8837E-03         1.47356    -435.088E-03    -468.972E-03    -434.258E-03         1.47273    -468.972E-03    -15.3348E-03     55.6400E-03    -26.9499E-03    -28.7104E-03    -26.3425E-03     53.2721E-03    -26.9499E-03     27.4202E-03      97.479E+06    -13.8604E+06    -23.0020E+06    -23.0000E+06     97.4770E+06    -13.8604E+06     218.504E+03         32.8160
             635     12.6531E-03     34.8602E-03         1.49562    -457.274E-03    -470.859E-03    -456.785E-03         1.49513    -470.859E-03     5.90557E-03     54.8805E-03    -27.1009E-03    -27.7981E-03    -26.5805E-03     53.6629E-03    -27.1009E-03     19.7567E-03     17.6210E+06    -17.1448E+06    -24.0499E+06    -24.0367E+06     14.7217E+06    -14.2586E+06     295.610E+03         30.5714
             636     11.6794E-03     34.8423E-03         1.49959    -459.821E-03    -472.021E-03    -459.372E-03         1.49914    -472.021E-03     3.38808E-03     54.6972E-03    -27.2316E-03    -27.4922E-03    -26.7432E-03     53.9483E-03    -27.2316E-03     15.5283E-03    -10.2460E+06    -21.5566E+06    -43.4197E+06    -24.9911E+06    -39.9852E+06    -10.2460E+06     338.582E+03         28.7553
             637     10.7056E-03     34.8276E-03         1.49374    -450.220E-03    -473.711E-03    -449.964E-03         1.49349    -473.711E-03     17.5493E-03     54.6997E-03    -27.3263E-03    -27.4040E-03    -26.8990E-03     54.1966E-03    -27.3282E-03     12.7679E-03    -5.83078E+06    -26.4651E+06    -78.5344E+06    -26.4676E+06    -78.5319E+06    -5.83078E+06     346.255E+03         27.2678
             638     9.73229E-03     34.8154E-03         1.49936    -452.015E-03    -476.104E-03    -451.370E-03         1.49872    -476.104E-03     38.1984E-03     54.7830E-03    -27.3677E-03    -27.4180E-03    -26.9802E-03     54.3845E-03    -27.4070E-03     11.4133E-03    -2.22005E+06    -28.8217E+06    -107.729E+06    -28.8243E+06    -107.727E+06    -2.22005E+06     431.086E+03         26.1275
             639     8.75876E-03     34.8036E-03         1.51497    -463.559E-03    -479.728E-03    -463.965E-03         1.51385    -478.204E-03     4.82306E-03     54.8524E-03    -27.3714E-03    -27.4665E-03    -27.0322E-03     54.5133E-03    -27.4665E-03     10.5215E-03    -2.58970E+06    -31.7340E+06    -133.311E+06    -31.7354E+06    -133.310E+06    -2.58970E+06     237.034E+03         25.3593
             640     7.78530E-03     34.7933E-03         1.53312    -474.713E-03    -489.451E-03    -484.352E-03         1.53201    -478.700E-03     1.42718E-03     54.9255E-03    -27.4000E-03    -27.5207E-03    -27.1264E-03     54.6518E-03    -27.5207E-03     9.46600E-03    -4.24363E+06    -35.0617E+06    -157.460E+06    -35.0623E+06    -157.460E+06    -4.24363E+06     26.6769E+03         24.9207
             641     6.81205E-03     34.7839E-03         1.53740    -477.068E-03    -497.264E-03    -495.519E-03         1.53566    -477.068E-03    -22.0089E-03     54.9851E-03    -27.4175E-03    -27.5688E-03    -27.1898E-03     54.7573E-03    -27.5688E-03     8.64284E-03    -7.65283E+06    -38.9829E+06    -180.289E+06    -38.9836E+06    -180.289E+06    -7.65283E+06     95.6828E+03         24.6676
             642     5.83871E-03     34.7751E-03         1.51689    -472.102E-03    -486.467E-03    -478.940E-03         1.51276    -475.499E-03     40.5747E-03     55.0266E-03    -27.4236E-03    -27.6053E-03    -27.2379E-03     54.8409E-03    -27.6053E-03     7.80336E-03    -14.1080E+06    -43.5884E+06    -203.289E+06    -43.5885E+06    -203.289E+06    -14.1080E+06     50.5028E+03         24.4852
             643     4.86538E-03     34.7674E-03         1.50409    -464.888E-03    -477.289E-03    -456.915E-03         1.49612    -477.289E-03    -28.1423E-03     55.0764E-03    -27.4555E-03    -27.6229E-03    -27.3114E-03     54.9323E-03    -27.6229E-03     6.87496E-03    -22.2544E+06    -48.6525E+06    -224.450E+06    -48.6526E+06    -224.450E+06    -22.2544E+06    -71.8673E+03         24.3383
             644     3.89228E-03     34.7606E-03         1.53138    -473.082E-03    -489.390E-03    -460.238E-03         1.51123    -482.085E-03     110.554E-03     55.1305E-03    -27.5126E-03    -27.6191E-03    -27.4072E-03     55.0251E-03    -27.6191E-03     5.87425E-03    -32.8165E+06    -53.9496E+06    -240.746E+06    -53.9497E+06    -240.745E+06    -32.8165E+06    -110.527E+03         24.2190
             645     2.91913E-03     34.7552E-03         1.57599    -481.470E-03    -524.291E-03    -473.327E-03         1.53070    -487.145E-03    -106.299E-03     55.1472E-03    -27.5531E-03    -27.5953E-03    -27.4861E-03     55.0803E-03    -27.5953E-03     4.65211E-03    -45.0869E+06    -59.0619E+06    -252.707E+06    -59.0623E+06    -252.707E+06    -45.0869E+06    -122.818E+03         24.1278
             646     1.94612E-03     34.7512E-03         1.67660    -486.708E-03    -617.511E-03    -480.956E-03         1.54572    -492.383E-03     318.419E-03     55.0818E-03    -27.5243E-03    -27.5589E-03    -27.4912E-03     55.0488E-03    -27.5589E-03     3.22169E-03    -56.1013E+06    -63.0244E+06    -260.153E+06    -63.0248E+06    -260.153E+06    -56.1013E+06    -77.7968E+03         24.0655
             647     972.984E-06     34.7486E-03         2.35239    -508.334E-03        -1.26943     183.423E-03         1.56535        -1.17414        -1.02008     55.0539E-03    -27.4716E-03    -27.5833E-03    -27.5478E-03     55.0434E-03    -27.4965E-03     1.67334E-03    -63.6651E+06    -65.6299E+06    -261.554E+06    -65.5643E+06    -261.553E+06     -63.731E+06     101.753E+03         24.0312
             648     16.5505E-03     33.9392E-03         1.45084    -415.398E-03    -464.035E-03    -414.580E-03         1.45002    -464.035E-03    -6.97434E-03     56.2119E-03    -26.4742E-03    -29.8013E-03    -25.4832E-03     52.8845E-03    -27.4648E-03     28.3100E-03     195.564E+06     134.290E+06    -8.80472E+06    -8.80463E+06     195.564E+06     134.290E+06     17.3664E+03         41.9167
             649     15.5753E-03     33.8896E-03         1.46936    -431.583E-03    -466.757E-03    -430.421E-03         1.46819    -466.757E-03     12.9328E-03     57.1934E-03    -27.2515E-03    -29.9615E-03    -25.7574E-03     52.9893E-03    -27.2515E-03     36.1800E-03     177.800E+06     82.7505E+06    -16.3151E+06    -16.3143E+06     177.799E+06     82.7505E+06     228.869E+03         38.9875
             650     14.6010E-03     33.8627E-03         1.47374    -431.877E-03    -469.310E-03    -430.234E-03         1.47210    -469.310E-03    -6.59145E-03     55.6561E-03    -27.0159E-03    -28.6612E-03    -26.0062E-03     53.0011E-03    -27.0159E-03     29.2946E-03     156.443E+06     22.6727E+06    -21.2972E+06    -21.2953E+06     156.441E+06     22.6727E+06     402.897E+03         35.6967
             651     13.6271E-03     33.8282E-03         1.47577    -432.281E-03    -472.158E-03    -430.984E-03         1.47448    -472.158E-03    -21.0978E-03     55.6593E-03    -26.9601E-03    -28.7153E-03    -26.3360E-03     53.2799E-03    -26.9601E-03     27.4947E-03     97.4081E+06    -12.5227E+06    -23.2914E+06    -23.2867E+06     97.4033E+06    -12.5227E+06     547.899E+03         32.8173
             652     12.6530E-03     33.8050E-03         1.48817    -441.661E-03    -475.001E-03    -440.976E-03         1.48748    -475.001E-03     3.78492E-03     54.8998E-03    -27.1078E-03    -27.8087E-03    -26.5855E-03     53.6766E-03    -27.1078E-03     19.7987E-03     17.6958E+06    -16.4917E+06    -24.0134E+06    -24.0077E+06     14.8392E+06    -13.6408E+06     327.108E+03         30.5732
             653     11.6793E-03     33.7868E-03         1.50830    -457.001E-03    -477.243E-03    -456.435E-03         1.50773    -477.243E-03    -2.74380E-03     54.7329E-03    -27.2337E-03    -27.5272E-03    -26.7800E-03     53.9857E-03    -27.2337E-03     15.5152E-03    -9.84537E+06    -21.3101E+06    -43.4485E+06    -24.9569E+06    -39.8017E+06    -9.84537E+06     173.865E+03         28.7570
             654     10.7058E-03     33.7723E-03         1.52025    -465.384E-03    -478.810E-03    -464.824E-03         1.51969    -478.810E-03    -98.0906E-06     54.6859E-03    -27.3135E-03    -27.4039E-03    -26.8831E-03     54.1796E-03    -27.3280E-03     12.8128E-03    -5.61428E+06    -26.4323E+06    -78.6665E+06    -26.4346E+06    -78.6642E+06    -5.61428E+06     314.233E+03         27.2690
             655     9.73214E-03     33.7599E-03         1.51970    -460.720E-03    -480.507E-03    -460.101E-03         1.51908    -480.507E-03     2.15877E-03     54.7790E-03    -27.3732E-03    -27.4076E-03    -26.9728E-03     54.3786E-03    -27.4076E-03     11.4351E-03    -1.84578E+06    -28.5205E+06    -107.530E+06    -28.5218E+06    -107.529E+06    -1.84578E+06     231.831E+03         26.1281
             656     8.75879E-03     33.7484E-03         1.52888    -466.618E-03    -483.913E-03    -467.293E-03         1.52803    -482.389E-03    -11.6238E-03     54.8690E-03    -27.3880E-03    -27.4660E-03    -27.0484E-03     54.5294E-03    -27.4660E-03     10.5353E-03    -2.14970E+06    -31.2366E+06    -132.785E+06    -31.2369E+06    -132.785E+06    -2.14970E+06     82.7044E+03         25.3587
             657     7.78539E-03     33.7377E-03         1.54883    -479.487E-03    -491.933E-03    -487.144E-03         1.54755    -482.995E-03     8.93966E-03     54.9104E-03    -27.3856E-03    -27.5195E-03    -27.1096E-03     54.6344E-03    -27.5195E-03     9.50240E-03    -4.23200E+06    -34.6292E+06    -157.411E+06    -34.6296E+06    -157.411E+06    -4.23200E+06    -138.627E+03         24.9194
             658     6.81202E-03     33.7284E-03         1.54742    -479.239E-03    -492.227E-03    -486.908E-03         1.54533    -482.464E-03    -18.0387E-03     54.9752E-03    -27.4058E-03    -27.5700E-03    -27.1796E-03     54.7490E-03    -27.5700E-03     8.61379E-03    -7.78194E+06    -38.7656E+06    -180.480E+06    -38.7660E+06    -180.480E+06    -7.78194E+06    -57.1579E+03         24.6671
             659     5.83868E-03     33.7197E-03         1.53959    -477.219E-03    -490.263E-03    -480.631E-03         1.53509    -482.353E-03     40.4955E-03     55.0341E-03    -27.4297E-03    -27.6060E-03    -27.2454E-03     54.8498E-03    -27.6060E-03     7.77363E-03    -14.1946E+06    -43.3665E+06    -203.044E+06    -43.3666E+06    -203.044E+06    -14.1946E+06     31.2151E+03         24.4855
             660     4.86544E-03     33.7121E-03         1.54302    -478.516E-03    -496.381E-03    -484.120E-03         1.53462    -482.373E-03    -29.5679E-03     55.0773E-03    -27.4560E-03    -27.6231E-03    -27.3136E-03     54.9349E-03    -27.6231E-03     6.83246E-03    -22.3961E+06    -48.3615E+06    -224.474E+06    -48.3617E+06    -224.474E+06    -22.3961E+06    -138.310E+03         24.3385
             661     3.89220E-03     33.7054E-03         1.54298    -479.505E-03    -496.801E-03    -471.885E-03         1.52225    -483.696E-03     105.780E-03     55.1095E-03    -27.4899E-03    -27.6200E-03    -27.3859E-03     55.0054E-03    -27.6200E-03     5.83540E-03    -33.1883E+06    -53.4080E+06    -240.599E+06    -53.4084E+06    -240.598E+06    -33.1883E+06    -189.022E+03         24.2187
             662     2.91911E-03     33.6998E-03         1.56080    -483.786E-03    -509.085E-03    -449.807E-03         1.50998    -492.247E-03    -126.488E-03     55.1324E-03    -27.5206E-03    -27.6111E-03    -27.4548E-03     55.0666E-03    -27.6111E-03     4.60730E-03    -44.6639E+06    -57.6430E+06    -252.723E+06    -57.6438E+06    -252.722E+06    -44.6639E+06    -329.009E+03         24.1271
             663     1.94599E-03     33.6956E-03         1.66229    -510.248E-03    -585.376E-03    -449.482E-03         1.53207    -515.923E-03     270.430E-03     55.1338E-03    -27.5357E-03    -27.5983E-03    -27.5034E-03     55.1014E-03    -27.5983E-03     3.19128E-03    -54.1887E+06    -61.3884E+06    -260.378E+06    -61.3894E+06    -260.377E+06    -54.1887E+06    -324.724E+03         24.0660
             664     973.016E-06     33.6933E-03         2.33370    -517.258E-03        -1.24604     123.887E-03         1.63529        -1.18877    -991.119E-03     55.1399E-03    -27.5037E-03    -27.6383E-03    -27.6044E-03     55.1289E-03    -27.5267E-03     1.76147E-03    -61.4824E+06    -64.1297E+06    -261.611E+06    -64.0718E+06    -261.610E+06    -61.5412E+06    -140.574E+03         24.0337
             665     16.5501E-03     32.8834E-03         1.47187    -417.508E-03    -467.805E-03    -416.826E-03         1.47118    -467.805E-03     8.38710E-03     56.2706E-03    -26.5061E-03    -29.8257E-03    -25.5388E-03     52.9429E-03    -27.4653E-03     28.3668E-03     195.472E+06     134.426E+06    -8.83436E+06    -8.83424E+06     195.472E+06     134.426E+06     71.9332E+03         41.9224
             666     15.5759E-03     32.8348E-03         1.48909    -435.650E-03    -470.543E-03    -434.681E-03         1.48813    -470.543E-03     22.7985E-03     57.1704E-03    -27.2451E-03    -29.9478E-03    -25.7299E-03     52.9524E-03    -27.2451E-03     36.2697E-03     177.423E+06     81.4614E+06    -16.1174E+06    -16.1163E+06     177.422E+06     81.4614E+06     387.910E+03         38.9944
             667     14.6011E-03     32.8070E-03         1.49311    -442.126E-03    -472.866E-03    -440.767E-03         1.49175    -472.866E-03     8.82632E-03     55.5901E-03    -27.0106E-03    -28.6052E-03    -25.9422E-03     52.9270E-03    -27.0106E-03     29.3312E-03     156.245E+06     21.6836E+06    -20.4723E+06    -20.4693E+06     156.242E+06     21.6836E+06     589.292E+03         35.7038
             668     13.6268E-03     32.7730E-03         1.49133    -439.328E-03    -475.393E-03    -437.995E-03         1.49000    -475.393E-03     6.10643E-03     55.6785E-03    -26.9617E-03    -28.7289E-03    -26.3535E-03     53.3030E-03    -26.9617E-03     27.4897E-03     97.5590E+06    -12.1175E+06    -22.4206E+06    -22.4153E+06     97.5537E+06    -12.1175E+06     545.578E+03         32.8239
             669     12.6530E-03     32.7495E-03         1.49898    -438.682E-03    -478.383E-03    -437.858E-03         1.49815    -478.383E-03     29.3985E-03     54.9498E-03    -27.1084E-03    -27.8569E-03    -26.6288E-03     53.7217E-03    -27.1084E-03     19.8464E-03     18.1302E+06    -16.0955E+06    -23.2222E+06    -23.2023E+06     15.3656E+06    -13.3509E+06     381.282E+03         30.5789
             670     11.6794E-03     32.7313E-03         1.52448    -458.072E-03    -480.967E-03    -457.779E-03         1.52419    -480.967E-03     5.37684E-03     54.7475E-03    -27.2341E-03    -27.5442E-03    -26.8005E-03     54.0037E-03    -27.2341E-03     15.4776E-03    -9.73011E+06    -20.6603E+06    -43.3258E+06    -24.2453E+06    -39.7408E+06    -9.73011E+06     195.136E+03         28.7616
             671     10.7057E-03     32.7170E-03         1.54258    -476.561E-03    -482.258E-03    -475.987E-03         1.54200    -482.258E-03    -13.3466E-03     54.6765E-03    -27.3058E-03    -27.4043E-03    -26.8752E-03     54.1693E-03    -27.3276E-03     12.8323E-03    -5.57932E+06    -25.8022E+06    -78.6699E+06    -25.8034E+06    -78.6687E+06    -5.57932E+06     154.180E+03         27.2723
             672     9.73222E-03     32.7044E-03         1.54235    -474.421E-03    -485.066E-03    -475.627E-03         1.54143    -482.942E-03     2.17169E-03     54.7640E-03    -27.3581E-03    -27.4086E-03    -26.9537E-03     54.3596E-03    -27.4086E-03     11.4877E-03    -1.78017E+06    -28.0210E+06    -107.291E+06    -28.0213E+06    -107.291E+06    -1.78017E+06     76.5762E+03         26.1298
             673     8.75876E-03     32.6930E-03         1.54375    -474.436E-03    -485.913E-03    -475.503E-03         1.54269    -483.789E-03    -3.74874E-03     54.8757E-03    -27.3928E-03    -27.4680E-03    -27.0534E-03     54.5363E-03    -27.4680E-03     10.5336E-03    -2.23322E+06    -30.9399E+06    -132.677E+06    -30.9399E+06    -132.677E+06    -2.23322E+06    -37.7577E+03         25.3586
             674     7.78535E-03     32.6824E-03         1.54151    -475.120E-03    -484.920E-03    -474.292E-03         1.54068    -484.920E-03    -12.6810E-03     54.9227E-03    -27.3959E-03    -27.5213E-03    -27.1178E-03     54.6446E-03    -27.5213E-03     9.54004E-03    -4.33967E+06    -34.4944E+06    -157.334E+06    -34.4946E+06    -157.334E+06    -4.33967E+06    -29.2261E+03         24.9181
             675     6.81199E-03     32.6729E-03         1.54127    -471.666E-03    -486.857E-03    -469.139E-03         1.53874    -486.857E-03    -61.7393E-03     54.9914E-03    -27.4194E-03    -27.5714E-03    -27.1927E-03     54.7647E-03    -27.5714E-03     8.62227E-03    -7.85600E+06    -38.7933E+06    -180.573E+06    -38.7936E+06    -180.573E+06    -7.85600E+06    -43.5742E+03         24.6664
             676     5.83874E-03     32.6644E-03         1.56462    -479.613E-03    -501.089E-03    -486.214E-03         1.55845    -488.317E-03     32.1088E-03     55.0536E-03    -27.4488E-03    -27.6047E-03    -27.2655E-03     54.8703E-03    -27.6047E-03     7.75575E-03    -14.1451E+06    -43.4158E+06    -202.797E+06    -43.4160E+06    -202.797E+06    -14.1451E+06    -119.370E+03         24.4858
             677     4.86548E-03     32.6566E-03         1.58310    -486.227E-03    -520.219E-03    -509.120E-03         1.57200    -486.227E-03    -46.3931E-03     55.0801E-03    -27.4640E-03    -27.6177E-03    -27.3209E-03     54.9370E-03    -27.6177E-03     6.85174E-03    -22.4405E+06    -48.1394E+06    -224.269E+06    -48.1404E+06    -224.268E+06    -22.4405E+06    -339.652E+03         24.3396
             678     3.89231E-03     32.6500E-03         1.56648    -480.286E-03    -513.647E-03    -490.055E-03         1.54568    -483.072E-03     61.4612E-03     55.0993E-03    -27.4869E-03    -27.6140E-03    -27.3829E-03     54.9954E-03    -27.6140E-03     5.82859E-03    -32.9888E+06    -52.9727E+06    -240.457E+06    -52.9743E+06    -240.456E+06    -32.9888E+06    -506.635E+03         24.2198
             679     2.91910E-03     32.6443E-03         1.58174    -480.924E-03    -527.646E-03    -474.446E-03         1.53133    -483.710E-03    -154.599E-03     55.1058E-03    -27.4934E-03    -27.6127E-03    -27.4289E-03     55.0413E-03    -27.6127E-03     4.56162E-03    -43.9066E+06    -57.6710E+06    -252.829E+06    -57.6729E+06    -252.827E+06    -43.9066E+06    -592.862E+03         24.1276
             680     1.94598E-03     32.6402E-03         1.66505    -485.750E-03    -604.849E-03    -483.370E-03         1.54357    -485.750E-03     221.601E-03     55.1260E-03    -27.5157E-03    -27.6100E-03    -27.4834E-03     55.0937E-03    -27.6100E-03     3.20363E-03    -53.9375E+06    -61.6738E+06    -260.769E+06    -61.6759E+06    -260.767E+06    -53.9375E+06    -619.441E+03         24.0665
             681     972.939E-06     32.6375E-03         2.24798    -501.674E-03        -1.16917     112.453E-03         1.54934        -1.08465    -980.403E-03     55.1756E-03    -27.5234E-03    -27.6530E-03    -27.6101E-03     55.1639E-03    -27.5546E-03     1.82880E-03    -62.2225E+06    -64.6487E+06    -262.128E+06    -64.6115E+06    -262.125E+06    -62.2621E+06    -655.645E+03         24.0345
             682     16.5503E-03     31.8280E-03         1.47069    -414.976E-03    -470.365E-03    -414.479E-03         1.47019    -470.365E-03     1.08902E-03     56.2188E-03    -26.4582E-03    -29.8213E-03    -25.4771E-03     52.8888E-03    -27.4725E-03     28.3938E-03     195.434E+06     134.427E+06    -8.75259E+06    -8.75235E+06     195.434E+06     134.427E+06     176.099E+03         41.9370
             683     15.5753E-03     31.7794E-03         1.48723    -427.906E-03    -473.526E-03    -427.136E-03         1.48646    -473.526E-03     15.3516E-03     57.2306E-03    -27.2532E-03    -30.0014E-03    -25.7674E-03     52.9966E-03    -27.2532E-03     36.3848E-03     177.325E+06     81.2916E+06    -16.0580E+06    -16.0575E+06     177.324E+06     81.2916E+06     77.1942E+03         39.0103
             684     14.6011E-03     31.7518E-03         1.50539    -439.801E-03    -476.322E-03    -438.334E-03         1.50392    -476.322E-03    -7.31177E-03     55.6614E-03    -27.0115E-03    -28.6766E-03    -25.9924E-03     52.9772E-03    -27.0115E-03     29.4773E-03     155.960E+06     20.7177E+06    -20.2498E+06    -20.2467E+06     155.957E+06     20.7177E+06     446.542E+03         35.7185
             685     13.6268E-03     31.7175E-03         1.51349    -446.138E-03    -478.892E-03    -444.636E-03         1.51199    -478.892E-03    -11.3568E-03     55.6941E-03    -26.9565E-03    -28.7506E-03    -26.3787E-03     53.3222E-03    -26.9565E-03     27.4588E-03     98.0072E+06    -12.8855E+06    -21.7998E+06    -21.7914E+06     97.9989E+06    -12.8855E+06     771.191E+03         32.8362
             686     12.6531E-03     31.6939E-03         1.52199    -454.023E-03    -481.249E-03    -453.417E-03         1.52138    -481.249E-03     30.0117E-03     54.9307E-03    -27.1048E-03    -27.8413E-03    -26.6196E-03     53.7090E-03    -27.1048E-03     19.8028E-03     18.3878E+06    -16.6713E+06    -22.9997E+06    -22.9765E+06     15.5041E+06    -13.8107E+06     543.209E+03         30.5886
             687     11.6793E-03     31.6760E-03         1.53089    -459.785E-03    -483.350E-03    -459.543E-03         1.53065    -483.350E-03     17.3942E-03     54.7368E-03    -27.2353E-03    -27.5325E-03    -26.7871E-03     53.9913E-03    -27.2353E-03     15.4895E-03    -9.85529E+06    -20.7883E+06    -42.9613E+06    -24.1800E+06    -39.5695E+06    -9.85529E+06     326.210E+03         28.7689
             688     10.7058E-03     31.6615E-03         1.54193    -470.696E-03    -485.355E-03    -470.578E-03         1.54149    -485.032E-03    -2.32193E-03     54.6951E-03    -27.3110E-03    -27.4177E-03    -26.8947E-03     54.1896E-03    -27.3285E-03     12.8116E-03    -5.64822E+06    -25.5799E+06    -78.3392E+06    -25.5828E+06    -78.3363E+06    -5.64822E+06     72.5301E+03         27.2774
             689     9.73216E-03     31.6491E-03         1.55909    -483.118E-03    -492.541E-03    -489.411E-03         1.55836    -485.527E-03     7.98285E-03     54.7596E-03    -27.3518E-03    -27.4093E-03    -26.9453E-03     54.3531E-03    -27.4093E-03     11.5194E-03    -1.83016E+06    -27.7247E+06    -107.257E+06    -27.7256E+06    -107.256E+06    -1.83016E+06     17.1637E+03         26.1328
             690     8.75869E-03     31.6375E-03         1.55605    -479.970E-03    -492.029E-03    -485.704E-03         1.55509    -485.339E-03    -4.02968E-03     54.8748E-03    -27.3871E-03    -27.4713E-03    -27.0485E-03     54.5362E-03    -27.4713E-03     10.5146E-03    -2.10539E+06    -30.7797E+06    -132.711E+06    -30.7800E+06    -132.710E+06    -2.10539E+06     106.280E+03         25.3595
             691     7.78532E-03     31.6271E-03         1.54113    -469.881E-03    -486.439E-03    -468.904E-03         1.54015    -486.439E-03    -1.31463E-03     54.9362E-03    -27.4066E-03    -27.5243E-03    -27.1326E-03     54.6623E-03    -27.5243E-03     9.47334E-03    -4.17068E+06    -34.6057E+06    -157.382E+06    -34.6061E+06    -157.381E+06    -4.17068E+06     177.483E+03         24.9176
             692     6.81201E-03     31.6175E-03         1.54906    -471.496E-03    -492.190E-03    -472.629E-03         1.54671    -488.707E-03    -43.1490E-03     54.9936E-03    -27.4205E-03    -27.5726E-03    -27.1933E-03     54.7665E-03    -27.5726E-03     8.63081E-03    -7.69706E+06    -38.7922E+06    -180.287E+06    -38.7927E+06    -180.287E+06    -7.69706E+06        -670.543         24.6651
             693     5.83874E-03     31.6089E-03         1.56576    -479.723E-03    -501.020E-03    -484.823E-03         1.56017    -490.327E-03     37.6153E-03     55.0623E-03    -27.4555E-03    -27.6065E-03    -27.2713E-03     54.8781E-03    -27.6065E-03     7.77617E-03    -13.8514E+06    -43.3532E+06    -202.635E+06    -43.3541E+06    -202.634E+06    -13.8514E+06    -333.702E+03         24.4849
             694     4.86544E-03     31.6012E-03         1.58018    -485.433E-03    -512.356E-03    -497.876E-03         1.57028    -490.014E-03    -38.1614E-03     55.1007E-03    -27.4875E-03    -27.6162E-03    -27.3434E-03     54.9566E-03    -27.6162E-03     6.87587E-03    -22.2459E+06    -48.4406E+06    -223.989E+06    -48.4421E+06    -223.988E+06    -22.2459E+06    -458.646E+03         24.3398
             695     3.89231E-03     31.5945E-03         1.59506    -486.219E-03    -529.406E-03    -510.591E-03         1.57625    -486.219E-03     70.1284E-03     55.1015E-03    -27.4949E-03    -27.6090E-03    -27.3913E-03     54.9979E-03    -27.6090E-03     5.81440E-03    -32.8790E+06    -53.8453E+06    -240.723E+06    -53.8473E+06    -240.721E+06    -32.8790E+06    -570.863E+03         24.2202
             696     2.91919E-03     31.5890E-03         1.60481    -478.063E-03    -547.066E-03    -508.947E-03         1.56669    -478.063E-03    -97.0444E-03     55.0898E-03    -27.4923E-03    -27.5979E-03    -27.4276E-03     55.0251E-03    -27.5979E-03     4.57460E-03    -44.8211E+06    -59.2154E+06    -252.919E+06    -59.2179E+06    -252.916E+06    -44.8211E+06    -408.511E+03         24.1277
             697     1.94604E-03     31.5849E-03         1.67537    -459.604E-03    -629.046E-03    -512.922E-03         1.55925    -459.604E-03     312.941E-03     55.0916E-03    -27.5081E-03    -27.5834E-03    -27.4817E-03     55.0585E-03    -27.5768E-03     3.23094E-03    -56.6574E+06    -64.0194E+06    -260.836E+06    -64.0225E+06    -260.833E+06    -56.6574E+06    -476.471E+03         24.0663
             698     972.959E-06     31.5820E-03         2.21651    -528.472E-03        -1.09817     77.2210E-03         1.48233    -969.673E-03    -969.685E-03     55.0969E-03    -27.4849E-03    -27.6117E-03    -27.5795E-03     55.0855E-03    -27.5057E-03     1.79677E-03    -64.7819E+06    -66.9097E+06    -263.085E+06    -66.7271E+06    -263.082E+06    -64.9676E+06    -717.515E+03         24.0341
             699     16.5499E-03     30.7729E-03         1.46881    -411.882E-03    -471.566E-03    -411.359E-03         1.46828    -471.566E-03    -1.10009E-03     56.1704E-03    -26.4377E-03    -29.7943E-03    -25.4377E-03     52.8509E-03    -27.4748E-03     28.2983E-03     195.407E+06     134.300E+06    -8.81726E+06    -8.81687E+06     195.406E+06     134.300E+06     258.736E+03         41.9603
             700     15.5755E-03     30.7241E-03         1.48736    -425.150E-03    -474.948E-03    -424.238E-03         1.48645    -474.948E-03     17.4483E-03     57.2036E-03    -27.2628E-03    -29.9645E-03    -25.7566E-03     52.9957E-03    -27.2628E-03     36.2304E-03     177.473E+06     82.3949E+06    -16.5880E+06    -16.5861E+06     177.471E+06     82.3949E+06     241.908E+03         39.0353
             701     14.6009E-03     30.6966E-03         1.50993    -441.141E-03    -477.841E-03    -439.223E-03         1.50802    -477.841E-03    -20.4863E-03     55.7322E-03    -27.0238E-03    -28.7332E-03    -26.0552E-03     53.0542E-03    -27.0238E-03     29.4515E-03     155.726E+06     21.9530E+06    -21.6309E+06    -21.6286E+06     155.724E+06     21.9530E+06     312.341E+03         35.7408
             702     13.6270E-03     30.6619E-03         1.52657    -456.713E-03    -480.012E-03    -455.304E-03         1.52516    -480.012E-03    -46.6906E-03     55.7270E-03    -26.9610E-03    -28.7836E-03    -26.4096E-03     53.3530E-03    -26.9610E-03     27.4609E-03     97.9046E+06    -12.8399E+06    -23.3447E+06    -23.3384E+06     97.8983E+06    -12.8399E+06     498.416E+03         32.8535
             703     12.6530E-03     30.6387E-03         1.52837    -459.713E-03    -481.743E-03    -459.252E-03         1.52791    -481.743E-03    -5.48983E-03     54.8737E-03    -27.1059E-03    -27.7835E-03    -26.5704E-03     53.6606E-03    -27.1059E-03     19.7317E-03     18.4410E+06    -16.5748E+06    -23.5523E+06    -23.5245E+06     15.7240E+06    -13.8856E+06     594.880E+03         30.6018
             704     11.6793E-03     30.6205E-03         1.52240    -451.781E-03    -483.949E-03    -451.336E-03         1.52195    -483.949E-03    -15.6500E-03     54.7113E-03    -27.2372E-03    -27.5048E-03    -26.7563E-03     53.9629E-03    -27.2372E-03     15.5138E-03    -9.69554E+06    -20.8148E+06    -42.5904E+06    -24.2159E+06    -39.1893E+06    -9.69554E+06     307.562E+03         28.7785
             705     10.7057E-03     30.6062E-03         1.53777    -465.344E-03    -486.568E-03    -465.439E-03         1.53754    -486.245E-03    -3.55081E-03     54.7143E-03    -27.3227E-03    -27.4274E-03    -26.9161E-03     54.2114E-03    -27.3310E-03     12.7784E-03    -5.47510E+06    -25.7755E+06    -78.0562E+06    -25.7792E+06    -78.0525E+06    -5.47510E+06     69.0461E+03         27.2840
             706     9.73221E-03     30.5937E-03         1.55916    -480.086E-03    -492.211E-03    -484.767E-03         1.55895    -487.322E-03     3.75601E-03     54.7785E-03    -27.3604E-03    -27.4201E-03    -26.9673E-03     54.3745E-03    -27.4093E-03     11.4880E-03    -1.92261E+06    -28.1071E+06    -107.392E+06    -28.1084E+06    -107.391E+06    -1.92261E+06     31.8306E+03         26.1368
             707     8.75872E-03     30.5820E-03         1.55466    -473.245E-03    -492.634E-03    -477.347E-03         1.55419    -488.068E-03    -14.7610E-03     54.8703E-03    -27.3836E-03    -27.4704E-03    -27.0446E-03     54.5313E-03    -27.4704E-03     10.5189E-03    -2.13905E+06    -31.0583E+06    -132.905E+06    -31.0590E+06    -132.905E+06    -2.13905E+06     177.472E+03         25.3611
             708     7.78538E-03     30.5716E-03         1.55383    -474.647E-03    -492.825E-03    -477.168E-03         1.55299    -489.465E-03     4.08004E-03     54.9341E-03    -27.4040E-03    -27.5244E-03    -27.1316E-03     54.6617E-03    -27.5244E-03     9.44706E-03    -3.85327E+06    -34.4199E+06    -157.209E+06    -34.4205E+06    -157.209E+06    -3.85327E+06     270.593E+03         24.9172
             709     6.81200E-03     30.5620E-03         1.56907    -484.891E-03    -498.668E-03    -491.771E-03         1.56742    -490.137E-03    -30.9240E-03     54.9824E-03    -27.4097E-03    -27.5730E-03    -27.1837E-03     54.7564E-03    -27.5730E-03     8.60907E-03    -7.24340E+06    -38.4857E+06    -179.725E+06    -38.4861E+06    -179.724E+06    -7.24340E+06    -6.49104E+03         24.6632
             710     5.83864E-03     30.5535E-03         1.56723    -483.413E-03    -495.624E-03    -485.300E-03         1.56395    -490.453E-03     22.5009E-03     55.0669E-03    -27.4598E-03    -27.6065E-03    -27.2761E-03     54.8831E-03    -27.6065E-03     7.76658E-03    -13.6937E+06    -43.4326E+06    -202.588E+06    -43.4334E+06    -202.587E+06    -13.6937E+06    -318.233E+03         24.4823
             711     4.86552E-03     30.5457E-03         1.56388    -481.111E-03    -494.786E-03    -476.963E-03         1.55738    -492.428E-03    -40.7619E-03     55.1045E-03    -27.4909E-03    -27.6154E-03    -27.3481E-03     54.9617E-03    -27.6154E-03     6.84395E-03    -22.1130E+06    -48.8792E+06    -223.998E+06    -48.8802E+06    -223.998E+06    -22.1130E+06    -347.668E+03         24.3381
             712     3.89235E-03     30.5391E-03         1.59833    -487.821E-03    -525.454E-03    -507.180E-03         1.58433    -492.098E-03     70.0921E-03     55.0963E-03    -27.4915E-03    -27.6057E-03    -27.3881E-03     54.9929E-03    -27.6057E-03     5.81360E-03    -33.0722E+06    -54.3406E+06    -240.931E+06    -54.3417E+06    -240.930E+06    -33.0722E+06    -304.954E+03         24.2195
             713     2.91915E-03     30.5336E-03         1.62637    -483.836E-03    -555.819E-03    -522.233E-03         1.59278    -483.836E-03    -117.085E-03     55.1165E-03    -27.5214E-03    -27.5938E-03    -27.4661E-03     55.0510E-03    -27.5836E-03     4.60327E-03    -45.4548E+06    -59.5013E+06    -253.178E+06    -59.5027E+06    -253.177E+06    -45.4548E+06    -76.8447E+03         24.1272
             714     1.94609E-03     30.5295E-03         1.66846    -474.194E-03    -603.408E-03    -487.340E-03         1.55239    -474.194E-03     312.236E-03     55.0902E-03    -27.5248E-03    -27.5653E-03    -27.5172E-03     55.0570E-03    -27.5398E-03     3.23498E-03    -56.1484E+06    -63.6417E+06    -260.473E+06    -63.6436E+06    -260.471E+06    -56.1484E+06    -202.470E+03         24.0656
             715     973.170E-06     30.5266E-03         2.22504    -524.906E-03        -1.09516     65.1122E-03         1.54680        -1.00693    -950.597E-03     54.9879E-03    -27.4084E-03    -27.5804E-03    -27.5691E-03     54.9766E-03    -27.4084E-03     1.77208E-03    -64.5214E+06    -67.0971E+06    -264.059E+06    -66.9301E+06    -264.057E+06    -64.6902E+06    -477.121E+03         24.0334
             716     16.5504E-03     29.7175E-03         1.47942    -413.027E-03    -471.301E-03    -412.422E-03         1.47882    -471.301E-03    -15.6835E-03     56.2160E-03    -26.4950E-03    -29.7790E-03    -25.5059E-03     52.9188E-03    -27.4708E-03     28.1946E-03     195.145E+06     134.481E+06    -8.80661E+06    -8.80511E+06     195.144E+06     134.481E+06     371.567E+03         41.9905
             717     15.5754E-03     29.6687E-03         1.49127    -425.182E-03    -474.566E-03    -424.207E-03         1.49030    -474.566E-03     2.27155E-03     57.1800E-03    -27.2547E-03    -29.9495E-03    -25.7536E-03     52.9841E-03    -27.2547E-03     36.2003E-03     177.628E+06     82.4691E+06    -16.1325E+06    -16.1283E+06     177.624E+06     82.4691E+06     802.428E+03         39.0679
             718     14.6011E-03     29.6410E-03         1.50332    -440.264E-03    -477.392E-03    -438.552E-03         1.50161    -477.392E-03    -24.0779E-03     55.6961E-03    -27.0167E-03    -28.7051E-03    -26.0261E-03     53.0171E-03    -27.0167E-03     29.4526E-03     155.966E+06     22.0433E+06    -21.0076E+06    -21.0041E+06     155.963E+06     22.0433E+06     668.936E+03         35.7688
             719     13.6269E-03     29.6064E-03         1.51809    -454.072E-03    -479.637E-03    -452.437E-03         1.51645    -479.637E-03    -26.4323E-03     55.6907E-03    -26.9590E-03    -28.7454E-03    -26.3815E-03     53.3267E-03    -26.9590E-03     27.3915E-03     97.7554E+06    -12.6283E+06    -23.1467E+06    -23.1459E+06     97.7546E+06    -12.6283E+06     190.650E+03         32.8744
             720     12.6532E-03     29.5833E-03         1.52665    -460.833E-03    -481.432E-03    -460.053E-03         1.52587    -481.432E-03     12.1768E-03     54.8806E-03    -27.1039E-03    -27.7898E-03    -26.5780E-03     53.6687E-03    -27.1039E-03     19.7273E-03     18.2256E+06    -15.9045E+06    -23.6085E+06    -23.5770E+06     16.0724E+06    -13.7828E+06     67.0762E+03         30.6172
             721     11.6793E-03     29.5652E-03         1.52712    -456.443E-03    -483.405E-03    -455.922E-03         1.52660    -483.405E-03    -11.1323E-03     54.7114E-03    -27.2341E-03    -27.5065E-03    -26.7558E-03     53.9607E-03    -27.2341E-03     15.5360E-03    -9.77538E+06    -20.1298E+06    -43.0520E+06    -24.1440E+06    -39.0378E+06    -9.77538E+06     84.3458E+03         28.7896
             722     10.7057E-03     29.5506E-03         1.52843    -457.742E-03    -485.833E-03    -457.543E-03         1.52823    -485.833E-03     16.8879E-03     54.7084E-03    -27.3306E-03    -27.4128E-03    -26.9125E-03     54.2081E-03    -27.3306E-03     12.7400E-03    -5.27048E+06    -25.6083E+06    -78.1104E+06    -25.6108E+06    -78.1079E+06    -5.27048E+06     148.510E+03         27.2916
             723     9.73224E-03     29.5384E-03         1.53297    -459.775E-03    -488.567E-03    -459.703E-03         1.53290    -488.567E-03     13.9376E-03     54.7936E-03    -27.3769E-03    -27.4184E-03    -26.9890E-03     54.3946E-03    -27.4073E-03     11.4191E-03    -1.77155E+06    -28.0166E+06    -107.255E+06    -28.0179E+06    -107.254E+06    -1.77155E+06     195.038E+03         26.1413
             724     8.75876E-03     29.5266E-03         1.55453    -470.845E-03    -496.586E-03    -476.367E-03         1.55430    -490.834E-03    -10.8534E-03     54.8508E-03    -27.3701E-03    -27.4666E-03    -27.0306E-03     54.5112E-03    -27.4666E-03     10.5305E-03    -2.29576E+06    -31.0567E+06    -133.034E+06    -31.0577E+06    -133.033E+06    -2.29576E+06     154.998E+03         25.3629
             725     7.78533E-03     29.5161E-03         1.57878    -486.564E-03    -504.504E-03    -499.695E-03         1.57853    -491.116E-03    -4.94340E-03     54.9129E-03    -27.3864E-03    -27.5223E-03    -27.1123E-03     54.6388E-03    -27.5223E-03     9.46998E-03     -3.9846E+06    -34.5302E+06    -157.020E+06    -34.5306E+06    -157.020E+06     -3.9846E+06     79.7069E+03         24.9166
             726     6.81201E-03     29.5068E-03         1.57603    -485.257E-03    -499.677E-03    -493.530E-03         1.57498    -490.352E-03    -41.6664E-03     55.0032E-03    -27.4323E-03    -27.5709E-03    -27.2068E-03     54.7777E-03    -27.5709E-03     8.60181E-03    -7.36521E+06    -38.6794E+06    -179.518E+06    -38.6800E+06    -179.518E+06    -7.36521E+06     56.3660E+03         24.6609
             727     5.83880E-03     29.4980E-03         1.56955    -483.187E-03    -493.412E-03    -483.363E-03         1.56706    -490.741E-03     17.4287E-03     55.0611E-03    -27.4576E-03    -27.6021E-03    -27.2736E-03     54.8771E-03    -27.6021E-03     7.77059E-03    -13.8816E+06    -43.5764E+06    -202.483E+06    -43.5768E+06    -202.483E+06    -13.8816E+06     14.6516E+03         24.4793
             728     4.86551E-03     29.4904E-03         1.57426    -485.031E-03    -499.343E-03    -487.651E-03         1.56930    -491.767E-03    -39.5370E-03     55.0804E-03    -27.4668E-03    -27.6126E-03    -27.3249E-03     54.9385E-03    -27.6126E-03     6.82136E-03    -22.3170E+06    -49.0138E+06    -223.999E+06    -49.0140E+06    -223.998E+06    -22.3170E+06    -94.1915E+03         24.3357
             729     3.89225E-03     29.4839E-03         1.58521    -485.414E-03    -511.063E-03    -492.109E-03         1.57302    -492.173E-03     72.5169E-03     55.1116E-03    -27.5070E-03    -27.6038E-03    -27.4040E-03     55.0087E-03    -27.6038E-03     5.80533E-03    -33.1844E+06    -54.5908E+06    -240.979E+06    -54.5911E+06    -240.978E+06    -33.1844E+06    -16.5471E+03         24.2183
             730     2.91922E-03     29.4781E-03         1.61495    -487.698E-03    -537.936E-03    -502.168E-03         1.58166    -490.179E-03    -133.081E-03     55.1378E-03    -27.5448E-03    -27.5913E-03    -27.4983E-03     55.0718E-03    -27.5718E-03     4.61999E-03    -45.5453E+06    -59.5388E+06    -253.095E+06    -59.5395E+06    -253.095E+06    -45.5453E+06    -178.708E+03         24.1265
             731     1.94625E-03     29.4740E-03         1.66690    -491.735E-03    -578.015E-03    -477.637E-03         1.56652    -491.735E-03     241.179E-03     55.0658E-03    -27.5124E-03    -27.5537E-03    -27.5210E-03     55.0330E-03    -27.5124E-03     3.20389E-03    -56.2680E+06    -63.5300E+06    -260.432E+06    -63.5311E+06    -260.431E+06    -56.2680E+06    -399.546E+03         24.0650
             732     973.071E-06     29.4713E-03         2.17972    -478.029E-03        -1.09279     51.5369E-03         1.59933        -1.04197    -894.946E-03     54.9277E-03    -27.3980E-03    -27.5310E-03    -27.5203E-03     54.9170E-03    -27.3980E-03     1.74452E-03    -64.5887E+06    -66.9718E+06    -264.784E+06    -66.9572E+06    -264.776E+06    -64.6115E+06     303.735E+03         24.0325
             733     16.5501E-03     28.6620E-03         1.48793    -416.304E-03    -470.180E-03    -415.867E-03         1.48750    -470.180E-03    -1.03278E-03     56.2682E-03    -26.4970E-03    -29.8346E-03    -25.5528E-03     52.9615E-03    -27.4721E-03     28.3112E-03     194.917E+06     134.615E+06    -8.79072E+06    -8.78917E+06     194.915E+06     134.615E+06     398.009E+03         42.0237
             734     15.5757E-03     28.6136E-03         1.49363    -424.490E-03    -473.294E-03    -423.777E-03         1.49292    -473.294E-03     13.7804E-03     57.2744E-03    -27.2466E-03    -30.0582E-03    -25.8426E-03     53.0588E-03    -27.2466E-03     36.3506E-03     177.456E+06      81.487E+06    -15.9474E+06    -15.9441E+06     177.453E+06      81.487E+06     738.788E+03         39.1033
             735     14.6011E-03     28.5854E-03         1.49546    -427.686E-03    -476.484E-03    -426.453E-03         1.49423    -476.484E-03    -6.83683E-03     55.6599E-03    -27.0024E-03    -28.6836E-03    -26.0013E-03     52.9776E-03    -27.0024E-03     29.4704E-03     156.210E+06     21.0564E+06    -20.0812E+06    -20.0777E+06     156.207E+06     21.0564E+06     789.032E+03         35.7990
             736     13.6270E-03     28.5512E-03         1.50885    -438.693E-03    -479.662E-03    -437.290E-03         1.50744    -479.662E-03     2.48199E-03     55.6017E-03    -26.9519E-03    -28.6589E-03    -26.2942E-03     53.2371E-03    -26.9519E-03     27.3899E-03     98.2625E+06    -12.7968E+06    -21.7814E+06    -21.7797E+06     98.2608E+06    -12.7968E+06     385.339E+03         32.8964
             737     12.6529E-03     28.5280E-03         1.52571    -455.920E-03    -482.233E-03    -455.082E-03         1.52488    -482.233E-03     23.8542E-03     54.9083E-03    -27.1003E-03    -27.8199E-03    -26.5959E-03     53.6843E-03    -27.1003E-03     19.8199E-03     18.2030E+06    -16.3622E+06    -22.9373E+06    -22.9227E+06     16.1211E+06    -14.2949E+06    -66.1403E+03         30.6331
             738     11.6794E-03     28.5098E-03         1.53382    -461.588E-03    -484.275E-03    -460.927E-03         1.53316    -484.275E-03     16.5684E-03     54.7633E-03    -27.2306E-03    -27.5603E-03    -26.8078E-03     54.0107E-03    -27.2306E-03     15.5687E-03    -10.2883E+06    -20.1451E+06    -42.9353E+06    -24.0200E+06    -39.0604E+06    -10.2883E+06    -41.4443E+03         28.8009
             739     10.7058E-03     28.4952E-03         1.53255    -458.806E-03    -486.557E-03    -458.372E-03         1.53211    -486.557E-03     38.3644E-03     54.6949E-03    -27.3166E-03    -27.4117E-03    -26.8961E-03     54.1890E-03    -27.3264E-03     12.8112E-03    -5.79549E+06    -25.4329E+06    -78.4272E+06    -25.4370E+06    -78.4230E+06    -5.79549E+06     231.258E+03         27.2992
             740     9.73220E-03     28.4829E-03         1.53422    -459.705E-03    -489.341E-03    -459.593E-03         1.53411    -489.341E-03     14.0705E-03     54.7771E-03    -27.3746E-03    -27.4065E-03    -26.9731E-03     54.3753E-03    -27.4063E-03     11.4550E-03    -1.81173E+06    -27.7206E+06    -107.166E+06    -27.7241E+06    -107.163E+06    -1.81173E+06     445.524E+03         26.1457
             741     8.75882E-03     28.4713E-03         1.55495    -474.204E-03    -497.229E-03    -479.730E-03         1.55472    -491.477E-03    -2.50026E-03     54.8610E-03    -27.3847E-03    -27.4648E-03    -27.0450E-03     54.5213E-03    -27.4648E-03     10.5354E-03    -2.33392E+06    -30.7784E+06    -132.591E+06    -30.7799E+06    -132.590E+06    -2.33392E+06     305.091E+03         25.3643
             742     7.78535E-03     28.4609E-03         1.57105    -478.529E-03    -502.434E-03    -488.061E-03         1.57056    -492.406E-03     16.6867E-03     54.9116E-03    -27.3916E-03    -27.5175E-03    -27.1160E-03     54.6360E-03    -27.5175E-03     9.49677E-03    -4.49645E+06    -34.4861E+06    -156.925E+06    -34.4863E+06    -156.925E+06    -4.49645E+06     47.6094E+03         24.9156
             743     6.81202E-03     28.4513E-03         1.57250    -477.819E-03    -497.874E-03    -481.274E-03         1.57167    -493.597E-03    -5.50023E-03     54.9988E-03    -27.4333E-03    -27.5660E-03    -27.2080E-03     54.7735E-03    -27.5660E-03     8.59821E-03    -7.97832E+06    -38.7408E+06    -179.710E+06    -38.7412E+06    -179.710E+06    -7.97832E+06     90.4427E+03         24.6589
             744     5.83874E-03     28.4427E-03         1.58485    -488.147E-03    -500.220E-03    -489.745E-03         1.58120    -494.972E-03     68.3968E-03     55.0517E-03    -27.4524E-03    -27.5981E-03    -27.2694E-03     54.8687E-03    -27.5981E-03     7.74960E-03    -14.2783E+06    -43.5053E+06    -202.538E+06    -43.5072E+06    -202.536E+06    -14.2783E+06     357.512E+03         24.4771
             745     4.86547E-03     28.4351E-03         1.60037    -493.729E-03    -517.367E-03    -511.005E-03         1.59401    -493.729E-03    -5.46227E-03     55.0796E-03    -27.4694E-03    -27.6086E-03    -27.3278E-03     54.9379E-03    -27.6086E-03     6.81453E-03    -22.4790E+06    -48.9966E+06    -223.763E+06    -48.9983E+06    -223.761E+06    -22.4790E+06     371.058E+03         24.3336
             746     3.89240E-03     28.4283E-03         1.59058    -488.194E-03    -515.768E-03    -501.475E-03         1.57877    -490.675E-03     73.1234E-03     55.1194E-03    -27.5189E-03    -27.6000E-03    -27.4159E-03     55.0164E-03    -27.6000E-03     5.80580E-03    -33.0886E+06    -54.7168E+06    -240.939E+06     -54.717E+06    -240.939E+06    -33.0886E+06     136.688E+03         24.2168
             747     2.91925E-03     28.4227E-03         1.59701    -489.022E-03    -512.166E-03    -473.732E-03         1.56199    -492.442E-03    -142.328E-03     55.1062E-03    -27.5314E-03    -27.5745E-03    -27.4740E-03     55.0395E-03    -27.5652E-03     4.65254E-03    -46.1276E+06    -59.9115E+06    -252.704E+06    -59.9121E+06    -252.704E+06    -46.1276E+06    -152.912E+03         24.1255
             748     1.94614E-03     28.4184E-03         1.68127    -498.239E-03    -581.678E-03    -484.705E-03         1.58524    -499.178E-03     227.635E-03     55.0429E-03    -27.5020E-03    -27.5413E-03    -27.4969E-03     55.0098E-03    -27.5132E-03     3.20306E-03    -57.3173E+06    -64.4644E+06    -260.586E+06    -64.4657E+06    -260.585E+06    -57.3173E+06    -221.955E+03         24.0636
             749     973.213E-06     28.4162E-03         2.12638    -462.789E-03        -1.05574    -19.2319E-03         1.61334    -986.258E-03    -785.327E-03     54.9470E-03    -27.4285E-03    -27.5194E-03    -27.5094E-03     54.9370E-03    -27.4285E-03     1.65906E-03    -64.5597E+06    -67.4153E+06    -265.241E+06    -67.1916E+06    -265.231E+06    -64.7938E+06     216.285E+03         24.0302
             750     16.5501E-03     27.6066E-03         1.49816    -420.278E-03    -469.530E-03    -420.071E-03         1.49795    -469.530E-03     18.4468E-03     56.3072E-03    -26.4690E-03    -29.8966E-03    -25.5703E-03     52.9921E-03    -27.4802E-03     28.3891E-03     194.538E+06     134.512E+06    -9.00985E+06    -9.00917E+06     194.537E+06     134.512E+06     365.142E+03         42.0551
             751     15.5754E-03     27.5579E-03         1.49530    -421.152E-03    -472.595E-03    -420.795E-03         1.49495    -472.595E-03     19.5830E-03     57.3441E-03    -27.2526E-03    -30.1164E-03    -25.9010E-03     53.1287E-03    -27.2526E-03     36.3662E-03     177.391E+06     81.6012E+06    -16.0543E+06    -16.0534E+06     177.390E+06     81.6012E+06     290.337E+03         39.1366
             752     14.6013E-03     27.5301E-03         1.49686    -422.224E-03    -476.015E-03    -421.731E-03         1.49637    -476.015E-03     4.61566E-03     55.6671E-03    -27.0036E-03    -28.6811E-03    -25.9891E-03     52.9751E-03    -27.0036E-03     29.5104E-03     156.266E+06     20.9908E+06    -19.9576E+06    -19.9557E+06     156.264E+06     20.9908E+06     427.813E+03         35.8271
             753     13.6269E-03     27.4962E-03         1.51527    -439.737E-03    -479.236E-03    -439.253E-03         1.51478    -479.236E-03     11.8032E-03     55.6212E-03    -26.9512E-03    -28.6801E-03    -26.2958E-03     53.2368E-03    -26.9512E-03     27.4982E-03     98.5899E+06    -13.1307E+06    -21.5263E+06    -21.5199E+06     98.5836E+06    -13.1307E+06     609.195E+03         32.9168
             754     12.6530E-03     27.4724E-03         1.52572    -452.012E-03    -481.811E-03    -451.226E-03         1.52494    -481.811E-03    -7.47957E-03     54.9068E-03    -27.0998E-03    -27.8221E-03    -26.5957E-03     53.6804E-03    -27.0998E-03     19.8370E-03     18.3605E+06    -16.4154E+06    -22.4226E+06    -22.4127E+06     16.5693E+06    -14.6340E+06     440.899E+03         30.6477
             755     11.6792E-03     27.4543E-03         1.53116    -452.933E-03    -484.290E-03    -452.229E-03         1.53046    -484.290E-03    -15.3948E-03     54.7476E-03    -27.2306E-03    -27.5467E-03    -26.7948E-03     53.9958E-03    -27.2306E-03     15.5589E-03    -10.8995E+06    -20.2491E+06    -42.8422E+06    -23.8978E+06    -39.1935E+06    -10.8995E+06     252.447E+03         28.8111
             756     10.7057E-03     27.4400E-03         1.54536    -464.619E-03    -486.620E-03    -464.173E-03         1.54492    -486.620E-03     3.25349E-03     54.6989E-03    -27.3139E-03    -27.4193E-03    -26.8967E-03     54.1890E-03    -27.3266E-03     12.8674E-03    -6.58805E+06    -25.7669E+06    -78.7240E+06    -25.7747E+06    -78.7162E+06    -6.58805E+06     400.007E+03         27.3057
             757     9.73219E-03     27.4274E-03         1.55252    -473.694E-03    -488.370E-03    -473.345E-03         1.55218    -488.370E-03     445.580E-06     54.7718E-03    -27.3717E-03    -27.4074E-03    -26.9649E-03     54.3650E-03    -27.4074E-03     11.5244E-03    -2.48413E+06    -28.0122E+06    -107.196E+06    -28.0161E+06    -107.192E+06    -2.48413E+06     526.411E+03         26.1492
             758     8.75870E-03     27.4159E-03         1.54574    -465.990E-03    -490.480E-03    -465.696E-03         1.54545    -490.480E-03     3.94170E-03     54.8931E-03    -27.4183E-03    -27.4649E-03    -27.0782E-03     54.5530E-03    -27.4649E-03     10.5440E-03    -2.81934E+06    -30.9314E+06    -132.249E+06    -30.9341E+06    -132.246E+06    -2.81934E+06     505.658E+03         25.3651
             759     7.78540E-03     27.4055E-03         1.54756    -462.038E-03    -493.876E-03    -461.518E-03         1.54704    -493.876E-03     15.7761E-03     54.9432E-03    -27.4269E-03    -27.5133E-03    -27.1507E-03     54.6670E-03    -27.5133E-03     9.51215E-03    -4.98532E+06    -34.5990E+06    -156.611E+06    -34.6005E+06    -156.609E+06    -4.98532E+06     344.391E+03         24.9146
             760     6.81207E-03     27.3959E-03         1.57667    -479.978E-03    -499.346E-03    -480.669E-03         1.57509    -497.074E-03    -27.5922E-03     54.9845E-03    -27.4258E-03    -27.5602E-03    -27.2003E-03     54.7590E-03    -27.5602E-03     8.59774E-03    -8.48409E+06    -38.9310E+06    -179.888E+06    -38.9323E+06    -179.887E+06    -8.48409E+06     290.361E+03         24.6573
             761     5.83875E-03     27.3872E-03         1.60034    -496.250E-03    -506.818E-03    -501.120E-03         1.59637    -497.980E-03     30.0187E-03     55.0450E-03    -27.4528E-03    -27.5925E-03    -27.2724E-03     54.8646E-03    -27.5925E-03     7.69423E-03    -14.7176E+06    -43.8058E+06    -202.755E+06    -43.8086E+06    -202.753E+06    -14.7176E+06     503.001E+03         24.4753
             762     4.86556E-03     27.3795E-03         1.59990    -491.204E-03    -515.484E-03    -503.045E-03         1.59338    -497.122E-03    -30.1959E-03     55.0704E-03    -27.4685E-03    -27.6017E-03    -27.3276E-03     54.9294E-03    -27.6017E-03     6.80193E-03    -22.6317E+06    -48.7054E+06    -223.470E+06    -48.7074E+06    -223.468E+06    -22.6317E+06     489.226E+03         24.3316
             763     3.89232E-03     27.3729E-03         1.60519    -489.501E-03    -524.486E-03    -504.513E-03         1.59114    -495.420E-03     83.9837E-03     55.0978E-03    -27.5019E-03    -27.5977E-03    -27.3977E-03     54.9936E-03    -27.5977E-03     5.84016E-03    -32.6186E+06    -53.8177E+06    -240.569E+06    -53.8181E+06    -240.569E+06    -32.6186E+06     148.338E+03         24.2151
             764     2.91922E-03     27.3674E-03         1.62082    -493.295E-03    -532.475E-03    -494.786E-03         1.58407    -494.234E-03    -125.613E-03     55.0891E-03    -27.5121E-03    -27.5794E-03    -27.4457E-03     55.0227E-03    -27.5794E-03     4.63213E-03    -44.3357E+06    -59.1571E+06    -252.756E+06    -59.1577E+06    -252.755E+06    -44.3357E+06     108.403E+03         24.1240
             765     1.94612E-03     27.3632E-03         1.68180    -497.769E-03    -582.779E-03    -480.478E-03         1.58044    -498.708E-03     242.466E-03     55.0373E-03    -27.4810E-03    -27.5574E-03    -27.4536E-03     55.0043E-03    -27.5517E-03     3.21920E-03    -55.6306E+06    -63.7617E+06    -260.508E+06    -63.7626E+06    -260.507E+06    -55.6306E+06     336.240E+03         24.0614
             766     972.983E-06     27.3605E-03         2.10602    -470.518E-03        -1.02636    -43.0997E-03         1.61550    -963.256E-03    -739.748E-03     55.0511E-03    -27.4354E-03    -27.6164E-03    -27.5717E-03     55.0406E-03    -27.4695E-03     1.67455E-03    -64.4148E+06    -67.4240E+06    -265.112E+06    -67.1935E+06    -265.108E+06    -64.6489E+06    -358.144E+03         24.0266
             767     16.5500E-03     26.5514E-03         1.48889    -418.130E-03    -468.983E-03    -417.886E-03         1.48865    -468.983E-03     10.7774E-03     56.3316E-03    -26.5154E-03    -29.8687E-03    -25.5654E-03     52.9983E-03    -27.4855E-03     28.4214E-03     194.569E+06     134.966E+06    -8.63178E+06    -8.63109E+06     194.568E+06     134.966E+06     368.343E+03         42.0809
             768     15.5756E-03     26.5021E-03         1.49538    -422.606E-03    -472.025E-03    -422.148E-03         1.49493    -472.025E-03     15.0315E-03     57.2880E-03    -27.2622E-03    -30.0450E-03    -25.8225E-03     53.0656E-03    -27.2622E-03     36.3305E-03     177.444E+06     81.9103E+06    -15.9768E+06    -15.9765E+06     177.443E+06     81.9103E+06     124.358E+03         39.1635
             769     14.6009E-03     26.4751E-03         1.51151    -440.025E-03    -474.719E-03    -439.320E-03         1.51081    -474.719E-03    -4.53913E-03     55.7002E-03    -27.0133E-03    -28.7034E-03    -26.0198E-03     53.0167E-03    -27.0133E-03     29.4688E-03     155.903E+06     20.7787E+06    -20.4429E+06    -20.4421E+06     155.902E+06     20.7787E+06     200.612E+03         35.8496
             770     13.6269E-03     26.4404E-03         1.51741    -443.555E-03    -477.036E-03    -443.050E-03         1.51691    -477.036E-03    -7.36416E-03     55.6920E-03    -26.9539E-03    -28.7523E-03    -26.3637E-03     53.3034E-03    -26.9539E-03     27.5457E-03     98.5794E+06    -13.5694E+06    -22.1181E+06    -22.1105E+06     98.5718E+06    -13.5694E+06     717.153E+03         32.9332
             771     12.6531E-03     26.4171E-03         1.52480    -448.096E-03    -479.402E-03    -447.520E-03         1.52423    -479.402E-03    -11.3620E-03     54.8959E-03    -27.0991E-03    -27.8146E-03    -26.5834E-03     53.6647E-03    -27.0991E-03     19.8804E-03     18.3056E+06    -16.5612E+06    -23.1352E+06    -23.0642E+06     16.8113E+06    -15.1380E+06     890.751E+03         30.6593
             772     11.6792E-03     26.3989E-03         1.53705    -455.053E-03    -481.707E-03    -454.542E-03         1.53654    -481.707E-03    -18.2776E-03     54.7254E-03    -27.2324E-03    -27.5236E-03    -26.7698E-03     53.9716E-03    -27.2324E-03     15.5648E-03    -11.3297E+06    -20.2695E+06    -43.2765E+06    -24.3454E+06    -39.2006E+06    -11.3297E+06     806.548E+03         28.8187
             773     10.7056E-03     26.3845E-03         1.54142    -456.539E-03    -484.060E-03    -456.214E-03         1.54109    -484.060E-03    -2.71442E-03     54.7090E-03    -27.3248E-03    -27.4172E-03    -26.9108E-03     54.2057E-03    -27.3278E-03     12.7842E-03    -7.05347E+06    -26.0559E+06    -78.6003E+06    -26.0655E+06    -78.5908E+06    -7.05347E+06     600.286E+03         27.3102
             774     9.73214E-03     26.3721E-03         1.54401    -459.431E-03    -486.681E-03    -458.988E-03         1.54356    -486.681E-03     6.55067E-03     54.7939E-03    -27.3861E-03    -27.4120E-03    -26.9892E-03     54.3912E-03    -27.4062E-03     11.4703E-03    -3.04012E+06    -28.3047E+06    -107.238E+06    -28.3079E+06    -107.235E+06    -3.04012E+06     501.023E+03         26.1512
             775     8.75873E-03     26.3603E-03         1.55056    -464.471E-03    -491.631E-03    -466.342E-03         1.55013    -489.329E-03     3.35940E-03     54.8996E-03    -27.4227E-03    -27.4628E-03    -27.0856E-03     54.5626E-03    -27.4628E-03     10.4950E-03    -3.15857E+06    -31.2617E+06    -132.246E+06    -31.2657E+06    -132.242E+06    -3.15857E+06     627.782E+03         25.3650
             776     7.78538E-03     26.3500E-03         1.56232    -472.474E-03    -493.952E-03    -474.503E-03         1.56204    -491.651E-03    -7.81649E-03     54.9519E-03    -27.4356E-03    -27.5108E-03    -27.1636E-03     54.6799E-03    -27.5108E-03     9.44031E-03    -5.09835E+06    -34.9422E+06    -156.414E+06    -34.9473E+06    -156.409E+06    -5.09835E+06     713.009E+03         24.9135
             777     6.81206E-03     26.3405E-03         1.57604    -478.964E-03    -495.921E-03    -479.949E-03         1.57476    -493.649E-03    -44.4754E-03     54.9937E-03    -27.4394E-03    -27.5546E-03    -27.2152E-03     54.7695E-03    -27.5546E-03     8.57524E-03    -8.76147E+06    -39.3455E+06    -179.906E+06    -39.3503E+06    -179.901E+06    -8.76147E+06     732.321E+03         24.6558
             778     5.83884E-03     26.3317E-03         1.58555    -484.443E-03    -499.953E-03    -485.796E-03         1.58233    -495.380E-03     18.0708E-03     55.0377E-03    -27.4541E-03    -27.5839E-03    -27.2741E-03     54.8577E-03    -27.5839E-03     7.68300E-03    -15.0005E+06    -44.0739E+06    -202.481E+06    -44.0759E+06    -202.479E+06    -15.0005E+06     502.260E+03         24.4733
             779     4.86557E-03     26.3243E-03         1.58333    -486.225E-03    -499.976E-03    -482.543E-03         1.57735    -497.676E-03    -45.5650E-03     55.0526E-03    -27.4627E-03    -27.5919E-03    -27.3231E-03     54.9130E-03    -27.5919E-03     6.76830E-03    -23.0691E+06    -48.9613E+06    -223.147E+06    -48.9619E+06    -223.146E+06    -23.0691E+06     199.033E+03         24.3300
             780     3.89237E-03     26.3175E-03         1.59693    -490.126E-03    -511.495E-03    -487.032E-03         1.58327    -500.930E-03     73.6398E-03     55.0659E-03    -27.4782E-03    -27.5893E-03    -27.3753E-03     54.9630E-03    -27.5893E-03     5.80073E-03    -33.0368E+06    -54.1512E+06    -240.311E+06    -54.1518E+06    -240.310E+06    -33.0368E+06     120.985E+03         24.2134
             781     2.91921E-03     26.3119E-03         1.64626    -496.322E-03    -554.711E-03    -518.310E-03         1.61309    -499.556E-03    -122.029E-03     55.0553E-03    -27.4720E-03    -27.5843E-03    -27.4076E-03     54.9909E-03    -27.5843E-03     4.55431E-03    -43.9409E+06    -59.2753E+06    -253.047E+06    -59.2764E+06    -253.046E+06    -43.9409E+06     129.604E+03         24.1216
             782     1.94606E-03     26.3080E-03         1.69302    -490.700E-03    -603.997E-03    -513.658E-03         1.60269    -490.700E-03     219.334E-03     55.0217E-03    -27.4463E-03    -27.5770E-03    -27.4136E-03     54.9890E-03    -27.5770E-03     3.22770E-03    -55.7333E+06    -63.7484E+06    -260.619E+06    -63.7508E+06    -260.617E+06    -55.7333E+06     422.973E+03         24.0591
             783     972.914E-06     26.3052E-03         2.04647    -450.701E-03    -991.297E-03    -47.1799E-03         1.57424    -922.589E-03    -728.556E-03     55.1261E-03    -27.4642E-03    -27.6622E-03    -27.5833E-03     55.1141E-03    -27.5312E-03     1.81632E-03    -64.9247E+06    -67.4770E+06    -264.238E+06    -67.1186E+06    -264.236E+06    -65.2858E+06     221.970E+03         24.0247
             784     16.5502E-03     25.4958E-03         1.47182    -407.316E-03    -467.713E-03    -407.182E-03         1.47169    -467.713E-03     1.26746E-03     56.2815E-03    -26.5470E-03    -29.7975E-03    -25.5355E-03     52.9572E-03    -27.4847E-03     28.3629E-03     194.205E+06     134.929E+06    -8.70148E+06    -8.69877E+06     194.203E+06     134.929E+06     534.711E+03         42.0980
             785     15.5752E-03     25.4472E-03         1.50170    -432.843E-03    -470.645E-03    -432.203E-03         1.50106    -470.645E-03     33.6913E-03     57.2144E-03    -27.2571E-03    -29.9870E-03    -25.7659E-03     52.9933E-03    -27.2571E-03     36.3102E-03     177.966E+06     81.3141E+06    -16.6585E+06    -16.6555E+06     177.963E+06     81.3141E+06     574.125E+03         39.1808
             786     14.6010E-03     25.4193E-03         1.52741    -456.939E-03    -472.331E-03    -455.738E-03         1.52621    -472.331E-03    -1.11008E-03     55.6941E-03    -27.0107E-03    -28.7208E-03    -26.0516E-03     53.0248E-03    -27.0107E-03     29.4104E-03     155.753E+06     19.2545E+06    -21.7724E+06    -21.7715E+06     155.752E+06     19.2545E+06     285.157E+03         35.8642
             787     13.6269E-03     25.3852E-03         1.51891    -442.007E-03    -473.986E-03    -441.032E-03         1.51793    -473.986E-03    -12.1741E-03     55.6710E-03    -26.9550E-03    -28.7339E-03    -26.3592E-03     53.2963E-03    -26.9550E-03     27.4923E-03     97.8799E+06    -14.7785E+06    -23.5796E+06    -23.5721E+06     97.8724E+06    -14.7785E+06     629.323E+03         32.9437
             788     12.6529E-03     25.3618E-03         1.51734    -436.041E-03    -476.685E-03    -435.510E-03         1.51681    -476.685E-03     12.5112E-03     54.9099E-03    -27.1011E-03    -27.8262E-03    -26.5881E-03     53.6717E-03    -27.1011E-03     19.9280E-03     18.3056E+06    -16.9828E+06    -24.2084E+06    -24.1220E+06     16.7962E+06    -15.5598E+06     1.04382E+06         30.6664
             789     11.6793E-03     25.3435E-03         1.53165    -449.318E-03    -479.514E-03    -448.784E-03         1.53111    -479.514E-03     13.2647E-03     54.7678E-03    -27.2327E-03    -27.5642E-03    -26.8130E-03     54.0166E-03    -27.2327E-03     15.5464E-03    -11.5322E+06    -20.5742E+06    -43.1546E+06    -24.8955E+06    -38.8333E+06    -11.5322E+06     968.268E+03         28.8228
             790     10.7057E-03     25.3289E-03         1.53566    -450.500E-03    -482.243E-03    -450.120E-03         1.53528    -482.243E-03     27.9781E-03     54.7286E-03    -27.3243E-03    -27.4356E-03    -26.9357E-03     54.2287E-03    -27.3243E-03     12.7421E-03    -7.20947E+06    -26.3880E+06    -78.1877E+06    -26.4017E+06    -78.1740E+06    -7.20947E+06     772.007E+03         27.3119
             791     9.73221E-03     25.3167E-03         1.54498    -456.201E-03    -485.153E-03    -455.956E-03         1.54474    -485.153E-03     18.3269E-03     54.8111E-03    -27.3936E-03    -27.4186E-03    -27.0145E-03     54.4125E-03    -27.3992E-03     11.4150E-03    -3.39217E+06    -28.7969E+06    -107.266E+06    -28.8035E+06    -107.259E+06    -3.39217E+06     686.947E+03         26.1509
             792     8.75881E-03     25.3049E-03         1.56737    -475.380E-03    -489.435E-03    -477.326E-03         1.56701    -487.133E-03     4.23376E-03     54.8855E-03    -27.4149E-03    -27.4544E-03    -27.0816E-03     54.5519E-03    -27.4541E-03     10.4398E-03    -3.49557E+06    -31.6692E+06    -132.285E+06    -31.6739E+06    -132.281E+06    -3.49557E+06     686.478E+03         25.3634
             793     7.78543E-03     25.2944E-03         1.57588    -481.787E-03    -490.225E-03    -483.544E-03         1.57534    -487.923E-03     12.6382E-03     54.9321E-03    -27.4238E-03    -27.5023E-03    -27.1557E-03     54.6640E-03    -27.5023E-03     9.37010E-03    -5.27129E+06    -35.0830E+06    -156.527E+06    -35.0895E+06    -156.521E+06    -5.27129E+06     871.945E+03         24.9116
             794     6.81215E-03     25.2851E-03         1.56552    -472.996E-03    -489.426E-03    -471.959E-03         1.56449    -489.426E-03    -11.5506E-03     54.9783E-03    -27.4324E-03    -27.5462E-03    -27.2123E-03     54.7583E-03    -27.5462E-03     8.49543E-03    -8.77985E+06    -39.1526E+06    -179.641E+06    -39.1587E+06    -179.635E+06    -8.77985E+06     882.209E+03         24.6538
             795     5.83883E-03     25.2765E-03         1.56371    -469.809E-03    -492.807E-03    -467.057E-03         1.56096    -492.807E-03     38.4927E-03     55.0202E-03    -27.4441E-03    -27.5755E-03    -27.2656E-03     54.8417E-03    -27.5755E-03     7.65235E-03    -14.9854E+06    -43.8306E+06    -201.951E+06    -43.8332E+06    -201.948E+06    -14.9854E+06     606.418E+03         24.4714
             796     4.86562E-03     25.2687E-03         1.58055    -484.129E-03    -500.712E-03    -481.512E-03         1.57365    -496.431E-03    -52.9379E-03     55.0542E-03    -27.4744E-03    -27.5814E-03    -27.3357E-03     54.9156E-03    -27.5814E-03     6.74214E-03    -23.1264E+06    -49.1312E+06    -222.766E+06    -49.1322E+06    -222.765E+06    -23.1264E+06     287.021E+03         24.3291
             797     3.89246E-03     25.2623E-03         1.58849    -494.757E-03    -505.011E-03    -485.744E-03         1.57410    -499.642E-03     58.1907E-03     55.0372E-03    -27.4626E-03    -27.5752E-03    -27.3618E-03     54.9363E-03    -27.5752E-03     5.74034E-03    -33.3909E+06    -54.4343E+06    -240.178E+06    -54.4349E+06    -240.177E+06    -33.3909E+06     137.753E+03         24.2122
             798     2.91924E-03     25.2566E-03         1.61510    -495.722E-03    -528.126E-03    -491.096E-03         1.58577    -503.419E-03    -93.7769E-03     55.0161E-03    -27.4462E-03    -27.5694E-03    -27.3827E-03     54.9527E-03    -27.5694E-03     4.52108E-03    -45.1456E+06    -59.5062E+06    -253.203E+06    -59.5071E+06    -253.203E+06    -45.1456E+06     125.012E+03         24.1193
             799     1.94604E-03     25.2526E-03         1.70356    -493.859E-03    -613.182E-03    -527.041E-03         1.62188    -498.322E-03     244.288E-03     55.0262E-03    -27.4672E-03    -27.5603E-03    -27.4349E-03     54.9939E-03    -27.5603E-03     3.20109E-03    -56.2004E+06    -63.8538E+06    -260.847E+06    -63.8563E+06    -260.845E+06    -56.2004E+06     174.045E+03         24.0576
             800     972.965E-06     25.2497E-03         2.03441    -495.484E-03    -951.709E-03    -121.923E-03         1.56960    -860.466E-03    -734.331E-03     55.0806E-03    -27.4923E-03    -27.5894E-03    -27.5387E-03     55.0678E-03    -27.5301E-03     1.95110E-03    -63.6193E+06    -66.8689E+06    -263.401E+06    -66.5099E+06    -263.398E+06    -63.9804E+06     277.279E+03         24.0249
             801     16.5499E-03     24.4406E-03         1.48819    -421.742E-03    -466.086E-03    -422.489E-03         1.48815    -465.292E-03     2.21324E-03     56.2914E-03    -26.5060E-03    -29.8498E-03    -25.5607E-03     52.9843E-03    -27.4880E-03     28.3146E-03     193.414E+06     134.484E+06    -8.70870E+06    -8.70555E+06     193.411E+06     134.484E+06     593.373E+03         42.1052
             802     15.5755E-03     24.3918E-03         1.50562    -440.532E-03    -468.022E-03    -441.101E-03         1.50539    -467.228E-03     17.0831E-03     57.2614E-03    -27.2616E-03    -30.0210E-03    -25.8168E-03     53.0572E-03    -27.2616E-03     36.2759E-03     178.194E+06     83.4370E+06    -16.0344E+06    -16.0199E+06     178.179E+06     83.4370E+06     1.38351E+06         39.1881
             803     14.6009E-03     24.3638E-03         1.50708    -437.135E-03    -468.989E-03    -436.312E-03         1.50626    -468.989E-03    -22.6986E-03     55.6530E-03    -27.0171E-03    -28.6729E-03    -26.0103E-03     52.9905E-03    -27.0171E-03     29.3604E-03     156.337E+06     21.5409E+06    -21.5467E+06    -21.5342E+06     156.324E+06     21.5409E+06     1.06489E+06         35.8702
             804     13.6268E-03     24.3300E-03         1.51399    -438.051E-03    -471.199E-03    -437.118E-03         1.51306    -471.199E-03    -14.1530E-03     55.6828E-03    -26.9597E-03    -28.7442E-03    -26.3849E-03     53.3236E-03    -26.9597E-03     27.3950E-03     97.6098E+06    -14.6280E+06    -24.1155E+06    -24.1090E+06     97.6033E+06    -14.6280E+06     561.968E+03         32.9477
             805     12.6530E-03     24.3062E-03         1.51510    -436.087E-03    -473.820E-03    -435.533E-03         1.51454    -473.820E-03     7.04815E-03     54.9351E-03    -27.1014E-03    -27.8513E-03    -26.6273E-03     53.7110E-03    -27.1014E-03     19.8246E-03     17.9966E+06    -16.6054E+06    -24.4410E+06    -24.4008E+06     16.8221E+06    -15.4711E+06     742.894E+03         30.6682
             806     11.6793E-03     24.2879E-03         1.51834    -432.546E-03    -477.113E-03    -432.030E-03         1.51783    -477.113E-03     3.69429E-03     54.7582E-03    -27.2284E-03    -27.5596E-03    -26.8161E-03     54.0147E-03    -27.2284E-03     15.4659E-03    -11.4822E+06    -20.5015E+06    -43.1605E+06    -25.0544E+06    -38.6076E+06    -11.4822E+06     788.516E+03         28.8226
             807     10.7057E-03     24.2737E-03         1.53828    -450.399E-03    -480.325E-03    -449.896E-03         1.53777    -480.325E-03     4.25801E-03     54.7467E-03    -27.3181E-03    -27.4628E-03    -26.9657E-03     54.2496E-03    -27.3181E-03     12.7121E-03    -7.12717E+06    -26.4975E+06    -78.0301E+06    -26.5116E+06    -78.0160E+06    -7.12717E+06     811.505E+03         27.3098
             808     9.73231E-03     24.2611E-03         1.55418    -469.062E-03    -482.372E-03    -468.218E-03         1.55334    -482.372E-03     16.1967E-03     54.8067E-03    -27.3858E-03    -27.4271E-03    -27.0276E-03     54.4113E-03    -27.3898E-03     11.3694E-03    -3.33426E+06    -28.6112E+06    -107.102E+06    -28.6202E+06    -107.093E+06    -3.33426E+06     823.267E+03         26.1475
             809     8.75889E-03     24.2495E-03         1.55655    -466.693E-03    -484.052E-03    -465.858E-03         1.55572    -484.052E-03     13.0871E-03     54.8666E-03    -27.4121E-03    -27.4431E-03    -27.0812E-03     54.5354E-03    -27.4428E-03     10.4046E-03    -3.63049E+06    -31.5199E+06    -132.232E+06    -31.5275E+06    -132.224E+06    -3.63049E+06     864.696E+03         25.3595
             810     7.78555E-03     24.2390E-03         1.55416    -460.904E-03    -486.725E-03    -459.859E-03         1.55311    -486.725E-03     28.6785E-03     54.9036E-03    -27.4090E-03    -27.4900E-03    -27.1409E-03     54.6355E-03    -27.4900E-03     9.36662E-03    -5.63137E+06    -35.1285E+06    -156.629E+06    -35.1356E+06    -156.622E+06    -5.63137E+06     917.906E+03         24.9080
             811     6.81220E-03     24.2296E-03         1.56248    -469.608E-03    -489.969E-03    -468.205E-03         1.56108    -489.969E-03     14.2861E-03     54.9499E-03    -27.4139E-03    -27.5343E-03    -27.1953E-03     54.7313E-03    -27.5343E-03     8.46486E-03    -9.08429E+06    -39.2826E+06    -179.493E+06    -39.2891E+06    -179.486E+06    -9.08429E+06     951.302E+03         24.6512
             812     5.83891E-03     24.2211E-03         1.57401    -478.947E-03    -494.243E-03    -476.025E-03         1.56979    -492.953E-03     64.4590E-03     55.0057E-03    -27.4402E-03    -27.5636E-03    -27.2625E-03     54.8280E-03    -27.5636E-03     7.63482E-03    -15.2877E+06    -44.0578E+06    -201.498E+06    -44.0629E+06    -201.493E+06    -15.2877E+06     864.867E+03         24.4699
             813     4.86567E-03     24.2133E-03         1.58790    -488.403E-03    -502.032E-03    -487.147E-03         1.57979    -495.174E-03    -25.3957E-03     55.0241E-03    -27.4571E-03    -27.5687E-03    -27.3192E-03     54.8862E-03    -27.5687E-03     6.72212E-03    -23.4880E+06    -49.3459E+06    -222.363E+06    -49.3483E+06    -222.361E+06    -23.4880E+06     603.117E+03         24.3281
             814     3.89250E-03     24.2068E-03         1.60291    -495.504E-03    -512.404E-03    -499.210E-03         1.58972    -495.504E-03     53.2596E-03     55.0218E-03    -27.4599E-03    -27.5620E-03    -27.3608E-03     54.9226E-03    -27.5620E-03     5.69070E-03    -33.9068E+06    -54.8090E+06    -239.956E+06    -54.8098E+06    -239.955E+06    -33.9068E+06     266.820E+03         24.2115
             815     2.91927E-03     24.2014E-03         1.60970    -492.728E-03    -520.594E-03    -484.066E-03         1.57763    -497.191E-03    -122.241E-03     55.0263E-03    -27.4804E-03    -27.5453E-03    -27.4171E-03     54.9630E-03    -27.5453E-03     4.52540E-03    -45.7229E+06    -59.7983E+06    -253.115E+06    -59.7989E+06    -253.114E+06    -45.7229E+06     108.897E+03         24.1182
             816     1.94621E-03     24.1972E-03         1.67015    -501.054E-03    -571.447E-03    -480.730E-03         1.58390    -505.517E-03     218.904E-03     55.0092E-03    -27.4827E-03    -27.5286E-03    -27.4742E-03     54.9767E-03    -27.5047E-03     3.19390E-03    -56.4656E+06    -63.7909E+06    -260.709E+06    -63.7920E+06    -260.708E+06    -56.4656E+06    -153.807E+03         24.0565
             817     973.153E-06     24.1945E-03         2.09021    -573.852E-03    -925.569E-03    -151.567E-03         1.61407    -871.711E-03    -837.924E-03     54.9307E-03    -27.3856E-03    -27.5464E-03    -27.5292E-03     54.9185E-03    -27.3906E-03     1.91611E-03    -63.6975E+06    -67.2127E+06    -263.531E+06    -66.5650E+06    -263.530E+06    -64.3461E+06    -259.428E+03         24.0247
             818     16.5500E-03     23.3852E-03         1.51334    -446.350E-03    -465.071E-03    -450.161E-03         1.51311    -461.033E-03    -4.64257E-03     56.3504E-03    -26.5215E-03    -29.8880E-03    -25.6124E-03     53.0488E-03    -27.4955E-03     28.3092E-03     192.837E+06     134.609E+06    -8.70490E+06    -8.70359E+06     192.836E+06     134.609E+06     456.733E+03         42.1032
             819     15.5753E-03     23.3360E-03         1.50085    -433.020E-03    -462.854E-03    -433.641E-03         1.50068    -462.060E-03    -16.5896E-03     57.2819E-03    -27.2583E-03    -30.0490E-03    -25.8619E-03     53.0949E-03    -27.2583E-03     36.2005E-03     177.435E+06     84.9252E+06    -15.8900E+06    -15.8771E+06     177.422E+06     84.9252E+06     1.24105E+06         39.1861
             820     14.6010E-03     23.3089E-03         1.47926    -412.336E-03    -464.528E-03    -412.043E-03         1.47896    -464.528E-03    -27.6436E-03     55.6564E-03    -27.0064E-03    -28.6909E-03    -26.0349E-03     53.0004E-03    -27.0064E-03     29.3194E-03     156.819E+06     23.8878E+06    -20.1986E+06    -20.1755E+06     156.796E+06     23.8878E+06     1.78130E+06         35.8683
             821     13.6268E-03     23.2740E-03         1.49999    -428.132E-03    -467.571E-03    -427.708E-03         1.49957    -467.571E-03    -8.10810E-03     55.7178E-03    -26.9534E-03    -28.7899E-03    -26.4374E-03     53.3652E-03    -26.9534E-03     27.3468E-03     98.4577E+06    -13.9926E+06    -22.3846E+06    -22.3678E+06     98.4410E+06    -13.9926E+06     1.22159E+06         32.9454
             822     12.6532E-03     23.2508E-03         1.51731    -442.540E-03    -469.966E-03    -441.990E-03         1.51676    -469.966E-03    -15.8015E-03     54.9435E-03    -27.0893E-03    -27.8717E-03    -26.6592E-03     53.7309E-03    -27.0893E-03     19.7487E-03     17.8059E+06    -16.7276E+06    -23.7585E+06    -23.7295E+06     16.8493E+06    -15.8000E+06     657.254E+03         30.6647
             823     11.6794E-03     23.2327E-03         1.52044    -441.479E-03    -472.266E-03    -440.761E-03         1.51972    -472.266E-03    -7.98802E-03     54.7498E-03    -27.2160E-03    -27.5637E-03    -26.8195E-03     54.0056E-03    -27.2160E-03     15.4702E-03    -11.6618E+06    -20.0393E+06    -43.1754E+06    -24.6327E+06    -38.5820E+06    -11.6618E+06     662.577E+03         28.8175
             824     10.7059E-03     23.2182E-03         1.52977    -446.004E-03    -474.842E-03    -445.039E-03         1.52881    -474.842E-03    -18.1032E-03     54.7285E-03    -27.3074E-03    -27.4568E-03    -26.9645E-03     54.2362E-03    -27.3074E-03     12.6451E-03    -7.22374E+06    -25.9500E+06    -78.0600E+06    -25.9620E+06    -78.0480E+06    -7.22374E+06     773.056E+03         27.3033
             825     9.73245E-03     23.2057E-03         1.53533    -451.006E-03    -477.510E-03    -449.616E-03         1.53394    -477.510E-03     1.63170E-03     54.7790E-03    -27.3741E-03    -27.4123E-03    -27.0173E-03     54.3880E-03    -27.3781E-03     11.3041E-03    -3.38735E+06    -28.1669E+06    -107.057E+06    -28.1784E+06    -107.045E+06    -3.38735E+06     944.750E+03         26.1401
             826     8.75899E-03     23.1941E-03         1.53919    -454.530E-03    -480.357E-03    -453.180E-03         1.53784    -480.357E-03     4.26619E-03     54.8383E-03    -27.4008E-03    -27.4307E-03    -27.0713E-03     54.5085E-03    -27.4303E-03     10.3793E-03    -3.81417E+06    -31.1462E+06    -132.292E+06    -31.1585E+06    -132.280E+06    -3.81417E+06     1.10769E+06         25.3518
             827     7.78564E-03     23.1836E-03         1.54137    -453.426E-03    -483.781E-03    -452.365E-03         1.54031    -483.781E-03    -15.3994E-03     54.8718E-03    -27.3911E-03    -27.4789E-03    -27.1246E-03     54.6054E-03    -27.4789E-03     9.33481E-03    -5.78697E+06    -34.7557E+06    -156.606E+06    -34.7688E+06    -156.593E+06    -5.78697E+06     1.23997E+06         24.9014
             828     6.81224E-03     23.1743E-03         1.54978    -457.374E-03    -487.991E-03    -455.774E-03         1.54818    -487.991E-03    -25.9911E-03     54.9338E-03    -27.4090E-03    -27.5225E-03    -27.1912E-03     54.7159E-03    -27.5225E-03     8.44968E-03    -9.23884E+06    -39.1499E+06    -179.291E+06    -39.1615E+06    -179.279E+06    -9.23884E+06     1.24930E+06         24.6475
             829     5.83899E-03     23.1656E-03         1.57327    -473.264E-03    -493.390E-03    -469.881E-03         1.56860    -492.101E-03     44.7890E-03     54.9823E-03    -27.4301E-03    -27.5495E-03    -27.2537E-03     54.8059E-03    -27.5495E-03     7.60323E-03    -15.6486E+06    -44.0592E+06    -201.124E+06    -44.0677E+06    -201.116E+06    -15.6486E+06     1.14223E+06         24.4681
             830     4.86576E-03     23.1582E-03         1.59338    -488.417E-03    -500.598E-03    -487.823E-03         1.58680    -494.614E-03    -10.1902E-03     54.9806E-03    -27.4256E-03    -27.5559E-03    -27.2880E-03     54.8431E-03    -27.5559E-03     6.71339E-03    -23.9715E+06    -49.2235E+06    -221.987E+06    -49.2300E+06    -221.980E+06    -23.9715E+06     1.00669E+06         24.3263
             831     3.89246E-03     23.1517E-03         1.61593    -493.131E-03    -521.835E-03    -510.385E-03         1.60448    -493.131E-03     73.2718E-03     55.0269E-03    -27.4742E-03    -27.5524E-03    -27.3799E-03     54.9276E-03    -27.5474E-03     5.69164E-03    -34.2816E+06    -54.6719E+06    -239.259E+06    -54.6748E+06    -239.256E+06    -34.2816E+06     554.186E+03         24.2105
             832     2.91941E-03     23.1461E-03         1.62443    -489.488E-03    -530.775E-03    -498.379E-03         1.59203    -489.488E-03    -128.655E-03     55.0457E-03    -27.5053E-03    -27.5403E-03    -27.4665E-03     54.9831E-03    -27.5165E-03     4.50150E-03    -45.5862E+06    -59.8179E+06    -252.778E+06    -59.8181E+06    -252.777E+06    -45.5862E+06    -20.7870E+03         24.1177
             833     1.94628E-03     23.1418E-03         1.66076    -498.099E-03    -558.534E-03    -457.697E-03         1.55993    -498.099E-03     258.628E-03     54.9579E-03    -27.4450E-03    -27.5152E-03    -27.4830E-03     54.9258E-03    -27.4451E-03     3.17408E-03    -56.2855E+06    -64.0799E+06    -260.769E+06    -64.0802E+06    -260.769E+06    -56.2855E+06    -213.252E+03         24.0548
             834     973.231E-06     23.1390E-03         2.09418    -566.361E-03    -922.691E-03    -136.637E-03         1.62129    -879.534E-03    -781.167E-03     54.7619E-03    -27.2482E-03    -27.5142E-03    -27.5033E-03     54.7511E-03    -27.2482E-03     1.75476E-03    -64.5770E+06    -67.8080E+06    -264.030E+06    -66.9193E+06    -264.029E+06    -65.4674E+06     55.2839E+03         24.0220
             835     16.5501E-03     22.3293E-03         1.49659    -426.620E-03    -458.581E-03    -429.470E-03         1.49620    -455.337E-03    -15.2177E-03     56.3489E-03    -26.5537E-03    -29.8592E-03    -25.6210E-03     53.0536E-03    -27.4966E-03     28.3584E-03     192.379E+06     134.584E+06    -8.66402E+06    -8.66299E+06     192.378E+06     134.584E+06     441.178E+03         42.0937
             836     15.5755E-03     22.2810E-03         1.48108    -411.136E-03    -457.413E-03    -410.745E-03         1.48069    -457.413E-03    -22.3143E-03     57.2773E-03    -27.2479E-03    -30.0637E-03    -25.8881E-03     53.1017E-03    -27.2479E-03     36.1616E-03     176.821E+06     82.7467E+06    -15.9466E+06    -15.9437E+06     176.818E+06     82.7467E+06     707.911E+03         39.1770
             837     14.6011E-03     22.2531E-03         1.48363    -416.154E-03    -460.218E-03    -415.967E-03         1.48345    -460.218E-03    -4.08090E-03     55.7226E-03    -26.9933E-03    -28.7713E-03    -26.1108E-03     53.0621E-03    -26.9933E-03     29.3701E-03     156.398E+06     22.0391E+06    -20.1965E+06    -20.1794E+06     156.380E+06     22.0391E+06     1.55616E+06         35.8601
             838     13.6271E-03     22.2188E-03         1.49502    -424.140E-03    -462.972E-03    -423.810E-03         1.49469    -462.972E-03     13.5397E-03     55.7217E-03    -26.9433E-03    -28.8020E-03    -26.4511E-03     53.3708E-03    -26.9433E-03     27.3359E-03     99.3392E+06    -13.5613E+06    -21.7980E+06    -21.7625E+06     99.3038E+06    -13.5613E+06     1.94443E+06         32.9375
             839     12.6531E-03     22.1954E-03         1.51261    -436.132E-03    -465.407E-03    -435.597E-03         1.51207    -465.407E-03    -5.18914E-03     54.9527E-03    -27.0733E-03    -27.8937E-03    -26.6900E-03     53.7491E-03    -27.0733E-03     19.6756E-03     18.5060E+06    -16.7791E+06    -22.8214E+06    -22.7674E+06     17.5699E+06    -15.8971E+06     1.17055E+06         30.6558
             840     11.6796E-03     22.1772E-03         1.52609    -450.703E-03    -467.206E-03    -449.695E-03         1.52508    -467.206E-03     17.9454E-03     54.7708E-03    -27.1978E-03    -27.6025E-03    -26.8663E-03     54.0347E-03    -27.1978E-03     15.3934E-03    -12.1391E+06    -20.0451E+06    -42.7122E+06    -24.0613E+06    -38.6960E+06    -12.1391E+06     792.884E+03         28.8073
             841     10.7060E-03     22.1625E-03         1.52139    -445.793E-03    -468.985E-03    -444.605E-03         1.52020    -468.985E-03     13.9903E-03     54.6757E-03    -27.2903E-03    -27.4221E-03    -26.9352E-03     54.1889E-03    -27.2903E-03     12.5687E-03    -7.80768E+06    -25.7107E+06    -78.3381E+06    -25.7317E+06    -78.3171E+06    -7.80768E+06     1.01352E+06         27.2917
             842     9.73254E-03     22.1502E-03         1.51743    -438.426E-03    -471.755E-03    -437.362E-03         1.51637    -471.755E-03     7.51062E-03     54.7394E-03    -27.3610E-03    -27.3861E-03    -27.0000E-03     54.3533E-03    -27.3610E-03     11.2287E-03    -3.97220E+06    -28.0639E+06    -107.200E+06    -28.0832E+06    -107.181E+06    -3.97220E+06     1.22247E+06         26.1275
             843     8.75909E-03     22.1386E-03         1.53003    -448.526E-03    -474.940E-03    -447.401E-03         1.52890    -474.940E-03     3.32023E-03     54.8062E-03    -27.3781E-03    -27.4236E-03    -27.0677E-03     54.4842E-03    -27.4121E-03     10.2502E-03    -4.34488E+06    -31.1938E+06    -132.369E+06    -31.2156E+06    -132.347E+06    -4.34488E+06     1.46156E+06         25.3391
             844     7.78569E-03     22.1284E-03         1.54639    -460.999E-03    -479.780E-03    -462.684E-03         1.54562    -477.319E-03    -19.1426E-03     54.8297E-03    -27.3699E-03    -27.4592E-03    -27.1107E-03     54.5705E-03    -27.4592E-03     9.20672E-03    -6.38400E+06    -34.9192E+06    -156.494E+06    -34.9419E+06    -156.471E+06    -6.38400E+06     1.64467E+06         24.8901
             845     6.81238E-03     22.1188E-03         1.54862    -460.266E-03    -481.923E-03    -461.217E-03         1.54711    -479.462E-03    -42.7143E-03     54.8809E-03    -27.3782E-03    -27.5028E-03    -27.1643E-03     54.6670E-03    -27.5028E-03     8.36893E-03    -9.71289E+06    -39.0929E+06    -178.890E+06    -39.1114E+06    -178.872E+06    -9.71289E+06     1.58511E+06         24.6393
             846     5.83907E-03     22.1103E-03         1.54930    -460.289E-03    -482.745E-03    -457.777E-03         1.54679    -482.745E-03    -1.43507E-03     54.9307E-03    -27.3990E-03    -27.5326E-03    -27.2261E-03     54.7577E-03    -27.5326E-03     7.52512E-03    -15.8985E+06    -43.7964E+06    -200.808E+06    -43.8106E+06    -200.794E+06    -15.8985E+06     1.47466E+06         24.4624
             847     4.86572E-03     22.1029E-03         1.55939    -465.720E-03    -490.433E-03    -463.958E-03         1.55423    -487.027E-03    -61.5321E-03     54.9656E-03    -27.4291E-03    -27.5378E-03    -27.2948E-03     54.8313E-03    -27.5378E-03     6.63213E-03    -24.2216E+06    -49.0593E+06    -221.524E+06    -49.0718E+06    -221.512E+06    -24.2216E+06     1.45231E+06         24.3218
             848     3.89258E-03     22.0961E-03         1.57946    -467.990E-03    -509.122E-03    -470.536E-03         1.56483    -491.949E-03     83.8288E-03     55.0009E-03    -27.4733E-03    -27.5288E-03    -27.3806E-03     54.9032E-03    -27.5238E-03     5.64686E-03    -34.5491E+06    -54.5236E+06    -238.307E+06    -54.5302E+06    -238.300E+06    -34.5491E+06     951.124E+03         24.2065
             849     2.91942E-03     22.0907E-03         1.61452    -483.777E-03    -528.298E-03    -480.838E-03         1.58069    -497.409E-03    -101.918E-03     55.0096E-03    -27.4825E-03    -27.5270E-03    -27.4591E-03     54.9479E-03    -27.4888E-03     4.46317E-03    -45.7102E+06    -59.8316E+06    -252.240E+06    -59.8327E+06    -252.239E+06    -45.7102E+06     212.887E+03         24.1137
             850     1.94645E-03     22.0865E-03         1.71047    -501.665E-03    -602.679E-03    -495.949E-03         1.60374    -501.665E-03     306.113E-03     54.8990E-03    -27.4163E-03    -27.4824E-03    -27.4509E-03     54.8675E-03    -27.4163E-03     3.15434E-03    -56.1454E+06    -64.7615E+06    -260.738E+06    -64.7617E+06    -260.737E+06    -56.1454E+06     17.4915E+03         24.0505
             851     973.321E-06     22.0841E-03         2.08816    -595.301E-03    -884.030E-03    -205.982E-03         1.61495    -800.139E-03    -720.126E-03     54.7042E-03    -27.2698E-03    -27.4338E-03    -27.4235E-03     54.6939E-03    -27.2698E-03     1.58309E-03    -64.9483E+06    -68.8843E+06    -264.342E+06    -68.6439E+06    -264.341E+06    -65.1902E+06     269.181E+03         24.0167
             852     16.5499E-03     21.2739E-03         1.46609    -392.423E-03    -450.805E-03    -392.158E-03         1.46583    -450.805E-03     1.44343E-03     56.3317E-03    -26.5211E-03    -29.8696E-03    -25.5928E-03     53.0244E-03    -27.4907E-03     28.3944E-03     192.077E+06     134.074E+06    -8.60445E+06    -8.60364E+06     192.077E+06     134.074E+06     394.538E+03         42.0790
             853     15.5754E-03     21.2254E-03         1.47089    -403.470E-03    -454.038E-03    -403.038E-03         1.47045    -454.038E-03     13.2065E-03     57.3908E-03    -27.2787E-03    -30.1293E-03    -25.9381E-03     53.1996E-03    -27.2787E-03     36.2539E-03     176.342E+06     84.1295E+06    -15.8749E+06    -15.8724E+06     176.340E+06     84.1295E+06     643.877E+03         39.1635
             854     14.6012E-03     21.1976E-03         1.49602    -428.774E-03    -456.471E-03    -428.246E-03         1.49549    -456.471E-03     7.68769E-03     55.8528E-03    -27.0254E-03    -28.8488E-03    -26.1879E-03     53.1919E-03    -27.0254E-03     29.4106E-03     155.586E+06     23.6056E+06    -20.5434E+06    -20.5322E+06     155.575E+06     23.6056E+06     1.29448E+06         35.8476
             855     13.6271E-03     21.1632E-03         1.49393    -428.963E-03    -458.374E-03    -428.259E-03         1.49323    -458.374E-03     16.7154E-03     55.7713E-03    -26.9322E-03    -28.8584E-03    -26.5241E-03     53.4369E-03    -26.9322E-03     27.2391E-03     99.6432E+06    -13.4640E+06    -22.1098E+06    -22.0785E+06     99.6119E+06    -13.4640E+06     1.77118E+06         32.9250
             856     12.6535E-03     21.1400E-03         1.49754    -426.085E-03    -460.697E-03    -425.476E-03         1.49693    -460.697E-03     16.9792E-03     54.9678E-03    -27.0540E-03    -27.9275E-03    -26.7421E-03     53.7824E-03    -27.0540E-03     19.5404E-03     19.0231E+06    -16.3703E+06    -22.7264E+06    -22.5555E+06      18.434E+06    -15.9521E+06     1.64516E+06         30.6422
             857     11.6798E-03     21.1213E-03         1.51169    -437.315E-03    -463.075E-03    -436.591E-03         1.51096    -463.075E-03     21.7162E-03     54.7568E-03    -27.1740E-03    -27.6125E-03    -26.8919E-03     54.0362E-03    -27.1740E-03     15.2172E-03    -12.4729E+06    -19.5740E+06    -42.8797E+06    -23.7209E+06    -38.7328E+06    -12.4729E+06     1.37276E+06         28.7917
             858     10.7063E-03     21.1074E-03         1.51859    -443.395E-03    -465.147E-03    -442.634E-03         1.51783    -465.147E-03     19.2679E-03     54.6596E-03    -27.2622E-03    -27.4354E-03    -26.9651E-03     54.1893E-03    -27.2622E-03     12.3571E-03    -8.24512E+06    -25.4606E+06    -78.5265E+06    -25.5016E+06    -78.4855E+06    -8.24512E+06     1.43558E+06         27.2742
             859     9.73276E-03     21.0946E-03         1.52405    -449.717E-03    -467.043E-03    -448.745E-03         1.52307    -467.043E-03     29.0735E-03     54.6872E-03    -27.3231E-03    -27.3740E-03    -26.9970E-03     54.3161E-03    -27.3290E-03     11.0006E-03    -4.49273E+06    -27.9971E+06    -107.362E+06    -28.0390E+06    -107.320E+06    -4.49273E+06     1.77857E+06         26.1088
             860     8.75939E-03     21.0832E-03         1.52447    -448.816E-03    -469.096E-03    -447.749E-03         1.52340    -469.096E-03     23.1838E-03     54.7486E-03    -27.3529E-03    -27.3899E-03    -27.0587E-03     54.4421E-03    -27.3775E-03     9.99706E-03    -4.90203E+06    -31.3786E+06    -132.433E+06    -31.4215E+06     -132.39E+06    -4.90203E+06     2.05227E+06         25.3205
             861     7.78597E-03     21.0728E-03         1.53426    -453.104E-03    -473.725E-03    -454.751E-03         1.53345    -471.263E-03     13.6099E-03     54.7612E-03    -27.3385E-03    -27.4215E-03    -27.0926E-03     54.5143E-03    -27.4205E-03     8.97866E-03    -7.07671E+06    -35.2076E+06    -156.130E+06    -35.2450E+06    -156.092E+06    -7.07671E+06      2.0941E+06         24.8725
             862     6.81259E-03     21.0638E-03         1.55466    -466.534E-03    -481.029E-03    -474.385E-03         1.55357    -472.089E-03    -1.58668E-03     54.7800E-03    -27.3186E-03    -27.4620E-03    -27.1153E-03     54.5766E-03    -27.4620E-03     8.15154E-03    -10.6816E+06    -39.5148E+06    -178.582E+06    -39.5443E+06    -178.553E+06    -10.6816E+06     2.00086E+06         24.6225
             863     5.83911E-03     21.0549E-03         1.55058    -466.183E-03    -481.260E-03    -473.363E-03         1.54824    -471.748E-03     36.3096E-03     54.8523E-03    -27.3624E-03    -27.4922E-03    -27.1975E-03     54.6875E-03    -27.4922E-03     7.34105E-03    -16.8688E+06    -44.3724E+06    -200.547E+06    -44.4003E+06    -200.519E+06    -16.8688E+06     2.05033E+06         24.4475
             864     4.86600E-03     21.0475E-03         1.53007    -455.162E-03    -476.839E-03    -451.254E-03         1.52313    -473.806E-03    -58.0213E-03     54.9018E-03    -27.4111E-03    -27.4939E-03    -27.2838E-03     54.7745E-03    -27.4939E-03     6.45278E-03    -25.1235E+06    -49.7870E+06    -220.810E+06    -49.8088E+06    -220.788E+06    -25.1235E+06     1.88209E+06         24.3092
             865     3.89272E-03     21.0411E-03         1.53364    -453.636E-03    -481.137E-03    -439.782E-03         1.51978    -481.137E-03     43.7205E-03     54.8951E-03    -27.4190E-03    -27.4784E-03    -27.3257E-03     54.8018E-03    -27.4784E-03     5.51812E-03    -35.5093E+06    -55.2865E+06    -237.296E+06    -55.2988E+06    -237.284E+06    -35.5093E+06     1.44671E+06         24.1947
             866     2.91954E-03     21.0355E-03         1.60742    -474.336E-03    -531.110E-03    -477.195E-03         1.56715    -487.976E-03    -185.224E-03     54.8807E-03    -27.4128E-03    -27.4676E-03    -27.3674E-03     54.8208E-03    -27.4531E-03     4.39260E-03    -46.8689E+06    -60.2995E+06    -251.401E+06    -60.3040E+06    -251.397E+06    -46.8689E+06     679.338E+03         24.1023
             867     1.94633E-03     21.0316E-03         1.71507    -480.246E-03    -620.574E-03    -517.729E-03         1.61223    -480.246E-03     199.254E-03     54.8186E-03    -27.3874E-03    -27.4312E-03    -27.3775E-03     54.7888E-03    -27.4113E-03     3.04328E-03    -56.6985E+06    -64.6804E+06    -260.658E+06    -64.6805E+06    -260.658E+06    -56.6985E+06     121.864E+03         24.0406
             868     973.131E-06     21.0292E-03         2.06452    -636.712E-03    -807.453E-03    -231.155E-03         1.56177    -710.259E-03    -838.400E-03     54.7402E-03    -27.3039E-03    -27.4355E-03    -27.4165E-03     54.7310E-03    -27.3138E-03     1.49138E-03    -65.0012E+06    -69.0935E+06    -264.224E+06    -68.6094E+06    -264.223E+06    -65.4864E+06     247.114E+03         24.0090
             869     16.5501E-03     20.2188E-03         1.47184    -406.613E-03    -448.130E-03    -406.518E-03         1.47174    -448.130E-03    -1.79032E-03     56.3750E-03    -26.5246E-03    -29.9129E-03    -25.6252E-03     53.0545E-03    -27.4917E-03     28.4437E-03     191.803E+06     133.829E+06    -8.77284E+06    -8.77070E+06     191.801E+06     133.829E+06     578.720E+03         42.0620
             870     15.5753E-03     20.1696E-03         1.48208    -418.913E-03    -450.215E-03    -418.673E-03         1.48184    -450.215E-03     17.8636E-03     57.4685E-03    -27.2798E-03    -30.2102E-03    -26.0206E-03     53.2790E-03    -27.2798E-03     36.2392E-03     176.064E+06     83.9995E+06    -16.4179E+06    -16.4149E+06     176.061E+06     83.9995E+06     724.238E+03         39.1484
             871     14.6012E-03     20.1422E-03         1.49123    -425.579E-03    -451.941E-03    -424.966E-03         1.49062    -451.941E-03    -12.5340E-03     55.9012E-03    -27.0186E-03    -28.9062E-03    -26.2852E-03     53.2802E-03    -27.0186E-03     29.2134E-03     154.983E+06     23.5696E+06    -20.9048E+06    -20.8990E+06     154.977E+06     23.5696E+06     868.018E+03         35.8331
             872     13.6274E-03     20.1075E-03         1.49239    -429.737E-03    -453.573E-03    -428.889E-03         1.49154    -453.573E-03     2.32319E-03     55.8193E-03    -26.9148E-03    -28.9231E-03    -26.6153E-03     53.5116E-03    -26.9148E-03     27.1170E-03     99.3261E+06    -13.5232E+06    -22.3997E+06    -22.3769E+06     99.3033E+06    -13.5232E+06     1.36282E+06         32.9093
             873     12.6538E-03     20.0844E-03         1.49392    -427.357E-03    -455.432E-03    -426.755E-03         1.49332    -455.432E-03     17.7210E-03     55.0152E-03    -27.0275E-03    -28.0021E-03    -26.8396E-03     53.8526E-03    -27.0275E-03     19.3431E-03     19.0558E+06    -16.1786E+06    -22.9867E+06    -22.7650E+06     18.6777E+06    -16.0221E+06     1.75903E+06         30.6242
             874     11.6801E-03     20.0661E-03         1.49526    -427.605E-03    -457.697E-03    -427.274E-03         1.49492    -457.697E-03     1.77020E-03     54.7752E-03    -27.1370E-03    -27.6692E-03    -26.9803E-03     54.0863E-03    -27.1370E-03     14.8846E-03    -12.5884E+06    -19.1840E+06    -42.8940E+06    -23.6180E+06    -38.4600E+06    -12.5884E+06     1.91443E+06         28.7707
             875     10.7067E-03     20.0519E-03         1.50168    -433.803E-03    -460.086E-03    -433.384E-03         1.50126    -460.086E-03    -5.07908E-03     54.6559E-03    -27.2122E-03    -27.4831E-03    -27.0435E-03     54.2163E-03    -27.2122E-03     11.9379E-03    -8.48841E+06    -25.2600E+06    -78.5888E+06    -25.3495E+06    -78.4993E+06    -8.48841E+06     2.06281E+06         27.2501
             876     9.73344E-03     20.0395E-03         1.51602    -445.463E-03    -462.096E-03    -444.614E-03         1.51517    -462.096E-03     18.8853E-03     54.6230E-03    -27.2616E-03    -27.3706E-03    -27.0233E-03     54.2816E-03    -27.2675E-03     10.5492E-03    -4.93742E+06    -27.8018E+06    -107.679E+06    -27.8766E+06    -107.604E+06    -4.93742E+06     2.42668E+06         26.0822
             877     8.75980E-03     20.0279E-03         1.52501    -452.260E-03    -467.603E-03    -455.572E-03         1.52405    -463.335E-03     12.4733E-03     54.6335E-03    -27.2952E-03    -27.3300E-03    -27.0335E-03     54.3512E-03    -27.3094E-03     9.57808E-03    -5.28668E+06    -30.8802E+06    -132.376E+06    -30.9537E+06    -132.302E+06    -5.28668E+06     2.70276E+06         25.2935
             878     7.78648E-03     20.0179E-03         1.52520    -449.749E-03    -468.660E-03    -453.250E-03         1.52444    -464.392E-03     3.27865E-03     54.6414E-03    -27.2910E-03    -27.3485E-03    -27.0692E-03     54.4185E-03    -27.3475E-03     8.51807E-03    -7.36088E+06    -34.6589E+06    -155.704E+06    -34.7209E+06    -155.642E+06    -7.36088E+06     2.70322E+06         24.8464
             879     6.81298E-03     20.0087E-03         1.53225    -450.484E-03    -472.199E-03    -455.816E-03         1.53111    -465.721E-03    -14.0251E-03     54.6520E-03    -27.2726E-03    -27.3804E-03    -27.0897E-03     54.4692E-03    -27.3804E-03     7.71818E-03    -11.1556E+06    -39.1864E+06    -178.158E+06    -39.2434E+06    -178.101E+06    -11.1556E+06     2.76785E+06         24.5966
             880     5.83971E-03     19.9999E-03         1.54219    -459.167E-03    -477.216E-03    -467.380E-03         1.53946    -466.282E-03     34.9383E-03     54.6837E-03    -27.2802E-03    -27.4040E-03    -27.1311E-03     54.5345E-03    -27.4040E-03     6.97174E-03    -17.6973E+06    -44.4243E+06    -200.253E+06    -44.4775E+06    -200.200E+06    -17.6973E+06     2.84112E+06         24.4221
             881     4.86621E-03     19.9923E-03         1.54302    -462.291E-03    -478.899E-03    -469.180E-03         1.53683    -465.826E-03    -36.8557E-03     54.7013E-03    -27.2954E-03    -27.4067E-03    -27.1791E-03     54.5849E-03    -27.4067E-03     6.15600E-03    -25.8724E+06    -49.8626E+06    -219.995E+06    -49.9032E+06    -219.954E+06    -25.8724E+06     2.57161E+06         24.2849
             882     3.89302E-03     19.9858E-03         1.55919    -460.372E-03    -495.323E-03    -476.143E-03         1.54355    -463.915E-03     89.2800E-03     54.7037E-03    -27.3091E-03    -27.3968E-03    -27.2240E-03     54.6185E-03    -27.3968E-03     5.25763E-03    -35.9523E+06    -55.1975E+06    -235.993E+06    -55.2196E+06    -235.971E+06    -35.9523E+06     1.90651E+06         24.1714
             883     2.91966E-03     19.9805E-03         1.59343    -456.626E-03    -529.644E-03    -490.579E-03         1.55438    -456.634E-03    -123.650E-03     54.6907E-03    -27.3064E-03    -27.3859E-03    -27.2517E-03     54.6359E-03    -27.3859E-03     4.19359E-03    -46.7259E+06    -60.1973E+06    -250.132E+06    -60.2050E+06    -250.124E+06    -46.7259E+06     1.06908E+06         24.0807
             884     1.94642E-03     19.9763E-03         1.62751    -442.816E-03    -577.773E-03    -475.048E-03         1.52479    -442.816E-03     219.729E-03     54.6738E-03    -27.3088E-03    -27.3668E-03    -27.2823E-03     54.6474E-03    -27.3668E-03     2.84356E-03    -56.8658E+06    -65.0064E+06    -260.702E+06    -65.0093E+06    -260.699E+06    -56.8658E+06     563.755E+03         24.0221
             885     973.221E-06     19.9740E-03         1.99898    -626.784E-03    -760.116E-03    -193.971E-03         1.48142    -675.378E-03    -862.742E-03     54.6590E-03    -27.2586E-03    -27.4004E-03    -27.3735E-03     54.6512E-03    -27.2778E-03     1.47574E-03    -65.4947E+06    -68.9562E+06    -263.518E+06    -68.4745E+06    -263.514E+06    -65.9799E+06     201.948E+03         23.9941
             886     16.5498E-03     19.1630E-03         1.47778    -432.609E-03    -445.619E-03    -433.144E-03         1.47765    -444.960E-03    -15.0225E-03     56.5041E-03    -26.5689E-03    -29.9919E-03    -25.7567E-03     53.1864E-03    -27.4865E-03     28.5491E-03     191.506E+06     133.881E+06    -8.59129E+06    -8.58799E+06     191.503E+06     133.881E+06     736.239E+03         42.0450
             887     15.5757E-03     19.1141E-03         1.48166    -429.097E-03    -446.333E-03    -429.559E-03         1.48147    -445.673E-03     22.8194E-03     57.5889E-03    -27.2648E-03    -30.3406E-03    -26.1586E-03     53.4070E-03    -27.2648E-03     36.2738E-03     176.281E+06     83.7002E+06    -16.0481E+06    -16.0424E+06     176.276E+06     83.7002E+06     1.02226E+06         39.1340
             888     14.6017E-03     19.0860E-03         1.47815    -421.899E-03    -446.871E-03    -421.600E-03         1.47785    -446.871E-03     3.60249E-03     55.9789E-03    -26.9941E-03    -29.0077E-03    -26.4222E-03     53.3934E-03    -26.9941E-03     29.0700E-03     154.789E+06     22.5293E+06    -21.0145E+06    -21.0106E+06     154.785E+06     22.5293E+06     781.717E+03         35.8182
             889     13.6277E-03     19.0523E-03         1.49246    -433.730E-03    -448.091E-03    -433.414E-03         1.49215    -448.091E-03     4.10813E-03     55.9125E-03    -26.8784E-03    -29.0531E-03    -26.8018E-03     53.6612E-03    -26.8784E-03     26.8207E-03     98.6839E+06    -14.3551E+06    -22.6892E+06    -22.6751E+06     98.6698E+06    -14.3551E+06     943.215E+03         32.8917
             890     12.6542E-03     19.0285E-03         1.49472    -431.154E-03    -449.177E-03    -430.832E-03         1.49440    -449.177E-03    -825.892E-06     55.1178E-03    -26.9759E-03    -28.1563E-03    -27.0563E-03     54.0177E-03    -26.9759E-03     18.8003E-03     18.7371E+06    -16.4413E+06    -23.1519E+06    -22.9349E+06     18.3526E+06    -16.2737E+06     1.59690E+06         30.6027
             891     11.6810E-03     19.0107E-03         1.49073    -426.276E-03    -450.794E-03    -426.000E-03         1.49046    -450.794E-03    -2.49132E-03     54.8115E-03    -27.0641E-03    -27.7797E-03    -27.1588E-03     54.1906E-03    -27.0641E-03     14.1448E-03    -12.7631E+06    -19.1018E+06    -42.9795E+06    -23.6652E+06    -38.4162E+06    -12.7631E+06     2.23149E+06         28.7446
             892     10.7077E-03     18.9964E-03         1.49713    -434.543E-03    -453.762E-03    -435.402E-03         1.49673    -452.496E-03    -11.4857E-03     54.6030E-03    -27.1178E-03    -27.5250E-03    -27.1369E-03     54.2149E-03    -27.1178E-03     11.1996E-03    -8.93120E+06    -25.1068E+06    -78.8646E+06    -25.2519E+06    -78.7195E+06    -8.93120E+06     2.69183E+06         27.2188
             893     9.73426E-03     18.9843E-03         1.49918    -439.737E-03    -455.099E-03    -440.447E-03         1.49862    -453.833E-03    -13.3654E-03     54.5369E-03    -27.1555E-03    -27.3914E-03    -27.1001E-03     54.2456E-03    -27.1555E-03     9.73147E-03    -5.23190E+06    -27.4386E+06    -107.721E+06    -27.5498E+06    -107.610E+06    -5.23190E+06     2.94660E+06         26.0459
             894     8.76096E-03     18.9728E-03         1.50239    -440.521E-03    -459.259E-03    -444.193E-03         1.50180    -454.991E-03    -16.0324E-03     54.4703E-03    -27.1707E-03    -27.2918E-03    -27.0476E-03     54.2344E-03    -27.1790E-03     8.72786E-03    -5.63457E+06    -30.3559E+06    -132.301E+06    -30.4580E+06    -132.199E+06    -5.63457E+06     3.20824E+06         25.2537
             895     7.78738E-03     18.9629E-03         1.50856    -445.492E-03    -460.360E-03    -449.198E-03         1.50782    -455.918E-03     3.94650E-03     54.4048E-03    -27.1808E-03    -27.2216E-03    -27.0160E-03     54.2225E-03    -27.2041E-03     7.67899E-03    -7.47716E+06    -34.0439E+06    -155.544E+06    -34.1519E+06    -155.436E+06    -7.47716E+06     3.58274E+06         24.8057
             896     6.81407E-03     18.9535E-03         1.50427    -440.245E-03    -457.733E-03    -439.458E-03         1.50331    -457.559E-03    -6.25947E-03     54.3924E-03    -27.1683E-03    -27.2258E-03    -27.0186E-03     54.2428E-03    -27.2258E-03     6.95842E-03    -11.1869E+06    -38.7980E+06    -177.782E+06    -38.9099E+06    -177.670E+06    -11.1869E+06     3.88885E+06         24.5572
             897     5.84048E-03     18.9449E-03         1.51554    -444.080E-03    -461.620E-03    -443.281E-03         1.51331    -460.197E-03     32.9765E-03     54.3678E-03    -27.1294E-03    -27.2386E-03    -27.0064E-03     54.2449E-03    -27.2386E-03     6.30344E-03    -17.9013E+06    -43.9752E+06    -199.438E+06    -44.0715E+06    -199.342E+06    -17.9013E+06     3.80914E+06         24.3834
             898     4.86707E-03     18.9373E-03         1.55661    -457.649E-03    -484.422E-03    -477.265E-03         1.55161    -459.802E-03    -37.7411E-03     54.3374E-03    -27.0990E-03    -27.2373E-03    -27.0029E-03     54.2414E-03    -27.2373E-03     5.56294E-03    -26.1274E+06    -49.2510E+06    -218.790E+06    -49.3161E+06    -218.724E+06    -26.1274E+06     3.26221E+06         24.2451
             899     3.89348E-03     18.9310E-03         1.57450    -454.206E-03    -500.458E-03    -484.643E-03         1.55869    -454.206E-03     108.598E-03     54.3377E-03    -27.1085E-03    -27.2302E-03    -27.0387E-03     54.2680E-03    -27.2302E-03     4.73726E-03    -36.1349E+06    -54.6297E+06    -234.370E+06    -54.6653E+06    -234.334E+06    -36.1349E+06     2.44055E+06         24.1314
             900     2.92012E-03     18.9254E-03         1.55180    -445.006E-03    -491.349E-03    -455.940E-03         1.52067    -449.293E-03    -46.4436E-03     54.3465E-03    -27.1196E-03    -27.2287E-03    -27.0745E-03     54.3013E-03    -27.2287E-03     3.78850E-03    -46.5407E+06    -60.0269E+06    -249.002E+06    -60.0456E+06    -248.983E+06    -46.5407E+06     1.77917E+06         24.0432
             901     1.94665E-03     18.9215E-03         1.59377    -448.055E-03    -536.409E-03    -435.998E-03         1.49765    -452.342E-03     294.853E-03     54.3514E-03    -27.1312E-03    -27.2216E-03    -27.1083E-03     54.3286E-03    -27.2216E-03     2.65669E-03    -56.4920E+06    -65.0021E+06    -259.831E+06    -65.0103E+06    -259.823E+06    -56.4920E+06     1.15576E+06         23.9882
             902     973.297E-06     18.9191E-03         1.98049    -631.715E-03    -738.149E-03    -239.927E-03         1.52364    -673.083E-03    -769.739E-03     54.3835E-03    -27.1203E-03    -27.2633E-03    -27.2246E-03     54.3762E-03    -27.1517E-03     1.38414E-03    -65.6489E+06    -68.9178E+06    -262.582E+06    -68.9218E+06    -262.578E+06    -65.6489E+06    -97.0658E+03         23.9624
             903     16.5502E-03     18.1075E-03         1.47187    -424.785E-03    -441.502E-03    -425.301E-03         1.47172    -440.843E-03     2.15218E-03     56.7028E-03    -26.6567E-03    -30.0841E-03    -25.9532E-03     53.3953E-03    -27.4801E-03     28.6604E-03     190.791E+06     133.829E+06    -8.89733E+06    -8.89319E+06     190.786E+06     133.829E+06     803.091E+03         42.0299
             904     15.5757E-03     18.0581E-03         1.47970    -428.919E-03    -443.206E-03    -430.451E-03         1.47954    -441.519E-03     21.2209E-03     57.7715E-03    -27.2437E-03    -30.5297E-03    -26.3961E-03     53.6379E-03    -27.2437E-03     36.1009E-03     176.309E+06     84.2427E+06    -16.3793E+06    -16.3720E+06     176.302E+06     84.2427E+06     1.18017E+06         39.1217
             905     14.6018E-03     18.0305E-03         1.48522    -432.500E-03    -444.184E-03    -434.569E-03         1.48507    -441.965E-03     8.54794E-03     56.1893E-03    -26.9512E-03    -29.2569E-03    -26.7631E-03     53.6954E-03    -26.9512E-03     28.6485E-03     155.250E+06     22.9712E+06    -20.7724E+06    -20.7679E+06     155.246E+06     22.9712E+06     840.183E+03         35.8047
             906     13.6286E-03     17.9962E-03         1.48502    -434.788E-03    -443.478E-03    -435.849E-03         1.48489    -442.287E-03     10.1420E-03     56.1252E-03    -26.8051E-03    -29.3414E-03    -27.2225E-03     54.0063E-03    -26.8051E-03     26.0364E-03     98.2360E+06    -15.0314E+06    -22.3500E+06    -22.3418E+06     98.2278E+06    -15.0314E+06     768.112E+03         32.8737
             907     12.6556E-03     17.9729E-03         1.47752    -424.775E-03    -443.094E-03    -424.609E-03         1.47735    -443.094E-03     3.95828E-03     55.2175E-03    -26.8699E-03    -28.3651E-03    -27.3857E-03     54.2380E-03    -26.8699E-03     17.7631E-03     18.2669E+06    -17.0758E+06    -23.0426E+06    -22.8156E+06     17.6583E+06    -16.6942E+06     1.45737E+06         30.5788
             908     11.6824E-03     17.9547E-03         1.48513    -427.589E-03    -444.632E-03    -427.009E-03         1.48436    -444.436E-03     33.0274E-03     54.8214E-03    -26.9232E-03    -27.9302E-03    -27.4095E-03     54.3007E-03    -26.9232E-03     12.9031E-03    -13.0859E+06    -19.2995E+06    -43.3014E+06    -23.6107E+06    -38.9903E+06    -13.0859E+06     2.43221E+06         28.7136
             909     10.7093E-03     17.9411E-03         1.50413    -440.968E-03    -449.225E-03    -444.132E-03         1.50320    -445.128E-03     21.8371E-03     54.5371E-03    -26.9422E-03    -27.6349E-03    -27.3348E-03     54.2370E-03    -26.9422E-03     9.81832E-03    -9.27997E+06    -24.7958E+06    -79.0560E+06    -24.9886E+06    -78.8631E+06    -9.27997E+06     3.13298E+06         27.1798
             910     9.73618E-03     17.9290E-03         1.49739    -438.853E-03    -449.163E-03    -441.981E-03         1.49661    -445.261E-03     3.11571E-03     54.3521E-03    -26.9480E-03    -27.4169E-03    -27.2028E-03     54.1380E-03    -26.9480E-03     8.29549E-03    -5.44777E+06    -27.1576E+06    -107.574E+06    -27.3140E+06    -107.418E+06    -5.44777E+06      3.5063E+06         25.9983
             911     8.76283E-03     17.9179E-03         1.48151    -427.203E-03    -446.470E-03    -426.387E-03         1.48069    -446.470E-03     19.8270E-03     54.1843E-03    -26.9404E-03    -27.2399E-03    -27.0746E-03     54.0191E-03    -26.9404E-03     7.25339E-03    -5.95033E+06    -30.3246E+06    -132.305E+06    -30.4762E+06    -132.153E+06    -5.95033E+06     3.88997E+06         25.1973
             912     7.78947E-03     17.9078E-03         1.49199    -435.034E-03    -448.562E-03    -434.515E-03         1.49129    -448.388E-03     31.3564E-03     53.9929E-03    -26.9335E-03    -27.0601E-03    -26.9299E-03     53.8667E-03    -26.9376E-03     6.32812E-03    -7.96744E+06    -34.0425E+06    -155.656E+06    -34.2101E+06    -155.488E+06    -7.96744E+06     4.49327E+06         24.7433
             913     6.81572E-03     17.8989E-03         1.50801    -441.884E-03    -457.264E-03    -448.660E-03         1.50675    -449.230E-03    -14.2980E-03     53.8860E-03    -26.9204E-03    -26.9679E-03    -26.8446E-03     53.7841E-03    -26.9418E-03     5.67950E-03    -11.2072E+06    -38.4432E+06    -177.353E+06    -38.6249E+06    -177.171E+06    -11.2072E+06     4.99407E+06         24.4938
             914     5.84219E-03     17.8904E-03         1.51363    -439.902E-03    -463.502E-03    -452.238E-03         1.51137    -448.905E-03     18.3323E-03     53.8104E-03    -26.8711E-03    -26.9411E-03    -26.7901E-03     53.7269E-03    -26.9385E-03     5.13608E-03    -17.8322E+06    -43.5180E+06    -198.223E+06    -43.6694E+06    -198.072E+06    -17.8322E+06     4.78595E+06         24.3202
             915     4.86841E-03     17.8830E-03         1.52245    -443.036E-03    -468.652E-03    -459.169E-03         1.51726    -447.334E-03    -48.8062E-03     53.7245E-03    -26.8028E-03    -26.9221E-03    -26.7363E-03     53.6580E-03    -26.9221E-03     4.58372E-03    -26.3433E+06    -48.8483E+06    -217.225E+06    -48.9527E+06    -217.121E+06    -26.3433E+06     4.10890E+06         24.1802
             916     3.89475E-03     17.8763E-03         1.50926    -439.636E-03    -461.284E-03    -443.401E-03         1.49818    -446.441E-03     43.2272E-03     53.6832E-03    -26.7754E-03    -26.9082E-03    -26.7262E-03     53.6340E-03    -26.9082E-03     3.93479E-03    -36.5177E+06    -54.3992E+06    -232.660E+06    -54.4702E+06    -232.589E+06    -36.5177E+06     3.46424E+06         24.0659
             917     2.92093E-03     17.8711E-03         1.49973    -439.716E-03    -453.725E-03    -413.357E-03         1.47310    -453.460E-03    -106.001E-03     53.6895E-03    -26.7853E-03    -26.9059E-03    -26.7535E-03     53.6577E-03    -26.9059E-03     3.14706E-03    -46.9467E+06    -59.8220E+06    -247.419E+06    -59.8603E+06    -247.381E+06    -46.9467E+06     2.54770E+06         23.9803
             918     1.94722E-03     17.8672E-03         1.59227    -462.297E-03    -521.083E-03    -426.376E-03         1.50665    -471.383E-03     259.618E-03     53.7061E-03    -26.8046E-03    -26.9023E-03    -26.7879E-03     53.6894E-03    -26.9023E-03     2.26275E-03    -56.2071E+06    -64.3409E+06    -258.053E+06    -64.3509E+06    -258.043E+06    -56.2071E+06     1.18648E+06         23.9280
             919     973.550E-06     17.8644E-03         1.96551    -641.963E-03    -719.848E-03    -295.105E-03         1.56895    -670.148E-03    -726.754E-03     53.7506E-03    -26.8040E-03    -26.9468E-03    -26.9003E-03     53.7447E-03    -26.8446E-03     1.23787E-03    -65.3646E+06    -68.5650E+06    -261.668E+06    -68.4258E+06    -261.663E+06    -65.5095E+06     458.784E+03         23.9029
             920     16.5501E-03     17.0512E-03         1.48232    -424.815E-03    -437.398E-03    -425.650E-03         1.48226    -436.507E-03     1.66541E-03     56.9935E-03    -26.7601E-03    -30.2779E-03    -26.2827E-03     53.7142E-03    -27.4760E-03     28.8195E-03     189.915E+06     134.266E+06    -8.48338E+06    -8.47901E+06     189.911E+06     134.266E+06     811.072E+03         42.0179
             921     15.5765E-03     17.0021E-03         1.48754    -431.705E-03    -440.079E-03    -435.014E-03         1.48747    -436.707E-03     7.06678E-03     58.1812E-03    -27.2089E-03    -30.9784E-03    -26.9450E-03     54.1479E-03    -27.2089E-03     35.7624E-03     176.258E+06     84.6843E+06    -15.6780E+06    -15.6716E+06     176.252E+06     84.6843E+06     1.10049E+06         39.1133
             922     14.6032E-03     16.9739E-03         1.48907    -434.623E-03    -440.493E-03    -438.460E-03         1.48892    -436.507E-03    -5.98386E-03     56.5850E-03    -26.8651E-03    -29.7399E-03    -27.3997E-03     54.2448E-03    -26.8651E-03     27.9282E-03     155.952E+06     22.8808E+06    -20.1711E+06    -20.1673E+06     155.949E+06     22.8808E+06     778.544E+03         35.7940
             923     13.6304E-03     16.9395E-03         1.47596    -424.867E-03    -437.858E-03    -425.841E-03         1.47575    -436.667E-03     3.06188E-03     56.3946E-03    -26.6690E-03    -29.7489E-03    -27.8199E-03     54.4656E-03    -26.6690E-03     24.8541E-03     98.0828E+06    -15.1936E+06    -21.9243E+06    -21.9149E+06     98.0735E+06    -15.1936E+06     839.997E+03         32.8565
             924     12.6578E-03     16.9166E-03         1.47695    -421.611E-03    -439.270E-03    -423.199E-03         1.47674    -437.472E-03     3.87959E-03     55.3809E-03    -26.6796E-03    -28.7179E-03    -27.9046E-03     54.5676E-03    -26.6796E-03     16.1823E-03     17.7675E+06    -17.7004E+06    -22.9475E+06    -22.5704E+06     16.6390E+06    -16.9489E+06     1.63185E+06         30.5536
             925     11.6852E-03     16.8991E-03         1.48911    -432.089E-03    -441.846E-03    -435.134E-03         1.48834    -438.033E-03     27.6679E-03     54.8747E-03    -26.6757E-03    -28.2308E-03    -27.8442E-03     54.4882E-03    -26.6757E-03     11.0246E-03    -13.3133E+06    -19.8861E+06    -43.2523E+06    -23.5108E+06    -39.6276E+06    -13.3133E+06     2.64518E+06         28.6789
             926     10.7126E-03     16.8855E-03         1.48313    -427.341E-03    -443.052E-03    -430.849E-03         1.48198    -438.401E-03     10.4013E-03     54.4322E-03    -26.6356E-03    -27.8396E-03    -27.6518E-03     54.2444E-03    -26.6356E-03     7.68649E-03    -9.51145E+06    -24.5863E+06    -79.1102E+06    -24.8116E+06    -78.8849E+06    -9.51145E+06     3.41730E+06         27.1339
             927     9.73956E-03     16.8740E-03         1.47898    -423.675E-03    -442.016E-03    -425.244E-03         1.47791    -439.380E-03     8.33783E-03     54.0361E-03    -26.5870E-03    -27.4652E-03    -27.3448E-03     53.9158E-03    -26.5870E-03     6.10684E-03    -5.68741E+06    -26.6931E+06    -107.854E+06    -26.9044E+06    -107.643E+06    -5.68741E+06     4.11860E+06         25.9389
             928     8.76629E-03     16.8631E-03         1.49330    -429.658E-03    -450.415E-03    -439.130E-03         1.49245    -440.085E-03     33.6045E-03     53.6761E-03    -26.5320E-03    -27.1425E-03    -27.0579E-03     53.5915E-03    -26.5320E-03     5.03844E-03    -5.96646E+06    -29.9068E+06    -132.343E+06    -30.1403E+06    -132.109E+06    -5.96646E+06     4.85374E+06         25.1225
             929     7.79271E-03     16.8537E-03         1.50230    -433.307E-03    -453.979E-03    -447.278E-03         1.50188    -439.585E-03     14.9841E-03     53.3395E-03    -26.4841E-03    -26.8585E-03    -26.7980E-03     53.2790E-03    -26.4841E-03     4.21570E-03    -8.38334E+06    -33.8984E+06    -155.657E+06    -34.1439E+06    -155.412E+06    -8.38334E+06     5.42317E+06         24.6546
             930     6.81906E-03     16.8447E-03         1.50601    -436.724E-03    -450.275E-03    -447.521E-03         1.50489    -438.351E-03    -36.1777E-03     53.0645E-03    -26.4518E-03    -26.6172E-03    -26.5691E-03     53.0164E-03    -26.4518E-03     3.74903E-03    -11.7039E+06    -38.1390E+06    -176.861E+06    -38.3814E+06    -176.619E+06    -11.7039E+06     5.78289E+06         24.3979
             931     5.84499E-03     16.8364E-03         1.50315    -432.160E-03    -451.682E-03    -443.358E-03         1.49975    -437.085E-03     36.5009E-03     52.8630E-03    -26.4013E-03    -26.4667E-03    -26.4056E-03     52.8238E-03    -26.4232E-03     3.38293E-03    -17.6389E+06    -42.8156E+06    -196.763E+06    -43.0335E+06    -196.545E+06    -17.6389E+06     5.73860E+06         24.2218
             932     4.87095E-03     16.8294E-03         1.48454    -426.260E-03    -444.163E-03    -428.317E-03         1.47986    -437.425E-03     6.86281E-03     52.6992E-03    -26.3134E-03    -26.3901E-03    -26.2866E-03     52.6665E-03    -26.3843E-03     3.08715E-03    -26.3690E+06    -48.2885E+06    -215.593E+06    -48.4642E+06    -215.418E+06    -26.3690E+06     5.36153E+06         24.0795
             933     3.89672E-03     16.8227E-03         1.48843    -427.457E-03    -450.213E-03    -430.107E-03         1.48035    -439.489E-03     60.3071E-03     52.6071E-03    -26.2580E-03    -26.3517E-03    -26.2326E-03     52.5817E-03    -26.3517E-03     2.73523E-03    -36.8745E+06    -53.7675E+06    -230.724E+06    -53.8905E+06    -230.601E+06    -36.8745E+06     4.58680E+06         23.9650
             934     2.92255E-03     16.8175E-03         1.51892    -431.495E-03    -476.162E-03    -438.949E-03         1.49116    -440.953E-03    -143.494E-03     52.5898E-03    -26.2582E-03    -26.3328E-03    -26.2414E-03     52.5730E-03    -26.3328E-03     2.22265E-03    -46.8848E+06    -58.6593E+06    -244.704E+06    -58.7197E+06    -244.644E+06    -46.8848E+06     3.20350E+06         23.8810
             935     1.94834E-03     16.8135E-03         1.55917    -441.851E-03    -512.769E-03    -424.780E-03         1.47599    -446.650E-03     200.864E-03     52.5680E-03    -26.2597E-03    -26.3083E-03    -26.2506E-03     52.5589E-03    -26.3083E-03     1.62615E-03    -55.8871E+06    -63.5907E+06    -255.997E+06    -63.6128E+06    -255.975E+06    -55.8871E+06     1.82969E+06         23.8287
             936     974.164E-06     16.8111E-03         1.86708    -590.869E-03    -677.143E-03    -291.109E-03         1.50299    -612.804E-03    -690.306E-03     52.5235E-03    -26.2158E-03    -26.3082E-03    -26.2861E-03     52.5201E-03    -26.2345E-03     933.694E-06    -64.8394E+06    -68.0869E+06    -260.609E+06    -67.8219E+06    -260.598E+06    -65.1157E+06     1.29244E+06         23.8017
             937     16.5505E-03     15.9949E-03         1.48902    -428.704E-03    -436.591E-03    -433.743E-03         1.48880    -431.325E-03    -25.0177E-03     57.5102E-03    -26.9562E-03    -30.6173E-03    -26.9043E-03     54.2865E-03    -27.4453E-03     29.1061E-03     189.674E+06     134.290E+06    -8.58653E+06    -8.58438E+06     189.672E+06     134.290E+06     364.119E+03         42.0086
             938     15.5774E-03     15.9452E-03         1.48641    -428.043E-03    -433.429E-03    -430.311E-03         1.48633    -431.085E-03     14.6102E-03     58.8599E-03    -27.1579E-03    -31.7162E-03    -27.8403E-03     54.9840E-03    -27.1579E-03     35.2555E-03     176.083E+06     87.7079E+06    -15.4430E+06    -15.4394E+06     176.079E+06     87.7079E+06     593.723E+03         39.1091
             939     14.6052E-03     15.9171E-03         1.48233    -428.612E-03    -433.685E-03    -431.140E-03         1.48209    -430.917E-03    -8.89116E-03     57.1779E-03    -26.7472E-03    -30.4472E-03    -28.3042E-03     55.0348E-03    -26.7472E-03     26.9563E-03     155.973E+06     25.8926E+06    -19.6692E+06    -19.6638E+06     155.968E+06     25.8926E+06     936.764E+03         35.7866
             940     13.6333E-03     15.8826E-03         1.47896    -424.010E-03    -435.048E-03    -427.997E-03         1.47875    -430.852E-03    -13.2354E-03     56.8100E-03    -26.4487E-03    -30.3895E-03    -28.6956E-03     55.1161E-03    -26.4487E-03     23.2820E-03     97.9202E+06    -14.9844E+06    -21.7844E+06    -21.7663E+06     97.9021E+06    -14.9844E+06     1.22009E+06         32.8403
             941     12.6616E-03     15.8602E-03         1.48791    -425.650E-03    -440.707E-03    -435.635E-03         1.48780    -430.608E-03    -1.82408E-03     55.7088E-03    -26.3741E-03    -29.3515E-03    -28.7372E-03     55.0945E-03    -26.3741E-03     14.0229E-03     17.1973E+06    -17.8707E+06    -22.9475E+06    -22.5313E+06     15.9740E+06    -17.0636E+06     1.79367E+06         30.5279
             942     11.6898E-03     15.8431E-03         1.48356    -427.264E-03    -438.763E-03    -435.850E-03         1.48342    -430.040E-03     1.29532E-03     54.9915E-03    -26.2798E-03    -28.7445E-03    -28.5053E-03     54.7523E-03    -26.2798E-03     8.47533E-03    -13.4058E+06    -19.7992E+06    -43.5396E+06    -23.0718E+06    -40.2670E+06    -13.4058E+06     2.76246E+06         28.6418
             943     10.7176E-03     15.8303E-03         1.45991    -411.411E-03    -432.317E-03    -412.652E-03         1.45933    -430.497E-03    -24.9077E-03     54.2611E-03    -26.1534E-03    -28.1528E-03    -28.0689E-03     54.1773E-03    -26.1534E-03     4.89536E-03    -9.56411E+06    -24.1471E+06    -79.5772E+06    -24.4173E+06     -79.307E+06    -9.56411E+06     3.81151E+06         27.0825
             944     9.74498E-03     15.8191E-03         1.46807    -414.327E-03    -437.726E-03    -419.465E-03         1.46731    -431.825E-03    -10.1571E-03     53.6043E-03    -26.0238E-03    -27.5969E-03    -27.5562E-03     53.5636E-03    -26.0238E-03     3.22315E-03    -5.90947E+06    -26.4660E+06    -108.307E+06    -26.7463E+06    -108.027E+06    -5.90947E+06     4.76217E+06         25.8693
             945     8.77181E-03     15.8090E-03         1.49323    -430.074E-03    -452.339E-03    -450.688E-03         1.49277    -431.262E-03     3.94561E-03     52.9726E-03    -25.8936E-03    -27.0779E-03    -27.0549E-03     52.9496E-03    -25.8936E-03     2.13442E-03    -6.03003E+06    -29.4043E+06    -132.597E+06    -29.7263E+06    -132.275E+06    -6.03003E+06     5.73988E+06         25.0293
             946     7.79823E-03     15.7998E-03         1.48628    -426.335E-03    -448.331E-03    -445.066E-03         1.48577    -429.091E-03     3.96011E-03     52.3728E-03    -25.7770E-03    -26.5989E-03    -26.5851E-03     52.3590E-03    -25.7770E-03     1.38208E-03    -8.22934E+06    -33.0387E+06    -155.276E+06    -33.3825E+06    -154.932E+06    -8.22934E+06     6.44586E+06         24.5380
             947     6.82409E-03     15.7916E-03         1.46961    -417.263E-03    -432.650E-03    -420.708E-03         1.46899    -428.585E-03     5.04194E-03     51.8599E-03    -25.6843E-03    -26.1805E-03    -26.1694E-03     51.8489E-03    -25.6843E-03     1.11151E-03    -11.8353E+06    -37.4046E+06    -175.978E+06    -37.7241E+06    -175.658E+06    -11.8353E+06     6.61396E+06         24.2667
             948     5.84971E-03     15.7839E-03         1.46610    -416.158E-03    -430.475E-03    -414.035E-03         1.46398    -430.475E-03     54.0948E-03     51.4466E-03    -25.6080E-03    -25.8432E-03    -25.8341E-03     51.4375E-03    -25.6080E-03     1.00991E-03    -17.6920E+06    -42.1231E+06    -195.551E+06    -42.4159E+06    -195.258E+06    -17.6920E+06     6.67734E+06         24.0829
             949     4.87497E-03     15.7769E-03         1.46563    -416.910E-03    -433.894E-03    -413.125E-03         1.46184    -433.894E-03    -6.21586E-03     51.1285E-03    -25.5128E-03    -25.6208E-03    -25.5929E-03     51.1208E-03    -25.5331E-03     1.01376E-03    -25.8513E+06    -47.3039E+06    -213.809E+06    -47.5726E+06    -213.540E+06    -25.8513E+06     6.64526E+06         23.9360
             950     3.90010E-03     15.7706E-03         1.49064    -425.266E-03    -448.222E-03    -425.162E-03         1.47981    -437.498E-03     99.4673E-03     50.9323E-03    -25.4370E-03    -25.4982E-03    -25.4607E-03     50.9257E-03    -25.4680E-03     1.06536E-03    -36.5671E+06    -52.8581E+06    -227.981E+06    -53.0551E+06    -227.784E+06    -36.5671E+06     5.74711E+06         23.8197
             951     2.92511E-03     15.7654E-03         1.53825    -433.276E-03    -488.196E-03    -462.923E-03         1.51397    -434.274E-03    -59.7702E-03     50.8360E-03    -25.4017E-03    -25.4343E-03    -25.4118E-03     50.8313E-03    -25.4195E-03     964.238E-06    -46.9453E+06    -58.2293E+06    -241.760E+06    -58.3335E+06    -241.656E+06    -46.9453E+06     4.24016E+06         23.7329
             952     1.95014E-03     15.7615E-03         1.56400    -421.064E-03    -525.805E-03    -454.883E-03         1.49307    -421.064E-03     225.705E-03     50.7361E-03    -25.3598E-03    -25.3757E-03    -25.3656E-03     50.7333E-03    -25.3671E-03     783.837E-06    -55.5318E+06    -63.3033E+06    -253.346E+06    -63.3522E+06    -253.297E+06    -55.5318E+06     2.95218E+06         23.6759
             953     975.141E-06     15.7588E-03         1.75179    -526.529E-03    -619.979E-03    -298.610E-03         1.43042    -526.529E-03    -588.340E-03     50.6197E-03    -25.2577E-03    -25.3621E-03    -25.3607E-03     50.6186E-03    -25.2580E-03     509.616E-06    -64.2054E+06    -67.5526E+06    -258.301E+06    -67.4084E+06    -258.281E+06    -64.3700E+06     1.87086E+06         23.6451
             954     16.5511E-03     14.9375E-03         1.47299    -417.994E-03    -429.523E-03    -421.698E-03         1.47232    -425.148E-03    -45.8132E-03     58.3823E-03    -27.2328E-03    -31.2237E-03    -27.8880E-03     55.2040E-03    -27.3902E-03     29.7220E-03     189.772E+06     134.789E+06    -8.59586E+06    -8.59544E+06     189.771E+06     134.789E+06      35.133E+03         41.9987
             955     15.5796E-03     14.8871E-03         1.46281    -415.148E-03    -425.362E-03    -415.122E-03         1.46279    -425.362E-03     11.0321E-03     59.7439E-03    -27.0285E-03    -32.7322E-03    -29.0391E-03     56.0508E-03    -27.0285E-03     34.6888E-03     175.843E+06     87.3536E+06    -15.9019E+06    -15.9006E+06     175.841E+06     87.3536E+06     13.0490E+03         39.1063
             956     14.6083E-03     14.8593E-03         1.46618    -421.135E-03    -428.084E-03    -423.542E-03         1.46606    -425.559E-03    -8.88231E-03     57.9673E-03    -26.5289E-03    -31.4476E-03    -29.5414E-03     56.0611E-03    -26.5289E-03     25.7375E-03     155.240E+06     25.7648E+06    -20.1427E+06    -20.1381E+06     155.236E+06     25.7648E+06     596.658E+03         35.7805
             957     13.6376E-03     14.8248E-03         1.48001    -424.923E-03    -440.614E-03    -440.370E-03         1.47977    -424.923E-03     3.94209E-03     57.4674E-03    -26.1265E-03    -31.3683E-03    -29.9394E-03     56.0385E-03    -26.1265E-03     21.3988E-03     97.7316E+06    -14.5213E+06    -21.4003E+06    -21.3748E+06     97.7061E+06    -14.5213E+06     1.42181E+06         32.8247
             958     12.6673E-03     14.8028E-03         1.48181    -423.512E-03    -442.714E-03    -442.567E-03         1.48167    -423.512E-03     17.1433E-03     56.1936E-03    -25.9319E-03    -30.2791E-03    -29.8555E-03     55.7700E-03    -25.9319E-03     11.5413E-03     17.1727E+06    -17.9333E+06    -22.2794E+06    -21.7462E+06     15.8209E+06    -17.1147E+06     2.01470E+06         30.5022
             959     11.6964E-03     14.7864E-03         1.46291    -417.614E-03    -428.679E-03    -423.634E-03         1.46289    -422.642E-03     2.85696E-03     55.1858E-03    -25.7170E-03    -29.5020E-03    -29.3845E-03     55.0683E-03    -25.7170E-03     5.50435E-03    -13.8279E+06    -19.8628E+06    -44.0113E+06    -22.7687E+06    -41.1054E+06    -13.8279E+06     3.09130E+06         28.6040
             960     10.7250E-03     14.7748E-03         1.45999    -412.373E-03    -430.225E-03    -419.848E-03         1.45990    -422.652E-03    -10.8003E-03     54.1121E-03    -25.4732E-03    -28.6826E-03    -28.6617E-03     54.0913E-03    -25.4732E-03     1.63927E-03    -9.86764E+06    -24.0855E+06    -80.2586E+06    -24.4433E+06    -79.9009E+06    -9.86764E+06     4.40848E+06         27.0286
             961     9.75269E-03     14.7649E-03         1.47070    -417.031E-03    -436.452E-03    -430.749E-03         1.47025    -422.282E-03     20.8912E-03     53.1029E-03    -25.2288E-03    -27.8868E-03    -27.8753E-03     53.0913E-03    -25.2288E-03    -180.566E-06    -5.85839E+06    -26.2914E+06    -108.571E+06    -26.6435E+06    -108.219E+06    -5.85839E+06     5.35069E+06         25.7932
             962     8.77981E-03     14.7556E-03         1.46767    -419.856E-03    -432.690E-03    -430.910E-03         1.46729    -421.248E-03     30.1933E-03     52.1073E-03    -24.9878E-03    -27.1169E-03    -27.0992E-03     52.0895E-03    -24.9878E-03    -1.33856E-03    -5.94244E+06    -28.9536E+06    -132.866E+06    -29.3327E+06    -132.487E+06    -5.94244E+06     6.26235E+06         24.9226
             963     7.80603E-03     14.7476E-03         1.45428    -414.792E-03    -425.587E-03    -419.313E-03         1.45395    -420.741E-03     6.78244E-03     51.1225E-03    -24.7698E-03    -26.3549E-03    -26.3309E-03     51.0985E-03    -24.7698E-03    -1.99778E-03    -7.79536E+06    -32.0439E+06    -154.860E+06    -32.4580E+06    -154.446E+06    -7.79536E+06     7.11606E+06         24.3985
             964     6.83165E-03     14.7400E-03         1.44484    -408.995E-03    -421.722E-03    -408.573E-03         1.44442    -421.722E-03    -633.590E-06     50.2542E-03    -24.5877E-03    -25.6681E-03    -25.6437E-03     50.2298E-03    -24.5877E-03    -2.09278E-03    -10.9083E+06    -35.8810E+06    -174.827E+06    -36.3001E+06    -174.408E+06    -10.9083E+06     7.59673E+06         24.1032
             965     5.85656E-03     14.7331E-03         1.45089    -413.283E-03    -424.525E-03    -413.771E-03         1.45026    -423.411E-03     27.0156E-03     49.5301E-03    -24.4329E-03    -25.0986E-03    -25.0781E-03     49.5096E-03    -24.4329E-03    -1.88732E-03    -16.9658E+06    -40.7291E+06    -194.416E+06    -41.1173E+06    -194.028E+06    -16.9658E+06     7.68065E+06         23.9041
             966     4.88102E-03     14.7264E-03         1.45089    -415.878E-03    -426.408E-03    -413.805E-03         1.44770    -425.294E-03    -57.8321E-03     48.9476E-03    -24.2934E-03    -24.6573E-03    -24.6429E-03     48.9332E-03    -24.2934E-03    -1.50112E-03    -24.7631E+06    -45.8774E+06    -212.071E+06    -46.2359E+06    -211.713E+06    -24.7631E+06     7.69558E+06         23.7479
             967     3.90510E-03     14.7209E-03         1.44770    -412.578E-03    -429.814E-03    -402.225E-03         1.43734    -429.814E-03     65.6994E-03     48.5234E-03    -24.1768E-03    -24.3487E-03    -24.3403E-03     48.5150E-03    -24.1768E-03    -1.01643E-03    -34.9549E+06    -51.2251E+06    -224.836E+06    -51.5350E+06    -224.526E+06    -34.9549E+06     7.25625E+06         23.6245
             968     2.92899E-03     14.7155E-03         1.49005    -423.915E-03    -459.832E-03    -430.751E-03         1.47075    -433.692E-03    -47.4903E-03     48.2582E-03    -24.0911E-03    -24.1668E-03    -24.1628E-03     48.2541E-03    -24.0911E-03    -601.534E-06    -45.4630E+06    -56.7049E+06    -238.310E+06    -56.9011E+06    -238.114E+06    -45.4630E+06     5.76791E+06         23.5289
             969     1.95275E-03     14.7119E-03         1.53413    -428.384E-03    -499.573E-03    -450.248E-03         1.48525    -428.822E-03     162.621E-03     48.0656E-03    -24.0116E-03    -24.0539E-03    -24.0521E-03     48.0638E-03    -24.0116E-03    -310.887E-06    -54.4085E+06    -61.8875E+06    -249.679E+06    -61.9728E+06    -249.594E+06    -54.4085E+06     3.86052E+06         23.4639
             970     976.381E-06     14.7093E-03         1.67081    -480.763E-03    -581.947E-03    -318.932E-03         1.45516    -528.133E-03    -458.806E-03     47.8911E-03    -23.9074E-03    -23.9841E-03    -23.9822E-03     47.8905E-03    -23.9086E-03    -73.6528E-06    -62.8785E+06    -66.1238E+06    -254.859E+06    -66.1193E+06    -254.830E+06    -62.9117E+06     1.80948E+06         23.4282
             971     16.5525E-03     13.8783E-03         1.45447    -413.298E-03    -426.571E-03    -418.788E-03         1.45377    -420.380E-03     5.03258E-03     59.5093E-03    -27.3111E-03    -32.2588E-03    -29.1318E-03     56.3823E-03    -27.3111E-03     30.4699E-03     189.656E+06     135.067E+06    -8.63058E+06    -8.63051E+06     189.656E+06     135.067E+06     33.3099E+03         41.9817
             972     15.5820E-03     13.8282E-03         1.45480    -413.081E-03    -429.122E-03    -421.786E-03         1.45464    -420.254E-03     27.6849E-03     60.8593E-03    -26.8524E-03    -34.0194E-03    -30.5195E-03     57.3594E-03    -26.8524E-03     34.1499E-03     175.927E+06     86.6691E+06    -16.2222E+06    -16.2218E+06     175.926E+06     86.6691E+06    -99.4595E+03         39.0985
             973     14.6125E-03     13.7998E-03         1.46000    -415.865E-03    -429.195E-03    -425.129E-03         1.45993    -419.868E-03    -821.133E-06     59.0510E-03    -26.2333E-03    -32.8260E-03    -31.1458E-03     57.3708E-03    -26.2333E-03     24.5525E-03     154.835E+06     24.7065E+06    -20.5769E+06    -20.5735E+06     154.832E+06     24.7065E+06    -207.804E+03         35.7711
             974     13.6436E-03     13.7660E-03         1.47039    -416.964E-03    -435.632E-03    -433.414E-03         1.47022    -419.013E-03     7.83023E-03     58.3094E-03    -25.7001E-03    -32.6336E-03    -31.4529E-03     57.1287E-03    -25.7001E-03     19.5123E-03     97.0445E+06    -15.3700E+06    -21.4912E+06    -21.4683E+06     97.0216E+06    -15.3700E+06     786.838E+03         32.8074
             975     12.6745E-03     13.7449E-03         1.46133    -412.931E-03    -429.068E-03    -423.681E-03         1.46118    -418.168E-03     21.8235E-03     56.8335E-03    -25.3693E-03    -31.4907E-03    -31.2139E-03     56.5568E-03    -25.3693E-03     9.03469E-03     17.6039E+06    -18.1120E+06    -23.0600E+06    -21.9190E+06     15.0725E+06    -16.7216E+06     2.66262E+06         30.4766
             976     11.7050E-03     13.7298E-03         1.45899    -412.198E-03    -429.464E-03    -423.811E-03         1.45877    -417.638E-03     24.5408E-03     55.5203E-03    -25.0060E-03    -30.5602E-03    -30.5131E-03     55.4732E-03    -25.0060E-03     2.37107E-03    -13.1459E+06    -20.1174E+06    -44.7902E+06    -23.3256E+06    -41.5819E+06    -13.1459E+06     3.86539E+06         28.5675
             977     10.7344E-03     13.7196E-03         1.47171    -414.041E-03    -441.779E-03    -439.310E-03         1.47150    -416.294E-03     18.0698E-03     54.0715E-03    -24.6064E-03    -29.5070E-03    -29.4843E-03     54.0488E-03    -24.6064E-03    -1.74706E-03    -9.25289E+06    -24.2662E+06    -80.3885E+06    -24.6452E+06    -80.0095E+06    -9.25289E+06     4.51607E+06         26.9761
             978     9.76299E-03     13.7110E-03         1.46441    -414.373E-03    -431.305E-03    -431.033E-03         1.46414    -414.373E-03     28.0565E-03     52.6211E-03    -24.2090E-03    -28.4202E-03    -28.3646E-03     52.5655E-03    -24.2090E-03    -3.76781E-03    -4.71454E+06    -25.7960E+06    -108.726E+06    -26.1614E+06    -108.361E+06    -4.71454E+06     5.47605E+06         25.7169
             979     8.79022E-03     13.7034E-03         1.44338    -406.566E-03    -416.123E-03    -408.631E-03         1.44310    -413.780E-03     35.4521E-03     51.1292E-03    -23.8197E-03    -27.3043E-03    -27.2105E-03     51.0354E-03    -23.8197E-03    -5.05108E-03    -4.59212E+06    -28.0633E+06    -132.916E+06    -28.4586E+06    -132.520E+06    -4.59212E+06     6.42136E+06         24.8115
             980     7.81651E-03     13.6967E-03         1.44236    -405.428E-03    -416.879E-03    -407.708E-03         1.44220    -414.444E-03     10.3044E-03     49.6558E-03    -23.4629E-03    -26.1924E-03    -26.0756E-03     49.5390E-03    -23.4629E-03    -5.63863E-03    -6.30026E+06    -30.8728E+06    -154.539E+06    -31.3007E+06    -154.111E+06    -6.30026E+06     7.26011E+06         24.2472
             981     6.84158E-03     13.6903E-03         1.44887    -411.866E-03    -423.067E-03    -420.265E-03         1.44860    -414.403E-03    -4.45245E-03     48.3031E-03    -23.1549E-03    -25.1464E-03    -25.0306E-03     48.1874E-03    -23.1549E-03    -5.52934E-03    -9.07550E+06    -34.1382E+06    -174.038E+06    -34.5997E+06    -173.577E+06    -9.07550E+06     8.02109E+06         23.9182
             982     5.86577E-03     13.6844E-03         1.44188    -409.407E-03    -421.073E-03    -416.184E-03         1.44132    -413.731E-03     28.8486E-03     47.1422E-03    -22.8882E-03    -24.2530E-03    -24.1542E-03     47.0434E-03    -22.8882E-03    -5.01656E-03    -14.6509E+06    -38.3419E+06    -193.206E+06    -38.8387E+06    -192.709E+06    -14.6509E+06     8.73344E+06         23.6948
             983     4.88917E-03     13.6787E-03         1.44728    -407.698E-03    -427.584E-03    -420.057E-03         1.44479    -412.738E-03    -48.1435E-03     46.1635E-03    -22.6483E-03    -23.5161E-03    -23.4433E-03     46.0906E-03    -22.6483E-03    -4.22342E-03    -22.5471E+06    -43.6150E+06    -210.132E+06    -44.1010E+06    -209.646E+06    -22.5471E+06     8.93765E+06         23.5209
             984     3.91200E-03     13.6733E-03         1.44721    -400.250E-03    -437.473E-03    -422.036E-03         1.44201    -410.482E-03     18.2457E-03     45.3920E-03    -22.4490E-03    -22.9428E-03    -22.8963E-03     45.3456E-03    -22.4490E-03    -3.29473E-03    -32.4979E+06    -48.9060E+06    -221.723E+06    -49.3048E+06    -221.324E+06    -32.4979E+06     8.25484E+06         23.3822
             985     2.93426E-03     13.6686E-03         1.43876    -399.486E-03    -430.041E-03    -406.704E-03         1.42529    -409.357E-03    -86.2266E-03     44.8427E-03    -22.2997E-03    -22.5419E-03    -22.5163E-03     44.8171E-03    -22.2997E-03    -2.37860E-03    -42.8447E+06    -53.5715E+06    -234.206E+06    -53.8557E+06    -233.921E+06    -42.8447E+06     7.06621E+06         23.2725
             986     1.95631E-03     13.6655E-03         1.43858    -404.861E-03    -423.723E-03    -389.749E-03         1.41604    -416.298E-03     7.65114E-03     44.4578E-03    -22.1818E-03    -22.2761E-03    -22.2644E-03     44.4461E-03    -22.1818E-03    -1.56404E-03    -52.2311E+06    -57.9687E+06    -244.747E+06    -58.1194E+06    -244.597E+06    -52.2311E+06     5.07353E+06         23.1969
             987     978.285E-06     13.6630E-03         1.57124    -450.754E-03    -509.301E-03    -336.320E-03         1.45681    -509.301E-03    -437.219E-03     44.2226E-03    -22.0634E-03    -22.1596E-03    -22.1549E-03     44.2192E-03    -22.0647E-03    -783.119E-06    -59.1911E+06    -62.5605E+06    -250.687E+06    -61.3265E+06    -250.641E+06    -60.4710E+06     2.33858E+06         23.1551
             988     16.5543E-03     12.8185E-03         1.44384    -414.103E-03    -431.046E-03    -428.044E-03         1.44339    -416.652E-03     3.96660E-03     61.0046E-03    -27.2028E-03    -33.8230E-03    -30.7366E-03     57.9181E-03    -27.2028E-03     31.3719E-03     189.638E+06     135.139E+06    -8.53147E+06    -8.53138E+06     189.638E+06     135.139E+06     40.9889E+03         41.9480
             989     15.5855E-03     12.7676E-03         1.46416    -415.382E-03    -440.133E-03    -439.914E-03         1.46394    -415.382E-03     16.3329E-03     62.1279E-03    -26.6395E-03    -35.4790E-03    -32.1698E-03     58.8187E-03    -26.6395E-03     33.6620E-03     176.132E+06     87.4119E+06    -16.0204E+06    -16.0201E+06     176.131E+06     87.4119E+06    -67.2912E+03         39.0768
             990     14.6177E-03     12.7390E-03         1.46952    -413.613E-03    -438.304E-03    -438.230E-03         1.46945    -413.613E-03     34.2010E-06     60.2302E-03    -25.8941E-03    -34.3446E-03    -32.8561E-03     58.7417E-03    -25.8941E-03     23.5069E-03     154.877E+06     26.0862E+06    -21.0156E+06    -21.0135E+06     154.875E+06     26.0862E+06    -397.914E+03         35.7515
             991     13.6504E-03     12.7060E-03         1.44632    -404.629E-03    -423.369E-03    -415.345E-03         1.44618    -412.516E-03    -23.3459E-03     59.3132E-03    -25.2143E-03    -34.1240E-03    -33.1440E-03     58.3332E-03    -25.2143E-03     17.8244E-03     95.7243E+06    -14.5715E+06    -23.3256E+06    -23.3065E+06     95.7052E+06    -14.5715E+06     517.001E+03         32.7846
             992     12.6830E-03     12.6858E-03         1.43289    -401.556E-03    -414.539E-03    -403.349E-03         1.43277    -412.631E-03    -5.97786E-03     57.6319E-03    -24.7210E-03    -32.9460E-03    -32.7674E-03     57.4533E-03    -24.7210E-03     6.77629E-03     17.1244E+06    -17.9809E+06    -24.5566E+06    -23.5836E+06     13.8790E+06    -15.7086E+06     2.46412E+06         30.4506
             993     11.7149E-03     12.6727E-03         1.45940    -408.985E-03    -433.212E-03    -429.763E-03         1.45914    -412.173E-03     16.2251E-03     56.0083E-03    -24.1816E-03    -31.8830E-03    -31.8501E-03     55.9754E-03    -24.1816E-03    -548.561E-06    -11.2381E+06    -20.0012E+06    -44.8189E+06    -23.3570E+06    -41.4632E+06    -11.2381E+06     3.64150E+06         28.5351
             994     10.7457E-03     12.6644E-03         1.47108    -409.774E-03    -445.920E-03    -445.559E-03         1.47072    -409.774E-03    -1.64424E-03     54.1390E-03    -23.5996E-03    -30.5823E-03    -30.5001E-03     54.0568E-03    -23.5996E-03    -4.89374E-03    -7.24431E+06    -23.6400E+06    -80.4207E+06    -23.9729E+06    -80.0878E+06    -7.24431E+06     4.24293E+06         26.9308
             995     9.77489E-03     12.6577E-03         1.45477    -406.973E-03    -430.198E-03    -429.966E-03         1.45454    -406.973E-03    -7.73755E-03     52.1765E-03    -23.0197E-03    -29.1642E-03    -29.0000E-03     52.0123E-03    -23.0197E-03    -7.06405E-03    -2.60683E+06    -25.1542E+06    -108.910E+06    -25.4633E+06    -108.601E+06    -2.60683E+06     5.05752E+06         25.6488
             996     8.80281E-03     12.6523E-03         1.43463    -399.936E-03    -412.549E-03    -406.351E-03         1.43425    -405.758E-03    -10.6579E-03     50.1332E-03    -22.4509E-03    -27.6773E-03    -27.4370E-03     49.8929E-03    -22.4509E-03    -8.45539E-03    -2.09520E+06    -26.9869E+06    -132.902E+06    -27.3378E+06    -132.551E+06    -2.09520E+06     6.06624E+06         24.7071
             997     7.82890E-03     12.6474E-03         1.42892    -399.283E-03    -408.958E-03    -401.862E-03         1.42848    -405.941E-03    -13.4431E-03     48.0762E-03    -21.9205E-03    -26.1543E-03    -25.8717E-03     47.7935E-03    -21.9205E-03    -8.99158E-03    -3.65124E+06    -29.3281E+06    -154.233E+06    -29.7231E+06    -153.838E+06    -3.65124E+06     7.00826E+06         24.0985
             998     6.85369E-03     12.6433E-03         1.43719    -404.666E-03    -416.239E-03    -414.737E-03         1.43652    -405.501E-03    -23.1269E-03     46.1514E-03    -21.4501E-03    -24.6986E-03    -24.4170E-03     45.8698E-03    -21.4501E-03    -8.75701E-03    -6.20710E+06    -32.4739E+06    -173.450E+06    -32.9184E+06    -173.006E+06    -6.20710E+06     7.90074E+06         23.7292
             999     5.87698E-03     12.6386E-03         1.43406    -400.043E-03    -422.216E-03    -417.791E-03         1.43322    -403.631E-03     6.87058E-03     44.4129E-03    -21.0336E-03    -23.3780E-03    -23.1327E-03     44.1676E-03    -21.0336E-03    -7.97429E-03    -11.5718E+06    -36.1764E+06    -192.422E+06    -36.6985E+06    -191.900E+06    -11.5718E+06     9.00819E+06         23.4721
            1000     4.89918E-03     12.6345E-03         1.43558    -396.757E-03    -426.115E-03    -421.030E-03         1.43408    -400.346E-03    -34.1013E-03     42.9029E-03    -20.6620E-03    -22.2411E-03    -22.0527E-03     42.7145E-03    -20.6620E-03    -6.81919E-03    -18.8304E+06    -40.2273E+06    -207.949E+06    -40.7828E+06    -207.394E+06    -18.8304E+06     9.62775E+06         23.2691
            1001     3.92039E-03     12.6300E-03         1.43801    -394.556E-03    -428.355E-03    -424.006E-03         1.43366    -394.556E-03     40.5705E-03     41.6752E-03    -20.3481E-03    -21.3242E-03    -21.1983E-03     41.5493E-03    -20.3481E-03    -5.44524E-03    -28.6191E+06    -44.9069E+06    -218.276E+06    -45.3825E+06    -217.801E+06    -28.6191E+06     9.02262E+06         23.1066
            1002     2.94099E-03     12.6264E-03         1.41342    -387.947E-03    -407.666E-03    -399.912E-03         1.40676    -389.038E-03     3.11966E-03     40.7262E-03    -20.1067E-03    -20.6162E-03    -20.5446E-03     40.6546E-03    -20.1067E-03    -4.02831E-03    -39.3078E+06    -49.7104E+06    -229.897E+06    -50.0462E+06    -229.561E+06    -39.3078E+06     7.68089E+06         22.9784
            1003     1.96092E-03     12.6232E-03         1.40316    -379.237E-03    -401.739E-03    -378.139E-03         1.39056    -390.235E-03     71.7052E-03     40.0635E-03    -19.9302E-03    -20.1326E-03    -20.0999E-03     40.0308E-03    -19.9302E-03    -2.65681E-03    -48.5122E+06    -53.1411E+06    -239.207E+06    -53.3485E+06    -239.000E+06    -48.5122E+06     6.09047E+06         22.8886
            1004     980.401E-06     12.6211E-03         1.46618    -391.182E-03    -461.354E-03    -336.266E-03         1.40008    -450.164E-03    -275.522E-03     39.7097E-03    -19.7650E-03    -19.9450E-03    -19.9344E-03     39.6990E-03    -19.7650E-03    -1.43789E-03    -53.9514E+06    -57.1511E+06    -244.938E+06    -55.9721E+06    -244.837E+06    -55.2313E+06     4.10633E+06         22.8372
            1005     16.5564E-03     11.7564E-03         1.45844    -411.062E-03    -436.938E-03    -436.726E-03         1.45823    -411.062E-03    -20.4638E-03     62.8030E-03    -27.0770E-03    -35.7081E-03    -32.6386E-03     59.7335E-03    -27.0770E-03     32.3596E-03     189.618E+06     136.246E+06    -8.41669E+06    -8.41526E+06     189.617E+06     136.246E+06    -289.432E+03         41.8862
            1006     15.5897E-03     11.7056E-03         1.45543    -409.058E-03    -435.413E-03    -435.135E-03         1.45535    -409.260E-03     14.1766E-06     63.5281E-03    -26.3877E-03    -37.1105E-03    -33.9336E-03     60.3512E-03    -26.3877E-03     33.5415E-03     176.237E+06     87.3702E+06    -15.7896E+06    -15.7851E+06     176.232E+06     87.3702E+06     84.0138E+03         39.0291
            1007     14.6233E-03     11.6768E-03         1.44177    -405.404E-03    -424.660E-03    -422.273E-03         1.44175    -407.772E-03     3.30014E-03     61.4433E-03    -25.5088E-03    -35.9396E-03    -34.5764E-03     60.0802E-03    -25.5088E-03     22.8663E-03     155.165E+06     25.7964E+06    -20.9243E+06    -20.9209E+06     155.162E+06     25.7964E+06     331.018E+03         35.7132
            1008     13.6578E-03     11.6446E-03         1.42983    -398.973E-03    -420.496E-03    -412.373E-03         1.42971    -406.977E-03    -12.0139E-03     60.3873E-03    -24.6886E-03    -35.7226E-03    -34.8894E-03     59.5541E-03    -24.6886E-03     16.4562E-03     94.9441E+06    -13.2867E+06    -22.8009E+06    -22.7933E+06     94.9365E+06    -13.2867E+06     391.171E+03         32.7530
            1009     12.6921E-03     11.6257E-03         1.43902    -400.317E-03    -426.651E-03    -420.335E-03         1.43855    -406.155E-03     18.4198E-03     58.5281E-03    -24.0272E-03    -34.5384E-03    -34.4161E-03     58.4059E-03    -24.0272E-03     4.85893E-03     16.8937E+06    -17.8519E+06    -23.0187E+06    -22.6242E+06     12.9498E+06    -14.3025E+06     1.20264E+06         30.4251
            1010     11.7256E-03     11.6144E-03         1.44649    -404.520E-03    -429.679E-03    -429.256E-03         1.44607    -404.520E-03     21.8558E-03     56.5427E-03    -23.3052E-03    -33.2947E-03    -33.2355E-03     56.4835E-03    -23.3052E-03    -3.01492E-03    -9.43965E+06    -20.3112E+06    -44.0999E+06    -22.4745E+06    -41.9366E+06    -9.43965E+06     2.55660E+06         28.5111
            1011     10.7575E-03     11.6094E-03         1.44560    -402.173E-03    -430.636E-03    -430.438E-03         1.44540    -402.173E-03    -12.5581E-03     54.2333E-03    -22.5373E-03    -31.7418E-03    -31.5700E-03     54.0615E-03    -22.5373E-03    -7.47164E-03    -4.47760E+06    -22.7530E+06    -80.3745E+06    -23.0112E+06    -80.1163E+06    -4.47760E+06     3.77811E+06         26.9002
            1012     9.78780E-03     11.6051E-03         1.43868    -399.500E-03    -427.235E-03    -427.054E-03         1.43849    -399.500E-03    -17.1847E-03     51.7567E-03    -21.7647E-03    -30.0011E-03    -29.7041E-03     51.4596E-03    -21.7647E-03    -9.69459E-03     463.843E+03    -24.1700E+06    -108.870E+06    -24.4056E+06    -108.635E+06     463.843E+03     4.42730E+06         25.5994
            1013     8.81600E-03     11.6023E-03         1.43132    -396.966E-03    -418.215E-03    -417.660E-03         1.43077    -396.966E-03    -8.48241E-03     49.1617E-03    -21.0037E-03    -28.1539E-03    -27.7437E-03     48.7515E-03    -21.0037E-03    -11.1438E-03     1.51707E+06    -25.9940E+06    -132.837E+06    -26.2339E+06    -132.597E+06     1.51707E+06     4.99800E+06         24.6228
            1014     7.84239E-03     11.6003E-03         1.42394    -394.365E-03    -406.257E-03    -404.821E-03         1.42334    -395.201E-03    -11.8176E-03     46.5089E-03    -20.2834E-03    -26.2253E-03    -25.7567E-03     46.0403E-03    -20.2834E-03    -11.5733E-03     491.278E+03    -27.7962E+06    -154.037E+06    -28.0751E+06    -153.758E+06     491.278E+03     5.84189E+06         23.9691
            1015     6.86674E-03     11.5983E-03         1.41568    -393.163E-03    -398.064E-03    -396.097E-03         1.41501    -394.457E-03    -28.7434E-03     43.9499E-03    -19.6286E-03    -24.3188E-03    -23.8544E-03     43.4855E-03    -19.6286E-03    -11.1649E-03    -1.65116E+06    -30.0653E+06    -173.271E+06    -30.4244E+06    -172.912E+06    -1.65116E+06     7.10485E+06         23.5577
            1016     5.88937E-03     11.5963E-03         1.42395    -392.739E-03    -407.823E-03    -406.566E-03         1.42315    -393.197E-03     10.3221E-03     41.5797E-03    -19.0390E-03    -22.5393E-03    -22.1306E-03     41.1710E-03    -19.0390E-03    -10.1421E-03    -6.39702E+06    -32.9246E+06    -191.450E+06    -33.3467E+06    -191.028E+06    -6.39702E+06     8.12906E+06         23.2614
            1017     4.91026E-03     11.5936E-03         1.41216    -387.040E-03    -405.416E-03    -400.623E-03         1.41143    -391.109E-03    -13.0117E-03     39.4548E-03    -18.5119E-03    -20.9441E-03    -20.6236E-03     39.1343E-03    -18.5119E-03    -8.69943E-03    -13.1941E+06    -35.9375E+06    -206.063E+06    -36.3856E+06    -205.614E+06    -13.1941E+06     8.67042E+06         23.0199
            1018     3.92987E-03     11.5909E-03         1.38846    -378.214E-03    -398.189E-03    -381.509E-03         1.38495    -391.380E-03     60.8465E-03     37.6611E-03    -18.0654E-03    -19.5951E-03    -19.3740E-03     37.4400E-03    -18.0654E-03    -7.00677E-03    -22.0397E+06    -38.9332E+06    -215.000E+06    -39.3797E+06    -214.553E+06    -22.0397E+06     8.81153E+06         22.8258
            1019     2.94823E-03     11.5883E-03         1.39735    -384.505E-03    -401.150E-03    -387.748E-03         1.39304    -393.601E-03     30.7021E-03     36.2768E-03    -17.7277E-03    -18.5475E-03    -18.4172E-03     36.1465E-03    -17.7277E-03    -5.21807E-03    -30.7523E+06    -41.9969E+06    -225.140E+06    -42.3262E+06    -224.811E+06    -30.7523E+06     7.63825E+06         22.6763
            1020     1.96586E-03     11.5861E-03         1.40977    -379.014E-03    -412.540E-03    -381.887E-03         1.39896    -398.857E-03     110.471E-03     35.3102E-03    -17.4876E-03    -17.8228E-03    -17.7640E-03     35.2514E-03    -17.4876E-03    -3.37877E-03    -38.7457E+06    -44.9298E+06    -234.217E+06    -45.1154E+06    -234.031E+06    -38.7457E+06     5.76386E+06         22.5702
            1021     983.236E-06     11.5842E-03         1.46788    -360.920E-03    -479.272E-03    -338.221E-03         1.43399    -468.083E-03    -105.688E-03     34.7695E-03    -17.3105E-03    -17.4597E-03    -17.4423E-03     34.7521E-03    -17.3105E-03    -1.77021E-03    -43.9868E+06    -47.0458E+06    -237.771E+06    -46.7815E+06    -237.673E+06    -44.3487E+06     4.08636E+06         22.5047
            1022     16.5588E-03     10.6924E-03         1.46753    -404.746E-03    -432.985E-03    -432.800E-03         1.46734    -404.746E-03    -10.3031E-03     64.5070E-03    -26.9487E-03    -37.5549E-03    -34.5238E-03     61.4759E-03    -26.9487E-03     33.1003E-03     189.654E+06     137.306E+06    -8.75662E+06    -8.75451E+06     189.652E+06     137.306E+06    -407.509E+03         41.7860
            1023     15.5934E-03     10.6419E-03         1.44705    -398.885E-03    -419.052E-03    -414.537E-03         1.44703    -403.386E-03     7.56290E-03     64.9286E-03    -26.1324E-03    -38.8054E-03    -35.7720E-03     61.8953E-03    -26.1324E-03     33.3075E-03     175.597E+06     87.5991E+06    -16.0598E+06    -16.0523E+06     175.590E+06     87.5991E+06    -160.282E+03         38.9435
            1024     14.6292E-03     10.6127E-03         1.42434    -394.841E-03    -403.163E-03    -394.836E-03         1.42433    -403.163E-03     2.54452E-03     62.6646E-03    -25.1146E-03    -37.5572E-03    -36.3130E-03     61.4205E-03    -25.1146E-03     22.1803E-03     155.670E+06     26.6938E+06    -19.6344E+06    -19.6281E+06     155.664E+06     26.6938E+06    -21.3055E+03         35.6487
            1025     13.6651E-03     10.5822E-03         1.43986    -398.989E-03    -421.549E-03    -417.694E-03         1.43983    -402.811E-03     11.4643E-03     61.3257E-03    -24.1560E-03    -37.1902E-03    -36.4788E-03     60.6143E-03    -24.1560E-03     15.2148E-03     95.4765E+06    -11.1081E+06    -20.6810E+06    -20.6802E+06     95.4757E+06    -11.1081E+06    -142.914E+03         32.7114
            1026     12.7011E-03     10.5642E-03         1.45827    -400.681E-03    -441.432E-03    -441.020E-03         1.45786    -400.681E-03     42.2057E-03     59.2603E-03    -23.3517E-03    -35.9508E-03    -35.8556E-03     59.1651E-03    -23.3517E-03     3.14322E-03     18.9203E+06    -17.2988E+06    -21.8594E+06    -21.2589E+06     11.7960E+06    -10.7749E+06     674.550E+03         30.4032
            1027     11.7360E-03     10.5564E-03         1.43384    -397.913E-03    -427.382E-03    -426.990E-03         1.43344    -397.913E-03     32.1007E-03     56.9041E-03    -22.4685E-03    -34.4945E-03    -34.3964E-03     56.8059E-03    -22.4685E-03    -5.00897E-03    -5.15505E+06    -20.8957E+06    -43.5760E+06    -22.0778E+06    -42.3939E+06    -5.15505E+06     1.82798E+06         28.5020
            1028     10.7689E-03     10.5538E-03         1.41379    -395.973E-03    -412.371E-03    -412.171E-03         1.41359    -395.973E-03     25.0633E-03     54.1768E-03    -21.5315E-03    -32.6851E-03    -32.4315E-03     53.9232E-03    -21.5315E-03    -9.24027E-03     73.7637E+03    -22.5339E+06    -80.4504E+06    -22.6548E+06    -80.3295E+06     73.7637E+03     2.44239E+06         26.8938
            1029     9.79994E-03     10.5532E-03         1.42012    -394.137E-03    -416.753E-03    -416.447E-03         1.41981    -394.137E-03     7.54913E-03     51.2597E-03    -20.5910E-03    -30.6742E-03    -30.2764E-03     50.8619E-03    -20.5910E-03    -11.3099E-03     5.90194E+06    -23.2038E+06    -108.646E+06    -23.3271E+06    -108.522E+06     5.90194E+06     3.06104E+06         25.5822
            1030     8.82875E-03     10.5537E-03         1.42212    -391.476E-03    -420.478E-03    -419.770E-03         1.42141    -391.476E-03     29.6772E-03     48.1686E-03    -19.6583E-03    -28.5057E-03    -27.9845E-03     47.6473E-03    -19.6583E-03    -12.5682E-03     7.75709E+06    -24.4171E+06    -132.022E+06    -24.5230E+06    -131.917E+06     7.75709E+06     3.10690E+06         24.5761
            1031     7.85513E-03     10.5552E-03         1.41719    -388.520E-03    -411.810E-03    -411.138E-03         1.41652    -388.520E-03     32.7780E-03     44.9733E-03    -18.7672E-03    -26.2074E-03    -25.6294E-03     44.3953E-03    -18.7672E-03    -12.7686E-03     7.20321E+06    -25.8167E+06    -154.098E+06    -25.9254E+06    -153.989E+06     7.20321E+06     3.40642E+06         23.8808
            1032     6.87923E-03     10.5560E-03         1.40560    -386.141E-03    -394.729E-03    -393.971E-03         1.40530    -386.599E-03     14.0457E-03     41.8459E-03    -17.9431E-03    -23.9017E-03    -23.3416E-03     41.2858E-03    -17.9431E-03    -12.0828E-03     5.34147E+06    -27.1091E+06    -173.525E+06    -27.2759E+06    -173.358E+06     5.34147E+06     4.53466E+06         23.4311
            1033     5.90099E-03     10.5566E-03         1.38882    -378.846E-03    -388.987E-03    -380.877E-03         1.38841    -386.551E-03     48.2162E-03     38.9285E-03    -17.1948E-03    -21.7298E-03    -21.2396E-03     38.4384E-03    -17.1948E-03    -10.8551E-03     2.09354E+06    -28.6654E+06    -190.720E+06    -28.8969E+06    -190.489E+06     2.09354E+06     5.84947E+06         23.0983
            1034     4.92089E-03     10.5567E-03         1.39309    -375.483E-03    -400.778E-03    -389.087E-03         1.39271    -386.799E-03    -4.90079E-03     36.2479E-03    -16.5223E-03    -19.7287E-03    -19.3435E-03     35.8626E-03    -16.5223E-03    -9.23735E-03    -3.51702E+06    -31.0542E+06    -204.306E+06    -31.3030E+06    -204.057E+06    -3.51702E+06     6.36487E+06         22.8173
            1035     3.93884E-03     10.5559E-03         1.39234    -372.815E-03    -405.031E-03    -390.769E-03         1.39125    -385.981E-03    -10.8723E-03     33.9344E-03    -15.9456E-03    -17.9932E-03    -17.7249E-03     33.6661E-03    -15.9456E-03    -7.41273E-03    -11.0604E+06    -33.0673E+06    -212.195E+06    -33.2864E+06    -211.976E+06    -11.0604E+06     5.77266E+06         22.5886
            1036     2.95542E-03     10.5551E-03         1.37982    -371.485E-03    -396.139E-03    -379.193E-03         1.37801    -386.619E-03    -38.2063E-03     32.1225E-03    -15.4946E-03    -16.6281E-03    -16.4672E-03     31.9616E-03    -15.4946E-03    -5.52980E-03    -18.4989E+06    -34.3125E+06    -221.210E+06    -34.4822E+06    -221.041E+06    -18.4989E+06     5.07805E+06         22.4143
            1037     1.97089E-03     10.5541E-03         1.39250    -364.992E-03    -408.499E-03    -378.738E-03         1.38862    -390.872E-03    -15.1621E-03     30.7906E-03    -15.1751E-03    -15.6161E-03    -15.5421E-03     30.7166E-03    -15.1751E-03    -3.58488E-03    -26.5262E+06    -35.8135E+06    -229.780E+06    -35.9050E+06    -229.688E+06    -26.5262E+06     3.80814E+06         22.2897
            1038     985.377E-06     10.5529E-03         1.41914    -356.539E-03    -440.746E-03    -362.420E-03         1.40957    -425.299E-03    -104.858E-03     30.0586E-03    -14.9789E-03    -15.0800E-03    -15.0594E-03     30.0380E-03    -14.9789E-03    -1.70515E-03    -33.4854E+06    -37.5380E+06    -232.140E+06    -37.2097E+06    -232.106E+06    -33.8474E+06     1.93007E+06         22.2095
            1039     16.5609E-03     9.62693E-03         1.43384    -400.470E-03    -415.838E-03    -415.167E-03         1.43317    -400.470E-03     25.4668E-03     66.2026E-03    -26.8099E-03    -39.4482E-03    -36.4948E-03     63.2492E-03    -26.8099E-03     33.4217E-03     189.914E+06     138.035E+06    -8.56691E+06    -8.56297E+06     189.910E+06     138.035E+06    -503.169E+03         41.6423
            1040     15.5978E-03     9.57626E-03         1.42074    -395.431E-03    -411.420E-03    -406.938E-03         1.42055    -399.731E-03     23.2886E-03     66.2334E-03    -25.8794E-03    -40.3909E-03    -37.5157E-03     63.3582E-03    -25.8794E-03     32.8192E-03     175.402E+06     90.2121E+06    -15.8022E+06    -15.7953E+06     175.396E+06     90.2121E+06    -810.019E+03         38.8142
            1041     14.6350E-03     9.54758E-03         1.42737    -393.118E-03    -415.264E-03    -409.289E-03         1.42735    -399.073E-03     6.68917E-03     63.6665E-03    -24.7456E-03    -38.9302E-03    -37.8046E-03     62.5409E-03    -24.7456E-03     21.3652E-03     155.754E+06     30.9945E+06    -20.3396E+06    -20.3273E+06     155.741E+06     30.9945E+06    -1.17847E+06         35.5561
            1042     13.6726E-03     9.51837E-03         1.43840    -396.060E-03    -425.052E-03    -423.367E-03         1.43837    -397.716E-03     10.7099E-03     61.8971E-03    -23.6675E-03    -38.2496E-03    -37.6245E-03     61.2720E-03    -23.6675E-03     14.2388E-03     95.4558E+06    -6.21244E+06    -22.2284E+06    -22.2128E+06     95.4402E+06    -6.21244E+06    -442.533E+03         32.6633
            1043     12.7096E-03     9.50268E-03         1.43973    -395.395E-03    -430.401E-03    -430.309E-03         1.43964    -395.395E-03     23.6346E-03     59.4585E-03    -22.7514E-03    -36.7472E-03    -36.6652E-03     59.3765E-03    -22.7514E-03     1.97381E-03     21.0021E+06    -14.7198E+06    -23.4428E+06    -22.9431E+06     11.4374E+06    -5.65482E+06     439.832E+03         30.3918
            1044     11.7451E-03     9.49783E-03         1.42872    -392.770E-03    -423.811E-03    -423.566E-03         1.42848    -392.770E-03    -6.03437E-03     56.7371E-03    -21.7641E-03    -35.0273E-03    -34.9074E-03     56.6173E-03    -21.7641E-03    -5.98516E-03     921.962E+03    -21.2957E+06    -43.6107E+06    -23.0746E+06    -41.8318E+06     921.962E+03     178.497E+03         28.5171
            1045     10.7786E-03     9.49875E-03         1.40697    -390.763E-03    -406.583E-03    -406.164E-03         1.40661    -390.817E-03     3.13059E-03     53.6764E-03    -20.7296E-03    -32.9778E-03    -32.7134E-03     53.4121E-03    -20.7296E-03    -9.47917E-03     7.09043E+06    -22.6903E+06    -80.3927E+06    -22.7329E+06    -80.3501E+06     7.09043E+06    -63.9977E+03         26.9234
            1046     9.80987E-03     9.50176E-03         1.40130    -388.698E-03    -399.186E-03    -397.836E-03         1.40099    -389.743E-03     7.80021E-03     50.4492E-03    -19.6903E-03    -30.7585E-03    -30.3813E-03     50.0720E-03    -19.6903E-03    -10.9664E-03     13.4120E+06    -22.3482E+06    -108.382E+06    -22.4064E+06    -108.324E+06     13.4120E+06    -200.470E+03         25.6121
            1047     8.83867E-03     9.50607E-03         1.41585    -387.353E-03    -408.516E-03    -406.761E-03         1.41509    -388.344E-03     32.3949E-03     47.0514E-03    -18.6589E-03    -28.3841E-03    -27.9156E-03     46.5829E-03    -18.6589E-03    -11.7951E-03     16.5337E+06    -22.1675E+06    -131.243E+06    -22.2198E+06    -131.191E+06     16.5337E+06    -404.874E+03         24.5883
            1048     7.86496E-03     9.51129E-03         1.42115    -385.796E-03    -411.463E-03    -410.717E-03         1.42041    -385.796E-03     30.8743E-03     43.5467E-03    -17.6684E-03    -25.8771E-03    -25.3820E-03     43.0516E-03    -17.6684E-03    -11.6241E-03     17.1903E+06    -22.4909E+06    -154.316E+06    -22.5331E+06    -154.274E+06     17.1903E+06    -392.772E+03         23.8603
            1049     6.88859E-03     9.51630E-03         1.40832    -382.981E-03    -401.250E-03    -401.048E-03         1.40812    -382.981E-03    -2.25815E-03     40.1235E-03    -16.7354E-03    -23.3869E-03    -22.9240E-03     39.6607E-03    -16.7354E-03    -10.7367E-03     15.7928E+06    -23.3295E+06    -174.263E+06    -23.3709E+06    -174.221E+06     15.7928E+06     296.833E+03         23.3780
            1050     5.90988E-03     9.51973E-03         1.38517    -374.063E-03    -393.667E-03    -386.238E-03         1.38499    -381.310E-03     5.89942E-03     36.8717E-03    -15.8741E-03    -20.9912E-03    -20.5936E-03     36.4741E-03    -15.8741E-03    -9.49131E-03     13.3380E+06    -24.6296E+06    -191.237E+06    -24.6911E+06    -191.175E+06     13.3380E+06     1.67629E+06         23.0183
            1051     4.92873E-03     9.52287E-03         1.38198    -372.649E-03    -397.759E-03    -390.248E-03         1.38171    -379.896E-03    -16.4000E-03     33.8478E-03    -15.0936E-03    -18.7583E-03    -18.4488E-03     33.5384E-03    -15.0936E-03    -7.97629E-03     9.22166E+06    -26.1293E+06    -202.444E+06    -26.2027E+06    -202.370E+06     9.22166E+06     1.95136E+06         22.7097
            1052     3.94570E-03     9.52489E-03         1.39253    -376.237E-03    -397.856E-03    -397.393E-03         1.39207    -376.237E-03    -16.4670E-03     31.1974E-03    -14.4048E-03    -16.7989E-03    -16.5866E-03     30.9852E-03    -14.4048E-03    -6.29368E-03     905.784E+03    -27.9262E+06    -210.149E+06    -27.9710E+06    -210.104E+06     905.784E+03     855.763E+03         22.4525
            1053     2.96088E-03     9.52582E-03         1.39239    -363.434E-03    -401.295E-03    -394.190E-03         1.39132    -369.472E-03     9.73111E-03     29.0420E-03    -13.8304E-03    -15.2114E-03    -15.0858E-03     28.9165E-03    -13.8304E-03    -4.62577E-03    -10.1032E+06    -30.2518E+06    -219.728E+06    -30.2800E+06    -219.700E+06    -10.1032E+06     560.765E+03         22.2538
            1054     1.97467E-03     9.52600E-03         1.38060    -348.248E-03    -405.786E-03    -398.507E-03         1.37936    -354.286E-03    -11.4726E-03     27.4174E-03    -13.3866E-03    -14.0305E-03    -13.9713E-03     27.3583E-03    -13.3866E-03    -3.02573E-03    -21.7856E+06    -32.3057E+06    -227.767E+06    -32.3242E+06    -227.748E+06    -21.7856E+06     852.421E+03         22.1120
            1055     987.635E-06     9.52592E-03         1.31220    -300.665E-03    -386.985E-03    -328.934E-03         1.31094    -357.459E-03    -70.9357E-03     26.3534E-03    -13.0619E-03    -13.2911E-03    -13.2743E-03     26.3367E-03    -13.0619E-03    -1.38857E-03    -30.1264E+06    -34.7618E+06    -229.418E+06    -33.8215E+06    -229.411E+06    -31.0733E+06     112.247E+03         22.0192
            1056     16.5640E-03     8.55986E-03         1.41606    -397.878E-03    -413.075E-03    -412.314E-03         1.41530    -397.878E-03     12.0036E-03     68.1880E-03    -26.6813E-03    -41.6091E-03    -38.6751E-03     65.2540E-03    -26.6813E-03     33.8354E-03     190.378E+06     139.491E+06    -8.96586E+06    -8.96220E+06     190.375E+06     139.491E+06    -619.268E+03         41.4592
            1057     15.6020E-03     8.50895E-03         1.41648    -396.714E-03    -417.698E-03    -417.450E-03         1.41623    -396.714E-03     12.6589E-03     67.4393E-03    -25.6260E-03    -41.8441E-03    -38.9960E-03     64.5912E-03    -25.6260E-03     32.9755E-03     175.819E+06     91.2940E+06    -16.5705E+06    -16.5584E+06     175.807E+06     91.2940E+06    -1.20092E+06         38.6440
            1058     14.6407E-03     8.48204E-03         1.43327    -394.857E-03    -428.510E-03    -428.371E-03         1.43313    -394.857E-03     24.0586E-03     64.2535E-03    -24.4096E-03    -39.8494E-03    -38.7597E-03     63.1638E-03    -24.4096E-03     21.1856E-03     155.776E+06     32.7997E+06    -21.6023E+06    -21.5848E+06     155.758E+06     32.7997E+06    -1.34515E+06         35.4409
            1059     13.6788E-03     8.45383E-03         1.43328    -392.402E-03    -428.191E-03    -428.063E-03         1.43315    -392.402E-03     21.4604E-03     61.8625E-03    -23.2781E-03    -38.5995E-03    -37.9745E-03     61.2374E-03    -23.2781E-03     14.3045E-03     94.5390E+06    -1.78059E+06    -24.1915E+06    -24.1676E+06     94.5151E+06    -1.78059E+06    -652.623E+03         32.6176
            1060     12.7160E-03     8.44121E-03         1.41443    -390.207E-03    -413.633E-03    -413.428E-03         1.41423    -390.207E-03     30.0292E-03     58.7795E-03    -22.3334E-03    -36.4864E-03    -36.4066E-03     58.6997E-03    -22.3334E-03     2.30195E-03     23.4387E+06    -9.93389E+06    -25.0542E+06    -24.7990E+06     12.7490E+06     500.574E+03    -1.07583E+06         30.4016
            1061     11.7512E-03     8.44012E-03         1.41411    -388.154E-03    -416.665E-03    -416.291E-03         1.41374    -388.154E-03     7.24427E-03     55.5979E-03    -21.3512E-03    -34.3047E-03    -34.2266E-03     55.5197E-03    -21.3512E-03    -4.64110E-03     7.81008E+06    -20.0290E+06    -44.9271E+06    -24.5409E+06    -40.4152E+06     7.81008E+06    -2.81536E+06         28.5685
            1062     10.7841E-03     8.44472E-03         1.41363    -385.799E-03    -411.848E-03    -411.556E-03         1.41339    -385.853E-03    -3.61079E-03     52.4425E-03    -20.3457E-03    -32.1237E-03    -31.9738E-03     52.2926E-03    -20.3457E-03    -6.73942E-03     14.9113E+06    -23.3092E+06    -80.0487E+06    -23.7621E+06    -79.5958E+06     14.9113E+06    -4.23068E+06         27.0024
            1063     9.81466E-03     8.45114E-03         1.39764    -383.284E-03    -393.620E-03    -392.420E-03         1.39749    -384.329E-03     1.05403E-03     49.2525E-03    -19.3359E-03    -29.9089E-03    -29.7149E-03     49.0585E-03    -19.3359E-03    -7.31643E-03     21.8168E+06    -21.8005E+06    -107.932E+06    -22.3154E+06    -107.417E+06     21.8168E+06    -5.72757E+06         25.7042
            1064     8.84293E-03     8.45964E-03         1.39482    -381.808E-03    -393.791E-03    -391.603E-03         1.39436    -383.535E-03     18.3734E-03     45.9498E-03    -18.3306E-03    -27.6038E-03    -27.3758E-03     45.7218E-03    -18.3306E-03    -7.58238E-03     25.8660E+06    -20.0302E+06    -132.134E+06    -20.5341E+06    -131.630E+06     25.8660E+06    -6.46926E+06         24.6786
            1065     7.86861E-03     8.46861E-03         1.39706    -380.594E-03    -395.344E-03    -392.955E-03         1.39657    -382.492E-03     13.6052E-03     42.6351E-03    -17.3531E-03    -25.2752E-03    -25.0507E-03     42.4105E-03    -17.3531E-03    -7.12688E-03     28.1329E+06    -19.1705E+06    -155.494E+06    -19.5194E+06    -155.145E+06     28.1329E+06    -5.98846E+06         23.9328
            1066     6.89207E-03     8.47697E-03         1.40297    -379.055E-03    -405.027E-03    -403.542E-03         1.40265    -380.217E-03     2.49120E-03     39.3499E-03    -16.4123E-03    -22.9371E-03    -22.7370E-03     39.1498E-03    -16.4123E-03    -6.37717E-03     28.0373E+06    -20.0014E+06    -176.258E+06    -20.2077E+06    -176.051E+06     28.0373E+06    -4.87366E+06         23.4276
            1067     5.91300E-03     8.48463E-03         1.40028    -376.054E-03    -406.807E-03    -406.481E-03         1.39996    -376.054E-03     635.841E-06     36.1290E-03    -15.5072E-03    -20.6187E-03    -20.4529E-03     35.9632E-03    -15.5072E-03    -5.46834E-03     24.8601E+06    -21.6912E+06    -192.228E+06    -21.8589E+06    -192.060E+06     24.8601E+06    -4.20758E+06         23.0565
            1068     4.93179E-03     8.49077E-03         1.36681    -362.093E-03    -385.161E-03    -373.156E-03         1.36630    -373.584E-03     12.1490E-03     33.0579E-03    -14.6582E-03    -18.4042E-03    -18.2784E-03     32.9320E-03    -14.6582E-03    -4.48351E-03     18.2484E+06    -23.3608E+06    -202.125E+06    -23.5347E+06    -201.951E+06     18.2484E+06    -4.40790E+06         22.7421
            1069     3.94831E-03     8.49522E-03         1.35957    -362.355E-03    -377.494E-03    -364.474E-03         1.35912    -374.925E-03     43.7011E-03     30.2918E-03    -13.8891E-03    -16.4059E-03    -16.3219E-03     30.2077E-03    -13.8891E-03    -3.45624E-03     5.94340E+06    -26.1722E+06    -210.682E+06    -26.2878E+06    -210.566E+06     5.94340E+06    -3.93238E+06         22.4729
            1070     2.96305E-03     8.49916E-03         1.39208    -371.270E-03    -398.578E-03    -395.518E-03         1.39010    -372.349E-03     93.0118E-03     27.9764E-03    -13.2216E-03    -14.7520E-03    -14.7035E-03     27.9278E-03    -13.2216E-03    -2.48498E-03    -9.67954E+06    -30.0928E+06    -220.811E+06    -30.1505E+06    -220.753E+06    -9.67954E+06    -3.00035E+06         22.2585
            1071     1.97638E-03     8.50109E-03         1.36744    -342.984E-03    -402.814E-03    -378.732E-03         1.36539    -365.015E-03     65.7168E-03     26.1747E-03    -12.6764E-03    -13.4982E-03    -13.4756E-03     26.1521E-03    -12.6764E-03    -1.55049E-03    -23.8150E+06    -33.4161E+06    -228.597E+06    -33.4457E+06    -228.567E+06    -23.8150E+06    -1.95109E+06         22.1044
            1072     988.721E-06     8.50223E-03         1.34312    -317.174E-03    -408.208E-03    -328.874E-03         1.34074    -394.130E-03     44.2107E-03     24.8235E-03    -12.2256E-03    -12.5974E-03    -12.5914E-03     24.8174E-03    -12.2256E-03    -689.921E-06    -32.2131E+06    -35.8185E+06    -229.748E+06    -34.8787E+06    -229.741E+06    -33.1601E+06    -510.569E+03         22.0041
            1073     16.5650E-03     7.49072E-03         1.39986    -393.763E-03    -409.125E-03    -408.752E-03         1.39949    -393.763E-03    -27.1185E-03     70.2159E-03    -26.6506E-03    -43.6651E-03    -40.6011E-03     67.1519E-03    -26.6506E-03     34.9297E-03     190.993E+06     142.093E+06    -9.16494E+06    -9.16405E+06     190.992E+06     142.093E+06    -343.562E+03         41.2525
            1074     15.6050E-03     7.44034E-03         1.42485    -392.280E-03    -420.288E-03    -420.144E-03         1.42470    -392.280E-03     5.02223E-03     68.4585E-03    -25.4618E-03    -43.0333E-03    -39.9666E-03     65.3917E-03    -25.4618E-03     34.6863E-03     176.351E+06     88.4997E+06    -17.3523E+06    -17.3433E+06     176.342E+06     88.4997E+06    -834.682E+03         38.4482
            1075     14.6441E-03     7.41532E-03         1.43157    -390.167E-03    -423.841E-03    -423.711E-03         1.43144    -390.167E-03     21.7620E-03     64.2979E-03    -24.2134E-03    -40.1256E-03    -38.8450E-03     63.0173E-03    -24.2134E-03     22.9076E-03     155.430E+06     28.9159E+06    -23.0763E+06    -23.0667E+06     155.421E+06     28.9159E+06    -841.921E+03         35.3180
            1076     13.6821E-03     7.38989E-03         1.42236    -387.895E-03    -418.702E-03    -418.444E-03         1.42210    -387.895E-03     3.11322E-03     61.0104E-03    -23.1558E-03    -37.8833E-03    -37.0662E-03     60.1932E-03    -23.1558E-03     16.6385E-03     95.1764E+06     1.31405E+06    -25.5697E+06    -25.5308E+06     95.1374E+06     1.31405E+06    -1.32281E+06         32.5893
            1077     12.7181E-03     7.38088E-03         1.40657    -385.999E-03    -406.929E-03    -406.510E-03         1.40615    -385.999E-03     18.0969E-03     56.9130E-03    -22.3142E-03    -34.6455E-03    -34.4945E-03     56.7620E-03    -22.3142E-03     5.55811E-03     28.9090E+06    -5.20305E+06    -26.9402E+06    -25.7599E+06     15.3230E+06     7.20266E+06    -3.77941E+06         30.4476
            1078     11.7510E-03     7.38396E-03         1.39970    -384.180E-03    -401.277E-03    -400.599E-03         1.39940    -384.562E-03     26.2326E-03     53.4130E-03    -21.5052E-03    -31.9624E-03    -31.9113E-03     53.3619E-03    -21.5052E-03     768.800E-06     15.8828E+06    -17.3772E+06    -46.2469E+06    -25.2248E+06    -38.3994E+06     15.8828E+06    -6.77270E+06         28.6707
            1079     10.7817E-03     7.39210E-03         1.40857    -382.243E-03    -411.878E-03    -411.383E-03         1.40846    -382.625E-03     13.2552E-03     50.7168E-03    -20.6995E-03    -30.0265E-03    -29.9485E-03     50.6388E-03    -20.6995E-03     550.055E-06     22.8664E+06    -22.0292E+06    -79.7529E+06    -24.0885E+06    -77.6936E+06     22.8664E+06    -10.1398E+06         27.1450
            1080     9.81061E-03     7.40193E-03         1.40572    -379.823E-03    -410.894E-03    -410.704E-03         1.40553    -379.823E-03     8.00223E-03     48.2117E-03    -19.8886E-03    -28.3082E-03    -28.2135E-03     48.1170E-03    -19.8886E-03     785.853E-06     30.0274E+06    -19.8290E+06    -108.593E+06    -22.0183E+06    -106.404E+06     30.0274E+06    -13.1405E+06         25.8731
            1081     8.83751E-03     7.41408E-03         1.38078    -376.923E-03    -390.941E-03    -389.866E-03         1.38044    -377.660E-03     16.0693E-03     45.6946E-03    -19.0607E-03    -26.6261E-03    -26.5218E-03     45.5903E-03    -19.0607E-03     952.737E-06     34.0694E+06    -18.0321E+06    -134.918E+06    -19.9826E+06    -132.968E+06     34.0694E+06    -14.3659E+06         24.8612
            1082     7.86283E-03     7.42627E-03         1.36976    -374.931E-03    -382.933E-03    -380.447E-03         1.36918    -376.829E-03    -6.91677E-03     43.1742E-03    -18.2283E-03    -24.9442E-03    -24.8425E-03     43.0724E-03    -18.2283E-03     1.21077E-03     37.1024E+06    -17.4829E+06    -159.568E+06    -18.8828E+06    -158.168E+06     37.1024E+06    -13.2883E+06         24.1176
            1083     6.88623E-03     7.43831E-03         1.38074    -374.335E-03    -393.408E-03    -391.661E-03         1.38020    -375.543E-03    -14.2116E-03     40.5207E-03    -17.3886E-03    -23.1351E-03    -23.0422E-03     40.4278E-03    -17.3886E-03     1.33400E-03     37.7253E+06    -18.2520E+06    -179.915E+06    -19.1438E+06    -179.023E+06     37.7253E+06    -11.3745E+06         23.6136
            1084     5.90781E-03     7.44895E-03         1.37619    -372.920E-03    -391.577E-03    -390.477E-03         1.37519    -373.014E-03    -25.5721E-03     37.7476E-03    -16.5214E-03    -21.2283E-03    -21.1502E-03     37.6695E-03    -16.5214E-03     1.37477E-03     30.8124E+06    -20.2726E+06    -194.002E+06    -20.9874E+06    -193.287E+06     30.8124E+06    -10.6736E+06         23.2551
            1085     4.92726E-03     7.45844E-03         1.36178    -359.953E-03    -385.337E-03    -372.583E-03         1.36056    -371.492E-03    -10.5613E-03     34.9240E-03    -15.6561E-03    -19.2727E-03    -19.2137E-03     34.8650E-03    -15.6561E-03     1.26251E-03     17.3738E+06    -23.6638E+06    -204.896E+06    -24.2536E+06    -204.306E+06     17.3738E+06    -10.0499E+06         22.9569
            1086     3.94482E-03     7.46567E-03         1.36181    -359.339E-03    -381.376E-03    -368.093E-03         1.36109    -371.909E-03     12.2681E-03     32.2536E-03    -14.8581E-03    -17.3989E-03    -17.3572E-03     32.2119E-03    -14.8581E-03     1.11405E-03     1.70922E+06    -27.8405E+06    -214.648E+06    -28.2035E+06    -214.285E+06     1.70922E+06    -7.86692E+06         22.6954
            1087     2.96056E-03     7.47186E-03         1.35153    -359.490E-03    -377.622E-03    -360.640E-03         1.34989    -374.829E-03     14.7192E-03     29.9352E-03    -14.1663E-03    -15.7683E-03    -15.7419E-03     29.9088E-03    -14.1663E-03     928.102E-06    -14.0690E+06    -32.0175E+06    -224.022E+06    -32.1756E+06    -223.864E+06    -14.0690E+06    -5.25543E+06         22.4791
            1088     1.97475E-03     7.47582E-03         1.34646    -351.284E-03    -389.520E-03    -346.359E-03         1.33959    -387.574E-03    -74.7770E-03     28.0382E-03    -13.6086E-03    -14.4296E-03    -14.4174E-03     28.0260E-03    -13.6086E-03     679.246E-06    -26.9195E+06    -36.1541E+06    -230.981E+06    -36.2204E+06    -230.915E+06    -26.9195E+06    -3.48777E+06         22.3189
            1089     987.682E-06     7.47824E-03         1.41788    -383.429E-03    -428.169E-03    -367.936E-03         1.40219    -427.969E-03     74.0699E-03     26.6691E-03    -13.1755E-03    -13.4936E-03    -13.4635E-03     26.6658E-03    -13.2022E-03     350.190E-06    -35.4951E+06    -39.3722E+06    -232.850E+06    -39.3940E+06    -232.828E+06    -35.4951E+06    -1.18979E+06         22.2169
            1090     16.5633E-03     6.41993E-03         1.38840    -388.666E-03    -405.264E-03    -405.075E-03         1.38821    -388.666E-03     19.6283E-03     71.6844E-03    -26.8308E-03    -44.9703E-03    -41.4710E-03     68.1851E-03    -26.8308E-03     37.2937E-03     191.412E+06     143.476E+06    -9.38236E+06    -9.38129E+06     191.411E+06     143.476E+06     101.701E+03         41.0511
            1091     15.6033E-03     6.37104E-03         1.40635    -387.220E-03    -413.937E-03    -413.749E-03         1.40616    -387.220E-03     34.9907E-03     69.2055E-03    -25.6555E-03    -43.6077E-03    -39.9005E-03     65.4982E-03    -25.6555E-03     38.5956E-03     176.254E+06     93.7566E+06    -18.0941E+06    -18.0908E+06     176.251E+06     93.7566E+06     294.000E+03         38.2538
            1092     14.6422E-03     6.34935E-03         1.41779    -385.115E-03    -420.381E-03    -420.302E-03         1.41772    -385.115E-03     20.4985E-03     63.8535E-03    -24.4678E-03    -39.4557E-03    -37.6048E-03     62.0026E-03    -24.4678E-03     27.1483E-03     155.390E+06     33.2892E+06    -24.6489E+06    -24.6449E+06     155.386E+06     33.2892E+06     207.341E+03         35.2124
            1093     13.6784E-03     6.32785E-03         1.41249    -382.827E-03    -412.796E-03    -412.503E-03         1.41219    -382.827E-03    -25.3655E-03     59.0854E-03    -23.5506E-03    -35.5829E-03    -34.1663E-03     57.6689E-03    -23.5506E-03     22.0154E-03     98.1087E+06     2.29450E+06    -27.9357E+06    -27.7828E+06     97.9559E+06     2.29450E+06    -2.46974E+06         32.6007
            1094     12.7110E-03     6.32383E-03         1.40290    -381.038E-03    -400.186E-03    -399.756E-03         1.40247    -381.038E-03    -20.9450E-03     54.0567E-03    -22.9892E-03    -31.1006E-03    -30.4739E-03     53.4300E-03    -22.9892E-03     13.1789E-03     33.2824E+06    -2.64128E+06    -30.5531E+06    -28.0598E+06     19.3756E+06     8.77222E+06    -7.25923E+06         30.5493
            1095     11.7398E-03     6.33141E-03         1.39582    -379.393E-03    -394.431E-03    -393.769E-03         1.39554    -379.775E-03    -8.37051E-03     51.1951E-03    -22.5602E-03    -28.6562E-03    -28.0654E-03     50.6042E-03    -22.5602E-03     11.5217E-03     19.4236E+06    -12.7670E+06    -48.9399E+06    -26.4928E+06    -35.2141E+06     19.4236E+06    -12.8054E+06         28.8415
            1096     10.7670E-03     6.34134E-03         1.39809    -377.916E-03    -400.082E-03    -399.473E-03         1.39786    -378.298E-03    -15.4933E-03     49.8624E-03    -22.1413E-03    -27.7170E-03    -27.0094E-03     49.1549E-03    -22.1413E-03     12.7128E-03     27.1857E+06    -17.6464E+06    -81.3986E+06    -23.6059E+06    -75.4391E+06     27.1857E+06    -17.7133E+06         27.3682
            1097     9.79329E-03     6.35395E-03         1.40011    -375.945E-03    -405.836E-03    -405.292E-03         1.39957    -375.945E-03    -22.7860E-03     48.7785E-03    -21.6929E-03    -27.0818E-03    -26.3491E-03     48.0458E-03    -21.6929E-03     13.0825E-03     34.2032E+06    -16.6826E+06    -111.387E+06    -21.6265E+06    -106.443E+06     34.2032E+06    -20.7068E+06         26.1348
            1098     8.81915E-03     6.36784E-03         1.39386    -373.118E-03    -399.779E-03    -398.867E-03         1.39294    -373.118E-03     14.1551E-03     47.6634E-03    -21.1833E-03    -26.4872E-03    -25.7680E-03     46.9441E-03    -21.1833E-03     13.0320E-03     37.7999E+06    -16.7410E+06    -139.350E+06    -21.0323E+06    -135.058E+06     37.7999E+06    -22.1636E+06         25.1488
            1099     7.84430E-03     6.38244E-03         1.38456    -370.585E-03    -390.219E-03    -389.366E-03         1.38371    -370.585E-03     3.96551E-03     46.3442E-03    -20.6167E-03    -25.7319E-03    -25.0686E-03     45.6809E-03    -20.6167E-03     12.5181E-03     40.5720E+06    -16.9691E+06    -166.503E+06    -20.3962E+06    -163.076E+06     40.5720E+06    -21.8158E+06         24.4245
            1100     6.86862E-03     6.39658E-03         1.35772    -360.404E-03    -377.860E-03    -367.920E-03         1.35697    -369.599E-03    -12.0556E-03     44.6860E-03    -19.9740E-03    -24.7136E-03    -24.1340E-03     44.1065E-03    -19.9740E-03     11.6091E-03     38.8732E+06    -17.6127E+06    -186.474E+06    -20.0169E+06    -184.070E+06     38.8732E+06    -19.4359E+06         23.9490
            1101     5.89173E-03     6.41021E-03         1.35456    -360.722E-03    -377.989E-03    -367.546E-03         1.35336    -369.966E-03    -23.6923E-03     42.6600E-03    -19.2359E-03    -23.4246E-03    -22.9540E-03     42.1894E-03    -19.2359E-03     10.3065E-03     26.9205E+06    -20.0144E+06    -198.946E+06    -21.5838E+06    -197.377E+06     26.9205E+06    -16.3935E+06         23.6348
            1102     4.91352E-03     6.42201E-03         1.38148    -367.114E-03    -398.893E-03    -397.743E-03         1.38038    -367.162E-03    -18.7959E-03     40.3469E-03    -18.4587E-03    -21.8906E-03    -21.5372E-03     39.9936E-03    -18.4587E-03     8.71272E-03     10.0752E+06    -24.6008E+06    -210.334E+06    -25.5942E+06    -209.341E+06     10.0752E+06    -13.3853E+06         23.3794
            1103     3.93358E-03     6.43267E-03         1.36956    -361.151E-03    -386.333E-03    -385.498E-03         1.36873    -361.151E-03    -14.7900E-03     37.9813E-03    -17.7224E-03    -20.2607E-03    -20.0172E-03     37.7378E-03    -17.7224E-03     7.03835E-03    -6.09715E+06    -30.0748E+06    -220.826E+06    -30.6380E+06    -220.263E+06    -6.09715E+06    -10.1947E+06         23.1469
            1104     2.95202E-03     6.44090E-03         1.33148    -343.451E-03    -362.569E-03    -343.736E-03         1.33029    -361.095E-03    -24.3713E-03     35.7620E-03    -17.0792E-03    -18.6833E-03    -18.5354E-03     35.6140E-03    -17.0792E-03     5.31592E-03    -19.4032E+06    -34.7453E+06    -229.102E+06    -35.0090E+06    -228.838E+06    -19.4032E+06    -6.90037E+06         22.9459
            1105     1.96904E-03     6.44678E-03         1.34774    -351.514E-03    -370.386E-03    -345.677E-03         1.34170    -370.186E-03    -72.0282E-03     33.8949E-03    -16.5669E-03    -17.3288E-03    -17.2576E-03     33.8237E-03    -16.5669E-03     3.52460E-03    -29.9779E+06    -38.7215E+06    -235.082E+06    -38.8147E+06    -234.988E+06    -29.9779E+06    -4.03013E+06         22.7923
            1106     984.873E-06     6.45070E-03         1.40330    -373.601E-03    -399.051E-03    -353.913E-03         1.38341    -398.851E-03     134.155E-03     32.6470E-03    -16.1927E-03    -16.4560E-03    -16.4062E-03     32.6239E-03    -16.2194E-03     1.85843E-03    -38.4218E+06    -42.0594E+06    -236.413E+06    -42.0894E+06    -236.383E+06    -38.4218E+06    -2.07659E+06         22.6948
            1107     16.5553E-03     5.34921E-03         1.43163    -384.934E-03    -435.219E-03    -434.613E-03         1.43103    -384.934E-03     48.5376E-03     72.1321E-03    -27.3420E-03    -44.9537E-03    -40.7042E-03     67.8826E-03    -27.3420E-03     40.6946E-03     191.755E+06     143.874E+06    -10.2080E+06    -10.1967E+06     191.743E+06     143.874E+06     1.27878E+06         40.8981
            1108     15.5942E-03     5.30132E-03         1.41602    -382.071E-03    -424.065E-03    -423.950E-03         1.41590    -382.071E-03     22.8569E-03     69.0833E-03    -26.3221E-03    -42.8437E-03    -38.0309E-03     64.2705E-03    -26.3221E-03     44.0796E-03     176.086E+06     98.4571E+06    -18.8949E+06    -18.8878E+06     176.078E+06     98.4571E+06     856.745E+03         38.1049
            1109     14.6312E-03     5.28502E-03         1.40328    -379.730E-03    -408.124E-03    -408.033E-03         1.40319    -379.730E-03     12.2710E-03     62.3292E-03    -25.3485E-03    -37.0216E-03    -34.0966E-03     59.4042E-03    -25.3485E-03     33.1006E-03     155.123E+06     37.0550E+06    -24.9518E+06    -24.9307E+06     155.102E+06     37.0550E+06     1.27002E+06         35.1641
            1110     13.6633E-03     5.26904E-03         1.40431    -377.676E-03    -407.780E-03    -407.597E-03         1.40413    -377.676E-03    -21.1542E-03     56.2743E-03    -24.7396E-03    -31.5689E-03    -28.8245E-03     53.5298E-03    -24.7396E-03     29.8088E-03     103.249E+06    -2.01934E+06    -29.8633E+06    -29.6792E+06     103.065E+06    -2.01934E+06    -1.69009E+06         32.6845
            1111     12.6894E-03     5.27181E-03         1.39931    -375.530E-03    -403.771E-03    -403.540E-03         1.39908    -375.530E-03    -14.4699E-03     51.7391E-03    -24.3841E-03    -27.3791E-03    -24.9381E-03     49.5655E-03    -24.6515E-03     24.6491E-03     36.2423E+06    -4.27858E+06    -36.5605E+06    -31.7032E+06     26.7438E+06     362.583E+03    -11.4199E+06         30.7337
            1112     11.7130E-03     5.28121E-03         1.39333    -373.410E-03    -399.571E-03    -399.350E-03         1.39311    -373.410E-03    -15.5374E-03     51.0053E-03    -24.4715E-03    -26.5458E-03    -23.8806E-03     48.6227E-03    -24.7540E-03     25.5697E-03     13.9771E+06    -7.61817E+06    -54.9609E+06    -29.2961E+06    -31.7440E+06     12.4382E+06    -20.4943E+06         29.1051
            1113     10.7368E-03     5.29186E-03         1.38461    -371.593E-03    -389.425E-03    -389.222E-03         1.38441    -371.593E-03    -21.6719E-03     51.5926E-03    -24.8207E-03    -26.7909E-03    -24.3009E-03     49.1178E-03    -24.8359E-03     26.6205E-03     20.5942E+06    -14.8661E+06    -86.0119E+06    -26.3619E+06    -74.5162E+06     20.5942E+06    -25.2907E+06         27.6949
            1114     9.76129E-03     5.30514E-03         1.38277    -370.024E-03    -387.804E-03    -387.050E-03         1.38202    -370.024E-03    -49.5523E-03     52.1140E-03    -24.8386E-03    -27.2883E-03    -24.9741E-03     49.7998E-03    -24.8386E-03     26.1467E-03     27.3273E+06    -15.5531E+06    -116.758E+06    -24.3434E+06    -107.968E+06     27.3273E+06    -28.0148E+06         26.5105
            1115     8.78652E-03     5.31906E-03         1.37950    -365.773E-03    -391.596E-03    -388.175E-03         1.37846    -368.153E-03    -15.2361E-03     52.3960E-03    -24.7410E-03    -27.6637E-03    -25.5663E-03     50.2986E-03    -24.7410E-03     25.1692E-03     31.3261E+06    -15.3763E+06    -145.119E+06    -22.7269E+06    -137.768E+06     31.3261E+06    -29.6790E+06         25.5599
            1116     7.81239E-03     5.33447E-03         1.36145    -358.851E-03    -380.333E-03    -371.688E-03         1.36076    -366.802E-03    -366.873E-06     52.3442E-03    -24.5452E-03    -27.7993E-03    -25.9501E-03     50.4951E-03    -24.5452E-03     23.7495E-03     33.5304E+06    -16.1530E+06    -175.021E+06    -22.1758E+06    -168.998E+06     33.5304E+06    -29.9822E+06         24.8581
            1117     6.83841E-03     5.34990E-03         1.35196    -351.939E-03    -380.205E-03    -364.748E-03         1.35123    -366.661E-03    -2.63430E-03     51.8364E-03    -24.2090E-03    -27.6271E-03    -26.0633E-03     50.2725E-03    -24.2090E-03     21.8229E-03     28.5500E+06    -18.7744E+06    -196.866E+06    -22.9821E+06    -192.658E+06     28.5500E+06    -26.7073E+06         24.4167
            1118     5.86435E-03     5.36473E-03         1.36397    -356.334E-03    -391.763E-03    -381.763E-03         1.36312    -365.485E-03    -6.17049E-03     50.7746E-03    -23.7286E-03    -27.0448E-03    -25.8008E-03     49.5306E-03    -23.7286E-03     19.3129E-03     14.1672E+06    -22.6877E+06    -208.346E+06    -25.1449E+06    -205.888E+06     14.1672E+06    -20.8652E+06         24.1706
            1119     4.88957E-03     5.37883E-03         1.37103    -360.159E-03    -392.792E-03    -391.014E-03         1.37033    -361.236E-03    -10.2903E-03     49.3001E-03    -23.1866E-03    -26.1092E-03    -25.1859E-03     48.3767E-03    -23.1866E-03     16.4105E-03    -613.822E+03    -27.3401E+06    -218.528E+06    -28.5849E+06    -217.284E+06    -613.822E+03    -15.0675E+06         23.9924
            1120     3.91394E-03     5.39133E-03         1.34868    -355.442E-03    -372.701E-03    -370.823E-03         1.34788    -356.519E-03    -15.8380E-03     47.5402E-03    -22.6328E-03    -24.9027E-03    -24.2756E-03     46.9131E-03    -22.6328E-03     13.2672E-03    -13.7413E+06    -32.7515E+06    -227.384E+06    -33.3347E+06    -226.801E+06    -13.7413E+06    -10.4541E+06         23.8210
            1121     2.93704E-03     5.40171E-03         1.33305    -350.564E-03    -356.647E-03    -349.461E-03         1.33106    -355.754E-03     25.4105E-03     45.6828E-03    -22.1208E-03    -23.5605E-03    -23.1853E-03     45.3076E-03    -22.1208E-03     10.0050E-03    -25.9177E+06    -38.0784E+06    -235.039E+06    -38.3576E+06    -234.760E+06    -25.9177E+06    -7.26547E+06         23.6637
            1122     1.95877E-03     5.40957E-03         1.34848    -350.681E-03    -365.597E-03    -356.388E-03         1.34549    -356.900E-03     22.8142E-03     44.0932E-03    -21.7078E-03    -22.3873E-03    -22.2069E-03     43.9127E-03    -21.7078E-03     6.70935E-03    -36.2607E+06    -42.0963E+06    -240.229E+06    -42.2073E+06    -240.118E+06    -36.2607E+06    -4.40468E+06         23.5384
            1123     979.562E-06     5.41472E-03         1.34999    -336.620E-03    -388.743E-03    -367.255E-03         1.33878    -346.895E-03     132.322E-03     43.0634E-03    -21.3795E-03    -21.6864E-03    -21.6266E-03     43.0036E-03    -21.3795E-03     3.66524E-03    -42.5463E+06    -44.2800E+06    -240.397E+06    -44.3112E+06    -240.365E+06    -42.5463E+06    -2.27482E+06         23.4571
            1124     16.5405E-03     4.27794E-03         1.45047    -381.797E-03    -457.824E-03    -457.270E-03         1.44992    -381.797E-03     41.8632E-03     71.3879E-03    -28.2922E-03    -43.2157E-03    -37.8854E-03     66.0576E-03    -28.2922E-03     44.7427E-03     192.199E+06     144.249E+06    -10.2917E+06    -10.2544E+06     192.161E+06     144.249E+06     2.63711E+06         40.8521
            1125     15.5763E-03     4.23473E-03         1.42968    -377.602E-03    -439.432E-03    -439.396E-03         1.42965    -377.602E-03     13.4812E-03     67.5816E-03    -27.5245E-03    -40.0928E-03    -33.7657E-03     61.2544E-03    -27.5245E-03     49.6414E-03     176.534E+06     95.8438E+06    -19.8589E+06    -19.8303E+06     176.505E+06     95.8438E+06     1.93242E+06         38.0662
            1126     14.6080E-03     4.22312E-03         1.38963    -374.811E-03    -399.245E-03    -399.109E-03         1.38949    -374.811E-03     16.2698E-03     59.3384E-03    -26.6906E-03    -32.6600E-03    -27.9078E-03     54.8651E-03    -26.9695E-03     38.8722E-03     152.997E+06     33.9945E+06    -27.8582E+06    -27.7750E+06     152.913E+06     33.9945E+06     3.16466E+06         35.2323
            1127     13.6327E-03     4.21688E-03         1.38093    -373.416E-03    -389.158E-03    -389.022E-03         1.38080    -373.416E-03    -1.64271E-03     54.0336E-03    -25.3721E-03    -28.6788E-03    -22.3770E-03     49.2359E-03    -26.8761E-03     37.8660E-03     110.946E+06    -10.2855E+06    -33.6194E+06    -32.3792E+06     110.728E+06    -11.3077E+06    -569.024E+03         32.8867
            1128     12.6522E-03     4.22376E-03         1.39423    -371.744E-03    -400.780E-03    -400.617E-03         1.39406    -371.744E-03     13.2701E-03     51.9607E-03    -24.6644E-03    -27.3422E-03    -20.2367E-03     47.5045E-03    -27.3135E-03     35.5355E-03     45.0943E+06    -18.6685E+06    -40.8621E+06    -33.1738E+06     38.4282E+06    -19.6907E+06    -14.5734E+06         31.0386
            1129     11.6720E-03     4.23188E-03         1.38809    -369.574E-03    -395.319E-03    -395.052E-03         1.38782    -369.574E-03     28.9150E-03     53.5797E-03    -25.6719E-03    -27.9408E-03    -21.1183E-03     49.0260E-03    -27.9408E-03     36.7141E-03     4.73888E+06    -15.3327E+06    -60.4357E+06    -32.2544E+06    -29.4356E+06    -9.33946E+06    -26.3882E+06         29.4948
            1130     10.6940E-03     4.24109E-03         1.38159    -367.469E-03    -390.875E-03    -390.478E-03         1.38119    -367.469E-03     34.4593E-03     55.6645E-03    -27.0044E-03    -28.6741E-03    -22.9763E-03     51.4601E-03    -28.4978E-03     36.2648E-03     1.63191E+06    -15.5704E+06    -91.9034E+06    -30.0593E+06    -74.7053E+06    -1.07729E+06    -31.6311E+06         28.1569
            1131     9.71800E-03     4.25224E-03         1.38053    -365.227E-03    -389.972E-03    -389.365E-03         1.37992    -365.227E-03    -5.57212E-03     57.2054E-03    -27.7284E-03    -29.4818E-03    -24.6433E-03     53.5820E-03    -28.9434E-03     34.3915E-03     4.75331E+06    -14.2598E+06    -123.407E+06    -27.2802E+06    -110.387E+06     4.75331E+06    -35.0043E+06         27.0308
            1132     8.74378E-03     4.26580E-03         1.35509    -356.677E-03    -375.206E-03    -367.566E-03         1.35461    -363.839E-03    -12.0957E-03     58.4723E-03    -28.3360E-03    -30.1411E-03    -26.0306E-03     55.3189E-03    -29.2931E-03     32.6156E-03     8.51107E+06    -14.7459E+06    -152.484E+06    -25.2660E+06    -141.964E+06     8.51107E+06    -36.2542E+06         26.1210
            1133     7.77064E-03     4.28036E-03         1.34153    -351.432E-03    -369.337E-03    -356.198E-03         1.34112    -364.165E-03    -7.69549E-03     59.6432E-03    -28.9751E-03    -30.6648E-03    -27.3407E-03     56.9026E-03    -29.5585E-03     30.8441E-03     11.0597E+06    -17.3550E+06    -184.700E+06    -25.2923E+06    -176.763E+06     11.0597E+06    -35.2202E+06         25.4385
            1134     6.79896E-03     4.29536E-03         1.36284    -358.352E-03    -380.952E-03    -374.943E-03         1.36240    -363.924E-03    -5.93842E-03     60.4252E-03    -29.4585E-03    -30.9731E-03    -28.4688E-03     58.1329E-03    -29.6705E-03     28.5037E-03     7.54732E+06    -21.9582E+06    -209.647E+06    -27.2634E+06    -204.342E+06     7.54732E+06    -30.7956E+06         25.0072
            1135     5.82794E-03     4.31043E-03         1.35966    -356.873E-03    -382.082E-03    -376.390E-03         1.35907    -361.981E-03     4.82894E-03     60.6662E-03    -29.6017E-03    -31.0745E-03    -29.2378E-03     58.8486E-03    -29.6208E-03     25.5086E-03    -3.07981E+06    -27.1690E+06    -221.057E+06    -30.1113E+06    -218.115E+06    -3.07981E+06    -23.2663E+06         24.8049
            1136     4.85746E-03     4.32513E-03         1.33529    -352.788E-03    -369.111E-03    -359.918E-03         1.33417    -360.866E-03     23.7704E-03     60.4477E-03    -29.4747E-03    -30.9683E-03    -29.6136E-03     59.0930E-03    -29.4747E-03     22.0156E-03    -14.0799E+06    -32.1352E+06    -228.842E+06    -33.4579E+06    -227.519E+06    -14.0799E+06    -15.6822E+06         24.7183
            1137     3.88695E-03     4.33879E-03         1.33625    -358.241E-03    -361.860E-03    -357.357E-03         1.33490    -361.393E-03    -4.87601E-03     59.8131E-03    -29.2650E-03    -30.5445E-03    -29.6194E-03     58.8879E-03    -29.2650E-03     18.0846E-03    -23.3240E+06    -36.5184E+06    -234.718E+06    -37.0449E+06    -234.191E+06    -23.3240E+06    -9.89497E+06         24.6496
            1138     2.91597E-03     4.35061E-03         1.35645    -356.909E-03    -381.122E-03    -376.509E-03         1.35382    -358.897E-03     36.4014E-03     58.9615E-03    -29.0285E-03    -29.9302E-03    -29.3768E-03     58.4081E-03    -29.0285E-03     13.8250E-03    -32.6338E+06    -40.7628E+06    -240.602E+06    -40.9597E+06    -240.405E+06    -32.6338E+06    -6.00644E+06         24.5775
            1139     1.94444E-03     4.35983E-03         1.35443    -342.314E-03    -399.080E-03    -391.648E-03         1.34880    -344.119E-03    -28.7671E-03     58.0984E-03    -28.8007E-03    -29.2964E-03    -29.0305E-03     57.8325E-03    -28.8007E-03     9.37134E-03    -41.1884E+06    -44.9063E+06    -244.803E+06    -44.9884E+06    -244.721E+06    -41.1884E+06    -3.91323E+06         24.5126
            1140     972.462E-06     4.36570E-03         1.29045    -290.337E-03    -384.468E-03    -346.709E-03         1.28047    -318.116E-03     27.2955E-03     57.4001E-03    -28.5510E-03    -28.8490E-03    -28.6948E-03     57.3127E-03    -28.6179E-03     5.12391E-03    -45.9169E+06    -47.8016E+06    -244.904E+06    -47.1306E+06    -244.875E+06    -46.6164E+06    -1.95121E+06         24.4685
            1141     16.5169E-03     3.20973E-03         1.41380    -378.705E-03    -425.046E-03    -424.498E-03         1.41325    -378.705E-03     52.7712E-03     69.9139E-03    -29.7558E-03    -40.2177E-03    -33.0565E-03     62.7527E-03    -29.7558E-03     51.7396E-03     192.174E+06     142.610E+06    -9.96209E+06    -9.89187E+06     192.104E+06     142.610E+06     3.40571E+06         40.9917
            1142     15.5476E-03     3.17061E-03         1.42518    -375.604E-03    -431.415E-03    -431.040E-03         1.42481    -375.604E-03     38.7673E-03     65.9119E-03    -28.5381E-03    -37.3547E-03    -28.8990E-03     58.2812E-03    -29.3632E-03     52.9732E-03     174.941E+06     94.6305E+06    -20.2232E+06    -20.0498E+06     174.768E+06     94.6305E+06     4.48778E+06         38.2329
            1143     14.5720E-03     3.16928E-03         1.41452    -372.306E-03    -418.769E-03    -418.645E-03         1.41440    -372.306E-03     24.4717E-03     56.4042E-03    -26.0730E-03    -30.3306E-03    -22.0371E-03     51.3111E-03    -29.2733E-03     39.6979E-03     152.624E+06     34.5045E+06    -28.0615E+06    -27.8464E+06     152.409E+06     34.5045E+06     5.35009E+06         35.5031
            1144     13.5891E-03     3.16869E-03         1.38929    -369.795E-03    -396.446E-03    -396.328E-03         1.38918    -369.795E-03     6.98208E-03     52.9833E-03    -23.3671E-03    -29.6328E-03    -17.7638E-03     47.3800E-03    -29.6328E-03     39.8098E-03     120.164E+06    -13.4427E+06    -41.3286E+06    -29.7694E+06     119.944E+06    -24.7822E+06    -1.38815E+06         33.2655
            1145     12.6067E-03     3.17470E-03         1.37424    -366.828E-03    -383.140E-03    -381.428E-03         1.37404    -368.339E-03    -9.80453E-03     53.9180E-03    -23.4784E-03    -30.4734E-03    -18.0705E-03     48.5101E-03    -30.4734E-03     39.4484E-03     56.6318E+06    -31.3231E+06    -54.3324E+06    -29.8961E+06     50.9150E+06    -50.0426E+06    -14.3694E+06         31.5027
            1146     11.6259E-03     3.18035E-03         1.37135    -365.651E-03    -385.290E-03    -383.353E-03         1.37093    -367.162E-03    -4.20997E-03     57.3546E-03    -25.9120E-03    -31.4752E-03    -20.8193E-03     52.2619E-03    -31.4752E-03     39.7668E-03     3.49940E+06    -37.8350E+06    -67.2333E+06    -30.9000E+06    -25.4538E+06    -45.2150E+06    -27.7930E+06         30.0485
            1147     10.6479E-03     3.18608E-03         1.37214    -365.415E-03    -389.409E-03    -388.921E-03         1.37165    -365.415E-03     19.7116E-03     59.8328E-03    -27.4689E-03    -32.3763E-03    -23.2845E-03     55.6484E-03    -32.3763E-03     37.0659E-03    -9.19935E+06    -39.9686E+06    -95.3581E+06    -29.6187E+06    -75.1188E+06    -39.7886E+06    -35.4837E+06         28.7960
            1148     9.67258E-03     3.19497E-03         1.36459    -362.722E-03    -379.509E-03    -378.049E-03         1.36403    -363.622E-03    -9.88718E-03     61.6655E-03    -28.4676E-03    -33.2155E-03    -25.0459E-03     58.2439E-03    -33.2155E-03     34.2682E-03    -11.6673E+06    -36.5075E+06    -128.589E+06    -27.7472E+06    -113.666E+06    -35.3507E+06    -38.3855E+06         27.7349
            1149     8.69852E-03     3.20637E-03         1.35828    -356.729E-03    -377.239E-03    -371.142E-03         1.35787    -362.412E-03    -13.7851E-03     63.8050E-03    -29.7975E-03    -34.0189E-03    -26.8169E-03     60.8244E-03    -34.0189E-03     32.7166E-03    -12.7856E+06    -35.1645E+06    -160.296E+06    -27.6961E+06    -149.098E+06    -31.4520E+06    -38.0925E+06         26.8671
            1150     7.72661E-03     3.21864E-03         1.35952    -356.246E-03    -380.532E-03    -375.548E-03         1.35932    -361.028E-03    -439.871E-06     66.2017E-03    -31.3977E-03    -34.7996E-03    -28.7981E-03     63.6022E-03    -34.7996E-03     31.2662E-03    -14.5261E+06    -34.1184E+06    -194.064E+06    -29.5432E+06    -186.253E+06    -26.9125E+06    -35.4159E+06         26.2032
            1151     6.75646E-03     3.23162E-03         1.34464    -349.480E-03    -370.966E-03    -360.038E-03         1.34439    -360.162E-03    -1.89510E-03     68.4388E-03    -32.9605E-03    -35.4834E-03    -30.7824E-03     66.2607E-03    -35.4834E-03     29.2236E-03    -18.1997E+06    -32.9272E+06    -222.249E+06    -32.5144E+06    -217.173E+06    -23.6891E+06    -30.6442E+06         25.7570
            1152     5.78835E-03     3.24534E-03         1.33580    -345.280E-03    -366.939E-03    -350.572E-03         1.33522    -361.071E-03    -2.02500E-03     70.3229E-03    -34.2154E-03    -36.1209E-03    -32.5765E-03     68.5843E-03    -36.0213E-03     26.5636E-03    -23.7516E+06    -34.0925E+06    -235.175E+06    -35.6901E+06    -232.444E+06    -24.8853E+06    -22.7888E+06         25.5325
            1153     4.82168E-03     3.25896E-03         1.34439    -355.146E-03    -368.603E-03    -360.169E-03         1.34296    -362.148E-03    -10.2117E-03     71.7950E-03    -35.1376E-03    -36.6641E-03    -34.0656E-03     70.4878E-03    -36.4289E-03     23.3209E-03    -29.9710E+06    -37.9143E+06    -239.613E+06    -39.0463E+06    -238.481E+06    -29.9710E+06    -14.6099E+06         25.4862
            1154     3.85615E-03     3.27234E-03         1.35293    -359.214E-03    -373.851E-03    -369.993E-03         1.35115    -361.289E-03    -43.4727E-03     72.8871E-03    -35.8920E-03    -37.0012E-03    -35.2642E-03     71.9873E-03    -36.7292E-03     19.4931E-03    -35.9000E+06    -41.9951E+06    -242.762E+06    -42.4059E+06    -242.351E+06    -35.9000E+06    -8.66716E+06         25.5257
            1155     2.89159E-03     3.28378E-03         1.36739    -353.733E-03    -394.652E-03    -392.101E-03         1.36503    -353.915E-03     21.6755E-03     73.6542E-03    -36.4659E-03    -37.1841E-03    -36.1787E-03     73.1115E-03    -36.9286E-03     15.1689E-03    -40.9340E+06    -45.4590E+06    -245.916E+06    -45.5776E+06    -245.797E+06    -40.9340E+06    -4.56450E+06         25.5733
            1156     1.92773E-03     3.29317E-03         1.34370    -332.271E-03    -391.576E-03    -381.022E-03         1.33734    -336.465E-03    -52.0006E-03     74.0300E-03    -36.8057E-03    -37.2212E-03    -36.7230E-03     73.7646E-03    -37.0386E-03     10.5141E-03    -44.8903E+06    -47.9723E+06    -248.060E+06    -48.0064E+06    -248.026E+06    -44.8903E+06    -2.22212E+06         25.6034
            1157     963.900E-06     3.29934E-03         1.28898    -298.466E-03    -363.725E-03    -311.274E-03         1.27728    -339.221E-03     19.6841E-03     74.1598E-03    -36.9482E-03    -37.2136E-03    -36.9777E-03     74.0697E-03    -37.0940E-03     5.88543E-03    -48.8036E+06    -50.6868E+06    -248.602E+06    -49.9671E+06    -248.586E+06    -49.5386E+06    -1.24391E+06         25.6209
            1158     16.4802E-03     2.13907E-03         1.40482    -375.472E-03    -401.457E-03    -399.507E-03         1.40287    -375.472E-03     67.0779E-03     68.1360E-03    -31.6490E-03    -36.5511E-03    -28.1904E-03     59.7754E-03    -31.6490E-03     56.1941E-03     191.855E+06     141.296E+06    -9.40251E+06    -9.20122E+06     191.654E+06     141.296E+06     5.55617E+06         41.4094
            1159     15.5099E-03     2.11057E-03         1.42027    -373.559E-03    -410.996E-03    -410.348E-03         1.41962    -373.559E-03    -2.77669E-03     63.8233E-03    -28.8680E-03    -34.9311E-03    -25.0554E-03     56.7035E-03    -31.6240E-03     49.7071E-03     174.380E+06     92.7119E+06    -19.0730E+06    -18.7964E+06     174.103E+06     92.7119E+06     5.59103E+06         38.7127
            1160     14.5321E-03     2.11693E-03         1.42369    -370.641E-03    -422.632E-03    -422.561E-03         1.42362    -370.641E-03    -8.88426E-03     56.5653E-03    -24.6680E-03    -31.8311E-03    -20.3295E-03     52.2267E-03    -31.8311E-03     36.2894E-03     155.029E+06     31.6335E+06    -22.0358E+06    -21.8842E+06     154.877E+06     31.6335E+06     2.89995E+06         36.0756
            1161     13.5498E-03     2.12064E-03         1.40699    -367.188E-03    -414.458E-03    -414.434E-03         1.40696    -367.188E-03    -6.25733E-03     54.5561E-03    -22.1408E-03    -32.3896E-03    -18.0574E-03     50.4727E-03    -32.3896E-03     33.9377E-03     126.602E+06    -12.2492E+06    -45.6411E+06    -21.5484E+06     126.525E+06    -36.2656E+06    -1.83858E+06         33.8977
            1162     12.5644E-03     2.12362E-03         1.37901    -362.915E-03    -393.122E-03    -391.495E-03         1.37890    -364.426E-03    -13.5355E-03     56.1494E-03    -22.7987E-03    -33.3686E-03    -18.8892E-03     52.2399E-03    -33.3686E-03     33.6437E-03     65.2399E+06    -24.9161E+06    -75.9486E+06    -21.3411E+06     61.6649E+06    -75.9486E+06    -10.6621E+06         32.1826
            1163     11.5848E-03     2.12259E-03         1.36676    -361.002E-03    -384.789E-03    -383.011E-03         1.36650    -362.514E-03    -31.1623E-03     59.8850E-03    -25.3851E-03    -34.5249E-03    -22.0158E-03     56.5157E-03    -34.5249E-03     32.2545E-03     9.24633E+06    -45.8947E+06    -87.3033E+06    -21.8532E+06    -17.9652E+06    -84.1333E+06    -23.4269E+06         30.8183
            1164     10.6092E-03     2.12591E-03         1.34445    -353.831E-03    -372.268E-03    -364.402E-03         1.34429    -361.537E-03    -21.1998E-03     62.1001E-03    -26.4682E-03    -35.6561E-03    -23.9803E-03     59.6122E-03    -35.6561E-03     28.3996E-03    -7.85731E+06    -74.9962E+06    -102.462E+06    -24.1571E+06    -74.9400E+06    -86.2186E+06    -32.0136E+06         29.6589
            1165     9.63349E-03     2.13311E-03         1.33546    -353.138E-03    -364.396E-03    -355.500E-03         1.33517    -361.744E-03    -30.0367E-03     64.2676E-03    -27.4687E-03    -36.8309E-03    -25.4149E-03     62.2137E-03    -36.8309E-03     26.5113E-03    -14.7011E+06    -84.2299E+06    -130.362E+06    -26.5689E+06    -118.494E+06    -84.2299E+06    -34.2832E+06         28.6618
            1166     8.65977E-03     2.14110E-03         1.35858    -360.183E-03    -380.158E-03    -378.831E-03         1.35815    -361.084E-03    -7.77528E-03     67.3924E-03    -29.3373E-03    -38.0798E-03    -27.4943E-03     65.5494E-03    -38.0798E-03     25.8691E-03    -21.0399E+06    -78.2432E+06    -166.040E+06    -29.1438E+06    -157.936E+06    -78.2432E+06    -32.4625E+06         27.8394
            1167     7.68808E-03     2.15019E-03         1.35989    -358.670E-03    -379.827E-03    -379.356E-03         1.35956    -358.805E-03    -2.48825E-03     70.9381E-03    -31.5688E-03    -39.3665E-03    -29.9492E-03     69.3185E-03    -39.3665E-03     24.9854E-03    -27.3367E+06    -68.8000E+06    -201.048E+06    -32.6546E+06    -195.730E+06    -68.8000E+06    -29.1451E+06         27.1949
            1168     6.71917E-03     2.15952E-03         1.33461    -347.171E-03    -362.500E-03    -351.457E-03         1.33438    -357.989E-03    -16.3607E-03     74.5573E-03    -33.9179E-03    -40.6206E-03    -32.5538E-03     73.1931E-03    -40.6206E-03     23.6040E-03    -33.5012E+06    -58.1589E+06    -232.356E+06    -36.8981E+06    -228.959E+06    -58.1589E+06    -25.0466E+06         26.7321
            1169     5.75268E-03     2.16986E-03         1.33143    -345.106E-03    -364.080E-03    -349.211E-03         1.33079    -359.333E-03     534.002E-06     78.0967E-03    -36.2949E-03    -41.7753E-03    -35.1960E-03     76.9979E-03    -41.7753E-03     21.7574E-03    -38.6785E+06    -50.5661E+06    -248.020E+06    -41.0905E+06    -246.200E+06    -49.9742E+06    -18.6577E+06         26.4564
            1170     4.78895E-03     2.18086E-03         1.34544    -356.297E-03    -368.621E-03    -363.761E-03         1.34412    -359.842E-03    -7.27274E-03     81.4444E-03    -38.6387E-03    -42.7983E-03    -37.8066E-03     80.6123E-03    -42.7983E-03     19.3847E-03    -42.8623E+06    -48.2490E+06    -249.740E+06    -44.7315E+06    -249.037E+06    -47.0832E+06    -11.3083E+06         26.3686
            1171     3.82772E-03     2.19154E-03         1.35599    -356.450E-03    -382.189E-03    -380.846E-03         1.35465    -356.450E-03    -7.63902E-03     84.4812E-03    -40.8109E-03    -43.6727E-03    -40.2334E-03     83.9037E-03    -43.6727E-03     16.4745E-03    -46.6021E+06    -49.3245E+06    -249.752E+06    -48.0299E+06    -249.543E+06    -48.1060E+06    -5.90648E+06         26.4284
            1172     2.86871E-03     2.20086E-03         1.32956    -335.361E-03    -381.130E-03    -364.009E-03         1.32838    -351.299E-03     29.8821E-03     87.0437E-03    -42.6473E-03    -44.3937E-03    -42.2936E-03     86.6900E-03    -44.3937E-03     13.0605E-03    -49.3473E+06    -51.1090E+06    -250.438E+06    -50.7204E+06    -250.385E+06    -49.7889E+06    -2.80349E+06         26.5512
            1173     1.91124E-03     2.20892E-03         1.29961    -311.608E-03    -368.681E-03    -317.008E-03         1.29616    -359.833E-03    -47.1886E-03     89.0454E-03    -44.0918E-03    -44.9519E-03    -43.9162E-03     88.8697E-03    -44.9519E-03     9.17519E-03    -50.5813E+06    -52.3130E+06    -250.293E+06    -52.3278E+06    -250.279E+06    -50.5813E+06    -1.34935E+06         26.6733
            1174     955.057E-06     2.21408E-03         1.38861    -349.747E-03    -407.265E-03    -333.455E-03         1.37232    -407.265E-03     133.147E-03     90.3906E-03    -45.0255E-03    -45.3661E-03    -45.0703E-03     90.3298E-03    -45.2606E-03     5.22203E-03    -52.8093E+06    -54.0841E+06    -250.799E+06    -53.8744E+06    -250.790E+06    -53.0278E+06    -795.148E+03         26.7633
            1175     16.4492E-03     1.06823E-03         1.45412    -371.453E-03    -423.974E-03    -422.117E-03         1.45226    -371.453E-03     38.4379E-03     70.4064E-03    -31.7248E-03    -38.7552E-03    -30.7725E-03     64.3224E-03    -33.6235E-03     47.8588E-03     193.623E+06     143.328E+06    -7.49640E+06    -7.28769E+06     193.415E+06     143.328E+06     5.93257E+06         42.2030
            1176     15.4713E-03     1.05739E-03         1.41330    -368.969E-03    -399.229E-03    -398.829E-03         1.41290    -368.969E-03    -47.9851E-03     60.2634E-03    -26.2627E-03    -33.9735E-03    -22.8160E-03     56.5451E-03    -33.7018E-03     32.8973E-03     178.886E+06     94.1550E+06    -12.1442E+06    -11.9977E+06     178.739E+06     94.1550E+06     2.82350E+06         39.5968
            1177     14.4915E-03     1.05677E-03         1.39438    -367.049E-03    -396.092E-03    -395.645E-03         1.39393    -367.049E-03    -44.5984E-03     57.5276E-03    -23.3231E-03    -34.0792E-03    -21.0311E-03     55.2356E-03    -34.0792E-03     24.9129E-03     157.498E+06     27.1187E+06    -13.8098E+06    -13.6934E+06     157.489E+06     27.0114E+06    -825.473E+03         37.0375
            1178     13.5164E-03     1.06675E-03         1.38940    -364.935E-03    -397.446E-03    -397.010E-03         1.38897    -364.935E-03    -40.0506E-03     59.0775E-03    -24.4212E-03    -34.6089E-03    -22.6440E-03     57.3002E-03    -34.6089E-03     22.3632E-03     127.675E+06    -11.1110E+06    -46.2161E+06    -13.5295E+06     127.634E+06    -43.7569E+06    -1.86543E+06         34.8894
            1179     12.5393E-03     1.06737E-03         1.38333    -362.596E-03    -393.280E-03    -393.003E-03         1.38305    -362.596E-03     13.3233E-03     60.1582E-03    -24.8334E-03    -35.3722E-03    -23.2652E-03     58.5900E-03    -35.3722E-03     21.0597E-03     69.5583E+06    -13.2877E+06    -93.3678E+06    -12.0389E+06     68.3095E+06    -93.3678E+06    -5.71686E+06         33.1846
            1180     11.5614E-03     1.06093E-03         1.36703    -360.662E-03    -378.816E-03    -378.402E-03         1.36661    -360.662E-03     34.9611E-03     60.6779E-03    -24.2447E-03    -36.4525E-03    -23.1076E-03     59.5409E-03    -36.4525E-03     17.3718E-03     12.1867E+06    -34.0989E+06    -114.985E+06    -12.7309E+06    -9.18132E+06    -114.985E+06    -12.7249E+06         31.8588
            1181     10.5839E-03     1.06307E-03         1.34801    -351.999E-03    -372.093E-03    -364.192E-03         1.34782    -359.705E-03     14.1481E-03     62.1277E-03    -24.3817E-03    -37.7632E-03    -23.6224E-03     61.3684E-03    -37.7632E-03     14.3222E-03    -10.5219E+06    -80.8190E+06    -123.365E+06    -17.5743E+06    -73.9051E+06    -123.226E+06    -19.0263E+06         30.7729
            1182     9.60784E-03     1.06757E-03         1.34387    -351.497E-03    -372.870E-03    -365.094E-03         1.34380    -359.203E-03    -10.0105E-03     65.3164E-03    -26.1323E-03    -39.2298E-03    -25.4468E-03     64.6309E-03    -39.2298E-03     14.1765E-03    -19.1473E+06    -114.364E+06    -137.520E+06     -24.213E+06    -123.392E+06    -123.426E+06    -20.6442E+06         29.8533
            1183     8.63365E-03     1.07177E-03         1.34332    -354.499E-03    -370.910E-03    -366.812E-03         1.34317    -358.443E-03    -3.15040E-03     69.3151E-03    -28.5545E-03    -40.8108E-03    -27.9165E-03     68.6772E-03    -40.8108E-03     14.1653E-03    -27.3327E+06    -116.503E+06    -168.618E+06    -30.6235E+06    -165.328E+06    -116.503E+06    -19.0961E+06         29.0821
            1184     7.66234E-03     1.07652E-03         1.33957    -353.015E-03    -364.573E-03    -359.397E-03         1.33926    -357.884E-03    -17.3280E-03     73.6309E-03    -31.1920E-03    -42.4565E-03    -30.6288E-03     73.0678E-03    -42.4565E-03     13.7556E-03    -34.0837E+06    -103.666E+06    -205.164E+06    -36.1116E+06    -203.136E+06    -103.666E+06    -16.6816E+06         28.4552
            1185     6.69363E-03     1.08165E-03         1.34548    -356.737E-03    -360.620E-03    -359.411E-03         1.34519    -357.662E-03    -10.7531E-03     78.2211E-03    -34.0827E-03    -44.1297E-03    -33.6064E-03     77.7448E-03    -44.1297E-03     13.0882E-03    -39.9751E+06    -87.8487E+06    -238.551E+06    -41.2338E+06    -237.292E+06    -87.8487E+06    -14.0356E+06         27.9861
            1186     5.72823E-03     1.08730E-03         1.34220    -353.223E-03    -360.657E-03    -355.665E-03         1.34168    -357.699E-03     14.2533E-03     83.0162E-03    -37.2210E-03    -45.7556E-03    -36.8357E-03     82.6309E-03    -45.7556E-03     12.1635E-03    -45.2372E+06    -72.9347E+06    -256.563E+06    -45.9070E+06    -255.893E+06    -72.9347E+06    -10.5280E+06         27.6790
            1187     4.76605E-03     1.09325E-03         1.33204    -348.130E-03    -361.098E-03    -349.524E-03         1.33111    -358.774E-03     9.18603E-03     87.8256E-03    -40.5165E-03    -47.2710E-03    -40.2221E-03     87.5312E-03    -47.2710E-03     10.9773E-03    -49.0151E+06    -62.1623E+06    -257.594E+06    -49.2672E+06    -257.342E+06    -62.1623E+06    -6.18023E+06         27.5321
            1188     3.80743E-03     1.09886E-03         1.33420    -341.068E-03    -373.707E-03    -353.510E-03         1.33347    -360.530E-03     37.3402E-03     92.4338E-03    -43.7886E-03    -48.6323E-03    -43.5814E-03     92.2267E-03    -48.6323E-03     9.43791E-03    -51.1827E+06    -56.0858E+06    -254.792E+06    -51.2366E+06    -254.738E+06    -56.0858E+06    -2.61231E+06         27.5279
            1189     2.85193E-03     1.10447E-03         1.32652    -334.327E-03    -375.505E-03    -344.745E-03         1.32608    -364.652E-03     20.2685E-03     96.5595E-03    -46.7706E-03    -49.7877E-03    -46.6429E-03     96.4317E-03    -49.7877E-03     7.51833E-03    -52.3142E+06    -53.4713E+06    -252.420E+06    -52.3657E+06    -252.412E+06    -53.4280E+06    -994.319E+03         27.6259
            1190     1.89938E-03     1.10887E-03         1.34227    -328.416E-03    -396.800E-03    -350.960E-03         1.34155    -373.539E-03    -49.8761E-03     99.9172E-03    -49.2302E-03    -50.6856E-03    -49.1676E-03     99.8546E-03    -50.6856E-03     5.28315E-03    -52.1452E+06    -53.7830E+06    -251.610E+06    -53.7901E+06    -251.603E+06    -52.1452E+06    -983.554E+03         27.7717
            1191     949.337E-06     1.11169E-03         1.39240    -344.904E-03    -423.701E-03    -357.887E-03         1.38212    -400.440E-03     86.2662E-03     102.131E-03    -50.7995E-03    -51.3304E-03    -50.9292E-03     102.111E-03    -51.1800E-03     2.96710E-03    -54.1181E+06    -56.0931E+06    -252.503E+06    -55.9171E+06    -252.496E+06    -54.3011E+06    -774.027E+03         27.8987
            1192     973.074E-06     59.0222E-03         2.44685    -753.119E-03        -1.27708     280.874E-03     888.896E-03    -753.119E-03         1.43139     55.0741E-03    -27.4773E-03    -27.5967E-03    -27.5638E-03     55.0630E-03    -27.4992E-03     1.74425E-03    -62.6655E+06    -65.3081E+06    -263.442E+06    -64.8374E+06    -263.440E+06    -63.1386E+06     12.9816E+03         24.0320
            1193     1.94600E-03     59.0250E-03         1.32070    -234.196E-03    -670.237E-03    -225.873E-03     876.335E-03    -234.196E-03    -524.105E-03     55.0950E-03    -27.5196E-03    -27.5753E-03    -27.4930E-03     55.0623E-03    -27.5693E-03     3.20940E-03    -54.1315E+06    -61.5188E+06    -259.956E+06    -61.5198E+06    -259.955E+06    -54.1315E+06     115.889E+03         24.0631
            1194     2.91917E-03     59.0291E-03         1.03355    -230.972E-03    -385.713E-03    -223.892E-03     871.725E-03    -230.972E-03     223.962E-03     55.1201E-03    -27.5217E-03    -27.5991E-03    -27.4579E-03     55.0563E-03    -27.5991E-03     4.54617E-03    -43.0480E+06    -57.2839E+06    -252.950E+06    -57.2842E+06    -252.949E+06    -43.0480E+06    -214.302E+03         24.1256
            1195     3.89228E-03     59.0346E-03     948.788E-03    -229.138E-03    -296.984E-03    -224.337E-03     876.140E-03    -229.138E-03    -80.4687E-03     55.1209E-03    -27.5000E-03    -27.6201E-03    -27.3973E-03     55.0182E-03    -27.6201E-03     5.79089E-03    -31.1580E+06    -52.4861E+06    -242.710E+06    -52.4866E+06    -242.710E+06    -31.1580E+06    -148.076E+03         24.2192
            1196     4.86551E-03     59.0413E-03     922.629E-03    -228.912E-03    -268.641E-03    -233.669E-03     887.657E-03    -228.912E-03     111.830E-03     55.0925E-03    -27.4648E-03    -27.6264E-03    -27.3224E-03     54.9501E-03    -27.6264E-03     6.83630E-03    -20.7345E+06    -47.4630E+06    -226.942E+06    -47.4636E+06    -226.941E+06    -20.7345E+06     136.641E+03         24.3404
            1197     5.83872E-03     59.0490E-03     892.299E-03    -224.438E-03    -244.076E-03    -229.470E-03     882.547E-03    -229.291E-03    -79.6419E-03     55.0488E-03    -27.4410E-03    -27.6073E-03    -27.2583E-03     54.8661E-03    -27.6073E-03     7.74269E-03    -12.7009E+06    -42.6700E+06    -206.088E+06    -42.6713E+06    -206.086E+06    -12.7009E+06     415.662E+03         24.4893
            1198     6.81205E-03     59.0576E-03     876.275E-03    -223.475E-03    -230.399E-03    -223.474E-03     874.694E-03    -228.818E-03     63.7708E-03     54.9973E-03    -27.4209E-03    -27.5746E-03    -27.1953E-03     54.7717E-03    -27.5746E-03     8.60357E-03    -6.14900E+06    -37.8523E+06    -183.552E+06    -37.8551E+06    -183.549E+06    -6.14900E+06     607.754E+03         24.6709
            1199     7.78535E-03     59.0672E-03     900.625E-03    -229.219E-03    -252.324E-03    -251.639E-03     900.430E-03    -229.710E-03     15.4435E-03     54.9226E-03    -27.3874E-03    -27.5330E-03    -27.1141E-03     54.6493E-03    -27.5330E-03     9.45927E-03    -2.51384E+06    -33.4159E+06    -160.149E+06    -33.4185E+06    -160.146E+06    -2.51384E+06     517.462E+03         24.9406
            1200     8.75881E-03     59.0775E-03     924.066E-03    -233.184E-03    -273.157E-03    -272.644E-03     923.553E-03    -233.184E-03    -15.6949E-03     54.8555E-03    -27.3700E-03    -27.4744E-03    -27.0339E-03     54.5193E-03    -27.4744E-03     10.4773E-03    -837.289E+03    -29.8327E+06    -135.441E+06    -29.8336E+06    -135.440E+06    -837.289E+03     280.254E+03         25.4343
            1201     9.73232E-03     59.0891E-03     914.262E-03    -236.355E-03    -258.310E-03    -257.615E-03     913.568E-03    -236.356E-03    -18.9421E-03     54.7540E-03    -27.3600E-03    -27.4101E-03    -26.9567E-03     54.3508E-03    -27.4101E-03     11.4718E-03    -981.378E+03    -26.9230E+06    -109.675E+06    -26.9232E+06    -109.674E+06    -981.378E+03     113.365E+03         26.2723
            1202     10.7059E-03     59.1016E-03     904.574E-03    -235.988E-03    -247.718E-03    -245.546E-03     904.093E-03    -237.679E-03     777.446E-06     54.6628E-03    -27.3176E-03    -27.3949E-03    -26.8789E-03     54.1596E-03    -27.3305E-03     12.7798E-03    -4.88843E+06    -24.7555E+06    -80.5482E+06    -24.7558E+06    -80.5478E+06    -4.88843E+06     37.3364E+03         27.4753
            1203     11.6795E-03     59.1159E-03     919.802E-03    -237.032E-03    -260.376E-03    -258.483E-03     919.598E-03    -238.721E-03    -9.36641E-03     54.7175E-03    -27.2350E-03    -27.5080E-03    -26.7674E-03     53.9768E-03    -27.2350E-03     15.4350E-03    -8.77935E+06    -21.0419E+06    -43.5823E+06    -23.2770E+06    -41.3472E+06    -8.77935E+06     146.368E+03         29.0197
            1204     12.6532E-03     59.1341E-03     938.651E-03    -240.634E-03    -274.925E-03    -273.958E-03     937.684E-03    -240.634E-03     43.6340E-03     54.9284E-03    -27.1062E-03    -27.8356E-03    -26.6287E-03     53.7214E-03    -27.1062E-03     19.6899E-03     18.2868E+06    -16.9567E+06    -22.5578E+06    -22.5425E+06     14.1803E+06    -12.8655E+06     276.886E+03         30.8872
            1205     13.6270E-03     59.1575E-03     946.306E-03    -242.903E-03    -279.538E-03    -277.539E-03     944.307E-03    -242.903E-03    -1.52564E-03     55.6515E-03    -26.9601E-03    -28.7141E-03    -26.3608E-03     53.2981E-03    -26.9601E-03     27.3260E-03     96.5711E+06    -11.8972E+06    -22.3474E+06    -22.3422E+06     96.5659E+06    -11.8972E+06     553.034E+03         33.1775
            1206     14.6012E-03     59.1915E-03     940.827E-03    -244.769E-03    -273.138E-03    -271.745E-03     939.433E-03    -244.769E-03    -23.1298E-03     55.6127E-03    -27.0135E-03    -28.6260E-03    -25.9629E-03     52.9496E-03    -27.0135E-03     29.3404E-03     155.319E+06     22.7092E+06    -20.7107E+06    -20.7031E+06     155.312E+06     22.7092E+06     907.216E+03         36.0972
            1207     15.5759E-03     59.2192E-03     940.137E-03    -246.152E-03    -270.641E-03    -270.227E-03     939.723E-03    -246.152E-03     15.1223E-03     57.2375E-03    -27.2489E-03    -30.0161E-03    -25.8188E-03     53.0403E-03    -27.2489E-03     36.2325E-03     175.870E+06     83.4021E+06    -15.9622E+06    -15.9559E+06     175.864E+06     83.4021E+06     842.527E+03         39.4320
            1208     16.5502E-03     59.2680E-03     958.910E-03    -247.853E-03    -288.511E-03    -288.416E-03     958.815E-03    -247.853E-03    -18.4779E-03     56.2641E-03    -26.4627E-03    -29.8508E-03    -25.5455E-03     52.9591E-03    -27.4630E-03     28.2928E-03     192.995E+06     135.347E+06    -8.60368E+06    -8.60211E+06     192.993E+06     135.347E+06     413.147E+03         42.4174
            1209     973.019E-06     60.0778E-03         2.45266    -722.792E-03        -1.31621     196.381E-03     940.075E-03    -722.792E-03         1.45097     55.0747E-03    -27.4714E-03    -27.6034E-03    -27.5866E-03     55.0633E-03    -27.4769E-03     1.75909E-03    -62.3672E+06    -64.6745E+06    -263.458E+06    -64.5922E+06    -263.457E+06    -62.4512E+06    -482.125E+03         24.0293
            1210     1.94608E-03     60.0804E-03         1.33110    -248.055E-03    -673.619E-03    -187.383E-03     844.864E-03    -248.055E-03    -483.959E-03     55.0908E-03    -27.5245E-03    -27.5678E-03    -27.4970E-03     55.0573E-03    -27.5618E-03     3.25551E-03    -55.0284E+06    -61.6460E+06    -260.112E+06    -61.6463E+06    -260.112E+06    -55.0284E+06    -160.097E+03         24.0612
            1211     2.91915E-03     60.0845E-03         1.02688    -226.222E-03    -385.170E-03    -186.496E-03     828.205E-03    -226.222E-03     257.464E-03     55.1214E-03    -27.5286E-03    -27.5939E-03    -27.4628E-03     55.0556E-03    -27.5939E-03     4.61393E-03    -43.8441E+06    -57.7644E+06    -252.893E+06    -57.7645E+06    -252.893E+06    -43.8441E+06        -838.301         24.1247
            1212     3.89227E-03     60.0900E-03     919.512E-03    -217.066E-03    -281.573E-03    -197.207E-03     835.146E-03    -217.066E-03    -95.8189E-03     55.1427E-03    -27.5170E-03    -27.6250E-03    -27.4139E-03     55.0396E-03    -27.6250E-03     5.80997E-03    -30.8967E+06    -53.0099E+06    -243.141E+06    -53.0104E+06    -243.140E+06    -30.8967E+06     220.101E+03         24.2189
            1213     4.86541E-03     60.0967E-03     886.960E-03    -214.201E-03    -249.769E-03    -211.112E-03     848.303E-03    -214.201E-03     117.949E-03     55.0986E-03    -27.4643E-03    -27.6334E-03    -27.3228E-03     54.9570E-03    -27.6334E-03     6.81355E-03    -20.4653E+06    -47.8205E+06    -227.308E+06    -47.8219E+06    -227.307E+06    -20.4653E+06     479.623E+03         24.3405
            1214     5.83876E-03     60.1044E-03     879.961E-03    -215.374E-03    -244.199E-03    -234.348E-03     870.112E-03    -215.376E-03    -88.2048E-03     55.0538E-03    -27.4414E-03    -27.6118E-03    -27.2580E-03     54.8703E-03    -27.6118E-03     7.75772E-03    -12.5528E+06    -42.6737E+06    -206.257E+06    -42.6751E+06    -206.256E+06    -12.5528E+06     463.053E+03         24.4891
            1215     6.81198E-03     60.1131E-03     880.158E-03    -218.669E-03    -245.283E-03    -243.868E-03     878.746E-03    -218.672E-03     43.9273E-03     54.9835E-03    -27.4056E-03    -27.5767E-03    -27.1812E-03     54.7591E-03    -27.5767E-03     8.57929E-03    -6.14193E+06    -37.7416E+06    -183.694E+06    -37.7424E+06    -183.693E+06    -6.14193E+06     327.171E+03         24.6698
            1216     7.78543E-03     60.1224E-03     879.805E-03    -220.094E-03    -245.649E-03    -243.557E-03     879.391E-03    -221.771E-03     10.1284E-03     54.8993E-03    -27.3658E-03    -27.5328E-03    -27.0926E-03     54.6262E-03    -27.5328E-03     9.45003E-03    -2.45157E+06    -33.3000E+06    -160.265E+06    -33.3011E+06    -160.264E+06    -2.45157E+06     328.596E+03         24.9418
            1217     8.75886E-03     60.1330E-03     886.802E-03    -222.764E-03    -251.276E-03    -249.390E-03     886.594E-03    -224.441E-03     4.34539E-03     54.8707E-03    -27.3861E-03    -27.4743E-03    -27.0484E-03     54.5330E-03    -27.4743E-03     10.5046E-03    -678.146E+03    -29.7250E+06    -135.471E+06    -29.7263E+06    -135.470E+06    -678.146E+03     331.300E+03         25.4440
            1218     9.73225E-03     60.1444E-03     886.732E-03    -226.674E-03    -246.267E-03    -245.976E-03     886.442E-03    -226.675E-03     3.91976E-03     54.7830E-03    -27.3839E-03    -27.4126E-03    -26.9834E-03     54.3825E-03    -27.4126E-03     11.4366E-03    -835.272E+03    -27.0666E+06    -109.573E+06    -27.0680E+06    -109.572E+06    -835.272E+03     257.739E+03         26.2928
            1219     10.7058E-03     60.1570E-03     882.751E-03    -226.344E-03    -241.633E-03    -239.673E-03     882.481E-03    -228.034E-03     25.6273E-03     54.6807E-03    -27.3233E-03    -27.4057E-03    -26.8929E-03     54.1801E-03    -27.3355E-03     12.7476E-03    -4.80471E+06    -25.1530E+06    -80.6926E+06    -25.1543E+06    -80.6912E+06    -4.80471E+06     226.761E+03         27.5063
            1220     11.6794E-03     60.1713E-03     895.632E-03    -227.638E-03    -252.775E-03    -250.778E-03     895.324E-03    -229.328E-03    -9.92047E-03     54.7465E-03    -27.2403E-03    -27.5326E-03    -26.7858E-03     53.9997E-03    -27.2403E-03     15.4977E-03    -8.92879E+06    -21.2255E+06    -44.2210E+06    -23.8438E+06    -41.6027E+06    -8.92879E+06     226.769E+03         29.0616
            1221     12.6531E-03     60.1895E-03     908.940E-03    -231.316E-03    -264.051E-03    -263.292E-03     908.181E-03    -231.316E-03     6.71068E-03     54.8936E-03    -27.1108E-03    -27.7962E-03    -26.5812E-03     53.6787E-03    -27.1108E-03     19.7492E-03     17.6837E+06    -16.7671E+06    -22.9049E+06    -22.8929E+06     13.7431E+06    -12.8385E+06     511.437E+03         30.9411
            1222     13.6271E-03     60.2128E-03     916.336E-03    -233.601E-03    -269.906E-03    -268.338E-03     914.769E-03    -233.601E-03    -22.7076E-03     55.6264E-03    -26.9612E-03    -28.6895E-03    -26.3382E-03     53.2751E-03    -26.9612E-03     27.3168E-03     96.1314E+06    -11.9049E+06    -22.0544E+06    -22.0468E+06     96.1238E+06    -11.9049E+06     844.164E+03         33.2455
            1223     14.6013E-03     60.2469E-03     929.962E-03    -236.026E-03    -280.091E-03    -278.691E-03     928.562E-03    -236.026E-03    -22.7824E-03     55.6622E-03    -27.0152E-03    -28.6805E-03    -26.0319E-03     53.0137E-03    -27.0152E-03     29.2762E-03     155.222E+06     22.5846E+06    -20.2853E+06    -20.2795E+06     155.216E+06     22.5846E+06     836.941E+03         36.1822
            1224     15.5754E-03     60.2746E-03     926.962E-03    -238.304E-03    -274.604E-03    -274.166E-03     926.523E-03    -238.304E-03     13.3962E-03     57.1993E-03    -27.2512E-03    -29.9722E-03    -25.7817E-03     53.0087E-03    -27.2512E-03     36.1546E-03     175.785E+06     83.2833E+06    -16.0178E+06    -16.0128E+06     175.780E+06     83.2833E+06     858.118E+03         39.5301
            1225     16.5504E-03     60.3233E-03     918.549E-03    -239.943E-03    -266.268E-03    -265.949E-03     918.230E-03    -239.943E-03     2.14018E-03     56.2280E-03    -26.4722E-03    -29.7849E-03    -25.4845E-03     52.9196E-03    -27.4641E-03     28.2665E-03     193.386E+06     135.848E+06    -8.76562E+06    -8.76334E+06     193.384E+06     135.848E+06     532.448E+03         42.5179
            1226     973.066E-06     61.1332E-03         2.37916    -556.880E-03        -1.41485     158.196E-03     806.111E-03    -556.880E-03         1.52102     55.0292E-03    -27.4356E-03    -27.5939E-03    -27.5742E-03     55.0180E-03    -27.4442E-03     1.77734E-03    -61.7076E+06    -64.9537E+06    -263.235E+06    -64.5394E+06    -263.234E+06    -62.1227E+06     16.5897E+03         24.0280
            1227     1.94613E-03     61.1358E-03         1.32718    -202.395E-03    -714.868E-03    -215.433E-03     827.743E-03    -202.395E-03    -406.232E-03     55.0694E-03    -27.5254E-03    -27.5449E-03    -27.4921E-03     55.0361E-03    -27.5449E-03     3.23624E-03    -54.7583E+06    -62.2385E+06    -260.332E+06    -62.2391E+06    -260.331E+06    -54.7583E+06     15.4561E+03         24.0603
            1228     2.91924E-03     61.1399E-03         1.05938    -208.115E-03    -439.450E-03    -223.784E-03     843.719E-03    -208.115E-03     312.036E-03     55.1231E-03    -27.5411E-03    -27.5826E-03    -27.4747E-03     55.0567E-03    -27.5826E-03     4.63242E-03    -44.2735E+06    -58.2623E+06    -253.363E+06    -58.2631E+06    -253.363E+06    -44.2735E+06     232.074E+03         24.1238
            1229     3.89228E-03     61.1455E-03     908.000E-03    -207.782E-03    -282.176E-03    -203.997E-03     831.966E-03    -209.928E-03    -142.437E-03     55.1421E-03    -27.5233E-03    -27.6192E-03    -27.4203E-03     55.0390E-03    -27.6192E-03     5.81316E-03    -31.2952E+06    -53.3786E+06    -243.500E+06    -53.3798E+06    -243.499E+06    -31.2952E+06     400.766E+03         24.2182
            1230     4.86548E-03     61.1520E-03     841.143E-03    -204.278E-03    -218.660E-03    -184.433E-03     809.559E-03    -206.920E-03     80.7233E-03     55.1241E-03    -27.4906E-03    -27.6345E-03    -27.3489E-03     54.9825E-03    -27.6345E-03     6.81725E-03    -20.2054E+06    -47.7349E+06    -227.485E+06    -47.7362E+06    -227.484E+06    -20.2054E+06     428.773E+03         24.3400
            1231     5.83863E-03     61.1598E-03     858.823E-03    -206.008E-03    -239.041E-03    -228.794E-03     849.073E-03    -206.504E-03    -85.1715E-03     55.0574E-03    -27.4431E-03    -27.6150E-03    -27.2586E-03     54.8729E-03    -27.6150E-03     7.78008E-03    -12.2080E+06    -42.2969E+06    -206.238E+06    -42.2982E+06    -206.236E+06    -12.2080E+06     440.784E+03         24.4882
            1232     6.81203E-03     61.1684E-03     882.703E-03    -211.719E-03    -260.582E-03    -259.284E-03     881.405E-03    -211.719E-03     21.2322E-03     54.9737E-03    -27.3949E-03    -27.5778E-03    -27.1703E-03     54.7490E-03    -27.5778E-03     8.58437E-03    -6.03717E+06    -37.5656E+06    -183.690E+06    -37.5661E+06    -183.690E+06    -6.03717E+06     237.326E+03         24.6684
            1233     7.78536E-03     61.1778E-03     853.950E-03    -209.392E-03    -234.462E-03    -227.616E-03     853.515E-03    -215.803E-03    -11.3815E-03     54.9118E-03    -27.3763E-03    -27.5340E-03    -27.1045E-03     54.6400E-03    -27.5340E-03     9.42981E-03    -2.60193E+06    -33.5033E+06    -160.497E+06    -33.5044E+06    -160.495E+06    -2.60193E+06     277.993E+03         24.9434
            1234     8.75884E-03     61.1883E-03     838.250E-03    -209.526E-03    -219.054E-03    -212.100E-03     838.015E-03    -216.244E-03    -400.236E-06     54.8650E-03    -27.3785E-03    -27.4763E-03    -27.0403E-03     54.5268E-03    -27.4763E-03     10.5099E-03    -808.694E+03    -30.1201E+06    -135.719E+06    -30.1228E+06    -135.717E+06    -808.694E+03     495.657E+03         25.4541
            1235     9.73226E-03     61.2000E-03     864.259E-03    -216.640E-03    -237.695E-03    -237.223E-03     864.095E-03    -216.947E-03    -22.5357E-03     54.7750E-03    -27.3765E-03    -27.4134E-03    -26.9746E-03     54.3732E-03    -27.4134E-03     11.4571E-03    -1.07990E+06    -27.5041E+06    -109.822E+06    -27.5086E+06    -109.817E+06    -1.07990E+06     584.123E+03         26.3138
            1236     10.7057E-03     61.2123E-03     883.641E-03    -219.448E-03    -254.111E-03    -253.977E-03     883.508E-03    -219.448E-03    -14.7190E-03     54.7019E-03    -27.3296E-03    -27.4218E-03    -26.9084E-03     54.1958E-03    -27.3370E-03     12.8142E-03    -4.94333E+06    -25.4921E+06    -80.6857E+06     -25.498E+06    -80.6798E+06    -4.94333E+06     530.151E+03         27.5384
            1237     11.6794E-03     61.2268E-03     879.773E-03    -222.054E-03    -249.392E-03    -249.073E-03     879.453E-03    -222.054E-03    -22.7857E-03     54.7382E-03    -27.2425E-03    -27.5241E-03    -26.7734E-03     53.9875E-03    -27.2425E-03     15.5468E-03    -9.10846E+06    -21.5720E+06    -44.3476E+06    -24.2996E+06    -41.6200E+06    -9.10846E+06     537.622E+03         29.1054
            1238     12.6531E-03     61.2449E-03     878.078E-03    -223.920E-03    -247.140E-03    -246.336E-03     877.274E-03    -223.920E-03     11.6368E-03     54.8710E-03    -27.1110E-03    -27.7743E-03    -26.5652E-03     53.6619E-03    -27.1110E-03     19.6986E-03     17.1779E+06    -17.1717E+06    -23.5805E+06    -23.5366E+06     13.2363E+06    -13.2740E+06     572.070E+03         30.9983
            1239     13.6271E-03     61.2680E-03     887.980E-03    -225.716E-03    -258.271E-03    -256.793E-03     886.502E-03    -225.716E-03    -17.2599E-03     55.6599E-03    -26.9628E-03    -28.7210E-03    -26.3571E-03     53.2960E-03    -26.9628E-03     27.3816E-03      95.709E+06    -12.1117E+06    -22.8147E+06    -22.8099E+06     95.7043E+06    -12.1117E+06     649.726E+03         33.3186
            1240     14.6010E-03     61.3026E-03     901.283E-03    -227.968E-03    -269.744E-03    -268.536E-03     900.075E-03    -227.968E-03    -19.8383E-03     55.6801E-03    -27.0183E-03    -28.6909E-03    -26.0267E-03     53.0159E-03    -27.0183E-03     29.3577E-03     154.811E+06     22.9452E+06    -21.2650E+06    -21.2572E+06     154.804E+06     22.9452E+06     1.11299E+06         36.2752
            1241     15.5756E-03     61.3297E-03     906.853E-03    -230.351E-03    -271.916E-03    -271.418E-03     906.355E-03    -230.351E-03     2.71341E-03     57.2209E-03    -27.2549E-03    -29.9834E-03    -25.7835E-03     53.0210E-03    -27.2549E-03     36.1962E-03     176.080E+06     84.0369E+06    -16.6549E+06    -16.6482E+06     176.073E+06     84.0369E+06     1.02357E+06         39.6382
            1242     16.5502E-03     61.3786E-03     897.320E-03    -232.207E-03    -260.758E-03    -260.274E-03     896.837E-03    -232.207E-03    -13.7319E-03     56.2502E-03    -26.4613E-03    -29.8167E-03    -25.4891E-03     52.9305E-03    -27.4692E-03     28.3314E-03     193.963E+06     136.385E+06    -8.89317E+06    -8.89215E+06     193.962E+06     136.385E+06     297.987E+03         42.6271
            1243     973.101E-06     62.1886E-03         2.33155    -426.406E-03        -1.49870     131.249E-03     701.606E-03    -426.406E-03         1.48562     54.9857E-03    -27.4267E-03    -27.5583E-03    -27.5442E-03     54.9746E-03    -27.4297E-03     1.76867E-03    -63.6704E+06    -67.2580E+06    -263.362E+06    -66.8453E+06    -263.360E+06    -64.0855E+06     317.279E+03         24.0271
            1244     1.94615E-03     62.1912E-03         1.32170    -167.184E-03    -744.517E-03    -245.343E-03     822.527E-03    -167.184E-03    -496.161E-03     55.0803E-03    -27.5261E-03    -27.5534E-03    -27.5037E-03     55.0475E-03    -27.5430E-03     3.21215E-03    -54.4988E+06    -63.2962E+06    -260.362E+06    -63.2975E+06    -260.361E+06    -54.4988E+06     76.7364E+03         24.0588
            1245     2.91917E-03     62.1954E-03         1.04830    -195.352E-03    -441.637E-03    -247.060E-03     853.721E-03    -195.352E-03     256.711E-03     55.1201E-03    -27.5306E-03    -27.5893E-03    -27.4657E-03     55.0553E-03    -27.5893E-03     4.58311E-03    -43.2065E+06    -58.3783E+06    -253.961E+06    -58.3794E+06    -253.960E+06    -43.2065E+06     264.878E+03         24.1218
            1246     3.89234E-03     62.2009E-03     906.028E-03    -203.444E-03    -293.362E-03    -218.676E-03     833.487E-03    -205.590E-03    -178.331E-03     55.1272E-03    -27.5101E-03    -27.6171E-03    -27.4078E-03     55.0250E-03    -27.6171E-03     5.78328E-03    -31.0170E+06    -52.8941E+06    -243.594E+06    -52.8953E+06    -243.593E+06    -31.0170E+06      330.85E+03         24.2162
            1247     4.86545E-03     62.2076E-03     840.100E-03    -203.983E-03    -228.276E-03    -200.655E-03     815.121E-03    -206.625E-03     54.0187E-03     55.1208E-03    -27.4926E-03    -27.6286E-03    -27.3507E-03     54.9789E-03    -27.6286E-03     6.82397E-03    -20.4441E+06    -47.5173E+06    -227.646E+06    -47.5182E+06    -227.645E+06    -20.4441E+06     378.895E+03         24.3382
            1248     5.83872E-03     62.2152E-03     822.169E-03    -192.615E-03    -223.511E-03    -200.196E-03     811.832E-03    -205.593E-03    -75.0520E-03     55.0614E-03    -27.4497E-03    -27.6127E-03    -27.2660E-03     54.8777E-03    -27.6127E-03     7.76413E-03    -12.2146E+06    -42.4610E+06    -206.408E+06    -42.4625E+06    -206.406E+06    -12.2146E+06     486.767E+03         24.4866
            1249     6.81203E-03     62.2238E-03     823.443E-03    -188.546E-03    -229.310E-03    -210.517E-03     821.581E-03    -205.477E-03     35.9669E-03     54.9845E-03    -27.4068E-03    -27.5773E-03    -27.1818E-03     54.7595E-03    -27.5773E-03     8.59069E-03    -6.07161E+06    -37.8654E+06    -183.675E+06    -37.8676E+06    -183.673E+06    -6.07161E+06     492.204E+03         24.6671
            1250     7.78539E-03     62.2332E-03     829.775E-03    -197.251E-03    -227.557E-03    -217.475E-03     828.876E-03    -206.434E-03     14.4894E-03     54.9319E-03    -27.3940E-03    -27.5349E-03    -27.1212E-03     54.6591E-03    -27.5349E-03     9.44979E-03    -2.89714E+06    -34.0441E+06    -160.799E+06    -34.0470E+06    -160.796E+06    -2.89714E+06     535.210E+03         24.9450
            1251     8.75870E-03     62.2436E-03     839.850E-03    -202.950E-03    -231.284E-03    -225.511E-03     839.119E-03    -207.991E-03     31.9178E-03     54.8529E-03    -27.3636E-03    -27.4771E-03    -27.0239E-03     54.5131E-03    -27.4771E-03     10.5300E-03    -1.22030E+06    -30.6757E+06    -136.074E+06    -30.6807E+06    -136.069E+06    -1.22030E+06     700.237E+03         25.4639
            1252     9.73231E-03     62.2554E-03     856.124E-03    -210.029E-03    -239.755E-03    -239.350E-03     856.026E-03    -210.336E-03    -8.80163E-03     54.7401E-03    -27.3448E-03    -27.4115E-03    -26.9410E-03     54.3363E-03    -27.4115E-03     11.4803E-03    -1.40015E+06    -27.7049E+06    -110.092E+06    -27.7108E+06    -110.086E+06    -1.40015E+06     675.808E+03         26.3342
            1253     10.7059E-03     62.2677E-03     858.298E-03    -212.939E-03    -240.076E-03    -239.929E-03     858.150E-03    -212.939E-03    -18.4407E-03     54.7092E-03    -27.3206E-03    -27.4393E-03    -26.9184E-03     54.2012E-03    -27.3335E-03     12.8398E-03    -5.31805E+06    -25.5879E+06    -80.8439E+06    -25.6028E+06     -80.829E+06    -5.31805E+06     766.248E+03         27.5696
            1254     11.6794E-03     62.2822E-03     843.419E-03    -214.534E-03    -226.144E-03    -226.045E-03     843.320E-03    -214.534E-03    -9.31172E-03     54.7435E-03    -27.2406E-03    -27.5308E-03    -26.7867E-03     53.9994E-03    -27.2406E-03     15.4893E-03    -9.34383E+06    -21.8630E+06    -44.1117E+06    -24.2431E+06    -41.7316E+06    -9.34383E+06     870.369E+03         29.1484
            1255     12.6531E-03     62.3001E-03     853.796E-03    -215.642E-03    -237.205E-03    -236.059E-03     852.649E-03    -215.642E-03     54.4186E-03     54.8924E-03    -27.1102E-03    -27.7981E-03    -26.5900E-03     53.6844E-03    -27.1102E-03     19.6805E-03     17.4028E+06    -17.8515E+06    -23.7437E+06    -23.6697E+06     13.2429E+06    -13.7657E+06     799.733E+03         31.0547
            1256     13.6269E-03     62.3236E-03     877.313E-03    -217.703E-03    -261.139E-03    -259.109E-03     875.284E-03    -217.703E-03     7.12382E-03     55.6294E-03    -26.9597E-03    -28.6944E-03    -26.3297E-03     53.2648E-03    -26.9597E-03     27.3859E-03     95.3025E+06    -13.3980E+06    -23.3084E+06    -23.2991E+06     95.2933E+06    -13.3980E+06     818.365E+03         33.3912
            1257     14.6014E-03     62.3578E-03     875.575E-03    -220.219E-03    -259.521E-03    -258.191E-03     874.245E-03    -220.219E-03    -12.1927E-03     55.6020E-03    -27.0098E-03    -28.6356E-03    -25.9647E-03     52.9311E-03    -27.0098E-03     29.3793E-03     154.268E+06     21.8355E+06    -21.1644E+06    -21.1590E+06     154.263E+06     21.8355E+06     853.899E+03         36.3682
            1258     15.5757E-03     62.3853E-03     881.045E-03    -222.444E-03    -261.919E-03    -261.342E-03     880.468E-03    -222.444E-03     14.7400E-03     57.2333E-03    -27.2519E-03    -30.0171E-03    -25.8262E-03     53.0424E-03    -27.2519E-03     36.2122E-03     176.525E+06     84.1956E+06    -16.1601E+06    -16.1566E+06     176.522E+06     84.1956E+06     641.087E+03         39.7464
            1259     16.5502E-03     62.4340E-03     901.687E-03    -225.017E-03    -279.638E-03    -279.441E-03     901.491E-03    -225.017E-03    -22.8974E-03     56.2645E-03    -26.4825E-03    -29.8456E-03    -25.5510E-03     52.9623E-03    -27.4750E-03     28.3387E-03     194.410E+06     136.813E+06    -8.75971E+06    -8.75904E+06     194.409E+06     136.813E+06     310.528E+03         42.7358
            1260     973.100E-06     63.2440E-03         2.29874    -433.965E-03        -1.45341     21.3465E-03     823.991E-03    -433.965E-03         1.43118     55.0420E-03    -27.4629E-03    -27.5783E-03    -27.5643E-03     55.0306E-03    -27.4655E-03     1.83009E-03    -63.4822E+06    -67.3651E+06    -263.396E+06    -67.0544E+06    -263.393E+06    -63.7957E+06    -71.5467E+03         24.0248
            1261     1.94606E-03     63.2466E-03         1.28944    -204.647E-03    -679.373E-03    -197.142E-03     807.213E-03    -204.647E-03    -521.658E-03     55.1048E-03    -27.5289E-03    -27.5745E-03    -27.5070E-03     55.0725E-03    -27.5641E-03     3.18279E-03    -53.8515E+06    -63.0535E+06    -260.567E+06    -63.0544E+06    -260.566E+06    -53.8515E+06     54.4801E+03         24.0565
            1262     2.91918E-03     63.2508E-03     987.134E-03    -200.911E-03    -381.648E-03    -189.207E-03     794.693E-03    -200.911E-03     205.070E-03     55.1074E-03    -27.5105E-03    -27.5961E-03    -27.4460E-03     55.0429E-03    -27.5961E-03     4.56603E-03    -43.6043E+06    -58.4130E+06    -254.247E+06    -58.4136E+06    -254.246E+06    -43.6043E+06     259.547E+03         24.1195
            1263     3.89228E-03     63.2563E-03     887.638E-03    -199.473E-03    -288.241E-03    -203.681E-03     803.078E-03    -199.473E-03    -147.083E-03     55.0999E-03    -27.4844E-03    -27.6150E-03    -27.3821E-03     54.9976E-03    -27.6150E-03     5.78292E-03    -31.6618E+06    -53.2971E+06    -243.701E+06    -53.2979E+06    -243.700E+06    -31.6618E+06     309.819E+03         24.2137
            1264     4.86555E-03     63.2630E-03     853.614E-03    -202.313E-03    -255.267E-03    -226.041E-03     824.387E-03    -202.313E-03     97.4265E-03     55.0897E-03    -27.4654E-03    -27.6235E-03    -27.3233E-03     54.9476E-03    -27.6235E-03     6.82777E-03    -20.7803E+06    -47.9435E+06    -228.230E+06    -47.9449E+06    -228.228E+06    -20.7803E+06     490.312E+03         24.3357
            1265     5.83874E-03     63.2706E-03     797.936E-03    -184.002E-03    -218.349E-03    -189.532E-03     788.583E-03    -203.466E-03    -58.3781E-03     55.0659E-03    -27.4599E-03    -27.6072E-03    -27.2761E-03     54.8821E-03    -27.6072E-03     7.76750E-03    -12.4387E+06    -42.7681E+06    -206.571E+06    -42.7701E+06    -206.569E+06    -12.4387E+06     569.759E+03         24.4847
            1266     6.81201E-03     63.2792E-03     764.668E-03    -169.969E-03    -199.894E-03    -166.738E-03     761.437E-03    -199.894E-03     25.5264E-03     55.0050E-03    -27.4289E-03    -27.5762E-03    -27.2034E-03     54.7794E-03    -27.5762E-03     8.60259E-03    -6.08576E+06    -38.1713E+06    -183.928E+06    -38.1764E+06    -183.923E+06    -6.08576E+06     813.394E+03         24.6659
            1267     7.78534E-03     63.2887E-03     799.657E-03    -187.381E-03    -215.600E-03    -203.538E-03     798.054E-03    -197.842E-03    -8.82130E-03     54.9169E-03    -27.3802E-03    -27.5346E-03    -27.1065E-03     54.6432E-03    -27.5346E-03     9.46280E-03    -2.78471E+06    -34.1249E+06    -160.976E+06    -34.1307E+06    -160.970E+06    -2.78471E+06     839.171E+03         24.9466
            1268     8.75885E-03     63.2991E-03     838.033E-03    -200.302E-03    -239.811E-03    -239.138E-03     837.360E-03    -200.302E-03     24.6089E-03     54.8571E-03    -27.3704E-03    -27.4754E-03    -27.0301E-03     54.5169E-03    -27.4754E-03     10.5396E-03    -1.31052E+06    -30.5780E+06    -136.238E+06    -30.5826E+06    -136.233E+06    -1.31052E+06     665.474E+03         25.4728
            1269     9.73228E-03     63.3106E-03     829.886E-03    -200.674E-03    -231.061E-03    -228.020E-03     829.775E-03    -203.604E-03     3.55722E-03     54.7646E-03    -27.3695E-03    -27.4115E-03    -26.9657E-03     54.3607E-03    -27.4115E-03     11.4844E-03    -1.50271E+06    -27.5667E+06    -110.222E+06    -27.5727E+06    -110.216E+06    -1.50271E+06     651.788E+03         26.3525
            1270     10.7058E-03     63.3232E-03     815.718E-03    -202.079E-03    -214.353E-03    -211.361E-03     815.657E-03    -205.009E-03     4.12975E-03     54.6829E-03    -27.3220E-03    -27.4117E-03    -26.8929E-03     54.1750E-03    -27.3329E-03     12.8330E-03    -5.39294E+06    -25.2094E+06    -81.2036E+06    -25.2243E+06    -81.1887E+06    -5.39294E+06     777.308E+03         27.5977
            1271     11.6794E-03     63.3376E-03     828.917E-03    -205.971E-03    -225.143E-03    -225.058E-03     828.832E-03    -205.971E-03    -10.6329E-03     54.7381E-03    -27.2379E-03    -27.5269E-03    -26.7832E-03     53.9944E-03    -27.2379E-03     15.4850E-03    -9.44118E+06    -21.6076E+06    -44.3383E+06    -23.7242E+06    -42.2217E+06    -9.44118E+06     1.01019E+06         29.1874
            1272     12.6531E-03     63.3555E-03     844.952E-03    -207.911E-03    -242.024E-03    -240.880E-03     843.809E-03    -207.911E-03     42.3955E-03     54.9070E-03    -27.1092E-03    -27.8125E-03    -26.5960E-03     53.6905E-03    -27.1092E-03     19.7426E-03     17.4641E+06    -17.7432E+06    -23.0274E+06    -22.8537E+06     13.1333E+06    -13.5861E+06     1.16265E+06         31.1062
            1273     13.6271E-03     63.3791E-03     851.480E-03    -210.318E-03    -249.050E-03    -246.366E-03     848.796E-03    -210.318E-03    -10.9099E-03     55.6190E-03    -26.9582E-03    -28.6835E-03    -26.3253E-03     53.2608E-03    -26.9582E-03     27.3728E-03     95.4869E+06    -12.9718E+06    -22.2077E+06    -22.1952E+06     95.4744E+06    -12.9718E+06     964.885E+03         33.4576
            1274     14.6012E-03     63.4128E-03     857.548E-03    -212.718E-03    -253.879E-03    -251.772E-03     855.441E-03    -212.718E-03    -26.3110E-03     55.6101E-03    -27.0087E-03    -28.6465E-03    -25.9809E-03     52.9445E-03    -27.0087E-03     29.3681E-03     154.261E+06     21.3407E+06    -20.5728E+06    -20.5709E+06     154.259E+06     21.3407E+06     527.256E+03         36.4527
            1275     15.5757E-03     63.4410E-03     869.082E-03    -215.250E-03    -262.152E-03    -261.535E-03     868.465E-03    -215.250E-03     17.4474E-03     57.2282E-03    -27.2535E-03    -29.9993E-03    -25.8059E-03     53.0348E-03    -27.2535E-03     36.2390E-03     176.433E+06     83.6331E+06    -16.2128E+06    -16.2119E+06     176.432E+06     83.6331E+06     415.284E+03         39.8443
            1276     16.5504E-03     63.4891E-03     891.905E-03    -218.351E-03    -281.579E-03    -281.358E-03     891.685E-03    -218.351E-03    -3.26746E-03     56.2822E-03    -26.5132E-03    -29.8186E-03    -25.5594E-03     52.9881E-03    -27.4783E-03     28.2980E-03     194.723E+06     137.279E+06    -8.92830E+06    -8.92737E+06     194.722E+06     137.279E+06     420.730E+03         42.8349
            1277     972.990E-06     64.2995E-03         2.19933    -384.779E-03        -1.41475    -72.5980E-03     857.187E-03    -384.779E-03         1.48939     55.0926E-03    -27.4722E-03    -27.6202E-03    -27.5817E-03     55.0809E-03    -27.4990E-03     1.84272E-03    -62.1586E+06    -65.8720E+06    -263.444E+06    -65.5623E+06    -263.441E+06    -62.4720E+06    -203.158E+03         24.0232
            1278     1.94604E-03     64.3021E-03         1.23377    -214.375E-03    -623.891E-03    -157.691E-03     767.570E-03    -214.375E-03    -369.443E-03     55.0893E-03    -27.5159E-03    -27.5738E-03    -27.4833E-03     55.0568E-03    -27.5738E-03     3.20504E-03    -54.2848E+06    -62.2784E+06    -261.239E+06    -62.2801E+06    -261.237E+06    -54.2848E+06     479.188E+03         24.0552
            1279     2.91913E-03     64.3061E-03     961.419E-03    -194.607E-03    -376.381E-03    -161.710E-03     746.748E-03    -194.607E-03     274.570E-03     55.0925E-03    -27.5026E-03    -27.5902E-03    -27.4377E-03     55.0276E-03    -27.5902E-03     4.57537E-03    -44.7041E+06    -58.2468E+06    -254.168E+06    -58.2477E+06    -254.167E+06    -44.7041E+06     384.924E+03         24.1180
            1280     3.89234E-03     64.3117E-03     853.507E-03    -189.038E-03    -275.510E-03    -189.021E-03     767.018E-03    -189.038E-03    -92.9964E-03     55.0832E-03    -27.4721E-03    -27.6103E-03    -27.3696E-03     54.9807E-03    -27.6103E-03     5.79003E-03    -32.2842E+06    -53.7483E+06    -244.217E+06    -53.7500E+06    -244.215E+06    -32.2842E+06     511.768E+03         24.2117
            1281     4.86549E-03     64.3183E-03     826.350E-03    -190.952E-03    -249.047E-03    -210.922E-03     788.225E-03    -190.952E-03     120.772E-03     55.0751E-03    -27.4540E-03    -27.6203E-03    -27.3117E-03     54.9329E-03    -27.6203E-03     6.82663E-03    -20.8964E+06    -48.4649E+06    -228.548E+06    -48.4668E+06    -228.546E+06    -20.8964E+06     531.941E+03         24.3335
            1282     5.83882E-03     64.3260E-03     803.510E-03    -187.536E-03    -231.017E-03    -214.393E-03     793.868E-03    -194.519E-03    -73.5383E-03     55.0467E-03    -27.4452E-03    -27.6026E-03    -27.2605E-03     54.8621E-03    -27.6026E-03     7.78365E-03    -12.5096E+06    -43.0869E+06    -206.852E+06    -43.0895E+06    -206.849E+06    -12.5096E+06     598.155E+03         24.4826
            1283     6.81207E-03     64.3346E-03     785.722E-03    -183.446E-03    -216.609E-03    -200.841E-03     782.948E-03    -196.440E-03     9.91505E-03     54.9941E-03    -27.4222E-03    -27.5710E-03    -27.1953E-03     54.7672E-03    -27.5710E-03     8.62762E-03    -6.13368E+06    -38.2809E+06    -184.486E+06    -38.2868E+06    -184.480E+06    -6.13368E+06     892.904E+03         24.6644
            1284     7.78542E-03     64.3440E-03     781.052E-03    -185.690E-03    -208.051E-03    -195.441E-03     779.432E-03    -196.679E-03    -20.4249E-03     54.9273E-03    -27.3954E-03    -27.5302E-03    -27.1213E-03     54.6532E-03    -27.5302E-03     9.47296E-03    -2.56672E+06    -33.8939E+06    -160.895E+06    -33.8997E+06    -160.889E+06    -2.56672E+06     840.587E+03         24.9477
            1285     8.75884E-03     64.3543E-03     788.834E-03    -185.867E-03    -213.062E-03    -201.181E-03     787.931E-03    -196.846E-03    -1.88129E-03     54.8765E-03    -27.3919E-03    -27.4736E-03    -27.0519E-03     54.5365E-03    -27.4736E-03     10.5375E-03    -953.981E+03    -30.2195E+06    -136.150E+06    -30.2233E+06    -136.146E+06    -953.981E+03     620.896E+03         25.4797
            1286     9.73229E-03     64.3662E-03     787.558E-03    -188.237E-03    -209.484E-03    -199.543E-03     786.548E-03    -197.168E-03    -42.9341E-03     54.7750E-03    -27.3800E-03    -27.4112E-03    -26.9740E-03     54.3690E-03    -27.4112E-03     11.5163E-03    -1.31835E+06    -27.3395E+06    -110.471E+06    -27.3458E+06    -110.465E+06    -1.31835E+06     684.818E+03         26.3670
            1287     10.7058E-03     64.3784E-03     795.558E-03    -194.713E-03    -210.395E-03    -206.888E-03     794.982E-03    -197.644E-03    -19.6075E-03     54.6604E-03    -27.3244E-03    -27.3875E-03    -26.8696E-03     54.1507E-03    -27.3326E-03     12.8548E-03    -5.28412E+06    -25.2167E+06    -81.5822E+06    -25.2293E+06    -81.5696E+06    -5.28412E+06     792.041E+03         27.6203
            1288     11.6795E-03     64.3930E-03     823.819E-03    -199.458E-03    -234.748E-03    -234.569E-03     823.641E-03    -199.458E-03    -22.4822E-03     54.7101E-03    -27.2353E-03    -27.5017E-03    -26.7485E-03     53.9569E-03    -27.2353E-03     15.5691E-03    -9.36471E+06    -21.7462E+06    -44.6869E+06    -23.7658E+06    -42.6674E+06    -9.36471E+06     981.924E+03         29.2193
            1289     12.6532E-03     64.4110E-03     829.805E-03    -202.299E-03    -241.247E-03    -240.303E-03     828.862E-03    -202.299E-03     20.6658E-03     54.9031E-03    -27.1067E-03    -27.8098E-03    -26.5979E-03     53.6913E-03    -27.1067E-03     19.7284E-03     17.2791E+06    -17.4005E+06    -22.8405E+06    -22.6539E+06     12.8443E+06    -13.1524E+06     1.12727E+06         31.1489
            1290     13.6272E-03     64.4341E-03     824.678E-03    -204.630E-03    -234.871E-03    -232.235E-03     822.043E-03    -204.630E-03    -23.0858E-03     55.6718E-03    -26.9631E-03    -28.7311E-03    -26.3754E-03     53.3162E-03    -26.9631E-03     27.3464E-03     95.6752E+06    -11.2641E+06    -21.8324E+06    -21.8218E+06     95.6646E+06    -11.2641E+06     936.048E+03         33.5128
            1291     14.6013E-03     64.4686E-03     839.626E-03    -206.781E-03    -248.075E-03    -245.843E-03     837.395E-03    -206.781E-03    -36.2778E-03     55.6411E-03    -27.0169E-03    -28.6650E-03    -26.0086E-03     52.9847E-03    -27.0169E-03     29.3105E-03     154.643E+06     23.1298E+06    -20.1423E+06    -20.1382E+06     154.639E+06     23.1298E+06     795.551E+03         36.5223
            1292     15.5757E-03     64.4959E-03     854.820E-03    -209.470E-03    -259.522E-03    -259.015E-03     854.313E-03    -209.470E-03     9.47404E-03     57.2373E-03    -27.2549E-03    -29.9935E-03    -25.7803E-03     53.0241E-03    -27.2549E-03     36.2578E-03     176.344E+06     83.6111E+06    -16.0668E+06    -16.0632E+06     176.341E+06     83.6111E+06     767.772E+03         39.9247
            1293     16.5503E-03     64.5451E-03     850.521E-03    -212.044E-03    -252.931E-03    -252.628E-03     850.217E-03    -212.044E-03     1.69106E-03     56.2998E-03    -26.4974E-03    -29.8443E-03    -25.5372E-03     52.9728E-03    -27.4775E-03     28.3332E-03     194.886E+06     137.157E+06    -8.90479E+06    -8.90332E+06     194.884E+06     137.157E+06     429.966E+03         42.9179
            1294     972.995E-06     65.3548E-03         2.04608    -266.002E-03        -1.39263    -78.6016E-03     732.054E-03    -266.002E-03         1.34309     55.0502E-03    -27.4602E-03    -27.5902E-03    -27.5541E-03     55.0388E-03    -27.4848E-03     1.78629E-03    -63.4235E+06    -66.9155E+06    -264.235E+06    -66.6548E+06    -264.229E+06    -63.6901E+06     412.418E+03         24.0232
            1295     1.94614E-03     65.3575E-03         1.19837    -172.297E-03    -636.404E-03    -172.726E-03     734.695E-03    -172.297E-03    -396.672E-03     55.0517E-03    -27.4986E-03    -27.5544E-03    -27.4658E-03     55.0188E-03    -27.5544E-03     3.22360E-03    -55.5700E+06    -63.3507E+06    -261.658E+06    -63.3526E+06    -261.657E+06    -55.5700E+06     406.686E+03         24.0548
            1296     2.91919E-03     65.3616E-03     949.350E-03    -175.298E-03    -386.348E-03    -193.138E-03     756.140E-03    -175.298E-03     263.227E-03     55.0733E-03    -27.4977E-03    -27.5769E-03    -27.4325E-03     55.0081E-03    -27.5769E-03     4.58675E-03    -44.8981E+06    -58.7403E+06    -254.273E+06    -58.7417E+06    -254.272E+06    -44.8981E+06     370.564E+03         24.1166
            1297     3.89233E-03     65.3670E-03     840.087E-03    -181.056E-03    -277.885E-03    -203.611E-03     765.812E-03    -181.056E-03    -109.565E-03     55.0903E-03    -27.4860E-03    -27.6038E-03    -27.3825E-03     54.9868E-03    -27.6038E-03     5.81794E-03    -31.8345E+06    -53.4949E+06    -244.764E+06    -53.4971E+06    -244.762E+06    -31.8345E+06     596.735E+03         24.2097
            1298     4.86559E-03     65.3737E-03     803.434E-03    -185.487E-03    -239.758E-03    -201.591E-03     765.267E-03    -185.487E-03     54.2105E-03     55.0861E-03    -27.4691E-03    -27.6160E-03    -27.3262E-03     54.9432E-03    -27.6160E-03     6.84586E-03    -20.6999E+06    -48.1788E+06    -228.548E+06    -48.1822E+06    -228.545E+06    -20.6999E+06     671.869E+03         24.3314
            1299     5.83876E-03     65.3813E-03     788.063E-03    -187.789E-03    -221.725E-03    -205.848E-03     772.939E-03    -188.542E-03    -115.652E-03     55.0338E-03    -27.4325E-03    -27.6001E-03    -27.2488E-03     54.8501E-03    -27.6001E-03     7.76317E-03    -12.4956E+06    -43.1687E+06    -207.350E+06    -43.1731E+06    -207.346E+06    -12.4956E+06     774.197E+03         24.4807
            1300     6.81217E-03     65.3900E-03     790.932E-03    -191.090E-03    -220.489E-03    -218.349E-03     789.545E-03    -191.843E-03     33.9380E-03     54.9635E-03    -27.3964E-03    -27.5655E-03    -27.1708E-03     54.7379E-03    -27.5655E-03     8.59949E-03    -6.23128E+06    -38.2811E+06    -184.816E+06    -38.2852E+06    -184.812E+06    -6.23128E+06     765.841E+03         24.6629
            1301     7.78553E-03     65.3993E-03     779.018E-03    -189.201E-03    -208.778E-03    -202.245E-03     777.462E-03    -194.179E-03     35.7662E-03     54.9370E-03    -27.4139E-03    -27.5224E-03    -27.1387E-03     54.6619E-03    -27.5224E-03     9.49175E-03    -2.75920E+06    -33.9903E+06    -160.910E+06    -33.9944E+06    -160.906E+06    -2.75920E+06     707.745E+03         24.9477
            1302     8.75880E-03     65.4099E-03     755.354E-03    -177.591E-03    -194.554E-03    -176.803E-03     753.697E-03    -193.684E-03     29.6817E-03     54.8882E-03    -27.4082E-03    -27.4694E-03    -27.0683E-03     54.5483E-03    -27.4694E-03     10.5402E-03    -956.688E+03    -30.5931E+06    -136.289E+06    -30.5990E+06    -136.283E+06    -956.688E+03     766.214E+03         25.4838
            1303     9.73235E-03     65.4214E-03     765.776E-03    -181.477E-03    -202.567E-03    -190.538E-03     764.862E-03    -192.592E-03    -39.6605E-03     54.7491E-03    -27.3561E-03    -27.4078E-03    -26.9505E-03     54.3435E-03    -27.4078E-03     11.5049E-03    -1.26945E+06    -27.7637E+06    -110.671E+06    -27.7730E+06    -110.661E+06    -1.26945E+06     853.394E+03         26.3765
            1304     10.7059E-03     65.4340E-03     787.296E-03    -193.389E-03    -214.640E-03    -214.101E-03     786.757E-03    -193.389E-03    -24.4295E-03     54.6661E-03    -27.3094E-03    -27.4075E-03    -26.8813E-03     54.1605E-03    -27.3300E-03     12.8106E-03    -5.32340E+06    -25.7505E+06    -81.8510E+06    -25.7690E+06    -81.8324E+06    -5.32340E+06     950.642E+03         27.6354
            1305     11.6795E-03     65.4482E-03     790.218E-03    -194.896E-03    -216.374E-03    -216.001E-03     790.099E-03    -195.148E-03    -12.0131E-03     54.7063E-03    -27.2343E-03    -27.5000E-03    -26.7536E-03     53.9599E-03    -27.2343E-03     15.4916E-03    -9.43506E+06    -22.1615E+06    -44.9440E+06    -24.2719E+06    -42.8336E+06    -9.43506E+06     904.377E+03         29.2409
            1306     12.6534E-03     65.4666E-03     801.432E-03    -196.762E-03    -226.340E-03    -225.241E-03     800.585E-03    -197.015E-03     30.5946E-03     54.8937E-03    -27.1054E-03    -27.8011E-03    -26.5948E-03     53.6874E-03    -27.1054E-03     19.6843E-03     17.0217E+06    -17.4468E+06    -23.2151E+06    -23.1357E+06     12.6964E+06    -13.2010E+06     758.570E+03         31.1790
            1307     13.6270E-03     65.4896E-03     818.793E-03    -199.362E-03    -240.158E-03    -238.269E-03     816.904E-03    -199.362E-03    -8.05458E-03     55.6889E-03    -26.9638E-03    -28.7485E-03    -26.3958E-03     53.3362E-03    -26.9638E-03     27.3277E-03     95.5537E+06    -11.1652E+06    -22.3029E+06    -22.2919E+06     95.5428E+06    -11.1652E+06     1.01044E+06         33.5529
            1308     14.6013E-03     65.5241E-03     828.820E-03    -202.003E-03    -245.291E-03    -243.737E-03     827.266E-03    -202.003E-03    -19.8840E-03     55.6672E-03    -27.0176E-03    -28.6761E-03    -26.0332E-03     53.0242E-03    -27.0176E-03     29.2342E-03     154.622E+06     23.4823E+06    -20.5918E+06    -20.5829E+06     154.613E+06     23.4823E+06     1.15561E+06         36.5732
            1309     15.5756E-03     65.5512E-03     833.068E-03    -204.504E-03    -245.539E-03    -245.065E-03     832.594E-03    -204.504E-03     14.3853E-03     57.2366E-03    -27.2525E-03    -29.9970E-03    -25.7902E-03     53.0297E-03    -27.2525E-03     36.1953E-03     176.577E+06     83.6798E+06    -16.1372E+06    -16.1323E+06     176.572E+06     83.6798E+06     959.350E+03         39.9843
            1310     16.5504E-03     65.6005E-03     831.289E-03    -206.614E-03    -241.630E-03    -240.656E-03     830.315E-03    -206.614E-03    -34.8022E-03     56.2684E-03    -26.4915E-03    -29.8396E-03    -25.5185E-03     52.9323E-03    -27.4765E-03     28.3649E-03     195.216E+06     137.130E+06    -8.74654E+06    -8.74455E+06     195.214E+06     137.130E+06     498.243E+03         42.9816
            1311     973.157E-06     66.4103E-03         1.88716    -210.663E-03        -1.29553    -140.391E-03     732.026E-03    -210.663E-03         1.09731     55.0064E-03    -27.4428E-03    -27.5647E-03    -27.5378E-03     54.9958E-03    -27.4592E-03     1.70547E-03    -63.6915E+06    -66.9118E+06    -264.794E+06    -66.6484E+06    -264.790E+06    -63.9581E+06     373.880E+03         24.0234
            1312     1.94607E-03     66.4128E-03         1.15209    -174.264E-03    -596.495E-03    -168.756E-03     724.348E-03    -174.264E-03    -470.772E-03     55.0188E-03    -27.4873E-03    -27.5326E-03    -27.4546E-03     54.9861E-03    -27.5326E-03     3.20084E-03    -55.3205E+06    -63.0106E+06    -261.859E+06    -63.0121E+06    -261.858E+06    -55.3205E+06     119.101E+03         24.0546
            1313     2.91929E-03     66.4169E-03     912.480E-03    -177.136E-03    -356.468E-03    -202.057E-03     758.069E-03    -177.136E-03     187.895E-03     55.0615E-03    -27.4996E-03    -27.5618E-03    -27.4346E-03     54.9965E-03    -27.5618E-03     4.58687E-03    -44.8087E+06    -59.0001E+06    -254.706E+06    -59.0021E+06    -254.704E+06    -44.8087E+06     406.319E+03         24.1152
            1314     3.89243E-03     66.4224E-03     830.199E-03    -184.585E-03    -270.722E-03    -210.412E-03     769.890E-03    -184.585E-03    -143.986E-03     55.0919E-03    -27.4977E-03    -27.5930E-03    -27.3947E-03     54.9888E-03    -27.5930E-03     5.80203E-03    -32.1486E+06    -53.9315E+06    -245.118E+06    -53.9336E+06    -245.116E+06    -32.1486E+06     549.412E+03         24.2072
            1315     4.86555E-03     66.4290E-03     775.178E-03    -179.623E-03    -222.095E-03    -186.925E-03     748.148E-03    -187.763E-03     21.1606E-03     55.0830E-03    -27.4737E-03    -27.6080E-03    -27.3303E-03     54.9395E-03    -27.6080E-03     6.85950E-03    -21.1096E+06    -48.4606E+06    -229.058E+06    -48.4651E+06    -229.054E+06    -21.1096E+06     835.636E+03         24.3292
            1316     5.83886E-03     66.4368E-03     743.778E-03    -175.938E-03    -194.184E-03    -168.376E-03     728.217E-03    -186.184E-03    -80.6988E-03     55.0458E-03    -27.4486E-03    -27.5953E-03    -27.2653E-03     54.8625E-03    -27.5953E-03     7.75747E-03    -12.6407E+06    -43.1348E+06    -207.480E+06    -43.1399E+06    -207.474E+06    -12.6407E+06     903.996E+03         24.4797
            1317     6.81210E-03     66.4453E-03     753.768E-03    -183.060E-03    -197.321E-03    -192.354E-03     750.907E-03    -185.167E-03     60.7409E-03     54.9772E-03    -27.4124E-03    -27.5640E-03    -27.1882E-03     54.7530E-03    -27.5640E-03     8.57420E-03    -6.27792E+06    -38.3143E+06    -184.873E+06    -38.3179E+06    -184.869E+06    -6.27792E+06     725.318E+03         24.6623
            1318     7.78549E-03     66.4549E-03     764.220E-03    -186.525E-03    -202.107E-03    -201.144E-03     763.257E-03    -186.525E-03     20.6280E-03     54.9140E-03    -27.3927E-03    -27.5207E-03    -27.1185E-03     54.6398E-03    -27.5207E-03     9.47275E-03    -3.00182E+06    -34.2831E+06    -161.283E+06    -34.2885E+06    -161.277E+06    -3.00182E+06     806.599E+03         24.9470
            1319     8.75893E-03     66.4652E-03     750.186E-03    -182.254E-03    -193.401E-03    -187.454E-03     749.354E-03    -187.368E-03     26.1671E-03     54.8688E-03    -27.3926E-03    -27.4664E-03    -27.0558E-03     54.5320E-03    -27.4664E-03     10.4921E-03    -1.13155E+06    -30.9328E+06    -136.642E+06    -30.9424E+06    -136.633E+06    -1.13155E+06     984.852E+03         25.4848
            1320     9.73229E-03     66.4768E-03     756.321E-03    -182.646E-03    -202.139E-03    -196.879E-03     756.176E-03    -187.760E-03     12.1638E-03     54.7680E-03    -27.3684E-03    -27.4138E-03    -26.9754E-03     54.3669E-03    -27.4056E-03     11.4443E-03    -1.52147E+06    -28.2490E+06    -110.883E+06    -28.2659E+06    -110.867E+06    -1.52147E+06     1.14096E+06         26.3801
            1321     10.7059E-03     66.4892E-03     772.959E-03    -189.192E-03    -212.304E-03    -212.094E-03     772.749E-03    -189.192E-03     4.18308E-03     54.6932E-03    -27.3160E-03    -27.4251E-03    -26.9087E-03     54.1911E-03    -27.3303E-03     12.7692E-03    -5.58032E+06    -26.2240E+06    -81.8866E+06    -26.2466E+06    -81.8639E+06    -5.58032E+06     1.10138E+06         27.6411
            1322     11.6794E-03     66.5038E-03     771.577E-03    -190.654E-03    -209.030E-03    -208.693E-03     771.493E-03    -190.907E-03    -10.5154E-03     54.7268E-03    -27.2367E-03    -27.5184E-03    -26.7819E-03     53.9904E-03    -27.2367E-03     15.3972E-03    -9.83150E+06    -22.4182E+06    -45.3050E+06    -24.8336E+06    -42.8896E+06    -9.83150E+06     939.787E+03         29.2491
            1323     12.6531E-03     66.5216E-03     780.648E-03    -192.154E-03    -214.720E-03    -213.910E-03     780.091E-03    -192.407E-03     29.6874E-03     54.8764E-03    -27.1088E-03    -27.7816E-03    -26.5743E-03     53.6691E-03    -27.1088E-03     19.6691E-03     16.5408E+06    -17.5826E+06    -24.2523E+06    -24.1535E+06     12.5015E+06    -13.6421E+06     932.832E+03         31.1922
            1324     13.6272E-03     66.5453E-03     800.379E-03    -194.366E-03    -229.986E-03    -228.839E-03     799.231E-03    -194.366E-03    -4.44054E-03     55.6667E-03    -26.9636E-03    -28.7279E-03    -26.3809E-03     53.3197E-03    -26.9636E-03     27.3159E-03     95.0401E+06    -12.5498E+06    -23.6828E+06    -23.6684E+06     95.0258E+06    -12.5498E+06     1.04162E+06         33.5751
            1325     14.6012E-03     66.5792E-03     813.685E-03    -196.767E-03    -237.697E-03    -236.269E-03     812.257E-03    -196.767E-03     6.21478E-03     55.6907E-03    -27.0210E-03    -28.6916E-03    -26.0672E-03     53.0663E-03    -27.0210E-03     29.1459E-03     154.538E+06     23.7894E+06    -21.6510E+06    -21.6420E+06     154.529E+06     23.7894E+06     1.12592E+06         36.6053
            1326     15.5756E-03     66.6069E-03     820.222E-03    -199.170E-03    -240.687E-03    -239.809E-03     819.344E-03    -199.170E-03     30.4203E-03     57.2280E-03    -27.2606E-03    -29.9737E-03    -25.8025E-03     53.0568E-03    -27.2606E-03     36.0522E-03     177.018E+06     85.4939E+06    -16.6023E+06    -16.5978E+06     177.014E+06     85.4939E+06     776.120E+03         40.0241
            1327     16.5503E-03     66.6554E-03     841.663E-03    -202.009E-03    -262.442E-03    -261.157E-03     840.379E-03    -202.009E-03    -19.9845E-03     56.2259E-03    -26.4754E-03    -29.8100E-03    -25.4918E-03     52.9134E-03    -27.4810E-03     28.3637E-03     195.565E+06     137.340E+06    -8.94230E+06    -8.94122E+06     195.564E+06     137.340E+06     343.739E+03         43.0268
            1328     972.947E-06     67.4657E-03         1.73558    -154.500E-03        -1.20656    -250.332E-03     779.355E-03    -154.500E-03         1.02314     54.9535E-03    -27.4052E-03    -27.5490E-03    -27.5225E-03     54.9429E-03    -27.4212E-03     1.69139E-03    -62.8348E+06    -65.7332E+06    -264.810E+06    -65.3733E+06    -264.809E+06    -63.1955E+06     133.464E+03         24.0245
            1329     1.94628E-03     67.4681E-03         1.10559    -197.702E-03    -537.200E-03    -178.870E-03     747.259E-03    -197.702E-03    -381.320E-03     55.0089E-03    -27.4900E-03    -27.5206E-03    -27.4638E-03     54.9761E-03    -27.5139E-03     3.20876E-03    -55.3567E+06    -62.5758E+06    -262.385E+06    -62.5776E+06    -262.383E+06    -55.3567E+06     279.267E+03         24.0550
            1330     2.91926E-03     67.4723E-03     880.324E-03    -191.871E-03    -320.771E-03    -184.909E-03     744.463E-03    -191.871E-03     212.509E-03     55.0728E-03    -27.5144E-03    -27.5592E-03    -27.4537E-03     55.0087E-03    -27.5558E-03     4.55831E-03    -44.3908E+06    -58.5228E+06    -255.397E+06    -58.5266E+06    -255.394E+06    -44.3908E+06     665.525E+03         24.1143
            1331     3.89240E-03     67.4777E-03     771.198E-03    -176.876E-03    -228.291E-03    -167.246E-03     721.385E-03    -188.108E-03    -104.998E-03     55.0823E-03    -27.4926E-03    -27.5888E-03    -27.3908E-03     54.9804E-03    -27.5888E-03     5.76597E-03    -32.1981E+06    -54.0459E+06    -245.492E+06    -54.0514E+06    -245.487E+06    -32.1981E+06     910.662E+03         24.2053
            1332     4.86565E-03     67.4844E-03     721.748E-03    -162.976E-03    -190.579E-03    -151.474E-03     702.014E-03    -182.348E-03     65.6045E-03     55.0729E-03    -27.4696E-03    -27.6023E-03    -27.3272E-03     54.9305E-03    -27.6023E-03     6.83385E-03    -21.4718E+06    -48.8083E+06    -229.341E+06    -48.8127E+06    -229.336E+06    -21.4718E+06     860.516E+03         24.3276
            1333     5.83887E-03     67.4921E-03     736.132E-03    -169.709E-03    -197.286E-03    -179.509E-03     727.849E-03    -179.202E-03    -18.1459E-03     55.0517E-03    -27.4606E-03    -27.5896E-03    -27.2778E-03     54.8689E-03    -27.5896E-03     7.74680E-03    -13.1791E+06    -43.5021E+06    -207.695E+06    -43.5065E+06    -207.690E+06    -13.1791E+06     820.681E+03         24.4792
            1334     6.81212E-03     67.5008E-03     749.864E-03    -177.077E-03    -200.541E-03    -193.836E-03     746.239E-03    -180.157E-03     46.8674E-03     55.0046E-03    -27.4399E-03    -27.5633E-03    -27.2159E-03     54.7805E-03    -27.5633E-03     8.57435E-03    -6.69871E+06    -38.8667E+06    -184.918E+06    -38.8722E+06    -184.912E+06    -6.69871E+06     886.136E+03         24.6619
            1335     7.78544E-03     67.5101E-03     739.418E-03    -179.663E-03    -188.060E-03    -185.835E-03     738.919E-03    -181.389E-03    -29.0121E-03     54.9181E-03    -27.3908E-03    -27.5238E-03    -27.1179E-03     54.6452E-03    -27.5238E-03     9.44963E-03    -3.38007E+06    -34.6681E+06    -161.681E+06    -34.6751E+06    -161.674E+06    -3.38007E+06     931.017E+03         24.9461
            1336     8.75886E-03     67.5207E-03     742.925E-03    -182.242E-03    -193.195E-03    -193.067E-03     742.797E-03    -182.242E-03    -12.1409E-03     54.8526E-03    -27.3751E-03    -27.4666E-03    -27.0393E-03     54.5168E-03    -27.4666E-03     10.4740E-03    -1.70055E+06    -31.0353E+06    -137.128E+06    -31.0478E+06    -137.115E+06    -1.70055E+06     1.12796E+06         25.4833
            1337     9.73239E-03     67.5322E-03     743.805E-03    -183.027E-03    -195.353E-03    -194.729E-03     743.531E-03    -183.377E-03     1.82385E-03     54.7896E-03    -27.3836E-03    -27.4209E-03    -26.9985E-03     54.3901E-03    -27.4064E-03     11.4256E-03    -2.02496E+06    -28.2629E+06    -111.267E+06    -28.2839E+06    -111.246E+06    -2.02496E+06     1.29487E+06         26.3777
            1338     10.7057E-03     67.5447E-03     754.133E-03    -184.458E-03    -205.246E-03    -204.671E-03     753.908E-03    -184.808E-03     2.42454E-03     54.7103E-03    -27.3324E-03    -27.4258E-03    -26.9224E-03     54.2069E-03    -27.3324E-03     12.7849E-03    -5.94268E+06    -26.1355E+06    -81.8314E+06    -26.1684E+06    -81.7984E+06    -5.94268E+06     1.28910E+06         27.6374
            1339     11.6794E-03     67.5590E-03     773.033E-03    -187.039E-03    -220.154E-03    -220.023E-03     772.902E-03    -187.039E-03    -21.4538E-03     54.7363E-03    -27.2385E-03    -27.5270E-03    -26.7877E-03     53.9971E-03    -27.2385E-03     15.4325E-03    -10.2157E+06    -22.7641E+06    -45.0772E+06    -24.8577E+06    -42.9836E+06    -10.2157E+06     1.20626E+06         29.2424
            1340     12.6532E-03     67.5772E-03     770.548E-03    -189.197E-03    -211.700E-03    -210.903E-03     769.750E-03    -189.197E-03     24.1150E-03     54.9101E-03    -27.1101E-03    -27.8161E-03    -26.6087E-03     53.7027E-03    -27.1101E-03     19.6780E-03     16.5887E+06    -18.3973E+06    -24.2686E+06    -24.0633E+06     12.2658E+06    -14.2796E+06     1.35179E+06         31.1864
            1341     13.6270E-03     67.6004E-03     770.371E-03    -190.502E-03    -207.185E-03    -205.723E-03     768.909E-03    -190.502E-03    -3.73282E-03     55.6767E-03    -26.9637E-03    -28.7411E-03    -26.3845E-03     53.3200E-03    -26.9637E-03     27.3658E-03     95.0615E+06    -13.8329E+06    -23.5280E+06    -23.5096E+06     95.0431E+06    -13.8329E+06     1.12902E+06         33.5794
            1342     14.6011E-03     67.6351E-03     790.914E-03    -192.061E-03    -226.772E-03    -225.428E-03     789.570E-03    -192.061E-03    -2.86103E-03     55.6823E-03    -27.0292E-03    -28.6839E-03    -26.0539E-03     53.0524E-03    -27.0292E-03     29.1650E-03     154.477E+06     23.2208E+06    -21.5290E+06    -21.5240E+06     154.472E+06     23.2208E+06     618.766E+03         36.6214
            1343     15.5755E-03     67.6619E-03     807.195E-03    -194.514E-03    -242.388E-03    -241.074E-03     805.881E-03    -194.514E-03     3.76454E-03     57.2704E-03    -27.2748E-03    -29.9887E-03    -25.8221E-03     53.1038E-03    -27.2748E-03     36.0418E-03     177.148E+06     86.1576E+06    -16.4459E+06    -16.4422E+06     177.144E+06     86.1576E+06     441.006E+03         40.0484
            1344     16.5501E-03     67.7111E-03     818.242E-03    -197.492E-03    -254.614E-03    -253.157E-03     816.785E-03    -197.492E-03     9.93109E-03     56.2238E-03    -26.4348E-03    -29.8283E-03    -25.4628E-03     52.9116E-03    -27.4881E-03     28.3735E-03     195.822E+06     137.662E+06    -8.84955E+06    -8.84856E+06     195.821E+06     137.662E+06     339.904E+03         43.0573
            1345     973.303E-06     68.5208E-03         1.61450    -63.4426E-03        -1.18209    -303.687E-03     736.099E-03    -63.4426E-03     993.937E-03     54.9085E-03    -27.3790E-03    -27.5293E-03    -27.5184E-03     54.8976E-03    -27.3790E-03     1.73539E-03    -63.0386E+06    -66.5574E+06    -264.989E+06    -66.0922E+06    -264.988E+06    -63.5044E+06     157.410E+03         24.0264
            1346     1.94613E-03     68.5235E-03         1.07545    -188.557E-03    -524.748E-03    -208.883E-03     759.582E-03    -188.557E-03    -321.155E-03     55.0450E-03    -27.4957E-03    -27.5497E-03    -27.5025E-03     55.0128E-03    -27.5107E-03     3.18749E-03    -54.6885E+06    -62.7603E+06    -262.794E+06    -62.7610E+06    -262.793E+06    -54.6885E+06     314.615E+03         24.0564
            1347     2.91927E-03     68.5276E-03     845.298E-03    -188.810E-03    -294.443E-03    -165.798E-03     717.446E-03    -189.603E-03     233.454E-03     55.0716E-03    -27.5078E-03    -27.5632E-03    -27.4475E-03     55.0079E-03    -27.5598E-03     4.53769E-03    -44.4078E+06    -58.5857E+06    -256.728E+06    -58.5914E+06    -256.722E+06    -44.4078E+06     883.313E+03         24.1143
            1348     3.89244E-03     68.5331E-03     722.055E-03    -168.286E-03    -193.798E-03    -138.273E-03     678.554E-03    -180.310E-03    -98.9600E-03     55.0958E-03    -27.5021E-03    -27.5917E-03    -27.4008E-03     54.9944E-03    -27.5917E-03     5.75529E-03    -31.8354E+06    -53.5752E+06    -245.776E+06    -53.5844E+06    -245.767E+06    -31.8354E+06     1.32128E+06         24.2048
            1349     4.86558E-03     68.5397E-03     724.429E-03    -163.617E-03    -201.347E-03    -173.128E-03     707.442E-03    -174.849E-03     34.1896E-03     55.0885E-03    -27.4824E-03    -27.6054E-03    -27.3420E-03     54.9481E-03    -27.6054E-03     6.78744E-03    -21.3530E+06    -48.2927E+06    -229.164E+06    -48.2985E+06    -229.159E+06    -21.3530E+06     984.200E+03         24.3270
            1350     5.83883E-03     68.5475E-03     747.532E-03    -171.399E-03    -211.193E-03    -199.307E-03     740.836E-03    -176.589E-03    -62.6277E-03     55.0444E-03    -27.4528E-03    -27.5912E-03    -27.2709E-03     54.8625E-03    -27.5912E-03     7.72460E-03    -13.4825E+06    -43.3409E+06    -208.053E+06    -43.3452E+06    -208.049E+06    -13.4825E+06     800.194E+03         24.4782
            1351     6.81214E-03     68.5561E-03     733.092E-03    -168.519E-03    -195.533E-03    -183.396E-03     731.264E-03    -178.827E-03     3.90737E-03     54.9920E-03    -27.4280E-03    -27.5623E-03    -27.2038E-03     54.7678E-03    -27.5623E-03     8.57632E-03    -7.03884E+06    -38.5240E+06    -185.258E+06    -38.5302E+06    -185.251E+06    -7.03884E+06     923.645E+03         24.6606
            1352     7.78545E-03     68.5656E-03     722.056E-03    -173.791E-03    -181.287E-03    -175.220E-03     721.108E-03    -178.909E-03    -21.0894E-03     54.9339E-03    -27.4051E-03    -27.5229E-03    -27.1322E-03     54.6610E-03    -27.5229E-03     9.45232E-03    -3.69205E+06    -34.3564E+06    -161.935E+06    -34.3652E+06    -161.926E+06    -3.69205E+06     1.05365E+06         24.9441
            1353     8.75884E-03     68.5759E-03     732.735E-03    -179.262E-03    -190.633E-03    -190.267E-03     732.369E-03    -179.262E-03    -488.351E-06     54.8730E-03    -27.3942E-03    -27.4654E-03    -27.0548E-03     54.5336E-03    -27.4654E-03     10.5294E-03    -2.26762E+06    -30.8848E+06    -137.459E+06    -30.8961E+06    -137.448E+06    -2.26762E+06     1.08123E+06         25.4788
            1354     9.73223E-03     68.5878E-03     738.800E-03    -180.354E-03    -198.371E-03    -197.866E-03     738.645E-03    -180.704E-03    -11.6230E-03     54.7788E-03    -27.3792E-03    -27.4122E-03    -26.9819E-03     54.3751E-03    -27.4059E-03     11.4833E-03    -2.37428E+06    -27.7442E+06    -111.522E+06    -27.7595E+06    -111.507E+06    -2.37428E+06     1.10044E+06         26.3699
            1355     10.7059E-03     68.6000E-03     740.379E-03    -181.887E-03    -200.096E-03    -199.634E-03     740.357E-03    -182.327E-03     137.304E-06     54.7018E-03    -27.3239E-03    -27.4258E-03    -26.9129E-03     54.1961E-03    -27.3310E-03     12.8121E-03    -6.15376E+06    -25.2788E+06    -82.1421E+06    -25.3133E+06    -82.1076E+06    -6.15376E+06     1.28174E+06         27.6255
            1356     11.6794E-03     68.6146E-03     749.337E-03    -183.810E-03    -203.730E-03    -203.586E-03     749.283E-03    -183.900E-03    -9.24640E-03     54.7595E-03    -27.2372E-03    -27.5508E-03    -26.8075E-03     54.0162E-03    -27.2372E-03     15.4795E-03    -10.1175E+06    -22.0114E+06    -44.9164E+06    -23.8522E+06    -43.0756E+06    -10.1175E+06     1.46791E+06         29.2241
            1357     12.6531E-03     68.6325E-03     761.470E-03    -185.567E-03    -210.464E-03    -209.367E-03     760.373E-03    -185.567E-03     39.3268E-03     54.9628E-03    -27.1084E-03    -27.8667E-03    -26.6538E-03     53.7499E-03    -27.1084E-03     19.7356E-03     16.6721E+06    -18.7447E+06    -23.2037E+06    -22.8898E+06     12.1579E+06    -14.5444E+06     1.21592E+06         31.1666
            1358     13.6269E-03     68.6561E-03     770.882E-03    -187.505E-03    -220.275E-03    -218.236E-03     768.843E-03    -187.505E-03     1.14770E-03     55.6776E-03    -26.9579E-03    -28.7438E-03    -26.3751E-03     53.3089E-03    -26.9579E-03     27.4286E-03     95.1537E+06    -14.6431E+06    -22.0744E+06    -22.0608E+06     95.1401E+06    -14.6431E+06     1.11797E+06         33.5705
            1359     14.6012E-03     68.6902E-03     772.600E-03    -189.597E-03    -222.170E-03    -220.939E-03     771.369E-03    -189.597E-03    -21.7286E-03     55.6606E-03    -27.0204E-03    -28.6605E-03    -25.9988E-03     52.9989E-03    -27.0204E-03     29.3373E-03     154.836E+06     20.7280E+06    -20.6916E+06    -20.6852E+06     154.830E+06     20.7280E+06     765.280E+03         36.6264
            1360     15.5755E-03     68.7178E-03     776.940E-03    -191.690E-03    -228.049E-03    -227.131E-03     776.021E-03    -191.690E-03    -6.13175E-03     57.3071E-03    -27.2721E-03    -30.0240E-03    -25.8294E-03     53.1126E-03    -27.2721E-03     36.2151E-03     177.074E+06     84.2709E+06    -16.5495E+06    -16.5473E+06     177.072E+06     84.2709E+06     330.887E+03         40.0627
            1361     16.5501E-03     68.7661E-03     773.484E-03    -193.605E-03    -224.912E-03    -223.865E-03     772.438E-03    -193.605E-03    -10.2148E-03     56.2500E-03    -26.4457E-03    -29.8558E-03    -25.4947E-03     52.9345E-03    -27.4913E-03     28.3810E-03     196.021E+06     138.177E+06    -8.96068E+06    -8.95977E+06     196.021E+06     138.177E+06     310.967E+03         43.0778
            1362     973.079E-06     69.5763E-03         1.44018    -15.2305E-03        -1.07392    -328.602E-03     694.864E-03    -15.2305E-03     878.206E-03     54.9769E-03    -27.3944E-03    -27.5826E-03    -27.5487E-03     54.9656E-03    -27.4171E-03     1.82130E-03    -63.1772E+06    -66.1316E+06    -265.452E+06    -66.0268E+06    -265.452E+06    -63.2822E+06     41.3793E+03         24.0291
            1363     1.94617E-03     69.5789E-03     972.913E-03    -173.080E-03    -452.521E-03    -177.907E-03     698.299E-03    -173.080E-03    -300.418E-03     55.0467E-03    -27.4831E-03    -27.5622E-03    -27.4843E-03     55.0156E-03    -27.5299E-03     3.12834E-03    -55.0597E+06    -63.0812E+06    -263.485E+06    -63.0837E+06    -263.483E+06    -55.0597E+06     506.564E+03         24.0581
            1364     2.91928E-03     69.5829E-03     803.872E-03    -172.831E-03    -279.420E-03    -170.008E-03     695.252E-03    -173.623E-03     162.885E-03     55.0817E-03    -27.5096E-03    -27.5698E-03    -27.4464E-03     55.0185E-03    -27.5698E-03     4.51515E-03    -44.6302E+06    -58.8769E+06    -257.707E+06    -58.8826E+06    -257.701E+06    -44.6302E+06     974.704E+03         24.1149
            1365     3.89238E-03     69.5886E-03     746.967E-03    -172.758E-03    -219.761E-03    -178.032E-03     706.031E-03    -173.551E-03    -110.209E-03     55.1010E-03    -27.5036E-03    -27.5955E-03    -27.4022E-03     54.9996E-03    -27.5955E-03     5.75713E-03    -32.5820E+06    -53.5667E+06    -246.231E+06    -53.5741E+06    -246.224E+06    -32.5820E+06     1.14955E+06         24.2045
            1366     4.86553E-03     69.5952E-03     750.672E-03    -174.449E-03    -218.284E-03    -202.945E-03     737.636E-03    -176.751E-03     39.9183E-03     55.0904E-03    -27.4829E-03    -27.6074E-03    -27.3417E-03     54.9492E-03    -27.6074E-03     6.80618E-03    -22.0019E+06    -48.2834E+06    -229.065E+06    -48.2903E+06    -229.058E+06    -22.0019E+06     1.11830E+06         24.3259
            1367     5.83879E-03     69.6028E-03     718.966E-03    -162.168E-03    -195.430E-03    -173.204E-03     713.481E-03    -178.909E-03    -53.3672E-03     55.0360E-03    -27.4444E-03    -27.5922E-03    -27.2614E-03     54.8530E-03    -27.5922E-03     7.74816E-03    -13.8769E+06    -43.1846E+06    -208.009E+06    -43.1888E+06    -208.005E+06    -13.8769E+06     818.438E+03         24.4764
            1368     6.81210E-03     69.6115E-03     697.814E-03    -157.942E-03    -176.953E-03    -156.522E-03     696.395E-03    -176.953E-03     23.8565E-03     54.9649E-03    -27.4040E-03    -27.5599E-03    -27.1784E-03     54.7393E-03    -27.5599E-03     8.59928E-03    -7.60331E+06    -38.3509E+06    -185.834E+06    -38.3551E+06    -185.829E+06    -7.60331E+06     739.254E+03         24.6584
            1369     7.78552E-03     69.6209E-03     712.477E-03    -170.834E-03    -179.804E-03    -174.619E-03     711.864E-03    -175.406E-03     3.12074E-03     54.9317E-03    -27.4070E-03    -27.5200E-03    -27.1325E-03     54.6572E-03    -27.5200E-03     9.48018E-03    -3.92414E+06    -33.9682E+06    -162.197E+06    -33.9758E+06    -162.189E+06    -3.92414E+06     935.656E+03         24.9405
            1370     8.75882E-03     69.6315E-03     723.241E-03    -176.034E-03    -189.163E-03    -188.896E-03     722.973E-03    -176.034E-03     15.1146E-03     54.8833E-03    -27.4046E-03    -27.4649E-03    -27.0646E-03     54.5433E-03    -27.4649E-03     10.5401E-03    -2.00375E+06    -30.2092E+06    -137.403E+06    -30.2167E+06    -137.396E+06    -2.00375E+06     884.189E+03         25.4720
            1371     9.73236E-03     69.6430E-03     735.555E-03    -177.961E-03    -203.047E-03    -202.952E-03     735.460E-03    -177.961E-03     8.34448E-03     54.7717E-03    -27.3741E-03    -27.4108E-03    -26.9727E-03     54.3650E-03    -27.4055E-03     11.5238E-03    -2.16988E+06    -27.2133E+06    -111.755E+06    -27.2220E+06    -111.746E+06    -2.16988E+06     826.137E+03         26.3581
            1372     10.7058E-03     69.6555E-03     732.898E-03    -179.831E-03    -196.556E-03    -196.420E-03     732.852E-03    -179.921E-03     8.05726E-03     54.7112E-03    -27.3239E-03    -27.4359E-03    -26.9233E-03     54.2057E-03    -27.3311E-03     12.8161E-03    -5.87075E+06    -24.9076E+06    -82.5857E+06    -24.9278E+06    -82.5656E+06    -5.87075E+06     998.303E+03         27.6078
            1373     11.6795E-03     69.6699E-03     726.574E-03    -180.833E-03    -188.074E-03    -187.983E-03     726.573E-03    -180.923E-03     1.64289E-03     54.7674E-03    -27.2386E-03    -27.5556E-03    -26.8118E-03     54.0236E-03    -27.2386E-03     15.4773E-03    -9.58258E+06    -21.5963E+06    -45.0253E+06    -23.2324E+06    -43.3892E+06    -9.58258E+06     1.28125E+06         29.1991
            1374     12.6531E-03     69.6881E-03     754.888E-03    -182.473E-03    -216.704E-03    -216.099E-03     754.284E-03    -182.473E-03     35.8491E-03     54.9444E-03    -27.1109E-03    -27.8435E-03    -26.6211E-03     53.7219E-03    -27.1109E-03     19.8073E-03     16.8169E+06    -17.9573E+06    -22.9027E+06    -22.5364E+06     12.1648E+06    -13.6716E+06     1.46596E+06         31.1399
            1375     13.6270E-03     69.7113E-03     773.690E-03    -185.417E-03    -234.460E-03    -232.603E-03     771.834E-03    -185.417E-03    -15.3838E-03     55.6484E-03    -26.9613E-03    -28.7063E-03    -26.3392E-03     53.2813E-03    -26.9613E-03     27.4225E-03     95.0312E+06    -13.3292E+06    -22.5912E+06    -22.5637E+06     95.0037E+06    -13.3292E+06     1.29893E+06         33.5544
            1376     14.6012E-03     69.7456E-03     754.596E-03    -187.886E-03    -214.438E-03    -212.885E-03     753.043E-03    -187.886E-03    -26.5961E-03     55.6438E-03    -27.0162E-03    -28.6458E-03    -25.9706E-03     52.9686E-03    -27.0162E-03     29.4208E-03     155.240E+06     21.2527E+06    -21.1127E+06    -21.1057E+06     155.233E+06     21.2527E+06     1.08150E+06         36.6247
            1377     15.5757E-03     69.7731E-03     752.772E-03    -189.413E-03    -214.251E-03    -213.945E-03     752.467E-03    -189.413E-03     20.5493E-03     57.2745E-03    -27.2619E-03    -30.0115E-03    -25.8055E-03     53.0685E-03    -27.2619E-03     36.2953E-03     177.455E+06     83.7453E+06    -16.5304E+06    -16.5275E+06     177.452E+06     83.7453E+06     553.580E+03         40.0712
            1378     16.5503E-03     69.8219E-03     777.475E-03    -191.410E-03    -237.011E-03    -235.568E-03     776.032E-03    -191.410E-03    -44.3641E-03     56.2340E-03    -26.4646E-03    -29.8342E-03    -25.5074E-03     52.9271E-03    -27.4844E-03     28.3499E-03     196.118E+06     137.951E+06    -8.93066E+06    -8.93060E+06     196.118E+06     137.951E+06     73.8948E+03         43.0922
            1379     972.951E-06     70.6316E-03         1.23045     56.4365E-03    -953.129E-03    -377.342E-03     654.659E-03     56.4365E-03     793.545E-03     55.0684E-03    -27.4494E-03    -27.6193E-03    -27.5604E-03     55.0571E-03    -27.4969E-03     1.80801E-03    -62.9450E+06    -65.3789E+06    -266.091E+06    -65.3858E+06    -266.084E+06    -62.9450E+06     913.551E+03         24.0309
            1380     1.94612E-03     70.6342E-03     852.866E-03    -158.438E-03    -360.998E-03    -150.755E-03     642.624E-03    -158.438E-03    -227.950E-03     55.0448E-03    -27.4876E-03    -27.5565E-03    -27.4561E-03     55.0132E-03    -27.5565E-03     3.15212E-03    -55.7132E+06    -62.9293E+06    -264.290E+06    -62.9351E+06    -264.284E+06    -55.7132E+06     818.808E+03         24.0588
            1381     2.91917E-03     70.6383E-03     772.362E-03    -161.748E-03    -272.787E-03    -193.376E-03     692.951E-03    -161.748E-03     135.412E-03     55.0979E-03    -27.5158E-03    -27.5812E-03    -27.4524E-03     55.0345E-03    -27.5812E-03     4.52283E-03    -44.8774E+06    -58.6893E+06    -258.156E+06    -58.6941E+06    -258.152E+06    -44.8774E+06     838.023E+03         24.1149
            1382     3.89233E-03     70.6438E-03     753.663E-03    -171.340E-03    -238.253E-03    -206.079E-03     721.489E-03    -171.340E-03    -55.5715E-03     55.0841E-03    -27.4828E-03    -27.6013E-03    -27.3807E-03     54.9819E-03    -27.6013E-03     5.77636E-03    -33.0888E+06    -53.7664E+06    -246.729E+06    -53.7722E+06    -246.723E+06    -33.0888E+06     1.02832E+06         24.2036
            1383     4.86560E-03     70.6506E-03     718.548E-03    -168.618E-03    -200.305E-03    -179.089E-03     704.673E-03    -175.960E-03     75.0809E-03     55.0627E-03    -27.4573E-03    -27.6063E-03    -27.3143E-03     54.9197E-03    -27.6063E-03     6.84520E-03    -22.4767E+06     -48.417E+06    -229.107E+06    -48.4219E+06    -229.102E+06    -22.4767E+06     909.673E+03         24.3245
            1384     5.83880E-03     70.6583E-03     687.775E-03    -158.034E-03    -175.990E-03    -155.545E-03     683.921E-03    -174.625E-03    -36.9021E-03     55.0345E-03    -27.4445E-03    -27.5898E-03    -27.2602E-03     54.8503E-03    -27.5898E-03     7.77542E-03    -14.0806E+06    -43.1769E+06    -207.964E+06    -43.1797E+06    -207.961E+06    -14.0806E+06     652.355E+03         24.4750
            1385     6.81215E-03     70.6668E-03     695.136E-03    -162.007E-03    -176.274E-03    -164.777E-03     694.069E-03    -172.436E-03     43.8916E-03     54.9826E-03    -27.4214E-03    -27.5593E-03    -27.1950E-03     54.7562E-03    -27.5593E-03     8.61666E-03    -7.69619E+06    -38.4038E+06    -185.918E+06    -38.4056E+06    -185.916E+06    -7.69619E+06     495.333E+03         24.6569
            1386     7.78546E-03     70.6763E-03     710.902E-03    -171.265E-03    -183.181E-03    -181.777E-03     710.677E-03    -172.445E-03     1.44275E-03     54.9274E-03    -27.4059E-03    -27.5197E-03    -27.1307E-03     54.6522E-03    -27.5197E-03     9.49168E-03    -4.06567E+06    -34.0245E+06    -162.410E+06     -34.027E+06    -162.408E+06    -4.06567E+06     447.342E+03         24.9372
            1387     8.75888E-03     70.6868E-03     721.272E-03    -174.092E-03    -193.557E-03    -193.390E-03     721.105E-03    -174.092E-03    -5.01261E-03     54.8734E-03    -27.3969E-03    -27.4658E-03    -27.0597E-03     54.5361E-03    -27.4658E-03     10.4983E-03    -1.93790E+06    -30.1502E+06    -137.622E+06    -30.1540E+06    -137.618E+06    -1.93790E+06     547.005E+03         25.4638
            1388     9.73231E-03     70.6984E-03     722.572E-03    -176.092E-03    -195.317E-03    -194.723E-03     721.978E-03    -176.092E-03    -9.02396E-03     54.7764E-03    -27.3805E-03    -27.4121E-03    -26.9821E-03     54.3726E-03    -27.4068E-03     11.4819E-03    -1.88321E+06    -27.1292E+06    -112.020E+06    -27.1358E+06    -112.013E+06    -1.88321E+06     714.960E+03         26.3435
            1389     10.7059E-03     70.7110E-03     719.476E-03    -177.703E-03    -193.629E-03    -192.879E-03     718.726E-03    -177.703E-03    -27.6494E-03     54.7063E-03    -27.3275E-03    -27.4291E-03    -26.9174E-03     54.1986E-03    -27.3315E-03     12.8412E-03    -5.71087E+06    -25.0651E+06    -82.9345E+06    -25.0806E+06    -82.9190E+06    -5.71087E+06     884.024E+03         27.5863
            1390     11.6793E-03     70.7254E-03     727.792E-03    -179.339E-03    -202.417E-03    -202.232E-03     727.608E-03    -179.339E-03    -12.0398E-03     54.7413E-03    -27.2378E-03    -27.5309E-03    -26.7856E-03     53.9960E-03    -27.2378E-03     15.4919E-03    -9.52639E+06    -22.2982E+06    -45.0296E+06    -23.5561E+06    -43.7718E+06    -9.52639E+06     960.083E+03         29.1704
            1391     12.6532E-03     70.7433E-03     740.947E-03    -181.483E-03    -213.733E-03    -212.512E-03     739.727E-03    -181.483E-03     45.5640E-03     54.8814E-03    -27.1093E-03    -27.7868E-03    -26.5646E-03     53.6592E-03    -27.1093E-03     19.7889E-03     16.4537E+06    -17.9421E+06    -22.4274E+06    -22.1839E+06     11.4394E+06    -13.1713E+06     1.55254E+06         31.1100
            1392     13.6271E-03     70.7669E-03     743.732E-03    -183.593E-03    -213.091E-03    -210.282E-03     740.923E-03    -183.593E-03    -9.55786E-03     55.6149E-03    -26.9587E-03    -28.6764E-03    -26.3148E-03     53.2533E-03    -26.9587E-03     27.3896E-03     95.2518E+06    -11.9681E+06    -21.3443E+06    -21.3006E+06     95.2080E+06    -11.9681E+06     1.82697E+06         33.5347
            1393     14.6014E-03     70.8007E-03     748.772E-03    -185.480E-03    -217.625E-03    -215.654E-03     746.802E-03    -185.480E-03    -27.1148E-03     55.6683E-03    -27.0114E-03    -28.6679E-03    -25.9906E-03     52.9910E-03    -27.0114E-03     29.4480E-03     155.727E+06     21.8447E+06    -19.9633E+06    -19.9526E+06     155.716E+06     21.8447E+06     1.21548E+06         36.6194
            1394     15.5757E-03     70.8286E-03     756.501E-03    -187.594E-03    -225.271E-03    -224.821E-03     756.050E-03    -187.594E-03     18.3267E-03     57.2330E-03    -27.2516E-03    -29.9739E-03    -25.7606E-03     53.0198E-03    -27.2516E-03     36.3166E-03     177.897E+06     83.0726E+06    -15.8042E+06    -15.8005E+06     177.894E+06     83.0726E+06     749.807E+03         40.0765
            1395     16.5505E-03     70.8769E-03     786.151E-03    -190.406E-03    -250.264E-03    -247.219E-03     783.106E-03    -190.406E-03    -8.86340E-03     56.2239E-03    -26.5010E-03    -29.7798E-03    -25.5018E-03     52.9178E-03    -27.4730E-03     28.3261E-03     196.487E+06     137.423E+06    -8.76041E+06    -8.75909E+06     196.486E+06     137.423E+06     274.299E+03         43.1030
            1396     973.031E-06     71.6869E-03         1.13413     158.039E-03    -969.983E-03    -462.102E-03     626.248E-03     158.039E-03     686.670E-03     55.0643E-03    -27.4687E-03    -27.5958E-03    -27.5598E-03     55.0531E-03    -27.4935E-03     1.75350E-03    -63.2579E+06    -66.1616E+06    -267.504E+06    -65.5455E+06    -267.497E+06    -63.8815E+06     1.09380E+06         24.0304
            1397     1.94606E-03     71.6896E-03     838.561E-03    -155.216E-03    -356.271E-03    -167.960E-03     650.250E-03    -155.216E-03    -256.034E-03     55.0677E-03    -27.5032E-03    -27.5638E-03    -27.4765E-03     55.0346E-03    -27.5574E-03     3.23391E-03    -55.8827E+06    -62.9699E+06    -264.715E+06    -62.9775E+06    -264.708E+06    -55.8827E+06     1.02623E+06         24.0584
            1398     2.91921E-03     71.6937E-03     732.599E-03    -161.358E-03    -239.296E-03    -178.895E-03     672.198E-03    -161.358E-03     152.342E-03     55.0903E-03    -27.5060E-03    -27.5832E-03    -27.4414E-03     55.0256E-03    -27.5832E-03     4.57344E-03    -45.4201E+06    -59.3128E+06    -258.761E+06    -59.3191E+06    -258.755E+06    -45.4201E+06     957.193E+03         24.1145
            1399     3.89235E-03     71.6992E-03     712.741E-03    -167.209E-03    -209.993E-03    -190.707E-03     693.455E-03    -167.209E-03    -38.2963E-03     55.0813E-03    -27.4789E-03    -27.6020E-03    -27.3762E-03     54.9786E-03    -27.6020E-03     5.79091E-03    -33.1859E+06    -54.3320E+06    -246.773E+06    -54.3361E+06    -246.769E+06    -33.1859E+06     815.449E+03         24.2033
            1400     4.86552E-03     71.7059E-03     694.049E-03    -165.176E-03    -188.085E-03    -171.205E-03     682.209E-03    -170.215E-03     23.3122E-03     55.0511E-03    -27.4476E-03    -27.6039E-03    -27.3045E-03     54.9080E-03    -27.6039E-03     6.84940E-03    -22.7898E+06    -48.7268E+06    -229.036E+06    -48.7287E+06    -229.035E+06    -22.7898E+06     511.859E+03         24.3243
            1401     5.83890E-03     71.7136E-03     680.802E-03    -162.125E-03    -172.724E-03    -160.759E-03     676.271E-03    -169.560E-03    -65.9458E-03     55.0416E-03    -27.4511E-03    -27.5894E-03    -27.2676E-03     54.8581E-03    -27.5894E-03     7.76113E-03    -14.3052E+06    -43.3370E+06    -208.089E+06    -43.3378E+06    -208.089E+06    -14.3052E+06     334.489E+03         24.4746
            1402     6.81210E-03     71.7222E-03     692.506E-03    -166.806E-03    -177.849E-03    -174.651E-03     691.703E-03    -169.202E-03     45.1245E-03     55.0089E-03    -27.4464E-03    -27.5613E-03    -27.2210E-03     54.7835E-03    -27.5613E-03     8.60009E-03    -7.64368E+06    -38.3620E+06    -185.678E+06    -38.3625E+06    -185.678E+06    -7.64368E+06     219.245E+03         24.6565
            1403     7.78545E-03     71.7317E-03     711.380E-03    -170.897E-03    -192.666E-03    -191.996E-03     710.710E-03    -170.897E-03     17.7037E-03     54.9277E-03    -27.4075E-03    -27.5213E-03    -27.1336E-03     54.6539E-03    -27.5213E-03     9.46959E-03    -4.19267E+06    -34.0817E+06    -162.514E+06    -34.0819E+06    -162.513E+06    -4.19267E+06     82.8941E+03         24.9348
            1404     8.75885E-03     71.7422E-03     716.696E-03    -173.507E-03    -197.134E-03    -196.930E-03     716.492E-03    -173.507E-03    -1.04634E-03     54.8747E-03    -27.3997E-03    -27.4676E-03    -27.0617E-03     54.5367E-03    -27.4676E-03     10.5086E-03    -2.32131E+06    -30.5581E+06    -138.144E+06    -30.5595E+06    -138.142E+06    -2.32131E+06     251.359E+03         25.4551
            1405     9.73229E-03     71.7539E-03     709.768E-03    -175.521E-03    -190.521E-03    -189.938E-03     709.185E-03    -175.521E-03    -13.9936E-03     54.7812E-03    -27.3888E-03    -27.4086E-03    -26.9867E-03     54.3792E-03    -27.4086E-03     11.4606E-03    -2.13489E+06    -27.5474E+06    -112.233E+06    -27.5526E+06    -112.227E+06    -2.13489E+06     623.424E+03         26.3271
            1406     10.7058E-03     71.7663E-03     716.787E-03    -177.206E-03    -199.188E-03    -198.461E-03     716.060E-03    -177.206E-03    -30.8002E-03     54.6673E-03    -27.3240E-03    -27.3935E-03    -26.8794E-03     54.1614E-03    -27.3322E-03     12.8075E-03    -5.79283E+06    -25.2489E+06    -83.2122E+06    -25.2624E+06    -83.1988E+06    -5.79283E+06     813.375E+03         27.5626
            1407     11.6796E-03     71.7808E-03     721.759E-03    -179.307E-03    -206.669E-03    -206.460E-03     721.550E-03    -179.307E-03    -10.2707E-03     54.7003E-03    -27.2351E-03    -27.4947E-03    -26.7513E-03     53.9568E-03    -27.2351E-03     15.4711E-03    -9.78303E+06    -22.3726E+06    -45.6933E+06    -23.8833E+06    -44.1826E+06    -9.78303E+06     1.02517E+06         29.1395
            1408     12.6531E-03     71.7987E-03     708.406E-03    -178.918E-03    -194.065E-03    -190.667E-03     706.897E-03    -180.806E-03     49.1539E-03     54.8556E-03    -27.1058E-03    -27.7659E-03    -26.5549E-03     53.6447E-03    -27.1058E-03     19.6940E-03     15.6273E+06    -18.1776E+06    -23.1905E+06    -22.9372E+06     10.7123E+06    -13.5159E+06     1.01826E+06         31.0778
            1409     13.6273E-03     71.8221E-03     712.659E-03    -179.627E-03    -196.706E-03    -191.818E-03     709.659E-03    -181.515E-03    -1.30361E-03     55.6232E-03    -26.9549E-03    -28.6890E-03    -26.3384E-03     53.2726E-03    -26.9549E-03     27.3243E-03     94.8009E+06    -12.0373E+06    -21.5361E+06    -21.5128E+06     94.7776E+06    -12.0373E+06     1.35369E+06         33.5126
            1410     14.6014E-03     71.8563E-03     744.123E-03    -183.171E-03    -226.008E-03    -223.410E-03     741.525E-03    -183.171E-03    -8.29920E-03     55.6412E-03    -27.0053E-03    -28.6293E-03    -25.9902E-03     53.0021E-03    -27.0053E-03     29.2124E-03     156.186E+06     23.0741E+06    -19.4315E+06    -19.4103E+06     156.165E+06     23.0741E+06     1.77592E+06         36.6118
            1411     15.5758E-03     71.8839E-03     755.442E-03    -185.917E-03    -234.155E-03    -232.941E-03     754.227E-03    -185.917E-03     29.2079E-03     57.1666E-03    -27.2421E-03    -29.9090E-03    -25.7293E-03     52.9869E-03    -27.2421E-03     36.0879E-03     178.352E+06     84.0325E+06    -15.7452E+06    -15.7325E+06     178.339E+06     84.0325E+06     1.29827E+06         40.0799
            1412     16.5507E-03     71.9324E-03     746.051E-03    -184.302E-03    -224.261E-03    -217.687E-03     743.351E-03    -188.176E-03     55.6777E-03     56.2524E-03    -26.5380E-03    -29.7826E-03    -25.5489E-03     52.9482E-03    -27.4675E-03     28.2839E-03     196.986E+06     137.363E+06    -8.86547E+06    -8.86344E+06     196.983E+06     137.363E+06     501.080E+03         43.1114
            1413     973.119E-06     72.7424E-03         1.15030     171.869E-03        -1.00768    -538.836E-03     681.456E-03     171.869E-03     644.123E-03     55.0015E-03    -27.4128E-03    -27.5886E-03    -27.5773E-03     54.9902E-03    -27.4128E-03     1.79729E-03    -65.1836E+06    -68.2346E+06    -268.868E+06    -67.6120E+06    -268.867E+06    -65.8072E+06     252.032E+03         24.0291
            1414     1.94615E-03     72.7449E-03     851.536E-03    -179.542E-03    -348.002E-03    -163.637E-03     667.171E-03    -179.542E-03    -288.050E-03     55.0560E-03    -27.5063E-03    -27.5492E-03    -27.4887E-03     55.0232E-03    -27.5339E-03     3.21051E-03    -57.2496E+06    -64.4214E+06    -265.712E+06    -64.4278E+06    -265.706E+06    -57.2496E+06     999.299E+03         24.0576
            1415     2.91923E-03     72.7490E-03     709.414E-03    -168.649E-03    -208.679E-03    -150.570E-03     654.716E-03    -172.061E-03     140.877E-03     55.0805E-03    -27.5051E-03    -27.5759E-03    -27.4401E-03     55.0155E-03    -27.5759E-03     4.58543E-03    -45.4492E+06    -60.0508E+06    -258.849E+06    -60.0580E+06    -258.842E+06    -45.4492E+06     1.12914E+06         24.1144
            1416     3.89236E-03     72.7545E-03     680.711E-03    -162.733E-03    -181.169E-03    -160.986E-03     665.481E-03    -167.687E-03    -59.2755E-03     55.0882E-03    -27.4935E-03    -27.5959E-03    -27.3909E-03     54.9855E-03    -27.5959E-03     5.79172E-03    -33.5509E+06    -54.8147E+06    -246.488E+06    -54.8162E+06    -246.486E+06    -33.5509E+06     462.808E+03         24.2043
            1417     4.86559E-03     72.7612E-03     681.426E-03    -165.416E-03    -177.399E-03    -168.007E-03     673.577E-03    -166.959E-03    -4.97944E-03     55.0799E-03    -27.4786E-03    -27.6024E-03    -27.3360E-03     54.9373E-03    -27.6024E-03     6.83784E-03    -23.3936E+06    -49.3056E+06    -228.906E+06    -49.3059E+06    -228.906E+06    -23.3936E+06     140.921E+03         24.3255
            1418     5.83874E-03     72.7690E-03     678.337E-03    -164.747E-03    -175.575E-03    -168.318E-03     673.476E-03    -167.142E-03    -47.2137E-03     55.0568E-03    -27.4637E-03    -27.5926E-03    -27.2803E-03     54.8734E-03    -27.5926E-03     7.75908E-03    -14.9609E+06    -43.8900E+06    -207.934E+06    -43.8907E+06    -207.933E+06    -14.9609E+06    -87.0677E+03         24.4750
            1419     6.81209E-03     72.7776E-03     690.338E-03    -165.902E-03    -186.889E-03    -183.248E-03     689.092E-03    -168.297E-03     56.0906E-03     54.9974E-03    -27.4315E-03    -27.5645E-03    -27.2068E-03     54.7727E-03    -27.5645E-03     8.58543E-03    -8.36310E+06    -38.8972E+06    -185.710E+06    -38.8980E+06    -185.709E+06    -8.36310E+06    -195.572E+03         24.6562
            1420     7.78542E-03     72.7871E-03     699.610E-03    -169.878E-03    -191.748E-03    -190.409E-03     699.000E-03    -170.607E-03     12.3600E-03     54.9321E-03    -27.4092E-03    -27.5239E-03    -27.1366E-03     54.6595E-03    -27.5239E-03     9.44676E-03    -4.75776E+06    -34.5534E+06    -162.684E+06    -34.5536E+06    -162.684E+06    -4.75776E+06    -90.7306E+03         24.9322
            1421     8.75882E-03     72.7975E-03     694.944E-03    -171.771E-03    -185.304E-03    -184.367E-03     694.736E-03    -172.500E-03    -5.06820E-03     54.8780E-03    -27.4015E-03    -27.4705E-03    -27.0631E-03     54.5397E-03    -27.4705E-03     10.5135E-03    -2.83071E+06    -31.0525E+06    -138.482E+06    -31.0531E+06    -138.481E+06    -2.83071E+06     132.916E+03         25.4459
            1422     9.73226E-03     72.8093E-03     700.718E-03    -174.002E-03    -191.382E-03    -191.261E-03     700.597E-03    -174.002E-03     8.10138E-03     54.7725E-03    -27.3790E-03    -27.4103E-03    -26.9780E-03     54.3714E-03    -27.4103E-03     11.4470E-03    -2.79038E+06    -28.1771E+06    -112.740E+06    -28.1808E+06    -112.736E+06    -2.79038E+06     486.910E+03         26.3095
            1423     10.7058E-03     72.8216E-03     714.620E-03    -176.112E-03    -204.209E-03    -204.148E-03     714.559E-03    -176.112E-03     10.8285E-03     54.6666E-03    -27.3264E-03    -27.3922E-03    -26.8836E-03     54.1663E-03    -27.3347E-03     12.7375E-03    -6.26939E+06    -25.9465E+06    -83.5206E+06    -25.9609E+06    -83.5062E+06    -6.26939E+06     798.499E+03         27.5373
            1424     11.6793E-03     72.8360E-03     711.008E-03    -178.250E-03    -199.759E-03    -199.733E-03     710.982E-03    -178.250E-03     3.31577E-03     54.6795E-03    -27.2379E-03    -27.4718E-03    -26.7360E-03     53.9437E-03    -27.2379E-03     15.3858E-03    -10.2289E+06    -23.2189E+06    -46.1169E+06    -24.5629E+06    -44.7730E+06    -10.2289E+06     1.12712E+06         29.1069
            1425     12.6533E-03     72.8541E-03     698.515E-03    -177.570E-03    -191.204E-03    -188.427E-03     697.626E-03    -179.459E-03     36.8941E-03     54.8661E-03    -27.1095E-03    -27.7710E-03    -26.5783E-03     53.6733E-03    -27.1095E-03     19.5577E-03     15.9207E+06    -18.4684E+06    -24.3245E+06    -23.9780E+06     10.8289E+06    -13.7230E+06     1.23467E+06         31.0439
            1426     13.6271E-03     72.8773E-03     703.730E-03    -178.323E-03    -195.660E-03    -192.251E-03     702.209E-03    -180.211E-03     6.90375E-03     55.6672E-03    -26.9642E-03    -28.7285E-03    -26.3784E-03     53.3171E-03    -26.9642E-03     27.3009E-03     94.4739E+06    -12.5748E+06    -23.8320E+06    -23.8086E+06     94.4505E+06    -12.5748E+06     948.661E+03         33.4887
            1427     14.6011E-03     72.9119E-03     724.238E-03    -181.651E-03    -214.469E-03    -212.647E-03     722.415E-03    -181.651E-03     13.4433E-03     55.6326E-03    -27.0192E-03    -28.6165E-03    -25.9984E-03     53.0146E-03    -27.0192E-03     29.0660E-03     155.377E+06     24.8217E+06    -21.4591E+06    -21.4444E+06     155.362E+06     24.8217E+06     1.31105E+06         36.6026
            1428     15.5757E-03     72.9388E-03     741.165E-03    -184.017E-03    -229.577E-03    -228.040E-03     739.629E-03    -184.017E-03     22.0145E-03     57.1519E-03    -27.2518E-03    -29.9021E-03    -25.7602E-03     53.0100E-03    -27.2518E-03     35.8659E-03     179.017E+06     86.5265E+06    -15.7734E+06    -15.7591E+06     179.002E+06     86.5265E+06     1.45455E+06         40.0816
            1429     16.5503E-03     72.9882E-03     729.229E-03    -182.189E-03    -216.148E-03    -210.341E-03     727.297E-03    -186.063E-03    -16.2360E-03     56.1910E-03    -26.4775E-03    -29.8032E-03    -25.5079E-03     52.8892E-03    -27.4710E-03     28.2786E-03     197.720E+06     137.195E+06    -8.40681E+06    -8.40290E+06     197.716E+06     137.195E+06     814.430E+03         43.1182
            1430     973.099E-06     73.7978E-03         1.09931     190.516E-03    -972.575E-03    -567.181E-03     693.914E-03     190.516E-03     682.378E-03     54.9820E-03    -27.3972E-03    -27.5851E-03    -27.5591E-03     54.9711E-03    -27.4123E-03     1.77989E-03    -66.2028E+06    -69.6583E+06    -269.322E+06    -69.5134E+06    -269.321E+06    -66.3485E+06     205.806E+03         24.0285
            1431     1.94614E-03     73.8003E-03     834.227E-03    -185.095E-03    -325.560E-03    -172.661E-03     681.328E-03    -185.095E-03    -192.619E-03     55.0319E-03    -27.4939E-03    -27.5392E-03    -27.4707E-03     54.9999E-03    -27.5304E-03     3.16534E-03    -57.0732E+06    -65.4043E+06    -267.004E+06    -65.4072E+06    -267.001E+06    -57.0732E+06     624.760E+03         24.0566
            1432     2.91926E-03     73.8045E-03     723.807E-03    -166.916E-03    -223.780E-03    -158.366E-03     670.068E-03    -178.590E-03     153.120E-03     55.0829E-03    -27.5163E-03    -27.5694E-03    -27.4514E-03     55.0180E-03    -27.5694E-03     4.57861E-03    -45.5957E+06    -60.3665E+06    -258.897E+06    -60.3704E+06    -258.893E+06    -45.5957E+06     832.541E+03         24.1144
            1433     3.89241E-03     73.8099E-03     656.808E-03    -148.856E-03    -170.235E-03    -130.407E-03     638.358E-03    -170.235E-03    -29.1369E-03     55.1107E-03    -27.5207E-03    -27.5928E-03    -27.4183E-03     55.0083E-03    -27.5928E-03     5.79115E-03    -34.2102E+06    -55.2343E+06    -245.933E+06    -55.2357E+06    -245.931E+06    -34.2102E+06     357.345E+03         24.2054
            1434     4.86549E-03     73.8166E-03     667.544E-03    -154.862E-03    -178.946E-03    -157.811E-03     656.113E-03    -164.567E-03     18.4372E-03     55.1081E-03    -27.5062E-03    -27.6053E-03    -27.3641E-03     54.9660E-03    -27.6053E-03     6.82791E-03    -24.1473E+06    -49.7367E+06    -228.626E+06    -49.7377E+06    -228.625E+06    -24.1473E+06    -233.840E+03         24.3268
            1435     5.83876E-03     73.8244E-03     696.302E-03    -166.380E-03    -201.066E-03    -196.245E-03     691.481E-03    -166.380E-03    -57.2368E-03     55.0648E-03    -27.4682E-03    -27.5965E-03    -27.2844E-03     54.8810E-03    -27.5965E-03     7.76844E-03    -15.8620E+06    -44.4431E+06    -207.620E+06    -44.4454E+06    -207.618E+06    -15.8620E+06    -546.370E+03         24.4757
            1436     6.81199E-03     73.8330E-03     693.265E-03    -168.673E-03    -198.668E-03    -196.052E-03     692.685E-03    -170.709E-03     24.9785E-03     55.0013E-03    -27.4303E-03    -27.5684E-03    -27.2057E-03     54.7767E-03    -27.5684E-03     8.58477E-03    -9.39223E+06    -39.6112E+06    -185.743E+06    -39.6139E+06    -185.741E+06    -9.39223E+06    -601.986E+03         24.6561
            1437     7.78538E-03     73.8425E-03     672.325E-03    -166.905E-03    -180.316E-03    -174.403E-03     672.172E-03    -172.664E-03    -17.6103E-03     54.9446E-03    -27.4141E-03    -27.5274E-03    -27.1432E-03     54.6736E-03    -27.5274E-03     9.42074E-03    -5.81552E+06    -35.2863E+06    -162.917E+06    -35.2883E+06    -162.915E+06    -5.81552E+06    -430.795E+03         24.9293
            1438     8.75874E-03     73.8529E-03     669.661E-03    -168.998E-03    -175.318E-03    -171.388E-03     669.455E-03    -172.722E-03    -24.4101E-03     54.8719E-03    -27.3885E-03    -27.4723E-03    -27.0538E-03     54.5371E-03    -27.4723E-03     10.4569E-03    -3.83924E+06    -31.4741E+06    -138.886E+06    -31.4750E+06    -138.885E+06    -3.83924E+06    -147.250E+03         25.4362
            1439     9.73222E-03     73.8647E-03     683.392E-03    -173.175E-03    -183.593E-03    -183.484E-03     683.283E-03    -173.175E-03    -2.92483E-03     54.7587E-03    -27.3613E-03    -27.4100E-03    -26.9610E-03     54.3584E-03    -27.4100E-03     11.4317E-03    -3.77442E+06    -28.2662E+06    -113.389E+06    -28.2679E+06    -113.387E+06    -3.77442E+06     230.708E+03         26.2911
            1440     10.7057E-03     73.8771E-03     696.100E-03    -174.578E-03    -194.167E-03    -194.122E-03     696.055E-03    -174.578E-03     7.74944E-03     54.6873E-03    -27.3232E-03    -27.4116E-03    -26.9029E-03     54.1885E-03    -27.3330E-03     12.7273E-03    -7.34563E+06    -25.8762E+06    -84.0326E+06    -25.8894E+06    -84.0193E+06    -7.34563E+06     710.452E+03         27.5109
            1441     11.6794E-03     73.8914E-03     709.641E-03    -176.603E-03    -204.320E-03    -204.159E-03     709.480E-03    -176.603E-03    -12.7565E-03     54.7213E-03    -27.2390E-03    -27.5109E-03    -26.7774E-03     53.9878E-03    -27.2390E-03     15.3647E-03    -11.1593E+06    -23.3987E+06    -46.2018E+06    -24.3509E+06    -45.2496E+06    -11.1593E+06     1.14441E+06         29.0730
            1442     12.6530E-03     73.9094E-03     715.828E-03    -178.832E-03    -207.523E-03    -206.978E-03     715.282E-03    -178.832E-03     7.30749E-03     54.8870E-03    -27.1094E-03    -27.7929E-03    -26.5931E-03     53.6873E-03    -27.1094E-03     19.6146E-03     15.8427E+06    -19.5005E+06    -23.6599E+06    -23.1528E+06     10.6693E+06    -14.8342E+06     1.32521E+06         31.0088
            1443     13.6269E-03     73.9329E-03     714.616E-03    -180.751E-03    -204.473E-03    -203.276E-03     713.419E-03    -180.751E-03    -15.7792E-03     55.6780E-03    -26.9619E-03    -28.7450E-03    -26.3825E-03     53.3156E-03    -26.9619E-03     27.3809E-03     94.6897E+06    -13.9700E+06    -22.2806E+06    -22.2538E+06     94.6629E+06    -13.9700E+06     1.18040E+06         33.4637
            1444     14.6012E-03     73.9671E-03     718.804E-03    -182.371E-03    -205.957E-03    -204.884E-03     717.730E-03    -182.371E-03    -20.5198E-03     55.6864E-03    -27.0281E-03    -28.6892E-03    -26.0540E-03     53.0512E-03    -27.0281E-03     29.1847E-03     155.149E+06     23.0120E+06    -20.5651E+06    -20.5572E+06     155.141E+06     23.0120E+06     673.814E+03         36.5926
            1445     15.5753E-03     73.9946E-03     732.707E-03    -184.245E-03    -218.624E-03    -217.876E-03     731.959E-03    -184.245E-03    -14.9887E-03     57.2236E-03    -27.2690E-03    -29.9684E-03    -25.8119E-03     53.0670E-03    -27.2690E-03     35.9719E-03     178.589E+06     85.3545E+06    -15.7834E+06    -15.7749E+06     178.580E+06     85.3545E+06     986.412E+03         40.0826
            1446     16.5502E-03     74.0430E-03     754.134E-03    -186.857E-03    -239.043E-03    -237.763E-03     752.854E-03    -186.857E-03    -69.7052E-03     56.1607E-03    -26.4248E-03    -29.8132E-03    -25.4464E-03     52.8510E-03    -27.4820E-03     28.3563E-03     198.249E+06     137.343E+06    -8.45034E+06    -8.44054E+06     198.239E+06     137.343E+06     1.36760E+06         43.1243
            1447     973.018E-06     74.8530E-03         1.02566     291.955E-03    -987.416E-03    -604.002E-03     642.249E-03     291.955E-03     667.963E-03     54.9986E-03    -27.4495E-03    -27.5507E-03    -27.5055E-03     54.9878E-03    -27.4839E-03     1.72761E-03    -66.4904E+06    -69.6348E+06    -269.723E+06    -69.3678E+06    -269.722E+06    -66.7583E+06     59.0148E+03         24.0285
            1448     1.94616E-03     74.8557E-03     816.186E-03    -161.080E-03    -326.548E-03    -181.717E-03     671.355E-03    -161.080E-03    -157.415E-03     55.0262E-03    -27.4915E-03    -27.5369E-03    -27.4589E-03     54.9937E-03    -27.5369E-03     3.19657E-03    -56.9453E+06    -65.8217E+06    -267.828E+06    -65.8225E+06    -267.827E+06    -56.9453E+06     323.366E+03         24.0568
            1449     2.91925E-03     74.8598E-03     717.807E-03    -157.746E-03    -229.775E-03    -165.203E-03     661.497E-03    -166.009E-03     174.928E-03     55.1149E-03    -27.5459E-03    -27.5710E-03    -27.4811E-03     55.0501E-03    -27.5710E-03     4.57891E-03    -46.3379E+06    -61.0636E+06    -259.297E+06    -61.0662E+06    -259.294E+06    -46.3379E+06     686.422E+03         24.1149
            1450     3.89232E-03     74.8653E-03     665.958E-03    -148.435E-03    -189.967E-03    -157.322E-03     649.736E-03    -164.859E-03    -14.4237E-03     55.1323E-03    -27.5382E-03    -27.5956E-03    -27.4359E-03     55.0301E-03    -27.5956E-03     5.78516E-03    -35.4438E+06    -55.7838E+06    -245.023E+06    -55.7862E+06    -245.021E+06    -35.4438E+06     250.573E+03         24.2059
            1451     4.86549E-03     74.8720E-03     679.029E-03    -157.142E-03    -198.014E-03    -179.196E-03     668.372E-03    -165.303E-03     31.0941E-03     55.1106E-03    -27.5037E-03    -27.6087E-03    -27.3622E-03     54.9692E-03    -27.6087E-03     6.81300E-03    -25.4552E+06    -50.5015E+06    -228.002E+06    -50.5052E+06    -227.999E+06    -25.4552E+06    -686.877E+03         24.3273
            1452     5.83867E-03     74.8798E-03     693.611E-03    -169.384E-03    -205.014E-03    -201.284E-03     689.881E-03    -169.384E-03    -53.8420E-03     55.0739E-03    -27.4746E-03    -27.5989E-03    -27.2919E-03     54.8912E-03    -27.5989E-03     7.74545E-03    -17.1182E+06    -45.1609E+06    -207.347E+06    -45.1690E+06    -207.339E+06    -17.1182E+06    -1.08026E+06         24.4765
            1453     6.81199E-03     74.8884E-03     671.846E-03    -169.195E-03    -187.697E-03    -183.556E-03     671.330E-03    -172.820E-03     30.9930E-03     55.0202E-03    -27.4469E-03    -27.5722E-03    -27.2229E-03     54.7962E-03    -27.5722E-03     8.57559E-03    -10.5597E+06    -40.0609E+06    -185.686E+06    -40.0714E+06    -185.675E+06    -10.5597E+06    -1.16367E+06         24.6566
            1454     7.78523E-03     74.8979E-03     660.029E-03    -166.895E-03    -179.483E-03    -172.550E-03     659.716E-03    -173.515E-03     14.2312E-03     54.9466E-03    -27.4103E-03    -27.5309E-03    -27.1388E-03     54.6751E-03    -27.5309E-03     9.42953E-03    -6.93996E+06    -35.4969E+06    -163.009E+06    -35.5062E+06    -163.000E+06    -6.93996E+06    -1.03148E+06         24.9265
            1455     8.75865E-03     74.9084E-03     675.607E-03    -171.032E-03    -187.500E-03    -184.333E-03     675.435E-03    -174.027E-03    -3.54274E-03     54.8660E-03    -27.3781E-03    -27.4736E-03    -27.0434E-03     54.5312E-03    -27.4736E-03     10.4574E-03    -4.88010E+06    -31.4486E+06    -139.210E+06    -31.4566E+06    -139.202E+06    -4.88010E+06    -816.499E+03         25.4259
            1456     9.73213E-03     74.9199E-03     679.894E-03    -175.059E-03    -184.078E-03    -183.766E-03     679.581E-03    -175.059E-03    -22.1052E-03     54.7591E-03    -27.3583E-03    -27.4104E-03    -26.9566E-03     54.3574E-03    -27.4104E-03     11.4503E-03    -4.72362E+06    -27.9614E+06    -113.938E+06    -27.9673E+06    -113.932E+06    -4.72362E+06    -442.568E+03         26.2721
            1457     10.7057E-03     74.9325E-03     681.520E-03    -174.991E-03    -182.738E-03    -181.637E-03     681.226E-03    -175.798E-03    -19.6674E-03     54.6969E-03    -27.3186E-03    -27.4216E-03    -26.9055E-03     54.1954E-03    -27.3332E-03     12.7642E-03    -8.16366E+06    -25.2683E+06    -84.8701E+06    -25.2731E+06    -84.8654E+06    -8.16366E+06     130.348E+03         27.4838
            1458     11.6792E-03     74.9468E-03     700.288E-03    -176.152E-03    -198.677E-03    -197.676E-03     700.093E-03    -176.959E-03    -19.1856E-03     54.7542E-03    -27.2403E-03    -27.5415E-03    -26.8061E-03     54.0188E-03    -27.2403E-03     15.3895E-03    -11.6044E+06    -22.7719E+06    -46.4404E+06    -23.3231E+06    -45.8892E+06    -11.6044E+06     762.740E+03         29.0383
            1459     12.6530E-03     74.9649E-03     725.888E-03    -179.430E-03    -221.330E-03    -220.660E-03     725.217E-03    -179.430E-03     11.6816E-03     54.9085E-03    -27.1115E-03    -27.8122E-03    -26.6072E-03     53.7035E-03    -27.1115E-03     19.6602E-03     15.6146E+06    -19.6591E+06    -23.0025E+06    -22.2783E+06     10.4920E+06    -15.2607E+06     999.360E+03         30.9728
            1460     13.6270E-03     74.9881E-03     735.426E-03    -182.606E-03    -227.686E-03    -226.014E-03     733.754E-03    -182.606E-03    -22.6450E-03     55.6958E-03    -26.9657E-03    -28.7552E-03    -26.3870E-03     53.3275E-03    -26.9657E-03     27.4240E-03     94.6723E+06    -13.8678E+06    -21.7902E+06    -21.7747E+06     94.6567E+06    -13.8678E+06     1.19379E+06         33.4381
            1461     14.6010E-03     75.0228E-03     723.060E-03    -185.027E-03    -210.544E-03    -208.994E-03     721.510E-03    -185.027E-03    -28.3779E-03     55.6702E-03    -27.0363E-03    -28.6663E-03    -26.0325E-03     53.0365E-03    -27.0363E-03     29.1679E-03     155.534E+06     23.1896E+06    -20.5145E+06    -20.5011E+06     155.521E+06     23.1896E+06     1.16862E+06         36.5823
            1462     15.5756E-03     75.0498E-03     717.595E-03    -186.375E-03    -202.060E-03    -201.452E-03     716.987E-03    -186.375E-03    -611.524E-06     57.2392E-03    -27.2796E-03    -29.9754E-03    -25.8010E-03     53.0649E-03    -27.2796E-03     36.0368E-03     177.524E+06     84.6611E+06    -16.5789E+06    -16.5677E+06     177.512E+06     84.6611E+06     1.10599E+06         40.0838
            1463     16.5500E-03     75.0987E-03     745.885E-03    -188.109E-03    -231.086E-03    -229.261E-03     744.060E-03    -188.109E-03     99.7810E-06     56.2246E-03    -26.4354E-03    -29.8578E-03    -25.4755E-03     52.8974E-03    -27.4904E-03     28.3994E-03     198.347E+06     137.576E+06    -8.99320E+06    -8.98349E+06     198.337E+06     137.576E+06     1.35891E+06         43.1304
            1464     973.051E-06     75.9083E-03         1.08583     355.894E-03        -1.10972    -642.274E-03     618.377E-03     355.894E-03     758.153E-03     55.0029E-03    -27.4248E-03    -27.5796E-03    -27.5492E-03     54.9918E-03    -27.4441E-03     1.77002E-03    -67.0931E+06    -69.8452E+06    -270.097E+06    -69.7236E+06    -270.097E+06    -67.2153E+06    -236.866E+03         24.0292
            1465     1.94617E-03     75.9109E-03     816.318E-03    -146.519E-03    -333.338E-03    -160.108E-03     643.088E-03    -146.519E-03    -223.857E-03     55.0891E-03    -27.5185E-03    -27.5717E-03    -27.5127E-03     55.0566E-03    -27.5449E-03     3.20006E-03    -58.2104E+06    -66.3819E+06    -268.664E+06    -66.3841E+06    -268.662E+06    -58.2104E+06     428.690E+03         24.0584
            1466     2.91918E-03     75.9153E-03     713.721E-03    -152.748E-03    -232.718E-03    -169.822E-03     650.824E-03    -152.748E-03     140.209E-03     55.1403E-03    -27.5573E-03    -27.5843E-03    -27.4926E-03     55.0756E-03    -27.5843E-03     4.57729E-03    -47.9891E+06    -61.9431E+06    -259.325E+06    -61.9469E+06    -259.321E+06    -47.9891E+06     539.719E+03         24.1163
            1467     3.89226E-03     75.9207E-03     702.639E-03    -160.578E-03    -219.806E-03    -200.455E-03     683.288E-03    -160.578E-03    -47.7291E-03     55.1373E-03    -27.5335E-03    -27.6046E-03    -27.4315E-03     55.0354E-03    -27.6046E-03     5.77629E-03    -36.9288E+06    -56.6661E+06    -243.972E+06    -56.6695E+06    -243.969E+06    -36.9288E+06    -292.700E+03         24.2064
            1468     4.86542E-03     75.9275E-03     680.888E-03    -165.842E-03    -199.603E-03    -190.190E-03     673.441E-03    -167.808E-03     57.9574E-03     55.1189E-03    -27.5017E-03    -27.6164E-03    -27.3611E-03     54.9783E-03    -27.6164E-03     6.79527E-03    -26.4308E+06    -51.0630E+06    -226.865E+06    -51.0747E+06    -226.854E+06    -26.4308E+06    -1.26595E+06         24.3275
            1469     5.83863E-03     75.9351E-03     651.358E-03    -163.623E-03    -177.563E-03    -169.420E-03     649.578E-03    -169.986E-03    -20.6139E-03     55.0886E-03    -27.4834E-03    -27.6046E-03    -27.3005E-03     54.9057E-03    -27.6046E-03     7.74896E-03    -18.2479E+06    -45.5788E+06    -206.810E+06    -45.6024E+06    -206.786E+06    -18.2479E+06    -1.88299E+06         24.4770
            1470     6.81183E-03     75.9439E-03     651.582E-03    -164.166E-03    -180.254E-03    -173.612E-03     650.927E-03    -170.153E-03     44.4589E-03     55.0173E-03    -27.4398E-03    -27.5770E-03    -27.2153E-03     54.7927E-03    -27.5770E-03     8.58532E-03    -11.6460E+06    -40.3089E+06    -185.458E+06    -40.3413E+06    -185.425E+06    -11.6460E+06    -2.09028E+06         24.6569
            1471     7.78523E-03     75.9533E-03     669.736E-03    -169.850E-03    -190.591E-03    -188.567E-03     669.303E-03    -171.440E-03     37.2899E-03     54.9212E-03    -27.3846E-03    -27.5339E-03    -27.1124E-03     54.6489E-03    -27.5339E-03     9.43782E-03    -7.84180E+06    -35.4487E+06    -163.255E+06    -35.4834E+06    -163.221E+06    -7.84180E+06    -2.00945E+06         24.9236
            1472     8.75865E-03     75.9637E-03     683.730E-03    -173.700E-03    -196.092E-03    -195.471E-03     683.109E-03    -173.700E-03     35.0178E-03     54.8696E-03    -27.3842E-03    -27.4745E-03    -27.0466E-03     54.5319E-03    -27.4745E-03     10.5030E-03    -5.57820E+06    -31.3279E+06    -139.410E+06    -31.3562E+06    -139.381E+06    -5.57820E+06    -1.68608E+06         25.4154
            1473     9.73210E-03     75.9753E-03     688.497E-03    -175.879E-03    -196.400E-03    -195.578E-03     687.675E-03    -175.879E-03     13.0716E-03     54.7859E-03    -27.3837E-03    -27.4141E-03    -26.9831E-03     54.3853E-03    -27.4141E-03     11.4404E-03    -5.15932E+06    -27.9462E+06    -114.273E+06    -27.9707E+06    -114.249E+06    -5.15932E+06    -1.36865E+06         26.2525
            1474     10.7056E-03     75.9878E-03     682.131E-03    -176.439E-03    -187.747E-03    -185.843E-03     681.034E-03    -177.246E-03     15.3477E-03     54.6889E-03    -27.3286E-03    -27.4063E-03    -26.8939E-03     54.1865E-03    -27.3386E-03     12.7668E-03    -8.54752E+06    -25.2492E+06    -85.8085E+06    -25.2623E+06    -85.7954E+06    -8.54752E+06    -700.343E+03         27.4559
            1475     11.6793E-03     76.0022E-03     687.656E-03    -177.275E-03    -190.175E-03    -188.680E-03     686.968E-03    -178.082E-03     19.2807E-03     54.7386E-03    -27.2437E-03    -27.5226E-03    -26.7838E-03     53.9997E-03    -27.2437E-03     15.4285E-03    -11.8332E+06    -23.2641E+06    -46.7190E+06    -23.3501E+06    -46.6330E+06    -11.8332E+06     14.6819E+03         29.0028
            1476     12.6530E-03     76.0201E-03     719.624E-03    -179.931E-03    -218.023E-03    -216.390E-03     717.991E-03    -179.931E-03     56.3527E-03     54.9468E-03    -27.1164E-03    -27.8460E-03    -26.6391E-03     53.7399E-03    -27.1164E-03     19.6824E-03     15.1603E+06    -19.9474E+06    -22.8466E+06    -22.3308E+06     9.82993E+06    -15.1328E+06     1.04822E+06         30.9361
            1477     13.6267E-03     76.0437E-03     736.556E-03    -182.990E-03    -232.497E-03    -229.839E-03     733.898E-03    -182.990E-03     10.9613E-03     55.6949E-03    -26.9707E-03    -28.7476E-03    -26.3683E-03     53.3156E-03    -26.9707E-03     27.4773E-03     94.1160E+06    -13.9726E+06    -22.3822E+06    -22.3388E+06     94.0726E+06    -13.9726E+06     1.92736E+06         33.4118
            1478     14.6010E-03     76.0782E-03     722.287E-03    -185.628E-03    -218.550E-03    -215.757E-03     719.494E-03    -185.628E-03     10.4288E-03     55.6138E-03    -27.0263E-03    -28.6058E-03    -25.9570E-03     52.9650E-03    -27.0263E-03     29.2269E-03     155.926E+06     23.2881E+06    -21.3117E+06    -21.2908E+06     155.905E+06     23.2881E+06     1.71949E+06         36.5717
            1479     15.5754E-03     76.1051E-03     707.279E-03    -187.044E-03    -203.128E-03    -201.301E-03     705.451E-03    -187.044E-03     44.3156E-03     57.2165E-03    -27.2669E-03    -29.9696E-03    -25.7771E-03     53.0239E-03    -27.2669E-03     36.1124E-03     177.272E+06     84.2394E+06    -17.0751E+06    -17.0634E+06     177.260E+06     84.2394E+06     1.40424E+06         40.0849
            1480     16.5502E-03     76.1542E-03     697.705E-03    -177.570E-03    -201.473E-03    -189.627E-03     695.816E-03    -187.528E-03     45.1276E-03     56.2217E-03    -26.4280E-03    -29.8709E-03    -25.4741E-03     52.8859E-03    -27.4890E-03     28.3934E-03     198.513E+06     137.144E+06    -9.63331E+06    -9.62581E+06     198.505E+06     137.144E+06     1.09035E+06         43.1364
            1481     973.212E-06     76.9636E-03         1.17925     344.471E-03        -1.19834    -632.908E-03     613.817E-03     344.471E-03     861.898E-03     55.0566E-03    -27.4196E-03    -27.6380E-03    -27.6269E-03     55.0455E-03    -27.4196E-03     1.78120E-03    -67.4042E+06    -70.3576E+06    -270.659E+06    -70.3600E+06    -270.656E+06    -67.4042E+06     264.933E+03         24.0299
            1482     1.94597E-03     76.9664E-03     852.980E-03    -149.521E-03    -382.360E-03    -171.011E-03     641.631E-03    -149.521E-03    -256.880E-03     55.1700E-03    -27.5656E-03    -27.6047E-03    -27.5654E-03     55.1377E-03    -27.5726E-03     3.19352E-03    -59.6091E+06    -67.1771E+06    -269.236E+06    -67.1814E+06    -269.231E+06    -59.6091E+06     566.027E+03         24.0600
            1483     2.91908E-03     76.9706E-03     750.371E-03    -160.395E-03    -270.966E-03    -192.977E-03     672.381E-03    -160.395E-03     116.072E-03     55.1654E-03    -27.5574E-03    -27.6089E-03    -27.4946E-03     55.1010E-03    -27.6073E-03     4.56649E-03    -49.8910E+06    -62.6788E+06    -258.607E+06    -62.6821E+06    -258.604E+06    -49.8910E+06    -110.101E+03         24.1177
            1484     3.89220E-03     76.9762E-03     692.657E-03    -160.393E-03    -215.871E-03    -176.602E-03     660.084E-03    -167.088E-03    -91.4184E-03     55.1311E-03    -27.5122E-03    -27.6194E-03    -27.4107E-03     55.0296E-03    -27.6194E-03     5.76478E-03    -38.3811E+06    -57.4148E+06    -242.752E+06    -57.4268E+06    -242.740E+06    -38.3811E+06    -1.23796E+06         24.2071
            1485     4.86531E-03     76.9829E-03     659.937E-03    -159.664E-03    -188.920E-03    -168.536E-03     648.215E-03    -168.326E-03     47.8821E-03     55.1211E-03    -27.4955E-03    -27.6254E-03    -27.3541E-03     54.9796E-03    -27.6254E-03     6.81260E-03    -27.6052E+06    -51.5789E+06    -225.624E+06    -51.6105E+06    -225.593E+06    -27.6052E+06    -2.20309E+06         24.3279
            1486     5.83852E-03     76.9906E-03     649.232E-03    -162.134E-03    -180.163E-03    -170.275E-03     645.707E-03    -168.497E-03    -58.6935E-03     55.0857E-03    -27.4737E-03    -27.6120E-03    -27.2897E-03     54.9017E-03    -27.6120E-03     7.77320E-03    -19.0796E+06    -45.8331E+06    -205.842E+06    -45.8883E+06    -205.787E+06    -19.0796E+06    -2.88304E+06         24.4772
            1487     6.81186E-03     76.9993E-03     656.342E-03    -165.199E-03    -187.298E-03    -182.658E-03     656.099E-03    -169.596E-03     20.0347E-03     55.0022E-03    -27.4207E-03    -27.5812E-03    -27.1959E-03     54.7774E-03    -27.5812E-03     8.58774E-03    -12.5273E+06    -40.5586E+06    -185.071E+06    -40.6324E+06    -184.997E+06    -12.5273E+06     -3.2013E+06         24.6568
            1488     7.78516E-03     77.0087E-03     673.463E-03    -172.038E-03    -196.149E-03    -195.648E-03     672.963E-03    -172.038E-03     2.97682E-03     54.9186E-03    -27.3826E-03    -27.5351E-03    -27.1116E-03     54.6476E-03    -27.5351E-03     9.41682E-03    -8.87079E+06    -35.8644E+06    -163.274E+06    -35.9462E+06    -163.192E+06    -8.87079E+06    -3.17430E+06         24.9205
            1489     8.75863E-03     77.0191E-03     671.622E-03    -170.830E-03    -191.333E-03    -186.923E-03     670.632E-03    -174.250E-03     545.236E-06     54.8783E-03    -27.3912E-03    -27.4764E-03    -27.0530E-03     54.5401E-03    -27.4764E-03     10.5095E-03    -6.52452E+06    -31.6806E+06    -139.678E+06    -31.7591E+06    -139.599E+06    -6.52452E+06    -2.82341E+06         25.4048
            1490     9.73205E-03     77.0308E-03     677.416E-03    -172.284E-03    -194.836E-03    -190.302E-03     676.301E-03    -175.704E-03     807.288E-06     54.7969E-03    -27.3899E-03    -27.4169E-03    -26.9897E-03     54.3967E-03    -27.4169E-03     11.4387E-03    -5.90477E+06    -28.1590E+06    -114.648E+06    -28.2213E+06    -114.586E+06    -5.90477E+06    -2.26188E+06         26.2326
            1491     10.7055E-03     77.0432E-03     694.595E-03    -177.730E-03    -207.385E-03    -205.911E-03     693.121E-03    -177.730E-03     913.056E-06     54.6837E-03    -27.3351E-03    -27.3944E-03    -26.8870E-03     54.1828E-03    -27.3415E-03     12.7437E-03    -9.23274E+06    -25.4744E+06    -86.5472E+06    -25.5174E+06    -86.5043E+06    -9.23274E+06    -1.52463E+06         27.4276
            1492     11.6792E-03     77.0576E-03     700.790E-03    -180.256E-03    -210.333E-03    -209.163E-03     699.619E-03    -180.256E-03    -6.21770E-03     54.7168E-03    -27.2445E-03    -27.5005E-03    -26.7573E-03     53.9736E-03    -27.2445E-03     15.4675E-03    -12.6976E+06    -23.6464E+06    -47.8148E+06    -23.7310E+06    -47.7302E+06    -12.6976E+06    -403.802E+03         28.9667
            1493     12.6530E-03     77.0757E-03     693.719E-03    -175.226E-03    -205.711E-03    -197.425E-03     692.328E-03    -182.122E-03     21.3553E-03     54.9332E-03    -27.1145E-03    -27.8343E-03    -26.6180E-03     53.7169E-03    -27.1145E-03     19.7553E-03     13.4938E+06    -20.9068E+06    -23.6556E+06    -22.8758E+06     8.04706E+06    -16.2398E+06     1.00749E+06         30.8988
            1494     13.6269E-03     77.0992E-03     699.035E-03    -176.447E-03    -209.035E-03    -199.302E-03     696.198E-03    -183.343E-03    -19.6141E-03     55.6715E-03    -26.9643E-03    -28.7286E-03    -26.3599E-03     53.3028E-03    -26.9643E-03     27.4314E-03     93.2032E+06    -15.2090E+06    -22.2360E+06    -22.1849E+06     93.1521E+06    -15.2090E+06     2.29957E+06         33.3851
            1495     14.6011E-03     77.1333E-03     715.072E-03    -184.954E-03    -218.501E-03    -215.418E-03     711.989E-03    -184.954E-03    -19.3958E-03     55.6152E-03    -27.0187E-03    -28.5929E-03    -25.9598E-03     52.9822E-03    -27.0187E-03     29.1479E-03     156.505E+06     22.3826E+06    -20.9041E+06    -20.8603E+06     156.461E+06     22.3826E+06     2.58095E+06         36.5607
            1496     15.5756E-03     77.1607E-03     710.476E-03    -186.806E-03    -214.860E-03    -213.133E-03     708.749E-03    -186.806E-03     13.8282E-03     57.1823E-03    -27.2604E-03    -29.9156E-03    -25.7456E-03     53.0123E-03    -27.2604E-03     36.0107E-03     177.729E+06     83.8647E+06    -16.9716E+06    -16.9471E+06     177.705E+06     83.8647E+06     1.81182E+06         40.0856
            1497     16.5502E-03     77.2093E-03     689.906E-03    -177.809E-03    -203.070E-03    -191.579E-03     688.373E-03    -187.767E-03    -27.6456E-03     56.1736E-03    -26.4279E-03    -29.8119E-03    -25.4412E-03     52.8583E-03    -27.4833E-03     28.3259E-03     199.141E+06     137.232E+06    -9.49869E+06    -9.49342E+06     199.136E+06     137.232E+06     638.730E+03         43.1420
            1498     972.836E-06     78.0191E-03         1.22728     340.690E-03        -1.24818    -659.915E-03     639.014E-03     340.690E-03     868.637E-03     55.1501E-03    -27.5190E-03    -27.6317E-03    -27.6069E-03     55.1382E-03    -27.5319E-03     1.83953E-03    -69.0227E+06    -71.7914E+06    -271.257E+06    -71.7952E+06    -271.253E+06    -69.0227E+06     572.424E+03         24.0295
            1499     1.94607E-03     78.0219E-03     899.984E-03    -164.243E-03    -427.959E-03    -182.710E-03     654.735E-03    -164.243E-03    -224.746E-03     55.1999E-03    -27.5868E-03    -27.6147E-03    -27.5591E-03     55.1668E-03    -27.6093E-03     3.23988E-03    -60.6868E+06    -67.8800E+06    -269.130E+06    -67.8825E+06    -269.127E+06    -60.6868E+06     147.315E+03         24.0602
            1500     2.91893E-03     78.0261E-03     767.569E-03    -171.328E-03    -293.058E-03    -185.969E-03     660.480E-03    -171.328E-03     164.569E-03     55.1997E-03    -27.5699E-03    -27.6314E-03    -27.5072E-03     55.1353E-03    -27.6297E-03     4.56684E-03    -50.9095E+06    -63.2488E+06    -257.110E+06    -63.2570E+06    -257.102E+06    -50.9095E+06    -930.739E+03         24.1182
            1501     3.89205E-03     78.0316E-03     682.154E-03    -165.731E-03    -211.517E-03    -161.693E-03     639.025E-03    -172.427E-03    -83.8152E-03     55.1346E-03    -27.5024E-03    -27.6330E-03    -27.4004E-03     55.0327E-03    -27.6330E-03     5.77589E-03    -40.0547E+06    -57.9829E+06      -241.1E+06    -58.0174E+06    -241.065E+06    -40.0547E+06    -2.29876E+06         24.2077
            1502     4.86529E-03     78.0383E-03     658.604E-03    -163.935E-03    -192.076E-03    -165.925E-03     639.149E-03    -170.630E-03     43.8701E-03     55.1100E-03    -27.4770E-03    -27.6333E-03    -27.3347E-03     54.9677E-03    -27.6333E-03     6.83235E-03    -29.1868E+06    -52.3542E+06    -224.286E+06    -52.4282E+06    -224.212E+06    -29.1868E+06    -3.45042E+06         24.3283
            1503     5.83848E-03     78.0461E-03     663.836E-03    -171.344E-03    -191.685E-03    -185.116E-03     657.267E-03    -171.344E-03    -84.8064E-03     55.0743E-03    -27.4573E-03    -27.6176E-03    -27.2744E-03     54.8914E-03    -27.6176E-03     7.75035E-03    -20.2665E+06    -46.5491E+06    -204.697E+06    -46.6595E+06    -204.587E+06    -20.2665E+06    -4.09304E+06         24.4773
            1504     6.81177E-03     78.0547E-03     663.017E-03    -173.529E-03    -188.025E-03    -187.489E-03     662.481E-03    -173.529E-03     30.1582E-03     54.9944E-03    -27.4091E-03    -27.5849E-03    -27.1866E-03     54.7719E-03    -27.5849E-03     8.54327E-03    -13.6736E+06    -41.1439E+06    -184.585E+06    -41.2781E+06    -184.451E+06    -13.6736E+06    -4.33911E+06         24.6567
            1505     7.78514E-03     78.0641E-03     669.306E-03    -175.483E-03    -191.195E-03    -190.253E-03     668.365E-03    -175.483E-03     16.8517E-03     54.9362E-03    -27.3956E-03    -27.5376E-03    -27.1249E-03     54.6655E-03    -27.5376E-03     9.41452E-03    -10.0739E+06    -36.4951E+06    -162.902E+06    -36.6450E+06    -162.752E+06    -10.0739E+06    -4.29799E+06         24.9176
            1506     8.75846E-03     78.0744E-03     676.330E-03    -173.865E-03    -196.899E-03    -192.498E-03     675.349E-03    -177.284E-03    -9.33550E-03     54.8866E-03    -27.3962E-03    -27.4797E-03    -27.0575E-03     54.5480E-03    -27.4797E-03     10.5168E-03    -7.78460E+06    -32.3745E+06    -139.823E+06    -32.5317E+06    -139.666E+06    -7.78460E+06    -4.06263E+06         25.3941
            1507     9.73200E-03     78.0862E-03     683.267E-03    -175.698E-03    -201.829E-03    -197.818E-03     682.676E-03    -179.117E-03    -26.6005E-03     54.7707E-03    -27.3641E-03    -27.4183E-03    -26.9638E-03     54.3704E-03    -27.4183E-03     11.4353E-03    -7.32494E+06    -28.8018E+06    -115.489E+06    -28.9366E+06    -115.355E+06    -7.32494E+06    -3.35229E+06         26.2125
            1508     10.7055E-03     78.0985E-03     704.278E-03    -181.744E-03    -217.971E-03    -217.270E-03     703.578E-03    -181.744E-03    -31.1786E-03     54.6911E-03    -27.3213E-03    -27.4164E-03    -26.8971E-03     54.1932E-03    -27.3426E-03     12.7094E-03    -10.4382E+06    -26.2184E+06    -87.4457E+06    -26.3077E+06    -87.3565E+06    -10.4382E+06    -2.29374E+06         27.3987
            1509     11.6791E-03     78.1128E-03     706.627E-03    -184.806E-03    -218.058E-03    -217.535E-03     706.104E-03    -184.806E-03    -34.0093E-03     54.7208E-03    -27.2472E-03    -27.5028E-03    -26.7630E-03     53.9810E-03    -27.2472E-03     15.4271E-03    -14.0133E+06    -24.4463E+06    -49.5914E+06    -24.5691E+06    -49.4686E+06    -14.0133E+06    -900.749E+03         28.9298
            1510     12.6529E-03     78.1311E-03     677.301E-03    -178.119E-03    -196.375E-03    -187.797E-03     676.911E-03    -186.308E-03    -3.34211E-03     54.8852E-03    -27.1175E-03    -27.7838E-03    -26.5747E-03     53.6761E-03    -27.1175E-03     19.6909E-03     11.9443E+06    -21.3783E+06    -25.1492E+06    -23.4373E+06     6.10816E+06    -17.2541E+06     842.559E+03         30.8605
            1511     13.6268E-03     78.1544E-03     673.498E-03    -177.712E-03    -191.357E-03    -181.483E-03     672.202E-03    -186.289E-03    -22.2502E-03     55.6749E-03    -26.9675E-03    -28.7333E-03    -26.3850E-03     53.3266E-03    -26.9675E-03     27.3212E-03     92.1595E+06    -15.9495E+06    -23.0207E+06    -22.9737E+06     92.1125E+06    -15.9495E+06     2.16425E+06         33.3575
            1512     14.6009E-03     78.1888E-03     694.837E-03    -186.405E-03    -205.636E-03    -203.900E-03     693.489E-03    -186.794E-03    -48.3121E-03     55.6428E-03    -27.0324E-03    -28.6105E-03    -26.0059E-03     53.0382E-03    -27.0324E-03     29.0009E-03     156.345E+06     23.0915E+06    -21.2157E+06    -21.1680E+06     156.297E+06     23.0915E+06     2.88094E+06         36.5488
            1513     15.5753E-03     78.2160E-03     703.389E-03    -188.308E-03    -215.844E-03    -215.322E-03     702.867E-03    -188.308E-03    -27.6560E-03     57.1286E-03    -27.2706E-03    -29.8475E-03    -25.7092E-03     52.9903E-03    -27.2706E-03     35.8321E-03     179.062E+06     85.3421E+06    -16.0801E+06    -16.0505E+06     179.032E+06     85.3421E+06     2.02840E+06         40.0855
            1514     16.5503E-03     78.2647E-03     720.460E-03    -190.335E-03    -228.640E-03    -227.576E-03     719.396E-03    -190.335E-03    -45.0390E-03     56.1536E-03    -26.4385E-03    -29.7601E-03    -25.4157E-03     52.8507E-03    -27.4800E-03     28.3096E-03     200.289E+06     137.446E+06    -8.52445E+06    -8.52223E+06     200.287E+06     137.446E+06     419.935E+03         43.1469
            1515     973.050E-06     79.0747E-03         1.34014     345.328E-03        -1.38271    -734.682E-03     692.114E-03     345.328E-03     919.874E-03     55.2203E-03    -27.5797E-03    -27.6412E-03    -27.6158E-03     55.2078E-03    -27.5926E-03     1.92156E-03    -69.7163E+06    -73.4943E+06    -271.476E+06    -72.8507E+06    -271.474E+06    -70.3621E+06     135.279E+03         24.0288
            1516     1.94583E-03     79.0775E-03     938.433E-03    -187.400E-03    -443.798E-03    -158.121E-03     652.757E-03    -187.400E-03    -283.720E-03     55.2258E-03    -27.5866E-03    -27.6401E-03    -27.5553E-03     55.1920E-03    -27.6376E-03     3.27318E-03    -61.1506E+06    -68.9923E+06    -268.175E+06    -68.9969E+06    -268.171E+06    -61.1506E+06    -718.688E+03         24.0596
            1517     2.91896E-03     79.0816E-03     747.550E-03    -174.662E-03    -270.163E-03    -141.950E-03     619.336E-03    -174.662E-03     176.031E-03     55.1972E-03    -27.5571E-03    -27.6421E-03    -27.4923E-03     55.1324E-03    -27.6421E-03     4.58511E-03    -52.0487E+06    -64.1586E+06    -255.333E+06    -64.1807E+06    -255.310E+06    -52.0487E+06    -1.79957E+06         24.1181
            1518     3.89202E-03     79.0871E-03     698.998E-03    -170.478E-03    -228.780E-03    -180.668E-03     650.886E-03    -170.478E-03    -76.0042E-03     55.1578E-03    -27.5207E-03    -27.6390E-03    -27.4177E-03     55.0548E-03    -27.6390E-03     5.80330E-03    -41.5067E+06    -58.8640E+06    -238.640E+06    -58.9374E+06    -238.566E+06    -41.5067E+06    -3.44288E+06         24.2081
            1519     4.86513E-03     79.0938E-03     674.284E-03    -172.830E-03    -204.511E-03    -183.669E-03     653.441E-03    -172.830E-03     65.9264E-03     55.1223E-03    -27.4824E-03    -27.6400E-03    -27.3391E-03     54.9790E-03    -27.6400E-03     6.85888E-03    -30.6869E+06    -53.1746E+06    -222.457E+06    -53.3122E+06    -222.319E+06    -30.6869E+06    -4.73660E+06         24.3287
            1520     5.83840E-03     79.1015E-03     658.864E-03    -174.465E-03    -188.560E-03    -181.022E-03     651.326E-03    -174.465E-03    -44.5775E-03     55.0682E-03    -27.4463E-03    -27.6223E-03    -27.2640E-03     54.8859E-03    -27.6223E-03     7.73796E-03    -22.1518E+06    -47.7097E+06    -203.579E+06    -47.8935E+06    -203.395E+06    -22.1518E+06    -5.30091E+06         24.4774
            1521     6.81168E-03     79.1100E-03     666.711E-03    -176.017E-03    -191.893E-03    -190.017E-03     664.835E-03    -176.017E-03     60.4767E-03     54.9964E-03    -27.4076E-03    -27.5889E-03    -27.1856E-03     54.7745E-03    -27.5889E-03     8.53199E-03    -15.5005E+06    -42.4781E+06    -183.806E+06    -42.7108E+06    -183.573E+06    -15.5005E+06    -5.64712E+06         24.6567
            1522     7.78501E-03     79.1195E-03     672.581E-03    -177.924E-03    -192.895E-03    -192.256E-03     671.942E-03    -177.924E-03     34.4853E-03     54.9386E-03    -27.3954E-03    -27.5406E-03    -27.1230E-03     54.6662E-03    -27.5406E-03     9.44089E-03    -11.7117E+06    -37.4296E+06    -162.558E+06    -37.6962E+06    -162.291E+06    -11.7117E+06    -5.70143E+06         24.9149
            1523     8.75848E-03     79.1299E-03     691.143E-03    -180.528E-03    -211.532E-03    -210.793E-03     690.404E-03    -180.528E-03     11.2840E-03     54.8814E-03    -27.3921E-03    -27.4804E-03    -27.0540E-03     54.5433E-03    -27.4804E-03     10.5109E-03    -9.52381E+06    -33.1764E+06    -139.953E+06    -33.4442E+06    -139.685E+06    -9.52381E+06    -5.28988E+06         25.3835
            1524     9.73186E-03     79.1415E-03     701.690E-03    -184.029E-03    -219.833E-03    -219.602E-03     701.459E-03    -184.029E-03    -9.09935E-03     54.7647E-03    -27.3600E-03    -27.4183E-03    -26.9608E-03     54.3654E-03    -27.4183E-03     11.4178E-03    -9.20323E+06    -29.6832E+06    -116.335E+06    -29.9320E+06    -116.086E+06    -9.20323E+06    -4.59300E+06         26.1921
            1525     10.7054E-03     79.1540E-03     685.028E-03    -181.359E-03    -207.998E-03    -202.663E-03     684.913E-03    -186.580E-03     12.5968E-03     54.6956E-03    -27.3191E-03    -27.4252E-03    -26.9024E-03     54.1965E-03    -27.3428E-03     12.7271E-03    -12.3542E+06    -26.8287E+06    -88.7826E+06    -27.0143E+06    -88.5971E+06    -12.3542E+06    -3.32221E+06         27.3695
            1526     11.6790E-03     79.1683E-03     674.543E-03    -182.391E-03    -199.712E-03    -194.384E-03     674.436E-03    -187.612E-03     9.73899E-03     54.7428E-03    -27.2495E-03    -27.5254E-03    -26.7904E-03     54.0079E-03    -27.2495E-03     15.3862E-03    -15.7001E+06    -24.8359E+06    -51.2021E+06    -24.9703E+06    -51.0677E+06    -15.7001E+06    -1.64080E+06         28.8924
            1527     12.6528E-03     79.1863E-03     676.928E-03    -186.890E-03    -197.547E-03    -195.735E-03     676.408E-03    -188.183E-03     32.1115E-03     54.9140E-03    -27.1202E-03    -27.8116E-03    -26.6019E-03     53.7043E-03    -27.1202E-03     19.6910E-03     10.0593E+06    -22.5856E+06    -26.3838E+06    -23.6084E+06     3.92587E+06    -19.2275E+06     295.492E+03         30.8216
            1528     13.6267E-03     79.2100E-03     679.322E-03    -186.970E-03    -195.653E-03    -193.372E-03     678.724E-03    -188.651E-03     34.3908E-03     55.6568E-03    -26.9634E-03    -28.7225E-03    -26.3667E-03     53.3010E-03    -26.9634E-03     27.3630E-03     90.7193E+06    -18.5385E+06    -22.8009E+06    -22.5377E+06     90.6801E+06    -18.7625E+06     1.87476E+06         33.3291
            1529     14.6009E-03     79.2443E-03     688.646E-03    -188.824E-03    -200.751E-03    -200.036E-03     688.321E-03    -189.213E-03    -780.790E-06     55.5881E-03    -27.0241E-03    -28.5770E-03    -25.9624E-03     52.9735E-03    -27.0241E-03     29.0435E-03     155.905E+06     19.8900E+06    -20.4021E+06    -20.3726E+06     155.875E+06     19.8900E+06     2.24457E+06         36.5364
            1530     15.5754E-03     79.2711E-03     703.865E-03    -190.439E-03    -216.732E-03    -216.501E-03     703.633E-03    -190.439E-03    -4.84366E-03     57.1473E-03    -27.2676E-03    -29.8778E-03    -25.7219E-03     52.9915E-03    -27.2676E-03     35.9301E-03     180.357E+06     83.9555E+06    -15.7903E+06    -15.7712E+06     180.338E+06     83.9555E+06     1.82958E+06         40.0848
            1531     16.5500E-03     79.3198E-03     717.084E-03    -192.439E-03    -231.350E-03    -230.930E-03     716.664E-03    -192.439E-03     15.3453E-03     56.1725E-03    -26.3860E-03    -29.8003E-03    -25.3899E-03     52.8578E-03    -27.4818E-03     28.3898E-03     201.670E+06     137.743E+06    -8.71220E+06    -8.70561E+06     201.663E+06     137.743E+06     949.945E+03         43.1511
            1532     972.865E-06     80.1304E-03         1.48533     333.290E-03        -1.51934    -744.381E-03     710.373E-03     333.290E-03         1.04242     55.2542E-03    -27.5464E-03    -27.7075E-03    -27.6720E-03     55.2420E-03    -27.5697E-03     1.89692E-03    -70.8491E+06    -74.1533E+06     -270.68E+06    -73.5104E+06    -270.677E+06    -71.4949E+06    -533.724E+03         24.0290
            1533     1.94591E-03     80.1330E-03     987.512E-03    -194.854E-03    -493.109E-03    -152.471E-03     646.874E-03    -194.854E-03    -345.811E-03     55.2313E-03    -27.5819E-03    -27.6491E-03    -27.5507E-03     55.1976E-03    -27.6466E-03     3.26710E-03    -62.6410E+06    -70.0484E+06    -266.603E+06    -70.0627E+06    -266.589E+06    -62.6410E+06    -1.42531E+06         24.0595
            1534     2.91889E-03     80.1371E-03     763.687E-03    -179.068E-03    -287.900E-03    -147.900E-03     623.688E-03    -179.068E-03     203.586E-03     55.2015E-03    -27.5572E-03    -27.6452E-03    -27.4921E-03     55.1363E-03    -27.6452E-03     4.59730E-03    -53.3861E+06    -65.3365E+06    -252.868E+06    -65.3968E+06    -252.808E+06    -53.3861E+06    -3.08551E+06         24.1181
            1535     3.89199E-03     80.1427E-03     694.995E-03    -173.887E-03    -225.459E-03    -180.044E-03     650.296E-03    -174.604E-03    -104.005E-03     55.1620E-03    -27.5254E-03    -27.6380E-03    -27.4224E-03     55.0590E-03    -27.6380E-03     5.80519E-03    -43.2031E+06    -59.8284E+06    -235.837E+06    -59.9605E+06    -235.705E+06    -43.2031E+06    -4.67189E+06         24.2083
            1536     4.86512E-03     80.1492E-03     674.831E-03    -175.668E-03    -206.594E-03    -186.853E-03     655.807E-03    -176.384E-03     24.9083E-03     55.1281E-03    -27.4884E-03    -27.6394E-03    -27.3443E-03     54.9840E-03    -27.6394E-03     6.87623E-03    -32.6003E+06    -54.3556E+06    -220.356E+06    -54.5655E+06    -220.146E+06    -32.6003E+06     -5.8334E+06         24.3291
            1537     5.83831E-03     80.1570E-03     667.232E-03    -178.427E-03    -198.988E-03    -189.757E-03     658.001E-03    -178.427E-03    -70.4264E-03     55.0680E-03    -27.4469E-03    -27.6222E-03    -27.2630E-03     54.8840E-03    -27.6222E-03     7.77298E-03    -24.0117E+06    -48.8148E+06    -202.124E+06    -49.1124E+06    -201.826E+06    -24.0117E+06    -6.65495E+06         24.4776
            1538     6.81163E-03     80.1656E-03     669.647E-03    -180.578E-03    -198.433E-03    -196.555E-03     667.769E-03    -180.578E-03     23.5529E-03     55.0077E-03    -27.4211E-03    -27.5890E-03    -27.1973E-03     54.7840E-03    -27.5890E-03     8.56821E-03    -17.3486E+06    -43.3382E+06    -182.587E+06    -43.7196E+06    -182.205E+06    -17.3486E+06    -7.20572E+06         24.6567
            1539     7.78496E-03     80.1749E-03     678.933E-03    -183.185E-03    -205.829E-03    -205.377E-03     678.481E-03    -183.185E-03    -12.2789E-03     54.9405E-03    -27.3970E-03    -27.5417E-03    -27.1243E-03     54.6678E-03    -27.5417E-03     9.44832E-03    -13.6137E+06    -38.2752E+06    -162.098E+06    -38.7206E+06    -161.652E+06    -13.6137E+06    -7.34456E+06         24.9123
            1540     8.75831E-03     80.1853E-03     681.315E-03    -181.084E-03    -210.906E-03    -205.976E-03     681.073E-03    -185.773E-03    -4.36835E-03     54.8679E-03    -27.3772E-03    -27.4806E-03    -27.0384E-03     54.5290E-03    -27.4806E-03     10.5193E-03    -11.4249E+06    -33.7462E+06    -140.192E+06    -34.2106E+06    -139.727E+06    -11.4249E+06    -6.94239E+06         25.3730
            1541     9.73182E-03     80.1970E-03     676.547E-03    -180.749E-03    -206.692E-03    -199.673E-03     676.335E-03    -187.555E-03    -7.44883E-03     54.7822E-03    -27.3734E-03    -27.4198E-03    -26.9742E-03     54.3812E-03    -27.4179E-03     11.4470E-03    -11.0503E+06    -29.9245E+06    -116.972E+06    -30.3595E+06    -116.537E+06    -11.0503E+06    -6.07487E+06         26.1716
            1542     10.7053E-03     80.2093E-03     663.292E-03    -180.825E-03    -195.284E-03    -187.831E-03     663.175E-03    -188.163E-03     16.9455E-03     54.7051E-03    -27.3339E-03    -27.4175E-03    -26.9074E-03     54.2029E-03    -27.3417E-03     12.7665E-03    -14.3845E+06    -26.8366E+06    -90.3975E+06    -27.2174E+06    -90.0167E+06    -14.3845E+06    -4.82978E+06         27.3401
            1543     11.6790E-03     80.2237E-03     660.206E-03    -182.938E-03    -193.590E-03    -188.201E-03     660.039E-03    -188.158E-03     10.4476E-03     54.7576E-03    -27.2486E-03    -27.5405E-03    -26.8018E-03     54.0188E-03    -27.2486E-03     15.4323E-03    -17.6069E+06    -24.2783E+06    -53.4581E+06    -24.6508E+06    -53.0856E+06    -17.6069E+06    -2.89067E+06         28.8547
            1544     12.6527E-03     80.2417E-03     675.120E-03    -188.699E-03    -202.657E-03    -202.170E-03     674.632E-03    -188.699E-03     22.8730E-03     54.9477E-03    -27.1195E-03    -27.8458E-03    -26.6269E-03     53.7289E-03    -27.1195E-03     19.7664E-03     7.82261E+06    -23.1035E+06    -27.7995E+06    -23.2979E+06     1.50909E+06    -21.2915E+06    -511.839E+03         30.7822
            1545     13.6265E-03     80.2654E-03     683.571E-03    -189.771E-03    -204.886E-03    -204.283E-03     682.967E-03    -189.771E-03     24.5131E-03     55.6302E-03    -26.9579E-03    -28.6978E-03    -26.3270E-03     53.2593E-03    -26.9579E-03     27.4439E-03     89.1199E+06    -20.7479E+06    -23.3362E+06    -22.7916E+06     89.1039E+06    -21.2765E+06     1.30173E+06         33.3003
            1546     14.6009E-03     80.2996E-03     690.682E-03    -190.806E-03    -205.105E-03    -204.853E-03     690.431E-03    -190.806E-03     10.8868E-03     55.5258E-03    -27.0099E-03    -28.5170E-03    -25.9038E-03     52.9126E-03    -27.0099E-03     29.0043E-03     155.531E+06     17.2035E+06    -21.3974E+06    -21.3752E+06     155.509E+06     17.2035E+06     1.94854E+06         36.5234
            1547     15.5754E-03     80.3266E-03     704.109E-03    -192.006E-03    -213.822E-03    -213.754E-03     704.041E-03    -192.006E-03     10.5615E-03     57.1386E-03    -27.2587E-03    -29.8633E-03    -25.6951E-03     52.9705E-03    -27.2587E-03     35.9495E-03     180.976E+06     82.5102E+06    -16.7655E+06    -16.7486E+06     180.959E+06     82.5102E+06     1.75313E+06         40.0835
            1548     16.5501E-03     80.3754E-03     686.443E-03    -182.897E-03    -209.975E-03    -199.532E-03     686.019E-03    -192.916E-03     12.7249E-03     56.1814E-03    -26.3601E-03    -29.8111E-03    -25.3592E-03     52.8512E-03    -27.4819E-03     28.3918E-03     202.921E+06     138.068E+06    -9.00654E+06    -8.99956E+06     202.914E+06     138.068E+06     1.05055E+06         43.1548
            1549     972.886E-06     81.1858E-03         1.55360     359.703E-03        -1.62578    -716.069E-03     643.890E-03     359.703E-03         1.11530     55.2539E-03    -27.5355E-03    -27.7177E-03    -27.6800E-03     55.2421E-03    -27.5613E-03     1.81462E-03    -71.7567E+06    -73.8161E+06    -269.007E+06    -73.4308E+06    -268.997E+06    -72.1515E+06    -843.502E+03         24.0282
            1550     1.94587E-03     81.1887E-03         1.05060    -180.509E-03    -580.837E-03    -190.339E-03     660.102E-03    -180.509E-03    -386.262E-03     55.2229E-03    -27.5835E-03    -27.6393E-03    -27.5501E-03     55.1895E-03    -27.6393E-03     3.25910E-03    -64.7251E+06    -70.5078E+06    -263.883E+06    -70.5454E+06    -263.845E+06    -64.7251E+06    -2.38800E+06         24.0589
            1551     2.91887E-03     81.1927E-03     819.644E-03    -184.963E-03    -346.772E-03    -196.907E-03     669.779E-03    -184.963E-03     221.896E-03     55.1943E-03    -27.5568E-03    -27.6381E-03    -27.4912E-03     55.1287E-03    -27.6381E-03     4.60731E-03    -55.1871E+06    -66.0555E+06    -249.630E+06    -66.1711E+06    -249.514E+06    -55.1871E+06    -4.39743E+06         24.1172
            1552     3.89192E-03     81.1982E-03     704.179E-03    -184.720E-03    -228.954E-03    -172.906E-03     648.846E-03    -185.437E-03    -113.738E-03     55.1376E-03    -27.5089E-03    -27.6288E-03    -27.4040E-03     55.0326E-03    -27.6288E-03     5.85793E-03    -45.3670E+06    -61.1294E+06    -233.083E+06    -61.3462E+06    -232.866E+06    -45.3670E+06    -6.01021E+06         24.2076
            1553     4.86508E-03     81.2047E-03     676.282E-03    -183.196E-03    -207.797E-03    -183.763E-03     652.965E-03    -183.912E-03     39.6991E-03     55.1163E-03    -27.4851E-03    -27.6306E-03    -27.3399E-03     54.9711E-03    -27.6306E-03     6.90305E-03    -34.5499E+06    -55.5377E+06    -217.882E+06    -55.8693E+06    -217.550E+06    -34.5499E+06    -7.20611E+06         24.3289
            1554     5.83831E-03     81.2126E-03     684.718E-03    -186.032E-03    -220.449E-03    -210.933E-03     675.202E-03    -186.032E-03    -68.7182E-03     55.0764E-03    -27.4628E-03    -27.6154E-03    -27.2781E-03     54.8917E-03    -27.6154E-03     7.78939E-03    -25.7409E+06    -49.6070E+06    -200.086E+06    -50.0873E+06    -199.605E+06    -25.7409E+06    -8.38231E+06         24.4777
            1555     6.81156E-03     81.2209E-03     680.422E-03    -189.713E-03    -213.278E-03    -211.151E-03     678.295E-03    -189.713E-03     22.6706E-03     55.0170E-03    -27.4349E-03    -27.5849E-03    -27.2085E-03     54.7906E-03    -27.5849E-03     8.61823E-03    -19.1199E+06    -43.8177E+06    -181.138E+06    -44.4171E+06    -180.539E+06    -19.1199E+06    -8.97587E+06         24.6568
            1556     7.78483E-03     81.2304E-03     673.607E-03    -184.121E-03    -207.446E-03    -199.078E-03     672.897E-03    -191.780E-03    -9.18300E-03     54.9425E-03    -27.3995E-03    -27.5397E-03    -27.1259E-03     54.6689E-03    -27.5397E-03     9.46597E-03    -15.3467E+06    -38.6055E+06    -161.257E+06    -39.3090E+06    -160.554E+06    -15.3467E+06    -9.17406E+06         24.9096
            1557     8.75830E-03     81.2406E-03     660.514E-03    -176.478E-03    -198.902E-03    -183.184E-03     660.137E-03    -191.819E-03     7.60411E-03     54.8674E-03    -27.3741E-03    -27.4795E-03    -27.0336E-03     54.5269E-03    -27.4795E-03     10.5415E-03    -13.1366E+06    -34.0440E+06    -140.339E+06    -34.8068E+06    -139.576E+06    -13.1366E+06    -8.90735E+06         25.3624
            1558     9.73177E-03     81.2525E-03     656.086E-03    -179.414E-03    -190.802E-03    -179.185E-03     655.857E-03    -190.802E-03    -13.9064E-03     54.7842E-03    -27.3764E-03    -27.4183E-03    -26.9726E-03     54.3785E-03    -27.4164E-03     11.5134E-03    -12.6979E+06    -30.0555E+06    -117.731E+06    -30.7993E+06    -116.987E+06    -12.6979E+06    -7.96705E+06         26.1510
            1559     10.7052E-03     81.2647E-03     668.539E-03    -186.613E-03    -195.824E-03    -191.471E-03     667.891E-03    -190.319E-03    -22.5717E-03     54.7189E-03    -27.3402E-03    -27.4259E-03    -26.9220E-03     54.2156E-03    -27.3406E-03     12.7860E-03    -15.9561E+06    -26.8896E+06    -91.8717E+06    -27.5834E+06    -91.1779E+06    -15.9561E+06    -6.60097E+06         27.3104
            1560     11.6789E-03     81.2790E-03     670.668E-03    -190.238E-03    -198.573E-03    -197.482E-03     670.052E-03    -190.713E-03    -28.9010E-03     54.7549E-03    -27.2478E-03    -27.5379E-03    -26.7937E-03     54.0107E-03    -27.2478E-03     15.4807E-03    -19.4971E+06    -24.2213E+06    -56.4056E+06    -25.1505E+06    -55.4764E+06    -19.4971E+06    -4.68623E+06         28.8167
            1561     12.6526E-03     81.2973E-03     671.875E-03    -190.972E-03    -202.066E-03    -201.272E-03     671.556E-03    -191.447E-03     7.71892E-03     54.9149E-03    -27.1185E-03    -27.8142E-03    -26.5933E-03     53.6940E-03    -27.1185E-03     19.7870E-03     4.87695E+06    -22.6732E+06    -30.2583E+06    -23.2701E+06    -1.82575E+06    -22.9587E+06    -1.66305E+06         30.7427
            1562     13.6267E-03     81.3205E-03     683.966E-03    -192.539E-03    -210.357E-03    -209.832E-03     683.441E-03    -192.539E-03    -2.94295E-03     55.6173E-03    -26.9495E-03    -28.6919E-03    -26.3129E-03     53.2382E-03    -26.9495E-03     27.4728E-03     87.2591E+06    -21.2648E+06    -24.5863E+06    -22.4917E+06     87.2422E+06    -23.3426E+06     1.14562E+06         33.2713
            1563     14.6008E-03     81.3549E-03     679.998E-03    -189.055E-03    -206.552E-03    -201.744E-03     679.675E-03    -193.540E-03    -14.5357E-03     55.5571E-03    -27.0011E-03    -28.5637E-03    -25.9333E-03     52.9267E-03    -27.0011E-03     29.1073E-03     155.824E+06     15.9990E+06    -21.7142E+06    -21.0178E+06     155.803E+06     15.3233E+06     1.77743E+06         36.5098
            1564     15.5752E-03     81.3817E-03     670.819E-03    -182.898E-03    -201.318E-03    -190.385E-03     670.778E-03    -193.791E-03     10.0266E-03     57.1078E-03    -27.2545E-03    -29.8413E-03    -25.6722E-03     52.9387E-03    -27.2545E-03     35.9446E-03     181.347E+06     81.4618E+06    -16.4169E+06    -16.4043E+06     181.334E+06     81.4618E+06     1.45139E+06         40.0816
            1565     16.5502E-03     81.4308E-03     665.913E-03    -177.037E-03    -202.123E-03    -184.447E-03     664.663E-03    -193.463E-03    -36.0517E-03     56.1351E-03    -26.3632E-03    -29.7546E-03    -25.3162E-03     52.8104E-03    -27.4770E-03     28.3254E-03     203.500E+06     137.666E+06    -9.08165E+06    -9.07617E+06     203.494E+06     137.666E+06     975.340E+03         43.1582
            1566     972.968E-06     82.2416E-03         1.60639     409.402E-03        -1.74421    -742.006E-03     604.193E-03     409.402E-03         1.19680     55.2416E-03    -27.5632E-03    -27.6786E-03    -27.6611E-03     55.2305E-03    -27.5696E-03     1.75810E-03    -73.4512E+06    -75.5552E+06    -267.024E+06    -75.1722E+06    -267.012E+06    -73.8460E+06    -853.907E+03         24.0259
            1567     1.94584E-03     82.2441E-03         1.10710    -178.184E-03    -641.975E-03    -225.858E-03     690.980E-03    -178.184E-03    -400.489E-03     55.1913E-03    -27.5695E-03    -27.6214E-03    -27.5362E-03     55.1580E-03    -27.6214E-03     3.23760E-03    -67.7523E+06    -72.8303E+06    -259.545E+06    -72.9130E+06    -259.462E+06    -67.7523E+06    -3.52749E+06         24.0570
            1568     2.91886E-03     82.2483E-03     866.125E-03    -191.900E-03    -381.781E-03    -202.472E-03     686.816E-03    -191.900E-03     202.588E-03     55.1384E-03    -27.5214E-03    -27.6174E-03    -27.4550E-03     55.0719E-03    -27.6174E-03     4.63580E-03    -58.1835E+06    -68.2670E+06    -245.982E+06    -68.4623E+06    -245.787E+06    -58.1835E+06    -5.72978E+06         24.1153
            1569     3.89202E-03     82.2536E-03     736.075E-03    -191.477E-03    -258.552E-03    -173.871E-03     651.394E-03    -191.477E-03    -116.258E-03     55.1149E-03    -27.5036E-03    -27.6128E-03    -27.3975E-03     55.0088E-03    -27.6128E-03     5.88890E-03    -47.1468E+06    -62.8254E+06    -229.700E+06    -63.1679E+06    -229.357E+06    -47.1468E+06    -7.41401E+06         24.2057
            1570     4.86513E-03     82.2603E-03     692.107E-03    -189.414E-03    -224.502E-03    -190.635E-03     658.240E-03    -189.414E-03     105.197E-03     55.1100E-03    -27.4929E-03    -27.6177E-03    -27.3472E-03     54.9644E-03    -27.6177E-03     6.91666E-03    -36.4389E+06    -56.8527E+06    -214.950E+06    -57.4052E+06    -214.397E+06    -36.4389E+06    -9.18067E+06         24.3273
            1571     5.83826E-03     82.2679E-03     696.784E-03    -192.122E-03    -232.818E-03    -222.827E-03     686.793E-03    -192.122E-03    -32.7525E-03     55.0769E-03    -27.4717E-03    -27.6057E-03    -27.2859E-03     54.8912E-03    -27.6057E-03     7.80991E-03    -27.6803E+06    -50.5535E+06    -197.597E+06    -51.3061E+06    -196.844E+06    -27.6803E+06    -10.3862E+06         24.4767
            1572     6.81151E-03     82.2764E-03     684.927E-03    -193.372E-03    -221.933E-03    -215.507E-03     681.225E-03    -196.096E-03     51.3351E-03     55.0046E-03    -27.4279E-03    -27.5768E-03    -27.1998E-03     54.7765E-03    -27.5768E-03     8.65063E-03    -20.9958E+06    -44.5752E+06    -179.507E+06    -45.5270E+06    -178.555E+06    -20.9958E+06    -11.1695E+06         24.6565
            1573     7.78492E-03     82.2858E-03     656.892E-03    -181.290E-03    -199.806E-03    -182.166E-03     654.561E-03    -196.598E-03     24.1090E-03     54.9459E-03    -27.4096E-03    -27.5318E-03    -27.1335E-03     54.6697E-03    -27.5318E-03     9.50930E-03    -17.2097E+06    -39.0532E+06    -160.301E+06    -40.1504E+06    -159.204E+06    -17.2097E+06    -11.3917E+06         24.9071
            1574     8.75820E-03     82.2961E-03     657.564E-03    -179.338E-03    -198.163E-03    -180.640E-03     655.618E-03    -194.916E-03     39.4637E-03     54.8906E-03    -27.4011E-03    -27.4751E-03    -27.0616E-03     54.5511E-03    -27.4751E-03     10.5331E-03    -14.8377E+06    -34.2315E+06    -140.151E+06    -35.4037E+06    -138.979E+06    -14.8377E+06    -11.0020E+06         25.3517
            1575     9.73170E-03     82.3077E-03     669.774E-03    -189.637E-03    -200.528E-03    -195.590E-03     669.418E-03    -194.219E-03    -8.42620E-03     54.7668E-03    -27.3645E-03    -27.4130E-03    -26.9576E-03     54.3600E-03    -27.4130E-03     11.5234E-03    -14.4947E+06    -30.1391E+06    -118.613E+06    -31.3279E+06    -117.424E+06    -14.4947E+06    -10.1177E+06         26.1302
            1576     10.7053E-03     82.3201E-03     668.270E-03    -187.875E-03    -201.555E-03    -194.326E-03     667.497E-03    -194.331E-03    -15.2940E-03     54.6979E-03    -27.3206E-03    -27.4274E-03    -26.9036E-03     54.1897E-03    -27.3362E-03     12.8490E-03    -17.7329E+06    -26.8284E+06    -93.4699E+06    -27.9901E+06    -92.3082E+06    -17.7329E+06    -8.62406E+06         27.2805
            1577     11.6788E-03     82.3343E-03     667.736E-03    -189.059E-03    -200.898E-03    -194.962E-03     667.143E-03    -194.402E-03    -18.3630E-03     54.7446E-03    -27.2431E-03    -27.5348E-03    -26.7859E-03     53.9957E-03    -27.2431E-03     15.5246E-03    -21.1093E+06    -24.4228E+06    -59.0880E+06    -25.6542E+06    -57.5562E+06    -21.4097E+06    -6.44810E+06         28.7787
            1578     12.6527E-03     82.3524E-03     677.729E-03    -194.391E-03    -206.556E-03    -205.002E-03     676.649E-03    -194.866E-03     39.7441E-03     54.9125E-03    -27.1140E-03    -27.8163E-03    -26.5950E-03     53.6912E-03    -27.1140E-03     19.7996E-03     1.55998E+06    -23.2798E+06    -33.0347E+06    -23.8916E+06    -5.69123E+06    -25.1717E+06    -3.30854E+06         30.7031
            1579     13.6266E-03     82.3758E-03     685.272E-03    -195.708E-03    -210.558E-03    -209.224E-03     684.027E-03    -195.796E-03     22.0987E-03     55.6087E-03    -26.9368E-03    -28.6934E-03    -26.3320E-03     53.2474E-03    -26.9368E-03     27.3750E-03     84.6748E+06    -22.3227E+06    -26.4718E+06    -22.2746E+06     84.6267E+06    -26.4718E+06    -85.2713E+03         33.2421
            1580     14.6010E-03     82.4102E-03     669.165E-03    -186.406E-03    -201.584E-03    -191.556E-03     668.910E-03    -196.179E-03    -11.4571E-03     55.5185E-03    -26.9952E-03    -28.5370E-03    -25.9123E-03     52.8938E-03    -26.9952E-03     29.0781E-03     155.843E+06     14.3704E+06    -22.0804E+06    -20.1451E+06     155.829E+06     12.4500E+06     1.33532E+06         36.4961
            1581     15.5754E-03     82.4374E-03     645.250E-03    -172.270E-03    -195.342E-03    -172.183E-03     645.163E-03    -195.342E-03     15.1292E-03     57.0881E-03    -27.2578E-03    -29.8244E-03    -25.6716E-03     52.9353E-03    -27.2578E-03     35.9058E-03     181.133E+06     80.4616E+06    -15.9261E+06    -15.9157E+06     181.123E+06     80.4616E+06     1.36208E+06         40.0800
            1582     16.5501E-03     82.4855E-03     662.956E-03    -181.143E-03    -205.300E-03    -190.500E-03     661.544E-03    -194.531E-03    -13.0793E-03     56.1062E-03    -26.3429E-03    -29.7537E-03    -25.3163E-03     52.8000E-03    -27.4740E-03     28.3270E-03     204.077E+06     137.910E+06    -8.66305E+06    -8.65581E+06     204.070E+06     137.910E+06     1.16487E+06         43.1628
            1583     972.847E-06     83.2971E-03         1.74732     390.643E-03        -1.86850    -767.080E-03     645.904E-03     390.643E-03         1.38367     55.2009E-03    -27.5265E-03    -27.6739E-03    -27.6390E-03     55.1898E-03    -27.5503E-03     1.78815E-03    -76.3074E+06    -78.1723E+06    -264.048E+06    -77.6931E+06    -264.015E+06    -76.8198E+06    -1.70205E+06         24.0236
            1584     1.94586E-03     83.2997E-03         1.12627    -192.643E-03    -651.995E-03    -210.366E-03     684.639E-03    -192.643E-03    -412.850E-03     55.1274E-03    -27.5321E-03    -27.5950E-03    -27.4989E-03     55.0941E-03    -27.5950E-03     3.22908E-03    -69.6572E+06    -74.4554E+06    -254.120E+06    -74.5916E+06    -253.984E+06    -69.6572E+06    -4.61002E+06         24.0549
            1585     2.91896E-03     83.3037E-03     860.928E-03    -194.441E-03    -382.364E-03    -178.608E-03     657.172E-03    -194.441E-03     207.646E-03     55.1158E-03    -27.5223E-03    -27.5945E-03    -27.4554E-03     55.0489E-03    -27.5945E-03     4.65368E-03    -60.0266E+06    -70.1898E+06    -241.586E+06    -70.5128E+06    -241.263E+06    -60.0266E+06    -7.21649E+06         24.1130
            1586     3.89197E-03     83.3092E-03     760.504E-03    -192.877E-03    -291.851E-03    -201.469E-03     670.123E-03    -192.877E-03    -123.750E-03     55.1055E-03    -27.5112E-03    -27.5963E-03    -27.4053E-03     54.9996E-03    -27.5963E-03     5.88555E-03    -49.1915E+06    -64.5162E+06    -225.652E+06    -65.0728E+06    -225.096E+06    -49.1915E+06    -9.29254E+06         24.2031
            1587     4.86507E-03     83.3159E-03     716.344E-03    -195.688E-03    -249.631E-03    -212.624E-03     679.337E-03    -195.688E-03     94.3050E-03     55.0902E-03    -27.4862E-03    -27.6054E-03    -27.3409E-03     54.9449E-03    -27.6054E-03     6.90583E-03    -38.3263E+06    -58.1939E+06    -211.168E+06    -59.0472E+06    -210.315E+06    -38.3263E+06    -11.2440E+06         24.3248
            1588     5.83829E-03     83.3234E-03     687.703E-03    -193.279E-03    -223.856E-03    -205.089E-03     673.689E-03    -198.031E-03    -45.6967E-03     55.0466E-03    -27.4543E-03    -27.5930E-03    -27.2680E-03     54.8602E-03    -27.5930E-03     7.81947E-03    -29.7390E+06    -51.7495E+06    -194.906E+06    -52.9250E+06    -193.731E+06    -29.7390E+06    -12.7880E+06         24.4749
            1589     6.81155E-03     83.3319E-03     667.094E-03    -190.986E-03    -209.078E-03    -195.802E-03     661.294E-03    -198.462E-03     37.5691E-03     54.9887E-03    -27.4250E-03    -27.5638E-03    -27.1967E-03     54.7603E-03    -27.5638E-03     8.65475E-03    -23.0578E+06    -45.4911E+06      -177.4E+06    -46.9442E+06    -175.947E+06    -23.0578E+06    -13.6519E+06         24.6559
            1590     7.78485E-03     83.3411E-03     657.928E-03    -190.050E-03    -199.716E-03    -188.358E-03     654.219E-03    -197.699E-03     11.4568E-03     54.9427E-03    -27.4172E-03    -27.5225E-03    -27.1393E-03     54.6648E-03    -27.5225E-03     9.53984E-03    -19.2966E+06    -39.7620E+06    -159.300E+06    -41.4292E+06    -157.633E+06    -19.2966E+06    -13.9211E+06         24.9043
            1591     8.75825E-03     83.3517E-03     664.124E-03    -190.531E-03    -202.026E-03    -193.306E-03     661.805E-03    -196.933E-03     52.0596E-03     54.9020E-03    -27.4176E-03    -27.4729E-03    -27.0810E-03     54.5608E-03    -27.4683E-03     10.5648E-03    -16.9625E+06    -34.5892E+06    -140.000E+06    -36.3875E+06    -138.202E+06    -16.9625E+06    -13.5439E+06         25.3408
            1592     9.73160E-03     83.3630E-03     666.151E-03    -192.115E-03    -203.133E-03    -198.214E-03     665.941E-03    -196.824E-03     4.32428E-03     54.7803E-03    -27.3792E-03    -27.4137E-03    -26.9789E-03     54.3753E-03    -27.4091E-03     11.4999E-03    -16.5203E+06    -30.2257E+06    -119.403E+06    -32.0535E+06    -117.575E+06    -16.5203E+06    -12.5535E+06         26.1091
            1593     10.7053E-03     83.3755E-03     664.308E-03    -188.723E-03    -203.211E-03    -194.931E-03     664.129E-03    -196.824E-03     12.7188E-03     54.6668E-03    -27.3153E-03    -27.4017E-03    -26.8776E-03     54.1599E-03    -27.3324E-03     12.8255E-03    -19.8517E+06    -26.8565E+06    -95.3833E+06    -28.6476E+06    -93.5922E+06    -19.8517E+06    -10.8392E+06         27.2505
            1594     11.6790E-03     83.3897E-03     671.982E-03    -192.068E-03    -206.048E-03    -201.112E-03     671.915E-03    -196.935E-03     1.81803E-03     54.7362E-03    -27.2389E-03    -27.5297E-03    -26.7902E-03     53.9967E-03    -27.2389E-03     15.4367E-03    -22.1747E+06    -25.1477E+06    -62.1647E+06    -26.1449E+06    -59.8571E+06    -23.4851E+06    -8.42425E+06         28.7405
            1595     12.6526E-03     83.4076E-03     677.687E-03    -194.125E-03    -208.229E-03    -203.560E-03     676.278E-03    -197.386E-03     50.4697E-03     54.9361E-03    -27.1120E-03    -27.8415E-03    -26.6290E-03     53.7236E-03    -27.1120E-03     19.7201E-03    -667.004E+03    -24.4531E+06    -36.3451E+06    -24.4627E+06    -9.51996E+06    -27.4825E+06    -4.99297E+06         30.6633
            1596     13.6265E-03     83.4313E-03     669.717E-03    -190.365E-03    -202.584E-03    -193.961E-03     668.256E-03    -197.528E-03     36.9145E-03     55.5982E-03    -26.9305E-03    -28.6912E-03    -26.3329E-03     53.2399E-03    -26.9305E-03     27.3592E-03     81.6019E+06    -23.7920E+06    -29.9293E+06    -23.6924E+06     81.5023E+06    -29.9293E+06    -1.53955E+06         33.2126
            1597     14.6006E-03     83.4654E-03     657.659E-03    -185.456E-03    -197.022E-03    -185.333E-03     657.536E-03    -197.022E-03    -11.6082E-03     55.4675E-03    -26.9850E-03    -28.4930E-03    -25.8682E-03     52.8427E-03    -26.9850E-03     29.0676E-03     155.024E+06     11.9527E+06    -25.1926E+06    -22.0796E+06     155.019E+06     8.84485E+06     402.340E+03         36.4822
            1598     15.5754E-03     83.4925E-03     648.251E-03    -179.237E-03    -196.114E-03    -179.143E-03     648.157E-03    -196.114E-03     8.75530E-03     57.0289E-03    -27.2543E-03    -29.7590E-03    -25.6126E-03     52.8825E-03    -27.2543E-03     35.8691E-03     180.469E+06     78.6037E+06    -17.2376E+06    -17.2293E+06     180.461E+06     78.6037E+06     1.06977E+06         40.0797
            1599     16.5503E-03     83.5411E-03     644.164E-03    -174.146E-03    -201.337E-03    -180.058E-03     643.897E-03    -195.159E-03     26.7705E-03     56.0576E-03    -26.3329E-03    -29.7227E-03    -25.2871E-03     52.7623E-03    -27.4733E-03     28.2681E-03     204.487E+06     137.993E+06    -9.32824E+06    -9.32197E+06     204.481E+06     137.993E+06     1.12854E+06         43.1718
            1600     972.947E-06     84.3527E-03         1.88922     301.499E-03        -1.93714    -757.302E-03     709.381E-03     301.499E-03         1.45345     55.1113E-03    -27.4884E-03    -27.6233E-03    -27.5841E-03     55.1005E-03    -27.5168E-03     1.68486E-03    -77.2416E+06    -79.2501E+06    -258.977E+06    -78.6301E+06    -258.887E+06    -77.9512E+06    -3.54319E+06         24.0217
            1601     1.94599E-03     84.3551E-03         1.12945    -215.883E-03    -651.404E-03    -167.592E-03     645.641E-03    -215.883E-03    -507.242E-03     55.0898E-03    -27.5218E-03    -27.5689E-03    -27.4961E-03     55.0562E-03    -27.5610E-03     3.25350E-03    -70.2281E+06    -75.3208E+06    -248.262E+06    -75.5431E+06    -248.040E+06    -70.2281E+06    -5.99919E+06         24.0525
            1602     2.91891E-03     84.3593E-03     841.910E-03    -200.203E-03    -371.639E-03    -178.151E-03     648.422E-03    -200.203E-03     195.631E-03     55.1211E-03    -27.5411E-03    -27.5812E-03    -27.4815E-03     55.0536E-03    -27.5732E-03     4.67160E-03    -61.2686E+06    -70.8799E+06    -236.415E+06    -71.3441E+06    -235.951E+06    -61.2686E+06    -8.53534E+06         24.1102
            1603     3.89197E-03     84.3646E-03     780.176E-03    -200.604E-03    -309.914E-03    -232.622E-03     702.884E-03    -200.604E-03    -130.402E-03     55.0811E-03    -27.5019E-03    -27.5799E-03    -27.3951E-03     54.9743E-03    -27.5799E-03     5.90897E-03    -51.2024E+06    -65.6824E+06    -220.584E+06    -66.5183E+06    -219.748E+06    -51.2024E+06    -11.1780E+06         24.2001
            1604     4.86510E-03     84.3714E-03     732.324E-03    -206.406E-03    -256.862E-03    -223.600E-03     699.062E-03    -206.406E-03     57.7260E-03     55.0570E-03    -27.4681E-03    -27.5900E-03    -27.3211E-03     54.9100E-03    -27.5900E-03     6.94236E-03    -40.3966E+06    -59.4066E+06    -206.787E+06    -60.6661E+06    -205.528E+06    -40.3966E+06    -13.4198E+06         24.3221
            1605     5.83826E-03     84.3789E-03     665.889E-03    -188.462E-03    -211.960E-03    -178.772E-03     650.169E-03    -205.930E-03    -79.0743E-03     55.0231E-03    -27.4490E-03    -27.5775E-03    -27.2622E-03     54.8363E-03    -27.5775E-03     7.83095E-03    -31.7401E+06    -52.8667E+06    -191.392E+06    -54.5957E+06    -189.663E+06    -31.7401E+06    -15.2403E+06         24.4731
            1606     6.81156E-03     84.3873E-03     646.966E-03    -183.556E-03    -202.233E-03    -178.868E-03     642.107E-03    -202.062E-03     19.1731E-03     54.9785E-03    -27.4293E-03    -27.5502E-03    -27.2000E-03     54.7491E-03    -27.5502E-03     8.67122E-03    -25.2027E+06    -46.2860E+06    -175.087E+06    -48.4565E+06    -172.916E+06    -25.2027E+06    -16.4499E+06         24.6547
            1607     7.78482E-03     84.3967E-03     667.048E-03    -199.357E-03    -203.301E-03    -199.527E-03     664.312E-03    -200.394E-03    -3.87328E-03     54.9334E-03    -27.4156E-03    -27.5122E-03    -27.1369E-03     54.6546E-03    -27.5122E-03     9.55527E-03    -21.4630E+06    -40.0735E+06    -158.015E+06    -42.5598E+06    -155.529E+06    -21.4630E+06    -16.8270E+06         24.9006
            1608     8.75821E-03     84.4069E-03     663.610E-03    -194.026E-03    -202.857E-03    -195.472E-03     662.322E-03    -200.122E-03     39.7130E-03     54.8918E-03    -27.4148E-03    -27.4633E-03    -27.0763E-03     54.5488E-03    -27.4587E-03     10.5890E-03    -19.3077E+06    -34.6812E+06    -139.920E+06    -37.3874E+06    -137.214E+06    -19.3077E+06    -16.5563E+06         25.3292
            1609     9.73165E-03     84.4185E-03     655.273E-03    -189.044E-03    -199.380E-03    -188.963E-03     655.192E-03    -199.380E-03    -9.02899E-03     54.8119E-03    -27.3951E-03    -27.4281E-03    -27.0173E-03     54.4082E-03    -27.4022E-03     11.4905E-03    -18.8857E+06    -30.0968E+06    -120.371E+06    -32.8450E+06    -117.623E+06    -18.8857E+06    -15.4262E+06         26.0876
            1610     10.7051E-03     84.4305E-03     668.242E-03    -194.795E-03    -206.340E-03    -202.022E-03     668.164E-03    -199.035E-03     307.068E-06     54.7062E-03    -27.3277E-03    -27.4259E-03    -26.9202E-03     54.2024E-03    -27.3296E-03     12.7865E-03    -21.7281E+06    -26.9444E+06    -97.5538E+06    -29.1040E+06    -94.9083E+06    -22.2139E+06    -13.3722E+06         27.2200
            1611     11.6787E-03     84.4452E-03     677.809E-03    -199.687E-03    -211.032E-03    -210.907E-03     677.684E-03    -199.687E-03    -7.16883E-03     54.7361E-03    -27.2385E-03    -27.5270E-03    -26.7848E-03     53.9939E-03    -27.2385E-03     15.4634E-03    -22.4867E+06     -26.354E+06    -65.5291E+06    -26.3479E+06    -62.2545E+06    -25.7673E+06    -10.6429E+06         28.7020
            1612     12.6524E-03     84.4630E-03     660.223E-03    -191.137E-03    -204.035E-03    -194.417E-03     659.462E-03    -199.994E-03     22.4667E-03     54.9165E-03    -27.1099E-03    -27.8232E-03    -26.6088E-03     53.7021E-03    -27.1099E-03     19.7330E-03    -2.63346E+06    -25.4696E+06    -39.8455E+06    -24.2568E+06    -13.6805E+06    -30.0113E+06    -7.15093E+06         30.6234
            1613     13.6264E-03     84.4865E-03     642.847E-03    -179.987E-03    -199.120E-03    -179.079E-03     641.940E-03    -199.120E-03     14.4066E-03     55.5657E-03    -26.9206E-03    -28.6701E-03    -26.3005E-03     53.1961E-03    -26.9206E-03     27.4055E-03     77.8981E+06    -23.0652E+06    -32.9642E+06    -22.6624E+06     77.4953E+06    -32.9642E+06    -2.82112E+06         33.1833
            1614     14.6009E-03     84.5207E-03     646.151E-03    -182.819E-03    -197.940E-03    -182.352E-03     645.684E-03    -197.940E-03    -35.8808E-03     55.4571E-03    -26.9656E-03    -28.5001E-03    -25.8567E-03     52.8137E-03    -26.9656E-03     29.1656E-03     153.772E+06     9.76980E+06    -26.8644E+06    -21.5015E+06     153.766E+06     4.41247E+06     197.451E+03         36.4685
            1615     15.5753E-03     84.5477E-03     651.507E-03    -188.375E-03    -197.191E-03    -188.089E-03     651.221E-03    -197.191E-03    -11.4693E-03     57.0362E-03    -27.2394E-03    -29.7764E-03    -25.6013E-03     52.8610E-03    -27.2394E-03     35.9902E-03     180.193E+06     74.6838E+06    -18.2759E+06    -18.2690E+06     180.186E+06     74.6838E+06     856.939E+03         40.0826
            1616     16.5502E-03     84.5962E-03     632.098E-03    -173.309E-03    -196.231E-03    -171.438E-03     630.227E-03    -196.231E-03    -24.3215E-03     56.0356E-03    -26.3099E-03    -29.7232E-03    -25.2502E-03     52.7237E-03    -27.4710E-03     28.2673E-03     204.829E+06     137.451E+06    -10.5435E+06    -10.5396E+06     204.825E+06     137.451E+06     332.964E+03         43.1922
            1617     972.982E-06     85.4080E-03         1.94642     263.647E-03        -1.96445    -752.668E-03     734.638E-03     263.647E-03         1.43517     55.0073E-03    -27.4266E-03    -27.5811E-03    -27.5610E-03     54.9958E-03    -27.4350E-03     1.75530E-03    -78.3494E+06    -80.5720E+06    -251.669E+06    -80.4928E+06    -251.551E+06    -78.5466E+06    -4.12172E+06         24.0197
            1618     1.94596E-03     85.4109E-03         1.18174    -231.340E-03    -698.718E-03    -178.999E-03     662.020E-03    -231.340E-03    -517.327E-03     55.0875E-03    -27.5142E-03    -27.5744E-03    -27.5292E-03     55.0532E-03    -27.5251E-03     3.29296E-03    -71.9976E+06    -77.4496E+06    -241.725E+06    -77.7852E+06    -241.390E+06    -71.9976E+06    -7.18633E+06         24.0498
            1619     2.91895E-03     85.4147E-03     883.901E-03    -216.919E-03    -405.815E-03    -208.524E-03     686.610E-03    -216.919E-03     240.278E-03     55.0897E-03    -27.5277E-03    -27.5628E-03    -27.4682E-03     55.0222E-03    -27.5549E-03     4.67037E-03    -63.0116E+06    -72.4442E+06    -230.481E+06    -73.1264E+06    -229.799E+06    -63.0116E+06    -10.1389E+06         24.1069
            1620     3.89198E-03     85.4203E-03     774.791E-03    -215.999E-03    -295.698E-03    -219.097E-03     698.190E-03    -215.999E-03    -123.556E-03     55.0462E-03    -27.4844E-03    -27.5616E-03    -27.3776E-03     54.9394E-03    -27.5616E-03     5.90863E-03    -52.7417E+06    -66.5312E+06    -214.591E+06    -67.7069E+06    -213.415E+06    -52.7417E+06    -12.9373E+06         24.1971
            1621     4.86512E-03     85.4267E-03     714.973E-03    -215.144E-03    -239.907E-03    -202.136E-03     677.202E-03    -215.144E-03     50.8413E-03     55.0261E-03    -27.4551E-03    -27.5715E-03    -27.3078E-03     54.8789E-03    -27.5715E-03     6.94620E-03    -42.2879E+06    -60.1532E+06    -201.770E+06    -61.9653E+06    -199.958E+06    -42.2879E+06    -15.7503E+06         24.3196
            1622     5.83834E-03     85.4345E-03     671.912E-03    -198.608E-03    -217.542E-03    -187.903E-03     655.541E-03    -211.877E-03    -97.6420E-03     55.0057E-03    -27.4488E-03    -27.5601E-03    -27.2599E-03     54.8168E-03    -27.5601E-03     7.87015E-03    -33.6358E+06    -53.2657E+06    -187.227E+06    -55.7525E+06    -184.740E+06    -33.6358E+06    -17.9193E+06         24.4711
            1623     6.81148E-03     85.4429E-03     653.033E-03    -187.765E-03    -208.253E-03    -184.862E-03     650.130E-03    -208.253E-03     32.8796E-03     54.9707E-03    -27.4357E-03    -27.5356E-03    -27.2048E-03     54.7398E-03    -27.5356E-03     8.70263E-03    -27.1498E+06    -46.3964E+06    -172.232E+06    -49.5436E+06    -169.084E+06    -27.1498E+06    -19.5158E+06         24.6530
            1624     7.78486E-03     85.4521E-03     664.766E-03    -195.172E-03    -206.843E-03    -194.946E-03     663.651E-03    -205.954E-03    -4.89389E-03     54.9302E-03    -27.4228E-03    -27.5003E-03    -27.1430E-03     54.6503E-03    -27.5003E-03     9.57262E-03    -23.6528E+06    -39.9125E+06    -156.639E+06    -43.5732E+06    -152.978E+06    -23.6528E+06    -20.2180E+06         24.8961
            1625     8.75815E-03     85.4624E-03     664.643E-03    -195.521E-03    -205.701E-03    -195.573E-03     663.806E-03    -204.811E-03     7.84258E-03     54.8878E-03    -27.4196E-03    -27.4520E-03    -27.0785E-03     54.5443E-03    -27.4497E-03     10.5966E-03    -21.4412E+06    -34.0486E+06    -139.694E+06    -38.0065E+06    -135.736E+06    -21.4412E+06    -19.9512E+06         25.3168
            1626     9.73158E-03     85.4738E-03     660.593E-03    -197.029E-03    -203.990E-03    -196.570E-03     660.134E-03    -203.990E-03    -30.3119E-03     54.8059E-03    -27.3886E-03    -27.4268E-03    -27.0151E-03     54.3994E-03    -27.3938E-03     11.5271E-03    -21.1984E+06    -29.1371E+06    -121.703E+06    -33.1557E+06    -117.685E+06    -21.1984E+06    -18.7798E+06         26.0655
            1627     10.7051E-03     85.4863E-03     660.540E-03    -198.360E-03    -207.599E-03    -202.105E-03     660.306E-03    -203.620E-03    -12.9165E-03     54.7388E-03    -27.3226E-03    -27.4637E-03    -26.9572E-03     54.2323E-03    -27.3226E-03     12.8317E-03    -22.8500E+06    -26.9083E+06    -100.059E+06    -29.1272E+06    -96.1451E+06    -24.5453E+06    -16.5600E+06         27.1891
            1628     11.6787E-03     85.5002E-03     653.224E-03    -191.765E-03    -207.877E-03    -196.037E-03     652.930E-03    -203.310E-03    -16.4284E-03     54.7416E-03    -27.2343E-03    -27.5376E-03    -26.7885E-03     53.9925E-03    -27.2343E-03     15.5259E-03    -21.6646E+06    -28.1112E+06    -69.2136E+06    -25.9854E+06    -64.8928E+06    -28.1112E+06    -13.1808E+06         28.6632
            1629     12.6526E-03     85.5184E-03     642.577E-03    -184.663E-03    -202.948E-03    -184.431E-03     641.759E-03    -202.361E-03     11.3980E-03     54.8889E-03    -27.1064E-03    -27.7989E-03    -26.5818E-03     53.6717E-03    -27.1064E-03     19.7647E-03    -3.58805E+06    -27.3507E+06    -43.0280E+06    -24.2137E+06    -17.3578E+06    -32.3952E+06    -9.33522E+06         30.5834
            1630     13.6265E-03     85.5414E-03     635.476E-03    -178.528E-03    -200.879E-03    -177.751E-03     634.699E-03    -200.879E-03     23.9268E-03     55.5489E-03    -26.9179E-03    -28.6548E-03    -26.2975E-03     53.1915E-03    -26.9179E-03     27.3274E-03     73.1088E+06    -24.1550E+06    -35.4505E+06    -23.3543E+06     72.3082E+06    -35.4505E+06    -4.83549E+06         33.1539
            1631     14.6007E-03     85.5760E-03     636.584E-03    -179.410E-03    -199.406E-03    -178.982E-03     636.155E-03    -199.406E-03    -19.0375E-03     55.4122E-03    -26.9504E-03    -28.4541E-03    -25.8239E-03     52.7820E-03    -26.9504E-03     29.0781E-03     150.636E+06     7.75834E+06    -27.8199E+06    -21.5375E+06     150.604E+06     1.50734E+06    -157.376E+03         36.4550
            1632     15.5756E-03     85.6028E-03     647.353E-03    -188.957E-03    -200.997E-03    -190.861E-03     646.780E-03    -198.520E-03     7.93738E-03     57.0051E-03    -27.2204E-03    -29.7495E-03    -25.5681E-03     52.8237E-03    -27.2204E-03     35.9863E-03     181.508E+06     72.8993E+06    -16.8220E+06    -16.8120E+06     181.498E+06     72.8993E+06     762.137E+03         40.0890
            1633     16.5503E-03     85.6516E-03     664.270E-03    -189.510E-03    -213.242E-03    -201.090E-03     661.007E-03    -198.399E-03    -49.9651E-03     56.0488E-03    -26.3081E-03    -29.7267E-03    -25.2452E-03     52.7232E-03    -27.4641E-03     28.3301E-03     205.475E+06     137.156E+06    -9.11783E+06    -9.11517E+06     205.473E+06     137.156E+06    -579.059E+03         43.2285
            1634     973.198E-06     86.4638E-03         1.91813     306.612E-03        -1.99600    -746.064E-03     668.200E-03     306.612E-03         1.39219     54.9677E-03    -27.3783E-03    -27.5886E-03    -27.5760E-03     54.9550E-03    -27.3783E-03     1.93478E-03    -79.6913E+06    -81.9333E+06    -243.625E+06    -81.2721E+06    -243.476E+06    -80.5018E+06    -4.33964E+06         24.0160
            1635     1.94594E-03     86.4663E-03         1.25071    -223.058E-03    -785.075E-03    -237.035E-03     702.670E-03    -223.058E-03    -469.856E-03     55.0674E-03    -27.5026E-03    -27.5648E-03    -27.5260E-03     55.0334E-03    -27.5074E-03     3.27777E-03    -73.4085E+06    -78.2394E+06    -233.800E+06    -78.6883E+06    -233.351E+06    -73.4085E+06    -8.12186E+06         24.0462
            1636     2.91891E-03     86.4705E-03     935.347E-03    -227.876E-03    -461.906E-03    -235.865E-03     709.307E-03    -227.876E-03     305.593E-03     55.0408E-03    -27.5029E-03    -27.5393E-03    -27.4355E-03     54.9734E-03    -27.5393E-03     4.66299E-03    -64.3240E+06    -73.6328E+06    -223.298E+06    -74.6171E+06    -222.314E+06    -64.3240E+06    -11.7984E+06         24.1035
            1637     3.89200E-03     86.4758E-03     759.000E-03    -225.243E-03    -286.098E-03    -193.444E-03     666.346E-03    -225.243E-03    -117.144E-03     55.0000E-03    -27.4584E-03    -27.5419E-03    -27.3512E-03     54.8927E-03    -27.5419E-03     5.91775E-03    -54.2832E+06    -67.5094E+06    -208.016E+06    -69.2082E+06    -206.317E+06    -54.2832E+06    -15.1536E+06         24.1939
            1638     4.86510E-03     86.4825E-03     699.464E-03    -218.080E-03    -231.536E-03    -186.160E-03     654.088E-03    -218.080E-03     80.2777E-03     54.9965E-03    -27.4448E-03    -27.5518E-03    -27.2962E-03     54.8479E-03    -27.5518E-03     6.97658E-03    -43.8802E+06    -60.4943E+06    -195.831E+06    -63.0621E+06    -193.263E+06    -43.8802E+06    -18.2557E+06         24.3172
            1639     5.83826E-03     86.4899E-03     696.690E-03    -214.073E-03    -228.079E-03    -211.373E-03     680.536E-03    -214.625E-03    -86.6757E-03     54.9859E-03    -27.4451E-03    -27.5425E-03    -27.2539E-03     54.7947E-03    -27.5425E-03     7.91861E-03    -35.4201E+06    -53.1931E+06    -182.686E+06    -56.7154E+06    -179.163E+06    -35.4201E+06    -20.9060E+06         24.4691
            1640     6.81159E-03     86.4984E-03     682.723E-03    -204.551E-03    -220.675E-03    -208.083E-03     679.540E-03    -213.961E-03     41.4459E-03     54.9659E-03    -27.4448E-03    -27.5212E-03    -27.2128E-03     54.7340E-03    -27.5212E-03     8.72480E-03    -28.7833E+06    -45.9658E+06    -168.677E+06    -50.4015E+06    -164.241E+06    -28.7833E+06    -22.7493E+06         24.6511
            1641     7.78475E-03     86.5076E-03     659.983E-03    -190.177E-03    -212.128E-03    -188.786E-03     658.592E-03    -212.128E-03     89.2994E-06     54.9193E-03    -27.4266E-03    -27.4891E-03    -27.1455E-03     54.6382E-03    -27.4891E-03     9.59220E-03    -25.4611E+06    -39.2428E+06    -154.842E+06    -44.4514E+06    -149.633E+06    -25.4611E+06    -23.8558E+06         24.8914
            1642     8.75817E-03     86.5179E-03     659.913E-03    -195.450E-03    -209.848E-03    -194.216E-03     658.678E-03    -209.848E-03     20.1946E-03     54.8709E-03    -27.4117E-03    -27.4453E-03    -27.0693E-03     54.5233E-03    -27.4401E-03     10.6587E-03    -23.6190E+06    -33.2032E+06    -139.696E+06    -38.8570E+06    -134.042E+06    -23.6190E+06    -23.7671E+06         25.3040
            1643     9.73153E-03     86.5293E-03     660.435E-03    -203.149E-03    -208.714E-03    -202.563E-03     659.849E-03    -208.714E-03    -11.8037E-03     54.7964E-03    -27.3852E-03    -27.4231E-03    -27.0123E-03     54.3856E-03    -27.3852E-03     11.5876E-03    -23.2479E+06    -28.0351E+06    -123.030E+06    -33.7262E+06    -117.247E+06    -23.3397E+06    -22.6232E+06         26.0430
            1644     10.7051E-03     86.5415E-03     644.373E-03    -192.294E-03    -207.711E-03    -191.674E-03     643.754E-03    -207.711E-03     9.04306E-03     54.7314E-03    -27.3137E-03    -27.4668E-03    -26.9600E-03     54.2246E-03    -27.3137E-03     12.8380E-03    -23.1208E+06    -27.4807E+06    -103.102E+06    -29.4202E+06    -97.4594E+06    -26.8245E+06    -20.3017E+06         27.1577
            1645     11.6787E-03     86.5557E-03     631.173E-03    -181.215E-03    -205.952E-03    -180.613E-03     630.570E-03    -205.952E-03    -2.16333E-03     54.7623E-03    -27.2277E-03    -27.5636E-03    -26.8245E-03     54.0232E-03    -27.2277E-03     15.4337E-03    -20.0027E+06    -30.5615E+06    -74.1315E+06    -25.9749E+06    -68.1593E+06    -30.5615E+06    -16.5708E+06         28.6238
            1646     12.6524E-03     86.5734E-03     630.194E-03    -179.920E-03    -203.965E-03    -179.157E-03     629.431E-03    -203.965E-03     13.5074E-03     54.8791E-03    -27.1031E-03    -27.7917E-03    -26.5796E-03     53.6670E-03    -27.1031E-03     19.7057E-03    -4.30381E+06    -28.5830E+06    -47.0593E+06    -23.6755E+06    -21.6396E+06    -34.6309E+06    -11.4778E+06         30.5429
            1647     13.6264E-03     86.5969E-03     629.482E-03    -178.782E-03    -202.173E-03    -177.878E-03     628.578E-03    -202.173E-03     18.7790E-03     55.5265E-03    -26.9141E-03    -28.6349E-03    -26.2736E-03     53.1652E-03    -26.9141E-03     27.3507E-03     68.1606E+06    -24.3117E+06    -37.7436E+06    -23.0904E+06     66.9394E+06    -37.7436E+06    -6.04761E+06         33.1241
            1648     14.6008E-03     86.6307E-03     628.792E-03    -181.254E-03    -200.681E-03    -180.868E-03     628.405E-03    -200.681E-03    -15.6090E-03     55.4250E-03    -26.9289E-03    -28.4954E-03    -25.8482E-03     52.7778E-03    -26.9289E-03     29.1901E-03     147.208E+06     4.48277E+06    -28.6620E+06    -21.2110E+06     147.141E+06    -2.90124E+06    -2.30961E+06         36.4413
            1649     15.5753E-03     86.6582E-03     636.851E-03    -184.666E-03    -202.133E-03    -186.726E-03     636.434E-03    -199.656E-03     17.9405E-03     56.9409E-03    -27.2020E-03    -29.7155E-03    -25.5362E-03     52.7616E-03    -27.2020E-03     35.9925E-03     182.262E+06     69.1239E+06    -15.6215E+06    -15.5955E+06     182.236E+06     69.1239E+06    -745.656E+03         40.0979
            1650     16.5505E-03     86.7065E-03     664.503E-03    -190.999E-03    -217.803E-03    -206.532E-03     661.719E-03    -199.486E-03     22.9618E-03     55.9584E-03    -26.2940E-03    -29.6569E-03    -25.1795E-03     52.6491E-03    -27.4621E-03     28.2671E-03     205.638E+06     136.436E+06    -8.24162E+06    -8.24004E+06     205.636E+06     136.436E+06    -302.874E+03         43.2755
            1651     972.833E-06     87.5193E-03         1.87420     317.255E-03        -1.96796    -729.199E-03     635.431E-03     317.255E-03         1.39338     55.0540E-03    -27.4408E-03    -27.6134E-03    -27.5471E-03     55.0417E-03    -27.4948E-03     1.92439E-03    -80.2867E+06    -82.5023E+06    -234.390E+06    -81.8896E+06    -234.192E+06    -81.0972E+06    -5.14688E+06         24.0110
            1652     1.94595E-03     87.5222E-03         1.23097    -214.992E-03    -780.319E-03    -251.145E-03     701.800E-03    -214.992E-03    -440.587E-03     54.9777E-03    -27.4414E-03    -27.5360E-03    -27.4238E-03     54.9441E-03    -27.5200E-03     3.25060E-03    -74.5303E+06    -78.9560E+06    -225.187E+06    -79.5530E+06    -224.590E+06    -74.5303E+06    -9.01837E+06         24.0416
            1653     2.91893E-03     87.5260E-03     923.201E-03    -224.482E-03    -459.268E-03    -227.352E-03     691.285E-03    -224.482E-03     295.079E-03     54.9798E-03    -27.4617E-03    -27.5195E-03    -27.3932E-03     54.9113E-03    -27.5195E-03     4.69378E-03    -64.9965E+06    -73.8549E+06    -214.620E+06    -75.2071E+06    -213.268E+06    -64.9965E+06    -13.3766E+06         24.0995
            1654     3.89199E-03     87.5315E-03     759.714E-03    -222.123E-03    -298.275E-03    -199.784E-03     661.224E-03    -222.123E-03    -117.981E-03     54.9550E-03    -27.4360E-03    -27.5199E-03    -27.3272E-03     54.8462E-03    -27.5199E-03     5.95810E-03    -54.8448E+06    -67.4858E+06    -200.459E+06    -69.8955E+06    -198.049E+06    -54.8448E+06    -17.5094E+06         24.1906
            1655     4.86519E-03     87.5379E-03     709.454E-03    -218.051E-03    -249.059E-03    -205.446E-03     665.841E-03    -218.051E-03     103.915E-03     54.9735E-03    -27.4425E-03    -27.5314E-03    -27.2918E-03     54.8228E-03    -27.5314E-03     7.02226E-03    -44.7122E+06    -60.2683E+06    -189.354E+06    -63.8340E+06    -185.788E+06    -44.7122E+06    -20.9733E+06         24.3146
            1656     5.83833E-03     87.5456E-03     700.832E-03    -217.255E-03    -236.461E-03    -222.641E-03     687.013E-03    -217.255E-03    -68.8179E-03     54.9754E-03    -27.4515E-03    -27.5256E-03    -27.2585E-03     54.7825E-03    -27.5256E-03     7.95615E-03    -36.4216E+06    -52.5658E+06    -177.178E+06    -57.4223E+06    -172.321E+06    -36.4216E+06    -23.9294E+06         24.4669
            1657     6.81146E-03     87.5539E-03     689.346E-03    -209.856E-03    -227.599E-03    -215.759E-03     685.247E-03    -217.597E-03     25.5729E-03     54.9430E-03    -27.4356E-03    -27.5057E-03    -27.2004E-03     54.7078E-03    -27.5057E-03     8.78071E-03    -30.0822E+06    -45.0280E+06    -164.861E+06    -51.1227E+06    -158.766E+06    -30.0822E+06    -26.1885E+06         24.6491
            1658     7.78481E-03     87.5633E-03     657.782E-03    -189.809E-03    -215.688E-03    -186.971E-03     654.944E-03    -215.688E-03     4.55766E-03     54.9047E-03    -27.4251E-03    -27.4759E-03    -27.1429E-03     54.6222E-03    -27.4757E-03     9.61758E-03    -26.8028E+06    -38.1890E+06    -152.454E+06    -45.2759E+06    -145.367E+06    -26.8028E+06    -27.4389E+06         24.8868
            1659     8.75814E-03     87.5732E-03     649.270E-03    -189.430E-03    -212.523E-03    -187.681E-03     647.521E-03    -212.523E-03     67.4554E-03     54.8692E-03    -27.4137E-03    -27.4425E-03    -27.0780E-03     54.5211E-03    -27.4301E-03     10.6630E-03    -25.3785E+06    -32.0157E+06    -139.379E+06    -39.8490E+06    -131.545E+06    -25.3785E+06    -27.8055E+06         25.2912
            1660     9.73166E-03     87.5849E-03     653.722E-03    -199.837E-03    -210.586E-03    -199.343E-03     653.228E-03    -210.586E-03     8.15588E-03     54.7937E-03    -27.3757E-03    -27.4305E-03    -27.0199E-03     54.3831E-03    -27.3757E-03     11.5878E-03    -24.3785E+06    -27.7697E+06    -124.473E+06    -34.7112E+06    -116.364E+06    -25.5456E+06    -26.8842E+06         26.0198
            1661     10.7050E-03     87.5969E-03     640.328E-03    -189.474E-03    -209.102E-03    -188.745E-03     639.600E-03    -209.102E-03     7.12423E-03     54.7273E-03    -27.3055E-03    -27.4695E-03    -26.9634E-03     54.2212E-03    -27.3055E-03     12.8257E-03    -22.0353E+06    -29.1109E+06    -106.603E+06    -29.9923E+06    -98.6457E+06    -29.1109E+06    -24.5988E+06         27.1253
            1662     11.6787E-03     87.6111E-03     630.037E-03    -180.574E-03    -207.059E-03    -180.084E-03     629.547E-03    -207.059E-03     3.73947E-03     54.7694E-03    -27.2215E-03    -27.5737E-03    -26.8356E-03     54.0312E-03    -27.2215E-03     15.4308E-03    -17.7307E+06    -33.0273E+06    -79.7490E+06    -25.9931E+06    -71.4866E+06    -33.0273E+06    -20.7425E+06         28.5833
            1663     12.6523E-03     87.6287E-03     629.205E-03    -182.579E-03    -205.050E-03    -181.725E-03     628.351E-03    -205.050E-03     21.0337E-03     54.8810E-03    -27.0993E-03    -27.7963E-03    -26.5943E-03     53.6791E-03    -27.0993E-03     19.6272E-03    -5.35508E+06    -30.4900E+06    -51.5031E+06    -22.6756E+06    -27.5103E+06    -37.1622E+06    -14.9689E+06         30.5012
            1664     13.6266E-03     87.6517E-03     628.640E-03    -182.736E-03    -203.401E-03    -181.674E-03     627.578E-03    -203.401E-03     18.1030E-03     55.5298E-03    -26.9106E-03    -28.6382E-03    -26.2852E-03     53.1768E-03    -26.9106E-03     27.2936E-03     63.9396E+06    -23.0282E+06    -39.1595E+06    -20.1579E+06     61.0693E+06    -39.1595E+06    -8.13711E+06         33.0933
            1665     14.6009E-03     87.6860E-03     630.043E-03    -186.926E-03    -202.141E-03    -186.497E-03     629.615E-03    -202.141E-03    -13.3468E-03     55.4083E-03    -26.9374E-03    -28.4806E-03    -25.8529E-03     52.7806E-03    -26.9374E-03     29.0668E-03     144.745E+06     6.70127E+06    -28.3607E+06    -18.7944E+06     144.638E+06    -2.75771E+06    -3.60093E+06         36.4269
            1666     15.5755E-03     87.7131E-03     619.201E-03    -174.910E-03    -200.839E-03    -174.668E-03     618.959E-03    -200.839E-03     14.7566E-03     56.8968E-03    -27.2124E-03    -29.6809E-03    -25.5024E-03     52.7183E-03    -27.2124E-03     35.9227E-03     180.771E+06     67.8092E+06    -16.2102E+06    -16.1863E+06     180.747E+06     67.8092E+06    -1.52692E+06         40.1077
            1667     16.5503E-03     87.7615E-03     595.740E-03    -148.475E-03    -202.092E-03    -150.519E-03     594.309E-03    -198.617E-03     51.7452E-03     55.8658E-03    -26.2411E-03    -29.6493E-03    -25.1021E-03     52.5400E-03    -27.4626E-03     28.2865E-03     204.903E+06     135.236E+06    -9.27910E+06    -9.27715E+06     204.901E+06     135.236E+06    -90.0779E+03         43.3252
            1668     972.746E-06     88.5748E-03         1.85153     266.983E-03        -1.87964    -716.514E-03     688.401E-03     266.983E-03         1.39797     55.0721E-03    -27.4541E-03    -27.6186E-03    -27.5418E-03     55.0592E-03    -27.5180E-03     1.94691E-03    -80.2030E+06    -81.7592E+06    -224.302E+06    -81.6905E+06    -224.056E+06    -80.5181E+06    -5.22690E+06         24.0069
            1669     1.94586E-03     88.5774E-03         1.14953    -224.280E-03    -696.620E-03    -222.221E-03     675.131E-03    -224.280E-03    -454.896E-03     54.9141E-03    -27.3993E-03    -27.5154E-03    -27.3637E-03     54.8785E-03    -27.5154E-03     3.34198E-03    -74.0549E+06    -78.3002E+06    -215.171E+06    -79.1204E+06    -214.351E+06    -74.0549E+06    -10.1870E+06         24.0375
            1670     2.91899E-03     88.5817E-03     857.864E-03    -220.619E-03    -406.836E-03    -201.628E-03     652.656E-03    -220.619E-03     226.471E-03     54.9082E-03    -27.4132E-03    -27.4968E-03    -27.3434E-03     54.8384E-03    -27.4968E-03     4.74489E-03    -64.4935E+06    -72.8776E+06    -204.914E+06    -74.7326E+06    -203.059E+06    -64.4935E+06    -15.1601E+06         24.0955
            1671     3.89210E-03     88.5869E-03     756.802E-03    -217.839E-03    -308.263E-03    -220.922E-03     669.461E-03    -217.839E-03    -124.127E-03     54.9294E-03    -27.4350E-03    -27.4956E-03    -27.3247E-03     54.8191E-03    -27.4956E-03     5.99758E-03    -54.4466E+06    -66.1240E+06    -192.040E+06    -69.3180E+06    -188.846E+06    -54.4466E+06    -19.6011E+06         24.1872
            1672     4.86515E-03     88.5936E-03     720.082E-03    -219.626E-03    -268.552E-03    -233.518E-03     685.048E-03    -219.626E-03     89.8030E-03     54.9596E-03    -27.4479E-03    -27.5123E-03    -27.2954E-03     54.8071E-03    -27.5123E-03     7.06602E-03    -44.4172E+06     -58.729E+06    -182.015E+06    -63.4540E+06    -177.290E+06    -44.4172E+06    -23.4785E+06         24.3118
            1673     5.83829E-03     88.6011E-03     686.809E-03    -214.554E-03    -236.037E-03    -217.065E-03     674.016E-03    -220.734E-03    -57.5025E-03     54.9471E-03    -27.4403E-03    -27.5076E-03    -27.2452E-03     54.7520E-03    -27.5076E-03     7.99613E-03    -36.5626E+06    -51.0589E+06    -170.986E+06    -57.4870E+06    -164.558E+06    -36.5626E+06    -26.8441E+06         24.4645
            1674     6.81159E-03     88.6095E-03     675.551E-03    -207.753E-03    -222.782E-03    -206.202E-03     670.713E-03    -219.494E-03     22.2417E-03     54.9200E-03    -27.4286E-03    -27.4884E-03    -27.1917E-03     54.6831E-03    -27.4884E-03     8.81256E-03    -30.6710E+06    -43.6191E+06    -160.486E+06    -51.6378E+06    -152.468E+06    -30.6710E+06    -29.4158E+06         24.6475
            1675     7.78484E-03     88.6186E-03     669.347E-03    -203.458E-03    -219.229E-03    -202.717E-03     667.005E-03    -217.629E-03    -26.7399E-03     54.9110E-03    -27.4353E-03    -27.4724E-03    -27.1618E-03     54.6280E-03    -27.4628E-03     9.62951E-03    -27.6558E+06    -36.5193E+06    -149.729E+06    -45.8676E+06    -140.381E+06    -27.6558E+06    -31.0413E+06         24.8827
            1676     8.75812E-03     88.6289E-03     650.513E-03    -191.375E-03    -217.039E-03    -192.122E-03     649.660E-03    -215.439E-03     28.5673E-03     54.8959E-03    -27.4234E-03    -27.4596E-03    -27.1139E-03     54.5502E-03    -27.4234E-03     10.6329E-03    -26.4641E+06    -30.1668E+06    -138.272E+06    -40.5258E+06    -127.913E+06    -26.4641E+06    -31.7266E+06         25.2783
            1677     9.73143E-03     88.6401E-03     638.839E-03    -186.396E-03    -212.833E-03    -185.675E-03     638.119E-03    -212.833E-03    -29.4010E-03     54.7891E-03    -27.3711E-03    -27.4318E-03    -27.0227E-03     54.3800E-03    -27.3711E-03     11.5643E-03    -23.9925E+06    -27.9795E+06    -125.710E+06    -35.5831E+06    -114.843E+06    -27.2554E+06    -31.2111E+06         25.9959
            1678     10.7051E-03     88.6524E-03     632.666E-03    -184.573E-03    -210.310E-03    -183.932E-03     632.024E-03    -210.310E-03    -28.6117E-03     54.7033E-03    -27.3007E-03    -27.4536E-03    -26.9498E-03     54.1994E-03    -27.3007E-03     12.7980E-03    -20.1012E+06    -31.2994E+06    -110.101E+06    -31.0304E+06    -99.1717E+06    -31.2994E+06    -29.3048E+06         27.0917
            1679     11.6786E-03     88.6662E-03     621.750E-03    -176.619E-03    -207.822E-03    -176.480E-03     621.611E-03    -207.822E-03    -620.967E-06     54.7453E-03    -27.2160E-03    -27.5580E-03    -26.8237E-03     54.0111E-03    -27.2160E-03     15.3809E-03    -15.5387E+06    -35.7250E+06       -85.9E+06    -26.8601E+06    -74.5787E+06    -35.7250E+06    -25.5787E+06         28.5412
            1680     12.6525E-03     88.6840E-03     627.526E-03    -182.944E-03    -205.614E-03    -181.956E-03     626.538E-03    -205.614E-03     33.8096E-03     54.9237E-03    -27.0984E-03    -27.8406E-03    -26.6567E-03     53.7398E-03    -27.0984E-03     19.5088E-03    -5.40143E+06    -35.1717E+06    -56.7048E+06    -23.3600E+06    -33.6620E+06    -40.2560E+06    -19.6071E+06         30.4575
            1681     13.6262E-03     88.7067E-03     634.906E-03    -189.077E-03    -204.138E-03    -188.086E-03     633.915E-03    -204.138E-03     29.0337E-03     55.5980E-03    -26.9152E-03    -28.7008E-03    -26.3674E-03     53.2646E-03    -26.9152E-03     27.1753E-03     58.6931E+06    -26.9805E+06    -42.7176E+06    -21.3767E+06     53.0893E+06    -42.7176E+06    -11.3989E+06         33.0603
            1682     14.6005E-03     88.7412E-03     617.387E-03    -178.629E-03    -202.753E-03    -178.444E-03     617.202E-03    -202.753E-03    -2.89972E-03     55.3476E-03    -26.9624E-03    -28.3876E-03    -25.7862E-03     52.7462E-03    -26.9624E-03     28.8859E-03     140.431E+06     8.14887E+06    -30.7095E+06    -19.8836E+06     140.258E+06    -2.50399E+06    -3.98147E+06         36.4107
            1683     15.5754E-03     88.7678E-03     595.198E-03    -167.050E-03    -200.846E-03    -166.599E-03     594.747E-03    -200.846E-03     27.3686E-03     56.7764E-03    -27.2302E-03    -29.5435E-03    -25.3826E-03     52.6156E-03    -27.2302E-03     35.7465E-03     179.596E+06     68.9870E+06    -16.2718E+06    -16.2658E+06     179.591E+06     68.9870E+06    -963.385E+03         40.1164
            1684     16.5506E-03     88.8169E-03     567.413E-03    -141.821E-03    -198.002E-03    -138.819E-03     564.411E-03    -198.002E-03    -16.3838E-03     55.7588E-03    -26.1899E-03    -29.6112E-03    -25.0135E-03     52.4278E-03    -27.4565E-03     28.2577E-03     204.054E+06     134.150E+06    -9.49577E+06    -9.49363E+06     204.052E+06     134.150E+06    -349.441E+03         43.3742
            1685     973.093E-06     89.6305E-03         1.73323     225.446E-03        -1.71708    -670.450E-03     686.599E-03     225.446E-03         1.35899     54.8913E-03    -27.3758E-03    -27.5161E-03    -27.4938E-03     54.8789E-03    -27.3858E-03     1.83813E-03    -79.2716E+06    -80.1885E+06    -213.319E+06    -79.9154E+06    -212.945E+06    -79.9182E+06    -6.27136E+06         24.0043
            1686     1.94595E-03     89.6331E-03         1.06842    -218.936E-03    -617.045E-03    -205.159E-03     656.532E-03    -218.936E-03    -380.167E-03     54.8758E-03    -27.4087E-03    -27.4676E-03    -27.3901E-03     54.8382E-03    -27.4486E-03     3.42955E-03    -72.5494E+06    -76.2301E+06    -203.670E+06    -77.3316E+06    -202.568E+06    -72.5494E+06    -11.4583E+06         24.0342
            1687     2.91902E-03     89.6370E-03     831.160E-03    -216.042E-03    -387.058E-03    -219.688E-03     663.790E-03    -216.042E-03     238.610E-03     54.8926E-03    -27.4168E-03    -27.4768E-03    -27.3584E-03     54.8202E-03    -27.4628E-03     4.83978E-03    -63.1273E+06    -70.9702E+06    -194.335E+06    -73.3674E+06    -191.938E+06    -63.1273E+06    -16.6550E+06         24.0918
            1688     3.89210E-03     89.6426E-03     746.107E-03    -219.079E-03    -302.018E-03    -238.564E-03     682.653E-03    -219.079E-03    -91.0668E-03     54.8993E-03    -27.4283E-03    -27.4721E-03    -27.3161E-03     54.7870E-03    -27.4721E-03     6.04765E-03    -53.4735E+06    -64.0965E+06    -182.784E+06    -68.2352E+06    -178.645E+06    -53.4735E+06    -21.5471E+06         24.1839
            1689     4.86522E-03     89.6490E-03     710.261E-03    -222.604E-03    -263.724E-03    -235.004E-03     681.693E-03    -222.757E-03     68.4663E-03     54.9292E-03    -27.4377E-03    -27.4925E-03    -27.2828E-03     54.7742E-03    -27.4925E-03     7.12084E-03    -43.5597E+06    -56.5773E+06    -174.025E+06    -62.5812E+06    -168.021E+06    -43.5597E+06    -25.6915E+06         24.3096
            1690     5.83841E-03     89.6566E-03     664.591E-03    -209.493E-03    -227.869E-03    -202.813E-03     652.402E-03    -222.360E-03    -56.2843E-03     54.9396E-03    -27.4476E-03    -27.4924E-03    -27.2521E-03     54.7430E-03    -27.4913E-03     8.03019E-03    -35.8506E+06    -48.9586E+06    -164.136E+06    -57.0268E+06    -156.067E+06    -35.8506E+06    -29.2372E+06         24.4628
            1691     6.81156E-03     89.6650E-03     657.725E-03    -205.654E-03    -219.455E-03    -201.677E-03     653.748E-03    -219.455E-03     51.5548E-03     54.9325E-03    -27.4516E-03    -27.4772E-03    -27.2166E-03     54.6963E-03    -27.4761E-03     8.80140E-03    -30.3374E+06    -41.2646E+06    -155.196E+06    -51.4542E+06    -145.007E+06    -30.3374E+06    -32.3882E+06         24.6464
            1692     7.78480E-03     89.6742E-03     673.967E-03    -217.325E-03    -224.517E-03    -222.178E-03     672.715E-03    -218.412E-03    -147.745E-06     54.9191E-03    -27.4467E-03    -27.4704E-03    -27.1788E-03     54.6353E-03    -27.4545E-03     9.64115E-03    -27.9873E+06    -34.1005E+06    -146.506E+06    -45.9818E+06    -134.625E+06    -27.9873E+06    -34.4620E+06         24.8788
            1693     8.75805E-03     89.6844E-03     654.678E-03    -201.106E-03    -224.114E-03    -206.564E-03     654.031E-03    -218.009E-03     28.3072E-03     54.9015E-03    -27.4183E-03    -27.4722E-03    -27.1260E-03     54.5552E-03    -27.4183E-03     10.6456E-03    -26.3434E+06    -28.7676E+06    -136.690E+06    -41.0189E+06    -123.539E+06    -27.2430E+06    -35.3784E+06         25.2651
            1694     9.73146E-03     89.6956E-03     620.445E-03    -173.238E-03    -215.246E-03    -172.623E-03     619.830E-03    -215.246E-03    -6.85365E-03     54.8010E-03    -27.3690E-03    -27.4486E-03    -27.0410E-03     54.3933E-03    -27.3690E-03     11.5456E-03    -22.2901E+06    -28.5835E+06    -126.298E+06    -36.2888E+06    -112.357E+06    -28.5260E+06    -35.3521E+06         25.9711
            1695     10.7048E-03     89.7077E-03     618.834E-03    -173.364E-03    -211.372E-03    -172.985E-03     618.455E-03    -211.372E-03    -6.32107E-03     54.7001E-03    -27.2985E-03    -27.4563E-03    -26.9546E-03     54.1984E-03    -27.2985E-03     12.7721E-03    -17.8053E+06    -33.3163E+06    -113.052E+06    -31.9988E+06    -98.8589E+06    -33.3163E+06    -33.8480E+06         27.0564
            1696     11.6786E-03     89.7216E-03     630.565E-03    -184.268E-03    -208.606E-03    -183.954E-03     630.251E-03    -208.606E-03    -1.12381E-03     54.7513E-03    -27.2139E-03    -27.5668E-03    -26.8413E-03     54.0258E-03    -27.2139E-03     15.2963E-03    -13.5949E+06    -38.5317E+06    -91.9467E+06    -28.4429E+06    -77.0987E+06    -38.5317E+06    -30.4868E+06         28.4965
            1697     12.6522E-03     89.7391E-03     627.681E-03    -183.177E-03    -206.668E-03    -182.397E-03     626.901E-03    -206.668E-03     18.7028E-03     54.9641E-03    -27.0990E-03    -27.8800E-03    -26.6940E-03     53.7780E-03    -27.0990E-03     19.5193E-03    -5.19292E+06    -41.0222E+06    -62.9186E+06    -25.3082E+06    -39.8308E+06    -43.9946E+06    -24.4803E+06         30.4108
            1698     13.6261E-03     89.7622E-03     612.830E-03    -173.151E-03    -204.609E-03    -172.518E-03     612.197E-03    -204.609E-03     16.4839E-03     55.6079E-03    -26.9149E-03    -28.7105E-03    -26.3819E-03     53.2792E-03    -26.9149E-03     27.1740E-03     51.5324E+06    -31.8933E+06    -48.0680E+06    -22.8821E+06     42.5212E+06    -48.0680E+06    -14.7189E+06         33.0246
            1699     14.6005E-03     89.7959E-03     600.443E-03    -164.577E-03    -202.195E-03    -164.449E-03     600.314E-03    -202.195E-03    -16.4951E-03     55.2933E-03    -26.9511E-03    -28.3445E-03    -25.7390E-03     52.6878E-03    -26.9511E-03     28.9118E-03     133.686E+06     4.65042E+06    -34.3618E+06    -20.8261E+06     133.352E+06    -8.55185E+06    -5.12263E+06         36.3923
            1700     15.5753E-03     89.8231E-03     598.010E-03    -168.423E-03    -199.915E-03    -168.068E-03     597.655E-03    -199.915E-03     16.1900E-03     56.6720E-03    -27.2115E-03    -29.4756E-03    -25.3036E-03     52.5000E-03    -27.2115E-03     35.7940E-03     179.066E+06     64.7411E+06    -16.8660E+06    -16.8559E+06     179.056E+06     64.7411E+06    -1.25485E+06         40.1232
            1701     16.5505E-03     89.8712E-03     621.089E-03    -176.258E-03    -214.198E-03    -188.814E-03     618.064E-03    -198.617E-03    -32.7148E-03     55.5982E-03    -26.0797E-03    -29.5698E-03    -24.8736E-03     52.2700E-03    -27.4477E-03     28.2501E-03     203.445E+06     133.110E+06    -9.37926E+06    -9.37435E+06     203.440E+06     133.110E+06    -756.024E+03         43.4213
            1702     973.010E-06     90.6860E-03         1.50122     205.914E-03        -1.46522    -585.629E-03     621.624E-03     205.914E-03         1.17444     54.7152E-03    -27.3170E-03    -27.3995E-03    -27.3870E-03     54.7026E-03    -27.3170E-03     1.80124E-03    -75.6303E+06    -76.9213E+06    -200.079E+06    -77.0859E+06    -199.582E+06    -75.9618E+06    -7.08845E+06         24.0017
            1703     1.94623E-03     90.6885E-03     980.593E-03    -196.520E-03    -546.317E-03    -223.410E-03     657.686E-03    -196.520E-03    -321.837E-03     54.8167E-03    -27.3801E-03    -27.4370E-03    -27.3991E-03     54.7788E-03    -27.3801E-03     3.45481E-03    -69.5347E+06    -73.0930E+06    -191.637E+06    -74.5517E+06    -190.178E+06    -69.5347E+06    -12.7158E+06         24.0305
            1704     2.91913E-03     90.6927E-03     821.436E-03    -211.527E-03    -379.781E-03    -261.288E-03     702.943E-03    -211.527E-03     195.982E-03     54.8885E-03    -27.4253E-03    -27.4637E-03    -27.3901E-03     54.8152E-03    -27.4256E-03     4.86393E-03    -60.0609E+06    -67.0226E+06    -183.053E+06    -70.0637E+06    -180.011E+06    -60.0609E+06    -18.1671E+06         24.0880
            1705     3.89214E-03     90.6981E-03     724.924E-03    -221.756E-03    -283.300E-03    -237.154E-03     678.778E-03    -221.756E-03    -80.9020E-03     54.8767E-03    -27.4281E-03    -27.4500E-03    -27.3157E-03     54.7622E-03    -27.4479E-03     6.10991E-03    -50.9599E+06    -60.3867E+06    -172.642E+06    -65.4124E+06    -167.617E+06    -50.9599E+06    -23.0513E+06         24.1813
            1706     4.86530E-03     90.7047E-03     672.899E-03    -219.386E-03    -236.929E-03    -211.722E-03     650.892E-03    -222.587E-03     62.3652E-03     54.9186E-03    -27.4450E-03    -27.4762E-03    -27.2907E-03     54.7624E-03    -27.4743E-03     7.15053E-03    -41.4110E+06    -53.2693E+06    -165.285E+06    -60.5721E+06    -157.982E+06    -41.4110E+06    -27.4785E+06         24.3078
            1707     5.83840E-03     90.7123E-03     653.583E-03    -210.789E-03    -227.797E-03    -209.119E-03     644.641E-03    -220.525E-03    -44.3523E-03     54.9480E-03    -27.4686E-03    -27.4815E-03    -27.2741E-03     54.7505E-03    -27.4785E-03     8.04919E-03    -33.8670E+06    -45.1696E+06    -156.578E+06    -55.0050E+06    -146.742E+06    -33.8670E+06    -31.4661E+06         24.4613
            1708     6.81154E-03     90.7208E-03     649.369E-03    -207.168E-03    -226.307E-03    -211.619E-03     646.548E-03    -219.035E-03     49.4584E-03     54.9483E-03    -27.4674E-03    -27.4774E-03    -27.2387E-03     54.7101E-03    -27.4680E-03     8.84112E-03    -28.7573E+06    -37.4221E+06    -149.012E+06    -49.6217E+06    -136.812E+06    -28.7573E+06    -34.7445E+06         24.6448
            1709     7.78476E-03     90.7300E-03     641.470E-03    -201.434E-03    -222.219E-03    -205.091E-03     640.622E-03    -217.714E-03     5.44972E-03     54.9238E-03    -27.4492E-03    -27.4719E-03    -27.1859E-03     54.6383E-03    -27.4497E-03     9.67145E-03    -26.8705E+06    -31.2177E+06    -142.271E+06    -45.1283E+06    -128.028E+06    -27.2029E+06    -37.1281E+06         24.8742
            1710     8.75805E-03     90.7400E-03     636.746E-03    -196.053E-03    -220.511E-03    -199.930E-03     636.119E-03    -216.006E-03     35.7610E-03     54.8988E-03    -27.4137E-03    -27.4748E-03    -27.1266E-03     54.5505E-03    -27.4137E-03     10.6745E-03    -24.2391E+06    -27.5509E+06    -134.237E+06    -40.7480E+06    -118.176E+06    -27.1030E+06    -38.6720E+06         25.2515
            1711     9.73135E-03     90.7511E-03     628.123E-03    -189.014E-03    -215.717E-03    -190.482E-03     627.776E-03    -213.902E-03     11.4458E-03     54.8153E-03    -27.3652E-03    -27.4652E-03    -27.0586E-03     54.4087E-03    -27.3652E-03     11.5347E-03    -19.1956E+06    -28.9744E+06    -125.984E+06    -36.4678E+06    -108.712E+06    -28.9744E+06    -39.2611E+06         25.9457
            1712     10.7049E-03     90.7630E-03     631.428E-03    -189.266E-03    -213.588E-03    -190.937E-03     631.284E-03    -211.773E-03     3.04418E-03     54.7376E-03    -27.2972E-03    -27.4923E-03    -26.9895E-03     54.2348E-03    -27.2972E-03     12.7857E-03    -14.7637E+06    -34.5477E+06    -115.425E+06    -32.4465E+06    -97.7424E+06    -34.5477E+06    -38.2450E+06         27.0193
            1713     11.6783E-03     90.7768E-03     636.520E-03    -191.570E-03    -210.056E-03    -191.087E-03     636.036E-03    -210.056E-03    -15.8000E-03     54.7884E-03    -27.2174E-03    -27.5989E-03    -26.8727E-03     54.0622E-03    -27.2174E-03     15.3181E-03    -10.8285E+06    -40.1948E+06    -97.0725E+06    -28.8988E+06    -79.0021E+06    -40.1948E+06    -34.9631E+06         28.4487
            1714     12.6521E-03     90.7944E-03     615.213E-03    -172.496E-03    -207.882E-03    -171.395E-03     614.112E-03    -207.882E-03     5.78581E-03     54.9439E-03    -27.1007E-03    -27.8582E-03    -26.6651E-03     53.7507E-03    -27.1007E-03     19.5574E-03    -4.24908E+06    -46.1147E+06    -68.7335E+06    -26.1932E+06    -45.8758E+06    -47.0283E+06    -28.9569E+06         30.3602
            1715     13.6261E-03     90.8173E-03     593.109E-03    -156.618E-03    -204.725E-03    -155.739E-03     592.231E-03    -204.725E-03     16.9853E-03     55.5580E-03    -26.9115E-03    -28.6627E-03    -26.3393E-03     53.2345E-03    -26.9115E-03     27.1573E-03     43.3439E+06    -37.2188E+06    -53.5172E+06    -24.2000E+06     30.1005E+06    -53.2926E+06    -18.7547E+06         32.9853
            1716     14.6004E-03     90.8510E-03     599.115E-03    -167.188E-03    -201.805E-03    -166.955E-03     598.883E-03    -201.805E-03    -21.8085E-03     55.2458E-03    -26.9321E-03    -28.3120E-03    -25.7210E-03     52.6549E-03    -26.9321E-03     28.8267E-03     125.258E+06     95.4005E+03    -37.6200E+06    -21.7064E+06     124.505E+06    -15.0648E+06    -7.51864E+06         36.3709
            1717     15.5755E-03     90.8777E-03     607.312E-03    -178.486E-03    -199.984E-03    -178.332E-03     607.158E-03    -199.984E-03    -10.0443E-03     56.5839E-03    -27.1755E-03    -29.4129E-03    -25.2301E-03     52.4010E-03    -27.1755E-03     35.7960E-03     178.479E+06     59.3755E+06    -17.0269E+06    -16.9950E+06     178.448E+06     59.3755E+06    -2.24097E+06         40.1272
            1718     16.5507E-03     90.9261E-03     615.411E-03    -172.787E-03    -214.557E-03    -186.793E-03     613.837E-03    -198.977E-03     17.8113E-03     55.4382E-03    -25.9483E-03    -29.5198E-03    -24.7038E-03     52.1013E-03    -27.4274E-03     28.2182E-03     202.523E+06     131.170E+06    -9.65542E+06    -9.64487E+06     202.512E+06     131.170E+06    -1.37801E+06         43.4656
            1719     973.235E-06     91.7412E-03         1.27847     131.699E-03        -1.17767    -568.412E-03     669.215E-03     131.699E-03     806.370E-03     54.6881E-03    -27.2462E-03    -27.4430E-03    -27.4292E-03     54.6743E-03    -27.2462E-03     1.98637E-03    -69.0280E+06    -71.0383E+06    -185.989E+06    -70.6772E+06    -185.393E+06    -69.9857E+06    -7.41033E+06         23.9971
            1720     1.94612E-03     91.7444E-03     900.741E-03    -219.876E-03    -459.326E-03    -225.404E-03     666.819E-03    -219.876E-03    -313.070E-03     54.7902E-03    -27.3454E-03    -27.4451E-03    -27.3868E-03     54.7528E-03    -27.3662E-03     3.43368E-03    -63.4948E+06    -66.7484E+06    -178.215E+06    -68.5154E+06    -176.448E+06    -63.4948E+06    -13.6165E+06         24.0259
            1721     2.91916E-03     91.7483E-03     764.314E-03    -221.493E-03    -325.639E-03    -239.729E-03     680.922E-03    -224.010E-03     95.8186E-03     54.8182E-03    -27.3829E-03    -27.4356E-03    -27.3415E-03     54.7450E-03    -27.4037E-03     4.85272E-03    -55.3328E+06    -61.3663E+06    -171.394E+06    -65.0478E+06    -167.713E+06    -55.3328E+06    -19.4172E+06         24.0840
            1722     3.89232E-03     91.7538E-03     677.545E-03    -218.734E-03    -248.729E-03    -201.015E-03     634.919E-03    -223.822E-03    -103.603E-03     54.8717E-03    -27.4264E-03    -27.4470E-03    -27.3310E-03     54.7557E-03    -27.4264E-03     6.14980E-03    -46.4108E+06    -54.5426E+06    -162.113E+06    -60.4564E+06    -156.200E+06    -46.4108E+06    -24.3830E+06         24.1786
            1723     4.86529E-03     91.7602E-03     647.119E-03    -213.947E-03    -226.591E-03    -205.590E-03     631.735E-03    -219.565E-03     52.1531E-03     54.9332E-03    -27.4595E-03    -27.4774E-03    -27.3180E-03     54.7747E-03    -27.4604E-03     7.20633E-03    -37.1639E+06    -47.0080E+06    -155.403E+06    -55.4736E+06    -146.937E+06    -37.1639E+06    -28.9129E+06         24.3059
            1724     5.83843E-03     91.7679E-03     660.264E-03    -215.972E-03    -237.477E-03    -229.310E-03     655.145E-03    -219.020E-03    -43.2445E-03     54.9346E-03    -27.4647E-03    -27.4724E-03    -27.2703E-03     54.7337E-03    -27.4660E-03     8.11620E-03    -30.2844E+06    -39.4701E+06    -148.154E+06    -50.8146E+06    -136.810E+06    -30.2844E+06    -33.1423E+06         24.4591
            1725     6.81160E-03     91.7763E-03     650.430E-03    -210.171E-03    -231.385E-03    -220.233E-03     649.016E-03    -219.909E-03     17.0307E-03     54.9399E-03    -27.4578E-03    -27.4798E-03    -27.2361E-03     54.6966E-03    -27.4582E-03     8.93405E-03    -25.7300E+06    -32.6547E+06    -142.405E+06    -46.4830E+06    -128.577E+06    -25.7300E+06    -36.3601E+06         24.6424
            1726     7.78479E-03     91.7854E-03     618.916E-03    -188.664E-03    -218.076E-03    -188.190E-03     618.442E-03    -218.076E-03    -22.8807E-03     54.9382E-03    -27.4437E-03    -27.4926E-03    -27.2038E-03     54.6494E-03    -27.4437E-03     9.73161E-03    -23.5511E+06    -27.1780E+06    -136.566E+06    -42.4338E+06    -120.378E+06    -24.4837E+06     -38.975E+06         24.8697
            1727     8.75804E-03     91.7954E-03     617.648E-03    -189.181E-03    -214.786E-03    -188.939E-03     617.406E-03    -214.786E-03    -7.22709E-03     54.9022E-03    -27.4082E-03    -27.4826E-03    -27.1299E-03     54.5495E-03    -27.4082E-03     10.7415E-03    -20.2658E+06    -25.1928E+06    -130.357E+06    -38.8554E+06    -111.767E+06    -25.1928E+06    -41.1846E+06         25.2392
            1728     9.73140E-03     91.8068E-03     638.625E-03    -207.240E-03    -215.639E-03    -209.245E-03     638.164E-03    -213.173E-03    -28.2199E-03     54.8341E-03    -27.3608E-03    -27.4840E-03    -27.0726E-03     54.4227E-03    -27.3608E-03     11.6069E-03    -15.1101E+06    -27.8013E+06    -124.242E+06    -35.5015E+06    -103.851E+06    -27.8013E+06    -42.4992E+06         25.9205
            1729     10.7048E-03     91.8184E-03     636.614E-03    -202.082E-03    -215.071E-03    -204.104E-03     636.170E-03    -212.605E-03    -1.68352E-03     54.7717E-03    -27.2953E-03    -27.5243E-03    -27.0185E-03     54.2660E-03    -27.2953E-03     12.8279E-03    -11.1169E+06    -34.4862E+06    -116.772E+06    -32.3103E+06    -95.5786E+06    -34.4862E+06    -42.2706E+06         26.9805
            1730     11.6783E-03     91.8324E-03     610.093E-03    -178.012E-03    -210.828E-03    -177.497E-03     609.579E-03    -210.828E-03    -3.31051E-03     54.7990E-03    -27.2191E-03    -27.6089E-03    -26.8772E-03     54.0673E-03    -27.2191E-03     15.3772E-03    -7.66061E+06    -41.0491E+06    -102.019E+06    -29.0511E+06    -80.6287E+06    -41.0491E+06    -39.4260E+06         28.3974
            1731     12.6520E-03     91.8493E-03     596.218E-03    -163.342E-03    -207.686E-03    -162.518E-03     595.394E-03    -207.686E-03     5.46577E-03     54.9243E-03    -27.1021E-03    -27.8389E-03    -26.6484E-03     53.7338E-03    -27.1021E-03     19.5401E-03    -2.51042E+06    -48.6087E+06    -75.2652E+06    -26.1170E+06    -51.6586E+06    -48.6087E+06    -33.3019E+06         30.3050
            1732     13.6261E-03     91.8725E-03     595.091E-03    -166.286E-03    -204.544E-03    -165.474E-03     594.280E-03    -204.544E-03     5.98386E-03     55.5262E-03    -26.9071E-03    -28.6324E-03    -26.3097E-03     53.2035E-03    -26.9071E-03     27.1304E-03     35.7057E+06    -40.1826E+06    -59.4270E+06    -24.1852E+06     17.3770E+06    -57.0957E+06    -22.8980E+06         32.9417
            1733     14.6006E-03     91.9056E-03     592.158E-03    -172.247E-03    -202.150E-03    -171.894E-03     591.805E-03    -202.150E-03    -20.7209E-03     55.2086E-03    -26.8943E-03    -28.3092E-03    -25.7094E-03     52.6088E-03    -26.8943E-03     28.8676E-03     115.666E+06    -6.88284E+06    -40.3204E+06    -21.8117E+06     114.070E+06    -23.7959E+06    -10.9771E+06         36.3456
            1734     15.5754E-03     91.9324E-03     583.214E-03    -170.468E-03    -200.193E-03    -170.130E-03     582.877E-03    -200.193E-03     3.22769E-03     56.4429E-03    -27.1157E-03    -29.3250E-03    -25.1361E-03     52.2540E-03    -27.1157E-03     35.7659E-03     176.556E+06     49.9810E+06    -16.9260E+06    -16.8102E+06     176.440E+06     49.9810E+06    -4.19308E+06         40.1275
            1735     16.5510E-03     91.9804E-03     545.916E-03    -135.483E-03    -197.336E-03    -133.818E-03     544.250E-03    -197.336E-03     38.0209E-03     55.2285E-03    -25.8482E-03    -29.4193E-03    -24.5306E-03     51.8891E-03    -27.3976E-03     28.1602E-03     201.181E+06     127.938E+06    -9.08683E+06    -9.05990E+06     201.154E+06     127.938E+06    -2.04006E+06         43.5063
            1736     973.075E-06     92.7972E-03         1.06926     37.5806E-03    -898.451E-03    -596.368E-03     771.446E-03     33.3167E-03     486.125E-03     54.7508E-03    -27.2524E-03    -27.4982E-03    -27.4487E-03     54.7363E-03    -27.2874E-03     2.11429E-03    -60.8991E+06    -62.6061E+06    -170.910E+06    -62.3232E+06    -170.154E+06    -61.9385E+06    -8.51448E+06         23.9901
            1737     1.94605E-03     92.7996E-03     799.797E-03    -255.008E-03    -338.821E-03    -190.409E-03     659.701E-03    -263.324E-03    -167.770E-03     54.7494E-03    -27.3214E-03    -27.4281E-03    -27.3339E-03     54.7111E-03    -27.3773E-03     3.45499E-03    -56.0138E+06    -58.7844E+06    -164.627E+06    -60.5968E+06    -162.733E+06    -56.0955E+06    -13.7908E+06         24.0211
            1738     2.91930E-03     92.8040E-03     697.249E-03    -228.409E-03    -261.796E-03    -188.765E-03     632.882E-03    -237.074E-03     77.2682E-03     54.7892E-03    -27.3741E-03    -27.4153E-03    -27.3191E-03     54.7139E-03    -27.3950E-03     4.92704E-03    -48.1186E+06    -53.7598E+06    -158.338E+06    -57.8542E+06    -154.244E+06    -48.1186E+06    -19.8289E+06         24.0798
            1739     3.89228E-03     92.8093E-03     649.745E-03    -217.492E-03    -227.236E-03    -189.863E-03     619.555E-03    -224.675E-03    -101.874E-03     54.8504E-03    -27.4147E-03    -27.4367E-03    -27.3182E-03     54.7328E-03    -27.4156E-03     6.19063E-03    -39.7894E+06    -46.9315E+06    -150.916E+06    -53.7936E+06    -144.054E+06    -39.7894E+06    -25.6981E+06         24.1744
            1740     4.86543E-03     92.8160E-03     647.360E-03    -213.114E-03    -229.355E-03    -214.558E-03     639.261E-03    -219.812E-03     40.7780E-03     54.9015E-03    -27.4433E-03    -27.4602E-03    -27.2967E-03     54.7397E-03    -27.4450E-03     7.27614E-03    -31.5019E+06    -39.3119E+06    -145.356E+06    -48.9849E+06    -135.683E+06    -31.5019E+06    -30.3797E+06         24.3022
            1741     5.83854E-03     92.8237E-03     645.967E-03    -206.953E-03    -230.176E-03    -215.350E-03     643.179E-03    -218.991E-03    -20.3322E-03     54.9123E-03    -27.4492E-03    -27.4641E-03    -27.2576E-03     54.7070E-03    -27.4504E-03     8.20260E-03    -24.5192E+06    -31.8835E+06    -139.199E+06    -44.3017E+06    -126.781E+06    -24.5192E+06    -34.2731E+06         24.4556
            1742     6.81173E-03     92.8319E-03     633.734E-03    -202.304E-03    -221.999E-03    -205.713E-03     632.938E-03    -217.795E-03     33.6669E-03     54.9269E-03    -27.4469E-03    -27.4776E-03    -27.2280E-03     54.6777E-03    -27.4473E-03     9.04034E-03    -20.0462E+06    -25.6990E+06    -134.901E+06    -40.4495E+06    -120.150E+06    -20.0462E+06    -37.2907E+06         24.6392
            1743     7.78494E-03     92.8412E-03     630.229E-03    -199.967E-03    -223.028E-03    -206.454E-03     629.960E-03    -216.273E-03     14.2233E-03     54.9250E-03    -27.4308E-03    -27.4957E-03    -27.1996E-03     54.6289E-03    -27.4308E-03     9.85359E-03    -17.8848E+06    -21.6580E+06    -129.604E+06    -37.3150E+06    -112.200E+06    -19.6318E+06    -40.0225E+06         24.8662
            1744     8.75816E-03     92.8511E-03     628.979E-03    -201.367E-03    -221.959E-03    -207.435E-03     628.292E-03    -215.203E-03     17.7147E-03     54.9038E-03    -27.3959E-03    -27.5011E-03    -27.1415E-03     54.5442E-03    -27.3959E-03     10.8463E-03    -14.2820E+06    -21.0121E+06    -124.679E+06    -34.6084E+06    -104.352E+06    -21.0121E+06    -42.7475E+06         25.2288
            1745     9.73153E-03     92.8622E-03     615.897E-03    -194.207E-03    -214.432E-03    -194.106E-03     615.144E-03    -213.780E-03    -101.411E-06     54.8529E-03    -27.3508E-03    -27.5133E-03    -27.0903E-03     54.4299E-03    -27.3508E-03     11.7690E-03    -9.75478E+06    -24.4513E+06    -120.603E+06    -32.2338E+06    -98.1236E+06    -24.4513E+06    -44.5540E+06         25.8956
            1746     10.7049E-03     92.8741E-03     601.513E-03    -178.119E-03    -211.912E-03    -178.070E-03     600.813E-03    -211.260E-03     23.4663E-03     54.7965E-03    -27.2885E-03    -27.5536E-03    -27.0410E-03     54.2839E-03    -27.2885E-03     12.9270E-03    -6.55890E+06    -32.1130E+06    -115.708E+06    -30.2598E+06    -92.0076E+06    -32.1130E+06    -44.9853E+06         26.9399
            1747     11.6784E-03     92.8874E-03     597.109E-03    -174.630E-03    -208.265E-03    -173.931E-03     596.410E-03    -208.265E-03     27.0621E-03     54.7991E-03    -27.2129E-03    -27.6147E-03    -26.8769E-03     54.0613E-03    -27.2129E-03     15.4318E-03    -3.67660E+06    -40.4673E+06    -105.399E+06    -28.2600E+06    -80.8152E+06    -40.4673E+06    -43.4902E+06         28.3426
            1748     12.6522E-03     92.9048E-03     602.441E-03    -182.071E-03    -205.839E-03    -181.395E-03     601.765E-03    -205.839E-03     26.2169E-03     54.9056E-03    -27.0935E-03    -27.8309E-03    -26.6345E-03     53.7092E-03    -27.0935E-03     19.5967E-03     1.02916E+06    -49.6511E+06    -83.1120E+06    -25.1946E+06    -56.8883E+06    -49.6511E+06    -38.5874E+06         30.2454
            1749     13.6262E-03     92.9270E-03     597.192E-03    -181.359E-03    -204.033E-03    -180.841E-03     596.673E-03    -204.033E-03     11.4158E-03     55.5384E-03    -26.9030E-03    -28.6492E-03    -26.3181E-03     53.2073E-03    -26.9030E-03     27.1742E-03     29.6539E+06    -40.9824E+06    -65.4259E+06    -22.1342E+06     4.38094E+06    -59.0012E+06    -27.7103E+06         32.8941
            1750     14.6007E-03     92.9606E-03     572.985E-03    -162.097E-03    -201.841E-03    -161.903E-03     572.790E-03    -201.841E-03    -12.7166E-03     55.1288E-03    -26.8432E-03    -28.2792E-03    -25.6649E-03     52.5144E-03    -26.8432E-03     28.9278E-03     105.588E+06    -15.3514E+06    -40.7552E+06    -19.6642E+06     102.515E+06    -33.3701E+06    -14.5666E+06         36.3166
            1751     15.5758E-03     92.9869E-03     548.121E-03    -140.290E-03    -198.601E-03    -139.938E-03     547.770E-03    -198.601E-03     19.4144E-03     56.2378E-03    -27.0338E-03    -29.2051E-03    -25.0016E-03     52.0343E-03    -27.0338E-03     35.7548E-03     173.056E+06     37.3895E+06    -16.0930E+06    -15.8147E+06     172.778E+06     37.3895E+06    -6.59028E+06         40.1238
            1752     16.5514E-03     93.0346E-03     539.201E-03    -131.278E-03    -197.119E-03    -131.428E-03     537.035E-03    -194.803E-03    -14.6713E-03     55.0168E-03    -25.7244E-03    -29.3390E-03    -24.3476E-03     51.6583E-03    -27.3573E-03     28.2633E-03     198.642E+06     123.950E+06    -9.17340E+06    -9.12282E+06     198.591E+06     123.950E+06    -2.69324E+06         43.5432
            1753     972.888E-06     93.8525E-03     789.721E-03     64.5104E-03    -666.133E-03    -561.235E-03     689.087E-03     60.2465E-03     298.254E-03     54.7353E-03    -27.3072E-03    -27.4274E-03    -27.3716E-03     54.7193E-03    -27.3470E-03     2.17891E-03    -51.0560E+06    -53.3997E+06    -155.561E+06    -53.4728E+06    -154.830E+06    -51.7133E+06    -8.14494E+06         23.9843
            1754     1.94634E-03     93.8554E-03     682.361E-03    -232.433E-03    -263.771E-03    -202.654E-03     629.559E-03    -240.749E-03    -8.72432E-03     54.7272E-03    -27.3301E-03    -27.3980E-03    -27.3171E-03     54.6860E-03    -27.3698E-03     3.60192E-03    -46.3953E+06    -49.4246E+06    -150.807E+06    -51.4993E+06    -148.650E+06    -46.4770E+06    -14.1728E+06         24.0167
            1755     2.91920E-03     93.8595E-03     656.884E-03    -220.725E-03    -241.707E-03    -201.585E-03     622.908E-03    -226.872E-03     96.9812E-03     54.8038E-03    -27.3866E-03    -27.4187E-03    -27.3405E-03     54.7257E-03    -27.3866E-03     5.01988E-03    -38.5995E+06    -42.8169E+06    -144.434E+06    -47.4191E+06    -139.832E+06    -38.5995E+06    -20.7549E+06         24.0741
            1756     3.89241E-03     93.8652E-03     661.129E-03    -220.921E-03    -240.039E-03    -226.278E-03     649.463E-03    -223.016E-03    -44.3309E-03     54.8093E-03    -27.3945E-03    -27.4157E-03    -27.2774E-03     54.6883E-03    -27.4118E-03     6.27668E-03    -29.9048E+06    -36.2482E+06    -138.724E+06    -43.5486E+06    -131.423E+06    -29.9048E+06    -26.2776E+06         24.1672
            1757     4.86553E-03     93.8718E-03     642.648E-03    -200.558E-03    -234.984E-03    -210.298E-03     639.633E-03    -222.230E-03     17.8107E-03     54.8225E-03    -27.4000E-03    -27.4223E-03    -27.2327E-03     54.6551E-03    -27.4223E-03     7.39139E-03    -22.8636E+06    -29.5538E+06    -134.632E+06    -39.9213E+06    -124.265E+06    -22.8636E+06    -31.1838E+06         24.2954
            1758     5.83877E-03     93.8794E-03     605.817E-03    -179.984E-03    -217.758E-03    -178.474E-03     604.307E-03    -217.758E-03    -17.0028E-03     54.8513E-03    -27.4128E-03    -27.4383E-03    -27.2196E-03     54.6375E-03    -27.4177E-03     8.36580E-03    -17.5919E+06    -23.1983E+06    -130.147E+06    -36.2968E+06    -117.048E+06    -17.5919E+06    -35.0445E+06         24.4494
            1759     6.81194E-03     93.8877E-03     614.484E-03    -194.453E-03    -213.810E-03    -194.663E-03     614.027E-03    -213.141E-03     22.2619E-03     54.8735E-03    -27.4175E-03    -27.4547E-03    -27.1963E-03     54.6151E-03    -27.4175E-03     9.20091E-03    -13.2499E+06    -17.6135E+06    -126.715E+06    -32.8116E+06    -111.517E+06    -13.2499E+06    -37.7365E+06         24.6340
            1760     7.78521E-03     93.8969E-03     629.674E-03    -206.333E-03    -219.311E-03    -213.458E-03     629.374E-03    -211.886E-03     19.2964E-03     54.8644E-03    -27.3930E-03    -27.4751E-03    -27.1660E-03     54.5554E-03    -27.3930E-03     10.0579E-03    -10.2010E+06    -14.4052E+06    -121.566E+06    -29.8315E+06    -103.446E+06    -12.8950E+06    -40.7089E+06         24.8612
            1761     8.75852E-03     93.9066E-03     623.702E-03    -204.066E-03    -218.603E-03    -210.243E-03     623.124E-03    -211.848E-03     41.5880E-03     54.8893E-03    -27.3625E-03    -27.5330E-03    -27.1610E-03     54.5174E-03    -27.3625E-03     11.0356E-03    -6.45438E+06    -14.5453E+06    -117.598E+06    -27.4999E+06    -96.5526E+06    -14.5453E+06    -43.5213E+06         25.2176
            1762     9.73180E-03     93.9177E-03     597.181E-03    -186.699E-03    -210.481E-03    -186.179E-03     596.660E-03    -210.481E-03     23.7039E-03     54.8395E-03    -27.3240E-03    -27.5322E-03    -27.0968E-03     54.4041E-03    -27.3240E-03     11.9383E-03    -2.98006E+06    -18.5108E+06    -114.917E+06    -26.1027E+06    -91.7945E+06    -18.5108E+06    -45.3034E+06         25.8694
            1763     10.7052E-03     93.9296E-03     581.648E-03    -172.335E-03    -207.589E-03    -171.881E-03     581.194E-03    -207.589E-03     15.0750E-03     54.7669E-03    -27.2597E-03    -27.5387E-03    -27.0083E-03     54.2364E-03    -27.2597E-03     13.1445E-03    -892.469E+03    -27.0182E+06    -112.199E+06    -25.4275E+06    -87.6641E+06    -27.0182E+06    -46.1302E+06         26.8973
            1764     11.6786E-03     93.9429E-03     589.978E-03    -182.444E-03    -204.966E-03    -181.855E-03     589.389E-03    -204.966E-03     12.5389E-03     54.7955E-03    -27.1822E-03    -27.6348E-03    -26.8747E-03     54.0354E-03    -27.1822E-03     15.6633E-03     1.27183E+06    -36.7577E+06    -105.078E+06    -25.1270E+06    -78.6793E+06    -36.7577E+06    -45.8530E+06         28.2855
            1765     12.6525E-03     93.9596E-03     593.930E-03    -187.954E-03    -203.346E-03    -187.261E-03     593.238E-03    -203.346E-03     21.9635E-03     54.9234E-03    -27.0684E-03    -27.8725E-03    -26.6530E-03     53.7039E-03    -27.0684E-03     19.7980E-03     4.56228E+06    -48.5050E+06    -89.0959E+06    -24.4911E+06    -60.0425E+06    -48.5050E+06    -43.1064E+06         30.1839
            1766     13.6266E-03     93.9820E-03     579.070E-03    -172.434E-03    -201.589E-03    -171.888E-03     578.524E-03    -201.589E-03     29.2479E-03     55.5641E-03    -26.8914E-03    -28.6860E-03    -26.3310E-03     53.2090E-03    -26.8914E-03     27.3256E-03     23.8651E+06    -44.0661E+06    -71.6168E+06    -22.5170E+06    -9.19321E+06    -60.1077E+06    -33.3780E+06         32.8456
            1767     14.6010E-03     94.0151E-03     556.940E-03    -153.986E-03    -198.902E-03    -153.757E-03     556.711E-03    -198.902E-03     3.40574E-03     55.0096E-03    -26.7935E-03    -28.2126E-03    -25.5754E-03     52.3723E-03    -26.7935E-03     29.0209E-03     95.7349E+06    -24.1049E+06    -42.6013E+06    -19.4099E+06     89.5750E+06    -41.1364E+06    -19.1369E+06         36.2862
            1768     15.5763E-03     94.0412E-03     545.135E-03    -145.849E-03    -195.715E-03    -145.582E-03     544.867E-03    -195.715E-03     14.1210E-03     56.0260E-03    -26.9375E-03    -29.0712E-03    -24.8275E-03     51.7823E-03    -26.9375E-03     35.8416E-03     167.780E+06     26.0801E+06    -16.7350E+06    -15.2096E+06     167.244E+06     25.0902E+06    -8.82146E+06         40.1175
            1769     16.5523E-03     94.0884E-03     564.937E-03    -168.419E-03    -196.177E-03    -169.123E-03     562.831E-03    -193.366E-03    -15.9596E-03     54.7996E-03    -25.5561E-03    -29.2645E-03    -24.1449E-03     51.4065E-03    -27.2827E-03     28.3617E-03     194.730E+06     118.337E+06    -8.85481E+06    -8.77856E+06     194.654E+06     118.337E+06    -3.18717E+06         43.5778
            1770     973.355E-06     94.9081E-03     577.327E-03     118.850E-03    -522.677E-03    -492.022E-03     546.671E-03     118.850E-03     27.1890E-03     54.6361E-03    -27.2352E-03    -27.3994E-03    -27.3782E-03     54.6195E-03    -27.2399E-03     2.16935E-03    -40.5483E+06    -43.1334E+06    -140.471E+06    -43.1015E+06    -139.733E+06    -41.3177E+06    -7.52091E+06         23.9822
            1771     1.94619E-03     94.9110E-03     612.640E-03    -195.039E-03    -240.851E-03    -229.219E-03     601.008E-03    -195.039E-03    -20.1723E-03     54.7300E-03    -27.3247E-03    -27.4049E-03    -27.3466E-03     54.6862E-03    -27.3392E-03     3.72527E-03    -35.0192E+06    -37.4524E+06    -135.233E+06    -39.9018E+06    -132.590E+06    -35.2129E+06    -15.2862E+06         24.0119
            1772     2.91945E-03     94.9153E-03     639.472E-03    -208.432E-03    -245.229E-03    -237.922E-03     632.165E-03    -208.432E-03     61.3332E-03     54.7271E-03    -27.3445E-03    -27.3828E-03    -27.2817E-03     54.6447E-03    -27.3632E-03     5.14824E-03    -28.2680E+06    -30.9416E+06    -130.847E+06    -36.2519E+06    -125.537E+06    -28.2680E+06    -22.1988E+06         24.0640
            1773     3.89253E-03     94.9209E-03     640.479E-03    -215.344E-03    -233.201E-03    -231.845E-03     639.123E-03    -215.344E-03     39.4150E-03     54.7233E-03    -27.3472E-03    -27.3775E-03    -27.2202E-03     54.5950E-03    -27.3762E-03     6.45583E-03    -19.5092E+06    -23.8666E+06    -126.918E+06    -31.7985E+06    -118.986E+06    -19.5092E+06    -27.3737E+06         24.1525
            1774     4.86587E-03     94.9274E-03     628.343E-03    -199.324E-03    -231.579E-03    -212.234E-03     626.540E-03    -216.867E-03     13.6954E-03     54.7317E-03    -27.3531E-03    -27.3797E-03    -27.1758E-03     54.5544E-03    -27.3797E-03     7.60004E-03    -11.8543E+06    -17.0879E+06    -123.420E+06    -27.4583E+06    -113.049E+06    -11.8543E+06    -31.4610E+06         24.2789
            1775     5.83913E-03     94.9349E-03     603.208E-03    -185.245E-03    -216.186E-03    -186.037E-03     601.827E-03    -214.014E-03    -1.97742E-03     54.7510E-03    -27.3666E-03    -27.3845E-03    -27.1509E-03     54.5240E-03    -27.3732E-03     8.61175E-03    -7.26294E+06    -12.0533E+06    -120.159E+06    -24.6325E+06    -107.580E+06    -7.26294E+06    -34.6083E+06         24.4345
            1776     6.81244E-03     94.9433E-03     608.642E-03    -195.205E-03    -211.231E-03    -195.235E-03     608.003E-03    -210.562E-03     27.2732E-03     54.7721E-03    -27.3610E-03    -27.4115E-03    -27.1357E-03     54.4963E-03    -27.3610E-03     9.49409E-03    -3.98299E+06    -7.14385E+06    -117.380E+06    -22.2499E+06    -102.006E+06    -4.25058E+06    -38.1649E+06         24.6227
            1777     7.78577E-03     94.9524E-03     603.838E-03    -194.294E-03    -209.258E-03    -194.853E-03     603.728E-03    -208.590E-03     5.04200E-03     54.7977E-03    -27.3317E-03    -27.4648E-03    -27.1330E-03     54.4659E-03    -27.3317E-03     10.4139E-03    -907.271E+03    -4.81039E+06    -113.092E+06    -19.6322E+06    -94.9166E+06    -4.26084E+06    -41.1759E+06         24.8512
            1778     8.75907E-03     94.9624E-03     590.522E-03    -190.182E-03    -206.768E-03    -190.055E-03     590.396E-03    -206.768E-03     14.5160E-03     54.8189E-03    -27.3009E-03    -27.5225E-03    -27.1230E-03     54.4194E-03    -27.3009E-03     11.4271E-03     2.13119E+06    -6.32095E+06    -109.563E+06    -18.3415E+06    -89.0905E+06    -6.32095E+06    -43.1727E+06         25.2006
            1779     9.73240E-03     94.9734E-03     595.650E-03    -194.588E-03    -211.044E-03    -199.935E-03     595.470E-03    -205.517E-03    -3.19065E-03     54.7696E-03    -27.2628E-03    -27.5133E-03    -27.0490E-03     54.3052E-03    -27.2628E-03     12.3172E-03     4.14967E+06    -10.7368E+06    -107.920E+06    -18.2257E+06    -85.5441E+06    -10.7368E+06    -44.7807E+06         25.8377
            1780     10.7059E-03     94.9848E-03     596.941E-03    -194.221E-03    -213.329E-03    -202.339E-03     596.816E-03    -205.086E-03    -17.4965E-03     54.6974E-03    -27.1986E-03    -27.5133E-03    -26.9485E-03     54.1325E-03    -27.1986E-03     13.5517E-03     5.09620E+06    -19.9028E+06    -106.648E+06    -18.8190E+06    -82.7327E+06    -19.9028E+06    -45.8029E+06         26.8516
            1781     11.6797E-03     94.9981E-03     574.952E-03    -180.447E-03    -206.791E-03    -182.929E-03     574.718E-03    -204.076E-03    -21.3840E-03     54.7513E-03    -27.1225E-03    -27.6503E-03    -26.8549E-03     53.9559E-03    -27.1225E-03     16.0311E-03     5.84989E+06    -30.5840E+06    -101.447E+06    -20.1979E+06    -75.3995E+06    -30.5840E+06    -45.9160E+06         28.2290
            1782     12.6533E-03     95.0150E-03     553.084E-03    -160.746E-03    -201.597E-03    -160.376E-03     552.714E-03    -201.597E-03    -2.61182E-03     54.9588E-03    -27.0210E-03    -27.9520E-03    -26.6901E-03     53.6970E-03    -27.0210E-03     20.1456E-03     7.16753E+06    -43.8221E+06    -89.6616E+06    -22.2162E+06    -60.2778E+06    -43.8221E+06    -44.2772E+06         30.1261
            1783     13.6272E-03     95.0368E-03     543.479E-03    -151.047E-03    -198.232E-03    -149.926E-03     542.358E-03    -198.232E-03     2.09558E-03     55.5773E-03    -26.8574E-03    -28.7251E-03    -26.3189E-03     53.1711E-03    -26.8574E-03     27.6399E-03     20.0139E+06    -47.5960E+06    -73.6781E+06    -22.9258E+06    -19.7347E+06    -58.5997E+06    -38.0984E+06         32.8034
            1784     14.6019E-03     95.0698E-03     548.706E-03    -159.286E-03    -195.188E-03    -158.093E-03     547.513E-03    -195.188E-03    -23.7708E-03     54.9164E-03    -26.7306E-03    -28.1828E-03    -25.5014E-03     52.2349E-03    -26.7306E-03     29.2368E-03     86.1252E+06    -31.4270E+06    -46.5500E+06    -20.0612E+06     74.7594E+06    -46.5500E+06    -25.2581E+06         36.2609
            1785     15.5774E-03     95.0947E-03     556.853E-03    -168.200E-03    -193.082E-03    -167.839E-03     556.492E-03    -193.082E-03     538.155E-06     55.8708E-03    -26.8228E-03    -29.0364E-03    -24.7291E-03     51.5635E-03    -26.8228E-03     36.0633E-03     159.167E+06     16.9624E+06    -20.5311E+06    -15.3114E+06     158.067E+06     12.8432E+06    -11.7773E+06         40.1144
            1786     16.5533E-03     95.1423E-03     544.009E-03    -154.200E-03    -191.620E-03    -153.925E-03     543.239E-03    -191.124E-03     35.0733E-03     54.4721E-03    -25.2931E-03    -29.2143E-03    -23.8924E-03     51.0372E-03    -27.1801E-03     28.4236E-03     189.804E+06     110.887E+06    -9.11544E+06    -9.00836E+06     189.697E+06     110.887E+06    -3.79323E+06         43.6167
            1787     973.202E-06     95.9638E-03     615.806E-03     58.7755E-03    -498.481E-03    -456.868E-03     576.675E-03     56.2933E-03    -212.202E-03     54.5723E-03    -27.1855E-03    -27.3860E-03    -27.3453E-03     54.5549E-03    -27.2089E-03     2.26038E-03    -25.6452E+06    -28.1009E+06    -124.029E+06    -27.4019E+06    -123.044E+06    -27.3297E+06    -8.64039E+06         23.9779
            1788     1.94643E-03     95.9667E-03     605.548E-03    -200.673E-03    -230.488E-03    -214.214E-03     591.756E-03    -203.156E-03    -12.0187E-03     54.5608E-03    -27.2333E-03    -27.3270E-03    -27.2348E-03     54.5151E-03    -27.2797E-03     3.78837E-03    -21.9780E+06    -22.9980E+06    -118.652E+06    -25.6982E+06    -115.630E+06    -22.2991E+06    -16.3581E+06         24.0030
            1789     2.91962E-03     95.9709E-03     617.788E-03    -200.586E-03    -235.012E-03    -223.544E-03     614.242E-03    -208.507E-03    -43.5701E-03     54.5052E-03    -27.2253E-03    -27.2799E-03    -27.1363E-03     54.4162E-03    -27.2799E-03     5.33369E-03    -15.9054E+06    -17.4924E+06    -116.645E+06    -23.1375E+06    -110.873E+06    -16.0328E+06    -23.0461E+06         24.0484
            1790     3.89310E-03     95.9764E-03     597.229E-03    -193.559E-03    -212.699E-03    -195.458E-03     595.733E-03    -209.304E-03     15.7631E-03     54.5127E-03    -27.2374E-03    -27.2763E-03    -27.0998E-03     54.3713E-03    -27.2725E-03     6.75923E-03    -9.47065E+06    -11.2349E+06    -114.948E+06    -19.9918E+06    -106.192E+06    -9.47065E+06    -28.7370E+06         24.1288
            1791     4.86637E-03     95.9830E-03     611.156E-03    -199.733E-03    -217.075E-03    -207.656E-03     609.561E-03    -207.557E-03    -26.4642E-03     54.5452E-03    -27.2679E-03    -27.2787E-03    -27.0753E-03     54.3489E-03    -27.2749E-03     7.98047E-03    -2.59184E+06    -5.82511E+06    -113.780E+06    -16.4724E+06    -103.133E+06    -2.59184E+06    -32.1831E+06         24.2482
            1792     5.83980E-03     95.9904E-03     617.497E-03    -205.044E-03    -218.665E-03    -214.729E-03     616.593E-03    -208.076E-03    -928.929E-06     54.5507E-03    -27.2649E-03    -27.2860E-03    -27.0292E-03     54.2973E-03    -27.2683E-03     9.07115E-03     3.29170E+06    -623.956E+03    -110.404E+06    -12.6079E+06    -97.9298E+06     2.80105E+06    -34.8463E+06         24.4010
            1793     6.81330E-03     95.9988E-03     596.706E-03    -191.639E-03    -211.062E-03    -194.390E-03     596.038E-03    -207.643E-03     34.1350E-03     54.5831E-03    -27.2477E-03    -27.3337E-03    -27.0225E-03     54.2719E-03    -27.2477E-03     10.0597E-03     6.82309E+06     4.81241E+06    -107.042E+06    -9.36690E+06    -91.9552E+06     5.91591E+06    -38.3294E+06         24.5896
            1794     7.78670E-03     96.0079E-03     580.296E-03    -183.076E-03    -205.260E-03    -182.857E-03     580.078E-03    -205.260E-03     2.99755E-03     54.6256E-03    -27.2195E-03    -27.4014E-03    -27.0245E-03     54.2487E-03    -27.2195E-03     11.0710E-03     9.11166E+06     5.33777E+06    -104.766E+06    -7.94923E+06    -87.7052E+06     5.33777E+06    -40.5952E+06         24.8184
            1795     8.76016E-03     96.0178E-03     576.902E-03    -187.774E-03    -202.974E-03    -187.643E-03     576.772E-03    -202.974E-03    -2.80836E-03     54.6286E-03    -27.1892E-03    -27.4412E-03    -26.9850E-03     54.1725E-03    -27.1892E-03     12.1789E-03     11.1059E+06     2.97017E+06    -101.104E+06    -7.71432E+06    -82.2841E+06     2.97017E+06    -41.8676E+06         25.1637
            1796     9.73376E-03     96.0289E-03     580.941E-03    -192.501E-03    -207.417E-03    -197.888E-03     580.801E-03    -201.889E-03     8.70137E-03     54.6317E-03    -27.1533E-03    -27.4763E-03    -26.9509E-03     54.1063E-03    -27.1533E-03     13.0804E-03     11.9733E+06    -1.24283E+06    -99.9356E+06    -8.32678E+06    -79.6356E+06    -1.24283E+06    -43.0800E+06         25.7927
            1797     10.7074E-03     96.0402E-03     584.990E-03    -196.757E-03    -210.005E-03    -204.473E-03     584.463E-03    -201.762E-03     15.4075E-03     54.6517E-03    -27.0932E-03    -27.5629E-03    -26.9334E-03     54.0222E-03    -27.0932E-03     14.2970E-03     11.7952E+06    -11.0857E+06    -99.1964E+06    -10.0116E+06    -77.3897E+06    -11.0857E+06    -44.0338E+06         26.8013
            1798     11.6808E-03     96.0532E-03     564.279E-03    -182.409E-03    -203.837E-03    -184.598E-03     563.752E-03    -201.121E-03     15.4527E-03     54.7163E-03    -27.0238E-03    -27.7135E-03    -26.8453E-03     53.8482E-03    -27.0238E-03     16.7463E-03     11.4012E+06    -22.3347E+06    -95.4729E+06    -12.3364E+06    -71.7353E+06    -22.3347E+06    -44.3435E+06         28.1767
            1799     12.6547E-03     96.0698E-03     538.192E-03    -159.640E-03    -198.832E-03    -159.340E-03     537.892E-03    -198.832E-03     17.6750E-03     54.9213E-03    -26.9257E-03    -28.0174E-03    -26.6679E-03     53.5718E-03    -26.9257E-03     20.8313E-03     11.2534E+06    -36.6581E+06    -85.9197E+06    -15.1821E+06    -59.4843E+06    -36.6581E+06    -42.9815E+06         30.0818
            1800     13.6288E-03     96.0917E-03     532.246E-03    -150.610E-03    -195.603E-03    -149.613E-03     531.250E-03    -195.603E-03    -6.59030E-03     55.5852E-03    -26.7805E-03    -28.8174E-03    -26.3269E-03     53.0946E-03    -26.7805E-03     28.1698E-03     20.6106E+06    -46.7592E+06    -68.4579E+06    -18.2916E+06    -24.3775E+06    -51.9374E+06    -39.4302E+06         32.7814
            1801     14.6033E-03     96.1232E-03     539.624E-03    -157.240E-03    -192.668E-03    -155.714E-03     538.098E-03    -192.668E-03    -17.0204E-03     54.9735E-03    -26.6364E-03    -28.3375E-03    -25.5823E-03     52.2182E-03    -26.6364E-03     29.6698E-03     76.9259E+06    -35.1694E+06    -48.5411E+06    -19.1861E+06     60.9425E+06    -48.5411E+06    -30.4073E+06         36.2560
            1802     15.5787E-03     96.1489E-03     534.820E-03    -155.637E-03    -190.233E-03    -154.863E-03     534.046E-03    -190.233E-03     13.1764E-03     55.7575E-03    -26.6783E-03    -29.0866E-03    -24.7033E-03     51.3741E-03    -26.6783E-03     36.3780E-03     146.872E+06     7.39692E+06    -26.2823E+06    -15.8507E+06     144.634E+06    -796.516E+03    -15.9878E+06         40.1313
            1803     16.5549E-03     96.1955E-03     494.240E-03    -120.367E-03    -186.982E-03    -118.548E-03     492.422E-03    -186.982E-03     844.594E-06     54.0805E-03    -25.0181E-03    -29.1023E-03    -23.5980E-03     50.6034E-03    -27.0452E-03     28.5270E-03     183.661E+06     102.116E+06    -9.18600E+06    -8.98059E+06     183.455E+06     102.116E+06    -4.98788E+06         43.6810
            1804     973.193E-06     97.0193E-03     789.195E-03    -689.145E-06    -614.307E-03    -454.060E-03     631.430E-03    -3.17139E-03    -366.543E-03     54.3309E-03    -27.0823E-03    -27.2480E-03    -27.1677E-03     54.3114E-03    -27.1430E-03     2.39633E-03    -10.3067E+06    -13.1653E+06    -106.193E+06    -12.4928E+06    -104.935E+06    -12.2368E+06    -10.2599E+06         23.9525
            1805     1.94668E-03     97.0222E-03     634.459E-03    -219.866E-03    -244.385E-03    -198.268E-03     591.013E-03    -222.537E-03     134.030E-03     54.1519E-03    -27.0264E-03    -27.1255E-03    -26.9748E-03     54.1003E-03    -27.1255E-03     4.00326E-03    -7.51174E+06    -8.37490E+06    -101.992E+06    -10.9258E+06    -98.6698E+06    -8.28308E+06    -16.9570E+06         23.9758
            1806     2.92027E-03     97.0261E-03     602.313E-03    -206.015E-03    -219.086E-03    -200.104E-03     591.440E-03    -214.124E-03    -41.5312E-03     54.1234E-03    -27.0305E-03    -27.0927E-03    -26.9304E-03     54.0221E-03    -27.0914E-03     5.66423E-03    -1.83728E+06    -2.99962E+06    -101.609E+06    -8.32704E+06    -95.4110E+06    -2.70779E+06    -23.8942E+06         24.0181
            1807     3.89380E-03     97.0316E-03     582.716E-03    -190.357E-03    -209.239E-03    -185.135E-03     577.075E-03    -208.820E-03     14.8300E-03     54.1172E-03    -27.0354E-03    -27.0808E-03    -26.8773E-03     53.9541E-03    -27.0758E-03     7.22609E-03     3.27763E+06     2.31956E+06    -102.214E+06    -5.87092E+06    -93.4855E+06     2.73917E+06    -28.9321E+06         24.0926
            1808     4.86748E-03     97.0383E-03     579.744E-03    -187.320E-03    -209.363E-03    -189.436E-03     576.860E-03    -204.364E-03    -41.6397E-03     54.1137E-03    -27.0423E-03    -27.0724E-03    -26.8235E-03     53.8835E-03    -27.0611E-03     8.59802E-03     8.52850E+06     6.65450E+06    -103.736E+06    -3.48493E+06    -92.8810E+06     7.81340E+06    -32.9507E+06         24.2045
            1809     5.84114E-03     97.0455E-03     590.094E-03    -196.612E-03    -214.245E-03    -206.232E-03     588.584E-03    -203.115E-03    -6.88782E-03     54.1311E-03    -27.0330E-03    -27.0997E-03    -26.7928E-03     53.8252E-03    -27.0340E-03     9.91216E-03     13.7689E+06     10.3640E+06    -101.315E+06    -322.951E+03    -88.2540E+06     11.3951E+06    -36.2498E+06         24.3482
            1810     6.81479E-03     97.0542E-03     577.543E-03    -188.349E-03    -208.842E-03    -193.949E-03     577.012E-03    -202.711E-03     2.91575E-03     54.1708E-03    -27.0138E-03    -27.1544E-03    -26.7738E-03     53.7902E-03    -27.0138E-03     11.0688E-03     16.7064E+06     14.7358E+06    -98.0227E+06     2.12921E+06    -83.4455E+06     14.7358E+06    -38.1971E+06         24.5277
            1811     7.78855E-03     97.0632E-03     558.813E-03    -179.204E-03    -200.675E-03    -178.865E-03     558.475E-03    -200.675E-03     13.2897E-03     54.2085E-03    -26.9866E-03    -27.2205E-03    -26.7590E-03     53.7470E-03    -26.9866E-03     12.1864E-03     18.9230E+06     14.9438E+06    -96.8140E+06     3.31625E+06    -81.2072E+06     14.9438E+06    -39.4873E+06         24.7511
            1812     8.76234E-03     97.0732E-03     563.251E-03    -189.274E-03    -200.154E-03    -190.214E-03     562.823E-03    -198.786E-03     14.1529E-03     54.2734E-03    -26.9541E-03    -27.3209E-03    -26.7624E-03     53.7149E-03    -26.9541E-03     13.4171E-03     20.1295E+06     12.0766E+06    -93.1662E+06     3.35676E+06    -76.3934E+06     12.0766E+06    -40.1887E+06         25.0949
            1813     9.73603E-03     97.0839E-03     560.264E-03    -188.791E-03    -199.222E-03    -189.751E-03     559.856E-03    -197.854E-03     22.6430E-03     54.3838E-03    -26.9300E-03    -27.4462E-03    -26.8032E-03     53.7408E-03    -26.9300E-03     14.4157E-03     20.3938E+06     8.74681E+06    -91.7134E+06     2.51299E+06    -73.8326E+06     8.74681E+06    -41.0130E+06         25.7260
            1814     10.7097E-03     97.0953E-03     546.806E-03    -178.529E-03    -196.525E-03    -177.411E-03     545.689E-03    -196.525E-03     416.153E-06     54.5088E-03    -26.8824E-03    -27.6240E-03    -26.8608E-03     53.7456E-03    -26.8824E-03     15.7069E-03     19.4115E+06    -1.12198E+06    -91.5554E+06     713.874E+03    -72.8577E+06    -1.12198E+06    -41.4696E+06         26.7422
            1815     11.6835E-03     97.1083E-03     544.231E-03    -178.569E-03    -194.857E-03    -177.473E-03     543.135E-03    -194.857E-03     4.31673E-03     54.6656E-03    -26.8286E-03    -27.8487E-03    -26.8305E-03     53.6474E-03    -26.8286E-03     18.1346E-03     17.2057E+06    -12.3398E+06    -88.0917E+06    -2.88160E+06    -68.0044E+06    -12.3398E+06    -41.2295E+06         28.1311
            1816     12.6572E-03     97.1246E-03     544.261E-03    -177.234E-03    -193.391E-03    -176.795E-03     543.822E-03    -193.391E-03     29.8793E-03     54.9378E-03    -26.7466E-03    -28.2106E-03    -26.6979E-03     53.4252E-03    -26.7466E-03     22.0834E-03     15.3583E+06    -27.2393E+06    -80.6570E+06    -7.21466E+06     -58.084E+06    -27.2393E+06    -40.5660E+06         30.0615
            1817     13.6313E-03     97.1461E-03     535.961E-03    -161.911E-03    -191.543E-03    -161.334E-03     535.385E-03    -191.543E-03     34.6358E-03     55.6693E-03    -26.6365E-03    -29.0499E-03    -26.4060E-03     53.0254E-03    -26.6365E-03     29.1107E-03     23.3414E+06    -39.2837E+06    -60.8994E+06    -10.6969E+06    -25.5298E+06    -40.6150E+06    -38.3770E+06         32.7994
            1818     14.6059E-03     97.1777E-03     526.363E-03    -150.800E-03    -189.022E-03    -149.973E-03     525.536E-03    -189.022E-03     21.6951E-03     55.1288E-03    -26.5063E-03    -28.6248E-03    -25.7208E-03     52.2249E-03    -26.5063E-03     30.5300E-03     68.9652E+06    -30.6692E+06    -42.4625E+06    -13.5958E+06     50.7463E+06    -41.3170E+06    -31.5219E+06         36.3001
            1819     15.5809E-03     97.2024E-03     503.735E-03    -134.519E-03    -185.931E-03    -133.798E-03     503.013E-03    -185.931E-03     9.42994E-03     55.7964E-03    -26.4936E-03    -29.3006E-03    -24.7775E-03     51.2734E-03    -26.4936E-03     37.0680E-03     132.884E+06    -438.438E+03    -26.8104E+06    -14.2297E+06     129.620E+06    -9.75501E+06    -18.8804E+06         40.2089
            1820     16.5574E-03     97.2481E-03     481.404E-03    -122.886E-03    -182.346E-03    -121.232E-03     479.750E-03    -182.346E-03    -41.4442E-03     53.8184E-03    -24.7641E-03    -29.0643E-03    -23.4295E-03     50.2666E-03    -26.8471E-03     28.8860E-03     175.674E+06     92.1309E+06    -9.86855E+06    -9.45985E+06     175.265E+06     92.1309E+06    -6.98531E+06         43.8226
            1821     973.604E-06     98.0744E-03     847.439E-03     22.7637E-03    -708.180E-03    -435.894E-03     575.153E-03     22.7637E-03    -445.736E-03     53.6049E-03    -26.7346E-03    -26.8694E-03    -26.8083E-03     53.5834E-03    -26.7742E-03     2.45149E-03     4.19317E+06     1.58415E+06    -87.3221E+06     1.60193E+06    -85.9085E+06     2.76182E+06    -10.6177E+06         23.8930
            1822     1.94742E-03     98.0770E-03     667.320E-03    -206.191E-03    -293.070E-03    -206.023E-03     580.461E-03    -206.380E-03     210.185E-03     53.4663E-03    -26.6986E-03    -26.7673E-03    -26.6357E-03     53.4034E-03    -26.7673E-03     4.37204E-03     7.29852E+06     5.25177E+06    -85.0000E+06     3.22606E+06    -81.2684E+06     5.59267E+06    -17.7023E+06         23.9150
            1823     2.92130E-03     98.0809E-03     601.852E-03    -204.618E-03    -221.901E-03    -196.349E-03     576.488E-03    -204.807E-03    -29.3790E-03     53.4170E-03    -26.6879E-03    -26.7278E-03    -26.5643E-03     53.2922E-03    -26.7266E-03     6.24172E-03     11.4875E+06     9.03293E+06    -86.4350E+06     4.89627E+06    -79.8437E+06     9.03293E+06    -24.4516E+06         23.9546
            1824     3.89521E-03     98.0863E-03     583.716E-03    -199.655E-03    -210.614E-03    -194.710E-03     570.529E-03    -202.372E-03     54.6758E-03     53.3720E-03    -26.6703E-03    -26.7004E-03    -26.4688E-03     53.1692E-03    -26.6991E-03     7.98262E-03     15.9275E+06     12.9106E+06    -90.2907E+06     7.00459E+06    -81.4018E+06     12.9447E+06    -29.3691E+06         24.0249
            1825     4.86928E-03     98.0927E-03     566.630E-03    -191.283E-03    -206.360E-03    -191.951E-03     561.441E-03    -200.502E-03    -15.2838E-03     53.3448E-03    -26.6487E-03    -26.6969E-03    -26.3835E-03     53.0506E-03    -26.6679E-03     9.62344E-03     20.9217E+06     17.2154E+06    -92.1683E+06     9.71264E+06    -80.9932E+06     17.2494E+06    -33.6897E+06         24.1303
            1826     5.84344E-03     98.1003E-03     562.182E-03    -188.741E-03    -202.426E-03    -189.366E-03     559.198E-03    -198.817E-03     15.3412E-03     53.3698E-03    -26.6287E-03    -26.7434E-03    -26.3467E-03     52.9732E-03    -26.6287E-03     11.1858E-03     24.3521E+06     19.7571E+06    -92.4997E+06     11.3830E+06    -79.5306E+06     19.7571E+06    -36.6933E+06         24.2659
            1827     6.81760E-03     98.1084E-03     556.148E-03    -184.747E-03    -199.920E-03    -186.287E-03     554.975E-03    -197.207E-03    -29.0028E-03     53.4106E-03    -26.5949E-03    -26.8154E-03    -26.3125E-03     52.9076E-03    -26.5949E-03     12.6042E-03     26.4046E+06     22.0233E+06    -90.3571E+06     12.3946E+06    -76.3471E+06     22.0233E+06    -37.9267E+06         24.4360
            1828     7.79177E-03     98.1175E-03     541.971E-03    -181.214E-03    -195.479E-03    -181.049E-03     541.806E-03    -195.479E-03     10.1458E-03     53.5141E-03    -26.5681E-03    -26.9461E-03    -26.3298E-03     52.8977E-03    -26.5681E-03     13.9611E-03     27.5943E+06     23.0579E+06    -89.6409E+06     13.1672E+06    -75.2138E+06     23.0579E+06    -38.4961E+06         24.6494
            1829     8.76590E-03     98.1275E-03     541.845E-03    -186.911E-03    -195.554E-03    -187.932E-03     541.498E-03    -194.187E-03     11.8258E-03     53.6873E-03    -26.5313E-03    -27.1565E-03    -26.4055E-03     52.9362E-03    -26.5313E-03     15.4321E-03     27.6903E+06     19.7065E+06    -86.4787E+06     12.8939E+06    -71.6824E+06     19.7065E+06    -38.2892E+06         24.9899
            1830     9.73998E-03     98.1385E-03     539.295E-03    -183.284E-03    -194.712E-03    -184.307E-03     538.950E-03    -193.345E-03     6.15073E-03     53.9018E-03    -26.5145E-03    -27.3818E-03    -26.5112E-03     53.0311E-03    -26.5145E-03     16.6637E-03     27.1670E+06     17.0043E+06    -84.0104E+06     11.4562E+06    -68.2997E+06     17.0043E+06    -38.7007E+06         25.6308
            1831     10.7140E-03     98.1500E-03     530.032E-03    -172.072E-03    -191.914E-03    -171.420E-03     529.381E-03    -191.914E-03    -23.4857E-03     54.1897E-03    -26.4946E-03    -27.6975E-03    -26.6783E-03     53.1704E-03    -26.4946E-03     18.0724E-03     24.2868E+06     7.71741E+06    -85.6880E+06     8.74143E+06    -70.1427E+06     7.71741E+06    -38.2574E+06         26.6669
            1832     11.6877E-03     98.1634E-03     524.216E-03    -165.923E-03    -189.907E-03    -165.269E-03     523.562E-03    -189.907E-03    -21.8072E-03     54.5701E-03    -26.4703E-03    -28.1085E-03    -26.8101E-03     53.2717E-03    -26.4703E-03     20.4569E-03     20.8926E+06    -3.05408E+06    -80.9397E+06     4.68120E+06    -64.7282E+06    -3.05408E+06    -37.0787E+06         28.0858
            1833     12.6616E-03     98.1795E-03     521.852E-03    -165.178E-03    -187.922E-03    -164.728E-03     521.402E-03    -187.922E-03     311.960E-06     55.0632E-03    -26.4308E-03    -28.6436E-03    -26.8248E-03     53.2444E-03    -26.4308E-03     24.2632E-03     17.8527E+06    -16.6798E+06    -73.8925E+06    -461.400E+03    -55.5784E+06    -16.6798E+06    -36.5360E+06         30.0669
            1834     13.6354E-03     98.2009E-03     518.218E-03    -161.552E-03    -186.024E-03    -160.859E-03     517.524E-03    -186.024E-03     21.9071E-03     55.9479E-03    -26.3677E-03    -29.5954E-03    -26.6102E-03     52.9627E-03    -26.3677E-03     31.0795E-03     24.8063E+06    -29.0061E+06    -55.2152E+06    -5.90252E+06    -24.5064E+06    -29.0061E+06    -35.8907E+06         32.8765
            1835     14.6098E-03     98.2318E-03     503.099E-03    -146.020E-03    -183.717E-03    -145.632E-03     502.711E-03    -183.717E-03     9.63434E-03     55.3691E-03    -26.2955E-03    -29.0756E-03    -25.8911E-03     52.1846E-03    -26.2955E-03     32.0371E-03     61.1055E+06    -23.0252E+06    -31.9705E+06    -8.84725E+06     42.4411E+06    -27.4841E+06    -30.9626E+06         36.4419
            1836     15.5851E-03     98.2560E-03     479.243E-03    -124.074E-03    -180.508E-03    -123.880E-03     479.049E-03    -180.508E-03    -10.6628E-03     56.0264E-03    -26.2565E-03    -29.7611E-03    -24.9895E-03     51.2548E-03    -26.2565E-03     38.2660E-03     119.148E+06    -4.19569E+06    -18.0142E+06    -9.53027E+06     115.123E+06    -8.65457E+06    -19.0282E+06         40.4245
            1837     16.5611E-03     98.3007E-03     484.748E-03    -127.524E-03    -177.092E-03    -126.964E-03     484.188E-03    -177.092E-03    -10.5273E-03     53.8362E-03    -24.6013E-03    -29.2436E-03    -23.5610E-03     50.1360E-03    -26.5837E-03     29.4961E-03     166.900E+06     85.1899E+06    -7.79175E+06    -7.32526E+06     166.434E+06     85.1899E+06    -7.57374E+06         44.1414
            1838     974.385E-06     99.1286E-03     851.746E-03     19.4170E-03    -710.937E-03    -391.808E-03     532.617E-03     19.4170E-03    -508.812E-03     52.3164E-03    -26.0796E-03    -26.2357E-03    -26.2078E-03     52.2908E-03    -26.0818E-03     2.64082E-03     19.3196E+06     15.7745E+06    -67.5007E+06     16.3136E+06    -66.0511E+06     17.3308E+06    -9.99822E+06         23.7955
            1839     1.94862E-03     99.1307E-03     649.070E-03    -189.224E-03    -300.514E-03    -201.410E-03     549.966E-03    -189.224E-03     171.713E-03     52.2709E-03    -26.1219E-03    -26.1478E-03    -26.0623E-03     52.1917E-03    -26.1282E-03     4.82796E-03     21.1368E+06     17.7129E+06    -67.6464E+06     16.8588E+06    -63.7094E+06     18.0538E+06    -17.9569E+06         23.8122
            1840     2.92306E-03     99.1348E-03     574.016E-03    -191.323E-03    -223.287E-03    -185.841E-03     536.570E-03    -191.323E-03    -58.9345E-03     52.1564E-03    -26.0666E-03    -26.0895E-03    -25.9051E-03     51.9931E-03    -26.0878E-03     7.04035E-03     23.8123E+06     19.0343E+06    -71.3981E+06     17.1008E+06    -64.6866E+06     19.0343E+06    -24.2798E+06         23.8450
            1841     3.89771E-03     99.1396E-03     557.516E-03    -190.461E-03    -207.478E-03    -191.334E-03     541.372E-03    -190.461E-03     70.1898E-03     52.0887E-03    -26.0243E-03    -26.0641E-03    -25.7741E-03     51.8172E-03    -26.0428E-03     9.10297E-03     27.1315E+06     20.6086E+06    -77.8221E+06     17.7201E+06    -68.4107E+06     20.6086E+06    -29.9457E+06         23.9072
            1842     4.87246E-03     99.1461E-03     557.651E-03    -191.403E-03    -205.448E-03    -200.384E-03     552.587E-03    -191.403E-03    -13.6336E-03     52.0692E-03    -25.9910E-03    -26.0772E-03    -25.6702E-03     51.6636E-03    -25.9924E-03     11.1354E-03     29.8553E+06     22.5709E+06    -81.2844E+06     18.3056E+06    -69.7347E+06     22.5709E+06    -33.8948E+06         24.0040
            1843     5.84725E-03     99.1535E-03     539.214E-03    -186.495E-03    -195.122E-03    -187.111E-03     536.548E-03    -191.840E-03     30.6870E-03     52.0785E-03    -25.9425E-03    -26.1363E-03    -25.5805E-03     51.5227E-03    -25.9425E-03     13.0429E-03     31.3787E+06     24.5590E+06    -83.9154E+06     18.6356E+06    -71.1723E+06     24.5590E+06    -36.1497E+06         24.1330
            1844     6.82219E-03     99.1619E-03     535.171E-03    -182.325E-03    -195.612E-03    -186.155E-03     534.425E-03    -191.036E-03    -20.9859E-03     52.1626E-03    -25.8897E-03    -26.2742E-03    -25.5545E-03     51.4429E-03    -25.8897E-03     14.8480E-03     32.1760E+06     24.9991E+06    -83.4620E+06     18.6734E+06    -69.9595E+06     24.9991E+06    -37.1196E+06         24.2950
            1845     7.79711E-03     99.1709E-03     540.817E-03    -187.072E-03    -195.710E-03    -192.032E-03     540.791E-03    -190.723E-03    -2.92051E-03     52.3849E-03    -25.8628E-03    -26.5237E-03    -25.6265E-03     51.4877E-03    -25.8628E-03     16.6147E-03     31.8882E+06     26.4582E+06    -83.5412E+06     18.3723E+06    -70.0253E+06     26.4582E+06    -37.0989E+06         24.4971
            1846     8.77188E-03     99.1808E-03     525.153E-03    -179.941E-03    -190.618E-03    -180.162E-03     524.962E-03    -190.207E-03     1.01448E-03     52.7128E-03    -25.8316E-03    -26.8854E-03    -25.7816E-03     51.6090E-03    -25.8316E-03     18.4821E-03     30.9600E+06     23.5409E+06    -81.6132E+06     17.5997E+06    -68.2528E+06     23.5409E+06    -36.3806E+06         24.8393
            1847     9.74654E-03     99.1922E-03     509.466E-03    -167.100E-03    -188.518E-03    -166.905E-03     509.272E-03    -188.518E-03     7.96741E-03     53.1316E-03    -25.8311E-03    -27.3011E-03    -26.0177E-03     51.8481E-03    -25.8311E-03     20.0339E-03     28.8911E+06     21.1980E+06     -77.598E+06     15.4029E+06     -64.277E+06     21.3651E+06    -35.1708E+06         25.5027
            1848     10.7209E-03     99.2038E-03     512.598E-03    -169.610E-03    -186.595E-03    -169.584E-03     512.572E-03    -186.595E-03     3.63426E-03     53.7126E-03    -25.8503E-03    -27.8552E-03    -26.3765E-03     52.2338E-03    -25.8503E-03     21.6312E-03     24.7577E+06     13.7139E+06    -80.8039E+06     11.8533E+06    -68.0667E+06     13.8810E+06    -34.3220E+06         26.5679
            1849     11.6949E-03     99.2177E-03     513.820E-03    -165.225E-03    -184.914E-03    -165.166E-03     513.761E-03    -184.914E-03     2.36112E-03     54.4182E-03    -25.8628E-03    -28.5496E-03    -26.7346E-03     52.6032E-03    -25.8628E-03     24.1346E-03     20.8828E+06     2.71897E+06    -75.9564E+06     7.91156E+06    -62.9851E+06     2.71897E+06    -32.8480E+06         28.0282
            1850     12.6686E-03     99.2339E-03     506.206E-03    -159.112E-03    -183.056E-03    -158.526E-03     505.620E-03    -183.056E-03     6.35060E-03     55.2580E-03    -25.8924E-03    -29.3709E-03    -27.0005E-03     52.8876E-03    -25.8924E-03     27.7800E-03     16.0930E+06    -8.30488E+06    -67.5382E+06     2.41856E+06    -53.8637E+06    -8.30488E+06    -30.8473E+06         30.0918
            1851     13.6424E-03     99.2553E-03     491.117E-03    -148.857E-03    -180.835E-03    -148.124E-03     490.385E-03    -180.835E-03     3.51339E-03     56.3970E-03    -25.8997E-03    -30.5134E-03    -26.9466E-03     52.8301E-03    -25.8997E-03     34.2073E-03     22.4195E+06    -18.5473E+06    -48.9181E+06    -5.01510E+06    -21.4835E+06    -18.5473E+06    -30.1296E+06         33.0245
            1852     14.6163E-03     99.2861E-03     469.565E-03    -127.151E-03    -177.829E-03    -126.951E-03     469.365E-03    -177.829E-03    -1.69727E-03     55.8830E-03    -25.9170E-03    -29.9781E-03    -26.3214E-03     52.2263E-03    -25.9170E-03     34.4993E-03     53.4882E+06    -14.5711E+06    -27.0045E+06    -11.4178E+06     38.1080E+06    -14.7775E+06    -28.6012E+06         36.7250
            1853     15.5910E-03     99.3090E-03     465.630E-03    -126.095E-03    -174.434E-03    -125.785E-03     465.321E-03    -174.434E-03    -9.69623E-03     56.6040E-03    -25.8964E-03    -30.7125E-03    -25.5410E-03     51.4324E-03    -25.8964E-03     40.2384E-03     106.395E+06    -6.95999E+06    -17.1581E+06    -12.2132E+06     101.656E+06    -7.16645E+06    -20.2362E+06         40.8529
            1854     16.5671E-03     99.3540E-03     464.629E-03    -124.083E-03    -171.343E-03    -123.681E-03     464.227E-03    -171.343E-03    -2.37929E-03     54.3502E-03    -24.7270E-03    -29.6309E-03    -24.2143E-03     50.4424E-03    -26.2357E-03     30.1891E-03     157.020E+06     79.8057E+06    -7.90086E+06    -7.22608E+06     156.346E+06     79.8057E+06    -8.08079E+06         44.7298
            1855     975.223E-06     100.181E-03     907.378E-03    -50.4758E-03    -704.231E-03    -345.361E-03     548.508E-03    -50.4758E-03    -594.166E-03     50.3631E-03    -25.0954E-03    -25.2670E-03    -25.2321E-03     50.3283E-03    -25.0954E-03     3.02902E-03     34.4864E+06     31.2709E+06    -48.3196E+06     32.0158E+06    -47.0644E+06     32.4864E+06    -8.70069E+06         23.6439
            1856     1.95053E-03     100.184E-03     608.894E-03    -189.671E-03    -270.934E-03    -156.704E-03     494.663E-03    -189.671E-03     169.898E-03     50.3112E-03    -25.1369E-03    -25.1738E-03    -25.0678E-03     50.2052E-03    -25.1369E-03     5.47150E-03     34.5839E+06     30.6257E+06    -50.1615E+06     30.9492E+06    -46.5268E+06     30.6257E+06    -16.9047E+06         23.6549
            1857     2.92595E-03     100.187E-03     546.136E-03    -181.892E-03    -222.330E-03    -184.790E-03     508.596E-03    -181.892E-03    -74.4155E-03     50.1726E-03    -25.0691E-03    -25.1047E-03    -24.8733E-03     49.9487E-03    -25.0766E-03     8.05858E-03     35.8473E+06     28.5384E+06    -56.3382E+06     29.4429E+06    -49.9338E+06     28.5384E+06    -23.3139E+06         23.6797
            1858     3.90163E-03     100.192E-03     532.820E-03    -183.583E-03    -208.353E-03    -193.388E-03     517.855E-03    -183.583E-03     50.4380E-03     50.0883E-03    -24.9986E-03    -25.0908E-03    -24.6995E-03     49.7045E-03    -25.0061E-03     10.5822E-03     36.0467E+06     27.0803E+06    -64.0673E+06     27.1035E+06    -55.1241E+06     27.0803E+06    -28.5245E+06         23.7322
            1859     4.87736E-03     100.198E-03     521.419E-03    -178.737E-03    -196.006E-03    -184.820E-03     516.293E-03    -184.796E-03    -54.2125E-03     50.0486E-03    -24.9282E-03    -25.1198E-03    -24.5362E-03     49.4650E-03    -24.9282E-03     13.0599E-03     35.2740E+06     25.3959E+06    -70.5870E+06     24.4570E+06    -59.7700E+06     25.3959E+06    -32.0429E+06         23.8181
            1860     5.85338E-03     100.205E-03     514.940E-03    -176.486E-03    -188.086E-03    -178.952E-03     513.636E-03    -184.316E-03     2.53718E-03     50.0836E-03    -24.8521E-03    -25.2314E-03    -24.4115E-03     49.2637E-03    -24.8521E-03     15.4860E-03     33.9632E+06     24.3154E+06    -74.9989E+06     21.8802E+06    -62.9159E+06     24.3154E+06    -34.2069E+06         23.9367
            1861     6.82939E-03     100.213E-03     523.322E-03    -182.440E-03    -192.087E-03    -189.718E-03     522.724E-03    -184.211E-03    -1.51582E-03     50.2698E-03    -24.7864E-03    -25.4850E-03    -24.3999E-03     49.1848E-03    -24.7864E-03     17.8437E-03     31.5576E+06     22.7782E+06    -77.3168E+06     19.1572E+06    -64.9164E+06     22.7782E+06    -34.5725E+06         24.0877
            1862     7.80537E-03     100.222E-03     522.633E-03    -180.500E-03    -191.597E-03    -187.176E-03     522.406E-03    -184.695E-03     12.2679E-03     50.6542E-03    -24.7545E-03    -25.9005E-03    -24.5246E-03     49.2783E-03    -24.7545E-03     20.1644E-03     28.5172E+06     22.6593E+06    -77.7011E+06     16.0028E+06    -65.1867E+06     22.6593E+06    -34.1963E+06         24.2857
            1863     8.78121E-03     100.233E-03     506.193E-03    -171.000E-03    -184.465E-03    -171.164E-03     505.945E-03    -184.053E-03     15.1322E-03     51.2579E-03    -24.7429E-03    -26.5138E-03    -24.8229E-03     49.5670E-03    -24.7429E-03     22.5058E-03     24.8087E+06     20.3945E+06    -78.2703E+06     12.6739E+06    -66.2151E+06     20.4742E+06    -33.0500E+06         24.6463
            1864     9.75668E-03     100.244E-03     496.052E-03    -163.076E-03    -182.280E-03    -162.798E-03     495.774E-03    -182.280E-03     17.3875E-03     52.0241E-03    -24.7671E-03    -27.2535E-03    -25.2829E-03     50.0535E-03    -24.7671E-03     24.5147E-03     20.9930E+06     17.6771E+06    -73.8398E+06     9.13912E+06    -62.2327E+06     17.9239E+06    -30.8837E+06         25.3460
            1865     10.7316E-03     100.257E-03     488.438E-03    -156.037E-03    -180.128E-03    -155.972E-03     488.373E-03    -180.128E-03     3.38805E-03     53.0121E-03    -24.8456E-03    -28.1563E-03    -25.9249E-03     50.7807E-03    -24.8456E-03     26.3786E-03     18.0611E+06     13.0427E+06    -76.3363E+06     5.94844E+06    -65.1511E+06     13.9702E+06    -30.1743E+06         26.4443
            1866     11.7059E-03     100.271E-03     487.388E-03    -154.560E-03    -177.954E-03    -154.417E-03     487.245E-03    -177.954E-03     15.4947E-03     54.1616E-03    -24.9264E-03    -29.2227E-03    -26.6119E-03     51.5507E-03    -24.9264E-03     28.8990E-03     13.5235E+06     2.39702E+06    -74.0613E+06     2.10787E+06    -63.4060E+06     3.15735E+06    -28.3635E+06         27.9571
            1867     12.6798E-03     100.288E-03     489.574E-03    -154.977E-03    -175.995E-03    -154.097E-03     488.694E-03    -175.995E-03     43.0381E-03     55.4845E-03    -25.0479E-03    -30.4334E-03    -27.2376E-03     52.2887E-03    -25.0479E-03     32.3913E-03     7.60244E+06    -5.35202E+06    -64.3345E+06    -2.71604E+06    -54.0160E+06    -5.35202E+06    -25.1767E+06         30.1299
            1868     13.6528E-03     100.310E-03     470.589E-03    -138.177E-03    -173.658E-03    -137.243E-03     469.655E-03    -173.658E-03     27.1477E-03     57.0253E-03    -25.1661E-03    -31.8678E-03    -27.5191E-03     52.6766E-03    -25.1661E-03     38.1524E-03     16.5933E+06    -10.9311E+06    -43.8955E+06    -8.10322E+06    -19.1989E+06    -10.9311E+06    -23.1074E+06         33.2329
            1869     14.6265E-03     100.340E-03     456.116E-03    -127.606E-03    -170.685E-03    -126.895E-03     455.405E-03    -170.685E-03     14.3703E-03     56.7650E-03    -25.3068E-03    -31.4710E-03    -27.2242E-03     52.5182E-03    -25.3068E-03     37.5694E-03     49.6049E+06    -3.33408E+06    -23.3548E+06    -13.7014E+06     39.9516E+06    -3.33408E+06    -22.9097E+06         37.1592
            1870     15.6002E-03     100.363E-03     461.139E-03    -138.284E-03    -168.068E-03    -137.390E-03     460.246E-03    -168.068E-03    -1.22721E-03     57.8065E-03    -25.4066E-03    -32.4115E-03    -26.8554E-03     52.2504E-03    -25.4066E-03     42.5637E-03     97.4759E+06     1.99158E+06    -21.3311E+06    -17.0489E+06     93.1936E+06     1.99158E+06    -20.4268E+06         41.5423
            1871     16.5745E-03     100.407E-03     439.169E-03    -121.988E-03    -165.643E-03    -121.273E-03     438.454E-03    -165.643E-03    -33.1190E-03     55.9810E-03    -25.2606E-03    -30.7160E-03    -26.0918E-03     51.9391E-03    -25.8428E-03     30.8608E-03     146.410E+06     79.7042E+06    -13.9332E+06    -12.7521E+06     144.027E+06     80.9058E+06    -11.3048E+06         45.6414
            1872     976.704E-06     101.231E-03     914.089E-03    -57.3033E-03    -713.423E-03    -321.691E-03     522.357E-03    -57.3033E-03    -617.192E-03     47.4296E-03    -23.6783E-03    -23.7519E-03    -23.6977E-03     47.3787E-03    -23.6815E-03     3.51004E-03     42.5962E+06     39.7961E+06    -31.7315E+06     40.9593E+06    -30.7644E+06     40.4659E+06    -7.40844E+06         23.4179
            1873     1.95334E-03     101.233E-03     603.257E-03    -183.977E-03    -279.860E-03    -162.090E-03     485.487E-03    -183.977E-03     170.988E-03     47.3551E-03    -23.6467E-03    -23.7092E-03    -23.5553E-03     47.2044E-03    -23.6500E-03     6.33528E-03     41.8944E+06     37.7767E+06    -33.3379E+06     38.7894E+06    -30.2329E+06     37.7767E+06    -14.5917E+06         23.4256
            1874     2.93031E-03     101.237E-03     534.972E-03    -178.551E-03    -222.647E-03    -178.875E-03     491.200E-03    -178.551E-03    -66.6164E-03     47.2576E-03    -23.5717E-03    -23.6877E-03    -23.3696E-03     46.9395E-03    -23.5717E-03     9.29530E-03     40.2142E+06     32.3270E+06    -41.9024E+06     34.6854E+06    -36.3736E+06     32.3270E+06    -20.5043E+06         23.4457
            1875     3.90734E-03     101.241E-03     521.583E-03    -179.898E-03    -208.542E-03    -190.350E-03     503.390E-03    -179.898E-03     63.9245E-03     47.1524E-03    -23.4738E-03    -23.6795E-03    -23.1228E-03     46.5958E-03    -23.4738E-03     12.3347E-03     37.0774E+06     26.6010E+06    -51.1108E+06     29.6151E+06    -43.6484E+06     26.6010E+06    -24.5086E+06         23.4900
            1876     4.88477E-03     101.247E-03     498.954E-03    -174.764E-03    -188.581E-03    -177.277E-03     493.709E-03    -180.823E-03    -55.7998E-03     47.1371E-03    -23.3678E-03    -23.7682E-03    -22.9102E-03     46.2791E-03    -23.3678E-03     15.3291E-03     32.6920E+06     20.9379E+06    -59.8585E+06     23.6119E+06    -50.7784E+06     20.9379E+06    -27.5145E+06         23.5643
            1877     5.86225E-03     101.254E-03     494.643E-03    -169.839E-03    -182.125E-03    -170.851E-03     493.234E-03    -179.705E-03    -6.30024E-03     47.2680E-03    -23.2675E-03    -23.9998E-03    -22.7764E-03     46.0446E-03    -23.2675E-03     18.3259E-03     26.9682E+06     15.8506E+06    -66.1572E+06     16.9207E+06    -56.1097E+06     15.8506E+06    -28.8783E+06         23.6693
            1878     6.83989E-03     101.262E-03     497.023E-03    -168.594E-03    -181.717E-03    -171.176E-03     496.304E-03    -178.417E-03    -7.32584E-03     47.6295E-03    -23.1944E-03    -24.4347E-03    -22.7946E-03     45.9893E-03    -23.1944E-03     21.3016E-03     19.9491E+06     12.2235E+06    -71.2172E+06     9.71114E+06    -60.9792E+06     12.2235E+06    -28.7687E+06         23.8122
            1879     7.81744E-03     101.271E-03     494.366E-03    -167.099E-03    -179.711E-03    -168.746E-03     493.611E-03    -177.309E-03    -1.64132E-03     48.3048E-03    -23.1677E-03    -25.1310E-03    -23.0414E-03     46.2152E-03    -23.1677E-03     24.2262E-03     14.3914E+06     9.30677E+06    -72.1094E+06     2.58384E+06    -61.7325E+06     10.7374E+06    -27.7988E+06         24.0244
            1880     8.79458E-03     101.282E-03     494.752E-03    -169.353E-03    -176.792E-03    -169.168E-03     494.081E-03    -176.305E-03    -3.83329E-03     49.3386E-03    -23.2034E-03    -26.1309E-03    -23.5799E-03     46.7876E-03    -23.2034E-03     27.0922E-03     11.4055E+06     5.66891E+06    -74.3898E+06    -3.85068E+06    -64.0170E+06     10.5522E+06     -26.942E+06         24.4263
            1881     9.77107E-03     101.294E-03     486.657E-03    -162.322E-03    -175.174E-03    -162.132E-03     486.466E-03    -175.174E-03     8.69986E-03     50.5809E-03    -23.2821E-03    -27.3042E-03    -24.3669E-03     47.6436E-03    -23.2821E-03     29.5146E-03     8.92619E+06     2.33703E+06    -71.6781E+06    -8.42655E+06    -60.7313E+06     8.74301E+06    -26.0473E+06         25.1728
            1882     10.7468E-03     101.308E-03     469.183E-03    -148.573E-03    -173.303E-03    -148.503E-03     469.113E-03    -173.303E-03    -4.82167E-03     52.1210E-03    -23.4505E-03    -28.6802E-03    -25.4306E-03     48.8713E-03    -23.4505E-03     31.6152E-03     8.58526E+06    -1.13689E+06    -73.1726E+06    -11.8289E+06    -62.2974E+06     8.40208E+06    -25.5394E+06         26.3054
            1883     11.7213E-03     101.323E-03     455.542E-03    -141.518E-03    -170.851E-03    -141.387E-03     455.411E-03    -170.851E-03     6.66066E-03     53.9122E-03    -23.6564E-03    -30.2588E-03    -26.6509E-03     50.3043E-03    -23.6564E-03     33.9959E-03     3.77832E+06    -6.20080E+06    -74.4501E+06    -13.8932E+06    -63.9268E+06     947.392E+03    -24.9720E+06         27.8801
            1884     12.6948E-03     101.341E-03     442.209E-03    -130.911E-03    -168.052E-03    -130.147E-03     441.445E-03    -168.052E-03     8.98074E-03     55.7990E-03    -23.9099E-03    -31.8876E-03    -27.7654E-03     51.6768E-03    -23.9099E-03     37.0536E-03    -982.193E+03    -8.33010E+06    -65.2431E+06    -14.4888E+06    -55.4846E+06    -4.58200E+06    -22.1527E+06         30.1787
            1885     13.6676E-03     101.364E-03     438.889E-03    -127.375E-03    -165.059E-03    -126.534E-03     438.048E-03    -165.059E-03    -484.151E-06     57.8454E-03    -24.1871E-03    -33.6640E-03    -28.5755E-03     52.7570E-03    -24.1871E-03     41.8547E-03     14.0840E+06    -6.99953E+06    -43.2373E+06    -14.4645E+06    -17.8743E+06    -3.81398E+06    -19.8782E+06         33.4849
            1886     14.6395E-03     101.395E-03     445.557E-03    -139.470E-03    -162.692E-03    -138.749E-03     444.835E-03    -162.692E-03     17.1018E-03     57.9942E-03    -24.5074E-03    -33.4925E-03    -28.8097E-03     53.3115E-03    -24.5074E-03     40.0831E-03     50.4622E+06     10.3773E+06    -20.3153E+06    -13.3461E+06     43.4929E+06     10.3773E+06    -19.9651E+06         37.7264
            1887     15.6116E-03     101.418E-03     434.758E-03    -133.805E-03    -160.802E-03    -133.167E-03     434.120E-03    -160.802E-03     18.0587E-03     59.7795E-03    -24.8458E-03    -34.9384E-03    -29.2281E-03     54.0693E-03    -24.8458E-03     44.4361E-03     94.2526E+06     26.2857E+06    -14.2144E+06    -10.4130E+06     90.4512E+06     26.2857E+06    -19.3317E+06         42.4732
            1888     16.5834E-03     101.462E-03     419.965E-03    -122.699E-03    -158.640E-03    -122.129E-03     419.396E-03    -158.640E-03    -24.9161E-03     59.4207E-03    -25.4799E-03    -33.9605E-03    -29.9423E-03     55.4024E-03    -25.4799E-03     31.2975E-03     139.829E+06     88.7990E+06    -7.54232E+06    -5.98672E+06     132.255E+06     94.8173E+06    -12.8458E+06         46.8317
            1889     978.507E-06     102.278E-03     795.305E-03    -17.9299E-03    -638.365E-03    -324.969E-03     481.909E-03    -17.9299E-03    -552.155E-03     43.3499E-03    -21.5954E-03    -21.7553E-03    -21.6803E-03     43.2781E-03    -21.5986E-03     3.97757E-03     43.1490E+06     39.4085E+06    -17.3782E+06     41.4902E+06    -16.3892E+06     40.0783E+06    -7.06111E+06         23.1095
            1890     1.95750E-03     102.280E-03     588.910E-03    -176.026E-03    -271.011E-03    -194.408E-03     512.307E-03    -176.026E-03     97.6464E-03     43.2815E-03    -21.5852E-03    -21.6964E-03    -21.4798E-03     43.0682E-03    -21.5885E-03     7.20898E-03     40.4396E+06     36.0443E+06    -19.7793E+06     38.0782E+06    -17.4178E+06     36.0443E+06    -11.4425E+06         23.1150
            1891     2.93618E-03     102.283E-03     504.762E-03    -173.826E-03    -201.742E-03    -154.061E-03     460.072E-03    -176.817E-03    -47.1507E-03     43.2318E-03    -21.4972E-03    -21.7353E-03    -21.2829E-03     42.7794E-03    -21.4972E-03     10.5864E-03     35.7729E+06     28.1276E+06    -29.4366E+06     31.8928E+06    -25.5565E+06     28.1276E+06    -15.2768E+06         23.1319
            1892     3.91542E-03     102.287E-03     478.327E-03    -168.904E-03    -185.676E-03    -163.165E-03     458.807E-03    -171.896E-03     91.5784E-03     43.2040E-03    -21.3817E-03    -21.8217E-03    -21.0253E-03     42.4076E-03    -21.3817E-03     14.1012E-03     29.0590E+06     18.3734E+06    -40.0719E+06     23.9161E+06    -34.9291E+06     18.3734E+06    -18.0822E+06         23.1715
            1893     4.89476E-03     102.292E-03     482.998E-03    -171.635E-03    -184.290E-03    -180.596E-03     479.304E-03    -171.635E-03    -14.3611E-03     43.2991E-03    -21.2616E-03    -22.0357E-03    -20.7974E-03     42.0608E-03    -21.2616E-03     17.6157E-03     19.8066E+06     8.50219E+06    -50.2901E+06     13.9691E+06    -44.4526E+06     8.50219E+06    -19.2492E+06         23.2412
            1894     5.87437E-03     102.299E-03     479.508E-03    -168.676E-03    -180.938E-03    -175.539E-03     478.128E-03    -172.694E-03     32.6588E-03     43.6371E-03    -21.1574E-03    -22.4791E-03    -20.7042E-03     41.8622E-03    -21.1574E-03     21.1691E-03     8.28148E+06     569.614E+03    -58.1820E+06     2.29923E+06    -52.1998E+06     569.614E+03    -18.9033E+06         23.3438
            1895     6.85396E-03     102.307E-03     467.487E-03    -158.971E-03    -171.908E-03    -158.599E-03     467.114E-03    -171.908E-03     8.60459E-03     44.3349E-03    -21.1082E-03    -23.2314E-03    -20.8543E-03     41.9578E-03    -21.1082E-03     24.7063E-03    -226.049E+03    -7.08560E+06    -64.1549E+06    -9.89853E+06    -58.1383E+06    -3.42968E+06    -17.9578E+06         23.4915
            1896     7.83324E-03     102.316E-03     468.406E-03    -158.775E-03    -170.640E-03    -158.448E-03     467.592E-03    -170.153E-03     2.48936E-03     45.4810E-03    -21.1287E-03    -24.3531E-03    -21.3502E-03     42.4781E-03    -21.1287E-03     28.1595E-03    -3.03730E+06    -14.4847E+06    -66.4869E+06    -20.7105E+06    -59.5597E+06    -3.73867E+06    -17.5213E+06         23.7336
            1897     8.81191E-03     102.328E-03     465.075E-03    -157.454E-03    -169.182E-03    -157.211E-03     464.346E-03    -168.695E-03     745.328E-06     47.0966E-03    -21.2426E-03    -25.8473E-03    -22.2419E-03     43.4912E-03    -21.2426E-03     31.4781E-03    -286.116E+03    -19.3440E+06    -69.0377E+06    -28.2002E+06    -60.1815E+06    -286.116E+03    -18.7111E+06         24.1931
            1898     9.78951E-03     102.341E-03     452.069E-03    -146.502E-03    -166.913E-03    -146.297E-03     451.864E-03    -166.913E-03     14.3336E-03     49.0160E-03    -21.4421E-03    -27.5759E-03    -23.5268E-03     44.9668E-03    -21.4421E-03     34.1712E-03     2.33221E+06    -20.4984E+06    -69.9153E+06    -32.1936E+06    -58.2201E+06     2.33221E+06    -20.3894E+06         24.9957
            1899     10.7657E-03     102.357E-03     450.653E-03    -148.816E-03    -164.990E-03    -148.341E-03     450.178E-03    -164.990E-03     12.8657E-03     51.2592E-03    -21.7486E-03    -29.5220E-03    -25.1795E-03     46.9168E-03    -21.7486E-03     36.3615E-03     5.74497E+06    -18.9914E+06    -71.8074E+06    -32.3498E+06    -58.4490E+06     5.74497E+06    -22.3775E+06         26.1658
            1900     11.7402E-03     102.374E-03     443.277E-03    -143.244E-03    -163.234E-03    -142.773E-03     442.805E-03    -163.234E-03     10.5616E-03     53.8050E-03    -22.1278E-03    -31.6854E-03    -27.1031E-03     49.2227E-03    -22.1278E-03     38.4661E-03     2.80414E+06    -16.2207E+06    -75.2601E+06    -29.6250E+06    -61.8557E+06     2.80414E+06    -24.4534E+06         27.8067
            1901     12.7129E-03     102.394E-03     416.152E-03    -121.303E-03    -160.706E-03    -120.992E-03     415.841E-03    -160.706E-03    -11.8045E-03     56.3916E-03    -22.5771E-03    -33.8170E-03    -28.9331E-03     51.5077E-03    -22.5771E-03     40.8109E-03    -654.724E+03    -12.8884E+06    -69.7957E+06    -25.3673E+06    -57.3168E+06    -654.724E+03    -23.4333E+06         30.2460
            1902     13.6839E-03     102.419E-03     404.918E-03    -115.204E-03    -157.465E-03    -114.037E-03     403.750E-03    -157.465E-03     1.56936E-03     58.9985E-03    -23.0736E-03    -35.9193E-03    -30.3399E-03     53.4192E-03    -23.0736E-03     44.6239E-03     17.4579E+06    -2.30071E+06    -46.2523E+06    -20.2939E+06    -15.5829E+06     4.78167E+06    -21.9398E+06         33.7811
            1903     14.6542E-03     102.451E-03     404.155E-03    -120.064E-03    -154.541E-03    -119.037E-03     403.129E-03    -154.541E-03     21.4188E-03     59.7423E-03    -23.6302E-03    -36.1061E-03    -31.2978E-03     54.9340E-03    -23.6302E-03     41.4662E-03     55.7315E+06     23.7562E+06    -21.8121E+06    -13.4652E+06     47.3846E+06     23.7562E+06    -23.3090E+06         38.3681
            1904     15.6236E-03     102.475E-03     395.270E-03    -113.602E-03    -151.893E-03    -113.280E-03     394.947E-03    -151.893E-03     22.5977E-03     62.6844E-03    -24.2550E-03    -38.4347E-03    -32.8855E-03     57.1351E-03    -24.2550E-03     45.4360E-03     90.8014E+06     44.5988E+06    -11.9353E+06    -7.22942E+06     86.0955E+06     44.5988E+06    -20.3010E+06         43.5002
            1905     16.5910E-03     102.523E-03     397.052E-03    -111.611E-03    -149.290E-03    -111.100E-03     396.541E-03    -149.290E-03     13.3524E-03     64.0131E-03    -25.1705E-03    -38.8752E-03    -35.0015E-03     60.1394E-03    -25.1705E-03     31.8206E-03     132.710E+06     94.5402E+06    -5.05436E+06    -3.77055E+06     120.160E+06     105.807E+06    -10.0073E+06         48.1038
            1906     981.333E-06     103.319E-03     686.404E-03    -47.9394E-03    -494.358E-03    -269.874E-03     461.920E-03    -47.9394E-03    -396.855E-03     38.2240E-03    -18.9864E-03    -19.2384E-03    -19.1440E-03     38.1295E-03    -18.9864E-03     4.30807E-03     43.7714E+06     37.7468E+06    -6.67343E+06     40.5549E+06    -6.08305E+06     40.3729E+06    -4.48570E+06         22.7280
            1907     1.96222E-03     103.321E-03     537.528E-03    -162.031E-03    -237.802E-03    -174.743E-03     474.469E-03    -162.031E-03     100.334E-03     38.1551E-03    -18.9933E-03    -19.1618E-03    -18.8718E-03     37.8650E-03    -18.9933E-03     7.86190E-03     34.8157E+06     30.6169E+06    -10.7513E+06     33.8002E+06    -9.73575E+06     30.6169E+06    -6.09647E+06         22.7336
            1908     2.94402E-03     103.324E-03     490.867E-03    -162.709E-03    -199.838E-03    -168.941E-03     462.961E-03    -165.700E-03    -41.5299E-03     38.1525E-03    -18.8805E-03    -19.2720E-03    -18.6510E-03     37.5315E-03    -18.8805E-03     11.6463E-03     25.3092E+06     18.4421E+06    -20.8428E+06     23.8613E+06    -19.3950E+06     18.4421E+06    -7.12081E+06         22.7489
            1909     3.92549E-03     103.328E-03     447.251E-03    -151.106E-03    -173.145E-03    -147.337E-03     434.448E-03    -164.112E-03     60.4611E-03     38.2912E-03    -18.7545E-03    -19.5372E-03    -18.4455E-03     37.1995E-03    -18.7545E-03     15.5241E-03     12.4194E+06     3.93619E+06    -32.7473E+06     10.5240E+06    -30.8519E+06     3.93619E+06    -7.28496E+06         22.7896
            1910     4.90743E-03     103.332E-03     439.625E-03    -150.099E-03    -169.201E-03    -154.271E-03     435.877E-03    -161.281E-03    -10.6120E-03     38.6514E-03    -18.6518E-03    -20.0004E-03    -18.2983E-03     36.9493E-03    -18.6518E-03     19.4842E-03    -3.25679E+06    -9.50408E+06    -45.1547E+06    -5.41498E+06    -43.0940E+06    -9.40663E+06    -5.53819E+06         22.8662
            1911     5.88938E-03     103.339E-03     457.448E-03    -160.087E-03    -175.723E-03    -172.873E-03     455.977E-03    -161.465E-03     33.5345E-03     39.3977E-03    -18.5944E-03    -20.8046E-03    -18.3761E-03     36.9692E-03    -18.5944E-03     23.5048E-03    -15.4911E+06    -21.4794E+06    -54.7170E+06    -22.4137E+06    -51.6482E+06    -17.6256E+06    -3.37299E+06         22.9839
            1912     6.87109E-03     103.347E-03     447.405E-03    -157.187E-03    -169.479E-03    -163.885E-03     447.053E-03    -162.429E-03     10.2186E-03     40.6568E-03    -18.6260E-03    -22.0374E-03    -18.8218E-03     37.4412E-03    -18.6260E-03     27.5043E-03    -18.0814E+06    -33.7357E+06    -59.8024E+06    -37.0786E+06    -56.3286E+06    -18.2122E+06    -3.21579E+06         23.1559
            1913     7.85216E-03     103.358E-03     427.104E-03    -145.365E-03    -161.406E-03    -145.051E-03     426.791E-03    -161.406E-03     20.5002E-03     42.4683E-03    -18.7619E-03    -23.7150E-03    -19.7151E-03     38.4684E-03    -18.7619E-03     31.4195E-03    -12.8340E+06    -40.5677E+06    -61.7061E+06    -46.5895E+06    -55.6843E+06    -12.8340E+06    -5.90366E+06         23.4410
            1914     8.83208E-03     103.370E-03     422.369E-03    -141.194E-03    -159.237E-03    -140.918E-03     422.093E-03    -159.237E-03     20.1339E-03     44.8292E-03    -19.0144E-03    -25.8139E-03    -21.1173E-03     40.1326E-03    -19.0144E-03     35.1085E-03    -4.11143E+06    -39.8731E+06    -65.4680E+06    -50.8699E+06    -54.4712E+06    -4.11143E+06    -10.6870E+06         23.9638
            1915     9.81048E-03     103.386E-03     424.795E-03    -142.561E-03    -157.316E-03    -142.209E-03     424.443E-03    -157.316E-03     10.8219E-03     47.5743E-03    -19.3852E-03    -28.1891E-03    -23.0475E-03     42.4327E-03    -19.3852E-03     38.0485E-03     3.23546E+06    -34.7048E+06    -68.4458E+06    -50.4086E+06    -52.7419E+06     3.23546E+06    -16.0922E+06         24.8267
            1916     10.7867E-03     103.404E-03     423.087E-03    -139.430E-03    -155.641E-03    -138.806E-03     422.464E-03    -155.641E-03     16.5363E-03     50.6398E-03    -19.8706E-03    -30.7733E-03    -25.4219E-03     45.2884E-03    -19.8706E-03     40.3071E-03     8.39096E+06    -25.3493E+06    -71.7516E+06    -46.1442E+06    -50.9567E+06     8.39096E+06    -22.5043E+06         26.0405
            1917     11.7606E-03     103.424E-03     415.238E-03    -131.494E-03    -153.740E-03    -130.848E-03     414.592E-03    -153.740E-03     13.2309E-03     54.0292E-03    -20.4625E-03    -33.5666E-03    -28.1355E-03     48.5980E-03    -20.4625E-03     42.2194E-03     7.08534E+06    -18.5703E+06    -77.8108E+06    -38.9877E+06    -57.3933E+06     7.08534E+06    -27.4184E+06         27.7498
            1918     12.7317E-03     103.447E-03     402.430E-03    -122.508E-03    -151.434E-03    -122.105E-03     402.028E-03    -151.434E-03     5.34092E-03     57.3990E-03    -21.1551E-03    -36.2402E-03    -30.7944E-03     51.9532E-03    -21.1551E-03     43.8186E-03     3.61115E+06    -12.4307E+06    -75.6651E+06    -30.6242E+06    -57.4715E+06     3.61115E+06    -28.5060E+06         30.3259
            1919     13.7009E-03     103.475E-03     384.700E-03    -110.806E-03    -148.657E-03    -109.796E-03     383.689E-03    -148.657E-03     33.2498E-03     60.7273E-03    -21.9144E-03    -38.7933E-03    -32.9757E-03     54.9096E-03    -21.9144E-03     46.6855E-03     22.9162E+06     5.04593E+06    -50.1564E+06    -21.0261E+06    -12.1955E+06     11.0272E+06    -28.4596E+06         34.0843
            1920     14.6681E-03     103.510E-03     370.953E-03    -100.843E-03    -145.489E-03    -99.8536E-03     369.964E-03    -145.489E-03     33.9961E-03     62.3886E-03    -22.7617E-03    -39.6106E-03    -34.8882E-03     57.6663E-03    -22.7617E-03     42.2910E-03     58.8117E+06     29.8853E+06    -25.0704E+06    -14.6368E+06     48.3781E+06     29.8853E+06    -26.0018E+06         38.9953
            1921     15.6332E-03     103.535E-03     366.679E-03    -98.2728E-03    -142.292E-03    -97.7065E-03     366.113E-03    -142.292E-03     15.0600E-03     66.4093E-03    -23.6973E-03    -42.7192E-03    -37.3666E-03     61.0567E-03    -23.6973E-03     46.4136E-03     80.8941E+06     46.7188E+06    -18.5184E+06    -14.4701E+06     76.8458E+06     46.7188E+06    -18.2404E+06         44.4753
            1922     16.5951E-03     103.589E-03     355.029E-03    -87.0772E-03    -139.074E-03    -86.3313E-03     354.283E-03    -139.074E-03     1.15933E-03     68.2986E-03    -24.9028E-03    -43.4328E-03    -39.6003E-03     64.4661E-03    -24.9028E-03     33.4227E-03     123.768E+06     92.3315E+06    -12.1715E+06    -11.2494E+06     108.547E+06     106.631E+06    -8.66355E+06         49.2929
            1923     983.918E-06     104.355E-03     610.494E-03    -75.9276E-03    -399.343E-03    -205.794E-03     416.944E-03    -75.9276E-03    -343.344E-03     32.1114E-03    -15.9781E-03    -16.1333E-03    -16.0084E-03     31.9864E-03    -15.9781E-03     4.54720E-03     29.3591E+06     22.8195E+06    -5.54372E+06     25.5554E+06    -4.36603E+06     25.4456E+06     1.51443E+06         22.2852
            1924     1.96857E-03     104.357E-03     487.628E-03    -146.097E-03    -220.790E-03    -167.056E-03     433.895E-03    -146.097E-03     72.0948E-03     32.1439E-03    -15.9276E-03    -16.2166E-03    -15.8410E-03     31.7683E-03    -15.9276E-03     8.21277E-03     17.9317E+06     13.2263E+06    -11.5167E+06     15.2494E+06    -8.83430E+06     13.2263E+06     3.33513E+06         22.2963
            1925     2.95266E-03     104.359E-03     471.127E-03    -152.580E-03    -196.725E-03    -175.814E-03     452.458E-03    -154.823E-03    -84.3109E-03     32.2865E-03    -15.8259E-03    -16.4611E-03    -15.6591E-03     31.4845E-03    -15.8259E-03     12.1684E-03     6.27704E+06    -2.90571E+06    -25.0026E+06     1.38138E+06    -20.1069E+06    -2.90571E+06     5.23622E+06         22.3189
            1926     3.93749E-03     104.362E-03     420.203E-03    -137.133E-03    -164.696E-03    -141.043E-03     415.791E-03    -156.375E-03     33.1486E-03     32.6693E-03    -15.7311E-03    -16.9395E-03    -15.5342E-03     31.2641E-03    -15.7311E-03     16.2563E-03    -7.73343E+06    -19.1166E+06    -42.6021E+06    -16.1405E+06    -34.1951E+06    -19.1166E+06     9.20792E+06         22.3712
            1927     4.92199E-03     104.367E-03     400.905E-03    -134.422E-03    -155.719E-03    -134.380E-03     397.731E-03    -152.588E-03     26.3057E-03     33.5260E-03    -15.7008E-03    -17.8252E-03    -15.6430E-03     31.3438E-03    -15.7008E-03     20.5381E-03    -22.4344E+06    -29.3441E+06    -58.9819E+06    -34.8657E+06    -46.6481E+06    -29.2467E+06     12.8648E+06         22.4682
            1928     5.90636E-03     104.374E-03     419.297E-03    -150.207E-03    -163.358E-03    -159.391E-03     416.497E-03    -151.375E-03     29.1957E-03     34.9361E-03    -15.7639E-03    -19.1729E-03    -16.0836E-03     31.8468E-03    -15.7639E-03     24.9661E-03    -29.2938E+06    -37.0022E+06    -67.7116E+06    -49.9283E+06    -53.2432E+06    -30.8362E+06     13.8763E+06         22.6174
            1929     6.89004E-03     104.383E-03     412.550E-03    -146.415E-03    -160.993E-03    -154.699E-03     411.981E-03    -152.140E-03    -21.0349E-03     36.9390E-03    -15.9385E-03    -21.0036E-03    -16.9606E-03     32.8959E-03    -15.9385E-03     29.4155E-03    -23.9116E+06    -44.0658E+06    -67.8678E+06    -58.9846E+06     -52.949E+06    -23.9116E+06     10.5198E+06         22.8306
            1930     7.87260E-03     104.395E-03     389.104E-03    -131.164E-03    -150.958E-03    -131.006E-03     388.947E-03    -150.958E-03     6.00162E-03     39.5438E-03    -16.2401E-03    -23.3067E-03    -18.3592E-03     34.5964E-03    -16.2401E-03     33.7746E-03    -12.0671E+06    -47.2335E+06    -64.6841E+06    -62.7271E+06    -49.1905E+06    -12.0671E+06     3.60015E+06         23.1683
            1931     8.85356E-03     104.409E-03     391.302E-03    -132.142E-03    -148.598E-03    -131.258E-03     390.418E-03    -148.598E-03     32.6976E-03     42.7609E-03    -16.6735E-03    -26.0860E-03    -20.3645E-03     37.0394E-03    -16.6735E-03     37.9547E-03     34.7114E+03    -42.2460E+06    -64.7026E+06    -61.6977E+06    -45.2509E+06     34.7114E+03    -5.28357E+06         23.7534
            1932     9.83220E-03     104.428E-03     405.893E-03    -142.538E-03    -149.999E-03    -144.323E-03     404.983E-03    -147.304E-03     19.2107E-03     46.3942E-03    -17.2365E-03    -29.1548E-03    -22.9875E-03     40.2269E-03    -17.2365E-03     41.3255E-03     8.27269E+06    -33.1863E+06    -67.3510E+06    -56.9443E+06    -43.5930E+06     8.27269E+06    -14.7913E+06         24.6747
            1933     10.8082E-03     104.449E-03     390.391E-03    -127.548E-03    -148.918E-03    -130.071E-03     390.219E-03    -146.223E-03    -1.73100E-03     50.3565E-03    -17.9330E-03    -32.4235E-03    -26.1204E-03     44.0534E-03    -17.9330E-03     43.8728E-03     12.7995E+06    -21.8847E+06    -69.7897E+06    -51.0070E+06    -40.6674E+06     12.7995E+06    -23.1885E+06         25.9384
            1934     11.7809E-03     104.474E-03     367.208E-03    -108.558E-03    -143.803E-03    -108.175E-03     366.826E-03    -143.803E-03    -10.4870E-03     54.6704E-03    -18.7778E-03    -35.8899E-03    -29.6394E-03     48.4200E-03    -18.7778E-03     45.8731E-03     10.9006E+06    -13.2970E+06    -79.8110E+06    -44.2275E+06    -48.8804E+06     10.9006E+06    -31.8799E+06         27.7167
            1935     12.7503E-03     104.501E-03     368.034E-03    -113.693E-03    -141.020E-03    -113.125E-03     367.465E-03    -141.020E-03    -6.19159E-03     59.0117E-03    -19.7399E-03    -39.2574E-03    -33.2492E-03     53.0035E-03    -19.7399E-03     47.0562E-03     5.26940E+06    -7.24685E+06    -82.8988E+06    -34.4242E+06    -55.0620E+06     4.61000E+06    -36.5538E+06         30.3986
            1936     13.7163E-03     104.532E-03     367.226E-03    -112.496E-03    -138.731E-03    -112.127E-03     366.857E-03    -138.731E-03     3.21718E-03     63.2815E-03    -20.8014E-03    -42.4572E-03    -36.4429E-03     57.2672E-03    -20.8014E-03     48.9757E-03     25.3264E+06     9.90804E+06    -57.8186E+06    -24.9760E+06    -9.60075E+06     11.9925E+06    -35.5395E+06         34.3368
            1937     14.6798E-03     104.571E-03     350.505E-03    -96.5056E-03    -136.184E-03    -96.1038E-03     350.103E-03    -136.184E-03     8.09200E-03     65.7571E-03    -21.9774E-03    -43.7684E-03    -39.0485E-03     61.0373E-03    -21.9774E-03     43.8850E-03     53.0960E+06     28.9114E+06    -29.9854E+06    -17.3849E+06     40.4955E+06     28.9114E+06    -28.1889E+06         39.5463
            1938     15.6401E-03     104.601E-03     335.575E-03    -83.1927E-03    -132.994E-03    -82.6431E-03     335.025E-03    -132.994E-03     1.11750E-03     70.2753E-03    -23.2083E-03    -47.0685E-03    -41.5828E-03     64.7896E-03    -23.2083E-03     48.7125E-03     70.1206E+06     44.8614E+06    -15.4297E+06    -10.9378E+06     65.6288E+06     44.8614E+06    -16.3297E+06         45.3424
            1939     16.5990E-03     104.659E-03     324.680E-03    -79.1051E-03    -129.636E-03    -78.3741E-03     323.949E-03    -129.636E-03    -33.8274E-03     71.9168E-03    -24.6717E-03    -47.3186E-03    -43.3082E-03     67.9064E-03    -24.6717E-03     36.0503E-03     121.321E+06     88.5317E+06    -6.82064E+06    -6.04914E+06     101.509E+06     107.572E+06    -8.10994E+06         50.3516
            1940     987.746E-06     105.384E-03     500.382E-03    -39.7991E-03    -352.073E-03    -234.176E-03     382.485E-03    -39.7991E-03    -237.276E-03     25.3782E-03    -12.5920E-03    -12.7864E-03    -12.6338E-03     25.2256E-03    -12.5920E-03     4.48451E-03     2.30355E+06    -7.91737E+06    -27.5709E+06    -9.45843E+06    -16.3837E+06    -7.34262E+06     10.9617E+06         21.8011
            1941     1.97482E-03     105.386E-03     444.269E-03    -133.002E-03    -203.236E-03    -165.457E-03     416.162E-03    -142.674E-03     67.2066E-03     25.5977E-03    -12.5765E-03    -13.0213E-03    -12.5681E-03     25.1445E-03    -12.5765E-03     8.06324E-03    -834.346E+03    -20.6245E+06    -38.1473E+06    -21.8408E+06    -17.1408E+06    -20.6245E+06     16.8224E+06         21.8236
            1942     2.96258E-03     105.388E-03     399.899E-03    -132.292E-03    -160.297E-03    -135.783E-03     389.647E-03    -146.555E-03    -64.4345E-03     26.0433E-03    -12.5491E-03    -13.4972E-03    -12.5322E-03     25.0783E-03    -12.5491E-03     11.9866E-03    -9.93703E+06    -34.6003E+06    -56.9021E+06    -37.5796E+06    -29.2595E+06    -34.6003E+06     21.7986E+06         21.8685
            1943     3.94990E-03     105.391E-03     392.863E-03    -132.790E-03    -153.864E-03    -141.556E-03     392.129E-03    -144.365E-03     14.7386E-03     26.9211E-03    -12.5696E-03    -14.3545E-03    -12.6617E-03     25.2282E-03    -12.5696E-03     16.1949E-03    -20.5408E+06    -43.8100E+06    -76.1527E+06    -52.5927E+06    -44.1008E+06    -43.8100E+06     26.9609E+06         21.9500
            1944     4.93730E-03     105.396E-03     391.569E-03    -133.121E-03    -156.630E-03    -144.322E-03     390.141E-03    -144.000E-03     19.3397E-03     28.4210E-03    -12.6753E-03    -15.7447E-03    -13.1293E-03     25.8057E-03    -12.6753E-03     20.7076E-03    -28.0700E+06    -44.1889E+06    -87.5595E+06    -63.3392E+06    -52.2903E+06    -44.1889E+06     28.9056E+06         22.0825
            1945     5.92375E-03     105.403E-03     368.225E-03    -123.669E-03    -147.568E-03    -126.608E-03     366.230E-03    -142.634E-03     23.9192E-03     30.6010E-03    -12.8975E-03    -17.7003E-03    -14.0243E-03     26.9250E-03    -12.8975E-03     25.5125E-03    -30.5890E+06    -39.0010E+06    -87.7353E+06    -68.1685E+06    -53.4765E+06    -35.6804E+06     25.6719E+06         22.2770
            1946     6.90918E-03     105.414E-03     365.778E-03    -121.556E-03    -147.070E-03    -126.997E-03     364.373E-03    -140.224E-03     9.18822E-03     33.4038E-03    -13.2443E-03    -20.1558E-03    -15.3787E-03     28.6266E-03    -13.2443E-03     30.4588E-03    -21.8081E+06    -36.2113E+06    -79.6396E+06    -68.2168E+06    -47.6342E+06    -21.8081E+06     18.6599E+06         22.5395
            1947     7.89300E-03     105.428E-03     380.577E-03    -130.060E-03    -150.512E-03    -140.491E-03     379.672E-03    -139.175E-03     13.7934E-03     36.8433E-03    -13.7247E-03    -23.1135E-03    -17.3030E-03     31.0328E-03    -13.7247E-03     35.4235E-03    -6.26415E+06    -36.4345E+06    -68.9911E+06    -65.2058E+06    -40.2198E+06    -6.26415E+06     9.23920E+06         22.9290
            1948     8.87461E-03     105.446E-03     368.891E-03    -121.838E-03    -144.732E-03    -127.093E-03     367.852E-03    -138.437E-03     26.8372E-03     40.9283E-03    -14.3429E-03    -26.5748E-03    -19.8779E-03     34.2314E-03    -14.3429E-03     40.3179E-03     6.81582E+06    -31.0006E+06    -61.8376E+06    -60.3158E+06    -32.5223E+06     6.81582E+06    -2.64507E+06         23.5687
            1949     9.85355E-03     105.468E-03     359.080E-03    -116.623E-03    -139.371E-03    -118.301E-03     358.062E-03    -136.676E-03     34.8620E-03     45.4740E-03    -15.1135E-03    -30.3528E-03    -23.1603E-03     38.2814E-03    -15.1135E-03     44.3906E-03     14.5620E+06    -23.9174E+06    -62.3686E+06    -54.2928E+06    -31.9933E+06     14.5620E+06    -14.3131E+06         24.5424
            1950     10.8289E-03     105.493E-03     356.386E-03    -116.968E-03    -137.456E-03    -119.383E-03     356.106E-03    -134.761E-03     15.4646E-03     50.3980E-03    -16.0436E-03    -34.3552E-03    -27.0349E-03     43.0777E-03    -16.0436E-03     47.5718E-03     18.4441E+06    -13.1735E+06    -64.1710E+06    -47.8498E+06    -29.4947E+06     18.4441E+06    -23.7480E+06         25.8566
            1951     11.8005E-03     105.523E-03     344.982E-03    -111.900E-03    -132.811E-03    -111.296E-03     344.378E-03    -132.811E-03     10.8402E-03     55.7051E-03    -17.1514E-03    -38.5553E-03    -31.3767E-03     48.5266E-03    -17.1514E-03     49.9442E-03     17.9483E+06    -1.96618E+06    -73.7116E+06    -41.2755E+06    -34.4022E+06     17.9483E+06    -34.6909E+06         27.7003
            1952     12.7677E-03     105.556E-03     340.172E-03    -109.715E-03    -130.730E-03    -108.962E-03     339.419E-03    -130.730E-03     12.6518E-03     61.2461E-03    -18.3981E-03    -42.8374E-03    -36.0489E-03     54.4576E-03    -18.3981E-03     51.3420E-03     9.60842E+06    -447.473E+03    -86.3592E+06    -34.7981E+06    -50.0005E+06     7.60024E+06    -43.1164E+06         30.4652
            1953     13.7305E-03     105.594E-03     340.876E-03    -107.182E-03    -128.751E-03    -106.703E-03     340.397E-03    -128.751E-03     8.84434E-03     66.4711E-03    -19.7722E-03    -46.7027E-03    -40.1449E-03     59.9132E-03    -19.7722E-03     52.8665E-03     25.5477E+06     11.2248E+06    -65.7115E+06    -28.2666E+06    -11.8972E+06     11.2248E+06    -40.2129E+06         34.5505
            1954     14.6895E-03     105.636E-03     325.785E-03    -92.8847E-03    -126.480E-03    -92.4960E-03     325.396E-03    -126.480E-03     4.93809E-03     69.3136E-03    -21.2568E-03    -48.0703E-03    -42.9922E-03     64.2355E-03    -21.2568E-03     47.1990E-03     46.2124E+06     24.4000E+06    -37.3567E+06    -22.4923E+06     31.3480E+06     24.4000E+06    -31.8322E+06         40.0181
            1955     15.6472E-03     105.670E-03     303.843E-03    -74.0864E-03    -123.441E-03    -73.7834E-03     303.540E-03    -123.441E-03     2.97246E-03     73.9067E-03    -22.7463E-03    -51.1573E-03    -45.2897E-03     68.0391E-03    -22.7463E-03     52.0846E-03     57.8532E+06     35.5147E+06    -22.0910E+06    -14.7993E+06     50.5616E+06     35.5147E+06    -20.6299E+06         46.0968
            1956     16.6025E-03     105.732E-03     302.183E-03    -74.0973E-03    -120.194E-03    -73.7049E-03     301.791E-03    -120.194E-03    -16.7211E-03     75.3155E-03    -24.4516E-03    -50.9282E-03    -46.6654E-03     71.0527E-03    -24.4516E-03     38.7463E-03     116.870E+06     81.4416E+06    -8.15804E+06    -6.86844E+06     92.9929E+06     104.029E+06    -8.07706E+06         51.2997
            1957     990.554E-06     106.407E-03     376.803E-03    -52.0438E-03    -239.487E-03    -195.362E-03     332.678E-03    -52.0438E-03    -48.3709E-03     18.6881E-03    -9.22071E-03    -9.46782E-03    -9.29982E-03     18.5201E-03    -9.22071E-03     4.03773E-03    -31.7831E+06    -69.5936E+06    -83.6882E+06    -71.1918E+06    -44.0514E+06    -69.8217E+06     19.8201E+06         21.3252
            1958     1.98156E-03     106.408E-03     371.689E-03    -116.348E-03    -161.585E-03    -135.467E-03     355.243E-03    -126.020E-03     64.4790E-03     19.1099E-03    -9.27133E-03    -9.84035E-03    -9.33908E-03     18.6086E-03    -9.27133E-03     7.33048E-03    -19.6370E+06    -73.4274E+06    -93.5267E+06    -77.5520E+06    -35.6117E+06    -73.4274E+06     29.3238E+06         21.3685
            1959     2.97188E-03     106.410E-03     357.580E-03    -116.830E-03    -148.955E-03    -131.979E-03     352.623E-03    -128.850E-03    -23.1934E-03     20.0394E-03    -9.37789E-03    -10.6659E-03    -9.59231E-03     18.9657E-03    -9.37789E-03     11.1081E-03    -23.0911E+06    -71.5483E+06    -103.871E+06    -83.0550E+06    -43.9070E+06    -71.5483E+06     34.8690E+06         21.4477
            1960     3.96217E-03     106.413E-03     387.858E-03    -130.504E-03    -164.411E-03    -161.092E-03     386.887E-03    -132.852E-03     18.8167E-03     21.5955E-03    -9.56607E-03    -12.0324E-03    -10.1274E-03     19.6905E-03    -9.56607E-03     15.4106E-03    -29.8880E+06    -64.8957E+06    -108.615E+06    -83.5868E+06    -54.9159E+06    -64.8957E+06     36.3176E+06         21.5689
            1961     4.95144E-03     106.419E-03     365.625E-03    -122.800E-03    -154.847E-03    -140.530E-03     365.219E-03    -136.711E-03    -19.3048E-03     23.7795E-03    -9.83726E-03    -13.9431E-03    -10.9867E-03     20.8232E-03    -9.83726E-03     20.1772E-03    -31.8549E+06    -53.6489E+06    -103.832E+06    -78.8788E+06    -56.8077E+06    -53.6489E+06     34.1959E+06         21.7410
            1962     5.94001E-03     106.428E-03     313.756E-03    -92.2504E-03    -133.491E-03    -91.0918E-03     312.597E-03    -133.491E-03    -13.4144E-03     26.6182E-03    -10.2179E-03    -16.4001E-03    -12.2485E-03     22.4667E-03    -10.2179E-03     25.3341E-03    -30.2158E+06    -38.8370E+06    -92.3037E+06    -71.9364E+06    -51.5915E+06    -37.8286E+06     28.6314E+06         21.9789
            1963     6.92692E-03     106.441E-03     326.382E-03    -100.919E-03    -135.061E-03    -105.759E-03     324.409E-03    -128.249E-03     27.6320E-03     30.1366E-03    -10.7245E-03    -19.4085E-03    -14.0121E-03     24.7402E-03    -10.7245E-03     30.8211E-03    -19.0459E+06    -29.3249E+06    -77.3135E+06    -64.7696E+06    -41.7013E+06    -19.2134E+06     20.7544E+06         22.2896
            1964     7.91194E-03     106.457E-03     366.989E-03    -127.594E-03    -147.224E-03    -145.451E-03     365.216E-03    -127.594E-03     8.77289E-03     34.3486E-03    -11.3657E-03    -22.9746E-03    -16.3734E-03     27.7474E-03    -11.3657E-03     36.5582E-03    -923.101E+03    -25.4166E+06    -61.5803E+06    -57.3032E+06    -29.6937E+06    -923.101E+03     10.5110E+06         22.7260
            1965     8.89434E-03     106.479E-03     346.416E-03    -110.504E-03    -140.979E-03    -122.365E-03     345.459E-03    -128.161E-03    -8.89779E-03     39.2818E-03    -12.1609E-03    -27.1161E-03    -19.4447E-03     31.6104E-03    -12.1609E-03     42.4149E-03     14.0628E+06    -17.9713E+06    -51.5019E+06    -50.2899E+06    -19.1833E+06     14.0628E+06    -1.21857E+06         23.4083
            1966     9.87340E-03     106.506E-03     304.516E-03    -83.5146E-03    -125.451E-03    -82.9580E-03     303.959E-03    -125.451E-03     29.1948E-03     44.7655E-03    -13.1331E-03    -31.6349E-03    -23.3165E-03     36.4471E-03    -13.1331E-03     47.5436E-03     23.0253E+06    -10.4936E+06    -51.5312E+06    -44.0251E+06    -17.9997E+06     23.0253E+06    -14.0956E+06         24.4248
            1967     10.8484E-03     106.537E-03     310.017E-03    -94.6216E-03    -121.750E-03    -94.2193E-03     309.615E-03    -121.750E-03     21.0541E-03     50.6826E-03    -14.2794E-03    -36.4054E-03    -27.8795E-03     42.1568E-03    -14.2794E-03     51.7013E-03     26.2734E+06    -2.48892E+06    -54.2421E+06    -37.6303E+06    -19.1008E+06     26.2734E+06    -24.0827E+06         25.7851
            1968     11.8189E-03     106.573E-03     327.874E-03    -117.042E-03    -123.095E-03    -119.548E-03     327.343E-03    -120.059E-03     11.3842E-03     57.0618E-03    -15.6214E-03    -41.4410E-03    -33.0229E-03     48.6437E-03    -15.6214E-03     54.9919E-03     27.5343E+06     9.79190E+06    -60.6575E+06    -33.5842E+06    -17.2814E+06     27.5343E+06    -33.7342E+06         27.6880
            1969     12.7841E-03     106.613E-03     316.961E-03    -107.555E-03    -122.242E-03    -109.752E-03     316.121E-03    -119.205E-03     23.0443E-03     63.7435E-03    -17.1416E-03    -46.6013E-03    -38.5831E-03     55.7253E-03    -17.1416E-03     57.1902E-03     18.7753E+06     10.2368E+06    -82.4779E+06    -30.1923E+06    -39.3656E+06     16.0920E+06    -45.5996E+06         30.5361
            1970     13.7439E-03     106.657E-03     300.546E-03    -91.4124E-03    -117.414E-03    -90.8611E-03     299.994E-03    -117.414E-03     27.4781E-03     69.7365E-03    -18.7860E-03    -50.9707E-03    -43.3906E-03     62.1565E-03    -18.7860E-03     58.5115E-03     27.6663E+06     12.5485E+06    -70.4725E+06    -23.3964E+06    -19.4098E+06     12.5485E+06    -45.0485E+06         34.7583
            1971     14.7006E-03     106.705E-03     294.428E-03    -82.9321E-03    -114.922E-03    -82.5665E-03     294.062E-03    -114.922E-03     15.8441E-03     72.9021E-03    -20.5378E-03    -52.3834E-03    -46.6278E-03     67.1465E-03    -20.5378E-03     51.8478E-03     43.4066E+06     23.4787E+06    -37.1892E+06    -17.4927E+06     23.7101E+06     23.4787E+06    -33.9475E+06         40.4482
            1972     15.6537E-03     106.742E-03     283.386E-03    -75.7529E-03    -112.197E-03    -75.2303E-03     282.864E-03    -112.197E-03     18.8341E-03     77.7997E-03    -22.3117E-03    -55.4888E-03    -49.0971E-03     71.4080E-03    -22.3117E-03     56.2308E-03     49.6928E+06     35.2609E+06    -25.5148E+06    -15.5906E+06     39.7687E+06     35.2609E+06    -23.3295E+06         46.7886
            1973     16.6062E-03     106.808E-03     272.567E-03    -66.5585E-03    -109.315E-03    -66.1197E-03     272.129E-03    -109.315E-03     15.7848E-03     78.9314E-03    -24.2381E-03    -54.7067E-03    -50.1306E-03     74.3553E-03    -24.2381E-03     41.7158E-03     108.576E+06     75.1396E+06    -12.4849E+06    -10.3017E+06     79.8950E+06     101.637E+06    -9.80608E+06         52.2162
            1974     993.672E-06     107.422E-03     313.740E-03    -103.756E-03    -137.869E-03    -110.895E-03     289.326E-03    -106.317E-03    -16.0946E-03     12.9013E-03    -6.34378E-03    -6.55753E-03    -6.38516E-03     12.7289E-03    -6.34378E-03     3.39952E-03    -71.5635E+06    -150.380E+06    -158.236E+06    -149.924E+06    -77.2797E+06    -152.976E+06     17.9704E+06         20.9207
            1975     1.98677E-03     107.423E-03     305.633E-03    -106.421E-03    -129.084E-03    -110.480E-03     289.590E-03    -108.981E-03     6.97902E-03     13.5257E-03    -6.41394E-03    -7.11309E-03    -6.59689E-03     13.0095E-03    -6.41394E-03     6.27495E-03    -48.7573E+06    -138.956E+06    -151.753E+06    -139.804E+06    -58.2600E+06    -141.403E+06     27.0342E+06         20.9886
            1976     2.97998E-03     107.426E-03     335.449E-03    -113.079E-03    -146.015E-03    -135.575E-03     325.009E-03    -113.079E-03    -24.4066E-03     14.9163E-03    -6.63991E-03    -8.27762E-03    -7.15970E-03     13.7984E-03    -6.63991E-03     9.80619E-03    -44.1252E+06    -118.731E+06    -137.696E+06    -123.861E+06    -57.3056E+06    -119.384E+06     30.2234E+06         21.0990
            1977     3.97214E-03     107.430E-03     335.575E-03    -116.584E-03    -146.345E-03    -138.643E-03     330.461E-03    -119.172E-03     69.4347E-03     17.0069E-03    -6.97645E-03    -10.0306E-03    -8.02629E-03     15.0025E-03    -6.97645E-03     14.0724E-03    -46.4668E+06    -94.8665E+06    -120.591E+06    -105.099E+06    -61.9590E+06    -94.8665E+06     28.8161E+06         21.2504
            1978     4.96365E-03     107.438E-03     329.195E-03    -109.422E-03    -142.308E-03    -127.949E-03     327.439E-03    -122.026E-03     16.3000E-03     19.7283E-03    -7.39203E-03    -12.3359E-03    -9.18844E-03     16.5809E-03    -7.39203E-03     19.0139E-03    -43.1778E+06    -71.3214E+06    -102.322E+06    -86.2820E+06    -59.2181E+06    -71.3214E+06     25.4724E+06         21.4538
            1979     5.95359E-03     107.448E-03     324.314E-03    -100.274E-03    -147.362E-03    -123.853E-03     323.081E-03    -122.550E-03    -23.3990E-03     23.0926E-03    -7.91146E-03    -15.1831E-03    -10.7177E-03     18.6272E-03    -7.91146E-03     24.5306E-03    -36.0774E+06    -46.5972E+06    -83.3402E+06    -69.1972E+06    -50.2203E+06    -46.5972E+06     21.4400E+06         21.7253
            1980     6.94215E-03     107.464E-03     308.225E-03    -92.9642E-03    -136.402E-03    -106.136E-03     306.461E-03    -121.466E-03     4.29274E-03     27.1596E-03    -8.54679E-03    -18.6154E-03    -12.7384E-03     21.2827E-03    -8.54679E-03     30.5921E-03    -20.3154E+06    -27.6700E+06    -63.9747E+06    -54.4152E+06    -36.4217E+06    -21.1232E+06     15.8613E+06         22.0735
            1981     7.92827E-03     107.484E-03     301.382E-03    -88.8538E-03    -127.095E-03    -95.4740E-03     299.710E-03    -118.802E-03     5.26541E-03     32.0090E-03    -9.31495E-03    -22.6898E-03    -15.3873E-03     24.7065E-03    -9.31495E-03     37.1784E-03     2.54755E+06    -16.4370E+06    -45.7467E+06    -42.4005E+06    -19.7833E+06     2.54755E+06     7.69719E+06         22.5474
            1982     8.91165E-03     107.510E-03     307.195E-03    -93.8337E-03    -124.960E-03    -101.770E-03     306.441E-03    -116.271E-03    -16.1679E-03     37.7245E-03    -10.2475E-03    -27.4745E-03    -18.8275E-03     29.0775E-03    -10.2475E-03     44.1931E-03     21.0379E+06    -8.40447E+06    -34.1910E+06    -33.6262E+06    -8.96922E+06     21.0379E+06    -822.278E+03         23.2623
            1983     9.89121E-03     107.542E-03     297.832E-03    -89.1689E-03    -116.129E-03    -91.0499E-03     297.547E-03    -113.963E-03     7.01919E-03     44.0838E-03    -11.3614E-03    -32.7312E-03    -23.1457E-03     34.4984E-03    -11.3614E-03     50.7139E-03     32.3530E+06     2.11189E+06    -34.7316E+06    -29.7394E+06    -2.88032E+06     32.3530E+06    -10.9320E+06         24.3124
            1984     10.8663E-03     107.579E-03     284.444E-03    -84.6177E-03    -111.269E-03    -84.1248E-03     283.951E-03    -111.269E-03    -9.82506E-03     51.0004E-03    -12.6769E-03    -38.3292E-03    -28.3169E-03     40.9881E-03    -12.6769E-03     56.2833E-03     35.9254E+06     8.76228E+06    -43.9930E+06    -27.9084E+06    -7.32232E+06     35.9254E+06    -22.7739E+06         25.7118
            1985     11.8361E-03     107.623E-03     283.243E-03    -90.3207E-03    -112.068E-03    -92.7519E-03     282.638E-03    -109.031E-03    -25.7186E-03     58.4306E-03    -14.1974E-03    -44.2213E-03    -34.1111E-03     48.3205E-03    -14.1974E-03     61.0747E-03     37.1150E+06     17.8313E+06    -47.2632E+06    -24.6513E+06    -4.78062E+06     37.1150E+06    -30.7984E+06         27.6672
            1986     12.8000E-03     107.671E-03     279.908E-03    -89.9342E-03    -110.377E-03    -92.5046E-03     279.441E-03    -107.340E-03    -5.90260E-03     66.0631E-03    -15.9279E-03    -50.1257E-03    -40.3336E-03     56.2711E-03    -15.9279E-03     64.4193E-03     30.7250E+06     22.5430E+06    -67.0396E+06    -23.7805E+06    -19.3816E+06     29.3905E+06    -43.0753E+06         30.5937
            1987     13.7582E-03     107.722E-03     265.355E-03    -79.6746E-03    -105.317E-03    -79.4841E-03     265.164E-03    -105.317E-03     11.5143E-03     73.0096E-03    -17.7915E-03    -55.2226E-03    -46.1593E-03     63.9463E-03    -17.7915E-03     65.6095E-03     29.3503E+06     13.2317E+06    -74.8608E+06    -21.4692E+06    -25.5317E+06     14.7222E+06    -49.5616E+06         34.9393
            1988     14.7113E-03     107.777E-03     252.381E-03    -65.4508E-03    -102.631E-03    -64.7937E-03     251.724E-03    -102.631E-03     2.00980E-03     76.6701E-03    -19.7986E-03    -56.8749E-03    -50.2502E-03     70.0453E-03    -19.7986E-03     57.2294E-03     38.0602E+06     21.9040E+06    -43.9956E+06    -15.5994E+06     9.66402E+06     21.9040E+06    -36.5546E+06         40.8412
            1989     15.6622E-03     107.818E-03     249.248E-03    -63.8776E-03    -99.6982E-03    -62.8877E-03     248.258E-03    -99.6982E-03     14.3687E-03     81.6207E-03    -21.8577E-03    -59.7706E-03    -52.8353E-03     74.6855E-03    -21.8577E-03     60.3946E-03     43.8452E+06     39.9803E+06    -23.3528E+06    -13.6459E+06     33.7125E+06     40.4062E+06    -22.0534E+06         47.4476
            1990     16.6098E-03     107.889E-03     246.078E-03    -64.2772E-03    -97.0518E-03    -63.7341E-03     245.535E-03    -97.0518E-03     24.7990E-03     82.6517E-03    -23.9931E-03    -58.6723E-03    -53.7473E-03     77.7267E-03    -23.9931E-03     44.9477E-03     99.5418E+06     67.4039E+06    -14.0387E+06    -11.3625E+06     65.3041E+06     98.9654E+06    -10.7405E+06         53.1187
            1991     995.062E-06     108.432E-03     319.411E-03    -92.5524E-03    -166.349E-03    -134.976E-03     290.599E-03    -95.1130E-03    -57.7320E-03     9.11450E-03    -4.44735E-03    -4.66708E-03    -4.48118E-03     8.96702E-03    -4.48576E-03     2.64253E-03    -96.2556E+06    -182.830E+06    -190.583E+06    -184.729E+06    -97.5582E+06    -187.382E+06     4.78780E+06         20.6507
            1992     1.99062E-03     108.434E-03     302.407E-03    -111.047E-03    -125.251E-03    -107.798E-03     287.514E-03    -113.608E-03     10.1322E-03     9.78077E-03    -4.53426E-03    -5.24630E-03    -4.77445E-03     9.30891E-03    -4.53426E-03     5.11080E-03    -70.0585E+06    -166.871E+06    -173.931E+06    -166.011E+06    -72.1910E+06    -172.659E+06     7.67864E+06         20.7310
            1993     2.98517E-03     108.437E-03     299.446E-03    -106.084E-03    -127.445E-03    -109.821E-03     287.590E-03    -111.851E-03    -63.2216E-03     11.1962E-03    -4.72174E-03    -6.47359E-03    -5.40232E-03     10.1249E-03    -4.72174E-03     8.34621E-03    -61.5271E+06    -147.020E+06    -157.995E+06    -144.975E+06    -64.6831E+06    -156.884E+06     8.90444E+06         20.8482
            1994     3.97929E-03     108.443E-03     279.929E-03    -98.8013E-03    -114.407E-03    -91.3931E-03     267.409E-03    -109.295E-03    -12.5727E-03     13.4241E-03    -5.03742E-03    -8.38592E-03    -6.39512E-03     11.4333E-03    -5.03742E-03     12.4980E-03    -59.7453E+06    -123.766E+06    -142.129E+06    -123.442E+06    -63.5786E+06    -138.619E+06     7.04298E+06         21.0061
            1995     4.97208E-03     108.452E-03     290.677E-03    -102.651E-03    -123.188E-03    -110.891E-03     283.105E-03    -107.377E-03    -26.4802E-03     16.3946E-03    -5.50730E-03    -10.8858E-03    -7.71051E-03     13.2193E-03    -5.50730E-03     17.4601E-03    -53.9580E+06    -99.0049E+06    -117.443E+06    -100.535E+06    -59.2558E+06    -110.615E+06     4.05812E+06         21.2218
            1996     5.96383E-03     108.465E-03     323.492E-03    -110.628E-03    -147.980E-03    -147.045E-03     322.556E-03    -110.628E-03    -14.8785E-03     20.0635E-03    -6.12554E-03    -13.9375E-03    -9.37406E-03     15.5001E-03    -6.12554E-03     23.1559E-03    -43.6094E+06    -70.1408E+06    -84.5423E+06    -75.5455E+06    -49.5935E+06    -73.1534E+06     2.06018E+06         21.5113
            1997     6.95344E-03     108.483E-03     296.741E-03    -93.4355E-03    -135.010E-03    -113.933E-03     295.697E-03    -113.469E-03     14.0292E-03     24.4708E-03    -6.84936E-03    -17.6235E-03    -11.4912E-03     18.3385E-03    -6.84936E-03     29.6821E-03    -26.8181E+06    -38.5790E+06    -56.8542E+06    -51.7439E+06    -34.0932E+06    -36.4143E+06     948.977E+03         21.8811
            1998     7.94111E-03     108.507E-03     247.177E-03    -60.7716E-03    -110.115E-03    -59.7274E-03     246.133E-03    -110.115E-03     15.2690E-03     29.7503E-03    -7.69606E-03    -22.0540E-03    -14.2436E-03     21.9399E-03    -7.69606E-03     37.0544E-03    -2.77808E+06    -14.4564E+06    -36.9710E+06    -34.5214E+06    -15.4372E+06    -4.24684E+06     567.098E+03         22.3792
            1999     8.92553E-03     108.537E-03     258.609E-03    -70.5477E-03    -107.066E-03    -72.3180E-03     258.213E-03    -104.900E-03    -18.1354E-03     36.0608E-03    -8.69882E-03    -27.3570E-03    -17.8566E-03     26.5605E-03    -8.69882E-03     45.2393E-03     20.7381E+06    -546.317E+03    -25.0599E+06    -24.1339E+06    -1.47227E+06     20.7381E+06    -2.85950E+06         23.1213
            2000     9.90626E-03     108.576E-03     281.245E-03    -93.9914E-03    -104.516E-03    -95.1754E-03     280.263E-03    -102.350E-03     148.509E-06     43.1233E-03    -9.88727E-03    -33.2394E-03    -22.4013E-03     32.2852E-03    -9.88727E-03     53.2488E-03     39.2601E+06     11.5026E+06    -19.3882E+06    -16.2135E+06     8.32792E+06     39.2601E+06    -8.93069E+06         24.1970
            2001     10.8820E-03     108.620E-03     266.482E-03    -86.6712E-03    -100.725E-03    -84.5277E-03     264.339E-03    -100.725E-03     18.7559E-03     50.9696E-03    -11.2943E-03    -39.6786E-03    -27.9622E-03     39.2532E-03    -11.2943E-03     60.7401E-03     49.1846E+06     18.8376E+06    -24.4010E+06    -11.9878E+06     6.42443E+06     49.1846E+06    -18.0411E+06         25.6219
            2002     11.8519E-03     108.671E-03     247.546E-03    -75.1507E-03    -98.3518E-03    -73.3823E-03     245.777E-03    -98.3518E-03     8.43498E-03     59.4052E-03    -12.9128E-03    -46.4756E-03    -34.3444E-03     47.2739E-03    -12.9128E-03     67.3369E-03     48.9807E+06     22.7830E+06    -32.0161E+06    -12.1184E+06     2.88534E+06     48.9807E+06    -26.1962E+06         27.6157
            2003     12.8160E-03     108.729E-03     235.539E-03    -66.2132E-03    -95.5436E-03    -65.6607E-03     234.986E-03    -95.5436E-03    -6.42058E-03     67.9172E-03    -14.7706E-03    -53.1308E-03    -41.2250E-03     56.0114E-03    -14.7706E-03     71.9517E-03     44.8898E+06     26.3199E+06    -42.8142E+06    -16.5670E+06     72.6595E+03     44.8898E+06    -32.8206E+06         30.5989
            2004     13.7728E-03     108.789E-03     226.693E-03    -63.5657E-03    -92.5849E-03    -60.9240E-03     224.051E-03    -92.5849E-03     19.2916E-03     76.1735E-03    -16.8133E-03    -59.3598E-03    -48.3717E-03     65.1854E-03    -16.8133E-03     73.7972E-03     35.0818E+06     17.1679E+06    -66.9334E+06    -24.4443E+06    -15.9959E+06     25.7565E+06    -45.6611E+06         35.0423
            2005     14.7234E-03     108.852E-03     224.666E-03    -64.3717E-03    -89.8273E-03    -61.4410E-03     221.735E-03    -89.8273E-03     20.9200E-03     80.6255E-03    -19.0348E-03    -61.5950E-03    -53.7597E-03     72.7902E-03    -19.0348E-03     63.9166E-03     31.2506E+06     18.8686E+06    -62.6652E+06    -21.2929E+06    -10.1217E+06     18.8686E+06    -43.3691E+06         41.1340
            2006     15.6689E-03     108.898E-03     221.981E-03    -62.0703E-03    -87.4545E-03    -61.4428E-03     221.354E-03    -87.4545E-03     3.89200E-03     85.2750E-03    -21.3222E-03    -63.9471E-03    -56.3595E-03     77.6873E-03    -21.3222E-03     64.9694E-03     39.0135E+06     30.7787E+06    -29.1646E+06    -11.4616E+06     16.1324E+06     35.9568E+06    -23.6170E+06         47.9977
            2007     16.6160E-03     108.971E-03     219.393E-03    -59.0563E-03    -85.3054E-03    -56.7341E-03     217.071E-03    -85.3054E-03    -11.8724E-03     86.8587E-03    -23.6941E-03    -63.1708E-03    -57.7905E-03     81.4785E-03    -23.6941E-03     49.3582E-03     97.9056E+06     57.1144E+06    -8.82259E+06    -6.34701E+06     54.6388E+06     97.9056E+06    -9.47455E+06         53.8900
            2008     996.293E-06     109.440E-03     292.157E-03    -69.7052E-03    -159.484E-03    -142.377E-03     275.050E-03    -69.7052E-03     5.81473E-03     7.77754E-03    -3.80395E-03    -3.97374E-03    -3.79167E-03     7.69387E-03    -3.90234E-03     1.76508E-03    -92.7112E+06    -158.356E+06    -166.404E+06    -161.646E+06    -94.7099E+06    -161.115E+06    -8.95792E+06         20.5548
            2009     1.99179E-03     109.442E-03     307.991E-03    -107.559E-03    -133.956E-03    -120.249E-03     295.568E-03    -108.842E-03     64.4842E-03     8.16952E-03    -3.86684E-03    -4.30293E-03    -3.97213E-03     7.85996E-03    -3.88808E-03     3.67705E-03    -69.9960E+06    -144.691E+06    -155.016E+06    -149.238E+06    -72.4328E+06    -148.032E+06    -10.9418E+06         20.6289
            2010     2.98775E-03     109.447E-03     279.633E-03    -102.948E-03    -113.976E-03    -100.204E-03     272.912E-03    -110.000E-03    -37.6580E-03     9.21577E-03    -3.95337E-03    -5.26242E-03    -4.44466E-03     8.39800E-03    -3.95337E-03     6.54230E-03    -60.9180E+06    -137.070E+06    -150.693E+06    -137.412E+06    -63.8933E+06    -147.375E+06    -11.9131E+06         20.7299
            2011     3.98274E-03     109.453E-03     253.820E-03    -92.8764E-03    -106.781E-03    -83.6594E-03     243.390E-03    -105.568E-03    -32.3356E-03     11.1904E-03    -4.14540E-03    -7.04527E-03    -5.35513E-03     9.50028E-03    -4.14540E-03     10.5053E-03    -53.5901E+06    -128.029E+06    -145.259E+06    -124.577E+06    -58.3236E+06    -143.978E+06    -15.3519E+06         20.8722
            2012     4.97687E-03     109.464E-03     242.460E-03    -89.0374E-03    -104.927E-03    -80.8855E-03     230.143E-03    -100.762E-03     211.791E-06     14.0606E-03    -4.52864E-03    -9.53237E-03    -6.65255E-03     11.1808E-03    -4.52864E-03     15.4156E-03    -46.8180E+06    -115.096E+06    -129.051E+06    -108.562E+06    -54.6338E+06    -127.769E+06    -19.9610E+06         21.0749
            2013     5.96917E-03     109.479E-03     249.540E-03    -89.2085E-03    -110.990E-03    -96.7671E-03     244.559E-03    -98.4507E-03     22.1494E-03     17.7057E-03    -5.07375E-03    -12.6323E-03    -8.28297E-03     13.3564E-03    -5.07375E-03     21.2483E-03    -34.9346E+06    -97.1372E+06    -103.853E+06    -88.8188E+06    -45.8931E+06    -101.213E+06    -23.5985E+06         21.3530
            2014     6.96031E-03     109.500E-03     257.541E-03    -90.0188E-03    -111.041E-03    -102.362E-03     257.095E-03    -98.2521E-03     17.9074E-03     22.1869E-03    -5.76868E-03    -16.4204E-03    -10.3784E-03     16.1448E-03    -5.76868E-03     28.0482E-03    -22.4953E+06    -66.8775E+06    -77.8831E+06    -65.1072E+06    -34.8840E+06    -67.2647E+06    -22.6647E+06         21.7196
            2015     7.94886E-03     109.528E-03     248.176E-03    -77.7946E-03    -104.080E-03    -82.7324E-03     246.225E-03    -97.1901E-03     34.6089E-03     27.6662E-03    -6.63102E-03    -21.0376E-03    -13.1175E-03     19.7461E-03    -6.63102E-03     35.9409E-03    -6.37084E+06    -28.8373E+06    -50.7325E+06    -40.0969E+06    -19.3026E+06    -26.5412E+06    -16.1559E+06         22.2296
            2016     8.93490E-03     109.563E-03     229.680E-03    -62.7206E-03    -96.5817E-03    -62.9958E-03     227.480E-03    -94.1063E-03     19.2537E-03     34.2451E-03    -7.65738E-03    -26.5880E-03    -16.6636E-03     24.3207E-03    -7.65738E-03     44.9471E-03     17.6451E+06     1.91800E+06    -26.8026E+06    -20.6761E+06     734.258E+03     12.7023E+06    -10.4068E+06         22.9913
            2017     9.91665E-03     109.607E-03     220.590E-03    -62.4675E-03    -90.4112E-03    -60.8614E-03     218.984E-03    -90.4112E-03     5.89497E-03     41.6290E-03    -8.85365E-03    -32.7781E-03    -21.0883E-03     29.9392E-03    -8.85365E-03     54.1281E-03     40.0247E+06     16.6235E+06    -14.9626E+06    -11.4893E+06     13.1502E+06     40.0247E+06    -9.52426E+06         24.0763
            2018     10.8943E-03     109.659E-03     221.220E-03    -67.9161E-03    -87.3256E-03    -65.7472E-03     219.051E-03    -87.3256E-03     21.3060E-03     50.0588E-03    -10.2408E-03    -39.8152E-03    -26.6517E-03     36.8953E-03    -10.2408E-03     63.5033E-03     54.7479E+06     25.2561E+06    -15.7853E+06    -8.86734E+06     18.3381E+06     54.7479E+06    -14.0428E+06         25.5025
            2019     11.8658E-03     109.719E-03     216.953E-03    -67.9023E-03    -84.7837E-03    -66.2689E-03     215.320E-03    -84.7837E-03     30.7388E-03     59.3436E-03    -11.8708E-03    -47.4639E-03    -33.4374E-03     45.3170E-03    -11.8708E-03     72.0442E-03     60.0314E+06     27.2247E+06    -22.6254E+06    -6.63189E+06     11.2311E+06     60.0314E+06    -21.3289E+06         27.5035
            2020     12.8300E-03     109.785E-03     200.711E-03    -55.5458E-03    -82.0770E-03    -54.8754E-03     200.040E-03    -82.0770E-03     6.94717E-03     69.0362E-03    -13.7684E-03    -55.2616E-03    -41.1525E-03     54.9271E-03    -13.7684E-03     78.7226E-03     61.3272E+06     28.8565E+06    -23.1592E+06    -2.35791E+06     8.05529E+06     61.3272E+06    -24.9558E+06         30.5086
            2021     13.7874E-03     109.857E-03     192.420E-03    -51.5536E-03    -79.0728E-03    -48.9022E-03     189.768E-03    -79.0728E-03     17.4411E-03     78.6439E-03    -15.9099E-03    -62.7327E-03    -49.4396E-03     65.3508E-03    -15.9099E-03     82.2885E-03     52.9945E+06     28.0930E+06    -33.1097E+06    -4.70577E+06     2.27981E+06     50.4038E+06    -30.2280E+06         35.0080
            2022     14.7355E-03     109.930E-03     202.321E-03    -64.7955E-03    -76.7372E-03    -61.8277E-03     199.354E-03    -76.7372E-03     21.5625E-03     83.9218E-03    -18.2455E-03    -65.6628E-03    -56.2322E-03     74.4911E-03    -18.2455E-03     71.4885E-03     31.5473E+06     17.0665E+06    -57.4338E+06    -19.0020E+06    -14.9527E+06     25.1347E+06    -38.4060E+06         41.2387
            2023     15.6801E-03     109.980E-03     208.325E-03    -70.8666E-03    -76.0730E-03    -70.7796E-03     207.571E-03    -75.4066E-03     5.32952E-03     88.9058E-03    -20.7188E-03    -68.1607E-03    -59.8655E-03     80.6106E-03    -20.7188E-03     69.8780E-03     31.7138E+06     16.6974E+06    -46.2121E+06    -20.0008E+06    -5.69207E+06     27.8920E+06    -30.3094E+06         48.3157
            2024     16.6216E-03     110.056E-03     197.510E-03    -58.8859E-03    -74.8075E-03    -57.1605E-03     195.118E-03    -74.1410E-03    -14.4981E-03     91.9372E-03    -23.3719E-03    -68.5578E-03    -62.5995E-03     85.9789E-03    -23.3719E-03     55.6288E-03     97.0972E+06     47.2591E+06    -13.1199E+06    -6.42212E+06     40.5613E+06     97.0972E+06    -11.7214E+06         54.3777
            2025     995.181E-06     110.447E-03     271.841E-03    -79.3264E-03    -129.895E-03    -106.027E-03     262.987E-03    -94.3397E-03    -14.8267E-03     8.45576E-03    -4.17584E-03    -4.28002E-03    -4.15029E-03     8.43021E-03    -4.28002E-03     883.600E-06    -72.4823E+06    -116.541E+06    -123.700E+06    -119.618E+06    -76.5643E+06    -116.541E+06    -13.3477E+06         20.6120
            2026     1.99150E-03     110.450E-03     246.239E-03    -74.6674E-03    -118.697E-03    -86.7780E-03     237.161E-03    -97.5084E-03     18.5441E-03     8.52871E-03    -4.18259E-03    -4.34591E-03    -4.17993E-03     8.40300E-03    -4.22286E-03     2.25633E-03    -57.3674E+06    -112.290E+06    -122.939E+06    -117.378E+06    -62.9285E+06    -112.290E+06    -17.7184E+06         20.6696
            2027     2.98693E-03     110.454E-03     219.389E-03    -75.3922E-03    -92.6842E-03    -72.0472E-03     214.830E-03    -91.4708E-03    -1.69455E-03     9.25884E-03    -4.28463E-03    -4.97436E-03    -4.54997E-03     8.83445E-03    -4.28463E-03     4.52346E-03    -45.6751E+06    -104.130E+06    -120.193E+06    -110.182E+06    -54.5912E+06    -105.226E+06    -22.8801E+06         20.7524
            2028     3.98239E-03     110.463E-03     209.737E-03    -73.6556E-03    -93.4479E-03    -76.3989E-03     205.725E-03    -86.6924E-03     56.5025E-03     10.7044E-03    -4.44427E-03    -6.26128E-03    -5.22265E-03     9.66579E-03    -4.44427E-03     7.85967E-03    -34.5788E+06    -97.4623E+06    -115.388E+06    -101.248E+06    -47.6237E+06    -98.5578E+06    -28.5236E+06         20.8739
            2029     4.97659E-03     110.474E-03     211.408E-03    -75.0187E-03    -98.2121E-03    -79.9918E-03     202.775E-03    -84.6053E-03     96.1793E-03     12.9589E-03    -4.70669E-03    -8.25369E-03    -6.20840E-03     10.9136E-03    -4.70669E-03     12.3402E-03    -25.1364E+06    -91.1732E+06    -112.537E+06    -92.8504E+06    -43.7595E+06    -92.2367E+06    -34.9299E+06         21.0500
            2030     5.97014E-03     110.492E-03     202.103E-03    -74.0085E-03    -91.4706E-03    -76.6285E-03     196.503E-03    -83.2507E-03     50.6152E-03     16.2042E-03    -5.08446E-03    -11.1201E-03    -7.63159E-03     12.7157E-03    -5.08446E-03     18.1359E-03    -14.2259E+06    -82.9959E+06    -109.167E+06    -85.0031E+06    -37.3267E+06    -84.0594E+06    -40.1040E+06         21.2937
            2031     6.96140E-03     110.515E-03     200.921E-03    -73.9131E-03    -86.6364E-03    -78.1836E-03     200.623E-03    -82.0671E-03     3.26193E-03     20.5158E-03    -5.63077E-03    -14.8847E-03    -9.61344E-03     15.2445E-03    -5.63077E-03     25.1652E-03    -5.08342E+06    -67.8905E+06    -100.858E+06    -73.7559E+06    -32.1856E+06    -67.8905E+06    -42.8394E+06         21.6298
            2032     7.95107E-03     110.546E-03     213.700E-03    -76.4924E-03    -88.2363E-03    -81.7592E-03     212.077E-03    -81.3468E-03     30.6565E-03     25.9764E-03    -6.36499E-03    -19.6106E-03    -12.2498E-03     18.6155E-03    -6.36499E-03     33.5343E-03     3.02522E+06    -41.5602E+06    -82.0192E+06    -54.3500E+06    -24.6439E+06    -41.5602E+06    -39.7506E+06         22.1308
            2033     8.93746E-03     110.586E-03     204.733E-03    -68.2714E-03    -83.0526E-03    -69.2524E-03     202.815E-03    -80.1530E-03     36.0871E-03     32.4271E-03    -7.28149E-03    -25.1463E-03    -15.5156E-03     22.7964E-03    -7.28149E-03     42.9743E-03     17.6181E+06    -11.1510E+06    -49.6120E+06    -29.1671E+06    -6.77796E+06    -7.19977E+06    -29.0377E+06         22.8922
            2034     9.92128E-03     110.635E-03     186.123E-03    -57.2870E-03    -78.2695E-03    -56.9654E-03     185.377E-03    -77.8454E-03     5.30002E-03     39.8233E-03    -8.41679E-03    -31.4112E-03    -19.6805E-03     28.0925E-03    -8.41679E-03     52.8360E-03     38.5961E+06     13.3630E+06    -20.1053E+06    -6.93921E+06     7.54243E+06     31.2506E+06    -15.7331E+06         23.9603
            2035     10.9002E-03     110.694E-03     175.067E-03    -45.7547E-03    -74.8151E-03    -45.2656E-03     174.578E-03    -74.8151E-03    -11.9725E-03     48.4254E-03    -9.74994E-03    -38.6770E-03    -25.0052E-03     34.7536E-03    -9.74994E-03     63.3585E-03     61.9559E+06     31.2905E+06    -3.74876E+06     2.95314E+06     24.5886E+06     61.9559E+06    -9.83122E+06         25.3540
            2036     11.8738E-03     110.763E-03     165.669E-03    -35.7280E-03    -71.2430E-03    -34.9953E-03     164.936E-03    -71.2430E-03    -5.21565E-03     57.9214E-03    -11.2996E-03    -46.6178E-03    -31.5317E-03     42.8353E-03    -11.2996E-03     73.4164E-03     73.4948E+06     29.0915E+06    -7.59246E+06     1.10889E+06     20.3902E+06     73.4948E+06    -13.3893E+06         27.3154
            2037     12.8409E-03     110.839E-03     176.789E-03    -47.8244E-03    -71.6365E-03    -50.5671E-03     176.076E-03    -68.1805E-03    -4.84910E-03     68.6392E-03    -13.1027E-03    -55.5271E-03    -39.6151E-03     52.7272E-03    -13.1027E-03     82.9115E-03     72.5069E+06     29.9337E+06    -18.1880E+06    -3.02716E+06     14.7729E+06     72.5069E+06    -20.1954E+06         30.2886
            2038     13.7987E-03     110.923E-03     189.141E-03    -56.4056E-03    -72.0624E-03    -61.9653E-03     189.046E-03    -66.4085E-03    -6.68122E-03     79.0027E-03    -15.1924E-03    -63.8104E-03    -48.3109E-03     63.5033E-03    -15.1924E-03     88.6180E-03     66.1931E+06     36.3414E+06    -23.7815E+06     -1.3615E+03     12.5613E+06     66.1931E+06    -26.0057E+06         34.7917
            2039     14.7492E-03     111.008E-03     172.652E-03    -48.3653E-03    -67.1271E-03    -49.8179E-03     171.907E-03    -64.9292E-03    -3.93884E-03     85.8659E-03    -17.5473E-03    -68.3075E-03    -56.9692E-03     74.5275E-03    -17.5473E-03     79.1630E-03     50.8349E+06     31.4895E+06    -41.7937E+06     6.60207E+06    -12.5136E+06     46.4422E+06    -25.2999E+06         41.0756
            2040     15.6896E-03     111.067E-03     162.616E-03    -43.1618E-03    -63.6772E-03    -41.7482E-03     160.536E-03    -63.0108E-03     16.8413E-03     93.4329E-03    -20.1948E-03    -73.2167E-03    -64.5431E-03     84.7593E-03    -20.1948E-03     73.8430E-03     45.6439E+06     19.3160E+06    -40.6383E+06    -2.25762E+06    -14.6720E+06     41.2512E+06    -18.4520E+06         48.2554
            2041     16.6290E-03     111.146E-03     167.877E-03    -48.3174E-03    -64.1898E-03    -49.8878E-03     166.516E-03    -61.2575E-03     17.3002E-03     96.4694E-03    -23.1060E-03    -73.3604E-03    -67.6238E-03     90.7328E-03    -23.1060E-03     57.7987E-03       93.76E+06     33.2365E+06    -18.6051E+06    -10.6682E+06     25.2996E+06       93.76E+06    -13.3971E+06         54.3999
            2042     995.063E-06     111.457E-03     271.930E-03    -77.7971E-03    -149.505E-03    -107.055E-03     253.336E-03    -101.654E-03    -54.3369E-03     10.6455E-03    -5.26537E-03    -5.38020E-03    -5.33128E-03     10.6408E-03    -5.30957E-03     109.227E-06    -52.4617E+06    -71.7779E+06    -79.8149E+06    -75.6328E+06    -56.6438E+06    -71.7779E+06    -9.49123E+06         20.7787
            2043     1.98923E-03     111.458E-03     180.947E-03    -46.2126E-03    -89.8218E-03    -31.8370E-03     166.571E-03    -89.8218E-03    -9.99910E-03     10.9225E-03    -5.35900E-03    -5.56323E-03    -5.51330E-03     10.8915E-03    -5.37802E-03     926.010E-06    -36.9412E+06    -68.9234E+06    -84.6616E+06    -74.4724E+06    -47.1304E+06    -68.9234E+06    -18.2780E+06         20.8261
            2044     2.98400E-03     111.464E-03     146.329E-03    -41.0102E-03    -69.6256E-03    -35.9606E-03     141.280E-03    -69.6256E-03    -45.8209E-03     11.5055E-03    -5.52697E-03    -5.97893E-03    -5.84949E-03     11.3761E-03    -5.52697E-03     2.45513E-03    -23.5272E+06    -58.9858E+06    -86.5945E+06    -70.3730E+06    -39.7488E+06    -58.9858E+06    -26.3516E+06         20.8996
            2045     3.97760E-03     111.472E-03     165.979E-03    -55.5118E-03    -79.8814E-03    -68.1794E-03     163.139E-03    -64.3745E-03    -3.84413E-03     12.3881E-03    -5.71792E-03    -6.67136E-03    -6.27400E-03     11.9908E-03    -5.71792E-03     4.83276E-03    -13.8567E+06    -49.4751E+06    -86.8889E+06    -65.8830E+06    -34.8626E+06    -49.4751E+06    -32.4573E+06         21.0064
            2046     4.97158E-03     111.486E-03     181.708E-03    -65.4307E-03    -90.1232E-03    -84.9632E-03     177.669E-03    -66.5515E-03     12.1772E-03     13.8121E-03    -5.94368E-03    -7.87010E-03    -6.89812E-03     12.8401E-03    -5.94368E-03     8.37032E-03    -5.13859E+06    -42.0985E+06    -88.0577E+06    -62.9611E+06    -30.2351E+06    -42.0985E+06    -37.6176E+06         21.1579
            2047     5.96425E-03     111.504E-03     165.272E-03    -63.6078E-03    -76.5377E-03    -70.0999E-03     163.544E-03    -68.3178E-03     12.8634E-03     16.1527E-03    -6.24088E-03    -9.91358E-03    -7.92242E-03     14.1615E-03    -6.24088E-03     13.3446E-03     2.92673E+06    -34.6690E+06    -89.5772E+06    -60.2785E+06    -26.3720E+06    -34.6690E+06    -42.7327E+06         21.3649
            2048     6.95635E-03     111.530E-03     160.693E-03    -60.6158E-03    -73.6112E-03    -65.1250E-03     159.508E-03    -67.9174E-03     14.4934E-03     19.7142E-03    -6.64684E-03    -13.0696E-03    -9.51487E-03     16.1596E-03    -6.64684E-03     20.0489E-03     10.5766E+06    -27.0512E+06    -91.5895E+06    -58.6846E+06    -22.3283E+06    -27.0512E+06    -47.3687E+06         21.6587
            2049     7.94566E-03     111.564E-03     164.680E-03    -61.1470E-03    -72.7195E-03    -65.5882E-03     163.583E-03    -67.1808E-03     7.27344E-03     24.6115E-03    -7.18445E-03    -17.4295E-03    -11.7400E-03     18.9221E-03    -7.18445E-03     28.5859E-03     14.4948E+06    -21.4548E+06    -93.7462E+06    -57.0507E+06    -22.2006E+06    -21.4548E+06    -51.0036E+06         22.1240
            2050     8.93315E-03     111.608E-03     162.163E-03    -60.7370E-03    -66.6719E-03    -60.4802E-03     161.482E-03    -66.2478E-03    -11.7122E-03     30.6913E-03    -7.87473E-03    -22.8124E-03    -14.6151E-03     22.4940E-03    -7.87473E-03     38.4692E-03     18.2405E+06    -12.3267E+06    -82.3212E+06    -48.5149E+06    -15.5659E+06    -12.3267E+06    -47.1166E+06         22.8501
            2051     9.91716E-03     111.661E-03     155.383E-03    -54.5754E-03    -65.1729E-03    -54.5376E-03     154.921E-03    -64.7488E-03     2.35168E-03     38.0134E-03    -8.81627E-03    -29.1933E-03    -18.4863E-03     27.3064E-03    -8.81627E-03     49.1733E-03     30.2670E+06     7.12632E+06    -56.0213E+06    -28.6607E+06    -4.15892E+06     14.1916E+06    -35.9111E+06         23.8687
            2052     10.8976E-03     111.727E-03     139.867E-03    -35.9123E-03    -62.1648E-03    -35.5709E-03     139.526E-03    -62.1648E-03     9.36768E-03     46.4203E-03    -10.0184E-03    -36.4072E-03    -23.3879E-03     33.4010E-03    -10.0184E-03     60.2895E-03     56.3005E+06     24.3255E+06    -17.1343E+06    -2.81846E+06     13.5378E+06     52.7723E+06    -18.3835E+06         25.1944
            2053     11.8729E-03     111.803E-03     136.793E-03    -28.4466E-03    -58.7991E-03    -27.3927E-03     135.635E-03    -58.6952E-03     5.98298E-03     55.8312E-03    -11.4409E-03    -44.3970E-03    -29.5530E-03     40.9872E-03    -11.4409E-03     71.1782E-03     81.4143E+06     29.9754E+06     9.13994E+06     13.9146E+06     25.2008E+06     81.4143E+06    -7.49216E+06         27.0658
            2054     12.8422E-03     111.889E-03     152.635E-03    -40.6036E-03    -59.4821E-03    -42.9623E-03     151.434E-03    -55.9223E-03     4.56218E-03     66.4722E-03    -13.0909E-03    -53.3788E-03    -37.0265E-03     50.1199E-03    -13.0909E-03     82.2539E-03     89.3971E+06     38.4463E+06     1.58275E+06     16.4050E+06     23.6241E+06     89.3971E+06    -10.1500E+06         29.9556
            2055     13.8039E-03     111.987E-03     158.086E-03    -45.3415E-03    -59.8888E-03    -50.6350E-03     157.726E-03    -54.2349E-03     3.56846E-03     76.4073E-03    -14.9900E-03    -61.3970E-03    -44.9285E-03     59.9388E-03    -14.9900E-03     89.2566E-03     84.7919E+06     41.9456E+06    -12.0672E+06     8.14943E+06     21.7289E+06     84.7919E+06    -17.0207E+06         34.3967
            2056     14.7580E-03     112.080E-03     142.108E-03    -36.2479E-03    -54.6952E-03    -37.8368E-03     141.499E-03    -52.4973E-03     5.40064E-03     85.9433E-03    -17.2304E-03    -68.7242E-03    -55.7069E-03     72.9260E-03    -17.2304E-03     84.8495E-03     66.8464E+06     32.7519E+06    -43.2023E+06     260.089E+03    -7.75236E+06     63.8882E+06    -24.4336E+06         40.6346
            2057     15.6997E-03     112.162E-03     121.017E-03    -22.9479E-03    -50.0879E-03    -20.9584E-03     119.028E-03    -50.0879E-03     21.3969E-03     97.0390E-03    -19.8498E-03    -77.2120E-03    -67.5630E-03     87.3900E-03    -19.8498E-03     79.4664E-03     53.6485E+06     15.4036E+06    -51.8396E+06     9.36960E+06    -32.2370E+06     40.0800E+06    -17.1873E+06         47.7818
            2058     16.6238E-03     112.245E-03     118.367E-03    -20.1426E-03    -49.8684E-03    -20.7523E-03     116.711E-03    -47.6027E-03     14.8747E-03     99.5794E-03    -22.8739E-03    -76.6992E-03    -71.0014E-03     93.8815E-03    -22.8739E-03     59.4987E-03     97.2614E+06     34.8090E+06    -17.9430E+06     14.4454E+06     13.0310E+06     86.6511E+06    -2.26298E+06         53.9436
            2059     992.913E-06     112.468E-03     184.003E-03    -23.0715E-03    -135.892E-03    -63.2570E-03     120.211E-03    -31.9147E-03    -32.8965E-03     14.4091E-03    -7.10210E-03    -7.30766E-03    -7.29201E-03     14.4065E-03    -7.11516E-03    -437.853E-06    -28.6462E+06    -34.7497E+06    -49.4079E+06    -37.4776E+06    -40.5765E+06    -34.7497E+06    -7.63286E+06         21.0483
            2060     1.98600E-03     112.472E-03     141.174E-03    -26.5764E-03    -92.7638E-03    -53.7810E-03     124.244E-03    -48.6286E-03     51.5812E-03     15.1259E-03    -7.35446E-03    -7.77317E-03    -7.76798E-03     15.1207E-03    -7.35446E-03    -348.923E-06    -13.5586E+06    -26.6287E+06    -49.4790E+06    -34.8666E+06    -28.1710E+06    -26.6287E+06    -17.0877E+06         21.0976
            2061     2.97763E-03     112.476E-03     148.540E-03    -39.1317E-03    -88.5209E-03    -72.0434E-03     145.884E-03    -52.9523E-03    -40.7463E-03     15.7522E-03    -7.60282E-03    -8.15028E-03    -8.13315E-03     15.7351E-03    -7.60282E-03     356.998E-06    -2.52970E+06    -21.0977E+06    -54.9317E+06    -33.4250E+06    -24.0365E+06    -21.0977E+06    -25.2854E+06         21.1725
            2062     3.96996E-03     112.486E-03     155.098E-03    -51.8511E-03    -86.4941E-03    -77.6234E-03     152.868E-03    -58.4926E-03    -40.7401E-03     16.4797E-03    -7.86250E-03    -8.61675E-03    -8.54455E-03     16.4075E-03    -7.86250E-03     1.75467E-03     3.25535E+06    -12.4554E+06    -58.5523E+06    -32.7057E+06    -22.5912E+06    -12.4554E+06    -30.0676E+06         21.2739
            2063     4.96100E-03     112.500E-03     132.758E-03    -40.5050E-03    -69.6964E-03    -48.6233E-03     130.911E-03    -59.7316E-03    -33.4295E-03     17.4837E-03    -8.13831E-03    -9.34646E-03    -9.09762E-03     17.2349E-03    -8.13831E-03     4.06893E-03     8.66954E+06    -3.70314E+06    -60.0919E+06    -32.3766E+06    -19.0458E+06    -3.70314E+06    -33.2623E+06         21.4093
            2064     5.95214E-03     112.520E-03     119.459E-03    -38.6550E-03    -56.8737E-03    -37.9129E-03     118.716E-03    -56.8737E-03    -6.24228E-03     18.9209E-03    -8.44387E-03    -10.4780E-03    -9.80683E-03     18.2497E-03    -8.44387E-03     7.63931E-03     15.3423E+06     3.69143E+06    -62.5228E+06    -32.9206E+06    -14.7503E+06     4.18181E+06    -36.9656E+06         21.5868
            2065     6.94189E-03     112.546E-03     126.367E-03    -47.6573E-03    -60.3164E-03    -51.9518E-03     125.123E-03    -54.7777E-03     13.5144E-03     21.1386E-03    -8.79779E-03    -12.3458E-03    -10.8005E-03     19.5933E-03    -8.79779E-03     12.9446E-03     21.2407E+06     8.06042E+06    -66.6732E+06    -35.6065E+06    -12.3721E+06     10.6064E+06    -40.5111E+06         21.8335
            2066     7.93132E-03     112.583E-03     125.378E-03    -49.9837E-03    -59.6039E-03    -53.5269E-03     123.382E-03    -54.0652E-03     14.3505E-03     24.5756E-03    -9.23248E-03    -15.3502E-03    -12.3139E-03     21.5393E-03    -9.23248E-03     20.2371E-03     25.9900E+06     10.1998E+06    -72.1186E+06    -39.0407E+06    -12.8123E+06     15.9241E+06    -43.5566E+06         22.2365
            2067     8.91837E-03     112.629E-03     117.148E-03    -44.3450E-03    -52.6084E-03    -39.3077E-03     112.111E-03    -52.6084E-03     15.4265E-03     29.4750E-03    -9.77047E-03    -19.6962E-03    -14.5568E-03     24.3355E-03    -9.77047E-03     29.4110E-03     28.5324E+06     8.62779E+06    -77.7108E+06    -43.6539E+06    -14.7371E+06     17.8404E+06    -45.4208E+06         22.8884
            2068     9.90312E-03     112.688E-03     110.624E-03    -36.4304E-03    -50.0632E-03    -31.9383E-03     106.132E-03    -50.0632E-03     26.0652E-03     35.8324E-03    -10.4601E-03    -25.3625E-03    -17.5496E-03     28.0195E-03    -10.4601E-03     40.4623E-03     31.0982E+06     13.4720E+06    -77.1693E+06    -46.6476E+06    -8.31978E+06     22.3683E+06    -44.6552E+06         23.8223
            2069     10.8837E-03     112.758E-03     112.235E-03    -35.0047E-03    -49.6692E-03    -35.9951E-03     111.147E-03    -47.5902E-03     11.1835E-03     43.7306E-03    -11.3729E-03    -32.3612E-03    -21.7008E-03     33.0702E-03    -11.3729E-03     52.6965E-03     40.7472E+06     17.7851E+06    -62.6336E+06    -37.4213E+06    -3.89891E+06     37.2190E+06    -37.3079E+06         25.0484
            2070     11.8607E-03     112.841E-03     122.350E-03    -40.5553E-03    -48.0812E-03    -41.2633E-03     120.765E-03    -45.7884E-03     18.5004E-03     53.1245E-03    -12.5469E-03    -40.5883E-03    -27.3372E-03     39.8734E-03    -12.5469E-03     65.2698E-03     64.8123E+06     30.0728E+06    -30.9895E+06    -15.5957E+06     14.6789E+06     64.8123E+06    -21.5308E+06         26.7922
            2071     12.8305E-03     112.937E-03     115.622E-03    -34.2021E-03    -44.2481E-03    -32.7653E-03     113.972E-03    -44.0343E-03     19.8867E-03     63.2285E-03    -13.9955E-03    -49.2305E-03    -33.9205E-03     47.9185E-03    -13.9955E-03     77.1196E-03     89.6380E+06     38.9754E+06    -11.4926E+06     2.41798E+06     25.0648E+06     89.6380E+06    -10.6651E+06         29.5618
            2072     13.7964E-03     113.042E-03     96.8374E-03    -18.1872E-03    -41.5336E-03    -17.5990E-03     96.2493E-03    -41.5336E-03     2.86471E-03     72.8855E-03    -15.6981E-03    -57.1553E-03    -41.7135E-03     57.4437E-03    -15.6981E-03     83.9461E-03     99.6159E+06     33.9526E+06    -4.21771E+06     7.81992E+06     21.9150E+06     99.6159E+06    -2.47029E+06         33.9103
            2073     14.7552E-03     113.150E-03     96.4800E-03    -22.0255E-03    -38.8355E-03    -21.7000E-03     96.1545E-03    -38.8355E-03    -148.270E-06     82.9521E-03    -17.7243E-03    -65.2342E-03    -51.8920E-03     69.6100E-03    -17.7243E-03     84.3721E-03     88.8054E+06     29.5027E+06    -25.0719E+06    -4.41470E+06     8.84557E+06     88.8054E+06    -5.32684E+06         40.0393
            2074     15.6957E-03     113.256E-03     102.068E-03    -27.2200E-03    -38.7879E-03    -27.9257E-03     100.742E-03    -36.7563E-03     13.4945E-03     93.5302E-03    -19.9391E-03    -73.6121E-03    -62.3816E-03     82.2996E-03    -19.9391E-03     83.3614E-03     36.2020E+06    -2.92336E+06    -77.8870E+06    -24.4790E+06    -45.7210E+06     25.5917E+06    -20.5824E+06         47.1670
            2075     16.6352E-03     113.345E-03     89.2852E-03    -16.6298E-03    -37.4017E-03    -12.9857E-03     83.1245E-03    -34.8851E-03    -5.97251E-03     99.6426E-03    -22.7186E-03    -76.9063E-03    -70.1820E-03     92.9183E-03    -22.7186E-03     64.2126E-03     70.3971E+06     23.4632E+06    -58.7450E+06    -21.2004E+06    -3.47111E+06     59.7868E+06    -6.92914E+06         53.4056
            2076     990.948E-06     113.486E-03     102.769E-03     4.75194E-03    -120.978E-03    -48.9154E-03     4.59039E-03     30.8675E-03    -92.7424E-03     20.1087E-03    -9.92305E-03    -10.1863E-03    -10.0532E-03     20.1011E-03    -10.0485E-03    -903.468E-06     10.0820E+06     4.11433E+06    -28.8544E+06     6.35149E+06    -25.1834E+06     4.17383E+06    -8.92446E+06         21.4150
            2077     1.98008E-03     113.489E-03     111.841E-03    -20.9822E-03    -94.8478E-03    -68.4249E-03     85.4181E-03    -20.9822E-03    -44.8933E-03     20.7883E-03    -10.1682E-03    -10.6211E-03    -10.6083E-03     20.7754E-03    -10.1682E-03    -1.25551E-03     15.8508E+06     7.82106E+06    -23.6067E+06     4.77233E+06    -12.5282E+06     7.82106E+06    -14.3906E+06         21.4699
            2078     2.96988E-03     113.496E-03     139.255E-03    -40.5218E-03    -92.3234E-03    -86.8214E-03     133.753E-03    -40.5218E-03    -13.7443E-03     21.7928E-03    -10.4864E-03    -11.3075E-03    -11.2935E-03     21.7789E-03    -10.4864E-03    -1.27211E-03     21.9850E+06     11.0015E+06    -26.6251E+06     1.84985E+06    -10.5855E+06     15.0970E+06    -19.0428E+06         21.5556
            2079     3.95804E-03     113.505E-03     129.819E-03    -41.0397E-03    -76.8955E-03    -63.8284E-03     125.523E-03    -49.8108E-03    -318.971E-06     22.8858E-03    -10.8592E-03    -12.0259E-03    -12.0118E-03     22.8717E-03    -10.8592E-03    -869.174E-06     25.0003E+06     14.4478E+06    -32.0617E+06    -1.43068E+06    -12.2894E+06     21.1065E+06    -23.1527E+06         21.6649
            2080     4.94627E-03     113.520E-03     95.4156E-03    -27.9968E-03    -49.0331E-03    -24.3840E-03     91.6135E-03    -48.8438E-03     7.79810E-03     24.0131E-03    -11.2544E-03    -12.7584E-03    -12.7332E-03     23.9879E-03    -11.2544E-03     213.463E-06     28.7824E+06     18.4067E+06    -34.2145E+06    -3.81088E+06    -10.4833E+06     27.2688E+06    -25.8509E+06         21.7998
            2081     5.93300E-03     113.540E-03     95.9773E-03    -31.2685E-03    -46.7105E-03    -29.0718E-03     91.8474E-03    -44.7772E-03     20.9213E-03     25.2846E-03    -11.6746E-03    -13.6086E-03    -13.5104E-03     25.1864E-03    -11.6746E-03     2.25209E-03     34.5843E+06     20.8012E+06    -35.1549E+06    -6.92532E+06    -7.22093E+06     34.3769E+06    -26.9106E+06         21.9677
            2082     6.91967E-03     113.569E-03     87.6883E-03    -33.4759E-03    -44.2525E-03    -34.1001E-03     86.5686E-03    -42.5086E-03     6.04369E-03     26.8340E-03    -12.1184E-03    -14.7188E-03    -14.3926E-03     26.5078E-03    -12.1184E-03     5.42787E-03     40.7646E+06     22.6236E+06    -37.3091E+06    -10.5705E+06    -4.11502E+06     40.7646E+06    -28.6553E+06         22.1815
            2083     7.90496E-03     113.605E-03     72.2889E-03    -23.9171E-03    -40.2043E-03    -20.8369E-03     69.2086E-03    -40.2043E-03     6.59312E-03     28.8913E-03    -12.6102E-03    -16.2863E-03    -15.4418E-03     28.0467E-03    -12.6102E-03     9.95374E-03     46.7034E+06     20.1384E+06    -42.1275E+06    -15.6114E+06    -6.37770E+06     46.7034E+06    -29.5257E+06         22.5012
            2084     8.88962E-03     113.655E-03     72.3155E-03    -25.4301E-03    -37.3299E-03    -17.6051E-03     64.3690E-03    -37.2084E-03     11.6072E-03     31.6348E-03    -13.1459E-03    -18.4838E-03    -16.6895E-03     29.8405E-03    -13.1459E-03     16.2635E-03     52.1055E+06     19.2553E+06    -47.6671E+06    -21.2249E+06    -7.18691E+06     52.1055E+06    -30.8483E+06         23.0272
            2085     9.87233E-03     113.714E-03     80.9465E-03    -31.3269E-03    -39.2312E-03    -29.7016E-03     75.0949E-03    -35.0049E-03     15.7715E-03     35.5147E-03    -13.7184E-03    -21.7911E-03    -18.4119E-03     32.1356E-03    -13.7184E-03     24.6471E-03     53.4532E+06     19.2214E+06    -52.2257E+06    -27.1794E+06    -5.82492E+06     53.4532E+06    -32.1535E+06         23.8316
            2086     10.8547E-03     113.789E-03     90.4181E-03    -33.5693E-03    -43.3510E-03    -41.5266E-03     89.1808E-03    -34.1564E-03    -5.50320E-03     40.9446E-03    -14.3972E-03    -26.5483E-03    -20.9493E-03     35.3456E-03    -14.3972E-03     35.3071E-03     54.2924E+06     20.5040E+06    -60.6538E+06    -35.9449E+06    -4.20490E+06     54.2924E+06    -34.1859E+06         24.9363
            2087     11.8316E-03     113.878E-03     85.4812E-03    -30.2202E-03    -38.6986E-03    -33.8525E-03     83.9137E-03    -33.4988E-03     1.14502E-03     47.9378E-03    -15.2266E-03    -32.7136E-03    -24.3447E-03     39.5689E-03    -15.2266E-03     48.0933E-03     58.6295E+06     18.6272E+06    -62.9616E+06    -42.0105E+06    -2.32390E+06     58.6295E+06    -28.9947E+06         26.5436
            2088     12.8064E-03     113.981E-03     66.5533E-03    -15.0049E-03    -31.7561E-03    -13.8060E-03     65.2444E-03    -31.6461E-03     7.34779E-03     57.2602E-03    -16.2750E-03    -40.9762E-03    -29.7143E-03     45.9983E-03    -16.2750E-03     62.1618E-03     74.4437E+06     24.9834E+06    -48.9297E+06    -39.4212E+06     15.4749E+06     74.4437E+06    -15.0021E+06         29.1980
            2089     13.7723E-03     114.095E-03     55.0900E-03    -6.13111E-03    -28.7926E-03    -5.57267E-03     54.5316E-03    -28.7926E-03    -4.25190E-03     67.8646E-03    -17.6106E-03    -50.2420E-03    -37.4002E-03     55.0229E-03    -17.6106E-03     73.3876E-03     84.4439E+06     21.2884E+06    -34.9384E+06    -29.1991E+06     15.5492E+06     84.4439E+06    -5.97666E+06         33.4793
            2090     14.7274E-03     114.217E-03     58.3093E-03    -10.8946E-03    -26.0831E-03    -9.93017E-03     57.3449E-03    -26.0831E-03    -2.32172E-03     76.1410E-03    -19.1973E-03    -56.9416E-03    -44.0463E-03     63.2456E-03    -19.1973E-03     78.6365E-03     89.1334E+06     25.4472E+06    -25.1751E+06    -10.2109E+06     10.4831E+06     89.1334E+06     3.66951E+06         39.5670
            2091     15.6870E-03     114.332E-03     66.3429E-03    -14.0085E-03    -26.0032E-03    -14.0477E-03     64.3505E-03    -23.9716E-03     2.08713E-03     85.2475E-03    -20.9311E-03    -64.3142E-03    -52.2104E-03     73.1438E-03    -20.9311E-03     81.3104E-03     59.9539E+06     19.5838E+06    -59.0315E+06    -14.4994E+06    -24.9482E+06     59.9539E+06     1.35034E+06         46.7887
            2092     16.6320E-03     114.437E-03     79.2423E-03    -18.6388E-03    -37.6719E-03    -27.3354E-03     72.9793E-03    -22.7123E-03    -18.5485E-03     93.6801E-03    -23.0505E-03    -70.6222E-03    -62.9219E-03     85.9799E-03    -23.0505E-03     66.5157E-03     64.8518E+06     32.2602E+06    -57.1798E+06    -12.3587E+06    -12.5609E+06     64.8518E+06    -10.9890E+06         53.2429
            2093     986.036E-06     114.508E-03     107.441E-03    -33.2574E-03    -120.665E-03    -89.4253E-03     50.0860E-03    -7.14187E-03    -58.6722E-03     27.2578E-03    -13.4912E-03    -13.7668E-03    -13.6330E-03     27.2488E-03    -13.6162E-03    -1.16952E-03     50.9154E+06     44.9389E+06    -10.6312E+06     46.6326E+06    -9.42384E+06     48.0144E+06    -7.53585E+06         21.7794
            2094     1.97389E-03     114.514E-03     97.5273E-03    -41.9812E-03    -77.6351E-03    -35.6449E-03     59.4811E-03    -45.9251E-03    -63.2355E-03     27.8075E-03    -13.7039E-03    -14.0996E-03    -14.0724E-03     27.7928E-03    -13.7165E-03    -1.53187E-03     50.0404E+06     42.2288E+06    -6.42494E+06     43.1979E+06    -4.01516E+06     46.6615E+06    -9.37366E+06         21.8389
            2095     2.95927E-03     114.520E-03     88.6447E-03    -34.9278E-03    -55.9941E-03    -11.4234E-03     48.0178E-03    -38.8717E-03    -31.2033E-03     29.2516E-03    -14.0550E-03    -15.1936E-03    -15.1724E-03     29.2304E-03    -14.0550E-03    -1.92265E-03     50.1681E+06     40.1895E+06    -6.73185E+06     37.2954E+06    -3.35995E+06     49.6903E+06    -9.81754E+06         21.9379
            2096     3.94398E-03     114.533E-03     79.2391E-03    -28.5072E-03    -42.4892E-03    -7.92426E-03     47.4155E-03    -31.2485E-03    -10.8700E-03     31.0304E-03    -14.5768E-03    -16.4554E-03    -16.4294E-03     31.0044E-03    -14.5768E-03    -2.21460E-03     55.7731E+06     36.7551E+06    -8.50228E+06     31.3830E+06    -3.13016E+06     55.7731E+06    -11.9373E+06         22.0669
            2097     4.92689E-03     114.547E-03     79.0023E-03    -25.1742E-03    -46.3705E-03    -27.3099E-03     62.6829E-03    -27.9155E-03     34.0333E-03     32.9035E-03    -15.1775E-03    -17.7254E-03    -17.7002E-03     32.8783E-03    -15.1775E-03    -2.18859E-03     59.9140E+06     33.1714E+06    -12.9309E+06     25.4179E+06    -5.17731E+06     59.9140E+06    -13.9933E+06         22.2189
            2098     5.90925E-03     114.570E-03     80.1654E-03    -28.0611E-03    -48.0780E-03    -36.1561E-03     68.2435E-03    -28.0611E-03     59.6089E-03     34.9384E-03    -15.8258E-03    -19.1124E-03    -19.0882E-03     34.9142E-03    -15.8258E-03    -1.77631E-03     63.0602E+06     28.9987E+06    -12.6120E+06     19.6725E+06    -3.28575E+06     63.0602E+06    -14.8897E+06         22.4000
            2099     6.88950E-03     114.598E-03     49.7835E-03    -17.4858E-03    -30.4589E-03    -19.1539E-03     48.5863E-03    -27.5936E-03     11.8282E-03     37.1503E-03    -16.5447E-03    -20.6084E-03    -20.5709E-03     37.1127E-03    -16.5447E-03    -973.096E-06     68.9181E+06     26.2139E+06    -11.8229E+06     14.4333E+06    -42.3877E+03     68.9181E+06    -14.3252E+06         22.6130
            2100     7.86837E-03     114.639E-03     33.7510E-03    -7.02614E-03    -29.3717E-03    -3.61084E-03     25.9818E-03    -25.0178E-03     12.3766E-03     39.2065E-03    -17.3144E-03    -21.8938E-03    -21.8066E-03     39.1192E-03    -17.3144E-03     353.934E-06     75.6142E+06     21.2676E+06    -15.0137E+06     8.47931E+06    -2.22544E+06     75.6142E+06    -14.2437E+06         22.8673
            2101     8.84572E-03     114.686E-03     44.8946E-03    -14.8800E-03    -37.4769E-03    -18.8379E-03     34.1395E-03    -22.7639E-03     8.59764E-03     41.1039E-03    -18.0727E-03    -23.0319E-03    -22.7922E-03     40.8642E-03    -18.0727E-03     2.50303E-03     79.5779E+06     19.1030E+06    -19.0780E+06     2.54040E+06    -2.51542E+06     79.5779E+06    -14.8707E+06         23.2427
            2102     9.82332E-03     114.749E-03     56.2307E-03    -22.5494E-03    -40.4690E-03    -36.9029E-03     52.6645E-03    -22.5494E-03     143.729E-06     43.0756E-03    -18.8217E-03    -24.2588E-03    -23.7155E-03     42.5323E-03    -18.8217E-03     5.63901E-03     81.8566E+06     18.0644E+06    -22.4669E+06    -3.04608E+06    -1.35638E+06     81.8566E+06    -15.3899E+06         23.8823
            2103     10.7974E-03     114.824E-03     53.4378E-03    -19.5849E-03    -33.2988E-03    -28.3400E-03     51.6214E-03    -22.7273E-03    -14.7443E-03     44.9183E-03    -19.5694E-03    -25.3545E-03    -24.1918E-03     43.7557E-03    -19.5694E-03     10.2788E-03     84.3530E+06     18.1452E+06    -29.0787E+06    -9.40540E+06    -1.52814E+06     84.3530E+06    -14.3469E+06         24.8660
            2104     11.7743E-03     114.914E-03     39.3970E-03    -10.4537E-03    -24.5285E-03    -10.8079E-03     36.7404E-03    -21.5177E-03    -7.35180E-03     47.7961E-03    -20.2965E-03    -27.5081E-03    -25.1945E-03     45.4825E-03    -20.2965E-03     16.6175E-03     83.7755E+06     14.1795E+06    -34.1946E+06    -14.6851E+06    -5.33004E+06     83.7755E+06    -14.1647E+06         26.3741
            2105     12.7496E-03     115.019E-03     28.1104E-03    -2.15704E-03    -19.1185E-03    -1.21730E-03     27.1707E-03    -19.1185E-03     3.90411E-03     52.1255E-03    -21.0539E-03    -31.1363E-03    -27.1362E-03     48.1253E-03    -21.0539E-03     24.7162E-03     83.3305E+06     20.0343E+06    -33.4161E+06    -16.1434E+06     2.76168E+06     83.3305E+06    -9.99467E+06         28.9500
            2106     13.7215E-03     115.146E-03     35.4977E-03    -7.26699E-03    -17.6491E-03    -4.85846E-03     32.0862E-03    -16.6462E-03    -9.40691E-03     55.2848E-03    -19.9997E-03    -35.3525E-03    -27.8628E-03     49.6007E-03    -21.8053E-03     34.7412E-03     76.3251E+06     23.8765E+06    -28.9457E+06    -16.2110E+06     11.1418E+06     76.3251E+06    -4.61197E+06         33.2046
            2107     14.6928E-03     115.273E-03     33.9901E-03    -9.57617E-03    -15.5690E-03    -4.88234E-03     28.2933E-03    -14.5661E-03    -15.4123E-03     59.8894E-03    -20.7421E-03    -39.1949E-03    -30.6481E-03     53.1481E-03    -22.5477E-03     44.2814E-03     64.8816E+06     19.8542E+06    -31.1967E+06    -15.2195E+06     3.87693E+06     64.8816E+06    -1.07433E+06         39.3624
            2108     15.6566E-03     115.392E-03     29.9176E-03    -3.93455E-03    -14.4175E-03    -2.51108E-03     26.7352E-03    -12.6586E-03    -6.64376E-03     69.9274E-03    -23.5532E-03    -46.4117E-03    -39.2353E-03     62.7510E-03    -23.5532E-03     53.0625E-03     66.9310E+06     31.3131E+06    -34.5360E+06     7.32861E+06    -10.5515E+06     66.9310E+06     4.15844E+06         46.7689
            2109     16.6089E-03     115.526E-03     50.9348E-03    -5.91981E-03    -25.5854E-03    -15.0442E-03     45.8573E-03    -11.3835E-03    -11.0939E-03     68.7069E-03    -20.0229E-03    -48.6731E-03    -39.3027E-03     63.9234E-03    -24.6098E-03     42.4811E-03     71.7736E+06     36.9645E+06    -21.7389E+06     18.4663E+06    -3.24070E+06     71.7736E+06    -4.37050E+06         53.4899


