********************************************************************************
Field Output Report, written Tue May  6 13:26:15 2025

Source 1
---------

   ODB: D:/AISI_1020/Vel_20/1020_2a_40_rd_2000_cal_100_v_20_f_025.odb
   Step: Step-1
   Frame: Increment   9295356: Step Time =    1.028

Loc 1 : Nodal values from source 1

Output sorted by column "Node Label".

Field Output reported at nodes for region: DIE_2A_40_D0_36-1.Region_1
   Computation algorithm: EXTRAPOLATE_COMPUTE_AVERAGE
   Averaged at nodes
   Averaging regions: ODB_REGIONS

      Node Label     COORD.COOR1     COORD.COOR2
                          @Loc 1          @Loc 1
-------------------------------------------------
               1     19.3251E-03     198.805E-03


Field Output reported at nodes for region: DIE_2A_40_D0_36-1.Region_2
   Computation algorithm: EXTRAPOLATE_COMPUTE_AVERAGE
   Averaged at nodes
   Averaging regions: ODB_REGIONS

      Node Label     COORD.COOR1     COORD.COOR2
                          @Loc 1          @Loc 1
-------------------------------------------------
               1     19.3251E-03     198.805E-03


Field Output reported at nodes for part: WIRE_1-1
   Computation algorithm: EXTRAPOLATE_COMPUTE_AVERAGE
   Averaged at nodes
   Averaging regions: ODB_REGIONS

      Node Label     COORD.COOR1     COORD.COOR2    ER.Max. Prin    ER.Mid. Prin    ER.Min. Prin         ER.ER11         ER.ER22         ER.ER33         ER.ER12    PE.Max. Prin    PE.Mid. Prin    PE.Min. Prin         PE.PE11         PE.PE22         PE.PE33         PE.PE12     S.Max. Prin     S.Mid. Prin     S.Min. Prin           S.S11           S.S22           S.S33           S.S12            TEMP
                          @Loc 1          @Loc 1          @Loc 1          @Loc 1          @Loc 1          @Loc 1          @Loc 1          @Loc 1          @Loc 1          @Loc 1          @Loc 1          @Loc 1          @Loc 1          @Loc 1          @Loc 1          @Loc 1          @Loc 1          @Loc 1          @Loc 1          @Loc 1          @Loc 1          @Loc 1          @Loc 1          @Loc 1
-----------------------------------------------------------------------------------------------------------------------------------------------------------------------------------------------------------------------------------------------------------------------------------------------------------------------------------------------------------------------------------------------------------------
               1     13.9608E-03     93.3342E-03         1.63249     511.798E-03        -2.77538     511.713E-03        -2.77530         1.63249    -32.7538E-03     514.907E-03    -254.171E-03    -260.580E-03    -255.300E-03     509.627E-03    -254.171E-03     127.546E-03     61.1171E+06     17.6162E+06    -2.04412E+06    -1.91429E+06     17.4863E+06     61.1171E+06     414.919E+03         83.1610
               2    -1.35835E-06     91.1097E-03         1.98890         1.71102        -4.30870         1.70709        -4.30477         1.98890     253.092E-03     509.006E-03    -252.760E-03    -256.075E-03    -254.383E-03     509.003E-03    -254.450E-03    -2.76405E-03    -111.646E+06    -114.499E+06    -192.919E+06    -113.457E+06    -192.786E+06    -112.822E+06    -1.27160E+06         62.4269
               3    -4.19240E-06     141.561E-09         1.64884         1.62228        -2.97428         1.62106        -2.97307         1.64884     149.319E-03     735.233E-03    -361.980E-03    -373.195E-03    -361.921E-03     735.174E-03    -373.195E-03     16.0964E-03     26.7498E+06     17.1394E+06     9.45188E+06     18.2107E+06     17.9909E+06     17.1394E+06     8.64825E+06         79.1358
               4     13.4936E-03     141.561E-09     972.501E-03    -68.6598E-03    -718.975E-03    -71.6530E-03    -715.982E-03     972.501E-03    -88.0344E-03     936.874E-03    -270.895E-03    -666.098E-03    -634.870E-03     905.646E-03    -270.895E-03     443.092E-03     170.249E+06     19.5628E+06    -106.932E+06     135.466E+06    -72.1498E+06     19.5628E+06    -91.8221E+06         87.7574
               5     14.3097E-03     184.581E-03         2.12290    -475.337E-03    -694.072E-03    -494.444E-03    -674.965E-03         2.12290     123.521E-03     120.940E-03     114.858E-03    -235.757E-03     115.903E-03     119.896E-03    -235.757E-03     4.58814E-03     146.783E+06     142.568E+06    -82.4222E+06    -59.7862E+06     119.932E+06     146.783E+06    -67.6793E+06         75.1481
               6     4.84839E-06     177.500E-03     706.997E-03    -582.411E-03    -709.149E-03    -576.312E-03     700.898E-03    -709.149E-03     176.944E-03     319.013E-03    -157.421E-03    -161.526E-03    -161.030E-03     318.517E-03    -157.421E-03    -30.8592E-03    -16.1708E+06    -22.8556E+06    -41.7746E+06    -22.2792E+06    -35.6662E+06    -22.8556E+06    -10.9127E+06         42.0072
               7     13.1802E-03     93.1007E-03         1.64323     574.479E-03        -2.84100     574.296E-03        -2.84082         1.64323    -19.0912E-03     531.379E-03    -254.780E-03    -275.417E-03    -258.762E-03     514.723E-03    -254.780E-03     214.457E-03     59.5085E+06     18.2904E+06    -3.61415E+06    -3.50155E+06     18.1778E+06     59.5085E+06     133.880E+03         81.8586
               8     12.4060E-03     92.6368E-03         1.66162     704.508E-03        -2.97821     704.229E-03        -2.97793         1.66162    -30.5234E-03     531.942E-03    -254.924E-03    -276.267E-03    -256.971E-03     512.645E-03    -254.924E-03     240.733E-03     55.7498E+06     15.8700E+06    -7.41755E+06    -7.35835E+06     15.8108E+06     55.7498E+06     177.348E+03         79.1495
               9     11.6265E-03     92.4060E-03         1.67787     840.709E-03        -3.12497     840.494E-03        -3.12476         1.67787    -38.7484E-03     518.831E-03    -254.144E-03    -263.847E-03    -250.801E-03     505.786E-03    -254.144E-03     199.497E-03     52.2438E+06     11.9135E+06    -11.3136E+06    -11.2840E+06     11.8839E+06     52.2438E+06     522.107E+03         76.6586
              10     10.8532E-03     92.0746E-03         1.69057     971.948E-03        -3.26476     971.795E-03        -3.26461         1.69057    -35.9914E-03     516.881E-03    -254.457E-03    -261.365E-03    -248.379E-03     503.895E-03    -254.457E-03     198.482E-03     48.1830E+06     8.07565E+06    -15.5759E+06    -15.5435E+06     8.04320E+06     48.1830E+06     653.968E+03         74.8522
              11     10.0794E-03     91.8261E-03         1.69988         1.09348        -3.39226         1.09336        -3.39214         1.69988    -43.9398E-03     511.509E-03    -254.861E-03    -256.847E-03    -246.799E-03     501.461E-03    -254.861E-03     174.514E-03     46.2589E+06     3.74605E+06    -20.5574E+06    -20.5430E+06     3.73164E+06     46.2589E+06     374.037E+03         73.6193
              12     9.29746E-03     91.6143E-03         1.71001         1.20227        -3.50966         1.20195        -3.50933         1.71001    -56.6211E-03     509.791E-03    -254.404E-03    -255.486E-03    -246.802E-03     501.318E-03    -254.616E-03     159.690E-03     46.1740E+06    -472.942E+03    -25.8406E+06    -25.8372E+06    -476.353E+03     46.1740E+06    -52.3917E+03         72.7033
              13     8.52527E-03     91.4320E-03         1.71894         1.28603        -3.59872         1.28566        -3.59835         1.71894    -61.1843E-03     507.791E-03    -253.643E-03    -254.521E-03    -247.266E-03     501.414E-03    -254.521E-03     138.359E-03     41.3162E+06    -7.02945E+06    -32.6244E+06    -32.6200E+06    -7.03379E+06     41.3162E+06     70.0050E+03         71.8742
              14     7.75715E-03     91.2500E-03         1.72820         1.35044        -3.66808         1.35031        -3.66795         1.72820    -44.1887E-03     505.659E-03    -251.571E-03    -254.557E-03    -246.974E-03     501.062E-03    -254.557E-03     117.066E-03     33.8502E+06    -13.7210E+06    -39.0616E+06    -39.0588E+06    -13.7237E+06     33.8502E+06     255.837E+03         70.8488
              15     6.97759E-03     91.1333E-03         1.74277         1.42269        -3.75367         1.42256        -3.75354         1.74277    -43.6019E-03     503.613E-03    -249.766E-03    -254.963E-03    -246.847E-03     500.693E-03    -254.963E-03     92.6769E-03     23.8061E+06    -21.8850E+06    -46.4336E+06    -46.4061E+06    -21.9125E+06     23.8061E+06     381.690E+03         69.5470
              16     6.19894E-03     91.0748E-03         1.76335         1.50766        -3.86156         1.50739        -3.86128         1.76335    -50.9671E-03     504.231E-03    -250.289E-03    -255.343E-03    -248.638E-03     502.581E-03    -255.343E-03     69.7671E-03     12.7427E+06    -31.2546E+06    -55.2755E+06    -55.2030E+06    -31.3271E+06     12.7427E+06     667.213E+03         68.1636
              17     5.42314E-03     91.0365E-03         1.78525         1.59669        -3.97545         1.59650        -3.97526         1.78525    -26.0661E-03     506.566E-03    -251.367E-03    -255.676E-03    -250.496E-03     505.695E-03    -255.676E-03     50.3828E-03     1.63876E+06    -40.9106E+06    -64.2000E+06    -64.1422E+06    -40.9684E+06     1.63876E+06     761.393E+03         66.8572
              18     4.64879E-03     91.0185E-03         1.80514         1.68324        -4.08248         1.68311        -4.08234         1.80514     29.4402E-03     507.966E-03    -252.371E-03    -255.799E-03    -251.991E-03     507.586E-03    -255.799E-03     33.0962E-03    -13.7368E+06    -52.4247E+06    -74.1621E+06    -74.1281E+06    -52.4587E+06    -13.7368E+06     656.701E+03         65.6774
              19     3.87567E-03     91.0213E-03         1.82173         1.75340        -4.16860         1.75325        -4.16845         1.82173     29.8405E-03     508.766E-03    -253.395E-03    -255.664E-03    -253.255E-03     508.626E-03    -255.664E-03     19.7987E-03    -34.9776E+06    -66.5407E+06    -84.8060E+06    -84.7601E+06    -66.5866E+06    -34.9776E+06     730.120E+03         64.6956
              20     3.09965E-03     91.0301E-03         1.84741         1.80514        -4.24625         1.82017        -4.24585         1.83198     19.5003E-03     509.549E-03    -254.189E-03    -255.514E-03    -254.247E-03     509.510E-03    -255.417E-03     10.0734E-03    -59.0019E+06    -85.8474E+06    -98.0419E+06    -93.9404E+06    -89.9489E+06    -59.0019E+06     449.210E+03         63.9455
              21     2.32520E-03     91.0549E-03         1.86907         1.82747        -4.29221         1.86457        -4.29181         1.83157    -1.33581E-03     509.703E-03    -254.714E-03    -255.167E-03    -254.907E-03     509.697E-03    -254.967E-03     3.44680E-03    -80.7376E+06    -100.560E+06    -123.445E+06    -100.778E+06    -123.226E+06    -80.7376E+06    -2.82959E+03         63.3366
              22     1.55156E-03     91.0833E-03         1.86028         1.80384        -4.26651         1.83499        -4.26629         1.82891    -63.8115E-03     509.370E-03    -254.711E-03    -254.924E-03    -254.867E-03     509.369E-03    -254.766E-03     121.955E-06    -97.1028E+06    -105.828E+06    -157.312E+06    -105.868E+06    -157.271E+06    -97.1028E+06    -16.0160E+03         62.8479
              23     777.258E-06     91.0992E-03         1.91852         1.74552        -4.27265         1.75266        -4.27050         1.90922     81.1335E-03     509.188E-03    -253.711E-03    -255.480E-03    -254.577E-03     509.186E-03    -254.612E-03    -1.71046E-03    -107.463E+06    -111.069E+06    -183.175E+06    -110.588E+06    -183.068E+06    -108.051E+06    -606.873E+03         62.5351
              24     3.79705E-06     89.4432E-03         1.66040         1.39068        -3.65903         1.47203        -3.65889         1.57891     8.15434E-03     510.722E-03    -253.327E-03    -257.356E-03    -257.355E-03     510.721E-03    -253.327E-03    -1.68157E-03    -108.867E+06    -112.126E+06    -192.849E+06    -108.888E+06    -192.829E+06    -112.126E+06     1.23155E+06         62.4742
              25    -303.656E-09     87.7747E-03         1.15040         1.06710        -2.81436         1.14767        -2.81162         1.06710     109.613E-03     510.855E-03    -254.024E-03    -256.834E-03    -256.427E-03     510.855E-03    -254.430E-03    -1.22754E-03    -108.799E+06    -113.480E+06    -189.016E+06    -111.405E+06    -189.008E+06    -110.882E+06     28.5833E+03         62.5050
              26    -204.328E-09     86.1087E-03     590.411E-03     554.511E-03        -1.71218     587.683E-03        -1.70945     554.511E-03     121.278E-03     511.128E-03    -254.575E-03    -256.460E-03    -256.053E-03     511.127E-03    -254.981E-03    -1.53903E-03    -114.231E+06    -116.961E+06    -191.567E+06    -116.835E+06    -191.560E+06    -114.363E+06    -693.146E+03         62.5132
              27     2.66624E-06     84.4410E-03     137.730E-03     15.7437E-03    -690.856E-03     61.1993E-03    -532.515E-03    -66.0676E-03    -70.4060E-03     512.413E-03    -255.234E-03    -257.082E-03    -256.713E-03     512.412E-03    -255.603E-03    -1.36175E-03    -106.581E+06    -109.887E+06    -189.198E+06    -106.593E+06    -189.186E+06    -109.887E+06     316.125E+03         62.5226
              28    -3.52806E-06     82.7721E-03     350.688E-03    -377.614E-03    -480.999E-03    -387.290E-03     338.789E-03    -459.425E-03    -23.1893E-03     510.847E-03    -254.782E-03    -255.894E-03    -254.778E-03     510.843E-03    -255.894E-03    -2.67696E-03    -106.929E+06    -115.435E+06    -192.220E+06    -112.327E+06    -192.156E+06    -110.102E+06    -786.950E+03         62.5131
              29     2.68825E-06     81.1045E-03         1.19264    -789.636E-03    -872.625E-03    -804.797E-03         1.18623    -851.050E-03    -142.052E-03     510.107E-03    -253.780E-03    -256.068E-03    -255.320E-03     510.102E-03    -254.523E-03    -1.23611E-03    -106.208E+06    -117.633E+06    -194.676E+06    -111.648E+06    -194.569E+06    -112.300E+06     118.385E+03         62.5063
              30    -521.045E-09     79.4426E-03         2.00405        -1.16622        -1.27227        -1.16026         1.99809        -1.27227    -193.743E-03     511.885E-03    -254.758E-03    -257.014E-03    -257.009E-03     511.881E-03    -254.758E-03    -1.11960E-03    -104.175E+06    -115.953E+06    -192.924E+06    -109.934E+06    -192.851E+06    -110.267E+06     659.405E+03         62.5226
              31     1.56316E-06     77.7716E-03         2.68196        -1.47651        -1.60766        -1.47648         2.68192        -1.60766    -18.9648E-03     512.230E-03    -255.599E-03    -256.663E-03    -256.306E-03     512.227E-03    -255.953E-03    -2.05769E-03    -104.679E+06    -116.935E+06    -192.500E+06    -110.386E+06    -192.479E+06    -111.249E+06    -807.881E+03         62.5223
              32    -2.15616E-06     76.1035E-03         3.14993        -1.65955        -1.86743        -1.65952         3.14991        -1.86743    -19.0328E-03     511.852E-03    -255.171E-03    -256.681E-03    -256.323E-03     511.847E-03    -255.525E-03    -2.27116E-03    -104.419E+06    -117.595E+06    -192.981E+06    -111.028E+06    -192.978E+06    -110.990E+06     405.398E+03         62.5041
              33     3.95545E-06     74.4358E-03         3.30492        -1.72549        -1.92995        -1.72483         3.30426        -1.92995     64.7265E-03     511.423E-03    -254.111E-03    -257.231E-03    -257.226E-03     511.419E-03    -254.111E-03    -2.15725E-03    -105.662E+06    -119.258E+06    -194.216E+06    -112.280E+06    -194.204E+06    -112.652E+06    -306.391E+03         62.4948
              34    -1.11640E-06     72.7673E-03         3.39291        -1.79065        -1.92491        -1.78986         3.39211        -1.92491     121.668E-03     511.043E-03    -253.880E-03    -257.031E-03    -255.842E-03     511.042E-03    -255.067E-03    -615.246E-06    -104.350E+06    -117.565E+06    -193.018E+06    -110.633E+06    -192.960E+06    -111.340E+06     722.339E+03         62.4981
              35    -594.020E-09     71.1045E-03         3.32325        -1.74577        -1.85794        -1.74313         3.32061        -1.85794     196.382E-03     510.741E-03    -253.245E-03    -257.360E-03    -256.169E-03     510.737E-03    -254.433E-03    -3.20989E-03    -103.423E+06    -114.680E+06    -190.377E+06    -109.697E+06    -190.327E+06    -108.456E+06     1.26430E+06         62.5207
              36     4.98163E-06     69.4364E-03         2.90341        -1.53428        -1.63496        -1.52858         2.89771        -1.63496     315.775E-03     511.081E-03    -254.053E-03    -256.980E-03    -256.975E-03     511.076E-03    -254.053E-03    -641.316E-06    -103.356E+06    -113.232E+06    -187.561E+06    -108.217E+06    -187.543E+06    -108.389E+06    -884.971E+03         62.5362
              37    -4.85298E-06     67.7710E-03         2.29250        -1.22871        -1.30695        -1.22548         2.28928        -1.30695     157.065E-03     511.379E-03    -255.522E-03    -255.857E-03    -255.844E-03     511.366E-03    -255.522E-03    -2.56624E-03    -108.489E+06    -117.325E+06    -190.879E+06    -113.385E+06    -190.825E+06    -112.482E+06     436.279E+03         62.5079
              38     5.40142E-06     66.0995E-03         1.82844    -950.935E-03        -1.10039    -945.233E-03         1.82274        -1.10039    -172.478E-03     511.315E-03    -254.781E-03    -256.462E-03    -256.446E-03     511.298E-03    -254.781E-03    -1.36110E-03    -104.923E+06    -112.563E+06    -185.532E+06    -108.611E+06    -185.490E+06    -108.916E+06     801.973E+03         62.4916
              39    -3.32704E-06     64.4358E-03         1.18497    -614.810E-03    -784.341E-03    -593.852E-03         1.16401    -784.341E-03    -348.096E-03     512.700E-03    -255.638E-03    -257.052E-03    -256.973E-03     512.690E-03    -255.706E-03    -109.595E-06    -103.813E+06    -112.277E+06    -187.159E+06    -107.498E+06    -187.120E+06    -108.630E+06    -1.65209E+06         62.5198
              40     3.00602E-06     62.7634E-03     438.656E-03    -206.712E-03    -443.533E-03    -126.864E-03     180.609E-03    -265.333E-03    -377.040E-03     511.419E-03    -255.003E-03    -256.418E-03    -256.344E-03     511.414E-03    -255.072E-03    -3.48047E-03    -108.661E+06    -116.947E+06    -196.143E+06    -112.201E+06    -196.071E+06    -113.478E+06    -3.46312E+03         62.5179
              41    -1.03628E-06     61.0989E-03     347.121E-03     196.706E-03    -738.181E-03     297.340E-03    -688.400E-03     196.706E-03    -370.712E-03     509.591E-03    -253.647E-03    -255.793E-03    -254.993E-03     509.591E-03    -254.446E-03    -860.583E-06    -104.367E+06    -110.913E+06    -192.425E+06    -107.889E+06    -192.372E+06    -107.445E+06     393.236E+03         62.5034
              42    -173.180E-09     59.4364E-03     704.993E-03     610.728E-03        -1.48244     686.837E-03        -1.46429     610.728E-03    -392.202E-03     511.682E-03    -254.732E-03    -256.876E-03    -256.076E-03     511.681E-03    -255.531E-03    -1.58885E-03    -102.438E+06    -108.778E+06    -191.370E+06    -105.723E+06    -191.348E+06    -105.515E+06    -294.661E+03         62.5214
              43     2.51971E-06     57.7649E-03         1.10795     962.332E-03        -2.22115         1.08352        -2.19672     962.332E-03    -567.243E-03     511.783E-03    -254.312E-03    -257.444E-03    -257.442E-03     511.781E-03    -254.312E-03    -2.60657E-03    -108.037E+06    -113.843E+06    -195.088E+06    -111.327E+06    -195.061E+06    -110.580E+06    -405.322E+03         62.5031
              44     64.2679E-09     56.0963E-03         1.50104         1.33864        -2.97576         1.47826        -2.95298         1.33864    -615.563E-03     510.042E-03    -253.454E-03    -256.475E-03    -256.474E-03     510.041E-03    -253.454E-03    -1.01826E-03    -107.836E+06    -112.715E+06    -192.626E+06    -110.250E+06    -192.549E+06    -110.380E+06     556.590E+03         62.4679
              45     1.88414E-06     54.4364E-03         1.78258         1.66440        -3.57541         1.76813        -3.56096         1.66440    -555.729E-03     511.405E-03    -254.702E-03    -256.675E-03    -256.675E-03     511.405E-03    -254.702E-03    -61.7959E-06    -103.683E+06    -109.230E+06    -190.170E+06    -106.098E+06    -190.091E+06    -106.894E+06     504.411E+03         62.4899
              46    -883.897E-09     52.7633E-03         1.93369         1.76378        -3.82799         1.92529        -3.81959         1.76378    -398.771E-03     511.672E-03    -254.539E-03    -257.091E-03    -255.277E-03     511.671E-03    -256.352E-03    -1.19291E-03    -105.233E+06    -109.847E+06    -192.514E+06    -106.658E+06    -192.492E+06    -108.444E+06    -995.684E+03         62.5192
              47    -1.96673E-06     51.1012E-03         2.06628         1.86285        -4.07474         2.05385        -4.06230         1.86285    -492.305E-03     510.379E-03    -253.923E-03    -256.328E-03    -254.512E-03     510.376E-03    -255.737E-03    -2.44184E-03    -108.894E+06    -112.036E+06    -196.927E+06    -110.304E+06    -196.920E+06    -110.634E+06    -568.352E+03         62.5126
              48     2.89611E-06     49.4351E-03         2.12638         1.91515        -4.18125         2.11231        -4.16718         1.91515    -563.757E-03     511.086E-03    -254.144E-03    -256.881E-03    -256.879E-03     511.084E-03    -254.144E-03    -2.15212E-03    -109.255E+06    -112.917E+06    -199.427E+06    -111.220E+06    -199.385E+06    -110.995E+06     663.352E+03         62.5196
              49     447.184E-09     47.7645E-03         2.02211         1.86883        -3.98383         1.97856        -3.96846         1.89700    -563.542E-03     512.188E-03    -254.807E-03    -257.363E-03    -257.363E-03     512.188E-03    -254.807E-03    -621.825E-06    -107.528E+06    -109.992E+06    -194.389E+06    -109.495E+06    -194.344E+06    -108.070E+06     593.562E+03         62.5485
              50     158.161E-09     46.0942E-03         1.96174         1.84900        -3.86545         1.83220        -3.84866         1.96174    -596.801E-03     511.608E-03    -254.456E-03    -257.081E-03    -257.078E-03     511.605E-03    -254.456E-03    -2.16966E-03    -106.419E+06    -107.742E+06    -191.398E+06    -106.483E+06    -191.334E+06    -107.742E+06     889.665E+03         62.5373
              51     3.21469E-06     44.4294E-03         1.76257         1.55910        -3.34044         1.54901        -3.33035         1.76257    -437.457E-03     511.012E-03    -253.910E-03    -257.061E-03    -257.057E-03     511.007E-03    -253.910E-03    -890.449E-06    -105.709E+06    -106.648E+06    -189.929E+06    -105.841E+06    -189.797E+06    -106.648E+06    -272.817E+03         62.5018
              52    -1.81669E-06     42.7654E-03         1.38487         1.13285        -2.51006         1.12442        -2.50163         1.38487    -346.048E-03     512.249E-03    -255.421E-03    -256.771E-03    -256.768E-03     512.245E-03    -255.421E-03    -815.601E-06    -109.902E+06    -110.516E+06    -194.701E+06    -110.454E+06    -194.606E+06    -110.060E+06     -934.29E+03         62.5079
              53     2.56805E-06     41.0889E-03         1.04151     843.593E-03        -1.85464     833.703E-03        -1.84475         1.04151    -305.851E-03     512.278E-03    -254.273E-03    -257.841E-03    -257.838E-03     512.275E-03    -254.273E-03    -2.53178E-03    -107.745E+06    -108.553E+06    -191.355E+06    -108.276E+06    -191.280E+06    -108.097E+06     2.39155E+06         62.5212
              54     2.22812E-06     39.4275E-03     630.250E-03     451.756E-03        -1.01637     443.872E-03        -1.00849     630.250E-03    -206.374E-03     510.568E-03    -253.539E-03    -256.950E-03    -256.950E-03     510.567E-03    -253.539E-03    -940.019E-06    -108.100E+06    -108.749E+06    -188.269E+06    -108.468E+06    -187.901E+06    -108.749E+06    -1.97199E+06         62.4963
              55    -1.91870E-06     37.7577E-03     326.395E-03     99.2487E-03    -330.924E-03     25.5374E-03    -143.771E-03     212.953E-03    -76.9570E-03     510.138E-03    -254.439E-03    -255.605E-03    -254.696E-03     510.138E-03    -255.348E-03    -932.993E-06    -107.285E+06    -107.691E+06    -191.251E+06    -108.009E+06    -190.527E+06    -107.691E+06     752.722E+03         62.4866
              56     581.621E-09     36.0947E-03     749.260E-03    -228.860E-03    -397.860E-03    -389.487E-03     740.888E-03    -228.860E-03     81.7341E-03     511.561E-03    -255.015E-03    -256.444E-03    -255.014E-03     511.560E-03    -256.444E-03    -969.157E-06    -105.692E+06    -106.179E+06    -179.645E+06    -106.165E+06    -179.172E+06    -106.179E+06     2.91830E+06         62.5118
              57    -1.38964E-06     34.4219E-03         1.70792    -710.808E-03    -840.821E-03    -829.161E-03         1.69626    -710.808E-03     343.842E-03     511.680E-03    -254.661E-03    -256.984E-03    -256.460E-03     511.676E-03    -255.181E-03    -2.82550E-03    -109.396E+06    -110.866E+06    -178.123E+06    -110.576E+06    -178.033E+06    -109.775E+06    -2.39967E+06         62.4938
              58     4.18938E-06     32.7575E-03         2.43729        -1.07690        -1.18802        -1.17709         2.42637        -1.07690     389.566E-03     509.953E-03    -253.665E-03    -256.271E-03    -256.267E-03     509.949E-03    -253.665E-03    -1.30257E-03    -108.720E+06    -113.315E+06    -191.766E+06    -109.862E+06    -191.714E+06    -112.225E+06    -2.03749E+06         62.4299
              59    -3.03325E-06     31.0923E-03         3.18651        -1.41050        -1.56694        -1.47247         3.17532        -1.49377     455.172E-03     509.130E-03    -253.811E-03    -255.275E-03    -254.613E-03     509.128E-03    -254.472E-03    -440.708E-06    -106.667E+06    -113.315E+06    -193.885E+06    -109.912E+06    -193.783E+06    -110.172E+06     821.034E+03         62.4065
              60     2.23500E-06     29.4283E-03         3.83298        -1.73567        -1.84773        -1.72164         3.81894        -1.84773     557.926E-03     509.924E-03    -253.992E-03    -255.885E-03    -253.989E-03     509.922E-03    -255.885E-03    -147.928E-06    -100.299E+06    -107.511E+06    -184.670E+06    -103.522E+06    -184.590E+06    -104.368E+06     1.76860E+06         62.4202
              61    -4.14680E-06     27.7608E-03         4.23114        -1.93389        -2.03801        -1.91382         4.21106        -2.03801     695.671E-03     510.251E-03    -253.635E-03    -256.615E-03    -255.369E-03     510.239E-03    -254.867E-03    -2.87046E-03    -105.111E+06    -115.515E+06    -186.410E+06    -111.512E+06    -186.344E+06    -109.180E+06    -1.51439E+06         62.3971
              62     6.85069E-06     26.0983E-03         4.43206        -1.99618        -2.15662        -1.97439         4.41027        -2.15662     742.971E-03     509.292E-03    -253.099E-03    -256.152E-03    -256.138E-03     509.277E-03    -253.099E-03    -1.99811E-03    -104.858E+06    -119.154E+06    -190.881E+06    -111.283E+06    -190.792E+06    -112.819E+06    -457.070E+03         62.3081
              63    -4.80165E-06     24.4319E-03         4.56940        -2.06757        -2.21195        -2.04381         4.54565        -2.21195     786.523E-03     507.772E-03    -253.059E-03    -254.649E-03    -254.353E-03     507.761E-03    -253.343E-03    -1.42599E-03    -100.161E+06    -115.605E+06    -180.452E+06    -107.892E+06    -180.204E+06    -108.122E+06     3.47923E+06         62.1495
              64     4.23276E-06     22.7731E-03         4.70497        -2.09702        -2.28134        -2.08015         4.68810        -2.28134     605.628E-03     505.276E-03    -251.342E-03    -253.968E-03    -253.676E-03     505.268E-03    -251.626E-03    -3.35402E-03    -104.169E+06    -119.196E+06    -165.420E+06    -111.915E+06    -165.157E+06    -111.713E+06     1.42596E+06         61.8968
              65    -507.090E-09     21.1160E-03         4.35689        -1.92789        -2.09170        -1.91082         4.33983        -2.09170     572.384E-03     501.130E-03    -249.436E-03    -251.813E-03    -251.773E-03     501.125E-03    -249.470E-03    -2.46468E-03    -109.307E+06    -122.250E+06    -151.576E+06    -115.889E+06    -150.393E+06    -116.852E+06     2.15505E+06         61.4937
              66     453.811E-09     19.4675E-03         3.89101        -1.74785        -1.80573        -1.72881         3.87197        -1.80573     621.789E-03     494.031E-03    -246.906E-03    -247.152E-03    -246.899E-03     494.024E-03    -247.152E-03    -4.41094E-03    -102.429E+06    -115.124E+06    -130.325E+06    -109.141E+06    -129.010E+06    -109.726E+06     4.62586E+06         60.8571
              67    -875.173E-09     17.8328E-03         3.37938        -1.50146        -1.53360        -1.49923         3.36411        -1.52057     516.023E-03     483.874E-03    -241.156E-03    -242.734E-03    -242.510E-03     483.861E-03    -241.367E-03    -5.65659E-03    -82.3394E+06    -96.4324E+06    -106.666E+06    -90.5386E+06    -105.262E+06    -89.6365E+06     3.60287E+06         59.9077
              68     3.09761E-06     16.2160E-03         2.67684        -1.15193        -1.18582        -1.15894         2.64996        -1.15193     636.568E-03     468.739E-03    -233.294E-03    -235.493E-03    -235.474E-03     468.720E-03    -233.294E-03    -7.37858E-03    -63.7030E+06    -78.0838E+06    -90.7471E+06    -71.7323E+06    -89.5137E+06    -71.2880E+06     2.19915E+06         58.6020
              69    -1.90861E-06     14.6325E-03         1.94210    -770.680E-03    -840.294E-03    -809.005E-03         1.91081    -770.680E-03     582.562E-03     448.849E-03    -223.590E-03    -225.314E-03    -225.279E-03     448.814E-03    -223.590E-03    -9.34324E-03    -50.1660E+06    -63.5637E+06    -78.3423E+06    -56.8095E+06    -77.5115E+06    -57.7509E+06     2.32948E+06         56.9930
              70     3.29714E-06     13.0799E-03         1.16185    -360.140E-03    -474.840E-03    -346.948E-03         1.09990    -426.085E-03     543.174E-03     426.127E-03    -211.877E-03    -214.266E-03    -214.215E-03     426.076E-03    -211.877E-03    -11.4277E-03    -31.1781E+06    -45.4185E+06    -62.2543E+06    -37.8230E+06    -61.4221E+06    -39.6057E+06     2.45049E+06         55.2556
              71    -1.10295E-06     11.5681E-03     605.131E-03    -13.1412E-03    -250.153E-03     23.4952E-03     397.427E-03    -79.0858E-03     597.499E-03     398.656E-03    -198.333E-03    -200.329E-03    -200.258E-03     398.586E-03    -198.333E-03    -12.8109E-03    -15.5524E+06    -30.5075E+06    -47.1088E+06    -23.3666E+06    -45.8221E+06    -23.9800E+06     2.84685E+06         53.9002
              72     1.92361E-06     10.1006E-03     458.188E-03     276.763E-03    -381.393E-03     296.341E-03    -219.546E-03     276.763E-03     425.078E-03     372.281E-03    -185.116E-03    -187.229E-03    -187.168E-03     372.221E-03    -185.116E-03    -11.2212E-03     2.23991E+06    -11.8960E+06    -30.1915E+06    -5.57286E+06    -28.9063E+06    -5.36847E+06     2.72788E+06         53.5952
              73     636.890E-09     8.66336E-03     660.620E-03     546.583E-03    -868.302E-03     649.359E-03    -857.040E-03     546.583E-03     258.302E-03     363.815E-03    -180.975E-03    -182.928E-03    -182.574E-03     363.801E-03    -181.315E-03    -3.78599E-03     15.5002E+06     1.98188E+06    -14.5698E+06     7.92922E+06    -12.9087E+06     7.89178E+06     2.44814E+06         54.5458
              74    -1.00946E-06     7.22297E-03     960.944E-03     806.097E-03        -1.45060     953.583E-03        -1.44324     806.097E-03     247.477E-03     393.148E-03    -195.719E-03    -197.438E-03    -195.669E-03     393.098E-03    -197.438E-03     8.10045E-03     20.9998E+06     8.31279E+06    -5.00364E+06     13.4137E+06    -3.32752E+06     14.2227E+06     1.92329E+06         56.8431
              75    -744.099E-09     5.70377E-03         1.22766         1.06299        -1.98809         1.22598        -1.98641         1.06299     109.705E-03     473.816E-03    -234.720E-03    -239.000E-03    -237.423E-03     473.619E-03    -236.099E-03     23.2466E-03     24.2072E+06     15.0061E+06     961.719E+03     18.2442E+06     4.50069E+06     17.4301E+06     2.39038E+06         61.3334
              76     5.63286E-06     4.00769E-03         1.44912         1.31480        -2.48019         1.44892        -2.47999         1.31480     52.1390E-03     589.675E-03    -292.669E-03    -296.927E-03    -296.641E-03     589.389E-03    -292.669E-03     31.7684E-03     17.7140E+06     13.3672E+06     3.80181E+06     11.0104E+06     8.08140E+06     15.7912E+06     947.159E+03         68.4228
              77    -3.57429E-06     2.08952E-03         1.59134         1.53321        -2.83789         1.57728        -2.83710         1.54649     113.292E-03     693.356E-03    -343.173E-03    -350.137E-03    -344.361E-03     693.188E-03    -348.781E-03     24.5377E-03     21.8042E+06     15.0762E+06     7.52333E+06     16.7789E+06     12.5487E+06     15.0762E+06     2.40438E+06         75.8410
              78     682.595E-06     141.561E-09         1.64009         1.62331        -2.95673         1.62270        -2.95612         1.64009     70.5118E-03     729.919E-03    -360.820E-03    -369.058E-03    -360.688E-03     729.787E-03    -369.058E-03     22.9540E-03     24.7801E+06     18.7354E+06     11.9605E+06     18.3271E+06     18.4134E+06     18.7354E+06     2.24109E+06         78.8695
              79     1.37440E-03     141.561E-09         1.62713         1.60846        -2.92440         1.60845        -2.92439         1.62713    -11.5031E-03     714.977E-03    -352.202E-03    -362.423E-03    -351.890E-03     714.665E-03    -362.423E-03     35.9035E-03     24.2183E+06     20.9351E+06     14.1056E+06     18.3064E+06     20.0175E+06     20.9351E+06     789.831E+03         78.0792
              80     2.07694E-03     141.561E-09         1.61662         1.57467        -2.88566         1.57427        -2.88526         1.61662    -65.9312E-03     691.673E-03    -334.792E-03    -356.416E-03    -334.235E-03     691.116E-03    -356.416E-03     47.3588E-03     27.1246E+06     22.3556E+06     13.8424E+06     18.3499E+06     22.6171E+06     22.3556E+06    -529.444E+03         76.7292
              81     2.79419E-03     141.561E-09         1.60001         1.51413        -2.81529         1.51371        -2.81487         1.60001    -41.7989E-03     662.085E-03    -313.400E-03    -348.475E-03    -312.575E-03     661.260E-03    -348.475E-03     56.4629E-03     31.5151E+06     26.2184E+06     15.0233E+06     20.1915E+06     26.3470E+06     26.2184E+06     845.359E+03         74.8457
              82     3.53008E-03     141.561E-09         1.57604         1.44067        -2.72800         1.44011        -2.72744         1.57604    -49.0685E-03     629.676E-03    -289.844E-03    -339.018E-03    -288.810E-03     628.642E-03    -339.018E-03     61.5492E-03     34.6411E+06     30.7996E+06     16.9271E+06     22.0516E+06     29.5167E+06     30.7996E+06     478.863E+03         72.6338
              83     4.28661E-03     141.561E-09         1.54824         1.38124        -2.65348         1.38029        -2.65253         1.54824    -123.819E-03     595.581E-03    -265.854E-03    -328.700E-03    -264.699E-03     594.427E-03    -328.700E-03     62.9862E-03     34.9469E+06     33.1610E+06     18.8544E+06     23.0563E+06     30.2293E+06     33.6769E+06    -625.509E+03         70.2906
              84     5.06053E-03     141.561E-09         1.51752         1.29339        -2.54557         1.29257        -2.54475         1.51752    -112.167E-03     561.587E-03    -242.803E-03    -317.940E-03    -241.561E-03     560.345E-03    -317.940E-03     63.1194E-03     37.5718E+06     34.9119E+06     21.4684E+06     24.6848E+06     31.6956E+06     37.5718E+06     587.557E+03         67.9434
              85     5.85387E-03     141.561E-09         1.48068         1.17534        -2.39180         1.17471        -2.39117         1.48068    -94.3322E-03     529.200E-03    -221.738E-03    -306.814E-03    -220.459E-03     527.921E-03    -306.814E-03     61.9170E-03     41.0420E+06     34.8981E+06     23.5926E+06     26.7333E+06     31.7574E+06     41.0420E+06    -183.287E+03         65.9386
              86     6.66542E-03     141.561E-09         1.43784         1.06202        -2.23982         1.06135        -2.23916         1.43784    -92.2861E-03     499.734E-03    -203.654E-03    -295.908E-03    -202.413E-03     498.493E-03    -295.908E-03     59.0436E-03     44.3358E+06     32.5757E+06     24.8781E+06     27.9889E+06     29.4649E+06     44.3358E+06     972.802E+03         64.7515
              87     7.48757E-03     141.561E-09         1.39094     944.788E-03        -2.08852     944.359E-03        -2.08809         1.39094    -53.4460E-03     474.904E-03    -189.191E-03    -285.523E-03    -188.031E-03     473.744E-03    -285.523E-03     55.4563E-03     49.7424E+06     31.8536E+06     24.1901E+06     28.7060E+06     27.3376E+06     49.7424E+06     863.558E+03         64.5343
              88     8.32567E-03     141.561E-09         1.34049     816.926E-03        -1.92115     816.578E-03        -1.92080         1.34049     41.0584E-03     456.417E-03    -180.055E-03    -275.600E-03    -179.002E-03     455.363E-03    -275.600E-03     51.7415E-03     55.8530E+06     31.7960E+06     20.8495E+06     30.0236E+06     22.6220E+06     55.8530E+06     1.14717E+06         65.2776
              89     9.16417E-03     141.561E-09         1.28667     679.498E-03        -1.73323     678.062E-03        -1.73180         1.28667     112.184E-03     444.841E-03    -177.413E-03    -267.502E-03    -176.468E-03     443.896E-03    -267.502E-03     48.4427E-03     60.6554E+06     31.1374E+06     13.5606E+06     30.1993E+06     14.4986E+06     60.6554E+06     1.67838E+06         67.0890
              90     10.0047E-03     141.561E-09         1.23030     542.598E-03        -1.53904     541.508E-03        -1.53795         1.23030     72.0635E-03     442.070E-03    -182.578E-03    -260.960E-03    -181.826E-03     441.319E-03    -260.960E-03     43.0968E-03     60.9253E+06     27.8951E+06    -12.7203E+06     26.0021E+06    -10.8273E+06     60.9253E+06     8.50661E+06         70.0466
              91     10.8454E-03     141.561E-09         1.17278     408.827E-03        -1.35514     408.822E-03        -1.35514         1.17278     5.70266E-03     459.599E-03    -204.830E-03    -255.778E-03    -204.288E-03     459.057E-03    -255.778E-03     37.7854E-03     48.3917E+06     18.4093E+06    -34.6214E+06     17.1330E+06    -33.3452E+06     48.3917E+06     7.32934E+06         74.0563
              92     11.6531E-03     141.561E-09         1.11528     267.961E-03        -1.16657     267.950E-03        -1.16656         1.11528    -864.364E-06     508.750E-03    -237.668E-03    -271.169E-03    -254.696E-03     508.118E-03    -253.510E-03     43.7630E-03     72.2890E+06     13.0417E+06    -94.3972E+06    -19.7158E+06    -14.9341E+06     25.5834E+06     65.1730E+06         78.8618
              93     12.3962E-03     141.561E-09         1.05834     112.684E-03    -971.156E-03     112.416E-03    -970.889E-03         1.05834    -26.0043E-03     599.837E-03    -255.488E-03    -344.125E-03    -342.486E-03     598.198E-03    -255.488E-03     76.8437E-03     63.2703E+06    -34.5488E+06    -199.011E+06    -93.2062E+06    -42.5340E+06    -34.5488E+06     128.626E+06         83.5248
              94     13.0611E-03     141.561E-09         1.00126    -19.7546E-03    -797.120E-03    -21.5110E-03    -795.363E-03         1.00126    -65.6904E-03     797.251E-03    -264.339E-03    -532.918E-03    -516.061E-03     780.393E-03    -264.339E-03     272.766E-03     94.7609E+06    -31.6957E+06    -175.854E+06     246.096E+03    -81.3394E+06    -31.6957E+06     19.1593E+06         86.6916
              95     13.7841E-03     2.95983E-03     920.788E-03    -83.9420E-03    -621.628E-03    -86.6050E-03    -618.965E-03     920.788E-03    -75.4199E-03     788.032E-03    -267.469E-03    -521.634E-03    -484.554E-03     750.952E-03    -267.469E-03     425.976E-03     41.9734E+06    -34.8346E+06    -217.481E+06    -58.2862E+06    -118.687E+06    -33.3698E+06    -101.526E+06         88.0899
              96     13.8666E-03     4.49844E-03     799.788E-03    -98.8198E-03    -442.159E-03    -100.005E-03    -440.974E-03     799.788E-03    -28.2480E-03     598.588E-03    -262.795E-03    -337.442E-03    -301.213E-03     562.358E-03    -262.795E-03     360.614E-03     69.1860E+06    -13.4172E+06    -188.506E+06    -30.7854E+06    -89.9993E+06    -11.9523E+06    -10.3633E+06         88.8306
              97     13.9106E-03     6.10776E-03     638.599E-03    -85.9003E-03    -268.890E-03    -123.620E-03    -231.171E-03     638.599E-03     49.8817E-03     557.772E-03    -258.973E-03    -299.443E-03    -278.435E-03     536.763E-03    -258.973E-03     258.998E-03     107.306E+06     6.14308E+06    -108.309E+06     19.0416E+06    -20.0447E+06     6.14308E+06     21.9553E+06         89.1779
              98     13.9457E-03     7.82091E-03     438.177E-03     96.8872E-03    -214.289E-03    -195.130E-03     77.7286E-03     438.177E-03     115.725E-03     557.893E-03    -255.190E-03    -302.883E-03    -292.743E-03     547.753E-03    -255.190E-03     184.421E-03     65.7974E+06    -41.0331E+06    -110.497E+06    -8.36634E+06    -25.6323E+06    -51.7336E+06    -7.43424E+06         88.6760
              99     13.9472E-03     9.51731E-03     421.959E-03     173.390E-03    -235.346E-03    -228.315E-03     383.677E-03     204.639E-03     127.574E-03     563.667E-03    -253.779E-03    -310.328E-03    -303.149E-03     556.487E-03    -253.779E-03     157.583E-03     62.6610E+06    -24.9936E+06    -83.7193E+06     13.3341E+06    -23.6918E+06    -35.6941E+06     4.99419E+06         87.7791
             100     13.9599E-03     11.2976E-03     688.739E-03    -56.2848E-03    -249.169E-03    -243.434E-03     683.004E-03    -56.2848E-03     146.218E-03     568.982E-03    -253.329E-03    -316.622E-03    -310.069E-03     562.429E-03    -253.329E-03     151.794E-03     37.7608E+06    -12.1351E+06    -66.6657E+06    -10.6940E+06    -11.7055E+06    -18.6406E+06    -870.871E+03         86.9333
             101     13.9583E-03     13.0550E-03         1.01756    -240.501E-03    -377.285E-03    -279.154E-03         1.01307    -334.139E-03     144.515E-03     569.331E-03    -253.211E-03    -317.443E-03    -310.531E-03     562.419E-03    -253.211E-03     155.910E-03     51.6844E+06    -7.74375E+06    -49.9825E+06     5.04538E+06    -7.21930E+06    -3.86788E+06     2.59438E+06         86.1210
             102     13.9601E-03     14.8250E-03         1.28433    -289.620E-03    -615.539E-03    -288.325E-03         1.28304    -615.539E-03     81.9655E-03     563.468E-03    -253.392E-03    -311.342E-03    -304.217E-03     556.344E-03    -253.392E-03     157.249E-03     32.2784E+06     611.731E+03    -39.0895E+06    -14.5207E+06    -2.67173E+06     10.9931E+06    -150.498E+03         85.3037
             103     13.9599E-03     16.5491E-03         1.55148    -308.006E-03    -874.677E-03    -307.400E-03         1.55087    -874.677E-03     66.3583E-03     548.749E-03    -253.779E-03    -296.206E-03    -288.918E-03     541.461E-03    -253.779E-03     156.182E-03     49.3500E+06     10.1547E+06    -18.1445E+06     5.44803E+06     7.84746E+06     28.0646E+06     3.38962E+06         84.5630
             104     13.9611E-03     18.2513E-03         1.79009    -317.232E-03        -1.09470    -316.782E-03         1.78964        -1.09470     29.6952E-03     535.213E-03    -254.172E-03    -282.091E-03    -274.570E-03     527.693E-03    -254.172E-03     156.075E-03     40.5587E+06     20.4168E+06    -14.1914E+06    -4.87941E+06     11.1049E+06     40.5587E+06    -141.492E+03         83.9532
             105     13.9600E-03     19.9296E-03         1.95028    -320.313E-03        -1.27277    -320.281E-03         1.95025        -1.27277    -10.1594E-03     524.629E-03    -254.327E-03    -270.937E-03    -263.925E-03     517.618E-03    -254.327E-03     148.672E-03     49.5292E+06     21.9053E+06    -4.82859E+06     3.98048E+06     13.0963E+06     49.5292E+06     2.28369E+06         83.5303
             106     13.9652E-03     21.5889E-03         2.07052    -322.258E-03        -1.39797    -322.240E-03         2.07050        -1.39797    -8.02759E-03     517.388E-03    -254.378E-03    -263.198E-03    -256.906E-03     511.095E-03    -254.378E-03     139.569E-03     56.7446E+06     14.2098E+06    -3.81657E+06    -2.95488E+06     13.3481E+06     56.7446E+06    -653.835E+03         83.2892
             107     13.9641E-03     23.2468E-03         2.13041    -310.901E-03        -1.46531    -310.882E-03         2.13039        -1.46531    -11.0763E-03     515.891E-03    -254.301E-03    -261.566E-03    -255.801E-03     510.126E-03    -254.301E-03     133.368E-03     58.3688E+06     14.4562E+06    -1.30467E+06    -557.024E+03     13.7085E+06     58.3688E+06     1.20272E+06         83.1639
             108     13.9663E-03     24.9175E-03         2.11547    -305.481E-03        -1.47725    -305.480E-03         2.11547        -1.47725    -1.66104E-03     515.460E-03    -254.226E-03    -261.101E-03    -255.543E-03     509.902E-03    -254.226E-03     130.930E-03     60.5159E+06     14.0779E+06    -3.31660E+06    -2.99842E+06     13.7597E+06     60.5159E+06    -521.718E+03         83.0971
             109     13.9676E-03     26.5827E-03         1.99700    -279.105E-03        -1.43166    -279.065E-03         1.99696        -1.43166    -13.1719E-03     514.619E-03    -254.147E-03    -260.464E-03    -255.015E-03     509.171E-03    -254.147E-03     129.505E-03     61.2113E+06     14.9723E+06    -2.47868E+06    -2.02827E+06     14.5219E+06     61.2113E+06     487.008E+03         83.0757
             110     13.9669E-03     28.2517E-03         1.83443    -251.224E-03        -1.32508    -251.142E-03         1.83434        -1.32508    -26.2529E-03     515.269E-03    -254.167E-03    -261.199E-03    -256.088E-03     510.157E-03    -254.167E-03     125.551E-03     63.0603E+06     15.6124E+06    -2.36993E+06    -1.15425E+06     14.3967E+06     63.0603E+06    -260.716E+03         83.0925
             111     13.9625E-03     29.9181E-03         1.63621    -224.049E-03        -1.16511    -223.854E-03         1.63601        -1.16511    -35.9822E-03     515.625E-03    -254.294E-03    -261.179E-03    -256.141E-03     510.587E-03    -254.294E-03     124.697E-03     62.2343E+06     14.9298E+06    -1.49370E+06    -294.700E+03     13.7308E+06     62.2343E+06    -421.147E+03         83.1023
             112     13.9658E-03     31.5887E-03         1.36315    -195.927E-03    -965.052E-03    -195.579E-03         1.36280    -965.052E-03    -46.2532E-03     514.080E-03    -254.292E-03    -259.714E-03    -254.371E-03     508.737E-03    -254.292E-03     128.135E-03     61.4711E+06     12.6186E+06    -3.65522E+06    -2.78430E+06     11.7477E+06     61.4711E+06    -185.229E+03         83.0805
             113     13.9669E-03     33.2550E-03         1.05722    -167.221E-03    -726.365E-03    -166.910E-03         1.05691    -726.365E-03    -38.9797E-03     513.947E-03    -254.188E-03    -259.856E-03    -254.449E-03     508.540E-03    -254.188E-03     128.907E-03     58.9718E+06     11.6527E+06    -3.48314E+06    -2.54446E+06     10.7140E+06     58.9718E+06     37.7463E+03         83.0618
             114     13.9670E-03     34.9263E-03     716.506E-03    -123.562E-03    -453.944E-03    -123.005E-03     715.949E-03    -453.944E-03    -39.2297E-03     515.226E-03    -254.146E-03    -261.136E-03    -255.778E-03     509.868E-03    -254.146E-03     128.549E-03     60.8269E+06     12.5158E+06    -2.91074E+06    -1.56499E+06     11.1701E+06     60.8269E+06    -279.620E+03         83.0722
             115     13.9687E-03     36.5976E-03     359.999E-03    -58.0223E-03    -191.876E-03    -85.1431E-03     357.563E-03    -162.320E-03    -55.6311E-03     515.291E-03    -254.119E-03    -261.251E-03    -255.962E-03     510.002E-03    -254.119E-03     127.727E-03     60.2130E+06     12.3038E+06    -3.36566E+06    -1.91037E+06     10.8485E+06     60.2130E+06     102.318E+03         83.1002
             116     13.9667E-03     38.2710E-03     232.401E-03    -11.7384E-03    -127.853E-03    -41.2524E-03     2.43343E-03     131.629E-03    -57.7109E-03     514.800E-03    -254.198E-03    -260.536E-03    -255.453E-03     509.717E-03    -254.198E-03     125.135E-03     61.2318E+06     12.4396E+06    -3.20588E+06    -1.85400E+06     11.0877E+06     61.2318E+06     159.346E+03         83.1267
             117     13.9644E-03     39.9370E-03     411.752E-03    -1.05963E-03    -355.666E-03    -3.23376E-03    -353.492E-03     411.752E-03    -41.1110E-03     514.229E-03    -254.292E-03    -259.784E-03    -254.588E-03     509.033E-03    -254.292E-03     126.387E-03     61.0756E+06     12.9954E+06    -2.30769E+06    -926.417E+03     11.6141E+06     61.0756E+06     215.445E+03         83.1352
             118     13.9671E-03     41.6063E-03     671.188E-03     17.3859E-03    -674.017E-03     16.8470E-03    -673.478E-03     671.188E-03    -38.5787E-03     514.470E-03    -254.247E-03    -260.245E-03    -254.949E-03     509.175E-03    -254.247E-03     127.655E-03     60.2601E+06     12.8544E+06    -3.17483E+06    -1.55131E+06     11.2309E+06     60.2601E+06    -130.026E+03         83.1228
             119     13.9653E-03     43.2789E-03     903.104E-03     58.0225E-03    -973.300E-03     57.6699E-03    -972.947E-03     903.104E-03    -32.4351E-03     514.893E-03    -254.196E-03    -260.669E-03    -255.407E-03     509.631E-03    -254.196E-03     127.326E-03     60.1505E+06     12.9249E+06    -3.18010E+06    -1.54154E+06     11.2863E+06     60.1505E+06    -81.8045E+03         83.1042
             120     13.9682E-03     44.9523E-03         1.09423     107.730E-03        -1.24245     107.693E-03        -1.24241         1.09423    -11.7044E-03     514.419E-03    -254.155E-03    -260.149E-03    -254.750E-03     509.020E-03    -254.155E-03     128.880E-03     60.8226E+06     12.9532E+06    -3.11364E+06    -1.86228E+06     11.7019E+06     60.8226E+06     165.931E+03         83.0998
             121     13.9685E-03     46.6202E-03         1.23317     118.374E-03        -1.42397     118.331E-03        -1.42393         1.23317     8.91169E-03     514.690E-03    -254.095E-03    -260.614E-03    -255.209E-03     509.286E-03    -254.095E-03     129.011E-03     60.1399E+06     13.0011E+06    -2.94693E+06    -1.71801E+06     11.7722E+06     60.1399E+06      93.208E+03         83.1150
             122     13.9683E-03     48.2909E-03         1.31729     128.315E-03        -1.54753     128.241E-03        -1.54745         1.31729     464.641E-06     515.747E-03    -254.058E-03    -261.723E-03    -256.494E-03     510.519E-03    -254.058E-03     127.073E-03     61.6290E+06     13.7655E+06    -2.97373E+06    -1.73055E+06     12.5223E+06     61.6290E+06    -106.555E+03         83.1406
             123     13.9667E-03     49.9676E-03         1.34709     150.671E-03        -1.60530     150.624E-03        -1.60525         1.34709    -4.04767E-03     515.957E-03    -254.110E-03    -261.859E-03    -256.747E-03     510.845E-03    -254.110E-03     125.698E-03     61.4805E+06     13.6318E+06    -3.13411E+06    -1.81883E+06     12.3165E+06     61.4805E+06     88.4726E+03         83.1600
             124     13.9651E-03     51.6417E-03         1.31644     163.676E-03        -1.59376     163.623E-03        -1.59371         1.31644     18.6846E-03     514.802E-03    -254.215E-03    -260.538E-03    -255.297E-03     509.561E-03    -254.215E-03     127.047E-03     61.5784E+06     13.3282E+06    -2.92302E+06    -1.78552E+06     12.1907E+06     61.5784E+06     364.383E+03         83.1562
             125     13.9657E-03     53.3017E-03         1.22351     162.010E-03        -1.51873     161.970E-03        -1.51869         1.22351     11.6910E-03     513.300E-03    -254.216E-03    -258.906E-03    -253.530E-03     507.924E-03    -254.216E-03     128.408E-03     62.2369E+06     13.8460E+06    -2.67598E+06    -1.66402E+06     12.8341E+06     62.2369E+06     34.2891E+03         83.1367
             126     13.9673E-03     54.9697E-03         1.07564     150.833E-03        -1.36259     150.724E-03        -1.36248         1.07564    -17.7154E-03     514.133E-03    -254.134E-03    -259.948E-03    -254.547E-03     508.732E-03    -254.134E-03     128.868E-03     61.4081E+06     14.0508E+06    -2.87215E+06    -1.62086E+06     12.7995E+06     61.4081E+06    -266.447E+03         83.1263
             127     13.9668E-03     56.6377E-03     877.699E-03     154.966E-03        -1.17244     154.845E-03        -1.17232     877.699E-03    -23.0772E-03     515.172E-03    -254.109E-03    -261.114E-03    -255.874E-03     509.932E-03    -254.109E-03     127.108E-03     60.5947E+06     14.1101E+06    -2.69060E+06    -1.45511E+06     12.8746E+06     60.5947E+06    -326.265E+03         83.1283
             128     13.9675E-03     58.3090E-03     639.720E-03     145.082E-03    -950.746E-03     145.054E-03    -950.718E-03     639.720E-03    -11.0413E-03     514.457E-03    -254.130E-03    -260.326E-03    -255.141E-03     509.272E-03    -254.130E-03     126.329E-03     60.0096E+06     13.9208E+06    -2.49297E+06    -1.70462E+06     13.1324E+06     60.0096E+06     199.357E+03         83.1290
             129     13.9652E-03     59.9749E-03     380.317E-03     124.228E-03    -671.272E-03     124.200E-03    -671.245E-03     380.317E-03    -1.65684E-03     514.356E-03    -254.090E-03    -260.209E-03    -254.909E-03     509.056E-03    -254.090E-03     127.700E-03     60.2973E+06     13.8429E+06    -3.13868E+06    -2.52181E+06     13.2261E+06     60.2973E+06    -488.358E+03         83.1207
             130     13.9665E-03     61.6437E-03     193.698E-03     41.4754E-03    -394.385E-03     129.107E-03    -394.373E-03     106.054E-03     4.02434E-03     514.453E-03    -254.058E-03    -260.334E-03    -255.167E-03     509.286E-03    -254.058E-03     126.117E-03     60.2943E+06     14.6540E+06    -1.46617E+06    -762.360E+03     13.9502E+06     60.2943E+06    -416.619E+03         83.1080
             131     13.9658E-03     63.3108E-03     112.166E-03    -22.0594E-03    -295.819E-03     111.218E-03    -139.762E-03    -177.168E-03    -12.9980E-03     514.305E-03    -254.068E-03    -260.147E-03    -255.028E-03     509.187E-03    -254.068E-03     125.499E-03     59.3954E+06     15.0011E+06    -3.17767E+06    -2.39611E+06     14.2196E+06     59.3954E+06     80.6548E+03         83.1107
             132     13.9673E-03     64.9824E-03     147.767E-03     60.1766E-03    -442.390E-03     109.752E-03     98.1917E-03    -442.390E-03     11.0226E-03     514.674E-03    -254.096E-03    -260.404E-03    -255.106E-03     509.375E-03    -254.096E-03     127.722E-03     60.6010E+06     14.2921E+06    -1.42151E+06    -1.13659E+06     14.0072E+06     60.6010E+06     1.11053E+06         83.1343
             133     13.9649E-03     66.6514E-03     341.474E-03     104.023E-03    -666.619E-03     108.132E-03     337.365E-03    -666.619E-03     35.6644E-03     515.165E-03    -254.112E-03    -260.979E-03    -255.548E-03     509.735E-03    -254.112E-03     129.390E-03     60.2711E+06     14.7550E+06    -3.65556E+06    -3.53490E+06     14.6343E+06     60.2711E+06    -392.376E+03         83.1586
             134     13.9670E-03     68.3191E-03     552.237E-03     83.7940E-03    -851.612E-03     84.2557E-03     551.775E-03    -851.612E-03    -6.36805E-03     515.304E-03    -254.106E-03    -261.176E-03    -255.861E-03     509.989E-03    -254.106E-03     128.028E-03     59.7462E+06     15.4395E+06    -2.30146E+06    -1.94735E+06     15.0854E+06     59.7462E+06     428.388E+03         83.1691
             135     13.9647E-03     69.9897E-03     637.113E-03     105.943E-03    -999.094E-03     106.252E-03     636.804E-03    -999.094E-03    -13.8278E-03     515.174E-03    -254.114E-03    -261.056E-03    -255.806E-03     509.924E-03    -254.114E-03     127.243E-03     61.5439E+06     15.9241E+06     288.430E+03     656.761E+03     15.5558E+06     61.5439E+06    -46.5690E+03         83.1649
             136     13.9667E-03     71.6521E-03     653.541E-03     127.836E-03        -1.09255     127.935E-03     653.442E-03        -1.09255    -5.38455E-03     514.812E-03    -254.085E-03    -260.653E-03    -255.452E-03     509.611E-03    -254.085E-03     126.582E-03     61.6166E+06     16.0799E+06    -3.36743E+06    -3.31754E+06     16.0300E+06     61.6166E+06    -53.4592E+03         83.1485
             137     13.9664E-03     73.3227E-03     646.747E-03     140.834E-03        -1.11982     140.924E-03     646.656E-03        -1.11982    -6.76926E-03     514.374E-03    -254.083E-03    -260.155E-03    -255.066E-03     509.285E-03    -254.083E-03     125.157E-03     60.8748E+06     16.0024E+06    -658.144E+03    -603.935E+03     15.9482E+06     60.8748E+06    -66.4566E+03         83.1311
             138     13.9653E-03     74.9861E-03     560.242E-03     168.023E-03        -1.08383     168.830E-03     559.434E-03        -1.08383    -19.4159E-03     513.991E-03    -254.130E-03    -259.542E-03    -254.434E-03     508.883E-03    -254.130E-03     125.304E-03     59.9156E+06     16.0036E+06    -2.11212E+06    -2.07613E+06     15.9676E+06     59.9156E+06    -797.485E+03         83.1262
             139     13.9656E-03     76.6529E-03     390.550E-03     199.985E-03    -989.548E-03     202.035E-03     388.501E-03    -989.548E-03    -35.5638E-03     514.371E-03    -254.061E-03    -260.028E-03    -254.765E-03     509.107E-03    -254.061E-03     127.240E-03     61.0332E+06     16.6688E+06    -856.181E+03    -821.736E+03     16.6344E+06     61.0332E+06     114.920E+03         83.1416
             140     13.9665E-03     78.3252E-03     264.726E-03     129.039E-03    -834.689E-03     222.519E-03     171.247E-03    -834.689E-03     32.4883E-03     515.149E-03    -254.033E-03    -261.065E-03    -255.844E-03     509.928E-03    -254.033E-03     126.864E-03     60.9040E+06     16.1602E+06    -2.66636E+06    -2.63355E+06     16.1274E+06     60.9040E+06     782.127E+03         83.1707
             141     13.9634E-03     79.9907E-03     263.612E-03    -119.123E-03    -618.008E-03     257.427E-03    -112.938E-03    -618.008E-03     23.3030E-03     515.527E-03    -254.140E-03    -261.260E-03    -256.121E-03     510.388E-03    -254.140E-03     125.944E-03     61.1073E+06     16.3545E+06    -1.90943E+06    -1.89217E+06     16.3373E+06     61.1073E+06     215.618E+03         83.1820
             142     13.9640E-03     81.6569E-03     298.561E-03    -244.630E-03    -539.294E-03     297.482E-03    -432.299E-03    -350.545E-03     10.7768E-03     514.645E-03    -254.169E-03    -260.344E-03    -255.153E-03     509.454E-03    -254.169E-03     126.430E-03     61.2381E+06     16.8899E+06    -1.35249E+06    -1.33227E+06     16.8696E+06     61.2381E+06     245.648E+03         83.1579
             143     13.9650E-03     83.3253E-03     336.457E-03    -53.6219E-03    -779.291E-03     335.824E-03    -778.659E-03    -53.6219E-03     37.2870E-03     513.615E-03    -254.110E-03    -259.454E-03    -254.182E-03     508.342E-03    -254.110E-03     127.237E-03     61.5982E+06     16.6870E+06    -2.25944E+06    -2.23796E+06     16.6656E+06     61.5982E+06     194.209E+03         83.1320
             144     13.9648E-03     84.9879E-03     385.289E-03     241.225E-03        -1.17813     372.858E-03        -1.17810     253.630E-03     12.5220E-03     514.546E-03    -254.039E-03    -260.489E-03    -255.306E-03     509.363E-03    -254.039E-03     126.293E-03     62.2118E+06     17.5409E+06    -1.63258E+06    -1.62859E+06     17.5369E+06     62.2118E+06    -79.1770E+03         83.1396
             145     13.9606E-03     86.6594E-03     567.367E-03     412.519E-03        -1.57206     412.336E-03        -1.57187     567.367E-03     35.3852E-03     514.706E-03    -254.087E-03    -260.639E-03    -255.578E-03     509.645E-03    -254.087E-03     124.870E-03     61.0690E+06     17.1505E+06    -1.52274E+06    -1.51367E+06     17.1414E+06     61.0690E+06    -195.631E+03         83.1589
             146     13.9625E-03     88.3318E-03     880.130E-03     440.356E-03        -1.91592     440.185E-03        -1.91575     880.130E-03     19.6972E-03     513.847E-03    -254.153E-03    -259.715E-03    -254.493E-03     508.625E-03    -254.153E-03     126.681E-03     60.5495E+06     16.7475E+06    -2.31336E+06    -2.29963E+06     16.7338E+06     60.5495E+06    -76.5054E+03         83.1550
             147     13.9620E-03     89.9985E-03         1.17105     445.802E-03        -2.20542     445.613E-03        -2.20523         1.17105    -38.6891E-03     514.303E-03    -254.116E-03    -260.188E-03    -255.064E-03     509.179E-03    -254.116E-03     125.560E-03     61.8731E+06     17.7552E+06    -1.75173E+06    -1.69992E+06     17.7034E+06     61.8731E+06    -508.146E+03         83.1438
             148     13.9615E-03     91.6726E-03         1.42360     474.626E-03        -2.50461     474.388E-03        -2.50437         1.42360    -50.8769E-03     515.026E-03    -254.138E-03    -260.900E-03    -255.789E-03     509.915E-03    -254.138E-03     125.521E-03     61.8424E+06     18.0904E+06    -1.72369E+06    -1.57162E+06     17.9383E+06     61.8424E+06     207.325E+03         83.1523
             149     13.9602E-03     94.9907E-03         1.78777     524.562E-03        -2.93835     524.026E-03        -2.93781         1.78777    -73.4079E-03     514.311E-03    -254.156E-03    -259.948E-03    -254.652E-03     509.015E-03    -254.156E-03     127.627E-03     61.9374E+06     18.2495E+06    -2.05033E+06    -1.96504E+06     18.1642E+06     61.9374E+06     221.901E+03         83.1442
             150     13.9618E-03     96.6550E-03         1.87243     537.101E-03        -3.03483     536.478E-03        -3.03420         1.87243    -88.6011E-03     514.418E-03    -254.113E-03    -260.259E-03    -254.921E-03     509.080E-03    -254.113E-03     128.169E-03     62.1546E+06     18.3638E+06    -2.45514E+06    -2.37748E+06     18.2861E+06     62.1546E+06     303.668E+03         83.1224
             151     13.9613E-03     98.3176E-03         1.88546     521.029E-03        -3.04217     520.509E-03        -3.04165         1.88546    -82.0346E-03     514.352E-03    -254.076E-03    -260.252E-03    -255.019E-03     509.119E-03    -254.076E-03     126.893E-03     62.6048E+06     19.5064E+06    -1.58084E+06    -1.53939E+06     19.4649E+06     62.6048E+06     46.9523E+03         83.1184
             152     13.9616E-03     99.9745E-03         1.83249     513.685E-03        -2.97175     512.999E-03        -2.97107         1.83249    -97.4303E-03     513.605E-03    -254.056E-03    -259.507E-03    -254.347E-03     508.445E-03    -254.056E-03     125.892E-03     62.9065E+06     19.9820E+06    -1.43888E+06    -1.40317E+06     19.9463E+06     62.9065E+06     128.609E+03         83.1262
             153     13.9619E-03     101.635E-03         1.71473     524.477E-03        -2.85001     524.196E-03        -2.84973         1.71473    -43.6936E-03     514.250E-03    -254.030E-03    -260.289E-03    -255.067E-03     509.028E-03    -254.030E-03     126.764E-03     63.5257E+06     20.0904E+06    -2.17885E+06    -2.16796E+06     20.0795E+06     63.5257E+06    -277.334E+03         83.1455
             154     13.9600E-03     103.305E-03         1.53651     489.385E-03        -2.62557     489.384E-03        -2.62557         1.53651    -1.41512E-03     515.543E-03    -254.020E-03    -261.619E-03    -256.324E-03     510.248E-03    -254.020E-03     127.854E-03     63.4694E+06     20.6438E+06    -1.98490E+06    -1.98111E+06     20.6400E+06     63.4694E+06    -123.587E+03         83.1833
             155     13.9606E-03     104.966E-03         1.30351     470.038E-03        -2.35722     470.016E-03        -2.35720         1.30351     8.86702E-03     515.246E-03    -254.030E-03    -261.242E-03    -256.027E-03     510.031E-03    -254.030E-03     126.825E-03     62.6902E+06     20.3759E+06    -2.31018E+06    -2.30263E+06     20.3683E+06     62.6902E+06      8.9675E+03         83.2263
             156     13.9589E-03     106.628E-03         1.02547     439.972E-03        -2.04869     439.949E-03        -2.04867         1.02547     8.01806E-03     514.736E-03    -254.075E-03    -260.659E-03    -255.570E-03     509.646E-03    -254.075E-03     125.227E-03     64.3628E+06     21.4819E+06    -1.19188E+06    -1.17557E+06     21.4656E+06     64.3628E+06    -177.746E+03         83.2535
             157     13.9584E-03     108.297E-03     717.935E-03     409.845E-03        -1.69903     409.844E-03        -1.69903     717.935E-03    -3.27602E-03     514.568E-03    -254.103E-03    -260.424E-03    -255.259E-03     509.403E-03    -254.103E-03     126.108E-03     64.3952E+06     21.5828E+06    -2.09099E+06    -1.95786E+06     21.4497E+06     64.3952E+06     766.774E+03         83.2627
             158     13.9588E-03     109.960E-03     466.749E-03     323.446E-03        -1.34420     393.556E-03        -1.34405     396.494E-03     20.5844E-03     513.402E-03    -254.087E-03    -259.253E-03    -254.008E-03     508.157E-03    -254.087E-03     126.886E-03     64.7061E+06     22.1238E+06    -2.18432E+06    -2.00212E+06     21.9416E+06     64.7061E+06     259.003E+03         83.2596
             159     13.9609E-03     111.624E-03     366.380E-03     72.4634E-03    -992.259E-03     366.217E-03    -992.096E-03     72.4634E-03     27.6596E-03     513.100E-03    -253.991E-03    -258.973E-03    -253.687E-03     507.815E-03    -253.991E-03     127.326E-03     65.0175E+06     22.8418E+06    -2.31733E+06    -2.20548E+06     22.7300E+06     65.0175E+06    -117.056E+03         83.2671
             160     13.9622E-03     113.296E-03     330.880E-03    -238.376E-03    -665.146E-03     330.834E-03    -665.101E-03    -238.376E-03    -131.509E-06     514.168E-03    -253.878E-03    -260.293E-03    -255.061E-03     508.936E-03    -253.878E-03     126.873E-03     66.1094E+06     23.4027E+06    -2.06061E+06    -1.96490E+06     23.3070E+06     66.1094E+06     1.01012E+03         83.3015
             161     13.9597E-03     114.966E-03     323.502E-03    -328.909E-03    -572.328E-03     323.452E-03    -387.841E-03    -513.346E-03    -1.37151E-03     514.403E-03    -253.912E-03    -260.586E-03    -255.345E-03     509.162E-03    -253.912E-03     127.025E-03     67.0395E+06     23.8765E+06    -1.95598E+06    -1.85735E+06     23.7778E+06     67.0395E+06     35.2356E+03         83.3318
             162     13.9608E-03     116.636E-03     342.255E-03    -178.179E-03    -741.687E-03     341.688E-03    -177.612E-03    -741.687E-03    -16.2389E-03     513.453E-03    -253.924E-03    -259.418E-03    -254.049E-03     508.083E-03    -253.924E-03     128.387E-03     66.8706E+06     23.6596E+06    -2.40954E+06    -2.30552E+06     23.5556E+06     66.8706E+06    -17.1904E+03         83.3366
             163     13.9620E-03     118.302E-03     331.161E-03    -13.7280E-03    -920.850E-03     330.100E-03    -12.6675E-03    -920.850E-03    -37.9693E-03     513.966E-03    -253.840E-03    -260.107E-03    -254.753E-03     508.611E-03    -253.840E-03     128.308E-03     68.6652E+06     25.3783E+06    -1.55749E+06    -1.46519E+06     25.2860E+06     68.6652E+06    -86.1077E+03         83.3399
             164     13.9598E-03     119.967E-03     337.450E-03     82.0514E-03        -1.03921     336.325E-03     83.1754E-03        -1.03921    -33.7615E-03     515.005E-03    -253.720E-03    -261.339E-03    -256.036E-03     509.703E-03    -253.720E-03     127.879E-03     70.8739E+06     26.9660E+06    -1.38555E+06    -1.33714E+06     26.9176E+06     70.8739E+06     432.085E+03         83.3623
             165     13.9618E-03     121.612E-03     337.835E-03     123.895E-03        -1.08673     336.430E-03     125.300E-03        -1.08673    -34.1773E-03     514.477E-03    -253.606E-03    -260.756E-03    -255.392E-03     509.112E-03    -253.606E-03     128.528E-03     72.3342E+06     26.6454E+06    -2.20558E+06    -2.19454E+06     26.6343E+06     72.3342E+06    -59.4190E+03         83.4042
             166     13.9608E-03     123.263E-03     333.286E-03     106.681E-03        -1.06288     332.357E-03     107.610E-03        -1.06288    -25.3122E-03     514.569E-03    -253.578E-03    -260.982E-03    -255.755E-03     509.342E-03    -253.578E-03     126.897E-03     72.6964E+06     25.6849E+06    -2.53270E+06    -2.50735E+06     25.6595E+06     72.6964E+06    -296.042E+03         83.4454
             167     13.9594E-03     124.935E-03     356.810E-03    -22.6190E-03    -970.231E-03     354.761E-03    -20.5693E-03    -970.231E-03    -51.4436E-03     514.785E-03    -253.712E-03    -261.177E-03    -255.921E-03     509.530E-03    -253.712E-03     127.266E-03     71.8457E+06     26.4279E+06    -3.12596E+06    -2.97767E+06     26.2796E+06     71.8457E+06     831.222E+03         83.4288
             168     13.9602E-03     126.601E-03     360.023E-03    -193.969E-03    -808.701E-03     358.099E-03    -192.045E-03    -808.701E-03    -40.3101E-03     513.323E-03    -253.822E-03    -259.449E-03    -254.041E-03     507.915E-03    -253.822E-03     128.842E-03     73.8878E+06     31.3551E+06    -2.14056E+06    -2.00826E+06     31.2228E+06     73.8878E+06     1.08414E+06         83.3401
             169     13.9609E-03     128.269E-03     360.119E-03    -362.316E-03    -611.051E-03     358.457E-03    -390.117E-03    -581.588E-03    -51.2461E-03     512.080E-03    -253.772E-03    -258.027E-03    -252.504E-03     506.556E-03    -253.772E-03     129.962E-03     75.7073E+06     34.0727E+06    -2.08573E+06    -2.03679E+06     34.0238E+06     75.7073E+06     588.625E+03         83.2260
             170     13.9636E-03     129.939E-03     376.581E-03    -306.293E-03    -673.592E-03     374.924E-03    -671.936E-03    -306.293E-03    -54.8818E-03     512.072E-03    -253.689E-03    -258.128E-03    -252.595E-03     506.539E-03    -253.689E-03     130.086E-03     75.6291E+06     34.0422E+06    -2.39836E+06    -2.29925E+06     33.9431E+06     75.6291E+06    -128.947E+03         83.1243
             171     13.9608E-03     131.602E-03     396.317E-03     579.230E-06        -1.00004     396.227E-03    -999.954E-03     579.230E-06    -17.7160E-03     513.896E-03    -253.626E-03    -260.214E-03    -254.827E-03     508.508E-03    -253.626E-03     128.705E-03     77.6766E+06     34.1256E+06    -2.17054E+06    -2.08819E+06     34.0432E+06     77.6766E+06    -318.856E+03         83.0758
             172     13.9600E-03     133.268E-03     450.108E-03     283.992E-03        -1.32550     407.567E-03        -1.32513     326.163E-03    -49.3823E-03     514.650E-03    -253.625E-03    -260.896E-03    -255.460E-03     509.214E-03    -253.625E-03     129.401E-03     79.6050E+06     35.0416E+06    -2.69226E+06    -2.64312E+06     34.9925E+06     79.6050E+06     32.7343E+03         83.0713
             173     13.9632E-03     134.940E-03     655.420E-03     408.258E-03        -1.62475     407.914E-03        -1.62441     655.420E-03    -16.1332E-03     512.711E-03    -253.582E-03    -258.905E-03    -253.328E-03     507.134E-03    -253.582E-03     130.714E-03     79.4157E+06     34.7782E+06    -2.65685E+06    -2.61937E+06     34.7407E+06     79.4157E+06    -139.056E+03         83.0548
             174     13.9631E-03     136.605E-03     974.007E-03     397.456E-03        -1.89668     396.701E-03        -1.89592     974.007E-03    -41.3228E-03     512.334E-03    -253.468E-03    -258.748E-03    -253.038E-03     506.624E-03    -253.468E-03     132.220E-03     80.8585E+06     34.5938E+06    -2.41272E+06    -2.38628E+06     34.5674E+06     80.8585E+06     63.7867E+03         83.0276
             175     13.9656E-03     138.267E-03         1.26590     396.694E-03        -2.15763     395.703E-03        -2.15664         1.26590    -17.7141E-03     512.768E-03    -253.368E-03    -259.389E-03    -253.771E-03     507.150E-03    -253.368E-03     131.242E-03     83.3817E+06     37.1503E+06    -1.90593E+06    -1.87129E+06     37.1157E+06     83.3817E+06     222.005E+03         83.0084
             176     13.9648E-03     139.928E-03         1.51444     412.599E-03        -2.39864     412.122E-03        -2.39817         1.51444     7.78652E-03     512.642E-03    -253.296E-03    -259.418E-03    -253.802E-03     507.026E-03    -253.296E-03     131.207E-03     83.6593E+06     39.6795E+06    -2.19842E+06    -2.17205E+06     39.6531E+06     83.6593E+06     448.807E+03         82.9931
             177     13.9674E-03     141.590E-03         1.70331     396.666E-03        -2.55642     396.405E-03        -2.55615         1.70331    -54.4869E-03     511.906E-03    -253.192E-03    -258.594E-03    -252.837E-03     506.148E-03    -253.192E-03     132.709E-03     85.5433E+06     43.5645E+06    -1.89524E+06    -1.78015E+06     43.4495E+06     85.5433E+06     1.37085E+06         82.9840
             178     13.9707E-03     143.247E-03         1.82707     383.034E-03        -2.63692     382.946E-03        -2.63683         1.82707    -16.3696E-03     510.894E-03    -253.032E-03    -257.466E-03    -251.700E-03     505.128E-03    -253.032E-03     132.621E-03     87.8422E+06     46.6410E+06    -3.68394E+06    -3.53749E+06     46.4946E+06     87.8422E+06     640.809E+03         82.9752
             179     13.9740E-03     144.903E-03         1.88099     379.210E-03        -2.66049     378.565E-03        -2.65985         1.88099    -56.2561E-03     510.681E-03    -252.819E-03    -257.534E-03    -251.678E-03     504.825E-03    -252.819E-03     133.625E-03     92.3987E+06     53.8489E+06    -1.47220E+06    -1.20688E+06     53.5836E+06     92.3987E+06     1.56920E+06         82.9569
             180     13.9806E-03     146.560E-03         1.85214     377.485E-03        -2.62289     376.598E-03        -2.62200         1.85214    -100.524E-03     510.581E-03    -252.624E-03    -257.169E-03    -251.356E-03     504.768E-03    -252.624E-03     133.091E-03     93.8193E+06     58.4694E+06    -4.01090E+06    -3.71073E+06     58.1692E+06     93.8193E+06     991.786E+03         82.9358
             181     13.9822E-03     148.218E-03         1.74714     357.392E-03        -2.48545     357.144E-03        -2.48520         1.74714    -38.5703E-03     509.785E-03    -252.507E-03    -256.737E-03    -250.792E-03     503.839E-03    -252.507E-03     134.455E-03     96.2847E+06     60.6986E+06    -2.12728E+06    -1.76557E+06     60.3369E+06     96.2847E+06     1.32282E+06         82.9245
             182     13.9921E-03     149.865E-03         1.57881     320.515E-03        -2.23322     320.293E-03        -2.23300         1.57881    -32.8000E-03     507.544E-03    -252.326E-03    -254.981E-03    -248.955E-03     501.518E-03    -252.326E-03     135.029E-03     96.7665E+06     65.5840E+06    -3.27837E+06    -2.92948E+06     65.2351E+06     96.7665E+06     1.35735E+06         82.8757
             183     13.9983E-03     151.513E-03         1.34166     304.621E-03        -1.96695     304.257E-03        -1.96659         1.34166    -57.3230E-03     504.816E-03    -252.112E-03    -252.756E-03    -246.465E-03     498.525E-03    -252.112E-03     137.406E-03     98.9349E+06     69.1383E+06    -2.05309E+06    -1.83736E+06     68.9226E+06     98.9349E+06     700.839E+03         82.6272
             184     14.0123E-03     153.160E-03         1.04275     292.939E-03        -1.68854     292.091E-03        -1.68769         1.04275    -75.3931E-03     498.683E-03    -247.214E-03    -251.505E-03    -240.417E-03     491.665E-03    -251.285E-03     143.984E-03     103.061E+06     72.7328E+06    -1.31088E+06    -1.15091E+06     72.5728E+06     103.061E+06     2.18272E+06         82.1216
             185     14.0370E-03     154.785E-03     709.970E-03     276.750E-03        -1.34985     275.736E-03        -1.34884     709.970E-03    -80.4228E-03     487.095E-03    -237.155E-03    -249.787E-03    -229.083E-03     479.023E-03    -249.787E-03     151.826E-03     107.283E+06     78.5172E+06     952.548E+03     1.42657E+06     78.0432E+06     107.283E+06     3.96882E+06         81.4720
             186     14.0750E-03     156.382E-03     388.432E-03     228.743E-03    -963.333E-03     250.672E-03    -963.023E-03     366.193E-03    -31.7957E-03     474.287E-03    -227.131E-03    -247.448E-03    -217.743E-03     464.899E-03    -247.448E-03     161.095E-03     108.915E+06     82.1490E+06    -5.17050E+06    -4.60624E+06     81.5847E+06     108.915E+06     1.80113E+06         80.6591
             187     14.1297E-03     157.961E-03     210.810E-03     18.6596E-03    -553.518E-03     209.085E-03    -551.793E-03     18.6596E-03    -44.6126E-03     457.706E-03    -214.227E-03    -243.739E-03    -202.665E-03     446.144E-03    -243.739E-03     174.113E-03     115.160E+06     86.4871E+06    -3.81067E+06    -2.55533E+06     85.2317E+06     115.160E+06     4.27670E+06         79.6498
             188     14.2187E-03     159.519E-03     191.035E-03    -104.055E-03    -418.005E-03     188.378E-03    -194.997E-03    -324.405E-03    -64.0262E-03     441.347E-03    -203.566E-03    -238.295E-03    -189.056E-03     426.837E-03    -238.295E-03     191.008E-03     120.221E+06     96.8403E+06    -7.90560E+06    -6.71332E+06     95.6481E+06     120.221E+06     7.82332E+06         78.8955
             189     14.3127E-03     161.015E-03     217.099E-03     54.6640E-03    -646.126E-03     197.900E-03     73.8625E-03    -646.126E-03    -58.8028E-03     441.561E-03    -210.271E-03    -231.629E-03    -196.146E-03     427.436E-03    -231.629E-03     189.300E-03     126.283E+06     108.863E+06    -4.82400E+06    -4.20259E+06     108.242E+06     126.283E+06     6.55085E+06         79.0435
             190     14.3852E-03     162.564E-03     304.687E-03     201.207E-03    -936.437E-03     220.984E-03     284.910E-03    -936.437E-03    -51.5908E-03     469.510E-03    -221.682E-03    -247.744E-03    -233.236E-03     459.386E-03    -226.066E-03     166.837E-03     145.539E+06     110.859E+06    -6.71328E+06    -5.84212E+06     109.987E+06     145.539E+06     750.923E+03         80.2467
             191     14.4027E-03     164.245E-03     459.496E-03     254.199E-03        -1.18180     254.986E-03     458.709E-03        -1.18180    -15.0228E-03     517.107E-03    -222.756E-03    -293.949E-03    -287.188E-03     510.346E-03    -222.756E-03     146.555E-03     155.580E+06     109.473E+06    -3.32525E+06    -2.54089E+06     108.688E+06     155.580E+06     102.094E+03         82.1299
             192     14.4051E-03     165.964E-03     651.312E-03     258.671E-03        -1.36179     258.675E-03     651.308E-03        -1.36179     1.28013E-03     556.515E-03    -221.346E-03    -334.907E-03    -329.582E-03     551.191E-03    -221.346E-03     137.196E-03     149.907E+06     101.721E+06    -6.73526E+06    -5.07614E+06     100.062E+06     149.907E+06    -4.17803E+06         84.1570
             193     14.4023E-03     167.747E-03     784.536E-03     241.864E-03        -1.46441     241.868E-03     784.532E-03        -1.46441     1.04690E-03     573.701E-03    -220.749E-03    -353.189E-03    -347.930E-03     568.441E-03    -220.749E-03     139.201E-03     150.722E+06     103.354E+06    -2.59851E+06     1.40785E+06     99.3477E+06     150.722E+06     1.39538E+06         85.9584
             194     14.4047E-03     169.533E-03     798.551E-03     219.003E-03        -1.47515     219.228E-03     798.326E-03        -1.47515     15.2150E-03     582.089E-03    -220.426E-03    -361.856E-03    -356.513E-03     576.746E-03    -220.426E-03     141.588E-03     132.674E+06     95.2778E+06    -12.0333E+06    -5.59127E+06     88.8359E+06     132.674E+06    -5.15117E+06         87.2620
             195     14.4010E-03     171.331E-03     746.417E-03     202.489E-03        -1.37711     202.756E-03     746.150E-03        -1.37711     9.51260E-03     594.187E-03    -220.348E-03    -373.820E-03    -368.485E-03     588.852E-03    -220.348E-03     143.316E-03     123.445E+06     79.9555E+06    -12.8720E+06    -663.992E+03     67.7475E+06     123.445E+06    -3.66633E+06         87.8855
             196     14.4057E-03     173.134E-03     605.229E-03     194.265E-03        -1.17226     195.661E-03     603.833E-03        -1.17226    -35.6819E-03     602.556E-03    -220.263E-03    -382.348E-03    -377.231E-03     597.438E-03    -220.263E-03     141.486E-03     119.436E+06     60.3072E+06    -23.9225E+06    -9.84740E+06     46.2321E+06     119.436E+06    -5.64311E+06         87.7427
             197     14.4004E-03     174.965E-03     379.123E-03     140.673E-03    -873.737E-03     208.707E-03     311.089E-03    -873.737E-03    -90.7984E-03     601.115E-03    -220.202E-03    -380.991E-03    -376.168E-03     596.292E-03    -220.202E-03     137.294E-03     132.504E+06     71.3720E+06    -30.4095E+06     4.40059E+06     36.5619E+06     132.504E+06     1.85991E+06         86.8818
             198     14.4089E-03     176.732E-03     201.696E-03    -25.9644E-03    -476.716E-03     187.198E-03    -11.4666E-03    -476.716E-03    -50.6320E-03     591.467E-03    -220.443E-03    -370.871E-03    -366.260E-03     586.856E-03    -220.443E-03     132.846E-03     141.477E+06     62.2496E+06    -46.5628E+06    -9.94539E+06     25.6322E+06     141.477E+06    -1.72459E+06         85.1964
             199     14.4026E-03     178.536E-03     226.346E-03    -38.8841E-03    -332.246E-03     107.522E-03    -279.154E-03     26.8469E-03     19.6132E-03     576.925E-03    -220.871E-03    -355.856E-03    -350.712E-03     571.781E-03    -220.871E-03     137.543E-03     170.945E+06     72.6496E+06    -52.7425E+06     5.29935E+06     14.6077E+06     170.945E+06    -1.19749E+06         82.4701
             200     14.4152E-03     180.256E-03     617.221E-03    -30.9333E-03    -491.410E-03    -40.7712E-03    -481.572E-03     617.221E-03     99.1043E-03     543.792E-03    -221.498E-03    -322.393E-03    -317.311E-03     538.710E-03    -221.498E-03     132.042E-03     186.023E+06     72.5624E+06    -58.9110E+06    -7.00458E+06     20.6560E+06     186.023E+06     10.6309E+06         78.8872
             201     14.4076E-03     181.995E-03         1.25035    -222.028E-03    -596.349E-03    -246.251E-03    -572.126E-03         1.25035     180.560E-03     488.587E-03    -222.981E-03    -265.838E-03    -254.622E-03     477.371E-03    -222.981E-03     169.122E-03     178.198E+06     70.1707E+06    -60.0342E+06    -2.58164E+06     12.7182E+06     178.198E+06    -2.38854E+06         76.1136
             202     14.4279E-03     183.635E-03         1.84690    -394.975E-03    -658.743E-03    -418.989E-03    -634.728E-03         1.84690     151.729E-03     290.051E-03    -54.5830E-03    -235.550E-03    -50.5729E-03     280.381E-03    -229.890E-03     113.521E-03     179.261E+06     133.321E+06    -36.2771E+06     31.3673E+06     65.6770E+06     179.261E+06    -27.2252E+06         75.2234
             203     13.0252E-03     184.363E-03         2.12335    -360.007E-03    -747.767E-03    -432.274E-03    -675.500E-03         2.12335     294.364E-03     187.570E-03     55.0935E-03    -242.782E-03     64.6390E-03     178.025E-03    -242.782E-03    -63.6301E-03     98.1341E+06     58.6080E+06    -147.936E+06    -46.2250E+06    -43.1028E+06     98.1341E+06    -15.6614E+06         73.3246
             204     12.1932E-03     183.785E-03         2.07006    -62.6436E-03    -843.225E-03    -283.828E-03    -622.041E-03         2.07006     699.376E-03     233.924E-03     19.5190E-03    -253.634E-03     29.4574E-03     223.985E-03    -253.634E-03    -83.4665E-03     120.160E+06     54.1099E+06    -128.217E+06    -21.6765E+06    -52.4310E+06     120.160E+06    -15.9504E+06         69.4154
             205     11.2609E-03     183.131E-03         1.92813     267.285E-03    -881.604E-03    -129.172E-03    -485.148E-03         1.92813         1.09053     219.302E-03     42.0505E-03    -261.443E-03     48.9598E-03     212.393E-03    -261.443E-03    -63.0270E-03     149.421E+06     53.7992E+06    -81.7949E+06    -22.0993E+06    -5.89637E+06     149.421E+06    -21.3192E+06         65.8473
             206     10.3850E-03     182.494E-03         1.72075     590.116E-03    -899.223E-03    -4.58039E-03    -304.527E-03         1.72075         1.45643     238.414E-03     29.0570E-03    -267.141E-03     48.5639E-03     218.907E-03    -267.141E-03    -120.302E-03     125.903E+06     30.7053E+06    -76.7502E+06    -17.8156E+06    -28.2293E+06     125.903E+06    -13.4321E+06         63.3213
             207     9.57656E-03     181.810E-03         1.46481     918.008E-03    -901.316E-03     112.620E-03    -95.9285E-03         1.46481         1.80613     267.824E-03     2.15564E-03    -269.812E-03     37.0873E-03     232.892E-03    -269.812E-03    -179.200E-03     113.958E+06     24.7904E+06    -49.9590E+06    -20.0103E+06    -5.15827E+06     113.958E+06    -25.4082E+06         61.3161
             208     8.79128E-03     181.179E-03         1.31221         1.06629    -867.738E-03     205.753E-03     110.175E-03         1.19483         2.04805     300.878E-03    -30.0166E-03    -270.603E-03     22.1238E-03     248.738E-03    -270.603E-03    -240.864E-03     96.1245E+06     6.44665E+06    -58.9782E+06    -29.2234E+06    -23.3082E+06     96.1245E+06    -22.4308E+06         59.3613
             209     8.02035E-03     180.597E-03         1.38355     927.868E-03    -838.373E-03     286.286E-03     258.889E-03     927.868E-03         2.22174     334.298E-03    -64.1037E-03    -269.502E-03     7.84645E-03     262.347E-03    -269.502E-03    -306.301E-03     92.5634E+06     12.2010E+06    -59.9139E+06    -32.8412E+06    -14.8717E+06     92.5634E+06    -33.8425E+06         57.4454
             210     7.27019E-03     180.048E-03         1.54072     650.151E-03    -783.234E-03     329.666E-03     427.821E-03     650.151E-03         2.31881     366.699E-03    -101.525E-03    -265.293E-03    -7.08094E-03     272.255E-03    -265.293E-03    -375.586E-03     78.3765E+06     3.67953E+06    -69.5991E+06    -39.4102E+06    -26.5093E+06     78.3765E+06    -35.4073E+06         55.7720
             211     6.58943E-03     179.485E-03         1.63741     364.871E-03    -687.746E-03     319.302E-03     630.361E-03     364.871E-03         2.30221     398.129E-03    -143.432E-03    -254.809E-03    -31.7591E-03     286.456E-03    -254.809E-03    -438.168E-03      61.598E+06     7.64749E+06    -75.1236E+06    -38.6082E+06    -28.8680E+06      61.598E+06    -39.9662E+06         54.3232
             212     5.94079E-03     178.988E-03         1.59523     108.895E-03    -534.204E-03     288.613E-03     772.416E-03     108.895E-03         2.07016     423.598E-03    -183.031E-03    -240.034E-03    -71.0111E-03     311.578E-03    -240.034E-03    -470.061E-03     39.0814E+06    -7.39160E+06    -79.6656E+06    -48.0556E+06    -39.0016E+06     39.0814E+06    -34.5372E+06         52.8310
             213     5.27713E-03     178.601E-03         1.44929    -95.0504E-03    -406.776E-03     225.467E-03     817.051E-03    -95.0504E-03         1.75808     433.093E-03    -208.427E-03    -224.552E-03    -112.557E-03     337.223E-03    -224.552E-03    -456.124E-03     28.7947E+06    -236.074E+03    -74.0648E+06    -45.6946E+06    -28.6063E+06     28.7947E+06    -35.5281E+06         51.1673
             214     4.60654E-03     178.271E-03         1.27173    -257.422E-03    -355.969E-03     115.165E-03     800.599E-03    -257.422E-03         1.47054     426.835E-03    -208.769E-03    -218.537E-03    -146.621E-03     355.139E-03    -208.989E-03    -403.556E-03     19.6617E+06     4.06940E+06    -73.9352E+06    -43.5591E+06    -24.1699E+06     17.5249E+06    -38.4675E+06         49.3646
             215     3.91080E-03     178.006E-03         1.07967    -323.277E-03    -387.069E-03    -34.9740E-03     789.582E-03    -385.283E-03         1.12526     412.474E-03    -194.704E-03    -218.003E-03    -170.507E-03     364.978E-03    -194.704E-03    -330.409E-03     9.59397E+06     857.757E+03     -75.158E+06    -46.1170E+06    -26.0465E+06     7.45720E+06    -37.4391E+06         47.5068
             216     3.18020E-03     177.798E-03     897.560E-03    -359.943E-03    -483.692E-03    -192.695E-03     730.312E-03    -483.692E-03     849.405E-03     389.374E-03    -182.307E-03    -207.249E-03    -179.410E-03     361.535E-03    -182.307E-03    -249.198E-03     9.08821E+06    -4.95440E+06    -66.6950E+06    -42.2778E+06    -21.9284E+06     1.64505E+06    -32.4905E+06         45.7340
             217     2.42150E-03     177.644E-03     825.024E-03    -456.998E-03    -561.844E-03    -376.886E-03     744.911E-03    -561.844E-03     572.638E-03     360.718E-03    -171.738E-03    -189.488E-03    -175.549E-03     346.778E-03    -171.738E-03    -169.914E-03     9.73451E+06    -4.57796E+06    -59.9494E+06    -34.2979E+06    -15.9170E+06    -4.57796E+06    -32.8094E+06         44.1910
             218     1.63219E-03     177.557E-03     839.980E-03    -561.481E-03    -614.663E-03    -543.306E-03     821.805E-03    -614.663E-03     298.427E-03     336.242E-03    -164.178E-03    -172.356E-03    -166.729E-03     330.616E-03    -164.178E-03    -103.232E-03     7.31228E+06    -6.58562E+06    -48.3551E+06    -22.8069E+06    -18.2359E+06    -6.58562E+06    -27.7033E+06         43.0151
             219     819.583E-06     177.507E-03     771.966E-03    -597.614E-03    -671.063E-03    -590.957E-03     765.309E-03    -671.063E-03     190.490E-03     322.533E-03    -159.426E-03    -163.098E-03    -161.432E-03     320.867E-03    -159.426E-03    -52.6277E-03    -2.78333E+06    -13.1543E+06    -40.3946E+06    -19.9643E+06    -23.2136E+06    -13.1543E+06    -17.7409E+06         42.2705
             220    -1.42303E-06     176.123E-03         1.12063    -692.667E-03    -775.440E-03    -702.776E-03         1.11134    -756.036E-03     260.291E-03     256.638E-03    -127.117E-03    -129.483E-03    -128.839E-03     256.306E-03    -127.431E-03    -22.3926E-03    -38.3411E+06    -61.5895E+06    -76.6984E+06    -63.7278E+06    -51.3117E+06    -61.5895E+06    -13.9402E+06         40.9716
             221     644.555E-09     174.909E-03         1.90931    -963.238E-03    -999.492E-03    -976.380E-03         1.90305    -980.088E-03     160.973E-03     157.201E-03    -78.3190E-03    -78.8846E-03    -78.2338E-03     157.116E-03    -78.8846E-03    -7.76676E-03    -108.187E+06    -167.155E+06    -174.653E+06    -168.979E+06    -113.861E+06    -167.155E+06    -18.1934E+06         39.2371
             222    -1.31062E-06     173.776E-03         2.71090        -1.31599        -1.39043        -1.31298         2.70788        -1.39043     156.004E-03     101.963E-03    -50.7966E-03    -51.1731E-03    -50.8760E-03     101.918E-03    -51.0486E-03     2.49609E-03    -183.108E+06    -285.033E+06    -287.549E+06    -284.471E+06    -186.186E+06    -285.033E+06    -15.9883E+06         38.0924
             223     1.31358E-06     172.698E-03         3.48786        -1.70887        -1.79555        -1.73323         3.48313        -1.76646     308.457E-03     81.4900E-03    -40.5343E-03    -40.9571E-03    -40.7385E-03     81.2715E-03    -40.5343E-03     9.75103E-03    -242.816E+06    -381.847E+06    -386.936E+06    -385.069E+06    -244.682E+06    -381.847E+06    -16.1974E+06         37.5173
             224    -892.150E-09     171.614E-03         3.95036        -1.94354        -2.03001        -2.02790         3.94826        -1.94354     209.877E-03     92.8131E-03    -46.1404E-03    -46.6737E-03    -46.2295E-03     92.3689E-03    -46.1404E-03     15.7084E-03    -263.784E+06    -387.252E+06    -394.738E+06    -387.707E+06    -267.751E+06    -390.316E+06     1.10640E+06         37.5778
             225     1.42492E-06     170.507E-03         4.18938        -2.08836        -2.17052        -2.17009         4.18895        -2.08836     41.3227E-03     135.028E-03    -67.1261E-03    -67.9116E-03    -67.3980E-03     134.515E-03    -67.1261E-03     20.2188E-03    -195.025E+06    -245.190E+06    -275.468E+06    -243.231E+06    -224.197E+06    -248.253E+06     20.8278E+06         38.2239
             226     452.011E-09     169.337E-03         4.42778        -2.24593        -2.32251        -2.32202         4.42729        -2.24593     50.8679E-03     197.403E-03    -98.3358E-03    -99.0769E-03    -98.4679E-03     196.985E-03    -98.5265E-03     21.9258E-03    -114.707E+06    -118.439E+06    -168.818E+06    -119.318E+06    -165.075E+06    -117.572E+06     11.3962E+06         39.5575
             227     330.550E-09     168.079E-03         4.50560        -2.27819        -2.42037        -2.41963         4.50486        -2.27819     13.4178E-03     261.793E-03    -130.592E-03    -131.200E-03    -130.307E-03     261.508E-03    -131.200E-03     20.8469E-03    -73.8604E+06    -78.0308E+06    -150.834E+06    -75.3100E+06    -150.252E+06    -77.1638E+06    -3.38584E+06         42.0139
             228    -199.388E-09     166.742E-03         4.41741        -2.28369        -2.39301        -2.37376         4.41710        -2.30264    -72.2579E-03     317.744E-03    -158.060E-03    -159.691E-03    -159.081E-03     317.551E-03    -158.478E-03     19.0534E-03    -58.3217E+06    -63.0071E+06    -168.226E+06    -60.1763E+06    -167.754E+06    -61.6251E+06    -4.92847E+06         45.6381
             229     2.98008E-06     165.336E-03         4.19202        -2.22962        -2.26397        -2.24500         4.19201        -2.24858     915.164E-06     365.438E-03    -181.817E-03    -183.630E-03    -183.470E-03     365.278E-03    -181.817E-03     18.6998E-03    -68.0510E+06    -69.7175E+06    -191.657E+06    -70.0167E+06    -191.358E+06    -68.0510E+06    -4.39432E+06         49.6336
             230    -1.27949E-06     163.860E-03         3.44702        -1.88948        -1.91281        -1.91128         3.44548        -1.88948    -108.565E-03     406.405E-03    -202.254E-03    -204.167E-03    -204.059E-03     406.296E-03    -202.254E-03     15.7510E-03    -75.9243E+06    -78.2128E+06    -215.119E+06    -76.5244E+06    -214.803E+06    -77.9283E+06    -3.35066E+06         53.1819
             231     3.66873E-06     162.338E-03         2.65197        -1.50689        -1.55260        -1.55105         2.65042        -1.50689    -103.873E-03     437.947E-03    -217.123E-03    -220.850E-03    -220.790E-03     437.887E-03    -217.123E-03     12.5366E-03    -89.6237E+06    -92.4042E+06    -227.014E+06    -90.4176E+06    -226.996E+06    -91.6277E+06     854.997E+03         55.9505
             232     463.280E-09     160.765E-03         1.97468        -1.15255        -1.22186        -1.18532         1.96967        -1.18408    -141.905E-03     459.205E-03    -227.708E-03    -231.551E-03    -231.510E-03     459.164E-03    -227.708E-03     10.3579E-03    -103.877E+06    -108.898E+06    -238.408E+06    -104.663E+06    -238.399E+06    -108.121E+06    -992.975E+03         57.8958
             233     1.79682E-06     159.172E-03     802.921E-03    -560.712E-03    -631.924E-03    -551.913E-03     754.444E-03    -592.246E-03     2.47692E-03     472.639E-03    -234.870E-03    -237.873E-03    -237.855E-03     472.622E-03    -234.870E-03     6.93305E-03    -120.130E+06    -128.643E+06    -256.886E+06    -124.460E+06    -256.825E+06    -124.374E+06    -2.57378E+06         59.1614
             234     742.810E-09     157.555E-03     216.392E-03     33.2814E-03    -639.646E-03     33.9828E-03    -493.316E-03     69.3613E-03     246.482E-03     481.009E-03    -239.264E-03    -241.992E-03    -240.826E-03     480.998E-03    -240.419E-03     5.70571E-03    -136.764E+06    -145.665E+06    -276.694E+06    -141.162E+06    -276.565E+06    -141.395E+06    -4.17306E+06         59.9563
             235    -2.66525E-06     155.938E-03     586.542E-03     514.505E-03        -1.50554     508.074E-03        -1.49911     586.542E-03     224.063E-03     486.923E-03    -242.935E-03    -244.094E-03    -242.935E-03     486.918E-03    -244.089E-03     2.42380E-03    -151.364E+06    -160.617E+06    -298.405E+06    -156.100E+06    -298.290E+06    -155.996E+06    -3.99124E+06         60.4251
             236     2.70227E-06     154.314E-03         1.05728     977.726E-03        -2.44970         1.01544        -2.44382         1.01368     281.706E-03     491.571E-03    -243.732E-03    -247.473E-03    -247.473E-03     491.571E-03    -243.732E-03    -459.516E-06    -151.564E+06    -161.280E+06    -317.772E+06    -156.235E+06    -317.722E+06    -156.659E+06    -2.65843E+06         60.7692
             237     3.61795E-06     152.678E-03         1.61207         1.54688        -3.56492         1.60697        -3.55983         1.54688     323.050E-03     495.724E-03    -245.709E-03    -249.805E-03    -249.440E-03     495.719E-03    -246.069E-03     2.73677E-03    -150.913E+06    -160.440E+06    -331.896E+06    -155.389E+06    -331.852E+06    -156.008E+06    -2.68801E+06         61.1319
             238    -4.21795E-06     151.033E-03         2.09196         2.05352        -4.56157         2.08743        -4.55704         2.05352     345.626E-03     498.986E-03    -248.858E-03    -250.172E-03    -248.850E-03     498.978E-03    -250.172E-03     786.305E-06    -165.503E+06    -170.109E+06    -345.351E+06    -170.148E+06    -345.312E+06    -165.503E+06    -2.40242E+06         61.4464
             239     2.26382E-06     149.386E-03         2.42389         2.36852        -5.20815         2.42035        -5.20461         2.36852     327.224E-03     502.128E-03    -249.300E-03    -252.572E-03    -251.615E-03     502.125E-03    -250.255E-03    -1.51491E-03    -154.680E+06    -159.392E+06    -348.160E+06    -154.860E+06    -348.154E+06    -159.219E+06    -899.908E+03         61.6774
             240     1.24929E-06     147.734E-03         2.67984         2.63940        -5.75094         2.67362        -5.74472         2.63940     443.836E-03     505.596E-03    -250.960E-03    -254.373E-03    -254.373E-03     505.596E-03    -250.960E-03    -170.320E-06    -143.197E+06    -151.300E+06    -346.776E+06    -146.761E+06    -346.776E+06    -147.736E+06    -294.262E+03         61.8553
             241     359.199E-09     146.070E-03         2.73563         2.69820        -5.87558         2.72994        -5.86990         2.69820     416.289E-03     507.245E-03    -252.360E-03    -254.864E-03    -254.864E-03     507.245E-03    -252.360E-03    -830.588E-06    -137.947E+06    -145.760E+06    -341.262E+06    -141.553E+06    -341.219E+06    -142.196E+06     1.95187E+06         61.9793
             242     1.85705E-06     144.416E-03         2.70808         2.67154        -5.84566         2.70650        -5.84408         2.67154     230.068E-03     508.842E-03    -253.409E-03    -255.383E-03    -255.383E-03     508.842E-03    -253.409E-03    -171.391E-06    -129.114E+06    -137.388E+06    -326.106E+06    -133.187E+06    -326.057E+06    -133.364E+06     1.30256E+06         62.0601
             243    -801.882E-09     142.757E-03         2.60492         2.59909        -5.69130         2.60138        -5.68777         2.59909     316.785E-03     509.846E-03    -254.337E-03    -255.416E-03    -255.414E-03     509.845E-03    -254.337E-03    -1.60902E-03    -125.114E+06    -134.026E+06    -316.442E+06    -129.181E+06    -316.399E+06    -130.002E+06     1.10243E+06         62.1160
             244     1.62033E-06     141.093E-03         2.41402         2.29874        -5.19737         2.29647        -5.19031         2.40922     457.364E-03     508.841E-03    -254.042E-03    -254.749E-03    -254.747E-03     508.839E-03    -254.042E-03    -1.11645E-03    -124.738E+06    -134.552E+06    -306.849E+06    -129.718E+06    -306.794E+06    -129.626E+06     3.08250E+06         62.1383
             245    -1.15726E-06     139.432E-03         2.14883         1.96952        -4.58863         1.96113        -4.58025         2.14883     468.131E-03     509.020E-03    -254.053E-03    -254.849E-03    -254.848E-03     509.019E-03    -254.053E-03    -914.489E-06    -121.233E+06    -130.554E+06    -291.702E+06    -126.204E+06    -291.657E+06    -125.628E+06     2.71472E+06         62.1490
             246     2.17406E-06     137.772E-03         1.73431         1.61060        -3.83507         1.59991        -3.82438         1.73431     475.833E-03     509.477E-03    -253.800E-03    -255.544E-03    -255.543E-03     509.475E-03    -253.800E-03    -2.08186E-03    -119.783E+06    -128.252E+06    -281.573E+06    -123.885E+06    -281.545E+06    -124.178E+06     1.28356E+06         62.1796
             247    -421.798E-09     136.108E-03         1.21881         1.14362        -2.87752         1.13242        -2.86633         1.21881     423.642E-03     510.184E-03    -253.834E-03    -256.312E-03    -254.976E-03     510.184E-03    -255.170E-03    -524.509E-06    -125.005E+06    -133.762E+06    -273.486E+06    -129.104E+06    -273.460E+06    -129.688E+06     1.11223E+06         62.2454
             248    -1.40351E-06     134.442E-03     741.686E-03     622.685E-03        -1.89915     695.005E-03        -1.87279     643.008E-03     465.770E-03     510.953E-03    -254.589E-03    -256.328E-03    -254.988E-03     510.950E-03    -255.925E-03    -2.19238E-03    -118.488E+06    -128.232E+06    -256.951E+06    -123.599E+06    -256.900E+06    -123.171E+06     2.59468E+06         62.3473
             249     2.19978E-06     132.774E-03     421.039E-03     127.526E-03        -1.09581     309.311E-03    -984.082E-03     127.526E-03     684.830E-03     510.097E-03    -254.258E-03    -255.738E-03    -255.734E-03     510.093E-03    -254.258E-03    -1.93981E-03    -120.158E+06    -129.255E+06    -257.449E+06    -125.456E+06    -257.212E+06    -124.195E+06    -2.61078E+06         62.4212
             250    -387.861E-09     131.115E-03     475.372E-03    -328.564E-03    -684.735E-03    -185.728E-03     4.14869E-03    -356.347E-03     690.355E-03     510.506E-03    -254.576E-03    -255.879E-03    -255.879E-03     510.506E-03    -254.576E-03    -501.377E-06    -124.481E+06    -129.977E+06    -262.199E+06    -126.581E+06    -261.558E+06    -128.518E+06     1.42581E+06         62.4522
             251     773.499E-09     129.443E-03         1.06832    -727.050E-03    -887.704E-03    -667.439E-03         1.00871    -887.704E-03     611.385E-03     510.747E-03    -255.099E-03    -255.702E-03    -255.325E-03     510.746E-03    -255.475E-03    -1.58135E-03    -121.998E+06    -125.480E+06    -250.428E+06    -126.075E+06    -249.833E+06    -121.998E+06     2.15593E+06         62.4898
             252    -964.002E-09     127.784E-03         1.90755        -1.15148        -1.32373        -1.13094         1.84762        -1.28435     853.124E-03     511.012E-03    -255.073E-03    -255.995E-03    -255.073E-03     511.011E-03    -255.995E-03    -1.13888E-03    -125.780E+06    -131.299E+06    -252.644E+06    -128.005E+06    -252.442E+06    -129.277E+06    -1.59017E+06         62.5388
             253     207.588E-09     126.113E-03         2.62769        -1.56509        -1.64885        -1.59732         2.57616        -1.56509     887.478E-03     511.619E-03    -254.622E-03    -257.010E-03    -256.460E-03     511.614E-03    -255.167E-03    -3.07099E-03    -119.807E+06    -124.383E+06    -246.666E+06    -120.936E+06    -246.615E+06    -123.304E+06     2.45627E+06         62.5891
             254     2.62778E-06     124.449E-03         2.98597        -1.76408        -1.81934        -1.78443         2.96194        -1.77496     676.260E-03     510.112E-03    -253.424E-03    -256.584E-03    -256.580E-03     510.108E-03    -253.424E-03    -2.81996E-03    -121.815E+06    -123.768E+06    -239.606E+06    -123.812E+06    -239.562E+06    -121.815E+06    -376.344E+03         62.6360
             255    -294.819E-09     122.788E-03         3.20463        -1.87798        -1.93727        -1.90808         3.18632        -1.88886     606.978E-03     510.726E-03    -253.988E-03    -256.710E-03    -256.710E-03     510.725E-03    -253.988E-03    -882.249E-06    -123.536E+06    -127.957E+06    -236.895E+06    -124.477E+06    -236.829E+06    -127.082E+06     148.622E+03         62.6783
             256     2.13821E-06     121.115E-03         3.34539        -1.94392        -2.01548        -2.00735         3.33726        -1.94392     372.953E-03     512.664E-03    -255.148E-03    -257.634E-03    -257.633E-03     512.663E-03    -255.148E-03    -1.46428E-03    -119.294E+06    -125.958E+06    -228.330E+06    -122.457E+06    -228.284E+06    -122.840E+06     2.10894E+06         62.6826
             257    -288.846E-09     119.447E-03         3.00866        -1.79219        -1.84126        -1.80027         2.99358        -1.81810     442.121E-03     511.355E-03    -255.020E-03    -256.339E-03    -256.098E-03     511.352E-03    -255.257E-03    -2.62089E-03    -112.922E+06    -118.942E+06    -219.819E+06    -116.073E+06    -219.786E+06    -115.824E+06     1.81766E+06         62.6373
             258     60.3610E-09     117.782E-03         2.42637        -1.47955        -1.56247        -1.52005         2.40986        -1.50546     476.784E-03     509.788E-03    -253.803E-03    -255.976E-03    -255.736E-03     509.786E-03    -254.040E-03    -2.57437E-03    -114.927E+06    -122.591E+06    -220.101E+06    -119.838E+06    -219.952E+06    -117.829E+06    -1.24308E+06         62.6095
             259     2.91637E-06     116.118E-03         2.00475        -1.21941        -1.38791        -1.26796         1.99629        -1.33090     318.273E-03     511.186E-03    -253.830E-03    -257.301E-03    -257.301E-03     511.185E-03    -253.830E-03    -334.410E-06    -113.183E+06    -126.070E+06    -218.220E+06    -118.381E+06    -217.784E+06    -121.308E+06     1.72168E+06         62.6231
             260    -947.273E-09     114.448E-03         1.35952    -914.005E-03        -1.04499    -922.127E-03         1.34815        -1.02550     320.501E-03     511.891E-03    -255.067E-03    -256.759E-03    -256.601E-03     511.889E-03    -255.223E-03    -1.37687E-03    -107.236E+06    -123.614E+06    -208.232E+06    -115.863E+06    -207.858E+06    -115.361E+06     2.56507E+06         62.6402
             261     893.677E-09     112.780E-03     354.112E-03    -452.621E-03    -496.046E-03    -461.229E-03     343.228E-03    -476.555E-03     143.589E-03     511.306E-03    -255.401E-03    -255.884E-03    -255.725E-03     511.303E-03    -255.557E-03    -1.54129E-03    -106.597E+06    -123.023E+06    -204.817E+06    -114.917E+06    -204.750E+06    -114.770E+06    -1.05069E+06         62.6414
             262    -504.131E-09     111.113E-03     83.1188E-03     57.5881E-03    -723.098E-03     67.5743E-03    -683.620E-03     33.6544E-03    -117.104E-03     511.039E-03    -254.947E-03    -255.995E-03    -255.992E-03     511.036E-03    -254.947E-03    -2.11518E-03    -108.071E+06    -123.786E+06    -205.801E+06    -115.632E+06    -205.781E+06    -116.245E+06    -271.554E+03         62.6366
             263     1.80109E-06     109.448E-03     565.438E-03     544.846E-03        -1.68680     544.779E-03        -1.67677     555.470E-03    -291.156E-03     510.626E-03    -254.807E-03    -255.751E-03    -255.525E-03     510.623E-03    -255.029E-03    -1.81892E-03    -109.938E+06    -125.299E+06    -206.480E+06    -117.523E+06    -206.437E+06    -117.758E+06     423.868E+03         62.6312
             264    -2.17895E-06     107.781E-03         1.04658     899.388E-03        -2.53184         1.02861        -2.52450     910.012E-03    -318.519E-03     511.133E-03    -255.217E-03    -255.983E-03    -255.755E-03     511.128E-03    -255.439E-03    -2.19415E-03    -104.868E+06    -122.100E+06    -201.094E+06    -114.324E+06    -201.051E+06    -112.688E+06     443.976E+03         62.6173
             265     3.11884E-06     106.114E-03         1.52851         1.35831        -3.48165         1.49037        -3.47714         1.39195    -289.511E-03     511.081E-03    -253.418E-03    -257.627E-03    -257.622E-03     511.075E-03    -253.418E-03    -3.41909E-03    -104.591E+06    -124.374E+06    -202.334E+06    -114.019E+06    -202.318E+06    -114.962E+06    -856.301E+03         62.5938
             266     2.54082E-06     104.445E-03         1.99682         1.80698        -4.40281         1.96146        -4.40109         1.84061    -189.713E-03     511.201E-03    -253.315E-03    -257.794E-03    -256.979E-03     511.199E-03    -254.129E-03     555.985E-06    -104.246E+06    -123.299E+06    -201.140E+06    -113.032E+06    -201.036E+06    -114.617E+06     1.82634E+06         62.5819
             267    -3.91316E-06     102.777E-03         2.32560         2.07262        -4.99956         2.32396        -4.99792         2.07262     86.0651E-03     510.701E-03    -254.140E-03    -256.625E-03    -254.131E-03     510.692E-03    -256.625E-03    -2.28509E-03    -108.428E+06    -122.425E+06    -199.326E+06    -117.282E+06    -199.153E+06    -113.743E+06     161.765E+03         62.5937
             268     1.39206E-06     101.116E-03         2.63436         2.39054        -5.62403         2.63250        -5.62217         2.39054     237.439E-03     510.465E-03    -253.658E-03    -256.892E-03    -255.212E-03     510.457E-03    -255.330E-03    -2.92686E-03    -108.679E+06    -116.644E+06    -198.016E+06    -111.510E+06    -197.836E+06    -113.994E+06     353.027E+03         62.6075
             269     905.392E-09     99.4451E-03         2.79358         2.54773        -5.94370         2.79168        -5.94181         2.54773     248.189E-03     511.615E-03    -254.502E-03    -257.194E-03    -257.192E-03     511.613E-03    -254.502E-03    -1.16880E-03    -105.727E+06    -110.314E+06    -191.607E+06    -108.539E+06    -191.446E+06    -107.663E+06     676.320E+03         62.6077
             270     938.244E-09     97.7771E-03         2.65973         2.48757        -5.75050         2.64955        -5.74032         2.48757     534.654E-03     511.653E-03    -254.881E-03    -256.800E-03    -256.798E-03     511.651E-03    -254.881E-03    -1.38059E-03    -109.438E+06    -113.479E+06    -191.741E+06    -111.606E+06    -191.678E+06    -111.374E+06    -734.180E+03         62.5871
             271     385.490E-09     96.1118E-03         2.63121         2.49873        -5.74002         2.56077        -5.72870         2.55785     586.075E-03     512.618E-03    -254.582E-03    -258.037E-03    -258.033E-03     512.614E-03    -254.582E-03    -2.04371E-03    -112.041E+06    -117.915E+06    -196.097E+06    -114.174E+06    -196.069E+06    -115.810E+06    -84.3281E+03         62.5440
             272     3.39055E-06     94.4381E-03         2.60823         2.43542        -5.67416         2.42894        -5.66769         2.60823     454.472E-03     512.727E-03    -254.254E-03    -258.492E-03    -258.488E-03     512.724E-03    -254.254E-03    -1.89990E-03    -109.381E+06    -114.248E+06    -193.989E+06    -110.618E+06    -193.850E+06    -113.150E+06     1.40204E+06         62.4860
             273    -1.01285E-06     92.7677E-03         2.29564         2.09231        -5.00325         2.08455        -4.99550         2.29564     468.493E-03     509.987E-03    -253.321E-03    -256.582E-03    -254.889E-03     509.985E-03    -255.011E-03    -1.40732E-03    -108.396E+06    -111.171E+06    -188.340E+06    -111.412E+06    -188.098E+06    -108.396E+06     99.8852E+03         62.4309
             274     13.1802E-03     91.4417E-03         1.42448     528.749E-03        -2.55563     528.542E-03        -2.55542         1.42448    -45.2066E-03     530.847E-03    -254.730E-03    -274.961E-03    -258.323E-03     514.209E-03    -254.730E-03     213.571E-03     59.5745E+06     17.8730E+06    -3.93790E+06    -3.82252E+06     17.7576E+06     59.5745E+06    -49.5688E+03         81.8431
             275     12.4040E-03     90.9589E-03         1.42273     630.540E-03        -2.64985     630.287E-03        -2.64959         1.42273    -51.8248E-03     531.022E-03    -254.906E-03    -275.292E-03    -255.899E-03     511.629E-03    -254.906E-03     241.025E-03     55.4790E+06     15.1269E+06    -7.89073E+06    -7.83934E+06     15.0755E+06     55.4790E+06     25.8485E+03         79.1262
             276     11.6239E-03     90.7428E-03         1.41958     719.797E-03        -2.73283     719.558E-03        -2.73259         1.41958    -44.0969E-03     518.418E-03    -254.198E-03    -263.425E-03    -250.442E-03     505.435E-03    -254.198E-03     199.002E-03     51.4228E+06     11.0167E+06    -11.8983E+06    -11.8848E+06     11.0033E+06     51.4228E+06     59.3467E+03         76.6447
             277     10.8491E-03     90.4048E-03         1.41385     805.942E-03        -2.81112     805.811E-03        -2.81099         1.41385    -26.3043E-03     517.490E-03    -254.520E-03    -262.246E-03    -249.477E-03     504.721E-03    -254.520E-03     196.928E-03     48.2479E+06     8.10360E+06    -15.3752E+06    -15.3522E+06     8.08063E+06     48.2479E+06    -135.253E+03         74.8553
             278     10.0786E-03     90.1581E-03         1.40477     898.975E-03        -2.89492     898.896E-03        -2.89484         1.40477    -21.6440E-03     512.731E-03    -254.844E-03    -258.448E-03    -248.667E-03     502.950E-03    -254.844E-03     172.535E-03     47.1182E+06     4.39456E+06    -19.7202E+06    -19.6926E+06     4.36693E+06     47.1182E+06     146.026E+03         73.6303
             279     9.30984E-03     89.9377E-03         1.39779     980.796E-03        -2.96874     980.743E-03        -2.96869         1.39779     3.28560E-03     510.166E-03    -254.002E-03    -255.997E-03    -247.088E-03     501.684E-03    -254.429E-03     160.013E-03     45.5345E+06    -561.833E+03    -26.0441E+06    -26.0137E+06    -592.283E+03     45.5345E+06     430.960E+03         72.7166
             280     8.52597E-03     89.7658E-03         1.39233         1.03833        -3.01822         1.03826        -3.01816         1.39233     19.2606E-03     507.399E-03    -252.598E-03    -254.353E-03    -245.899E-03     500.700E-03    -254.353E-03     141.695E-03     41.3990E+06    -6.40034E+06    -32.2147E+06    -32.1774E+06    -6.43763E+06     41.3990E+06     610.301E+03         71.8860
             281     7.75190E-03     89.5967E-03         1.38860         1.09664        -3.06941         1.09637        -3.06914         1.38860     27.8856E-03     505.262E-03    -250.723E-03    -254.615E-03    -245.889E-03     500.427E-03    -254.615E-03     119.919E-03     33.2301E+06    -14.1175E+06    -39.2377E+06    -39.2167E+06    -14.1386E+06     33.2301E+06     637.596E+03         70.8571
             282     6.97690E-03     89.4849E-03         1.38889         1.16622        -3.13667         1.16598        -3.13642         1.38889     25.3021E-03     504.021E-03    -250.021E-03    -255.136E-03    -247.012E-03     501.012E-03    -255.136E-03     94.0591E-03     22.5993E+06    -22.8714E+06    -47.1481E+06    -47.1171E+06    -22.9024E+06     22.5993E+06     685.278E+03         69.5602
             283     6.19844E-03     89.4218E-03         1.39477         1.22406        -3.20044         1.22389        -3.20028         1.39477     34.8024E-03     505.111E-03    -250.968E-03    -255.437E-03    -249.317E-03     503.460E-03    -255.437E-03     69.7262E-03     12.6906E+06    -31.7317E+06    -55.5659E+06    -55.4769E+06    -31.8206E+06     12.6906E+06     916.812E+03         68.1863
             284     5.42356E-03     89.3825E-03         1.40605         1.25425        -3.24292         1.25400        -3.24267         1.40605     52.2004E-03     506.731E-03    -251.428E-03    -255.678E-03    -250.585E-03     505.888E-03    -255.678E-03     49.6270E-03     2.07220E+06    -41.0209E+06    -64.5180E+06    -64.4411E+06    -41.0978E+06     2.07220E+06     858.450E+03         66.8857
             285     4.64765E-03     89.3626E-03         1.42416         1.27797        -3.28592         1.27774        -3.28569         1.42416     54.4706E-03     507.903E-03    -252.254E-03    -255.818E-03    -251.889E-03     507.537E-03    -255.818E-03     32.3403E-03    -13.0593E+06    -52.5619E+06    -74.6893E+06    -74.6547E+06    -52.5965E+06    -13.0593E+06     606.513E+03         65.7101
             286     3.87216E-03     89.3641E-03         1.44834         1.32346        -3.35541         1.32320        -3.35515         1.44834     19.0048E-03     508.959E-03    -253.571E-03    -255.690E-03    -253.441E-03     508.828E-03    -255.690E-03     19.1701E-03    -33.1939E+06    -65.4573E+06    -83.9969E+06    -83.9550E+06    -65.4992E+06    -33.1939E+06     566.117E+03         64.7259
             287     3.09970E-03     89.3724E-03         1.47436         1.38550        -3.44515         1.38526        -3.44491         1.47436    -35.3609E-03     509.314E-03    -253.954E-03    -255.463E-03    -253.918E-03     509.278E-03    -255.463E-03     9.45383E-03    -58.0989E+06    -84.7375E+06    -96.9306E+06    -92.9427E+06    -88.7253E+06    -58.0989E+06     330.661E+03         63.9650
             288     2.32466E-03     89.3881E-03         1.51907         1.43023        -3.53896         1.45217        -3.53883         1.49700    -24.5244E-03     509.447E-03    -254.311E-03    -255.289E-03    -254.368E-03     509.443E-03    -255.227E-03     2.68312E-03    -81.8538E+06    -101.894E+06    -124.441E+06    -102.118E+06    -124.217E+06    -81.8538E+06    -58.6362E+03         63.3521
             289     1.54923E-03     89.4125E-03         1.55577         1.45555        -3.60906         1.49870        -3.60890         1.51245    -26.1445E-03     509.927E-03    -254.796E-03    -255.377E-03    -254.856E-03     509.925E-03    -255.315E-03    -282.142E-06    -98.4192E+06    -107.950E+06    -156.514E+06    -107.974E+06    -156.490E+06    -98.4192E+06     595.691E+03         62.8746
             290     773.402E-06     89.4341E-03         1.61050         1.42963        -3.64596         1.49140        -3.64574         1.54852    -20.8474E-03     510.516E-03    -254.154E-03    -256.392E-03    -256.167E-03     510.514E-03    -254.377E-03    -1.30063E-03    -107.046E+06    -111.088E+06    -181.659E+06    -109.491E+06    -181.626E+06    -108.675E+06     1.31095E+06         62.5765
             291     13.1834E-03     89.7750E-03         1.16096     490.678E-03        -2.23996     490.563E-03        -2.23985         1.16096    -15.2225E-03     530.795E-03    -254.708E-03    -274.901E-03    -258.175E-03     514.069E-03    -254.708E-03     214.123E-03     59.3954E+06     17.5420E+06    -3.93245E+06    -3.89225E+06     17.5018E+06     59.3954E+06     104.080E+03         81.8425
             292     12.4048E-03     89.3108E-03         1.13602     565.091E-03        -2.28824     564.823E-03        -2.28798         1.13602     17.2974E-03     531.264E-03    -254.882E-03    -275.567E-03    -256.204E-03     511.901E-03    -254.882E-03     240.608E-03     55.1614E+06     14.9844E+06    -7.62816E+06    -7.60419E+06     14.9604E+06     55.1614E+06     91.7033E+03         79.1417
             293     11.6227E-03     89.0743E-03         1.10943     618.934E-03        -2.31375     618.652E-03        -2.31347         1.10943     26.3630E-03     519.033E-03    -254.137E-03    -263.743E-03    -251.131E-03     506.421E-03    -254.137E-03     196.386E-03     52.1102E+06     11.7302E+06    -10.9437E+06    -10.9294E+06     11.7160E+06     52.1102E+06    -193.041E+03         76.6675
             294     10.8532E-03     88.7550E-03         1.08185     664.615E-03        -2.32899     664.576E-03        -2.32896         1.08185     16.5813E-03     517.745E-03    -254.388E-03    -262.259E-03    -249.737E-03     505.223E-03    -254.388E-03     195.281E-03     48.2941E+06     7.64727E+06    -15.8062E+06    -15.7912E+06     7.63223E+06     48.2941E+06    -202.981E+03         74.8669
             295     10.0826E-03     88.4967E-03         1.05318     690.930E-03        -2.32349     690.922E-03        -2.32348         1.05318     8.62567E-03     511.213E-03    -254.529E-03    -257.361E-03    -247.133E-03     501.218E-03    -254.762E-03     174.089E-03     46.6937E+06     3.44385E+06    -20.9916E+06    -20.9738E+06     3.42603E+06     46.6937E+06    -190.467E+03         73.6130
             296     9.30366E-03     88.2654E-03         1.02974     713.871E-03        -2.32248     713.833E-03        -2.32244         1.02974     18.7861E-03     509.111E-03    -253.693E-03    -255.275E-03    -245.607E-03     500.221E-03    -254.471E-03     163.615E-03     45.2479E+06    -572.130E+03    -26.0609E+06    -26.0276E+06    -605.442E+03     45.2479E+06     626.719E+03         72.6801
             297     8.52630E-03     88.0926E-03         1.00978     768.231E-03        -2.35512     768.164E-03        -2.35505         1.00978     22.0115E-03     507.286E-03    -252.134E-03    -254.493E-03    -245.291E-03     500.443E-03    -254.493E-03     142.993E-03     40.4560E+06    -6.68867E+06    -32.2144E+06    -32.1627E+06    -6.74031E+06     40.4560E+06     1.11379E+06         71.8644
             298     7.74915E-03     87.9384E-03     991.035E-03     829.168E-03        -2.39449     828.877E-03        -2.39420     991.035E-03     26.3442E-03     505.787E-03    -251.019E-03    -254.869E-03    -246.281E-03     501.048E-03    -254.869E-03     118.789E-03     31.9936E+06    -14.7161E+06    -39.5508E+06    -39.5172E+06    -14.7497E+06     31.9936E+06     859.880E+03         70.8615
             299     6.97371E-03     87.8198E-03     975.874E-03     858.132E-03        -2.40687     857.857E-03        -2.40659     975.874E-03     28.6753E-03     505.356E-03    -251.152E-03    -255.319E-03    -248.191E-03     502.396E-03    -255.319E-03     93.4613E-03     22.0752E+06    -23.3146E+06    -47.4986E+06    -47.4766E+06    -23.3366E+06     22.0752E+06     600.524E+03         69.5814
             300     6.19939E-03     87.7465E-03     969.668E-03     856.421E-03        -2.39814     856.224E-03        -2.39795     969.668E-03     43.5521E-03     505.565E-03    -251.398E-03    -255.432E-03    -249.767E-03     503.934E-03    -255.432E-03     69.3691E-03     14.0756E+06    -30.9160E+06    -55.0472E+06    -54.9566E+06    -31.0065E+06     14.0756E+06     672.701E+03         68.2139
             301     5.42399E-03     87.7034E-03     973.918E-03     852.391E-03        -2.39936     852.113E-03        -2.39908     973.918E-03     46.9332E-03     506.600E-03    -251.561E-03    -255.607E-03    -250.722E-03     505.762E-03    -255.607E-03     49.5224E-03     3.20171E+06    -40.4343E+06    -63.8656E+06    -63.7819E+06    -40.5179E+06     3.20171E+06     635.467E+03         66.9106
             302     4.64999E-03     87.6884E-03     986.934E-03     871.960E-03        -2.43236     871.740E-03        -2.43214     986.934E-03     36.9492E-03     507.873E-03    -252.381E-03    -255.713E-03    -252.011E-03     507.503E-03    -255.713E-03     32.6163E-03    -12.3626E+06    -51.4865E+06    -73.0606E+06    -73.0483E+06    -51.4988E+06    -12.3626E+06     349.684E+03         65.7305
             303     3.87597E-03     87.6867E-03         1.00584     911.197E-03        -2.49049     910.765E-03        -2.49006         1.00584     25.3878E-03     508.635E-03    -253.365E-03    -255.561E-03    -253.235E-03     508.505E-03    -255.561E-03     18.8012E-03    -33.1375E+06    -65.1100E+06    -82.9167E+06    -82.9105E+06    -65.1162E+06    -33.1375E+06     154.320E+03         64.7437
             304     3.09965E-03     87.7046E-03         1.02957     945.709E-03        -2.54979     945.311E-03        -2.54939         1.02957     19.9506E-03     508.965E-03    -253.631E-03    -255.415E-03    -253.600E-03     508.934E-03    -255.415E-03     8.93226E-03    -57.1519E+06    -85.1417E+06    -97.3758E+06    -92.9418E+06    -89.5757E+06    -57.1519E+06     744.931E+03         63.9810
             305     2.32447E-03     87.7261E-03         1.05967     978.381E-03        -2.61788     978.231E-03        -2.61773         1.05967     35.5693E-03     509.293E-03    -254.147E-03    -255.328E-03    -254.142E-03     509.288E-03    -255.328E-03     2.40903E-03    -79.1967E+06    -100.314E+06    -123.192E+06    -100.464E+06    -123.042E+06    -79.1967E+06     1.07078E+06         63.3679
             306     1.54936E-03     87.7491E-03         1.11091         1.03014        -2.72809         1.05116        -2.72788         1.08967     330.460E-06     510.157E-03    -254.904E-03    -255.509E-03    -254.934E-03     510.156E-03    -255.477E-03    -1.71401E-03    -96.8863E+06    -107.023E+06    -156.234E+06    -107.057E+06    -156.200E+06    -96.8863E+06     333.281E+03         62.8943
             307     775.486E-06     87.7664E-03         1.14782         1.06455        -2.80557         1.12592        -2.80405         1.08493     36.9098E-03     510.834E-03    -254.635E-03    -256.239E-03    -255.866E-03     510.833E-03    -255.005E-03    -2.12200E-03    -106.689E+06    -111.940E+06    -180.593E+06    -110.905E+06    -180.586E+06    -107.731E+06    -59.3221E+03         62.6034
             308     13.1781E-03     88.1207E-03     859.326E-03     458.749E-03        -1.90995     458.643E-03        -1.90984     859.326E-03     18.8239E-03     531.459E-03    -254.746E-03    -275.576E-03    -258.854E-03     514.737E-03    -254.746E-03     214.744E-03     59.3148E+06     17.6583E+06    -3.47802E+06    -3.46838E+06     17.6486E+06     59.3148E+06     141.203E+03         81.8631
             309     12.4038E-03     87.6457E-03     812.241E-03     490.944E-03        -1.88902     490.674E-03        -1.88875     812.241E-03     41.7223E-03     532.609E-03    -254.871E-03    -277.061E-03    -257.781E-03     513.329E-03    -254.871E-03     240.530E-03     55.8432E+06     15.5849E+06    -7.01126E+06    -6.99937E+06     15.5730E+06     55.8432E+06    -33.7446E+03         79.1738
             310     11.6309E-03     87.4007E-03     763.904E-03     514.207E-03        -1.85546     513.687E-03        -1.85494     763.904E-03     19.5521E-03     519.152E-03    -254.024E-03    -264.538E-03    -251.577E-03     506.191E-03    -254.024E-03     198.844E-03     52.1635E+06     11.3325E+06    -11.3008E+06    -11.2881E+06     11.3199E+06     52.1635E+06    -55.6410E+03         76.6918
             311     10.8573E-03     87.0663E-03     717.548E-03     523.780E-03        -1.81010     523.411E-03        -1.80973     717.548E-03    -24.1381E-03     516.728E-03    -254.292E-03    -261.688E-03    -248.661E-03     503.702E-03    -254.292E-03     198.782E-03     48.2175E+06     7.31451E+06    -16.1269E+06    -16.0934E+06     7.28093E+06     48.2175E+06     581.411E+03         74.8714
             312     10.0782E-03     86.8429E-03     672.492E-03     513.077E-03        -1.75061     512.968E-03        -1.75050     672.492E-03    -4.35689E-03     510.652E-03    -254.551E-03    -256.515E-03    -246.147E-03     500.517E-03    -254.784E-03     175.133E-03     45.9906E+06     2.92184E+06    -21.4124E+06    -21.3805E+06     2.88996E+06     45.9906E+06     371.166E+03         73.6004
             313     9.30244E-03     86.6147E-03     633.873E-03     500.876E-03        -1.69705     501.701E-03        -1.69604     632.040E-03    -31.7858E-03     509.150E-03    -253.594E-03    -255.330E-03    -245.627E-03     500.473E-03    -254.621E-03     161.508E-03     44.3625E+06    -1.32825E+06    -26.5293E+06    -26.5224E+06    -1.33513E+06     44.3625E+06     8.59324E+03         72.6620
             314     8.52395E-03     86.4275E-03     596.757E-03     501.452E-03        -1.65724     502.235E-03        -1.65620     594.925E-03    -49.6379E-03     507.296E-03    -252.522E-03    -254.598E-03    -246.004E-03     500.778E-03    -254.598E-03     139.685E-03     39.9276E+06    -7.06222E+06    -32.6073E+06    -32.5768E+06    -7.09273E+06     39.9276E+06     100.442E+03         71.8552
             315     7.75053E-03     86.2732E-03     563.088E-03     492.106E-03        -1.61251     492.012E-03        -1.61241     563.088E-03    -22.3629E-03     505.804E-03    -251.507E-03    -254.813E-03    -246.962E-03     501.259E-03    -254.813E-03     116.338E-03     32.8414E+06    -14.3871E+06    -39.5690E+06    -39.5301E+06     -14.426E+06     32.8414E+06     403.932E+03         70.8602
             316     6.97593E-03     86.1525E-03     539.811E-03     470.028E-03        -1.56600     469.946E-03        -1.56592     539.811E-03    -120.013E-06     504.758E-03    -250.544E-03    -255.256E-03    -247.705E-03     501.919E-03    -255.256E-03     91.5632E-03     23.3665E+06    -22.5484E+06    -46.7779E+06    -46.7443E+06    -22.5821E+06     23.3665E+06     477.574E+03         69.5754
             317     6.20033E-03     86.0803E-03     531.137E-03     458.986E-03        -1.54575     462.942E-03        -1.54566     527.091E-03     13.5417E-03     505.127E-03    -250.860E-03    -255.410E-03    -249.227E-03     503.494E-03    -255.410E-03     69.4986E-03     13.6403E+06    -30.6934E+06    -54.4739E+06    -54.4324E+06    -30.7350E+06     13.6403E+06     85.0623E+03         68.2011
             318     5.42532E-03     86.0391E-03     538.767E-03     471.208E-03        -1.56595     488.485E-03        -1.56580     521.341E-03     9.78465E-03     506.755E-03    -251.697E-03    -255.606E-03    -250.827E-03     505.885E-03    -255.606E-03     50.3868E-03     2.43455E+06    -40.4502E+06    -63.6762E+06    -63.6482E+06    -40.4782E+06     2.43455E+06     71.4457E+03         66.8945
             319     4.64958E-03     86.0195E-03     549.854E-03     490.301E-03        -1.59748     522.023E-03        -1.59719     517.847E-03     14.7840E-03     507.746E-03    -252.234E-03    -255.722E-03    -251.848E-03     507.360E-03    -255.722E-03     33.4481E-03    -12.4811E+06    -51.3647E+06    -72.8364E+06    -72.8239E+06    -51.3772E+06    -12.4811E+06     337.216E+03         65.7111
             320     3.87431E-03     86.0221E-03     548.745E-03     497.792E-03        -1.60304     530.039E-03        -1.60264     516.100E-03     34.9531E-03     508.493E-03    -253.110E-03    -255.599E-03    -252.966E-03     508.350E-03    -255.599E-03     19.9733E-03    -33.1814E+06    -65.0281E+06    -82.7877E+06    -82.7744E+06    -65.0413E+06    -33.1814E+06     142.940E+03         64.7284
             321     3.09974E-03     86.0394E-03     546.649E-03     498.072E-03        -1.60250     525.949E-03        -1.60173     518.004E-03     17.4207E-03     509.174E-03    -253.726E-03    -255.487E-03    -253.691E-03     509.138E-03    -255.487E-03     9.38061E-03    -56.2361E+06    -84.9283E+06    -97.5610E+06     -92.601E+06    -89.8883E+06    -56.2361E+06     197.593E+03         63.9802
             322     2.32440E-03     86.0606E-03     550.097E-03     503.874E-03        -1.61397     531.178E-03        -1.61336     522.181E-03     1.47884E-03     509.396E-03    -254.169E-03    -255.390E-03    -254.164E-03     509.391E-03    -255.390E-03     2.78870E-03    -78.1014E+06    -100.571E+06    -123.170E+06    -100.648E+06    -123.093E+06    -78.1014E+06     1.30086E+06         63.3778
             323     1.55022E-03     86.0812E-03     545.694E-03     503.101E-03        -1.61214     514.310E-03        -1.61006     532.405E-03    -57.9083E-03     510.182E-03    -254.861E-03    -255.591E-03    -254.892E-03     510.182E-03    -255.560E-03    -391.171E-06    -95.9515E+06    -106.572E+06    -154.526E+06    -106.639E+06    -154.458E+06    -95.9515E+06     1.15763E+06         62.9043
             324     774.754E-06     86.1011E-03     565.457E-03     525.213E-03        -1.65838     539.775E-03        -1.65499     547.507E-03    -8.71673E-03     511.047E-03    -254.949E-03    -256.113E-03    -255.720E-03     511.046E-03    -255.342E-03    -1.45416E-03    -108.519E+06    -112.734E+06    -180.364E+06    -112.680E+06    -180.351E+06    -108.585E+06    -197.123E+03         62.6115
             325     13.1826E-03     86.4512E-03     545.298E-03     401.380E-03        -1.53031     408.264E-03        -1.53012     538.225E-03     7.26948E-03     531.715E-03    -254.720E-03    -275.817E-03    -259.059E-03     514.957E-03    -254.720E-03     214.357E-03     58.8322E+06     17.2474E+06    -3.66249E+06    -3.65367E+06     17.2385E+06     58.8322E+06    -151.012E+03         81.8591
             326     12.4057E-03     85.9802E-03     504.447E-03     375.831E-03        -1.44735     405.733E-03        -1.44675     473.949E-03    -27.7957E-03     532.370E-03    -254.885E-03    -276.658E-03    -257.078E-03     512.790E-03    -254.885E-03     242.568E-03     55.0332E+06     14.7136E+06    -7.65416E+06    -7.64644E+06     14.7059E+06     55.0332E+06    -183.590E+03         79.1574
             327     11.6300E-03     85.7207E-03     464.286E-03     346.245E-03        -1.36589     401.004E-03        -1.36511     408.745E-03    -47.3209E-03     518.482E-03    -254.038E-03    -264.143E-03    -250.928E-03     505.267E-03    -254.038E-03     200.742E-03     51.3731E+06     10.5564E+06    -11.9815E+06    -11.9780E+06     10.5530E+06     51.3731E+06    -132.414E+03         76.6780
             328     10.8522E-03     85.4085E-03     418.694E-03     305.431E-03        -1.27380     376.274E-03        -1.27319     347.241E-03    -60.4160E-03     516.270E-03    -254.339E-03    -261.662E-03    -248.625E-03     503.232E-03    -254.339E-03     198.707E-03     47.6604E+06     7.24500E+06    -15.9317E+06    -15.9014E+06     7.21479E+06     47.6604E+06     410.449E+03         74.8734
             329     10.0790E-03     85.1755E-03     372.007E-03     265.651E-03        -1.18277     350.321E-03        -1.18238     286.941E-03    -34.8593E-03     511.733E-03    -254.839E-03    -257.615E-03    -247.574E-03     501.692E-03    -254.839E-03     174.614E-03     46.4495E+06     3.74998E+06    -20.2457E+06    -20.1961E+06     3.70043E+06     46.4495E+06     823.692E+03         73.6196
             330     9.30351E-03     84.9498E-03     321.876E-03     226.280E-03        -1.08868     317.209E-03        -1.08730     229.564E-03    -63.1455E-03     510.341E-03    -254.020E-03    -256.522E-03    -247.297E-03     501.692E-03    -254.596E-03     161.592E-03     45.4052E+06    -861.958E+03    -26.1949E+06    -26.1671E+06    -889.794E+03     45.4052E+06     529.372E+03         72.6844
             331     8.52826E-03     84.7633E-03     251.841E-03     171.683E-03    -960.115E-03     245.627E-03    -958.740E-03     176.523E-03    -65.3230E-03     507.557E-03    -252.703E-03    -254.803E-03    -246.514E-03     501.049E-03    -254.484E-03     139.640E-03     40.6963E+06    -7.13520E+06    -32.7091E+06    -32.6805E+06    -7.16382E+06     40.6963E+06     89.6069E+03         71.8616
             332     7.75308E-03     84.6022E-03     186.507E-03     111.725E-03    -831.059E-03     164.097E-03    -829.902E-03     132.979E-03    -28.0823E-03     505.540E-03    -251.027E-03    -254.632E-03    -246.469E-03     500.982E-03    -254.632E-03     116.511E-03     33.1172E+06    -14.1753E+06    -39.5755E+06    -39.5337E+06    -14.2171E+06     33.1172E+06     27.7260E+03         70.8503
             333     6.97695E-03     84.4911E-03     152.967E-03     68.1706E-03    -751.041E-03     119.022E-03    -749.255E-03     100.330E-03    -355.329E-06     504.383E-03    -250.097E-03    -255.095E-03    -247.210E-03     501.496E-03    -255.095E-03     92.2833E-03     23.2056E+06    -22.3629E+06    -46.7187E+06    -46.6877E+06    -22.3939E+06     23.2056E+06     11.2923E+03         69.5536
             334     6.19811E-03     84.4160E-03     129.932E-03     60.4935E-03    -718.417E-03     113.218E-03    -717.449E-03     76.2389E-03     8.53570E-03     504.677E-03    -250.423E-03    -255.327E-03    -248.797E-03     503.052E-03    -255.327E-03     69.1338E-03     12.6221E+06    -31.1352E+06    -54.7068E+06    -54.6560E+06    -31.1860E+06     12.6221E+06    -239.458E+03         68.1685
             335     5.42328E-03     84.3697E-03     109.067E-03     57.7854E-03    -696.143E-03     107.401E-03    -694.476E-03     57.7854E-03    -8.93039E-03     506.239E-03    -251.020E-03    -255.592E-03    -250.179E-03     505.398E-03    -255.592E-03     49.5257E-03     1.77699E+06    -40.2042E+06    -63.3647E+06    -63.3179E+06    -40.2511E+06     1.77699E+06    -430.668E+03         66.8582
             336     4.64976E-03     84.3553E-03     105.533E-03     44.9207E-03    -680.182E-03     88.7534E-03    -663.403E-03     44.9207E-03    -23.1135E-03     507.554E-03    -251.959E-03    -255.782E-03    -251.585E-03     507.181E-03    -255.782E-03     32.7996E-03    -13.7538E+06    -52.1984E+06    -73.8596E+06    -73.8486E+06    -52.2094E+06    -13.7538E+06    -278.656E+03         65.6797
             337     3.87376E-03     84.3553E-03     102.826E-03     37.3777E-03    -671.351E-03     81.3332E-03    -649.147E-03     36.6665E-03    -38.9187E-03     508.495E-03    -252.996E-03    -255.728E-03    -252.860E-03     508.360E-03    -255.728E-03     19.5263E-03    -34.0788E+06    -65.3827E+06    -83.6185E+06    -83.5608E+06    -65.4403E+06    -34.0788E+06     227.676E+03         64.7066
             338     3.09883E-03     84.3707E-03     105.551E-03     30.2338E-03    -667.650E-03     80.0276E-03    -641.415E-03     29.5226E-03    -78.7153E-03     509.490E-03    -253.873E-03    -255.647E-03    -253.838E-03     509.455E-03    -255.647E-03     9.22336E-03    -57.5559E+06    -84.1756E+06    -98.1773E+06    -92.0583E+06    -90.2947E+06    -57.5559E+06     543.750E+03         63.9691
             339     2.32466E-03     84.3955E-03     106.250E-03     22.7900E-03    -663.048E-03     58.8274E-03    -615.626E-03     22.7900E-03    -88.1375E-03     509.628E-03    -254.282E-03    -255.526E-03    -254.278E-03     509.625E-03    -255.526E-03     2.57401E-03    -79.4662E+06    -99.7862E+06    -123.341E+06    -99.8462E+06    -123.281E+06    -79.4662E+06     330.760E+03         63.3757
             340     1.54798E-03     84.4163E-03     104.093E-03     13.4789E-03    -653.484E-03     43.4763E-03    -594.783E-03     15.3946E-03    -135.157E-03     510.210E-03    -254.687E-03    -255.808E-03    -254.686E-03     510.209E-03    -255.808E-03    -261.489E-06    -96.0676E+06    -105.815E+06    -152.576E+06    -105.872E+06    -152.519E+06    -96.0676E+06     216.664E+03         62.9082
             341     773.802E-06     84.4316E-03     124.640E-03     11.4430E-03    -671.400E-03     53.7563E-03    -561.526E-03    -27.5469E-03    -148.825E-03     511.778E-03    -255.180E-03    -256.580E-03    -255.919E-03     511.778E-03    -255.840E-03    -1.23634E-03    -105.084E+06    -109.453E+06    -178.395E+06    -107.816E+06    -178.379E+06    -106.737E+06     317.570E+03         62.6193
             342     13.1811E-03     84.7959E-03     369.084E-03     211.153E-03        -1.12291     362.550E-03        -1.12257     217.355E-03    -22.5668E-03     531.128E-03    -254.709E-03    -275.137E-03    -258.212E-03     514.202E-03    -254.709E-03     215.419E-03     59.6395E+06     17.3776E+06    -3.60527E+06    -3.59133E+06     17.3636E+06     59.6395E+06     37.0140E+03         81.8314
             343     12.4023E-03     84.3164E-03     331.802E-03     138.013E-03        -1.00142     330.939E-03        -1.00055     138.013E-03    -46.0754E-03     531.611E-03    -254.922E-03    -275.577E-03    -255.829E-03     511.862E-03    -254.922E-03     243.344E-03     54.5605E+06     14.4697E+06    -7.65949E+06    -7.63859E+06     14.4488E+06     54.5605E+06     137.240E+03         79.1232
             344     11.6278E-03     84.0533E-03     281.409E-03     57.6113E-03    -866.234E-03     280.767E-03    -865.592E-03     57.6113E-03    -31.0795E-03     518.474E-03    -254.090E-03    -263.496E-03    -250.508E-03     505.486E-03    -254.090E-03     199.208E-03     50.4754E+06     10.3682E+06    -11.7070E+06    -11.6966E+06     10.3578E+06     50.4754E+06     134.913E+03         76.6602
             345     10.8547E-03     83.7471E-03     222.693E-03    -17.9799E-03    -727.309E-03     222.334E-03    -726.950E-03    -17.9799E-03    -34.5983E-03     517.005E-03    -254.348E-03    -262.259E-03    -249.474E-03     504.220E-03    -254.348E-03     197.192E-03     47.0164E+06     6.63126E+06    -16.3138E+06    -16.3114E+06     6.62879E+06     47.0164E+06    -29.5265E+03         74.8810
             346     10.0782E-03     83.5074E-03     154.842E-03    -57.8561E-03    -615.701E-03     153.764E-03    -581.026E-03    -91.4518E-03    -40.0557E-03     511.906E-03    -254.800E-03    -258.208E-03    -248.252E-03     501.950E-03    -254.800E-03     173.931E-03     46.0408E+06     2.95969E+06    -21.1096E+06    -21.0725E+06     2.92259E+06     46.0408E+06    -44.1335E+03         73.6392
             347     9.30200E-03     83.2833E-03     110.496E-03    -64.8468E-03    -559.827E-03     69.9916E-03    -424.358E-03    -159.811E-03    -58.9101E-03     510.075E-03    -254.187E-03    -256.258E-03    -247.368E-03     501.485E-03    -254.487E-03     161.103E-03     45.5375E+06    -661.540E+03    -25.9015E+06    -25.8576E+06    -705.522E+03     45.5375E+06     329.179E+03         72.6975
             348     8.52834E-03     83.0917E-03     99.6017E-03    -95.2957E-03    -513.123E-03    -18.4083E-03    -268.398E-03    -222.011E-03    -49.0232E-03     507.470E-03    -252.477E-03    -254.669E-03    -246.187E-03     500.861E-03    -254.350E-03     140.686E-03     40.8263E+06    -6.60916E+06    -32.1253E+06    -32.0913E+06    -6.64320E+06     40.8263E+06     181.987E+03         71.8609
             349     7.75264E-03     82.9434E-03     104.871E-03    -140.591E-03    -469.470E-03    -84.9519E-03    -143.495E-03    -276.743E-03    -65.5269E-03     505.460E-03    -250.742E-03    -254.593E-03    -246.083E-03     500.800E-03    -254.593E-03     117.834E-03     32.9769E+06    -13.8868E+06    -38.9950E+06    -38.9310E+06    -13.9508E+06     32.9769E+06     110.058E+03         70.8430
             350     6.97527E-03     82.8232E-03     147.948E-03    -193.311E-03    -455.307E-03    -139.648E-03    -36.5811E-03    -324.441E-03    -40.0783E-03     504.782E-03    -250.747E-03    -255.059E-03    -247.796E-03     501.831E-03    -255.059E-03     93.2572E-03     23.0269E+06    -22.0877E+06    -46.6347E+06    -46.5935E+06    -22.1289E+06     23.0269E+06     304.590E+03         69.5450
             351     6.20335E-03     82.7521E-03     212.457E-03    -270.013E-03    -440.397E-03    -220.018E-03     84.8497E-03    -362.785E-03    -26.7356E-03     504.689E-03    -250.765E-03    -255.218E-03    -249.145E-03     503.069E-03    -255.218E-03     69.0286E-03     12.6616E+06    -30.9776E+06    -55.0317E+06    -54.9815E+06    -31.0279E+06     12.6616E+06    -25.4136E+03         68.1543
             352     5.42601E-03     82.7096E-03     255.654E-03    -335.526E-03    -415.928E-03    -301.794E-03     195.498E-03    -389.504E-03    -36.4977E-03     505.389E-03    -250.346E-03    -255.510E-03    -249.506E-03     504.548E-03    -255.510E-03     49.5294E-03     1.29734E+06    -40.7358E+06    -63.9702E+06    -63.9174E+06    -40.7886E+06     1.29734E+06    -194.035E+03         66.8381
             353     4.64846E-03     82.6877E-03     283.025E-03    -369.509E-03    -410.160E-03    -356.838E-03     265.412E-03    -405.218E-03    -35.8781E-03     507.166E-03    -251.627E-03    -255.805E-03    -251.242E-03     506.781E-03    -255.805E-03     33.3003E-03    -14.7080E+06    -52.1839E+06    -73.3103E+06    -73.3003E+06    -52.1939E+06    -14.7080E+06    -228.073E+03         65.6631
             354     3.87451E-03     82.6929E-03     312.426E-03    -395.947E-03    -415.550E-03    -384.044E-03     297.346E-03    -412.373E-03    -57.2298E-03     508.687E-03    -253.149E-03    -255.816E-03    -253.008E-03     508.546E-03    -255.816E-03     19.8752E-03    -35.9297E+06    -66.3491E+06    -83.4715E+06    -83.4041E+06    -66.4166E+06    -35.9297E+06     18.2603E+03         64.6976
             355     3.09848E-03     82.7054E-03     337.471E-03    -412.385E-03    -427.013E-03    -392.447E-03     305.153E-03    -414.633E-03    -68.1864E-03     509.513E-03    -253.784E-03    -255.748E-03    -253.749E-03     509.478E-03    -255.748E-03     9.16834E-03    -58.4594E+06    -85.4648E+06    -97.9764E+06    -92.7674E+06    -90.6738E+06    -58.4594E+06     309.424E+03         63.9632
             356     2.32351E-03     82.7277E-03     328.535E-03    -398.052E-03    -435.415E-03    -390.866E-03     302.416E-03    -416.481E-03    -54.3505E-03     510.156E-03    -254.576E-03    -255.785E-03    -254.806E-03     510.153E-03    -255.551E-03     1.99990E-03     -79.768E+06    -100.379E+06    -122.208E+06    -100.417E+06    -122.171E+06     -79.768E+06    -37.9640E+03         63.3733
             357     1.55028E-03     82.7500E-03     356.032E-03    -401.902E-03    -460.173E-03    -400.635E-03     314.923E-03    -420.331E-03    -85.9790E-03     510.612E-03    -254.994E-03    -255.899E-03    -255.366E-03     510.612E-03    -255.525E-03    -1.36100E-03    -96.6800E+06    -105.620E+06    -151.547E+06    -105.651E+06    -151.515E+06    -96.6800E+06    -411.749E+03         62.9086
             358     774.576E-06     82.7618E-03     377.335E-03    -400.184E-03    -485.166E-03    -401.163E-03     334.238E-03    -441.090E-03    -96.3418E-03     510.836E-03    -254.887E-03    -255.870E-03    -255.025E-03     510.833E-03    -255.729E-03    -2.48787E-03    -105.062E+06    -111.185E+06    -178.830E+06    -109.633E+06    -178.795E+06    -106.648E+06    -642.557E+03         62.6145
             359     13.1787E-03     83.1268E-03     314.388E-03    -97.0701E-03    -716.512E-03     313.742E-03    -715.866E-03    -97.0701E-03     11.0043E-03     530.587E-03    -254.751E-03    -274.565E-03    -257.841E-03     513.864E-03    -254.751E-03     214.601E-03     59.3733E+06     17.2433E+06    -3.67648E+06    -3.64288E+06     17.2097E+06     59.3733E+06     13.3241E+03         81.8293
             360     12.4045E-03     82.6560E-03     247.842E-03    -144.178E-03    -604.786E-03     245.860E-03    -556.653E-03    -190.328E-03     25.2231E-03     531.580E-03    -254.920E-03    -275.612E-03    -256.187E-03     512.156E-03    -254.920E-03     241.430E-03     54.6556E+06     14.7310E+06    -7.13901E+06    -7.10650E+06     14.6985E+06     54.6556E+06     233.135E+03         79.1307
             361     11.6290E-03     82.3856E-03     152.824E-03    -116.618E-03    -533.175E-03     150.721E-03    -364.295E-03    -283.396E-03     30.7439E-03     518.550E-03    -254.073E-03    -263.588E-03    -250.674E-03     505.636E-03    -254.073E-03     198.606E-03     50.8807E+06     10.3939E+06    -11.7985E+06    -11.7870E+06     10.3823E+06     50.8807E+06     455.640E+03         76.6679
             362     10.8525E-03     82.0764E-03     131.755E-03    -130.477E-03    -493.006E-03     48.3708E-03    -170.448E-03    -369.650E-03    -1.50468E-03     517.568E-03    -254.327E-03    -262.670E-03    -249.906E-03     504.804E-03    -254.327E-03     197.122E-03     47.7980E+06     6.99759E+06    -16.2738E+06    -16.2703E+06     6.99409E+06     47.7980E+06     3.29966E+03         74.8801
             363     10.0807E-03     81.8403E-03     191.851E-03    -195.980E-03    -482.695E-03    -68.1847E-03     32.6287E-03    -451.268E-03     14.4597E-03     512.221E-03    -254.754E-03    -258.354E-03    -248.398E-03     502.266E-03    -254.754E-03     173.990E-03     46.0552E+06     2.96609E+06    -20.9406E+06    -20.9203E+06     2.94586E+06     46.0552E+06    -338.648E+03         73.6283
             364     9.30599E-03     81.6169E-03     279.677E-03    -235.534E-03    -525.652E-03    -189.784E-03     233.926E-03    -525.652E-03     2.12306E-03     509.404E-03    -253.530E-03    -255.677E-03    -246.135E-03     500.787E-03    -254.455E-03     161.142E-03     43.6118E+06    -1.83909E+06    -26.7576E+06    -26.7188E+06    -1.87792E+06     43.6118E+06    -473.332E+03         72.6820
             365     8.52678E-03     81.4313E-03     398.568E-03    -283.150E-03    -594.353E-03    -279.212E-03     394.630E-03    -594.353E-03    -13.3230E-03     507.035E-03    -251.816E-03    -254.372E-03    -245.165E-03     500.384E-03    -254.372E-03     141.016E-03     38.9171E+06    -7.35931E+06    -32.5741E+06    -32.5281E+06    -7.40535E+06     38.9171E+06    -363.108E+03         71.8524
             366     7.75155E-03     81.2763E-03     538.023E-03    -357.779E-03    -657.599E-03    -354.478E-03     534.722E-03    -657.599E-03    -36.1843E-03     505.854E-03    -251.310E-03    -254.625E-03    -246.590E-03     501.133E-03    -254.625E-03     118.650E-03     32.2370E+06    -13.6866E+06    -38.7685E+06    -38.7088E+06    -13.7463E+06     32.2370E+06     160.995E+03         70.8440
             367     6.97868E-03     81.1578E-03     698.396E-03    -460.473E-03    -712.650E-03    -457.082E-03     695.005E-03    -712.650E-03     1.00689E-03     504.647E-03    -250.880E-03    -255.096E-03    -247.882E-03     501.649E-03    -255.096E-03     94.0544E-03     23.4367E+06    -21.5807E+06    -46.1534E+06    -46.1140E+06    -21.6200E+06     23.4367E+06     401.028E+03         69.5503
             368     6.19842E-03     81.0867E-03     845.389E-03    -559.044E-03    -756.158E-03    -557.043E-03     843.388E-03    -756.158E-03    -16.2746E-03     504.675E-03    -250.771E-03    -255.266E-03    -249.098E-03     503.002E-03    -255.266E-03     70.2252E-03     13.4249E+06    -30.7073E+06    -54.7728E+06    -54.7515E+06    -30.7286E+06     13.4249E+06     367.851E+03         68.1608
             369     5.42463E-03     81.0468E-03     958.960E-03    -635.873E-03    -789.516E-03    -634.291E-03     957.378E-03    -789.516E-03    -44.9202E-03     506.057E-03    -251.073E-03    -255.500E-03    -250.203E-03     505.186E-03    -255.500E-03     50.4228E-03     998.471E+03    -40.8084E+06    -63.9466E+06    -63.9288E+06    -40.8262E+06     998.471E+03     281.873E+03         66.8410
             370     4.64899E-03     81.0269E-03         1.04777    -697.567E-03    -815.310E-03    -696.357E-03         1.04656    -815.310E-03    -52.9539E-03     506.993E-03    -251.473E-03    -255.759E-03    -251.086E-03     506.606E-03    -255.759E-03     33.3510E-03    -14.7387E+06    -52.4243E+06    -73.7942E+06    -73.7698E+06    -52.4488E+06    -14.7387E+06     379.110E+03         65.6571
             371     3.87239E-03     81.0224E-03         1.11734    -749.540E-03    -834.304E-03    -748.503E-03         1.11630    -834.304E-03    -51.8281E-03     508.434E-03    -252.852E-03    -255.827E-03    -252.716E-03     508.298E-03    -255.827E-03     19.2507E-03     -35.166E+06    -66.2584E+06    -83.7730E+06    -83.6711E+06    -66.3603E+06     -35.166E+06     573.105E+03         64.6854
             372     3.09915E-03     81.0411E-03         1.17690    -798.826E-03    -847.270E-03    -800.489E-03         1.17677    -845.474E-03    -7.82823E-03     509.654E-03    -253.978E-03    -255.774E-03    -253.947E-03     509.623E-03    -255.774E-03     8.92433E-03    -57.8198E+06    -85.6732E+06    -97.7884E+06    -93.0033E+06    -90.4583E+06    -57.8198E+06     196.749E+03         63.9530
             373     2.32397E-03     81.0601E-03         1.21409    -816.693E-03    -868.717E-03    -836.824E-03         1.21354    -848.035E-03    -17.8925E-03     510.196E-03    -254.663E-03    -255.755E-03    -254.892E-03     510.192E-03    -255.522E-03     2.41172E-03    -79.8357E+06    -100.864E+06    -121.437E+06    -100.897E+06    -121.404E+06    -79.8357E+06    -233.002E+03         63.3682
             374     1.55010E-03     81.0805E-03         1.21891    -813.819E-03    -879.748E-03    -849.731E-03         1.21808    -843.011E-03    -40.3488E-03     510.660E-03    -255.147E-03    -255.784E-03    -255.520E-03     510.660E-03    -255.411E-03    -758.791E-06    -97.1034E+06    -105.950E+06    -151.655E+06    -105.983E+06    -151.622E+06    -97.1034E+06    -312.563E+03         62.9056
             375     776.533E-06     81.1004E-03         1.20440    -803.455E-03    -873.564E-03    -828.502E-03         1.20081    -844.924E-03    -109.382E-03     510.520E-03    -254.540E-03    -255.871E-03    -255.450E-03     510.517E-03    -254.958E-03    -1.26657E-03    -104.899E+06    -112.758E+06    -181.117E+06    -109.766E+06    -181.063E+06    -107.945E+06    -78.6702E+03         62.6097
             376     13.1803E-03     81.4658E-03     248.292E-03    -201.288E-03    -528.792E-03     245.587E-03    -328.633E-03    -398.741E-03     31.8165E-03     531.642E-03    -254.771E-03    -275.694E-03    -259.047E-03     514.994E-03    -254.771E-03     214.241E-03     58.9606E+06     16.9821E+06    -3.51632E+06    -3.42008E+06     16.8859E+06     58.9606E+06     422.733E+03         81.8600
             377     12.4036E-03     80.9828E-03     190.178E-03    -130.115E-03    -535.420E-03     135.315E-03    -110.929E-03    -499.743E-03     53.0134E-03     531.962E-03    -254.881E-03    -276.207E-03    -256.988E-03     512.743E-03    -254.881E-03     240.001E-03     54.9112E+06     14.3030E+06    -8.06052E+06    -7.96368E+06     14.2062E+06     54.9112E+06     220.584E+03         79.1610
             378     11.6311E-03     80.7245E-03     210.482E-03    -81.1015E-03    -598.881E-03     18.4207E-03     110.960E-03    -598.881E-03     42.5057E-03     518.570E-03    -254.002E-03    -263.646E-03    -250.784E-03     505.708E-03    -254.002E-03     198.005E-03     51.6790E+06     10.4437E+06    -11.9629E+06    -11.9453E+06     10.4261E+06     51.6790E+06    -194.795E+03         76.6778
             379     10.8563E-03     80.4043E-03     353.810E-03    -124.841E-03    -690.655E-03    -114.617E-03     343.585E-03    -690.655E-03     36.1883E-03     517.182E-03    -254.274E-03    -261.925E-03    -249.120E-03     504.377E-03    -254.274E-03     197.163E-03     48.2050E+06     7.53741E+06    -15.3887E+06    -15.3748E+06     7.52352E+06     48.2050E+06     25.8512E+03         74.8627
             380     10.0804E-03     80.1736E-03     578.387E-03    -255.321E-03    -776.951E-03    -254.016E-03     577.083E-03    -776.951E-03     56.8972E-03     511.065E-03    -254.661E-03    -256.920E-03    -246.801E-03     501.042E-03    -254.756E-03     174.311E-03     45.8376E+06     3.53287E+06    -20.1566E+06    -20.1450E+06     3.52131E+06     45.8376E+06     114.340E+03         73.6002
             381     9.30280E-03     79.9529E-03     785.507E-03    -379.117E-03    -856.786E-03    -377.880E-03     784.269E-03    -856.786E-03     33.3578E-03     509.050E-03    -253.727E-03    -255.219E-03    -245.559E-03     500.213E-03    -254.551E-03     163.062E-03     43.3616E+06    -1.73549E+06    -26.4651E+06    -26.4273E+06    -1.77323E+06     43.3616E+06    -54.5485E+03         72.6686
             382     8.52651E-03     79.7704E-03     988.765E-03    -507.161E-03    -931.389E-03    -506.412E-03     988.016E-03    -931.389E-03    -22.8425E-03     507.454E-03    -252.577E-03    -254.482E-03    -245.778E-03     500.654E-03    -254.482E-03     142.711E-03     38.4237E+06    -7.65965E+06    -32.8505E+06    -32.8036E+06    -7.70656E+06     38.4237E+06     19.4854E+03         71.8603
             383     7.75161E-03     79.6057E-03         1.19732    -650.224E-03    -997.361E-03    -649.708E-03         1.19680    -997.361E-03    -24.8277E-03     505.977E-03    -251.572E-03    -254.671E-03    -246.808E-03     501.213E-03    -254.671E-03     119.111E-03     31.2704E+06    -14.5765E+06    -39.5162E+06    -39.4959E+06    -14.5968E+06     31.2704E+06    -218.270E+03         70.8593
             384     6.97407E-03     79.4956E-03         1.37832    -774.858E-03        -1.05190    -774.228E-03         1.37769        -1.05190     32.1432E-03     504.888E-03    -250.806E-03    -255.155E-03    -247.885E-03     501.967E-03    -255.155E-03     92.7408E-03     22.2559E+06    -22.5258E+06    -46.6886E+06    -46.6629E+06    -22.5516E+06     22.2559E+06    -366.703E+03         69.5664
             385     6.20064E-03     79.4241E-03         1.51658    -864.824E-03        -1.09609    -864.046E-03         1.51580        -1.09609     11.5313E-03     504.999E-03    -250.967E-03    -255.329E-03    -249.366E-03     503.398E-03    -255.329E-03     68.7192E-03     13.6792E+06    -30.6356E+06    -54.5285E+06    -54.4932E+06    -30.6709E+06     13.6792E+06     124.371E+03         68.1806
             386     5.42438E-03     79.3791E-03         1.62688    -934.402E-03        -1.13334    -934.204E-03         1.62668        -1.13334    -39.1993E-03     506.561E-03    -251.608E-03    -255.494E-03    -250.782E-03     505.735E-03    -255.494E-03     49.1263E-03     3.13854E+06    -40.1204E+06    -63.7977E+06    -63.7096E+06    -40.2085E+06     3.13854E+06     844.969E+03         66.8605
             387     4.65058E-03     79.3629E-03         1.72474    -997.001E-03        -1.16571    -996.303E-03         1.72405        -1.16571    -70.3554E-03     507.358E-03    -251.961E-03    -255.625E-03    -251.596E-03     506.993E-03    -255.625E-03     32.4696E-03    -13.7838E+06    -52.4705E+06    -74.3964E+06    -74.3019E+06    -52.5650E+06    -13.7838E+06     991.434E+03         65.6622
             388     3.87509E-03     79.3611E-03         1.82483        -1.06787        -1.19289        -1.06703         1.82399        -1.19289    -73.0235E-03     507.820E-03    -252.384E-03    -255.643E-03    -252.254E-03     507.690E-03    -255.643E-03     18.7869E-03    -35.4127E+06    -66.3954E+06    -84.7792E+06    -84.6336E+06    -66.5409E+06    -35.4127E+06     375.471E+03         64.6717
             389     3.09803E-03     79.3734E-03         1.91738        -1.14218        -1.21231        -1.14158         1.91677        -1.21231    -58.8354E-03     509.080E-03    -253.424E-03    -255.699E-03    -253.393E-03     509.050E-03    -255.699E-03     8.96936E-03    -57.9789E+06    -84.9547E+06    -97.5251E+06    -92.9466E+06    -89.5332E+06    -57.9789E+06    -107.345E+03         63.9342
             390     2.32458E-03     79.3929E-03         1.98648        -1.18404        -1.23982        -1.20208         1.98564        -1.22094    -94.5656E-03     509.854E-03    -254.383E-03    -255.629E-03    -254.378E-03     509.849E-03    -255.629E-03     2.93039E-03    -79.2493E+06    -100.241E+06    -120.534E+06    -100.272E+06    -120.504E+06    -79.2493E+06    -416.751E+03         63.3534
             391     1.54849E-03     79.4137E-03         2.00643        -1.19356        -1.24897        -1.22087         2.00478        -1.22001    -135.159E-03     510.647E-03    -255.061E-03    -255.817E-03    -255.060E-03     510.646E-03    -255.817E-03    -729.261E-06    -97.0707E+06    -106.720E+06    -152.830E+06    -106.746E+06    -152.804E+06    -97.0707E+06    -374.743E+03         62.8988
             392     773.168E-06     79.4314E-03         2.00082        -1.18125        -1.25511        -1.18711         1.99661        -1.24504    -180.301E-03     511.667E-03    -255.139E-03    -256.506E-03    -256.264E-03     511.663E-03    -255.378E-03    -1.43151E-03    -104.508E+06    -112.800E+06    -181.563E+06    -109.791E+06    -181.526E+06    -107.554E+06     261.110E+03         62.6175
             393     13.1800E-03     79.7920E-03     247.127E-03    -45.2235E-03    -667.654E-03     181.391E-03     20.5119E-03    -667.654E-03     28.1692E-03     531.970E-03    -254.757E-03    -276.032E-03    -259.451E-03     515.390E-03    -254.757E-03     213.740E-03     59.5529E+06     16.8923E+06    -4.14003E+06    -4.01894E+06     16.7712E+06     59.5529E+06     179.825E+03         81.8795
             394     12.4076E-03     79.3180E-03     321.024E-03    -4.96680E-03    -769.682E-03     33.4277E-03     282.630E-03    -769.682E-03     16.3580E-03     532.118E-03    -254.865E-03    -276.423E-03    -257.129E-03     512.824E-03    -254.865E-03     240.782E-03     56.0069E+06     14.6541E+06    -7.71715E+06    -7.56843E+06     14.5054E+06     56.0069E+06     191.381E+03         79.1670
             395     11.6327E-03     79.0600E-03     534.813E-03    -110.252E-03    -868.166E-03    -109.396E-03     533.957E-03    -868.166E-03    -12.8265E-03     519.156E-03    -253.964E-03    -264.192E-03    -251.030E-03     505.994E-03    -253.964E-03     200.383E-03     51.4593E+06     10.4508E+06    -11.4734E+06    -11.4238E+06     10.4013E+06     51.4593E+06    -267.939E+03         76.6713
             396     10.8574E-03     78.7401E-03     775.713E-03    -250.661E-03    -959.179E-03    -249.464E-03     774.516E-03    -959.179E-03    -11.2471E-03     516.740E-03    -254.251E-03    -261.036E-03    -248.014E-03     503.718E-03    -254.251E-03     198.579E-03     46.7359E+06     6.59583E+06    -15.9489E+06    -15.9168E+06     6.56371E+06     46.7359E+06    -420.138E+03         74.8514
             397     10.0794E-03     78.5139E-03         1.00479    -386.435E-03        -1.04536    -385.038E-03         1.00340        -1.04536    -27.5083E-03     510.094E-03    -254.695E-03    -255.514E-03    -245.375E-03     500.050E-03    -254.791E-03     174.205E-03     45.1625E+06      2.8029E+06    -20.5069E+06    -20.4646E+06     2.76065E+06     45.1625E+06     214.151E+03         73.5920
             398     9.29994E-03     78.2911E-03         1.23350    -529.982E-03        -1.12574    -528.475E-03         1.23199        -1.12574    -72.7025E-03     509.237E-03    -254.314E-03    -255.026E-03    -245.858E-03     500.458E-03    -254.702E-03     162.560E-03     44.2249E+06    -987.096E+03    -25.8508E+06    -25.8030E+06    -1.03482E+06     44.2249E+06     301.910E+03         72.6733
             399     8.52537E-03     78.1007E-03         1.47270    -694.015E-03        -1.19955    -692.720E-03         1.47141        -1.19955    -104.774E-03     507.919E-03    -253.391E-03    -254.641E-03    -246.699E-03     501.227E-03    -254.641E-03     141.664E-03     39.2921E+06    -7.09558E+06    -32.3256E+06    -32.2804E+06    -7.14073E+06     39.2921E+06     186.202E+03         71.8757
             400     7.75066E-03     77.9457E-03         1.68983    -847.046E-03        -1.26434    -845.747E-03         1.68853        -1.26434    -104.859E-03     505.982E-03    -251.830E-03    -254.724E-03    -247.140E-03     501.292E-03    -254.724E-03     118.253E-03     30.7700E+06    -15.0930E+06    -39.8838E+06    -39.8614E+06    -15.1153E+06     30.7700E+06     1.06391E+03         70.8752
             401     6.97719E-03     77.8276E-03         1.86498    -964.581E-03        -1.32060    -964.058E-03         1.86446        -1.32060    -45.7327E-03     505.212E-03    -251.143E-03    -255.162E-03    -248.243E-03     502.312E-03    -255.162E-03     92.4221E-03     21.3098E+06    -23.3706E+06    -47.4635E+06    -47.4315E+06    -23.4026E+06     21.3098E+06     -92.416E+03         69.5810
             402     6.20032E-03     77.7595E-03         2.02504        -1.07251        -1.36939        -1.07234         2.02487        -1.36939    -32.4680E-03     505.495E-03    -251.355E-03    -255.273E-03    -249.754E-03     503.894E-03    -255.273E-03     68.8565E-03     13.1501E+06    -31.3576E+06    -55.1711E+06    -55.1254E+06    -31.4033E+06     13.1501E+06     305.143E+03         68.1978
             403     5.42576E-03     77.7135E-03         2.17596        -1.17979        -1.41090        -1.17957         2.17574        -1.41090    -50.7317E-03     506.515E-03    -251.446E-03    -255.415E-03    -250.610E-03     505.679E-03    -255.415E-03     49.3399E-03     3.40660E+06    -40.5408E+06    -64.3736E+06    -64.2638E+06    -40.6506E+06     3.40660E+06     557.012E+03         66.8806
             404     4.65041E-03     77.6930E-03         2.31421        -1.28126        -1.44402        -1.28103         2.31398        -1.44402    -36.8559E-03     507.351E-03    -251.968E-03    -255.534E-03    -251.607E-03     506.991E-03    -255.534E-03     32.2654E-03    -11.7416E+06    -51.3700E+06    -73.5383E+06    -73.4343E+06    -51.4741E+06    -11.7416E+06     539.023E+03         65.6795
             405     3.87520E-03     77.6969E-03         2.42628        -1.36849        -1.46781        -1.36816         2.42596        -1.46781    -41.0348E-03     507.833E-03    -252.614E-03    -255.454E-03    -252.480E-03     507.699E-03    -255.454E-03     19.3922E-03    -34.1452E+06    -65.1273E+06    -83.1300E+06    -83.0336E+06    -65.2237E+06    -34.1452E+06     62.0491E+03         64.6787
             406     3.09980E-03     77.7083E-03         2.49048        -1.41563        -1.48509        -1.41501         2.48987        -1.48509    -51.4695E-03     508.574E-03    -253.156E-03    -255.492E-03    -253.122E-03     508.540E-03    -255.492E-03     9.01068E-03    -58.6693E+06    -85.2000E+06    -96.1762E+06    -92.9117E+06    -88.4645E+06    -58.6693E+06    -559.437E+03         63.9271
             407     2.32261E-03     77.7252E-03         2.53277        -1.43860        -1.50213        -1.43788         2.53205        -1.50213    -59.7385E-03     509.374E-03    -253.983E-03    -255.510E-03    -253.979E-03     509.370E-03    -255.510E-03     1.44487E-03    -79.8452E+06    -100.638E+06    -121.530E+06    -100.719E+06    -121.449E+06    -79.8452E+06    -697.211E+03         63.3370
             408     1.54914E-03     77.7466E-03         2.59575        -1.46805        -1.53108        -1.47659         2.59422        -1.52101    -125.093E-03     510.429E-03    -254.819E-03    -255.780E-03    -254.817E-03     510.427E-03    -255.780E-03    -1.87152E-03    -96.7227E+06    -106.265E+06    -154.288E+06    -106.289E+06    -154.264E+06    -96.7227E+06    -455.910E+03         62.8839
             409     775.084E-06     77.7623E-03         2.65891        -1.48054        -1.57919        -1.48932         2.65763        -1.56913    -101.991E-03     511.733E-03    -255.434E-03    -256.330E-03    -255.786E-03     511.730E-03    -255.975E-03    -2.21178E-03    -104.224E+06    -112.687E+06    -180.836E+06    -109.413E+06    -180.824E+06    -107.509E+06    -534.768E+03         62.6115
             410     13.1830E-03     78.1217E-03     355.855E-03     91.8136E-03    -883.190E-03     139.045E-03     308.623E-03    -883.190E-03    -1.19951E-03     530.849E-03    -254.689E-03    -274.923E-03    -258.289E-03     514.215E-03    -254.689E-03     213.905E-03     58.6715E+06     16.3982E+06    -4.02024E+06    -3.95746E+06     16.3355E+06     58.6715E+06     25.3482E+03         81.8638
             411     12.4038E-03     77.6567E-03     590.547E-03    -33.2429E-03    -981.376E-03    -32.5604E-03     589.864E-03    -981.376E-03    -33.9104E-03     531.672E-03    -254.853E-03    -275.982E-03    -256.429E-03     512.118E-03    -254.853E-03     242.688E-03     54.5757E+06     14.4826E+06    -7.10144E+06    -7.02418E+06     14.4054E+06     54.5757E+06     55.7179E+03         79.1466
             412     11.6306E-03     77.3870E-03     864.826E-03    -204.787E-03        -1.07494    -203.361E-03     863.400E-03        -1.07494    -72.7352E-03     518.493E-03    -253.988E-03    -264.090E-03    -250.911E-03     505.313E-03    -253.988E-03     200.734E-03     50.6013E+06     10.5596E+06    -10.9858E+06    -10.9467E+06     10.5205E+06     50.6013E+06     125.919E+03         76.6597
             413     10.8552E-03     77.0802E-03         1.11248    -358.712E-03        -1.16127    -357.329E-03         1.11110        -1.16127    -73.6384E-03     515.708E-03    -254.299E-03    -260.684E-03    -247.803E-03     502.827E-03    -254.299E-03     197.519E-03     46.8185E+06     6.39298E+06    -15.7960E+06    -15.7688E+06     6.36576E+06     46.8185E+06    -325.018E+03         74.8587
             414     10.0772E-03     76.8514E-03         1.35651    -514.262E-03        -1.24295    -513.170E-03         1.35542        -1.24295    -47.6827E-03     511.236E-03    -254.822E-03    -256.811E-03    -246.732E-03     501.157E-03    -254.822E-03     174.773E-03     45.8908E+06     2.75145E+06    -20.8942E+06    -20.8205E+06     2.67778E+06     45.8908E+06    -85.1191E+03         73.6110
             415     9.30262E-03     76.6249E-03         1.60584    -683.180E-03        -1.31857    -681.847E-03         1.60451        -1.31857    -54.5447E-03     510.072E-03    -254.336E-03    -255.986E-03    -246.962E-03     501.403E-03    -254.691E-03     161.744E-03     44.5227E+06    -1.30544E+06    -26.3052E+06    -26.2188E+06    -1.39188E+06     44.5227E+06     71.6567E+03         72.6856
             416     8.52552E-03     76.4355E-03         1.82702    -831.649E-03        -1.38839    -830.881E-03         1.82625        -1.38839    -60.2179E-03     507.497E-03    -252.930E-03    -254.584E-03    -246.401E-03     500.967E-03    -254.584E-03     139.819E-03     39.6706E+06    -7.42160E+06    -32.6962E+06    -32.6441E+06    -7.47365E+06     39.6706E+06     264.644E+03         71.8742
             417     7.75151E-03     76.2791E-03         2.02506    -962.833E-03        -1.45271    -961.896E-03         2.02413        -1.45271    -59.7110E-03     505.782E-03    -251.458E-03    -254.682E-03    -246.876E-03     501.199E-03    -254.682E-03     116.951E-03     31.2139E+06    -14.8339E+06    -39.6331E+06    -39.5902E+06    -14.8768E+06     31.2139E+06     469.947E+03         70.8720
             418     6.97496E-03     76.1644E-03         2.22206        -1.09966        -1.51091        -1.09889         2.22130        -1.51091    -1.71372E-03     504.955E-03    -250.875E-03    -255.151E-03    -247.962E-03     502.042E-03    -255.151E-03     92.6580E-03     21.2122E+06    -23.2417E+06    -47.3637E+06    -47.3094E+06    -23.2960E+06     21.2122E+06     354.812E+03         69.5831
             419     6.19975E-03     76.0917E-03         2.40839        -1.23325        -1.56150        -1.23292         2.40805        -1.56150     4.80724E-03     505.294E-03    -251.177E-03    -255.272E-03    -249.546E-03     503.663E-03    -255.272E-03     69.4887E-03     12.1308E+06    -32.1046E+06    -55.8213E+06    -55.7893E+06    -32.1366E+06     12.1308E+06    -28.6817E+03         68.2051
             420     5.42592E-03     76.0470E-03         2.57773        -1.35807        -1.60378        -1.35786         2.57752        -1.60378    -42.7161E-03     506.567E-03    -251.605E-03    -255.401E-03    -250.740E-03     505.703E-03    -255.401E-03     50.2515E-03     2.16983E+06    -40.8535E+06    -64.0409E+06    -64.0135E+06    -40.8810E+06     2.16983E+06    -572.547E+03         66.8970
             421     4.65086E-03     76.0300E-03         2.71729        -1.46386        -1.63767        -1.46369         2.71712        -1.63767    -38.5546E-03     507.515E-03    -252.138E-03    -255.517E-03    -251.761E-03     507.138E-03    -255.517E-03     32.9070E-03    -11.6526E+06    -51.1812E+06    -73.1120E+06    -73.0523E+06    -51.2409E+06    -11.6526E+06    -641.041E+03         65.7077
             422     3.87514E-03     76.0317E-03         2.81392        -1.53287        -1.66551        -1.53256         2.81361        -1.66551    -45.8578E-03     508.228E-03    -253.094E-03    -255.394E-03    -252.958E-03     508.092E-03    -255.394E-03     19.5596E-03    -32.2963E+06    -64.3847E+06    -82.6998E+06    -82.6175E+06    -64.4669E+06    -32.2963E+06     503.318E+03         64.7115
             423     3.10042E-03     76.0426E-03         2.89535        -1.59033        -1.69027        -1.59005         2.89508        -1.69027    -31.4191E-03     508.553E-03    -253.354E-03    -255.365E-03    -253.315E-03     508.514E-03    -255.365E-03     9.80927E-03    -57.7745E+06    -83.4441E+06    -95.1770E+06    -91.5013E+06    -87.1198E+06    -57.7745E+06     945.370E+03         63.9465
             424     2.32687E-03     76.0601E-03         2.97435        -1.64804        -1.71176        -1.64782         2.97413        -1.71176    -28.7699E-03     508.952E-03    -253.677E-03    -255.364E-03    -253.668E-03     508.944E-03    -255.364E-03     3.16633E-03    -81.3300E+06    -99.8923E+06    -122.522E+06    -100.145E+06    -122.270E+06    -81.3300E+06    -55.3831E+03         63.3362
             425     1.54978E-03     76.0802E-03         3.03773        -1.68502        -1.73342        -1.68597         3.03739        -1.73213    -60.9621E-03     510.161E-03    -254.710E-03    -255.618E-03    -254.707E-03     510.159E-03    -255.618E-03    -168.068E-06    -98.0312E+06    -106.779E+06    -156.000E+06    -106.801E+06    -155.978E+06    -98.0312E+06    -524.646E+03         62.8719
             426     774.020E-06     76.0949E-03         3.10775        -1.67815        -1.80640        -1.67925         3.10756        -1.80511    -40.3125E-03     511.480E-03    -255.247E-03    -256.260E-03    -255.823E-03     511.478E-03    -255.681E-03    -1.63284E-03    -104.544E+06    -113.405E+06    -181.547E+06    -110.123E+06    -181.545E+06    -107.829E+06     56.0754E+03         62.5951
             427     13.1816E-03     76.4638E-03     528.604E-03     112.397E-03        -1.03524     114.061E-03     526.940E-03        -1.03524    -23.3224E-03     531.061E-03    -254.701E-03    -274.954E-03    -258.162E-03     514.269E-03    -254.701E-03     215.017E-03     58.4199E+06     16.6793E+06    -3.16137E+06    -3.13763E+06     16.6556E+06     58.4199E+06     265.479E+03         81.8394
             428     12.4061E-03     75.9891E-03     806.434E-03    -66.7113E-03        -1.12682    -65.8932E-03     805.616E-03        -1.12682    -20.5207E-03     531.915E-03    -254.875E-03    -276.127E-03    -256.478E-03     512.266E-03    -254.875E-03     243.174E-03     53.7085E+06     13.8063E+06    -7.23061E+06    -7.21635E+06     13.7920E+06     53.7085E+06     157.172E+03         79.1342
             429     11.6313E-03     75.7186E-03         1.07147    -239.477E-03        -1.21435    -238.424E-03         1.07042        -1.21435    -63.5564E-03     517.463E-03    -254.042E-03    -263.272E-03    -250.338E-03     504.529E-03    -254.042E-03     198.733E-03     50.7822E+06     10.3925E+06    -10.9259E+06    -10.8623E+06     10.3289E+06     50.7822E+06     502.305E+03         76.6593
             430     10.8532E-03     75.4189E-03         1.33580    -417.916E-03        -1.29567    -416.836E-03         1.33472        -1.29567    -31.0117E-03     515.796E-03    -254.346E-03    -261.451E-03    -248.825E-03     503.169E-03    -254.346E-03     195.748E-03     47.5836E+06     7.14814E+06    -15.5805E+06    -15.4611E+06     7.02873E+06     47.5836E+06     253.664E+03         74.8691
             431     10.0793E-03     75.1799E-03         1.60035    -601.540E-03        -1.37147    -601.155E-03         1.59996        -1.37147     9.49833E-03     512.272E-03    -254.814E-03    -258.276E-03    -248.325E-03     502.321E-03    -254.814E-03     173.960E-03     45.5708E+06     2.59022E+06    -21.0121E+06    -20.8803E+06     2.45845E+06     45.5708E+06    -252.617E+03         73.6282
             432     9.30372E-03     74.9593E-03         1.83470    -761.122E-03        -1.44151    -760.933E-03         1.83451        -1.44151    -1.94940E-03     510.142E-03    -254.203E-03    -256.183E-03    -247.229E-03     501.564E-03    -254.578E-03     160.970E-03     44.0733E+06    -2.05464E+06    -26.9336E+06    -26.8314E+06    -2.15684E+06     44.0733E+06     147.955E+03         72.6944
             433     8.52852E-03     74.7694E-03         2.05087    -907.309E-03        -1.50706    -906.857E-03         2.05042        -1.50706    -36.2487E-03     507.168E-03    -252.484E-03    -254.391E-03    -245.952E-03     500.636E-03    -254.391E-03     139.801E-03     40.0620E+06    -7.53537E+06    -32.7684E+06    -32.7131E+06    -7.59065E+06     40.0620E+06     245.785E+03         71.8672
             434     7.75176E-03     74.6129E-03         2.26555        -1.05834        -1.56728        -1.05784         2.26505        -1.56728    -28.7131E-03     505.433E-03    -250.946E-03    -254.550E-03    -246.384E-03     500.871E-03    -254.550E-03     116.562E-03     32.0400E+06    -14.7203E+06    -39.5467E+06    -39.4867E+06    -14.7803E+06     32.0400E+06     206.090E+03         70.8605
             435     6.97741E-03     74.4998E-03         2.46978        -1.20614        -1.62083        -1.20565         2.46929        -1.62083     10.7519E-03     504.475E-03    -250.449E-03    -255.108E-03    -247.572E-03     501.598E-03    -255.108E-03     92.0964E-03     22.1760E+06    -22.7491E+06    -46.8763E+06    -46.8046E+06    -22.8208E+06     22.1760E+06     92.7675E+03         69.5762
             436     6.19987E-03     74.4258E-03         2.64691        -1.33299        -1.66791        -1.33254         2.64646        -1.66791     9.71392E-03     504.427E-03    -250.430E-03    -255.320E-03    -248.801E-03     502.798E-03    -255.320E-03     69.3626E-03     12.1968E+06    -31.4040E+06    -54.7638E+06    -54.7243E+06    -31.4434E+06     12.1968E+06    -170.558E+03         68.2026
             437     5.42393E-03     74.3797E-03         2.80130        -1.44503        -1.70954        -1.44494         2.80121        -1.70954     14.5105E-03     505.956E-03    -251.076E-03    -255.551E-03    -250.190E-03     505.069E-03    -255.551E-03     51.0364E-03     928.468E+03    -41.0957E+06    -63.7694E+06    -63.7574E+06    -41.1077E+06     928.468E+03    -440.460E+03         66.9046
             438     4.64919E-03     74.3630E-03         2.92693        -1.53388        -1.74704        -1.53372         2.92677        -1.74704    -10.8284E-03     507.958E-03    -252.473E-03    -255.723E-03    -252.048E-03     507.533E-03    -255.723E-03     35.1638E-03    -13.8557E+06    -52.2162E+06    -73.4679E+06    -73.4279E+06    -52.2562E+06    -13.8557E+06    -345.539E+03         65.7375
             439     3.87553E-03     74.3640E-03         3.04381        -1.61806        -1.78122        -1.61761         3.04336        -1.78122    -18.4155E-03     509.032E-03    -253.699E-03    -255.613E-03    -253.535E-03     508.867E-03    -255.613E-03     21.3875E-03    -34.4005E+06    -65.9336E+06    -83.9181E+06    -83.8340E+06    -66.0177E+06    -34.4005E+06    -99.6525E+03         64.7586
             440     3.09990E-03     74.3791E-03         3.16639        -1.71562        -1.80881        -1.71522         3.16599        -1.80881    -7.12643E-03     509.116E-03    -253.704E-03    -255.513E-03    -253.662E-03     509.074E-03    -255.513E-03     10.1981E-03    -57.5804E+06    -84.9018E+06    -96.0495E+06    -93.0579E+06    -87.8935E+06    -57.5804E+06     898.269E+03         63.9907
             441     2.32198E-03     74.3969E-03         3.25704        -1.78772        -1.82690        -1.78817         3.25683        -1.82624    -35.7756E-03     509.263E-03    -253.903E-03    -255.436E-03    -253.895E-03     509.255E-03    -255.436E-03     3.39244E-03    -80.5169E+06    -100.674E+06    -121.341E+06    -101.038E+06    -120.977E+06    -80.5169E+06     1.86168E+06         63.3673
             442     1.54845E-03     74.4135E-03         3.30552        -1.82307        -1.83950        -1.82933         3.30518        -1.83291    -66.5757E-03     510.319E-03    -254.930E-03    -255.606E-03    -254.927E-03     510.317E-03    -255.606E-03    -289.336E-06    -98.7461E+06    -107.302E+06    -155.141E+06    -107.399E+06    -155.044E+06    -98.7461E+06     1.18511E+06         62.8865
             443     774.998E-06     74.4274E-03         3.31274        -1.77952        -1.88768        -1.78496         3.31224        -1.88175     127.710E-06     511.313E-03    -254.823E-03    -256.499E-03    -256.380E-03     511.310E-03    -254.940E-03    -1.99360E-03    -105.917E+06    -114.614E+06    -182.477E+06    -111.128E+06    -182.467E+06    -109.412E+06     61.1441E+03         62.5929
             444     13.1800E-03     74.7975E-03     687.072E-03     82.7644E-03        -1.12546     83.5933E-03     686.244E-03        -1.12546     16.5026E-03     531.582E-03    -254.761E-03    -275.363E-03    -258.623E-03     514.842E-03    -254.761E-03     214.432E-03     58.4085E+06     16.2359E+06    -3.64963E+06    -3.63104E+06     16.2174E+06     58.4085E+06    -380.985E+03         81.8290
             445     12.4055E-03     74.3159E-03     940.298E-03    -86.3270E-03        -1.20797    -85.8999E-03     939.871E-03        -1.20797     24.3197E-03     532.177E-03    -254.909E-03    -276.224E-03    -256.727E-03     512.680E-03    -254.909E-03     241.961E-03     54.5084E+06     13.5334E+06    -7.84685E+06    -7.82804E+06     13.5146E+06     54.5084E+06     170.979E+03         79.1340
             446     11.6294E-03     74.0601E-03         1.20075    -264.508E-03        -1.28606    -264.092E-03         1.20033        -1.28606    -39.3117E-03     517.886E-03    -254.044E-03    -263.249E-03    -250.392E-03     505.029E-03    -254.044E-03     198.032E-03     51.6321E+06     10.3006E+06    -11.9007E+06    -11.7200E+06     10.1199E+06     51.6321E+06     115.965E+03         76.6638
             447     10.8551E-03     73.7441E-03         1.46073    -448.664E-03        -1.35774    -448.025E-03         1.46009        -1.35774    -9.82792E-03     516.721E-03    -254.313E-03    -262.168E-03    -249.494E-03     504.047E-03    -254.313E-03     196.236E-03     48.2717E+06     7.06527E+06    -15.9578E+06    -15.6072E+06     6.71470E+06     48.2717E+06     395.053E+03         74.8716
             448     10.0815E-03     73.5137E-03         1.70166    -618.534E-03        -1.42395    -618.013E-03         1.70114        -1.42395    -10.9830E-03     512.023E-03    -254.758E-03    -258.296E-03    -248.284E-03     502.011E-03    -254.758E-03     174.473E-03     45.4057E+06     2.37762E+06    -21.2211E+06    -20.9870E+06     2.14360E+06     45.4057E+06     653.690E+03         73.6304
             449     9.30545E-03     73.2882E-03         1.92620    -776.649E-03        -1.48525    -776.238E-03         1.92578        -1.48525    -55.9869E-03     509.804E-03    -253.927E-03    -255.983E-03    -246.701E-03     501.107E-03    -254.513E-03     161.926E-03     44.3823E+06    -1.45991E+06    -26.2001E+06    -26.0957E+06    -1.56434E+06     44.3823E+06     495.429E+03         72.6967
             450     8.52814E-03     73.1032E-03         2.14765    -938.228E-03        -1.54167    -937.481E-03         2.14690        -1.54167    -80.6201E-03     507.276E-03    -252.450E-03    -254.365E-03    -245.815E-03     500.641E-03    -254.365E-03     140.976E-03     39.8775E+06    -7.62330E+06    -32.6006E+06    -32.5115E+06    -7.71244E+06     39.8775E+06     304.323E+03         71.8667
             451     7.75331E-03     72.9472E-03         2.35487        -1.09133        -1.59273        -1.09070         2.35424        -1.59273    -64.2808E-03     505.540E-03    -251.050E-03    -254.558E-03    -246.359E-03     500.848E-03    -254.558E-03     118.166E-03     31.9329E+06    -14.9428E+06    -39.3855E+06    -39.3340E+06    -14.9943E+06     31.9329E+06    -119.162E+03         70.8583
             452     6.97634E-03     72.8341E-03         2.53425        -1.22123        -1.63943        -1.22079         2.53380        -1.63943    -2.57658E-03     504.082E-03    -249.991E-03    -255.142E-03    -247.032E-03     501.123E-03    -255.142E-03     93.4396E-03     22.1579E+06    -22.7816E+06    -46.5902E+06    -46.5405E+06    -22.8312E+06     22.1579E+06    -71.9206E+03         69.5751
             453     6.20024E-03     72.7598E-03         2.69513        -1.33653        -1.68312        -1.33607         2.69467        -1.68312     5.82096E-03     503.977E-03    -249.850E-03    -255.435E-03    -248.164E-03     502.291E-03    -255.435E-03     70.4263E-03     12.2943E+06    -31.2729E+06    -54.5213E+06    -54.4620E+06    -31.3322E+06     12.2943E+06     266.136E+03         68.2026
             454     5.42328E-03     72.7137E-03         2.83741        -1.43697        -1.72452        -1.43665         2.83709        -1.72452    -13.2997E-03     505.918E-03    -250.746E-03    -255.720E-03    -249.854E-03     505.026E-03    -255.720E-03     51.1450E-03     788.308E+03    -40.9171E+06    -63.3722E+06    -63.3124E+06    -40.9769E+06     788.308E+03     497.577E+03         66.9061
             455     4.64639E-03     72.6914E-03         2.98397        -1.54587        -1.76273        -1.54541         2.98352        -1.76273    -40.2208E-03     508.025E-03    -252.253E-03    -255.933E-03    -251.846E-03     507.617E-03    -255.933E-03     34.1121E-03    -15.3717E+06    -53.0993E+06    -73.9156E+06    -73.8666E+06    -53.1484E+06    -15.3717E+06     342.419E+03         65.7491
             456     3.87140E-03     72.6938E-03         3.12776        -1.65843        -1.79451        -1.65801         3.12734        -1.79451    -17.6676E-03     509.274E-03    -253.703E-03    -255.911E-03    -253.556E-03     509.127E-03    -255.911E-03     20.1622E-03    -35.2543E+06    -66.2267E+06    -83.6973E+06    -83.6220E+06    -66.3020E+06    -35.2543E+06     67.1367E+03         64.7859
             457     3.09861E-03     72.7106E-03         3.22703        -1.73260        -1.81942        -1.73223         3.22666        -1.81942    -10.9047E-03     510.131E-03    -254.497E-03    -255.892E-03    -254.619E-03     510.091E-03    -255.732E-03     9.72123E-03    -57.7474E+06    -85.8683E+06    -98.1787E+06    -93.6242E+06    -90.4228E+06    -57.7474E+06    -13.9708E+03         64.0303
             458     2.32678E-03     72.7304E-03         3.30369        -1.79032        -1.83939        -1.79082         3.30353        -1.83873    -4.40775E-03     510.114E-03    -254.786E-03    -255.516E-03    -254.960E-03     510.108E-03    -255.336E-03     2.71385E-03    -78.7368E+06    -101.051E+06    -120.906E+06    -101.314E+06    -120.642E+06    -78.7368E+06     1.40239E+06         63.4119
             459     1.55067E-03     72.7443E-03         3.36372        -1.83145        -1.85594        -1.83621         3.36318        -1.85063    -62.5876E-03     509.794E-03    -254.749E-03    -255.304E-03    -254.767E-03     509.793E-03    -255.284E-03    -702.698E-06    -97.1629E+06    -106.809E+06    -151.069E+06    -106.970E+06    -150.908E+06    -97.1629E+06     2.15863E+06         62.9184
             460     774.773E-06     72.7609E-03         3.38830        -1.81528        -1.89427        -1.81903         3.38740        -1.88962    -10.1783E-03     510.530E-03    -254.316E-03    -256.221E-03    -255.297E-03     510.529E-03    -255.239E-03    -1.18274E-03    -105.388E+06    -113.949E+06    -180.703E+06    -110.504E+06    -180.652E+06    -108.883E+06     1.06977E+06         62.6042
             461     13.1817E-03     73.1265E-03     767.841E-03     56.6551E-03        -1.15530     57.0309E-03     767.465E-03        -1.15530     19.6183E-03     531.064E-03    -254.739E-03    -275.099E-03    -258.357E-03     514.322E-03    -254.739E-03     214.176E-03     58.5836E+06     16.0597E+06    -3.53711E+06    -3.50967E+06     16.0322E+06     58.5836E+06    -89.2846E+03         81.8325
             462     12.4053E-03     72.6523E-03         1.01599    -117.083E-03        -1.22366    -116.742E-03         1.01565        -1.22366     26.4909E-03     531.759E-03    -254.903E-03    -276.002E-03    -256.524E-03     512.282E-03    -254.903E-03     241.601E-03     54.8563E+06     14.0923E+06    -7.52494E+06    -7.35161E+06     13.9190E+06     54.8563E+06    -423.995E+03         79.1353
             463     11.6322E-03     72.3907E-03         1.26816    -299.572E-03        -1.28622    -299.311E-03         1.26790        -1.28622    -22.5263E-03     518.850E-03    -254.020E-03    -263.960E-03    -250.975E-03     505.865E-03    -254.020E-03     199.103E-03     50.9751E+06     9.80751E+06    -11.8097E+06    -11.4083E+06     9.40613E+06     50.9751E+06    -126.170E+03         76.6643
             464     10.8561E-03     72.0784E-03         1.49719    -467.149E-03        -1.34299    -466.872E-03         1.49691        -1.34299    -22.0460E-03     516.794E-03    -254.277E-03    -262.062E-03    -249.146E-03     503.878E-03    -254.277E-03     198.064E-03     47.3409E+06     5.96777E+06    -16.9336E+06    -16.4968E+06     5.53101E+06     47.3409E+06     575.736E+03         74.8701
             465     10.0799E-03     71.8432E-03         1.70425    -618.549E-03        -1.39532    -618.358E-03         1.70406        -1.39532    -14.4690E-03     511.447E-03    -254.744E-03    -257.954E-03    -247.816E-03     501.309E-03    -254.744E-03     175.449E-03     46.6391E+06     2.69855E+06    -21.1812E+06    -20.9481E+06     2.46536E+06     46.6391E+06     370.550E+03         73.6283
             466     9.30442E-03     71.6219E-03         1.91271    -775.034E-03        -1.44350    -774.738E-03         1.91242        -1.44350    -43.8153E-03     509.768E-03    -253.828E-03    -256.069E-03    -246.744E-03     501.092E-03    -254.477E-03     161.666E-03     44.8164E+06    -1.69294E+06    -26.4221E+06    -26.3140E+06    -1.80105E+06     44.8164E+06     120.044E+03         72.6970
             467     8.52777E-03     71.4376E-03         2.10673    -920.488E-03        -1.48746    -920.130E-03         2.10637        -1.48746    -60.0461E-03     507.069E-03    -251.826E-03    -254.367E-03    -245.221E-03     500.463E-03    -254.367E-03     140.668E-03     40.1114E+06    -7.31076E+06    -32.2510E+06    -32.1052E+06    -7.45648E+06     40.1114E+06     348.282E+03         71.8695
             468     7.75152E-03     71.2819E-03         2.27604        -1.04636        -1.52838        -1.04604         2.27573        -1.52838    -52.5529E-03     505.391E-03    -250.321E-03    -254.691E-03    -245.521E-03     500.592E-03    -254.691E-03     119.508E-03     31.4120E+06    -14.8964E+06    -39.1077E+06    -39.0341E+06    -14.9700E+06     31.4120E+06     231.038E+03         70.8662
             469     6.97646E-03     71.1696E-03         2.43545        -1.16470        -1.56736        -1.16429         2.43503        -1.56736    -8.83732E-03     504.595E-03    -250.236E-03    -255.314E-03    -247.199E-03     501.558E-03    -255.314E-03     94.5863E-03     20.6567E+06    -23.6995E+06    -47.0200E+06    -46.9843E+06    -23.7353E+06     20.6567E+06    -3.83659E+03         69.5920
             470     6.19703E-03     71.0932E-03         2.59426        -1.28678        -1.60394        -1.28639         2.59387        -1.60394    -9.32417E-03     505.238E-03    -250.764E-03    -255.513E-03    -249.110E-03     503.583E-03    -255.513E-03     69.6396E-03     11.9100E+06    -31.9530E+06    -55.1467E+06    -55.0938E+06    -32.0059E+06     11.9100E+06     252.536E+03         68.2238
             471     5.42264E-03     71.0442E-03         2.74701        -1.40767        -1.63631        -1.40733         2.74668        -1.63631    -53.3317E-03     506.766E-03    -251.355E-03    -255.634E-03    -250.535E-03     505.946E-03    -255.634E-03     48.8921E-03     1.27939E+06    -41.1371E+06    -63.7317E+06    -63.6724E+06    -41.1964E+06     1.27939E+06     740.505E+03         66.9155
             472     4.64928E-03     71.0207E-03         2.87164        -1.50441        -1.66413        -1.50398         2.87121        -1.66413    -70.6908E-03     507.541E-03    -251.798E-03    -255.771E-03    -251.452E-03     507.195E-03    -255.771E-03     31.3042E-03    -14.1536E+06    -52.3947E+06    -73.0533E+06    -73.0030E+06    -52.4449E+06    -14.1536E+06     543.205E+03         65.7360
             473     3.87377E-03     71.0261E-03         2.96050        -1.56682        -1.68988        -1.56643         2.96011        -1.68988    -80.8447E-03     508.220E-03    -252.545E-03    -255.878E-03    -252.428E-03     508.103E-03    -255.878E-03     18.2264E-03    -35.3071E+06    -66.6149E+06    -83.3737E+06    -83.3149E+06    -66.6736E+06    -35.3071E+06     195.557E+03         64.7643
             474     3.09772E-03     71.0397E-03         3.04114        -1.61897        -1.71562        -1.61864         3.04081        -1.71562    -61.6054E-03     509.705E-03    -253.844E-03    -256.088E-03    -253.967E-03     509.667E-03    -255.927E-03     10.2148E-03    -58.1016E+06    -85.0534E+06    -97.9196E+06    -92.2088E+06    -90.7642E+06    -58.1016E+06     288.324E+03         64.0257
             475     2.32320E-03     71.0604E-03         3.12045        -1.67166        -1.74121        -1.67137         3.12017        -1.74121    -27.2431E-03     510.828E-03    -255.050E-03    -255.964E-03    -255.362E-03     510.820E-03    -255.643E-03     4.54881E-03    -79.4748E+06    -99.9722E+06    -122.050E+06    -100.205E+06    -121.817E+06    -79.4748E+06    -65.6348E+03         63.4301
             476     1.55030E-03     71.0843E-03         3.19344        -1.71870        -1.76698        -1.71808         3.19282        -1.76698    -75.5547E-03     510.696E-03    -255.171E-03    -255.786E-03    -255.487E-03     510.695E-03    -255.470E-03     911.400E-06    -95.5098E+06    -105.101E+06    -149.613E+06    -105.224E+06    -149.491E+06    -95.5098E+06     398.635E+03         62.9458
             477     774.894E-06     71.0944E-03         3.27702        -1.74416        -1.81903        -1.74239         3.27526        -1.81903     33.3882E-03     510.612E-03    -254.056E-03    -256.567E-03    -255.673E-03     510.610E-03    -254.948E-03    -1.76662E-03    -102.167E+06    -110.202E+06    -176.285E+06    -107.729E+06    -176.241E+06    -104.683E+06     1.21448E+06         62.6295
             478     13.1817E-03     71.4635E-03     780.564E-03     36.7550E-03        -1.11945     36.9174E-03     780.402E-03        -1.11945    -2.52156E-03     531.146E-03    -254.725E-03    -275.295E-03    -258.629E-03     514.480E-03    -254.725E-03     214.170E-03     59.7287E+06     16.5926E+06    -3.49035E+06    -3.45207E+06     16.5543E+06     59.7287E+06     145.579E+03         81.8491
             479     12.4049E-03     70.9835E-03         1.01359    -134.885E-03        -1.16890    -134.572E-03         1.01328        -1.16890    -11.4158E-03     531.656E-03    -254.874E-03    -275.947E-03    -256.561E-03     512.269E-03    -254.874E-03     241.227E-03     54.8114E+06     13.8700E+06    -6.92666E+06    -6.60989E+06     13.5532E+06     54.8114E+06     535.427E+03         79.1476
             480     11.6303E-03     70.7220E-03         1.21365    -286.039E-03        -1.21290    -285.469E-03         1.21308        -1.21290    -40.5385E-03     518.412E-03    -254.011E-03    -263.846E-03    -250.951E-03     505.517E-03    -254.011E-03     198.453E-03     50.0550E+06     9.62929E+06    -12.3208E+06    -11.7291E+06     9.03757E+06     50.0550E+06     421.414E+03         76.6695
             481     10.8549E-03     70.4114E-03         1.40036    -430.482E-03        -1.25346    -430.006E-03         1.39989        -1.25346    -45.7554E-03     516.312E-03    -254.286E-03    -261.984E-03    -249.171E-03     503.499E-03    -254.286E-03     197.297E-03     46.8059E+06     6.06807E+06    -16.5921E+06    -16.1751E+06     5.65108E+06     46.8059E+06     22.5799E+03         74.8683
             482     10.0804E-03     70.1761E-03         1.58104    -573.234E-03        -1.29038    -573.126E-03         1.58093        -1.29038    -15.4415E-03     511.238E-03    -254.763E-03    -257.652E-03    -247.540E-03     501.126E-03    -254.763E-03     175.163E-03     45.9555E+06     2.12702E+06    -21.0668E+06    -20.9102E+06     1.97043E+06     45.9555E+06    -24.2396E+03         73.6214
             483     9.30482E-03     69.9502E-03         1.74949    -703.748E-03        -1.32472    -703.723E-03         1.74946        -1.32472    -9.22648E-03     509.267E-03    -253.391E-03    -255.755E-03    -246.001E-03     500.638E-03    -254.517E-03     161.124E-03     44.9732E+06    -1.99735E+06    -26.5084E+06    -26.4296E+06    -2.07617E+06     44.9732E+06    -160.354E+03         72.6945
             484     8.52894E-03     69.7701E-03         1.91535    -832.840E-03        -1.35672    -832.759E-03         1.91527        -1.35672    -10.4889E-03     506.851E-03    -251.344E-03    -254.467E-03    -244.692E-03     500.198E-03    -254.467E-03     141.117E-03     40.0964E+06    -7.89918E+06    -32.9862E+06    -32.8477E+06    -8.03766E+06     40.0964E+06    -102.472E+03         71.8802
             485     7.74993E-03     69.6173E-03         2.08385    -969.244E-03        -1.38568    -969.089E-03         2.08369        -1.38568    -14.1431E-03     505.696E-03    -250.657E-03    -254.806E-03    -245.871E-03     500.910E-03    -254.806E-03     119.233E-03     31.3592E+06    -15.1119E+06    -39.5100E+06    -39.3787E+06    -15.2433E+06     31.3592E+06     345.190E+03         70.8869
             486     6.97247E-03     69.4955E-03         2.22783        -1.08702        -1.41145        -1.08669         2.22749        -1.41145    -13.2290E-03     505.430E-03    -251.135E-03    -255.331E-03    -248.225E-03     502.521E-03    -255.331E-03     92.5348E-03     20.7752E+06    -23.6227E+06    -46.8182E+06    -46.7518E+06    -23.6891E+06     20.7752E+06     332.186E+03         69.6144
             487     6.20093E-03     69.4179E-03         2.34105        -1.17625        -1.43611        -1.17585         2.34065        -1.43611     1.82841E-03     506.021E-03    -251.561E-03    -255.412E-03    -249.964E-03     504.424E-03    -255.412E-03     68.7151E-03     12.0570E+06    -32.2392E+06    -55.1263E+06    -55.0840E+06    -32.2816E+06     12.0570E+06     201.626E+03         68.2411
             488     5.42735E-03     69.3709E-03         2.45292        -1.26482        -1.46028        -1.26459         2.45269        -1.46028     14.3422E-03     506.700E-03    -251.433E-03    -255.490E-03    -250.585E-03     505.852E-03    -255.490E-03     49.7425E-03     1.61928E+06    -41.5988E+06    -63.8602E+06    -63.8375E+06    -41.6215E+06     1.61928E+06     289.056E+03         66.9188
             489     4.65057E-03     69.3520E-03         2.55835        -1.34679        -1.48295        -1.34669         2.55825        -1.48295    -3.12945E-03     507.088E-03    -251.509E-03    -255.620E-03    -251.133E-03     506.712E-03    -255.620E-03     32.7893E-03    -13.9398E+06    -52.6688E+06    -73.0831E+06    -73.0623E+06    -52.6896E+06    -13.9398E+06     555.070E+03         65.7182
             490     3.87385E-03     69.3584E-03         2.64324        -1.40804        -1.50399        -1.40785         2.64305        -1.50399    -23.4338E-03     507.944E-03    -252.370E-03    -255.711E-03    -252.237E-03     507.812E-03    -255.711E-03     19.1443E-03    -34.8074E+06    -66.3731E+06    -82.7939E+06    -82.7394E+06    -66.4275E+06    -34.8074E+06     553.504E+03         64.7330
             491     3.09760E-03     69.3713E-03         2.71546        -1.45707        -1.52359        -1.45691         2.71529        -1.52359    -6.02714E-03     509.160E-03    -253.361E-03    -255.828E-03    -253.329E-03     509.127E-03    -255.828E-03     8.64612E-03    -58.6059E+06    -85.2415E+06    -96.9544E+06    -92.3292E+06    -89.8668E+06    -58.6059E+06    -170.903E+03         63.9971
             492     2.32152E-03     69.3899E-03         2.77544        -1.49709        -1.54271        -1.49772         2.77516        -1.54180    -2.36105E-03     510.302E-03    -254.482E-03    -255.963E-03    -254.617E-03     510.297E-03    -255.822E-03     1.21357E-03    -79.1317E+06    -98.7210E+06    -122.165E+06    -99.1016E+06    -121.784E+06    -79.1317E+06    -1.05990E+06         63.4114
             493     1.54772E-03     69.4101E-03         2.82741        -1.53010        -1.56035        -1.53084         2.82700        -1.55919    -38.5190E-03     511.356E-03    -255.455E-03    -256.186E-03    -255.748E-03     511.353E-03    -255.890E-03    -1.61527E-03    -94.5641E+06    -103.511E+06    -151.537E+06    -103.584E+06    -151.465E+06    -94.5641E+06    -1.08253E+06         62.9427
             494     775.414E-06     69.4300E-03         2.87801        -1.53945        -1.60162        -1.53671         2.87501        -1.60137     122.479E-03     511.477E-03    -254.899E-03    -256.600E-03    -256.515E-03     511.474E-03    -254.981E-03    -1.15084E-03    -102.264E+06    -109.542E+06    -176.202E+06    -107.050E+06    -176.177E+06    -104.780E+06    -778.231E+03         62.6408
             495     13.1814E-03     69.7869E-03     726.948E-03     33.2009E-03        -1.01633     33.6050E-03     726.544E-03        -1.01633    -26.1394E-03     531.562E-03    -254.734E-03    -275.656E-03    -259.131E-03     515.037E-03    -254.734E-03     213.718E-03     59.1793E+06     15.8132E+06    -3.00894E+06    -2.80742E+06     15.6117E+06     59.1793E+06    -7.45836E+03         81.8676
             496     12.4079E-03     69.3214E-03     893.955E-03    -102.908E-03        -1.04618    -102.465E-03     893.512E-03        -1.04618    -36.6486E-03     531.898E-03    -254.848E-03    -276.101E-03    -256.832E-03     512.629E-03    -254.848E-03     240.845E-03     54.9877E+06     13.6784E+06    -8.39676E+06    -8.00189E+06     13.2835E+06     54.9877E+06     162.660E+03         79.1670
             497     11.6329E-03     69.0510E-03         1.04788    -232.075E-03        -1.07208    -231.528E-03         1.04734        -1.07208    -41.9061E-03     518.391E-03    -253.979E-03    -263.806E-03    -250.928E-03     505.513E-03    -253.979E-03     198.390E-03     50.6317E+06     9.71917E+06    -12.4878E+06    -11.8279E+06     9.05920E+06     50.6317E+06     158.573E+03         76.6813
             498     10.8567E-03     68.7468E-03         1.19984    -361.859E-03        -1.09624    -361.020E-03         1.19900        -1.09624    -13.9043E-03     516.104E-03    -254.248E-03    -261.786E-03    -249.082E-03     503.400E-03    -254.248E-03     196.430E-03     47.1789E+06     5.93743E+06    -16.2641E+06    -15.9083E+06     5.58166E+06     47.1789E+06     257.673E+03         74.8670
             499     10.0811E-03     68.5016E-03         1.34510    -485.637E-03        -1.11747    -485.056E-03         1.34452        -1.11747     23.0383E-03     510.003E-03    -254.274E-03    -256.751E-03    -246.168E-03     499.899E-03    -254.753E-03     174.800E-03     46.0397E+06     2.52824E+06    -20.3338E+06    -20.2075E+06     2.40191E+06     46.0397E+06     460.926E+03         73.6107
             500     9.30347E-03     68.2847E-03         1.47524    -593.694E-03        -1.13723    -593.572E-03         1.47512        -1.13723     2.35552E-03     508.228E-03    -252.867E-03    -255.086E-03    -244.594E-03     499.471E-03    -254.602E-03     162.095E-03     44.3797E+06    -1.98616E+06    -26.1437E+06    -26.0333E+06    -2.09653E+06     44.3797E+06     10.0406E+03         72.6915
             501     8.52364E-03     68.1013E-03         1.60258    -699.877E-03        -1.15534    -699.366E-03         1.60207        -1.15534     30.0909E-03     507.670E-03    -252.647E-03    -254.702E-03    -246.038E-03     500.960E-03    -254.602E-03     141.812E-03     38.8369E+06    -8.60784E+06    -33.0208E+06    -32.8950E+06    -8.73361E+06     38.8369E+06    -280.431E+03         71.8994
             502     7.75094E-03     67.9447E-03         1.72578    -804.768E-03        -1.17228    -804.274E-03         1.72528        -1.17228     39.5886E-03     506.779E-03    -252.449E-03    -254.897E-03    -247.839E-03     502.068E-03    -254.797E-03     118.526E-03     31.3059E+06    -15.7124E+06    -39.7465E+06    -39.6321E+06    -15.8269E+06     31.3059E+06     166.426E+03         70.9114
             503     6.97947E-03     67.8246E-03         1.83870    -899.421E-03        -1.18920    -898.551E-03         1.83783        -1.18920     62.3271E-03     505.304E-03    -251.291E-03    -255.168E-03    -248.407E-03     502.420E-03    -255.168E-03     92.2675E-03     22.3007E+06    -23.3128E+06    -46.5573E+06    -46.4681E+06    -23.4020E+06     22.3007E+06     455.349E+03         69.6203
             504     6.19940E-03     67.7464E-03         1.94756    -991.920E-03        -1.20665    -990.904E-03         1.94655        -1.20665     93.8479E-03     505.130E-03    -251.103E-03    -255.301E-03    -249.476E-03     503.504E-03    -255.301E-03     69.3339E-03     12.1150E+06    -32.0654E+06    -54.5250E+06    -54.4329E+06    -32.1574E+06     12.1150E+06     87.2643E+03         68.2310
             505     5.42330E-03     67.7004E-03         2.02342        -1.04942        -1.22546        -1.04914         2.02315        -1.22546     58.2454E-03     506.137E-03    -251.147E-03    -255.485E-03    -250.285E-03     505.276E-03    -255.485E-03     50.0320E-03     967.064E+03    -42.1183E+06    -63.9196E+06    -63.8700E+06    -42.1678E+06     967.064E+03    -54.0425E+03         66.9085
             506     4.64902E-03     67.6842E-03         2.09744        -1.09911        -1.24729        -1.09874         2.09708        -1.24729     46.1772E-03     507.366E-03    -251.876E-03    -255.634E-03    -251.497E-03     506.987E-03    -255.634E-03     33.0186E-03    -14.2753E+06    -53.4467E+06    -73.5386E+06    -73.5271E+06    -53.4582E+06    -14.2753E+06     122.239E+03         65.7144
             507     3.87464E-03     67.6869E-03         2.20247        -1.18005        -1.26860        -1.17971         2.20212        -1.26860     45.2805E-03     508.693E-03    -253.391E-03    -255.563E-03    -253.251E-03     508.552E-03    -255.563E-03     19.7922E-03    -34.0788E+06    -66.1029E+06    -82.7458E+06    -82.7058E+06    -66.1429E+06    -34.0788E+06     284.356E+03         64.7288
             508     3.10083E-03     67.7005E-03         2.28608        -1.24640        -1.28419        -1.24614         2.28582        -1.28419     43.9417E-03     509.539E-03    -254.163E-03    -255.435E-03    -254.128E-03     509.504E-03    -255.435E-03     8.88408E-03    -57.0465E+06    -83.3831E+06    -95.6491E+06    -90.8938E+06    -88.1384E+06    -57.0465E+06     60.8890E+03         63.9785
             509     2.32679E-03     67.7212E-03         2.33762        -1.28233        -1.29742        -1.28634         2.33725        -1.29305     56.2853E-03     509.348E-03    -254.236E-03    -255.216E-03    -254.230E-03     509.342E-03    -255.216E-03     789.724E-06    -77.8255E+06    -98.3383E+06    -121.677E+06    -98.7670E+06    -121.249E+06    -77.8255E+06    -823.233E+03         63.3739
             510     1.55008E-03     67.7432E-03         2.36743        -1.29086        -1.31788        -1.31743         2.36698        -1.29086     109.112E-06     509.633E-03    -254.510E-03    -255.385E-03    -254.505E-03     509.629E-03    -255.385E-03    -3.06307E-03    -95.1753E+06    -105.631E+06    -153.526E+06    -105.691E+06    -153.466E+06    -95.1753E+06    -1.20345E+06         62.9003
             511     773.434E-06     67.7591E-03         2.33341        -1.25729        -1.31906        -1.27808         2.33155        -1.29641     39.8636E-03     510.846E-03    -255.183E-03    -255.734E-03    -255.341E-03     510.837E-03    -255.567E-03    -3.19438E-03    -106.053E+06    -112.890E+06    -179.333E+06    -110.936E+06    -179.291E+06    -108.050E+06    -335.441E+03         62.6069
             512     13.1823E-03     68.1186E-03     606.106E-03     31.3634E-03    -860.192E-03     33.4614E-03     604.008E-03    -860.192E-03     17.1990E-03     531.407E-03    -254.738E-03    -275.439E-03    -258.816E-03     514.785E-03    -254.738E-03     214.359E-03     58.1644E+06     15.4825E+06    -3.98752E+06    -3.76757E+06     15.2626E+06     58.1644E+06    -279.277E+03         81.8740
             513     12.4060E-03     67.6439E-03     719.744E-03    -79.8624E-03    -872.590E-03    -76.1181E-03     716.000E-03    -872.590E-03     57.1655E-03     532.171E-03    -254.867E-03    -276.432E-03    -257.037E-03     512.776E-03    -254.867E-03     241.740E-03     54.3304E+06     12.8331E+06    -8.03150E+06    -7.62166E+06     12.4232E+06     54.3304E+06    -440.070E+03         79.1765
             514     11.6315E-03     67.3859E-03     846.098E-03    -201.792E-03    -881.168E-03    -198.370E-03     842.676E-03    -881.168E-03     76.1136E-03     519.516E-03    -253.984E-03    -264.594E-03    -251.511E-03     506.434E-03    -253.984E-03     200.156E-03     50.6506E+06     9.32551E+06    -11.8690E+06      -11.27E+06     8.72646E+06     50.6506E+06     217.165E+03         76.6894
             515     10.8563E-03     67.0716E-03     965.914E-03    -315.803E-03    -887.794E-03    -313.671E-03     963.783E-03    -887.794E-03     79.4357E-03     516.470E-03    -254.240E-03    -261.250E-03    -248.414E-03     503.634E-03    -254.240E-03     197.343E-03     47.8325E+06     6.01022E+06    -15.7870E+06    -15.5097E+06     5.73294E+06     47.8325E+06     217.094E+03         74.8717
             516     10.0820E-03     66.8391E-03         1.06345    -410.919E-03    -891.235E-03    -409.767E-03         1.06229    -891.235E-03     78.3272E-03     509.710E-03    -254.304E-03    -256.074E-03    -245.535E-03     499.650E-03    -254.783E-03     174.305E-03     45.4537E+06     1.70247E+06    -20.8427E+06    -20.7444E+06     1.60422E+06     45.4537E+06     270.917E+03         73.6168
             517     9.29985E-03     66.6203E-03         1.15156    -498.350E-03    -892.760E-03    -497.744E-03         1.15095    -892.760E-03     36.9353E-03     508.640E-03    -253.730E-03    -255.110E-03    -245.572E-03     499.983E-03    -254.613E-03     161.263E-03     43.8172E+06    -2.13157E+06    -25.8477E+06    -25.6805E+06    -2.29879E+06     43.8172E+06     381.128E+03         72.7007
             518     8.52668E-03     66.4266E-03         1.21122    -557.356E-03    -893.191E-03    -556.863E-03         1.21072    -893.191E-03     29.5059E-03     508.010E-03    -253.406E-03    -254.618E-03    -246.967E-03     501.464E-03    -254.510E-03     140.168E-03     39.0244E+06    -7.98476E+06    -31.7409E+06    -31.5970E+06    -8.12863E+06     39.0244E+06     496.994E+03         71.9064
             519     7.75272E-03     66.2744E-03         1.24831    -591.325E-03    -896.583E-03    -590.853E-03         1.24784    -896.583E-03     22.5141E-03     506.452E-03    -252.090E-03    -254.790E-03    -247.539E-03     501.800E-03    -254.689E-03     117.917E-03     30.8029E+06    -15.6183E+06    -38.9181E+06    -38.8578E+06    -15.6787E+06     30.8029E+06     452.133E+03         70.9079
             520     6.97498E-03     66.1572E-03         1.30834    -642.005E-03    -904.702E-03    -641.257E-03         1.30759    -904.702E-03     35.6747E-03     504.897E-03    -250.936E-03    -255.109E-03    -247.979E-03     501.941E-03    -255.109E-03     93.4348E-03     21.8702E+06    -23.7806E+06    -46.5541E+06    -46.4866E+06    -23.8481E+06     21.8702E+06     432.671E+03         69.6054
             521     6.20157E-03     66.0798E-03         1.38084    -699.123E-03    -917.477E-03    -698.151E-03         1.37987    -917.477E-03     40.8766E-03     504.957E-03    -250.950E-03    -255.279E-03    -249.302E-03     503.308E-03    -255.279E-03     69.6783E-03     11.9963E+06    -32.4317E+06    -54.6675E+06    -54.5447E+06    -32.5545E+06     11.9963E+06     428.008E+03         68.2141
             522     5.42616E-03     66.0334E-03         1.46456    -765.269E-03    -933.868E-03    -764.864E-03         1.46415    -933.868E-03     23.4556E-03     506.272E-03    -251.169E-03    -255.485E-03    -250.329E-03     505.431E-03    -255.485E-03     49.4453E-03     1.30934E+06    -41.6244E+06    -63.2782E+06    -63.1733E+06    -41.7293E+06     1.30934E+06    -142.835E+03         66.9001
             523     4.65002E-03     66.0138E-03         1.55135    -833.233E-03    -951.757E-03    -832.729E-03         1.55084    -951.757E-03     67.2813E-03     507.833E-03    -252.349E-03    -255.583E-03    -251.980E-03     507.464E-03    -255.583E-03     32.6300E-03    -13.4562E+06    -53.0279E+06    -73.0539E+06    -73.0216E+06    -53.0602E+06    -13.4562E+06    -180.444E+03         65.7157
             524     3.87484E-03     66.0181E-03         1.62002    -883.426E-03    -970.434E-03    -882.996E-03         1.61959    -970.434E-03     61.8733E-03     508.855E-03    -253.648E-03    -255.391E-03    -253.511E-03     508.719E-03    -255.391E-03     19.4332E-03    -34.4889E+06    -66.7011E+06    -82.8736E+06    -82.8371E+06    -66.7375E+06    -34.4889E+06     259.401E+03         64.7277
             525     3.09987E-03     66.0317E-03         1.69449    -939.234E-03    -988.062E-03    -938.990E-03         1.69424    -988.062E-03     40.5076E-03     508.886E-03    -253.674E-03    -255.271E-03    -253.639E-03     508.850E-03    -255.271E-03     9.56578E-03    -58.2706E+06    -84.1099E+06    -95.1355E+06    -91.2319E+06    -88.0135E+06    -58.2706E+06     140.508E+03         63.9634
             526     2.32513E-03     66.0557E-03         1.75144    -977.385E-03        -1.00528    -980.577E-03         1.75116        -1.00182     27.4906E-03     508.893E-03    -253.851E-03    -255.147E-03    -253.844E-03     508.886E-03    -255.147E-03     3.87439E-03    -80.6311E+06    -98.4103E+06    -121.024E+06    -98.8470E+06    -120.587E+06    -80.6311E+06    -519.602E+03         63.3479
             527     1.55119E-03     66.0782E-03         1.78573    -975.557E-03        -1.03830        -1.00016         1.78446        -1.01244     27.9110E-03     509.631E-03    -254.510E-03    -255.334E-03    -254.507E-03     509.627E-03    -255.334E-03     662.886E-06    -95.8267E+06    -104.841E+06    -156.512E+06    -104.891E+06    -156.462E+06    -95.8267E+06    -773.163E+03         62.8748
             528     776.402E-06     66.0952E-03         1.81705    -959.270E-03        -1.08126    -977.671E-03         1.81305        -1.05885    -66.4359E-03     510.787E-03    -254.820E-03    -256.013E-03    -255.650E-03     510.777E-03    -255.173E-03    -1.04277E-03    -102.715E+06    -109.888E+06    -179.700E+06    -107.915E+06    -179.676E+06    -104.712E+06     104.940E+03         62.5874
             529     13.1818E-03     66.4472E-03     398.194E-03     43.4637E-03    -666.193E-03     47.6579E-03     394.000E-03    -666.193E-03     62.2095E-03     531.302E-03    -254.737E-03    -275.314E-03    -258.718E-03     514.706E-03    -254.737E-03     214.587E-03     58.4872E+06     14.8752E+06    -4.87172E+06    -4.76706E+06     14.7706E+06     58.4872E+06    -298.023E+03         81.8656
             530     12.4060E-03     65.9769E-03     497.541E-03    -65.4636E-03    -658.882E-03    -61.0865E-03     493.164E-03    -658.882E-03     69.7713E-03     531.932E-03    -254.866E-03    -276.134E-03    -256.900E-03     512.699E-03    -254.866E-03     240.587E-03     54.3737E+06     12.9855E+06    -7.80303E+06    -7.36491E+06     12.5474E+06     54.3737E+06    -90.8555E+03         79.1711
             531     11.6321E-03     65.7116E-03     573.183E-03    -150.905E-03    -646.625E-03    -146.795E-03     569.073E-03    -646.625E-03     52.7257E-03     518.317E-03    -254.017E-03    -263.740E-03    -250.676E-03     505.253E-03    -254.017E-03     199.640E-03     49.8429E+06     9.06607E+06    -11.8109E+06    -11.2596E+06     8.51477E+06     49.8429E+06    -188.596E+03         76.6877
             532     10.8564E-03     65.4067E-03     630.691E-03    -220.542E-03    -633.360E-03    -218.312E-03     628.460E-03    -633.360E-03     33.5332E-03     515.715E-03    -254.341E-03    -260.898E-03    -247.980E-03     502.796E-03    -254.341E-03     197.779E-03     47.0820E+06     5.26560E+06    -16.2530E+06    -15.9599E+06     4.97242E+06     47.0820E+06    -544.282E+03         74.8814
             533     10.0777E-03     65.1738E-03     676.715E-03    -283.525E-03    -617.915E-03    -282.630E-03     675.819E-03    -617.915E-03     38.1705E-03     511.716E-03    -254.856E-03    -257.609E-03    -247.547E-03     501.654E-03    -254.856E-03     174.783E-03     45.7122E+06     1.49043E+06    -20.6064E+06    -20.4185E+06     1.30255E+06     45.7122E+06    -150.703E+03         73.6405
             534     9.30601E-03     64.9484E-03     707.772E-03    -333.195E-03    -602.229E-03    -332.619E-03     707.195E-03    -602.229E-03     33.7072E-03     510.601E-03    -254.417E-03    -256.343E-03    -247.565E-03     501.946E-03    -254.541E-03     161.718E-03     44.2221E+06    -2.44499E+06    -25.6438E+06    -25.5206E+06    -2.56816E+06     44.2221E+06     775.635E+03         72.7182
             535     8.52923E-03     64.7561E-03     732.685E-03    -375.701E-03    -587.078E-03    -375.488E-03     732.472E-03    -587.078E-03     13.4849E-03     507.583E-03    -252.787E-03    -254.357E-03    -246.201E-03     500.990E-03    -254.351E-03     140.584E-03     39.8250E+06    -8.08241E+06    -31.9507E+06    -31.8264E+06    -8.20670E+06     39.8250E+06     1.06671E+06         71.8969
             536     7.75174E-03     64.6066E-03     756.727E-03    -411.930E-03    -574.553E-03    -411.717E-03     756.514E-03    -574.553E-03     12.1283E-03     505.647E-03    -251.085E-03    -254.584E-03    -246.470E-03     501.032E-03    -254.584E-03     117.168E-03     30.6207E+06    -15.7260E+06    -38.7399E+06    -38.6575E+06    -15.8084E+06     30.6207E+06     631.994E+03         70.8841
             537     6.97757E-03     64.4892E-03     758.031E-03    -418.846E-03    -566.927E-03    -418.374E-03     757.560E-03    -566.927E-03     20.0066E-03     504.445E-03    -250.351E-03    -255.104E-03    -247.481E-03     501.574E-03    -255.104E-03     92.0519E-03     20.8484E+06    -24.1454E+06    -46.3612E+06    -46.3003E+06    -24.2064E+06     20.8484E+06     423.204E+03         69.5882
             538     6.19858E-03     64.4118E-03     756.727E-03    -415.553E-03    -567.381E-03    -414.887E-03     756.061E-03    -567.381E-03     9.73620E-03     504.806E-03    -250.635E-03    -255.335E-03    -248.997E-03     503.168E-03    -255.335E-03     69.5462E-03     12.6937E+06    -32.2810E+06    -54.3748E+06    -54.2694E+06    -32.3864E+06     12.6937E+06     478.171E+03         68.2043
             539     5.42397E-03     64.3670E-03     794.544E-03    -442.960E-03    -575.540E-03    -442.523E-03     794.107E-03    -575.540E-03     12.5652E-03     506.676E-03    -251.681E-03    -255.523E-03    -250.812E-03     505.807E-03    -255.523E-03     50.4311E-03     2.49366E+06    -41.2052E+06    -62.8808E+06    -62.6988E+06    -41.3872E+06     2.49366E+06     578.562E+03         66.8932
             540     4.64980E-03     64.3480E-03     861.646E-03    -500.136E-03    -587.388E-03    -499.085E-03     860.595E-03    -587.388E-03     12.7895E-03     507.994E-03    -252.588E-03    -255.556E-03    -252.192E-03     507.597E-03    -255.556E-03     33.9202E-03    -13.1743E+06    -52.5123E+06    -72.1399E+06    -72.0216E+06    -52.6306E+06    -13.1743E+06     542.306E+03         65.7100
             541     3.87677E-03     64.3480E-03     916.324E-03    -544.585E-03    -600.514E-03    -543.697E-03     915.436E-03    -600.514E-03    -2.89678E-03     508.338E-03    -253.077E-03    -255.409E-03    -252.927E-03     508.188E-03    -255.409E-03     20.3114E-03    -34.6386E+06    -66.5995E+06    -82.3632E+06    -82.2516E+06    -66.7111E+06    -34.6386E+06    -98.2569E+03         64.7227
             542     3.10106E-03     64.3692E-03     952.164E-03    -564.218E-03    -616.400E-03    -564.152E-03     952.098E-03    -616.400E-03     8.22656E-03     508.399E-03    -253.073E-03    -255.442E-03    -253.035E-03     508.360E-03    -255.442E-03     9.81153E-03    -59.1764E+06    -84.7908E+06    -96.7464E+06    -91.8868E+06    -89.6504E+06    -59.1764E+06    -174.279E+03         63.9624
             543     2.32310E-03     64.3902E-03     995.883E-03    -585.839E-03    -636.726E-03    -585.357E-03     995.402E-03    -636.726E-03    -27.8436E-03     509.005E-03    -253.583E-03    -255.554E-03    -253.576E-03     508.998E-03    -255.554E-03     3.19388E-03    -81.3637E+06    -98.4952E+06    -120.654E+06    -98.9183E+06    -120.231E+06    -81.3637E+06     656.843E+03         63.3549
             544     1.54670E-03     64.4126E-03         1.05910    -610.954E-03    -671.905E-03    -621.504E-03         1.05770    -659.956E-03     17.1764E-03     510.578E-03    -254.823E-03    -255.954E-03    -254.820E-03     510.575E-03    -255.954E-03     263.079E-06    -96.9864E+06    -104.414E+06    -156.299E+06    -104.444E+06    -156.270E+06    -96.9864E+06     104.235E+03         62.8912
             545     772.733E-06     64.4255E-03         1.14003    -618.488E-03    -740.058E-03    -619.016E-03         1.12861    -728.110E-03    -127.569E-03     512.223E-03    -255.615E-03    -256.650E-03    -256.281E-03     512.216E-03    -255.978E-03    -148.657E-06    -103.323E+06    -109.583E+06    -181.909E+06    -107.200E+06    -181.883E+06    -105.732E+06    -1.28905E+06         62.6122
             546     13.1812E-03     64.7791E-03     170.524E-03     29.9658E-03    -430.391E-03     63.5717E-03     136.918E-03    -430.391E-03    -1.05381E-03     531.517E-03    -254.717E-03    -275.432E-03    -258.667E-03     514.752E-03    -254.717E-03     215.123E-03     59.2456E+06     15.0079E+06    -3.21942E+06    -3.05268E+06     14.8411E+06     59.2456E+06     555.198E+03         81.8417
             547     12.4079E-03     64.3021E-03     207.538E-03    -26.4743E-03    -399.517E-03    -10.0005E-03     191.064E-03    -399.517E-03    -33.1973E-03     532.052E-03    -254.872E-03    -276.068E-03    -256.598E-03     512.581E-03    -254.872E-03     241.885E-03     54.6795E+06     12.9820E+06    -7.43446E+06    -7.09262E+06     12.6402E+06     54.6795E+06    -322.671E+03         79.1511
             548     11.6314E-03     64.0471E-03     218.761E-03    -65.2069E-03    -365.442E-03    -55.0388E-03     208.593E-03    -365.442E-03    -50.6109E-03     517.344E-03    -254.057E-03    -263.039E-03    -250.068E-03     504.373E-03    -254.057E-03     198.775E-03     49.4653E+06     8.26952E+06    -12.0953E+06    -11.6362E+06     7.81045E+06     49.4653E+06    -449.302E+03         76.6790
             549     10.8511E-03     63.7406E-03     212.598E-03    -91.7169E-03    -332.952E-03    -82.8733E-03     203.754E-03    -332.952E-03    -43.2535E-03     515.911E-03    -254.383E-03    -261.599E-03    -248.898E-03     503.210E-03    -254.383E-03     196.153E-03     46.8138E+06     4.98796E+06    -15.9811E+06    -15.6721E+06     4.67887E+06     46.8138E+06    -279.017E+03         74.8881
             550     10.0804E-03     63.5014E-03     229.446E-03    -133.822E-03    -308.976E-03    -93.2542E-03     180.154E-03    -300.252E-03    -42.8161E-03     512.302E-03    -254.849E-03    -258.311E-03    -248.417E-03     502.408E-03    -254.849E-03     173.490E-03     45.8724E+06     1.57053E+06    -20.5299E+06    -20.2703E+06     1.31097E+06     45.8724E+06    -218.645E+03         73.6542
             551     9.30378E-03     63.2745E-03     236.699E-03    -154.973E-03    -296.886E-03    -97.7907E-03     152.900E-03    -270.269E-03    -43.1808E-03     510.283E-03    -254.117E-03    -256.102E-03    -247.005E-03     501.579E-03    -254.511E-03     162.166E-03     44.0015E+06    -3.50591E+06    -26.6041E+06    -26.4869E+06    -3.62311E+06     44.0015E+06     232.222E+03         72.7241
             552     8.52850E-03     63.0914E-03     249.796E-03    -163.317E-03    -301.211E-03    -118.513E-03     146.547E-03    -242.766E-03    -22.5988E-03     507.626E-03    -252.790E-03    -254.352E-03    -246.009E-03     500.846E-03    -254.352E-03     142.571E-03     39.9333E+06    -9.04949E+06    -32.5651E+06    -32.4674E+06    -9.14717E+06     39.9333E+06     524.731E+03         71.8916
             553     7.75370E-03     62.9359E-03     278.307E-03    -176.873E-03    -316.058E-03    -139.141E-03     143.337E-03    -218.819E-03    -35.8757E-03     505.867E-03    -251.491E-03    -254.590E-03    -246.722E-03     501.099E-03    -254.590E-03     119.132E-03     32.1048E+06    -15.5469E+06    -38.7844E+06    -38.6216E+06    -15.7097E+06     32.1048E+06     718.065E+03         70.8785
             554     6.97714E-03     62.8227E-03     255.219E-03    -167.169E-03    -302.223E-03    -150.974E-03     136.267E-03    -199.466E-03    -19.0709E-03     504.762E-03    -250.675E-03    -255.112E-03    -247.735E-03     501.822E-03    -255.112E-03     93.1058E-03     22.4331E+06    -23.4076E+06    -45.6928E+06    -45.5723E+06    -23.5281E+06     22.4331E+06     814.475E+03         69.5879
             555     6.20041E-03     62.7457E-03     240.840E-03    -171.526E-03    -282.516E-03    -171.449E-03     142.839E-03    -184.591E-03     14.0056E-03     504.962E-03    -250.792E-03    -255.313E-03    -249.166E-03     503.336E-03    -255.313E-03     69.2029E-03     13.3974E+06    -31.7936E+06    -53.5709E+06    -53.4405E+06    -31.9240E+06     13.3974E+06     636.212E+03         68.2039
             556     5.42410E-03     62.6966E-03     247.465E-03    -166.984E-03    -296.267E-03    -167.469E-03     126.099E-03    -174.415E-03    -35.8052E-06     506.422E-03    -251.515E-03    -255.484E-03    -250.676E-03     505.584E-03    -255.484E-03     49.5559E-03     2.07838E+06    -41.6321E+06    -63.0182E+06    -62.7351E+06    -41.9153E+06     2.07838E+06     316.330E+03         66.8882
             557     4.65031E-03     62.6779E-03     265.674E-03    -146.192E-03    -336.567E-03    -139.531E-03     94.9743E-03    -172.529E-03     11.8626E-03     507.353E-03    -251.872E-03    -255.610E-03    -251.490E-03     506.971E-03    -255.610E-03     33.2499E-03    -13.0470E+06    -53.0853E+06    -72.6545E+06    -72.4552E+06    -53.2846E+06    -13.0470E+06     232.732E+03         65.7029
             558     3.87287E-03     62.6840E-03     294.409E-03    -156.432E-03    -357.192E-03    -146.987E-03     106.572E-03    -178.801E-03    -2.86295E-03     507.838E-03    -252.428E-03    -255.651E-03    -252.280E-03     507.691E-03    -255.651E-03     20.3476E-03    -33.6478E+06    -66.3820E+06    -82.2681E+06    -82.0367E+06    -66.6134E+06    -33.6478E+06     356.291E+03         64.7259
             559     3.09740E-03     62.7010E-03     295.538E-03    -172.632E-03    -343.119E-03    -170.340E-03     138.284E-03    -188.156E-03    -18.9321E-03     509.205E-03    -253.754E-03    -255.730E-03    -253.711E-03     509.163E-03    -255.730E-03     10.4717E-03    -57.5373E+06    -85.2031E+06    -97.1075E+06    -92.0310E+06    -90.2796E+06    -57.5373E+06     604.250E+03         63.9844
             560     2.32513E-03     62.7245E-03     311.645E-03    -188.095E-03    -341.845E-03    -188.185E-03     167.569E-03    -197.679E-03    -32.7836E-03     510.298E-03    -254.556E-03    -255.886E-03    -254.874E-03     510.291E-03    -255.561E-03     2.68570E-03    -78.8421E+06    -99.3467E+06    -120.902E+06    -99.5873E+06    -120.662E+06    -78.8421E+06     1.27484E+06         63.3845
             561     1.55029E-03     62.7438E-03     368.777E-03    -202.194E-03    -383.466E-03    -212.401E-03     198.132E-03    -202.613E-03     37.7235E-03     510.506E-03    -254.808E-03    -255.911E-03    -255.163E-03     510.504E-03    -255.554E-03    -1.70635E-03    -95.1347E+06    -104.233E+06    -152.566E+06    -104.336E+06    -152.463E+06    -95.1347E+06     1.45809E+06         62.9109
             562     774.741E-06     62.7548E-03     421.918E-03    -204.785E-03    -430.497E-03    -175.234E-03     195.965E-03    -234.096E-03    -122.024E-03     511.074E-03    -255.050E-03    -256.067E-03    -255.752E-03     511.070E-03    -255.362E-03    -2.98013E-03    -105.290E+06    -111.756E+06    -183.194E+06    -109.447E+06    -183.094E+06    -107.698E+06     659.498E+03         62.6169
             563     13.1822E-03     63.1134E-03     105.678E-03    -7.36683E-03    -300.890E-03     94.0370E-03    -141.663E-03    -154.952E-03    -44.0448E-03     530.944E-03    -254.709E-03    -274.863E-03    -258.003E-03     514.084E-03    -254.709E-03     214.822E-03     58.0537E+06     15.2209E+06    -4.04010E+06    -3.59621E+06     14.7770E+06     58.0537E+06     346.627E+03         81.8174
             564     12.4032E-03     62.6286E-03     93.4746E-03     20.2089E-03    -313.073E-03     76.2243E-03    -170.880E-03    -104.734E-03    -58.2312E-03     531.377E-03    -254.910E-03    -275.364E-03    -255.857E-03     511.870E-03    -254.910E-03     241.368E-03     53.3938E+06     12.1642E+06    -7.77721E+06    -7.29056E+06     11.6775E+06     53.3938E+06    -132.332E+03         79.1305
             565     11.6290E-03     62.3819E-03     86.2824E-03     40.1200E-03    -325.611E-03     66.6121E-03    -211.931E-03    -53.8893E-03    -36.0779E-03     518.576E-03    -254.087E-03    -263.697E-03    -250.869E-03     505.748E-03    -254.087E-03     197.840E-03     49.7688E+06     8.31006E+06    -12.0326E+06    -11.4103E+06     7.68776E+06     49.7688E+06    -313.326E+03         76.6711
             566     10.8583E-03     62.0701E-03     88.0040E-03     49.6425E-03    -335.977E-03     60.9100E-03    -253.237E-03    -6.00398E-03    -35.2234E-03     517.475E-03    -254.347E-03    -262.592E-03    -249.718E-03     504.601E-03    -254.347E-03     197.937E-03     47.1466E+06     5.08359E+06    -15.7128E+06    -15.4464E+06     4.81720E+06     47.1466E+06     381.670E+03         74.8906
             567     10.0810E-03     61.8295E-03     117.385E-03     33.6135E-03    -348.658E-03     73.7343E-03    -313.197E-03     41.8029E-03    -57.3494E-03     511.674E-03    -254.811E-03    -257.723E-03    -247.671E-03     501.622E-03    -254.811E-03     174.655E-03     45.1057E+06     885.750E+03    -20.8008E+06    -20.6060E+06     690.904E+03     45.1057E+06     330.399E+03         73.6572
             568     9.30422E-03     61.6098E-03     150.306E-03     41.0899E-03    -386.817E-03     98.1005E-03    -379.820E-03     86.2975E-03    -50.6638E-03     509.589E-03    -254.129E-03    -255.472E-03    -246.410E-03     500.934E-03    -254.535E-03     161.546E-03     43.6813E+06    -3.31484E+06    -26.1488E+06    -25.9484E+06    -3.51530E+06     43.6813E+06    -105.230E+03         72.7270
             569     8.52684E-03     61.4173E-03     173.635E-03     92.9480E-03    -460.784E-03     137.548E-03    -458.300E-03     126.551E-03    -28.3831E-03     507.520E-03    -252.492E-03    -254.411E-03    -245.855E-03     500.883E-03    -254.411E-03     140.935E-03     39.6310E+06    -9.22945E+06    -32.3113E+06    -32.1955E+06    -9.34522E+06     39.6310E+06    -246.623E+03         71.8988
             570     7.75039E-03     61.2709E-03     203.751E-03     125.621E-03    -524.349E-03     162.887E-03    -518.320E-03     160.456E-03    -35.5822E-03     505.694E-03    -251.112E-03    -254.677E-03    -246.438E-03     501.020E-03    -254.677E-03     117.995E-03     32.0622E+06    -16.5171E+06    -39.5413E+06    -39.3301E+06    -16.7283E+06     32.0622E+06    -87.1158E+03         70.8875
             571     6.97538E-03     61.1523E-03     210.052E-03     140.803E-03    -546.396E-03     156.271E-03    -541.145E-03     189.334E-03    -27.1194E-03     505.113E-03    -251.081E-03    -255.204E-03    -248.134E-03     502.166E-03    -255.204E-03     93.2373E-03     22.9739E+06    -23.7674E+06    -45.9417E+06    -45.7393E+06    -23.9698E+06     22.9739E+06     253.931E+03         69.5932
             572     6.20048E-03     61.0766E-03     214.602E-03     170.042E-03    -582.986E-03     171.019E-03    -582.369E-03     213.007E-03    -30.5547E-03     505.474E-03    -251.343E-03    -255.330E-03    -249.684E-03     503.815E-03    -255.330E-03     70.1122E-03     14.0978E+06    -31.9038E+06    -53.5218E+06    -53.4073E+06    -32.0183E+06     14.0978E+06     676.153E+03         68.2059
             573     5.42603E-03     61.0304E-03     230.976E-03     198.174E-03    -627.638E-03     198.231E-03    -626.100E-03     229.381E-03    -776.029E-06     506.154E-03    -251.107E-03    -255.496E-03    -250.217E-03     505.264E-03    -255.496E-03     51.0016E-03     2.92309E+06    -41.4225E+06    -62.8778E+06    -62.4710E+06    -41.8293E+06     2.92309E+06     805.390E+03         66.8885
             574     4.64840E-03     61.0127E-03     248.946E-03     198.424E-03    -646.595E-03     203.467E-03    -642.122E-03     239.431E-03     70.3007E-03     507.081E-03    -251.516E-03    -255.689E-03    -251.131E-03     506.696E-03    -255.689E-03     33.0816E-03    -13.3882E+06    -53.4173E+06    -72.8682E+06    -72.5344E+06    -53.7511E+06    -13.3882E+06     590.193E+03         65.7042
             575     3.87414E-03     61.0188E-03     257.293E-03     210.380E-03    -666.652E-03     218.198E-03    -661.932E-03     244.755E-03     68.6731E-03     508.305E-03    -252.894E-03    -255.723E-03    -252.765E-03     508.176E-03    -255.723E-03     19.0347E-03    -33.4622E+06    -67.0502E+06    -82.7656E+06    -82.6052E+06    -67.2107E+06    -33.4622E+06     670.408E+03         64.7345
             576     3.09835E-03     61.0320E-03     249.638E-03     224.450E-03    -671.100E-03     225.159E-03    -668.786E-03     246.615E-03     46.8045E-03     509.492E-03    -253.989E-03    -255.739E-03    -253.955E-03     509.458E-03    -255.739E-03     9.06762E-03     -55.174E+06    -84.2643E+06    -96.2055E+06    -91.1926E+06    -89.2771E+06     -55.174E+06     724.409E+03         64.0000
             577     2.32313E-03     61.0530E-03     248.851E-03     221.919E-03    -668.185E-03     220.537E-03    -666.803E-03     248.851E-03     29.3340E-03     510.344E-03    -254.629E-03    -255.847E-03    -254.950E-03     510.340E-03    -255.522E-03     2.85094E-03    -78.5155E+06    -99.7538E+06    -122.282E+06    -99.8836E+06    -122.152E+06    -78.5155E+06     801.289E+03         63.4008
             578     1.55093E-03     61.0779E-03     264.163E-03     237.645E-03    -698.480E-03     238.837E-03    -686.783E-03     251.274E-03     77.4855E-03     510.692E-03    -255.033E-03    -255.865E-03    -255.593E-03     510.692E-03    -255.305E-03     427.782E-06    -97.0082E+06    -105.760E+06    -151.485E+06    -105.866E+06    -151.380E+06    -97.0082E+06     2.06327E+06         62.9193
             579     776.417E-06     61.0925E-03     312.376E-03     223.855E-03    -731.563E-03     275.715E-03    -695.326E-03     224.280E-03    -111.776E-03     510.191E-03    -254.425E-03    -255.733E-03    -255.333E-03     510.190E-03    -254.825E-03    -521.980E-06    -104.153E+06    -109.079E+06    -178.010E+06    -107.651E+06    -177.899E+06    -105.692E+06     1.69986E+06         62.6106
             580     13.1816E-03     61.4455E-03     206.208E-03     69.2213E-03    -445.649E-03     139.255E-03    -444.654E-03     135.179E-03    -4.06774E-03     530.687E-03    -254.700E-03    -274.703E-03    -257.946E-03     513.931E-03    -254.700E-03     214.364E-03     58.4534E+06     14.5220E+06    -3.53312E+06    -3.09912E+06     14.0880E+06     58.4534E+06    -12.2311E+03         81.8162
             581     12.4069E-03     60.9688E-03     240.512E-03     111.855E-03    -533.768E-03     151.952E-03    -532.595E-03     199.242E-03    -4.98529E-03     530.986E-03    -254.896E-03    -275.149E-03    -255.682E-03     511.519E-03    -254.896E-03     241.324E-03     53.9236E+06     12.0864E+06    -8.23642E+06    -7.54552E+06     11.3955E+06     53.9236E+06     417.070E+03         79.1298
             582     11.6303E-03     60.7074E-03     281.103E-03     157.485E-03    -621.008E-03     174.404E-03    -620.774E-03     263.950E-03     920.436E-06     518.883E-03    -254.092E-03    -263.954E-03    -250.942E-03     505.871E-03    -254.092E-03     199.317E-03     50.0390E+06     8.63076E+06    -11.9393E+06    -11.1298E+06     7.82130E+06     50.0390E+06     340.587E+03         76.6704
             583     10.8527E-03     60.3999E-03     327.513E-03     216.503E-03    -724.836E-03     219.394E-03    -724.636E-03     324.422E-03    -10.3144E-03     517.362E-03    -254.388E-03    -262.619E-03    -249.611E-03     504.354E-03    -254.388E-03     198.943E-03     46.9786E+06     5.01576E+06    -15.4181E+06    -15.1280E+06     4.72575E+06     46.9786E+06     431.313E+03         74.8914
             584     10.0781E-03     60.1606E-03     383.017E-03     262.395E-03    -821.610E-03     262.086E-03    -821.301E-03     383.017E-03    -5.91994E-03     511.596E-03    -254.856E-03    -257.949E-03    -247.848E-03     501.495E-03    -254.856E-03     175.091E-03     45.6604E+06     1.07890E+06    -20.3688E+06    -20.1428E+06     852.905E+03     45.6604E+06     311.320E+03         73.6612
             585     9.30374E-03     59.9375E-03     437.444E-03     304.824E-03    -915.418E-03     304.598E-03    -915.191E-03     437.444E-03     17.1234E-03     510.186E-03    -254.390E-03    -255.886E-03    -247.065E-03     501.525E-03    -254.551E-03     161.721E-03     44.0557E+06    -3.02980E+06    -25.8451E+06    -25.5298E+06    -3.34516E+06     44.0557E+06     294.001E+03         72.7370
             586     8.52988E-03     59.7532E-03     487.938E-03     349.433E-03        -1.01060     349.146E-03        -1.01031     487.938E-03     32.2088E-03     507.663E-03    -252.777E-03    -254.399E-03    -246.183E-03     501.070E-03    -254.399E-03     140.495E-03     39.0700E+06    -9.18669E+06    -32.0311E+06    -31.8066E+06    -9.41115E+06     39.0700E+06     147.232E+03         71.9108
             587     7.75365E-03     59.6011E-03     533.166E-03     396.164E-03        -1.10379     395.562E-03        -1.10319     533.166E-03     52.1220E-03     505.577E-03    -250.975E-03    -254.650E-03    -246.405E-03     501.008E-03    -254.650E-03     116.617E-03     31.1222E+06    -16.8214E+06    -39.0899E+06    -38.9115E+06    -16.9998E+06     31.1222E+06    -409.645E+03         70.8934
             588     6.97695E-03     59.4848E-03     571.209E-03     464.058E-03        -1.21079     463.536E-03        -1.21026     571.209E-03     47.6608E-03     504.378E-03    -250.176E-03    -255.212E-03    -247.301E-03     501.503E-03    -255.212E-03     92.1078E-03     21.7625E+06    -24.9693E+06    -46.6623E+06    -46.4529E+06    -25.1788E+06     21.7625E+06    -439.864E+03         69.5919
             589     6.19880E-03     59.4050E-03     601.365E-03     521.438E-03        -1.29883     522.634E-03        -1.29843     599.770E-03     9.30015E-03     504.743E-03    -250.552E-03    -255.431E-03    -248.910E-03     503.101E-03    -255.431E-03     69.6193E-03     13.0972E+06    -32.9836E+06    -54.1608E+06    -54.0567E+06    -33.0878E+06     13.0972E+06    -142.038E+03         68.2033
             590     5.42304E-03     59.3630E-03     621.831E-03     549.837E-03        -1.34786     550.432E-03        -1.34686     620.237E-03     16.0952E-03     506.337E-03    -251.251E-03    -255.624E-03    -250.377E-03     505.463E-03    -255.624E-03     50.5737E-03     2.31557E+06    -41.9547E+06    -62.8218E+06    -62.5071E+06    -42.2694E+06     2.31557E+06     568.937E+03         66.8917
             591     4.64893E-03     59.3441E-03     635.020E-03     575.373E-03        -1.38314     574.705E-03        -1.38232     634.862E-03     34.3688E-03     507.711E-03    -252.188E-03    -255.753E-03    -251.798E-03     507.320E-03    -255.753E-03     33.5120E-03    -12.8182E+06    -52.8758E+06    -71.8647E+06    -71.5254E+06    -53.2152E+06    -12.8182E+06     922.812E+03         65.7154
             592     3.87343E-03     59.3481E-03     644.094E-03     603.193E-03        -1.41631     602.447E-03        -1.41540     643.936E-03     40.3592E-03     508.924E-03    -253.589E-03    -255.668E-03    -253.447E-03     508.783E-03    -255.668E-03     19.9686E-03    -33.6592E+06    -66.7741E+06    -81.2334E+06    -81.1409E+06    -66.8666E+06    -33.6592E+06     485.518E+03         64.7451
             593     3.10057E-03     59.3619E-03     652.122E-03     625.457E-03        -1.44454     628.094E-03        -1.44240     647.338E-03     100.650E-03     509.350E-03    -253.874E-03    -255.593E-03    -253.837E-03     509.312E-03    -255.593E-03     9.57695E-03    -56.3652E+06    -84.1748E+06    -95.4747E+06    -90.1043E+06    -89.5452E+06    -56.3652E+06     346.149E+03         63.9996
             594     2.32473E-03     59.3873E-03     650.934E-03     636.182E-03        -1.45372     639.445E-03        -1.45220     646.150E-03     68.7689E-03     509.481E-03    -254.058E-03    -255.527E-03    -254.053E-03     509.476E-03    -255.527E-03     2.63315E-03    -76.1312E+06    -97.0355E+06    -123.865E+06    -97.1517E+06    -123.749E+06    -76.1312E+06     816.488E+03         63.3928
             595     1.54723E-03     59.4066E-03     644.979E-03     637.191E-03        -1.45156     634.684E-03        -1.44905     644.979E-03     80.0252E-03     510.509E-03    -254.746E-03    -255.939E-03    -254.947E-03     510.507E-03    -255.736E-03    -553.923E-06    -93.5080E+06    -102.649E+06    -150.501E+06    -102.732E+06    -150.419E+06    -93.5080E+06     408.819E+03         62.9165
             596     774.120E-06     59.4269E-03     675.132E-03     623.103E-03        -1.46676     658.842E-03        -1.45537     627.999E-03    -111.825E-03     511.540E-03    -254.905E-03    -256.591E-03    -255.778E-03     511.538E-03    -255.715E-03    -1.52787E-03    -102.096E+06    -106.806E+06    -174.554E+06    -105.345E+06    -174.477E+06    -103.635E+06    -305.146E+03         62.6210
             597     13.1814E-03     59.7760E-03     415.837E-03     142.401E-03    -725.843E-03     141.637E-03    -725.079E-03     415.837E-03     35.9938E-03     530.995E-03    -254.726E-03    -275.030E-03    -258.338E-03     514.303E-03    -254.726E-03     214.618E-03     58.7298E+06     14.1835E+06    -4.37244E+06    -4.00024E+06     13.8113E+06     58.7298E+06    -209.732E+03         81.8306
             598     12.4049E-03     59.3015E-03     492.162E-03     190.468E-03    -849.738E-03     189.598E-03    -848.868E-03     492.162E-03     52.6911E-03     531.618E-03    -254.877E-03    -275.799E-03    -256.391E-03     512.211E-03    -254.877E-03     241.453E-03     54.9967E+06     12.3714E+06    -8.13977E+06    -7.35341E+06     11.5850E+06     54.9967E+06     108.665E+03         79.1435
             599     11.6297E-03     59.0390E-03     568.176E-03     259.409E-03    -991.884E-03     259.161E-03    -991.636E-03     568.176E-03     33.5542E-03     517.905E-03    -254.067E-03    -263.420E-03    -250.533E-03     505.018E-03    -254.067E-03     198.325E-03     50.3381E+06     8.27812E+06    -12.3408E+06    -11.4122E+06     7.34955E+06     50.3381E+06     211.969E+03         76.6748
             600     10.8549E-03     58.7304E-03     638.745E-03     341.607E-03        -1.14156     341.422E-03        -1.14137     638.745E-03     27.9202E-03     516.039E-03    -254.432E-03    -261.652E-03    -248.881E-03     503.269E-03    -254.432E-03     196.919E-03     46.5791E+06     4.37333E+06    -15.8807E+06    -15.5338E+06     4.02634E+06     46.5791E+06     208.408E+03         74.8861
             601     10.0814E-03     58.4936E-03     706.121E-03     433.824E-03        -1.29886     433.682E-03        -1.29872     706.121E-03     23.6625E-03     511.901E-03    -254.916E-03    -258.053E-03    -247.909E-03     501.757E-03    -254.916E-03     175.529E-03     45.8294E+06     818.168E+03    -20.6397E+06    -20.3223E+06     500.691E+03     45.8294E+06     247.900E+03         73.6530
             602     9.30389E-03     58.2688E-03     768.235E-03     518.107E-03        -1.44364     517.960E-03        -1.44350     768.235E-03     25.8746E-03     510.571E-03    -254.375E-03    -256.191E-03    -247.260E-03     501.861E-03    -254.597E-03     162.174E-03     44.2201E+06    -3.44505E+06    -26.2888E+06    -25.9039E+06    -3.82999E+06     44.2201E+06     353.281E+03         72.7340
             603     8.52700E-03     58.0822E-03     825.894E-03     583.575E-03        -1.56569     583.266E-03        -1.56538     825.894E-03     40.8482E-03     507.733E-03    -253.106E-03    -254.442E-03    -246.434E-03     501.061E-03    -254.442E-03     141.512E-03     39.4527E+06    -9.09165E+06    -31.8150E+06    -31.5085E+06    -9.39809E+06     39.4527E+06     375.185E+03         71.9166
             604     7.75328E-03     57.9328E-03     877.552E-03     659.437E-03        -1.69283     659.035E-03        -1.69243     877.552E-03     33.8021E-03     505.845E-03    -251.423E-03    -254.653E-03    -246.690E-03     501.111E-03    -254.653E-03     118.712E-03     31.0691E+06    -16.4159E+06    -38.1447E+06    -38.0060E+06    -16.5546E+06     31.0691E+06     511.716E+03         70.9032
             605     6.97802E-03     57.8196E-03     921.480E-03     740.451E-03        -1.81594     740.129E-03        -1.81562     921.480E-03     12.6955E-03     504.539E-03    -250.289E-03    -255.186E-03    -247.350E-03     501.600E-03    -255.186E-03     93.0999E-03     21.3378E+06    -24.6123E+06    -45.5854E+06    -45.4444E+06    -24.7534E+06     21.3378E+06     275.080E+03         69.6023
             606     6.19920E-03     57.7414E-03     958.303E-03     792.495E-03        -1.90278     792.263E-03        -1.90254     958.303E-03     14.8461E-03     504.376E-03    -250.361E-03    -255.404E-03    -248.733E-03     502.748E-03    -255.404E-03     69.1710E-03     12.0761E+06    -33.3717E+06    -53.9975E+06    -53.8420E+06    -33.5271E+06     12.0761E+06    -195.417E+03         68.2129
             607     5.42421E-03     57.6912E-03     989.209E-03     844.171E-03        -1.98316     844.059E-03        -1.98305     989.209E-03    -6.24091E-03     506.201E-03    -251.247E-03    -255.605E-03    -250.414E-03     505.367E-03    -255.605E-03     49.3975E-03     1.29960E+06    -42.8099E+06    -62.7242E+06    -62.6001E+06    -42.9340E+06     1.29960E+06    -564.232E+03         66.9005
             608     4.64810E-03     57.6752E-03         1.01194     918.389E-03        -2.07750     918.445E-03        -2.07739         1.01179     2.10111E-03     508.076E-03    -252.589E-03    -255.715E-03    -252.212E-03     507.699E-03    -255.715E-03     33.0041E-03    -13.0704E+06    -53.5035E+06    -72.0250E+06    -71.7922E+06    -53.7363E+06    -13.0704E+06    -607.812E+03         65.7231
             609     3.87430E-03     57.6767E-03         1.02456     974.292E-03        -2.14179     974.355E-03        -2.14169         1.02440     103.934E-06     508.796E-03    -253.566E-03    -255.587E-03    -253.435E-03     508.664E-03    -255.587E-03     18.7561E-03    -33.6124E+06    -66.9945E+06    -81.3449E+06    -81.1481E+06    -67.1913E+06    -33.6124E+06     100.832E+03         64.7464
             610     3.09800E-03     57.6951E-03         1.03403     999.600E-03        -2.17574         1.00376        -2.17512         1.02925     16.8945E-03     509.184E-03    -253.857E-03    -255.478E-03    -253.828E-03     509.155E-03    -255.478E-03     8.39576E-03    -56.4687E+06    -84.4476E+06    -95.4297E+06    -90.0644E+06    -89.8130E+06    -56.4687E+06     226.997E+03         63.9917
             611     2.32419E-03     57.7180E-03         1.03755         1.01559        -2.19662         1.02448        -2.19593         1.02796     10.3734E-03     509.574E-03    -254.344E-03    -255.328E-03    -254.385E-03     509.569E-03    -255.282E-03     2.08605E-03    -74.7850E+06    -97.1416E+06    -123.512E+06    -97.2652E+06    -123.389E+06    -74.7850E+06    -498.186E+03         63.3780
             612     1.55107E-03     57.7423E-03         1.03060         1.01775        -2.19213         1.02228        -2.18967         1.02361     70.8088E-03     509.848E-03    -254.580E-03    -255.477E-03    -254.625E-03     509.846E-03    -255.430E-03    -1.93546E-03    -91.2302E+06    -102.715E+06    -149.868E+06    -102.873E+06    -149.710E+06    -91.2302E+06    -577.453E+03         62.8964
             613     773.471E-06     57.7575E-03         1.06689     987.425E-03        -2.20233         1.04785        -2.18776     991.897E-03    -190.502E-03     510.982E-03    -254.435E-03    -256.542E-03    -255.998E-03     510.979E-03    -254.976E-03    -2.88554E-03    -104.288E+06    -109.784E+06    -176.553E+06    -108.593E+06    -176.473E+06    -105.560E+06    -357.271E+03         62.6007
             614     13.1800E-03     58.1036E-03     680.288E-03     184.312E-03        -1.02565     183.709E-03        -1.02505     680.288E-03     10.9024E-03     530.886E-03    -254.740E-03    -274.924E-03    -258.458E-03     514.420E-03    -254.740E-03     212.995E-03     57.9163E+06     13.9802E+06    -4.26883E+06    -3.55515E+06     13.2665E+06     57.9163E+06    -299.231E+03         81.8392
             615     12.4069E-03     57.6308E-03     765.174E-03     277.264E-03        -1.19515     276.555E-03        -1.19444     765.174E-03     11.3370E-03     531.476E-03    -254.876E-03    -275.667E-03    -256.441E-03     512.250E-03    -254.876E-03     240.422E-03     54.1731E+06     12.2071E+06    -8.21506E+06    -7.13644E+06     11.1284E+06     54.1731E+06    -238.834E+03         79.1509
             616     11.6335E-03     57.3715E-03     847.907E-03     376.034E-03        -1.37255     375.773E-03        -1.37229     847.907E-03     16.0936E-03     518.098E-03    -254.063E-03    -263.567E-03    -250.561E-03     505.092E-03    -254.063E-03     199.190E-03     50.8277E+06      8.6177E+06    -11.7002E+06    -10.7658E+06     7.68331E+06     50.8277E+06     405.980E+03         76.6753
             617     10.8549E-03     57.0653E-03     925.077E-03     468.904E-03        -1.54084     468.477E-03        -1.54042     925.077E-03     7.73968E-03     516.039E-03    -254.417E-03    -261.547E-03    -248.630E-03     503.122E-03    -254.417E-03     197.949E-03     47.1645E+06     4.23601E+06    -16.0693E+06    -15.6702E+06     3.83689E+06     47.1645E+06     643.143E+03         74.8752
             618     10.0769E-03     56.8203E-03     999.936E-03     564.245E-03        -1.71057     563.953E-03        -1.71028     999.936E-03    -8.85539E-03     511.416E-03    -254.917E-03    -257.362E-03    -247.188E-03     501.242E-03    -254.917E-03     175.656E-03     45.6111E+06     337.296E+03    -21.0867E+06    -20.6787E+06    -70.6504E+03     45.6111E+06     565.028E+03         73.6335
             619     9.30337E-03     56.5981E-03         1.07002     672.602E-03        -1.88848     672.594E-03        -1.88847         1.07002     8.85174E-03     510.281E-03    -254.257E-03    -255.776E-03    -246.659E-03     501.568E-03    -254.662E-03     162.094E-03     43.6389E+06    -3.87779E+06    -26.1075E+06    -25.8021E+06    -4.18320E+06     43.6389E+06    -73.3694E+03         72.7157
             620     8.52925E-03     56.4146E-03         1.13384     796.769E-03        -2.07492     796.689E-03        -2.07484         1.13384     25.7380E-03     507.720E-03    -252.777E-03    -254.554E-03    -246.124E-03     501.068E-03    -254.554E-03     141.278E-03     39.1668E+06    -9.67296E+06    -32.0811E+06    -31.8495E+06    -9.90455E+06     39.1668E+06    -111.414E+03         71.9119
             621     7.75113E-03     56.2635E-03         1.18983     901.869E-03        -2.23228     901.723E-03        -2.23213         1.18983     322.685E-06     506.051E-03    -251.541E-03    -254.773E-03    -246.805E-03     501.316E-03    -254.773E-03     118.778E-03     31.5069E+06    -16.5195E+06    -38.1822E+06    -38.0394E+06    -16.6623E+06     31.5069E+06     387.266E+03         70.9155
             622     6.97596E-03     56.1502E-03         1.23932     976.311E-03        -2.35198     976.092E-03        -2.35176         1.23932    -10.2882E-03     505.464E-03    -251.377E-03    -255.249E-03    -248.430E-03     502.518E-03    -255.249E-03     93.3207E-03     21.5861E+06    -24.7847E+06    -45.5469E+06    -45.4398E+06    -24.8918E+06     21.5861E+06     370.875E+03         69.6241
             623     6.20087E-03     56.0719E-03         1.28196         1.06540        -2.48139         1.06522        -2.48121         1.28196    -4.10860E-03     505.257E-03    -251.294E-03    -255.324E-03    -249.671E-03     503.633E-03    -255.324E-03     69.1603E-03     13.3061E+06    -32.8499E+06    -53.5096E+06    -53.3289E+06    -33.0305E+06     13.3061E+06     264.368E+03         68.2352
             624     5.42391E-03     56.0266E-03         1.31562         1.15707        -2.60507         1.15701        -2.60501         1.31562    -9.39948E-03     506.316E-03    -251.405E-03    -255.441E-03    -250.579E-03     505.490E-03    -255.441E-03     49.1393E-03     2.47995E+06    -42.5760E+06    -62.5110E+06    -62.3935E+06    -42.6935E+06     2.47995E+06     120.270E+03         66.9114
             625     4.65032E-03     56.0059E-03         1.34166         1.21078        -2.68506         1.21065        -2.68493         1.34166     4.63429E-03     507.595E-03    -252.230E-03    -255.549E-03    -251.866E-03     507.231E-03    -255.549E-03     32.3483E-03    -13.1551E+06    -54.4313E+06    -72.8550E+06    -72.6271E+06    -54.6592E+06    -13.1551E+06     -24.502E+03         65.7151
             626     3.87556E-03     56.0107E-03         1.36261         1.26116        -2.75697         1.26078        -2.75659         1.36261     24.2961E-03     508.366E-03    -253.205E-03    -255.438E-03    -253.077E-03     508.238E-03    -255.438E-03     18.6582E-03    -33.0463E+06    -67.6661E+06    -82.7559E+06    -82.5180E+06    -67.9040E+06    -33.0463E+06    -202.991E+03         64.7267
             627     3.10141E-03     56.0280E-03         1.37937         1.30484        -2.81736         1.30429        -2.81681         1.37937     52.8107E-03     509.049E-03    -253.822E-03    -255.315E-03    -253.791E-03     509.018E-03    -255.315E-03     8.53492E-03    -56.8122E+06    -85.8217E+06    -95.6169E+06    -92.1420E+06    -89.2967E+06    -56.8122E+06     100.879E+03         63.9722
             628     2.32582E-03     56.0503E-03         1.39896         1.33137        -2.86371         1.33581        -2.86335         1.39415     1.38919E-03     509.245E-03    -254.185E-03    -255.121E-03    -254.228E-03     509.241E-03    -255.075E-03     2.32954E-03    -79.5700E+06    -100.827E+06    -122.544E+06    -100.973E+06    -122.398E+06    -79.5700E+06    -401.819E+03         63.3611
             629     1.54984E-03     56.0753E-03         1.41242         1.37362        -2.91883         1.38005        -2.91827         1.40543     34.1044E-03     509.707E-03    -254.650E-03    -255.285E-03    -254.824E-03     509.706E-03    -255.111E-03    -443.938E-06    -97.8351E+06    -107.267E+06    -152.036E+06    -107.407E+06    -151.897E+06    -97.8351E+06    -808.384E+03         62.8772
             630     776.951E-06     56.0920E-03         1.45741         1.36987        -2.96122         1.44139        -2.94937         1.37403    -247.486E-03     510.193E-03    -254.212E-03    -255.982E-03    -255.850E-03     510.192E-03    -254.343E-03    -1.06876E-03    -106.898E+06    -111.130E+06    -177.657E+06    -109.957E+06    -177.559E+06    -108.170E+06     181.843E+03         62.5721
             631     13.1842E-03     56.4385E-03     920.963E-03     220.684E-03        -1.28291     220.552E-03        -1.28278     920.963E-03    -11.1286E-03     530.815E-03    -254.723E-03    -274.957E-03    -258.327E-03     514.184E-03    -254.723E-03     213.946E-03     58.8437E+06     14.3665E+06    -4.24133E+06    -3.24572E+06     13.3709E+06     58.8437E+06    -147.465E+03         81.8382
             632     12.4061E-03     55.9618E-03         1.01015     347.181E-03        -1.49835     347.020E-03        -1.49819         1.01015    -15.9800E-03     531.052E-03    -254.901E-03    -275.226E-03    -255.769E-03     511.595E-03    -254.901E-03     241.771E-03     54.3574E+06     12.0926E+06    -8.13091E+06    -7.02690E+06     10.9886E+06     54.3574E+06     284.550E+03         79.1511
             633     11.6280E-03     55.7055E-03         1.09656     470.533E-03        -1.70612     470.406E-03        -1.70600         1.09656    -3.97647E-03     519.041E-03    -254.093E-03    -263.957E-03    -250.814E-03     505.898E-03    -254.093E-03     200.469E-03     50.2685E+06     7.91005E+06    -12.0869E+06    -11.1986E+06     7.02173E+06     50.2685E+06     461.090E+03         76.6797
             634     10.8551E-03     55.3927E-03         1.17685     598.018E-03        -1.91244     597.742E-03        -1.91217         1.17685    -6.08492E-03     517.351E-03    -254.369E-03    -262.359E-03    -249.520E-03     504.511E-03    -254.369E-03     197.532E-03     47.3036E+06     4.10826E+06    -16.0407E+06    -15.6389E+06     3.70645E+06     47.3036E+06     549.825E+03         74.8792
             635     10.0823E-03     55.1577E-03         1.25305     721.897E-03        -2.11229     721.429E-03        -2.11182         1.25305     11.5176E-03     511.128E-03    -254.837E-03    -257.130E-03    -247.185E-03     501.183E-03    -254.837E-03     173.660E-03     45.9441E+06     457.970E+03    -20.6558E+06    -20.2832E+06     85.3551E+03     45.9441E+06     290.113E+03         73.6281
             636     9.30231E-03     54.9291E-03         1.32351     839.910E-03        -2.30082     839.636E-03        -2.30055         1.32351     44.3925E-03     509.239E-03    -253.633E-03    -255.208E-03    -245.710E-03     500.743E-03    -254.635E-03     159.827E-03     43.9866E+06    -3.89642E+06    -25.6745E+06    -25.4927E+06    -4.07822E+06     43.9866E+06     85.0607E+03         72.6999
             637     8.52530E-03     54.7438E-03         1.38850     954.263E-03        -2.47842     953.539E-03        -2.47769         1.38850     76.0214E-03     507.326E-03    -252.258E-03    -254.592E-03    -245.803E-03     500.871E-03    -254.592E-03     139.061E-03     39.1321E+06    -9.96532E+06    -31.8585E+06     -31.758E+06    -10.0658E+06     39.1321E+06    -150.097E+03         71.8952
             638     7.75154E-03     54.5963E-03         1.44720         1.06861        -2.64820         1.06738        -2.64697         1.44720     96.7931E-03     505.927E-03    -251.653E-03    -254.819E-03    -247.029E-03     501.303E-03    -254.819E-03     117.433E-03     31.5892E+06    -17.1370E+06    -38.7945E+06    -38.6600E+06    -17.2715E+06     31.5892E+06    -427.833E+03         70.9074
             639     6.97695E-03     54.4788E-03         1.49822         1.19543        -2.82223         1.19461        -2.82141         1.49822     82.7713E-03     505.454E-03    -251.320E-03    -255.275E-03    -248.406E-03     502.540E-03    -255.275E-03     92.7884E-03     22.1780E+06    -25.2893E+06    -46.3080E+06    -46.1499E+06    -25.4474E+06     22.1780E+06    -3.94234E+03         69.6233
             640     6.19976E-03     54.4029E-03         1.54007         1.30712        -2.97535         1.30672        -2.97495         1.54007     58.2845E-03     505.976E-03    -251.657E-03    -255.321E-03    -250.006E-03     504.326E-03    -255.321E-03     69.9351E-03     13.5151E+06    -33.6334E+06    -54.3714E+06    -54.2071E+06    -33.7977E+06     13.5151E+06     381.022E+03         68.2375
             641     5.42768E-03     54.3576E-03         1.57410         1.38864        -3.09322         1.38825        -3.09283         1.57410     54.5353E-03     506.868E-03    -251.879E-03    -255.375E-03    -251.000E-03     505.989E-03    -255.375E-03     50.6773E-03     3.12969E+06    -42.8488E+06    -63.0489E+06    -62.8340E+06    -43.0638E+06     3.12969E+06     858.093E+03         66.9117
             642     4.65134E-03     54.3387E-03         1.60213         1.45765        -3.19198         1.45701        -3.19134         1.60213     69.6195E-03     507.079E-03    -251.746E-03    -255.458E-03    -251.360E-03     506.693E-03    -255.458E-03     33.2961E-03    -12.1488E+06    -54.0855E+06    -72.5806E+06    -72.3041E+06    -54.3620E+06    -12.1488E+06     849.949E+03         65.7063
             643     3.87450E-03     54.3444E-03         1.62642         1.50396        -3.26342         1.50332        -3.26279         1.62642     58.4590E-03     507.803E-03    -252.441E-03    -255.437E-03    -252.298E-03     507.661E-03    -255.437E-03     20.0592E-03    -32.9535E+06    -67.6583E+06    -82.4536E+06    -82.1640E+06    -67.9478E+06    -32.9535E+06     620.707E+03         64.7115
             644     3.09928E-03     54.3585E-03         1.64931         1.54936        -3.33220         1.54882        -3.33167         1.64931     75.7889E-03     508.853E-03    -253.396E-03    -255.448E-03    -253.354E-03     508.812E-03    -255.448E-03     10.3725E-03    -57.8529E+06    -85.5520E+06    -95.4611E+06    -91.6680E+06    -89.3452E+06    -57.8529E+06     727.318E+03         63.9606
             645     2.32482E-03     54.3872E-03         1.67061         1.60088        -3.40384         1.60052        -3.40348         1.67061     28.1056E-03     509.421E-03    -254.103E-03    -255.356E-03    -254.096E-03     509.414E-03    -255.356E-03     3.99651E-03    -81.2698E+06    -99.2719E+06    -120.739E+06    -99.3441E+06    -120.667E+06    -81.2698E+06     506.712E+03         63.3585
             646     1.54962E-03     54.4088E-03         1.69098         1.64536        -3.46788         1.64479        -3.46731         1.69098     50.5463E-03     510.309E-03    -254.786E-03    -255.682E-03    -254.913E-03     510.308E-03    -255.554E-03     543.773E-06    -97.2594E+06    -104.169E+06    -153.102E+06    -104.209E+06    -153.061E+06    -97.2594E+06    -822.610E+03         62.8858
             647     773.728E-06     54.4253E-03         1.74193         1.66660        -3.53871         1.71798        -3.53100         1.68284    -212.349E-03     511.220E-03    -254.892E-03    -256.336E-03    -256.007E-03     511.220E-03    -255.222E-03    -422.935E-06    -103.326E+06    -107.533E+06    -179.194E+06    -106.006E+06    -179.115E+06    -104.932E+06    -718.856E+03         62.5905
             648     13.1802E-03     54.7666E-03         1.11960     217.453E-03        -1.47164     217.316E-03        -1.47150         1.11960     8.66409E-03     530.414E-03    -254.785E-03    -274.486E-03    -257.696E-03     513.624E-03    -254.785E-03     215.280E-03     59.5586E+06     14.2347E+06    -4.63163E+06    -3.50746E+06     13.1105E+06     59.5586E+06    -272.945E+03         81.8413
             649     12.4043E-03     54.2998E-03         1.20929     355.884E-03        -1.69798     355.775E-03        -1.69788         1.20929     20.2096E-03     531.919E-03    -254.961E-03    -276.217E-03    -256.695E-03     512.397E-03    -254.961E-03     242.300E-03     54.8753E+06     12.0080E+06    -8.48128E+06    -7.20447E+06     10.7312E+06     54.8753E+06     256.313E+03         79.1670
             650     11.6308E-03     54.0322E-03         1.29540     512.830E-03        -1.93844     512.549E-03        -1.93816         1.29540     33.4663E-03     519.895E-03    -254.090E-03    -264.742E-03    -251.716E-03     506.869E-03    -254.090E-03     199.828E-03     49.9119E+06     7.16382E+06    -12.8295E+06    -11.8658E+06     6.20015E+06     49.9119E+06     527.830E+03         76.7041
             651     10.8552E-03     53.7226E-03         1.37409     677.415E-03        -2.18045     677.020E-03        -2.18006         1.37409     56.4066E-03     517.461E-03    -254.304E-03    -262.374E-03    -249.646E-03     504.733E-03    -254.304E-03     196.768E-03     47.6306E+06     3.81210E+06    -16.1012E+06    -15.7986E+06     3.50947E+06     47.6306E+06    -57.8713E+03         74.9019
             652     10.0804E-03     53.4849E-03         1.44703     832.165E-03        -2.40869     831.565E-03        -2.40809         1.44703     81.7617E-03     511.261E-03    -254.743E-03    -257.641E-03    -247.738E-03     501.358E-03    -254.743E-03     173.367E-03     47.1951E+06     940.329E+03    -19.8226E+06    -19.6293E+06     746.965E+03     47.1951E+06     25.1159E+03         73.6424
             653     9.30653E-03     53.2645E-03         1.51403     971.771E-03        -2.61505     971.103E-03        -2.61439         1.51403     93.9864E-03     509.306E-03    -253.669E-03    -255.589E-03    -246.337E-03     500.850E-03    -254.464E-03     159.541E-03     44.5521E+06    -4.03371E+06    -25.6749E+06    -25.5627E+06    -4.14597E+06     44.5521E+06     273.098E+03         72.6991
             654     8.52939E-03     53.0766E-03         1.57592         1.10002        -2.80488         1.09910        -2.80397         1.57592     104.785E-03     507.118E-03    -251.882E-03    -254.488E-03    -245.662E-03     500.792E-03    -254.382E-03     137.532E-03     39.5287E+06    -10.3242E+06    -32.1006E+06    -32.0508E+06    -10.3740E+06     39.5287E+06     45.5131E+03         71.8775
             655     7.75229E-03     52.9265E-03         1.63146         1.23211        -2.99078         1.23087        -2.98953         1.63146     102.556E-03     505.349E-03    -250.534E-03    -254.670E-03    -246.045E-03     500.861E-03    -254.670E-03     115.703E-03     31.3659E+06    -17.6869E+06    -39.0878E+06    -38.9850E+06    -17.7896E+06     31.3659E+06    -100.302E+03         70.8799
             656     6.97701E-03     52.8115E-03         1.67995         1.35408        -3.16104         1.35338        -3.16034         1.67995     61.6871E-03     504.660E-03    -250.292E-03    -255.233E-03    -247.370E-03     501.737E-03    -255.233E-03     92.8990E-03     21.1807E+06    -25.8888E+06    -46.5059E+06    -46.3220E+06    -26.0726E+06     21.1807E+06    -62.0741E+03         69.5965
             657     6.19938E-03     52.7341E-03         1.72211         1.45300        -3.30471         1.45274        -3.30444         1.72211     52.8016E-03     505.188E-03    -250.828E-03    -255.420E-03    -249.132E-03     503.492E-03    -255.420E-03     70.8942E-03     12.6354E+06    -34.2509E+06    -54.5308E+06    -54.3775E+06    -34.4042E+06     12.6354E+06     124.655E+03         68.2169
             658     5.42365E-03     52.6871E-03         1.75917         1.53687        -3.42792         1.53645        -3.42750         1.75917     42.4099E-03     506.636E-03    -251.424E-03    -255.570E-03    -250.490E-03     505.702E-03    -255.570E-03     52.3782E-03     3.02699E+06    -43.1083E+06    -63.1572E+06    -62.9291E+06    -43.3364E+06     3.02699E+06     394.691E+03         66.9039
             659     4.65006E-03     52.6737E-03         1.79159         1.61575        -3.54077         1.61503        -3.54005         1.79159     35.7781E-03     507.883E-03    -252.341E-03    -255.661E-03    -251.906E-03     507.448E-03    -255.661E-03     35.4668E-03    -12.7417E+06    -54.2824E+06    -72.4880E+06    -72.1338E+06    -54.6366E+06    -12.7417E+06     624.778E+03         65.7166
             660     3.87529E-03     52.6757E-03         1.81857         1.69478        -3.64441         1.69432        -3.64395         1.81857     36.9841E-03     508.295E-03    -252.944E-03    -255.585E-03    -252.787E-03     508.138E-03    -255.585E-03     20.6828E-03    -33.7955E+06    -67.8924E+06    -82.2775E+06    -81.9007E+06    -68.2692E+06    -33.7955E+06     498.697E+03         64.7326
             661     3.09848E-03     52.6927E-03         1.83853         1.76726        -3.73519         1.76714        -3.73507         1.83853     10.9563E-03     508.868E-03    -253.360E-03    -255.628E-03    -253.325E-03     508.833E-03    -255.628E-03     9.27356E-03    -56.1598E+06    -84.4552E+06    -95.1772E+06    -90.3387E+06    -89.2937E+06    -56.1598E+06     296.172E+03         63.9829
             662     2.32241E-03     52.7148E-03         1.84962         1.82485        -3.80674         1.82478        -3.80668         1.84962    -7.56980E-03     509.949E-03    -254.446E-03    -255.586E-03    -254.441E-03     509.944E-03    -255.586E-03     2.34868E-03    -77.7570E+06    -97.2368E+06    -118.726E+06    -97.2657E+06    -118.697E+06    -77.7570E+06     473.392E+03         63.3800
             663     1.54894E-03     52.7397E-03         1.86765         1.83725        -3.83827         1.85357        -3.83818         1.85123     18.3688E-03     510.773E-03    -255.143E-03    -255.803E-03    -255.215E-03     510.771E-03    -255.730E-03    -1.14114E-03    -94.8403E+06    -103.444E+06    -152.030E+06    -103.471E+06    -152.003E+06    -94.8403E+06     416.528E+03         62.9078
             664     774.379E-06     52.7557E-03         1.90815         1.79469        -3.83473         1.89178        -3.83045         1.80677    -179.369E-03     511.423E-03    -254.872E-03    -256.550E-03    -255.313E-03     511.422E-03    -256.107E-03    -1.67193E-03    -103.445E+06    -108.120E+06    -181.213E+06    -106.540E+06    -181.188E+06    -105.050E+06    -427.916E+03         62.6166
             665     13.1787E-03     53.1041E-03         1.26575     240.993E-03        -1.63470     240.917E-03        -1.63462         1.26575     20.0429E-03     530.827E-03    -254.861E-03    -274.749E-03    -258.115E-03     514.192E-03    -254.861E-03     214.613E-03     59.3392E+06     13.6013E+06    -4.99309E+06    -3.94394E+06     12.5521E+06     59.3392E+06     74.1552E+03         81.8586
             666     12.4034E-03     52.6227E-03         1.35010     403.348E-03        -1.87625     403.263E-03        -1.87616         1.35010     25.7667E-03     533.021E-03    -254.984E-03    -277.458E-03    -258.132E-03     513.695E-03    -254.984E-03     241.501E-03     53.7856E+06     11.4167E+06    -9.73921E+06    -8.03772E+06     9.71526E+06     53.7856E+06    -25.4611E+03         79.1938
             667     11.6307E-03     52.3631E-03         1.42959     565.864E-03        -2.11605     565.547E-03        -2.11574         1.42959     48.9186E-03     520.135E-03    -254.053E-03    -265.238E-03    -252.251E-03     507.148E-03    -254.053E-03     199.576E-03     50.7613E+06     8.30406E+06    -12.3159E+06    -10.9964E+06     6.98456E+06     50.7613E+06    -74.2221E+03         76.7269
             668     10.8564E-03     52.0531E-03         1.50270     720.191E-03        -2.34257     719.771E-03        -2.34215         1.50270     59.1510E-03     516.922E-03    -254.242E-03    -262.066E-03    -249.345E-03     504.200E-03    -254.242E-03     196.589E-03     48.6334E+06     4.44031E+06    -15.4347E+06    -15.0989E+06     4.10453E+06     48.6334E+06    -348.192E+03         74.9157
             669     10.0828E-03     51.8165E-03         1.57173     868.216E-03        -2.56015     867.621E-03        -2.55956         1.57173     79.6471E-03     510.794E-03    -254.689E-03    -257.560E-03    -247.653E-03     500.888E-03    -254.689E-03     173.331E-03     46.8894E+06    -10.7138E+03    -20.9205E+06    -20.6850E+06    -246.202E+03     46.8894E+06    -228.991E+03         73.6530
             670     9.30466E-03     51.5956E-03         1.63630         1.01614        -2.77185         1.01551        -2.77122         1.63630     86.5220E-03     509.578E-03    -254.101E-03    -255.795E-03    -246.866E-03     500.934E-03    -254.387E-03     161.485E-03     44.7451E+06    -4.45124E+06    -26.0690E+06    -25.9773E+06    -4.54293E+06     44.7451E+06     238.400E+03         72.7068
             671     8.53168E-03     51.4056E-03         1.69577         1.17167        -2.98567         1.17134        -2.98534         1.69577     65.7256E-03     507.442E-03    -252.221E-03    -254.365E-03    -245.698E-03     500.813E-03    -254.258E-03     140.848E-03     39.7938E+06    -10.3910E+06    -32.1075E+06    -32.0384E+06    -10.4601E+06     39.7938E+06     334.123E+03         71.8770
             672     7.75516E-03     51.2597E-03         1.74906         1.31680        -3.18492         1.31661        -3.18474         1.74906     28.7427E-03     505.461E-03    -250.459E-03    -254.571E-03    -245.778E-03     500.780E-03    -254.571E-03     118.044E-03     31.1905E+06    -17.7329E+06    -38.7872E+06    -38.6976E+06    -17.8225E+06     31.1905E+06     380.161E+03         70.8705
             673     6.97687E-03     51.1418E-03         1.79719         1.43067        -3.35033         1.43061        -3.35026         1.79719     5.47809E-03     504.242E-03    -250.040E-03    -255.195E-03    -247.071E-03     501.273E-03    -255.195E-03     93.4801E-03     20.8942E+06    -25.8175E+06    -46.0664E+06    -45.8636E+06    -26.0203E+06     20.8942E+06     423.337E+03         69.5856
             674     6.19894E-03     51.0593E-03         1.84157         1.52860        -3.49460         1.52840        -3.49440         1.84157    -9.11160E-03     504.299E-03    -250.133E-03    -255.461E-03    -248.497E-03     502.663E-03    -255.461E-03     69.3407E-03     11.8543E+06    -34.1961E+06    -54.0620E+06    -53.8284E+06    -34.4296E+06     11.8543E+06     244.311E+03         68.2071
             675     5.42204E-03     51.0149E-03         1.88164         1.63280        -3.63989         1.63257        -3.63966         1.88164    -38.0813E-03     506.137E-03    -250.810E-03    -255.685E-03    -249.968E-03     505.295E-03    -255.685E-03     49.5629E-03     1.40973E+06    -43.7588E+06    -62.9644E+06    -62.8012E+06    -43.9221E+06     1.40973E+06    -122.274E+03         66.8969
             676     4.64587E-03     50.9920E-03         1.91516         1.74027        -3.77885         1.74012        -3.77870         1.91516    -33.8225E-03     508.066E-03    -252.311E-03    -255.861E-03    -251.931E-03     507.686E-03    -255.861E-03     32.9291E-03    -12.7938E+06    -54.5795E+06    -72.6474E+06    -72.3043E+06    -54.9226E+06    -12.7938E+06    -54.8866E+03         65.7214
             677     3.87300E-03     51.0026E-03         1.93955         1.84107        -3.90202         1.84092        -3.90187         1.93955    -11.2301E-03     509.095E-03    -253.722E-03    -255.763E-03    -253.581E-03     508.955E-03    -255.763E-03     19.7498E-03    -32.1004E+06    -67.3791E+06    -82.0826E+06    -81.7138E+06    -67.7479E+06    -32.1004E+06    -69.7858E+03         64.7521
             678     3.09977E-03     51.0190E-03         1.95460         1.90743        -3.98336         1.90727        -3.98320         1.95460     8.16332E-03     509.700E-03    -254.289E-03    -255.628E-03    -254.252E-03     509.663E-03    -255.628E-03     9.58483E-03    -55.3942E+06    -85.5754E+06    -95.2932E+06    -91.5739E+06    -89.2947E+06    -55.3942E+06    -183.386E+03         64.0073
             679     2.32596E-03     51.0423E-03         1.96339         1.94010        -4.02922         1.93983        -4.02895         1.96339    -39.3232E-03     509.903E-03    -254.645E-03    -255.366E-03    -254.639E-03     509.898E-03    -255.366E-03     2.03905E-03    -77.4197E+06    -99.8188E+06    -120.379E+06    -99.8525E+06    -120.345E+06    -77.4197E+06     631.184E+03         63.3987
             680     1.54985E-03     51.0679E-03         1.98257         1.95011        -4.06476         1.96571        -4.06394         1.96615     20.7944E-03     510.232E-03    -255.037E-03    -255.408E-03    -255.108E-03     510.230E-03    -255.335E-03    -1.63679E-03     -96.199E+06    -106.076E+06    -150.279E+06    -106.132E+06    -150.223E+06     -96.199E+06     1.54026E+06         62.9160
             681     775.816E-06     51.0887E-03         2.03235         1.90392        -4.07584         2.01521        -4.06899         1.91421    -185.279E-03     510.542E-03    -254.587E-03    -255.944E-03    -254.954E-03     510.540E-03    -255.576E-03    -2.38176E-03    -107.074E+06    -110.579E+06    -180.284E+06    -109.739E+06    -180.254E+06    -107.944E+06     556.643E+03         62.6144
             682     13.1794E-03     51.4304E-03         1.35459     259.404E-03        -1.72643     259.367E-03        -1.72639         1.35459     12.4761E-03     531.743E-03    -254.829E-03    -275.748E-03    -259.156E-03     515.151E-03    -254.829E-03     214.126E-03     59.3226E+06     13.5393E+06    -4.53414E+06    -3.51545E+06     12.5206E+06     59.3226E+06     407.997E+03         81.8737
             683     12.4069E-03     50.9533E-03         1.42943     432.014E-03        -1.97456     431.937E-03        -1.97448         1.42943     20.1131E-03     532.742E-03    -254.944E-03    -277.162E-03    -257.807E-03     513.387E-03    -254.944E-03     241.613E-03     54.6510E+06     11.8762E+06    -8.76721E+06    -7.18619E+06     10.2951E+06     54.6510E+06      68.769E+03         79.1942
             684     11.6317E-03     50.6895E-03         1.50002     584.234E-03        -2.19611     584.126E-03        -2.19600         1.50002     29.2047E-03     519.242E-03    -254.046E-03    -264.723E-03    -251.756E-03     506.275E-03    -254.046E-03     199.264E-03     50.6084E+06     7.79552E+06    -12.9038E+06    -11.4820E+06     6.37377E+06     50.6084E+06    -446.011E+03         76.7134
             685     10.8574E-03     50.3807E-03         1.56655     729.867E-03        -2.40621     729.825E-03        -2.40616         1.56655     13.0563E-03     516.451E-03    -254.270E-03    -261.875E-03    -249.099E-03     503.675E-03    -254.270E-03     197.000E-03     47.1888E+06     3.30675E+06    -16.6540E+06    -16.1547E+06     2.80748E+06     47.1888E+06    -450.838E+03         74.8994
             686     10.0806E-03     50.1467E-03         1.62999     876.933E-03        -2.61569     876.701E-03        -2.61546         1.62999     31.6311E-03     510.825E-03    -254.739E-03    -257.303E-03    -247.152E-03     500.674E-03    -254.739E-03     175.416E-03     46.4612E+06     1.61121E+03    -20.7671E+06    -20.4239E+06    -341.568E+03     46.4612E+06    -361.087E+03         73.6415
             687     9.30703E-03     49.9208E-03         1.68937         1.03310        -2.82804         1.03284        -2.82778         1.68937     22.7537E-03     509.190E-03    -253.483E-03    -255.681E-03    -245.822E-03     500.353E-03    -254.504E-03     163.076E-03     44.6540E+06    -4.55594E+06    -26.1252E+06    -25.9594E+06    -4.72179E+06     44.6540E+06    -85.0757E+03         72.7068
             688     8.52751E-03     49.7342E-03         1.74416         1.18142        -3.02991         1.18128        -3.02976         1.74416     21.1296E-03     507.238E-03    -252.154E-03    -254.452E-03    -245.307E-03     500.391E-03    -254.452E-03     143.242E-03     39.6500E+06    -10.5275E+06    -32.0520E+06    -31.9538E+06    -10.6257E+06     39.6500E+06     113.980E+03         71.8917
             689     7.75099E-03     49.5859E-03         1.79479         1.31015        -3.20980         1.31005        -3.20969         1.79479     30.3530E-03     506.587E-03    -252.342E-03    -254.720E-03    -247.447E-03     501.692E-03    -254.720E-03     120.799E-03     31.4562E+06    -17.8254E+06    -38.9636E+06    -38.8070E+06    -17.9820E+06     31.4562E+06     363.726E+03         70.8953
             690     6.97874E-03     49.4691E-03         1.84185         1.43605        -3.38515         1.43601        -3.38511         1.84185     18.7401E-03     505.351E-03    -251.625E-03    -255.180E-03    -248.672E-03     502.398E-03    -255.180E-03     93.2518E-03     21.5246E+06    -25.7772E+06    -46.1512E+06    -45.9257E+06    -26.0027E+06     21.5246E+06     719.908E+03         69.6098
             691     6.19996E-03     49.3890E-03         1.88413         1.56972        -3.56307         1.56947        -3.56282         1.88413     6.84717E-03     504.537E-03    -250.636E-03    -255.298E-03    -249.058E-03     502.958E-03    -255.298E-03     68.1619E-03     12.8839E+06    -33.4913E+06    -53.3027E+06    -53.0398E+06    -33.7542E+06     12.8839E+06     550.512E+03         68.2212
             692     5.42558E-03     49.3418E-03         1.91957         1.69705        -3.72382         1.69684        -3.72361         1.91957    -1.58380E-03     505.712E-03    -250.797E-03    -255.505E-03    -249.987E-03     504.901E-03    -255.505E-03     48.5847E-03     2.55477E+06    -43.0962E+06    -62.2930E+06    -62.1144E+06    -43.2748E+06     2.55477E+06     268.603E+03         66.8938
             693     4.65061E-03     49.3242E-03         1.94752         1.80114        -3.85606         1.80112        -3.85605         1.94752     18.4082E-03     507.090E-03    -251.488E-03    -255.767E-03    -251.135E-03     506.736E-03    -255.767E-03     31.7423E-03    -12.1835E+06    -54.3158E+06    -71.9864E+06    -71.7735E+06    -54.5286E+06    -12.1835E+06    -260.947E+03         65.7007
             694     3.87308E-03     49.3279E-03         1.96913         1.87539        -3.95092         1.87524        -3.95078         1.96913     24.3126E-03     508.625E-03    -253.035E-03    -255.804E-03    -252.908E-03     508.498E-03    -255.804E-03     18.8580E-03    -32.2884E+06    -68.1004E+06    -82.5083E+06    -82.2878E+06    -68.3208E+06    -32.2884E+06    -274.628E+03         64.7289
             695     3.09863E-03     49.3434E-03         1.98521         1.93328        -4.02625         1.93303        -4.02599         1.98521     52.3919E-03     509.839E-03    -254.207E-03    -255.742E-03    -254.169E-03     509.802E-03    -255.742E-03     10.0047E-03    -55.3918E+06    -85.7380E+06    -96.3998E+06    -91.8772E+06    -90.2607E+06    -55.3918E+06     475.369E+03         63.9967
             696     2.32404E-03     49.3682E-03         1.99607         1.97456        -4.08442         1.97490        -4.08411         1.99542     7.13954E-03     510.147E-03    -254.767E-03    -255.472E-03    -254.760E-03     510.140E-03    -255.472E-03     3.74622E-03    -78.0876E+06    -100.017E+06    -122.005E+06    -100.107E+06    -121.914E+06    -78.0876E+06     817.544E+03         63.3998
             697     1.55054E-03     49.3994E-03         2.00741         1.98645        -4.11296         1.98994        -4.11136         2.00233     101.122E-03     510.307E-03    -255.045E-03    -255.446E-03    -255.045E-03     510.306E-03    -255.446E-03    -3.93345E-06    -95.2836E+06    -105.300E+06    -148.210E+06    -105.336E+06    -148.174E+06    -95.2836E+06     711.655E+03         62.9221
             698     774.425E-06     49.4202E-03         2.07046         1.95011        -4.15201         2.05171        -4.14356         1.96040    -150.540E-03     510.805E-03    -254.604E-03    -256.212E-03    -255.971E-03     510.803E-03    -254.844E-03    -1.64876E-03    -105.609E+06    -109.656E+06    -178.370E+06    -108.826E+06    -178.330E+06    -106.479E+06      640.73E+03         62.6215
             699     13.1837E-03     49.7591E-03         1.38030     228.994E-03        -1.71361     228.962E-03        -1.71358         1.38030     252.201E-06     532.005E-03    -254.709E-03    -276.018E-03    -259.487E-03     515.474E-03    -254.709E-03     213.338E-03     59.4177E+06     13.6208E+06    -4.61277E+06    -3.53883E+06     12.5469E+06     59.4177E+06     118.878E+03         81.8677
             700     12.4059E-03     49.2788E-03         1.44511     381.123E-03        -1.92861     380.965E-03        -1.92845         1.44511    -608.060E-06     531.716E-03    -254.858E-03    -276.156E-03    -256.808E-03     512.367E-03    -254.858E-03     241.263E-03     54.6052E+06     11.4648E+06    -8.73958E+06    -7.27924E+06     10.0044E+06     54.6052E+06     67.0443E+03         79.1677
             701     11.6320E-03     49.0182E-03         1.50659     541.771E-03        -2.14847     541.617E-03        -2.14832         1.50659     1.01996E-03     517.499E-03    -254.050E-03    -263.416E-03    -250.457E-03     504.540E-03    -254.050E-03     198.793E-03     49.9284E+06     7.16918E+06    -13.1267E+06    -11.7282E+06     5.77068E+06     49.9284E+06    -26.5026E+03         76.6762
             702     10.8552E-03     48.7090E-03         1.56415     705.308E-03        -2.36532     705.266E-03        -2.36528         1.56415     14.4512E-03     515.497E-03    -254.377E-03    -260.981E-03    -248.122E-03     502.638E-03    -254.377E-03     197.433E-03     47.2037E+06     3.61085E+06    -16.0655E+06    -15.5380E+06     3.08328E+06     47.2037E+06    -67.1577E+03         74.8649
             703     10.0805E-03     48.4730E-03         1.61744     861.267E-03        -2.56924     860.990E-03        -2.56896         1.61744     41.2690E-03     510.682E-03    -254.899E-03    -256.748E-03    -246.492E-03     500.426E-03    -254.899E-03     176.219E-03     45.8516E+06    -131.155E+03    -20.5181E+06    -20.2007E+06    -448.476E+03     45.8516E+06    -195.113E+03         73.6193
             704     9.30162E-03     48.2476E-03         1.66666         1.00828        -2.76214         1.00793        -2.76178         1.66666     36.8727E-03     509.138E-03    -253.844E-03    -255.447E-03    -245.784E-03     500.331E-03    -254.701E-03     162.727E-03     43.7019E+06    -4.81549E+06    -26.1767E+06    -25.9060E+06     -5.0862E+06     43.7019E+06    -505.268E+03         72.7051
             705     8.52524E-03     48.0666E-03         1.71233         1.14354        -2.94281         1.14319        -2.94246         1.71233     45.6688E-03     507.745E-03    -252.969E-03    -254.638E-03    -246.247E-03     501.022E-03    -254.638E-03     142.028E-03     39.0169E+06    -11.0793E+06    -32.7150E+06    -32.4941E+06    -11.3001E+06     39.0169E+06    -193.186E+03         71.9076
             706     7.75088E-03     47.9059E-03         1.75490         1.27680        -3.11670         1.27649        -3.11639         1.75490     56.8389E-03     506.780E-03    -252.522E-03    -254.841E-03    -247.766E-03     502.024E-03    -254.841E-03     119.069E-03     31.5483E+06    -18.2152E+06    -39.5160E+06    -39.2885E+06    -18.4427E+06     31.5483E+06     279.280E+03         70.9193
             707     6.97765E-03     47.7931E-03         1.79414         1.40807        -3.28675         1.40794        -3.28663         1.79414     35.7757E-03     505.933E-03    -251.945E-03    -255.254E-03    -248.984E-03     502.973E-03    -255.254E-03     93.7267E-03     22.6549E+06    -25.5815E+06    -45.9726E+06    -45.7816E+06    -25.7726E+06     22.6549E+06     101.369E+03         69.6346
             708     6.20275E-03     47.7198E-03         1.82882         1.54338        -3.45533         1.54307        -3.45503         1.82882     4.36330E-03     505.625E-03    -251.579E-03    -255.297E-03    -249.859E-03     503.905E-03    -255.297E-03     71.2960E-03     13.7845E+06    -33.5933E+06    -53.4852E+06    -53.3194E+06    -33.7591E+06     13.7845E+06     286.409E+03         68.2433
             709     5.42537E-03     47.6708E-03         1.85833         1.65406        -3.59694         1.65376        -3.59664         1.85833     4.84529E-03     506.162E-03    -251.268E-03    -255.432E-03    -250.375E-03     505.269E-03    -255.432E-03     50.9646E-03     3.61525E+06    -42.6259E+06    -61.9091E+06    -61.7337E+06    -42.8013E+06     3.61525E+06     462.566E+03         66.9068
             710     4.64843E-03     47.6535E-03         1.88523         1.72213        -3.69385         1.72206        -3.69378         1.88523     17.0809E-03     507.148E-03    -251.737E-03    -255.611E-03    -251.358E-03     506.768E-03    -255.611E-03     32.9556E-03    -12.1131E+06    -54.3153E+06    -71.5880E+06    -71.4820E+06    -54.4212E+06    -12.1131E+06     637.139E+03         65.6960
             711     3.87449E-03     47.6559E-03         1.91100         1.78960        -3.78864         1.78934        -3.78838         1.91100    -1.28057E-03     508.053E-03    -252.670E-03    -255.636E-03    -252.541E-03     507.924E-03    -255.636E-03     18.7853E-03    -34.0400E+06    -68.7596E+06    -82.2649E+06    -82.1246E+06    -68.8999E+06    -34.0400E+06     664.019E+03         64.7084
             712     3.09807E-03     47.6741E-03         1.93305         1.86092        -3.88337         1.86060        -3.88305         1.93305     16.9502E-03     508.963E-03    -253.423E-03    -255.715E-03    -253.393E-03     508.934E-03    -255.715E-03     8.58238E-03    -56.3022E+06    -85.9104E+06    -96.8583E+06    -91.6053E+06    -91.1634E+06    -56.3022E+06     105.785E+03         63.9741
             713     2.32315E-03     47.6990E-03         1.94884         1.91852        -3.95825         1.91881        -3.95790         1.94819    -19.9928E-03     509.895E-03    -254.309E-03    -255.744E-03    -254.305E-03     509.891E-03    -255.744E-03     2.40514E-03    -76.1999E+06    -98.5389E+06    -120.648E+06    -98.7042E+06    -120.482E+06    -76.1999E+06    -345.087E+03         63.3887
             714     1.54791E-03     47.7281E-03         1.96738         1.94763        -4.00653         1.96123        -4.00468         1.95194     100.835E-03     510.917E-03    -255.215E-03    -255.944E-03    -255.214E-03     510.916E-03    -255.944E-03    -674.006E-06    -94.8049E+06    -104.867E+06    -148.352E+06    -104.652E+06    -148.333E+06    -95.0406E+06    -764.579E+03         62.9285
             715     774.574E-06     47.7504E-03         2.00093         1.90949        -4.00171         1.97759        -3.99245         1.92358    -144.569E-03     511.883E-03    -255.194E-03    -256.718E-03    -256.471E-03     511.882E-03    -255.440E-03    -1.07062E-03    -105.645E+06    -108.895E+06    -177.776E+06    -108.421E+06    -177.744E+06    -106.152E+06    -207.272E+03         62.6439
             716     13.1840E-03     48.0894E-03         1.34453     194.542E-03        -1.63427     194.491E-03        -1.63422         1.34453     424.753E-06     532.152E-03    -254.645E-03    -276.193E-03    -259.435E-03     515.393E-03    -254.645E-03     214.992E-03     59.5556E+06     13.3952E+06    -4.92873E+06    -3.82772E+06     12.2942E+06     59.5556E+06    -56.0153E+03         81.8459
             717     12.4108E-03     47.6102E-03         1.39615     337.129E-03        -1.82026     337.022E-03        -1.82016         1.39615    -13.7104E-03     531.785E-03    -254.805E-03    -276.070E-03    -256.445E-03     512.161E-03    -254.805E-03     243.042E-03     54.8462E+06     11.2293E+06    -9.10571E+06    -7.55907E+06     9.68264E+06     54.8462E+06     44.4566E+03         79.1437
             718     11.6325E-03     47.3475E-03         1.44373     495.471E-03        -2.01939     495.336E-03        -2.01925         1.44373    -1.07019E-03     517.104E-03    -254.037E-03    -262.891E-03    -249.815E-03     504.028E-03    -254.037E-03     199.617E-03     50.6421E+06     7.78928E+06    -12.2356E+06    -10.8945E+06     6.44815E+06     50.6421E+06     218.811E+03         76.6553
             719     10.8548E-03     47.0402E-03         1.48727     656.312E-03        -2.21675     656.194E-03        -2.21663         1.48727     34.4407E-03     515.258E-03    -254.415E-03    -260.498E-03    -247.694E-03     502.453E-03    -254.415E-03     196.869E-03     46.8139E+06     3.48906E+06    -15.8290E+06    -15.3470E+06     3.00705E+06     46.8139E+06     269.046E+03         74.8497
             720     10.0766E-03     46.7996E-03         1.52634     805.859E-03        -2.40006     805.386E-03        -2.39959         1.52634     73.1241E-03     510.468E-03    -254.968E-03    -256.274E-03    -246.302E-03     500.496E-03    -254.968E-03     173.682E-03     45.2029E+06    -506.310E+03    -20.7206E+06    -20.3483E+06    -878.600E+03     45.2029E+06    -102.955E+03         73.6134
             721     9.30121E-03     46.5812E-03         1.56227     937.437E-03        -2.56349     936.951E-03        -2.56301         1.56227     63.8215E-03     509.411E-03    -254.604E-03    -255.262E-03    -246.565E-03     500.845E-03    -254.734E-03     160.680E-03     43.7983E+06    -4.66985E+06    -26.1084E+06    -25.7629E+06    -5.01531E+06     43.7983E+06    -230.509E+03         72.7089
             722     8.52733E-03     46.3878E-03         1.59575         1.05983        -2.71766         1.05935        -2.71718         1.59575     67.6009E-03     508.139E-03    -253.403E-03    -254.633E-03    -246.748E-03     501.485E-03    -254.633E-03     141.390E-03     38.9663E+06    -10.9311E+06    -32.5229E+06    -32.2452E+06    -11.2088E+06     38.9663E+06     133.333E+03         71.9112
             723     7.75284E-03     46.2344E-03         1.62720         1.18702        -2.87424         1.18648        -2.87370         1.62720     56.6910E-03     506.050E-03    -251.351E-03    -254.881E-03    -246.606E-03     501.306E-03    -254.881E-03     118.895E-03     31.2358E+06    -18.2435E+06    -39.1296E+06    -38.9593E+06    -18.4138E+06     31.2358E+06    -87.3285E+03         70.9180
             724     6.97344E-03     46.1187E-03         1.65651         1.30899        -3.02158         1.30879        -3.02137         1.65651     22.0437E-03     505.253E-03    -250.975E-03    -255.404E-03    -247.996E-03     502.275E-03    -255.404E-03     93.7596E-03     21.7421E+06    -26.3213E+06    -46.6228E+06    -46.4222E+06    -26.5219E+06     21.7421E+06    -561.201E+03         69.6358
             725     6.19561E-03     46.0414E-03         1.68542         1.39662        -3.13556         1.39634        -3.13527         1.68542    -21.3254E-03     506.326E-03    -251.871E-03    -255.494E-03    -250.189E-03     504.645E-03    -255.494E-03     70.4313E-03     12.4280E+06    -34.7791E+06    -54.4964E+06    -54.3199E+06    -34.9557E+06     12.4280E+06    -320.238E+03         68.2543
             726     5.42442E-03     46.0022E-03         1.71565         1.47572        -3.24581         1.47545        -3.24555         1.71565    -30.6071E-03     507.325E-03    -252.030E-03    -255.522E-03    -251.156E-03     506.451E-03    -255.522E-03     50.5346E-03     2.47413E+06    -43.4186E+06    -62.3361E+06    -62.2248E+06    -43.5299E+06     2.47413E+06     204.777E+03         66.9284
             727     4.65153E-03     45.9814E-03         1.74553         1.56718        -3.37188         1.56711        -3.37180         1.74553     12.6716E-03     507.716E-03    -252.275E-03    -255.565E-03    -251.884E-03     507.326E-03    -255.565E-03     33.5675E-03    -12.2880E+06    -54.6194E+06    -71.8358E+06    -71.7544E+06    -54.7008E+06    -12.2880E+06     575.505E+03         65.7218
             728     3.87514E-03     45.9855E-03         1.77387         1.64020        -3.47606         1.63998        -3.47583         1.77387    -6.54560E-03     508.153E-03    -252.938E-03    -255.526E-03    -252.794E-03     508.010E-03    -255.526E-03     19.8479E-03    -32.4792E+06    -67.7724E+06    -81.3119E+06    -81.2160E+06    -67.8684E+06    -32.4792E+06     778.818E+03         64.7254
             729     3.10044E-03     46.0021E-03         1.80248         1.69428        -3.56150         1.69400        -3.56123         1.80248     8.23776E-03     508.771E-03    -253.457E-03    -255.549E-03    -253.422E-03     508.736E-03    -255.549E-03     9.20713E-03    -55.6121E+06    -83.6187E+06    -94.4451E+06    -89.2714E+06    -88.7924E+06    -55.6121E+06     101.840E+03         63.9749
             730     2.32417E-03     46.0305E-03         1.83210         1.75099        -3.64531         1.75041        -3.64472         1.83210    -56.8757E-03     509.541E-03    -254.158E-03    -255.539E-03    -254.153E-03     509.537E-03    -255.539E-03     2.00940E-03    -78.2610E+06    -97.0109E+06    -120.078E+06    -97.1850E+06    -119.904E+06    -78.2610E+06    -1.41801E+06         63.3779
             731     1.54906E-03     46.0562E-03         1.87168         1.79972        -3.72771         1.80824        -3.72587         1.86132     49.8468E-03     510.628E-03    -255.142E-03    -255.735E-03    -255.139E-03     510.625E-03    -255.735E-03    -2.28044E-03    -94.7776E+06    -102.901E+06    -151.489E+06    -102.755E+06    -151.399E+06    -95.0133E+06    -1.18417E+06         62.9157
             732     773.788E-06     46.0810E-03         1.92904         1.83276        -3.81775         1.83337        -3.80800         1.91868    -175.589E-03     511.487E-03    -255.024E-03    -256.474E-03    -256.332E-03     511.483E-03    -255.161E-03    -2.96861E-03    -103.793E+06    -106.326E+06    -178.868E+06    -105.472E+06    -178.824E+06    -104.691E+06     362.606E+03         62.6324
             733     13.1825E-03     46.4123E-03         1.25186     197.642E-03        -1.51752     197.598E-03        -1.51747         1.25186     6.38152E-03     531.226E-03    -254.702E-03    -275.247E-03    -258.310E-03     514.289E-03    -254.702E-03     216.283E-03     59.2190E+06     13.3265E+06    -4.56811E+06    -3.48483E+06     12.2432E+06     59.2190E+06    -9.52569E+03         81.8243
             734     12.4044E-03     45.9393E-03         1.28469     341.639E-03        -1.68573     341.608E-03        -1.68570         1.28469    -712.057E-06     531.818E-03    -254.861E-03    -275.838E-03    -256.111E-03     512.092E-03    -254.861E-03     243.530E-03     54.9486E+06     11.1309E+06    -8.97550E+06    -7.54110E+06     9.69654E+06     54.9486E+06     112.847E+03         79.1342
             735     11.6309E-03     45.6802E-03         1.31330     466.975E-03        -1.83138     466.903E-03        -1.83131         1.31330    -432.495E-06     518.055E-03    -254.072E-03    -263.646E-03    -250.430E-03     504.839E-03    -254.072E-03     200.836E-03     50.5899E+06     7.28348E+06    -12.6401E+06    -11.4353E+06     6.07877E+06     50.5899E+06     210.623E+03         76.6607
             736     10.8556E-03     45.3725E-03         1.34012     586.329E-03        -1.97219     586.155E-03        -1.97201         1.34012    -455.933E-06     516.203E-03    -254.425E-03    -261.681E-03    -248.722E-03     503.244E-03    -254.425E-03     198.255E-03     47.6335E+06     3.89475E+06    -15.4345E+06    -15.0188E+06     3.47906E+06     47.6335E+06     241.096E+03         74.8671
             737     10.0809E-03     45.1351E-03         1.36443     706.383E-03        -2.11219     706.100E-03        -2.11191         1.36443     26.2051E-03     511.645E-03    -254.944E-03    -257.428E-03    -247.368E-03     501.585E-03    -254.944E-03     174.701E-03     45.6387E+06    -182.472E+03    -20.6068E+06    -20.1797E+06    -609.524E+03     45.6387E+06     381.678E+03         73.6347
             738     9.30348E-03     44.9061E-03         1.38678     830.661E-03        -2.25295     830.364E-03        -2.25265         1.38678     5.19959E-03     510.009E-03    -254.386E-03    -255.760E-03    -246.830E-03     501.343E-03    -254.650E-03     161.698E-03     43.6125E+06    -5.12803E+06    -26.6326E+06    -26.2442E+06    -5.51648E+06     43.6125E+06     324.710E+03         72.7224
             739     8.52708E-03     44.7180E-03         1.40685     949.607E-03        -2.38838     949.303E-03        -2.38807         1.40685     4.12412E-03     507.487E-03    -252.670E-03    -254.561E-03    -246.082E-03     500.898E-03    -254.561E-03     140.420E-03     39.2459E+06    -10.8415E+06    -32.1718E+06    -31.9722E+06    -11.0411E+06     39.2459E+06     89.7891E+03         71.9133
             740     7.74849E-03     44.5705E-03         1.42642         1.04363        -2.49794         1.04335        -2.49766         1.42642     2.28467E-03     505.775E-03    -251.241E-03    -254.860E-03    -246.667E-03     501.201E-03    -254.860E-03     116.666E-03     31.3386E+06    -17.7453E+06    -38.3932E+06    -38.2779E+06    -17.8606E+06     31.3386E+06    -196.983E+03         70.9120
             741     6.97617E-03     44.4522E-03         1.44770         1.11621        -2.58845         1.11610        -2.58835         1.44770    -23.9166E-03     505.181E-03    -251.054E-03    -255.356E-03    -248.234E-03     502.362E-03    -255.356E-03     91.1138E-03     20.8725E+06    -26.2755E+06    -46.1441E+06    -45.9517E+06    -26.4679E+06     20.8725E+06    -385.986E+03         69.6263
             742     6.20035E-03     44.3718E-03         1.47200         1.19395        -2.68800         1.19377        -2.68782         1.47200    -31.9328E-03     505.392E-03    -251.091E-03    -255.455E-03    -249.543E-03     503.844E-03    -255.455E-03     67.6540E-03     11.4400E+06    -34.9937E+06    -54.6275E+06    -54.3324E+06    -35.2887E+06     11.4400E+06    -686.677E+03         68.2477
             743     5.42415E-03     44.3279E-03         1.49865         1.27385        -2.79414         1.27354        -2.79384         1.49865    -58.3104E-03     506.663E-03    -251.546E-03    -255.561E-03    -250.719E-03     505.837E-03    -255.561E-03     49.2230E-03     1.32669E+06    -44.3995E+06    -63.3232E+06    -63.1515E+06    -44.5713E+06     1.32669E+06    -644.687E+03         66.9324
             744     4.64799E-03     44.3139E-03         1.52628         1.35248        -2.90362         1.35229        -2.90343         1.52628    -24.9531E-03     507.848E-03    -252.402E-03    -255.644E-03    -252.014E-03     507.460E-03    -255.644E-03     33.5805E-03    -12.7187E+06    -55.0259E+06    -72.1498E+06    -72.0640E+06    -55.1116E+06    -12.7187E+06    -378.453E+03         65.7397
             745     3.87410E-03     44.3152E-03         1.55393         1.42461        -3.00870         1.42434        -3.00844         1.55393    -7.18198E-03     508.514E-03    -253.301E-03    -255.549E-03    -253.152E-03     508.366E-03    -255.549E-03     20.2041E-03    -32.3452E+06    -67.3010E+06    -80.5568E+06    -80.4775E+06    -67.3804E+06    -32.3452E+06    -74.3913E+03         64.7490
             746     3.09883E-03     44.3354E-03         1.58072         1.49053        -3.10182         1.49020        -3.10148         1.58072     2.09798E-03     509.137E-03    -253.883E-03    -255.465E-03    -253.847E-03     509.101E-03    -255.465E-03     9.63376E-03    -56.5961E+06    -83.6710E+06    -92.3213E+06    -89.5982E+06    -86.3941E+06    -56.5961E+06    -289.334E+03         63.9903
             747     2.32476E-03     44.3585E-03         1.60952         1.54445        -3.18100         1.54764        -3.18062         1.60594    -10.5414E-03     509.508E-03    -254.358E-03    -255.282E-03    -254.353E-03     509.503E-03    -255.282E-03     2.84263E-03    -78.3184E+06    -96.5393E+06    -121.865E+06    -97.2985E+06    -121.106E+06    -78.3184E+06    -408.331E+03         63.3770
             748     1.55069E-03     44.3910E-03         1.65456         1.57214        -3.25080         1.59560        -3.24913         1.62942     96.8769E-03     509.979E-03    -254.840E-03    -255.370E-03    -254.838E-03     509.977E-03    -255.370E-03    -822.167E-06    -94.6040E+06    -103.715E+06    -154.306E+06    -103.856E+06    -154.165E+06    -94.6040E+06     660.079E+03         62.8971
             749     776.295E-06     44.4136E-03         1.72321         1.57037        -3.31349         1.58547        -3.30703         1.70165    -102.195E-03     510.734E-03    -254.484E-03    -256.280E-03    -256.055E-03     510.730E-03    -254.705E-03    -1.36667E-03    -103.959E+06    -107.147E+06    -177.403E+06    -106.762E+06    -177.319E+06    -104.429E+06     538.311E+03         62.6011
             750     13.1802E-03     44.7477E-03         1.10354     177.986E-03        -1.31701     177.927E-03        -1.31695         1.10354    -6.14898E-03     530.793E-03    -254.753E-03    -274.747E-03    -257.976E-03     514.022E-03    -254.753E-03     215.273E-03     59.5037E+06     13.1170E+06    -4.47337E+06    -3.45744E+06     12.1011E+06     59.5037E+06     177.178E+03         81.8164
             751     12.4063E-03     44.2678E-03         1.11698     307.964E-03        -1.45332     307.837E-03        -1.45319         1.11698    -15.6252E-03     531.149E-03    -254.890E-03    -275.280E-03    -255.974E-03     511.842E-03    -254.890E-03     240.378E-03     54.6093E+06     10.8314E+06    -8.64195E+06    -7.34810E+06     9.53754E+06     54.6093E+06     92.2757E+03         79.1415
             752     11.6292E-03     44.0117E-03         1.12713     413.163E-03        -1.56300     413.017E-03        -1.56286         1.12713    -15.4057E-03     517.589E-03    -254.098E-03    -263.209E-03    -250.253E-03     504.633E-03    -254.098E-03     198.579E-03     50.2798E+06     7.22004E+06    -12.4243E+06    -11.2668E+06     6.06248E+06     50.2798E+06     10.2679E+03         76.6804
             753     10.8524E-03     43.7007E-03         1.13738     495.923E-03        -1.65074     495.538E-03        -1.65035         1.13738    -35.8239E-03     516.518E-03    -254.453E-03    -262.133E-03    -249.137E-03     503.523E-03    -254.453E-03     198.645E-03     47.6827E+06     3.55050E+06    -16.0542E+06    -15.6233E+06     3.11959E+06     47.6827E+06     231.391E+03         74.8950
             754     10.0774E-03     43.4618E-03         1.14599     590.402E-03        -1.74759     589.839E-03        -1.74703         1.14599    -51.3655E-03     512.875E-03    -254.952E-03    -258.702E-03    -248.534E-03     502.706E-03    -254.952E-03     175.938E-03     46.2069E+06    -434.122E+03    -21.0820E+06    -20.6748E+06    -841.387E+03     46.2069E+06     468.544E+03         73.6648
             755     9.30341E-03     43.2366E-03         1.15337     694.969E-03        -1.85393     694.331E-03        -1.85330         1.15337    -59.9487E-03     510.819E-03    -254.363E-03    -256.540E-03    -247.631E-03     502.165E-03    -254.618E-03     161.686E-03     44.2642E+06    -4.92286E+06    -26.4430E+06    -26.1203E+06    -5.24557E+06     44.2642E+06     144.001E+03         72.7451
             756     8.52792E-03     43.0483E-03         1.15979     780.247E-03        -1.94006     779.794E-03        -1.93961         1.15979    -31.4524E-03     507.403E-03    -252.963E-03    -254.586E-03    -246.680E-03     500.988E-03    -254.453E-03     138.594E-03     39.5684E+06    -10.7602E+06    -32.1883E+06    -32.0188E+06    -10.9298E+06     39.5684E+06    -236.293E+03         71.9239
             757     7.75538E-03     42.8982E-03         1.16749     851.312E-03        -2.01423     851.235E-03        -2.01415         1.16749     1.38239E-03     505.634E-03    -251.518E-03    -254.654E-03    -247.037E-03     501.153E-03    -254.654E-03     115.613E-03     31.8353E+06    -17.6852E+06    -38.5449E+06    -38.4018E+06    -17.8283E+06     31.8353E+06    -165.844E+03         70.9109
             758     6.97847E-03     42.7777E-03         1.17791     910.695E-03        -2.08266     910.550E-03        -2.08252         1.17791     2.18475E-03     504.687E-03    -250.633E-03    -255.156E-03    -247.779E-03     501.834E-03    -255.156E-03     91.7300E-03     22.2782E+06    -25.3883E+06    -45.3403E+06    -45.2047E+06    -25.5238E+06     22.2782E+06     24.2331E+03         69.6166
             759     6.20008E-03     42.7063E-03         1.19217     971.824E-03        -2.15689     971.432E-03        -2.15649         1.19217    -28.1575E-03     504.357E-03    -250.283E-03    -255.353E-03    -248.676E-03     502.751E-03    -255.353E-03     68.8414E-03     12.1251E+06    -34.2614E+06    -53.9615E+06    -53.5958E+06    -34.6271E+06     12.1251E+06     177.893E+03         68.2342
             760     5.42367E-03     42.6598E-03         1.20934         1.03903        -2.23973         1.03856        -2.23926         1.20934    -51.3021E-03     505.882E-03    -250.823E-03    -255.547E-03    -249.980E-03     505.038E-03    -255.547E-03     49.5963E-03     515.917E+03    -44.2645E+06    -63.3339E+06    -62.9018E+06    -44.6966E+06     515.917E+03    -588.780E+03         66.9211
             761     4.64965E-03     42.6416E-03         1.22915         1.09127        -2.31301         1.09104        -2.31279         1.22915    -18.4143E-03     507.842E-03    -252.302E-03    -255.702E-03    -251.930E-03     507.470E-03    -255.702E-03     32.7714E-03    -13.9634E+06    -55.3120E+06    -72.2108E+06    -72.0176E+06    -55.5052E+06    -13.9634E+06    -1.28900E+06         65.7372
             762     3.87455E-03     42.6475E-03         1.24990         1.16088        -2.40391         1.16067        -2.40370         1.24990    -24.0360E-03     508.672E-03    -253.527E-03    -255.596E-03    -253.392E-03     508.537E-03    -255.596E-03     19.4219E-03    -34.2221E+06    -68.8080E+06    -81.9142E+06    -81.7837E+06    -68.9386E+06    -34.2221E+06    -856.860E+03         64.7536
             763     3.10021E-03     42.6632E-03         1.26987         1.23524        -2.49792         1.23884        -2.49718         1.26553     14.3048E-03     508.985E-03    -253.795E-03    -255.527E-03    -253.758E-03     508.948E-03    -255.527E-03     9.85158E-03    -57.4005E+06    -84.2873E+06    -92.5328E+06    -90.6629E+06    -86.1573E+06    -57.4005E+06    -59.6614E+03         63.9949
             764     2.32519E-03     42.6906E-03         1.28862         1.26717        -2.54832         1.28219        -2.54752         1.27279     17.9624E-03     509.352E-03    -254.125E-03    -255.463E-03    -254.118E-03     509.345E-03    -255.463E-03     3.81236E-03    -75.6583E+06    -97.3183E+06    -124.387E+06    -98.4796E+06    -123.226E+06    -75.6583E+06     784.426E+03         63.3795
             765     1.54863E-03     42.7208E-03         1.30354         1.26720        -2.56092         1.29891        -2.55959         1.27050     78.8735E-03     510.177E-03    -254.754E-03    -255.709E-03    -254.753E-03     510.176E-03    -255.709E-03     541.567E-06    -93.4280E+06    -104.789E+06    -153.222E+06    -104.864E+06    -153.148E+06    -93.4280E+06     932.289E+03         62.8985
             766     773.107E-06     42.7455E-03         1.34729         1.19642        -2.53493         1.21267        -2.52962         1.32573    -82.7216E-03     511.560E-03    -255.271E-03    -256.350E-03    -255.943E-03     511.558E-03    -255.675E-03    -583.854E-06    -107.288E+06    -109.021E+06    -175.376E+06    -109.004E+06    -175.314E+06    -107.366E+06    -103.550E+03         62.6048
             767     13.1821E-03     43.0755E-03     903.820E-03     109.481E-03        -1.02196     109.222E-03        -1.02170     903.820E-03    -29.7422E-03     530.971E-03    -254.774E-03    -274.961E-03    -258.154E-03     514.163E-03    -254.774E-03     215.014E-03     58.9775E+06     12.7664E+06    -4.83862E+06    -3.60524E+06     11.5331E+06     58.9775E+06     164.724E+03         81.8271
             768     12.4052E-03     42.5951E-03     899.955E-03     205.627E-03        -1.10768     205.202E-03        -1.10726     899.955E-03    -42.1889E-03     531.407E-03    -254.908E-03    -275.584E-03    -256.057E-03     511.880E-03    -254.908E-03     241.935E-03     55.1647E+06     11.3398E+06    -8.46221E+06    -6.98561E+06     9.86318E+06     55.1647E+06     7.09631E+03         79.1640
             769     11.6304E-03     42.3450E-03     893.584E-03     296.800E-03        -1.18654     296.407E-03        -1.18615     893.584E-03    -26.0988E-03     518.706E-03    -254.097E-03    -263.974E-03    -251.055E-03     505.786E-03    -254.097E-03     198.726E-03     51.1152E+06     7.96777E+06    -12.3166E+06    -10.9316E+06     6.58272E+06     51.1152E+06     86.9681E+03         76.7084
             770     10.8536E-03     42.0331E-03     886.962E-03     387.942E-03        -1.26393     387.558E-03        -1.26354     886.962E-03    -30.5035E-03     516.893E-03    -254.384E-03    -262.241E-03    -249.600E-03     504.252E-03    -254.384E-03     195.966E-03     47.5959E+06     3.28096E+06    -16.4501E+06    -15.9438E+06     2.77462E+06     47.5959E+06     496.693E+03         74.9175
             771     10.0788E-03     41.7863E-03     877.673E-03     460.718E-03        -1.32039     460.166E-03        -1.31983     877.673E-03    -54.2773E-03     511.843E-03    -254.854E-03    -257.969E-03    -248.161E-03     502.034E-03    -254.854E-03     172.654E-03     45.8908E+06    -776.454E+03    -21.2314E+06    -20.9215E+06    -1.08637E+06     45.8908E+06    -28.2281E+03         73.6741
             772     9.30428E-03     41.5613E-03     868.800E-03     516.052E-03        -1.35979     515.330E-03        -1.35907     868.800E-03    -65.0748E-03     510.203E-03    -254.154E-03    -256.083E-03    -247.182E-03     501.687E-03    -254.540E-03     160.368E-03     44.8953E+06    -4.49907E+06    -25.9343E+06    -25.7331E+06    -4.70024E+06     44.8953E+06    -263.085E+03         72.7407
             773     8.53112E-03     41.3733E-03     861.360E-03     568.491E-03        -1.40003     567.939E-03        -1.39948     861.360E-03    -33.7683E-03     507.621E-03    -253.067E-03    -254.507E-03    -246.553E-03     500.975E-03    -254.374E-03     141.237E-03     40.0623E+06    -10.5577E+06    -32.0980E+06    -31.9544E+06    -10.7012E+06     40.0623E+06    -227.578E+03         71.9120
             774     7.75346E-03     41.2254E-03     856.765E-03     621.583E-03        -1.44626     621.367E-03        -1.44604     856.765E-03    -9.26769E-03     505.756E-03    -251.651E-03    -254.591E-03    -246.883E-03     500.988E-03    -254.591E-03     119.161E-03     31.9682E+06    -17.9901E+06    -39.1065E+06    -38.9610E+06    -18.1357E+06     31.9682E+06    -297.230E+03         70.8997
             775     6.97748E-03     41.1089E-03     854.965E-03     682.251E-03        -1.50506     681.775E-03        -1.50458     854.965E-03    -20.6949E-03     504.333E-03    -250.330E-03    -255.175E-03    -247.371E-03     501.374E-03    -255.175E-03     93.3414E-03     21.9434E+06    -26.2611E+06    -46.3523E+06    -46.2117E+06    -26.4016E+06     21.9434E+06    -68.0043E+03         69.6095
             776     6.19990E-03     41.0342E-03     855.892E-03     734.213E-03        -1.55848     733.537E-03        -1.55780     855.892E-03    -41.4164E-03     504.395E-03    -250.386E-03    -255.389E-03    -248.730E-03     502.739E-03    -255.389E-03     69.9119E-03     12.4478E+06    -33.9948E+06    -53.9993E+06    -53.5145E+06    -34.4795E+06     12.4478E+06    -177.454E+03         68.2283
             777     5.42497E-03     40.9883E-03     859.549E-03     772.778E-03        -1.59897     772.183E-03        -1.59838     859.549E-03    -45.1174E-03     506.186E-03    -251.055E-03    -255.553E-03    -250.175E-03     505.305E-03    -255.553E-03     50.7465E-03     1.86535E+06    -42.5747E+06    -62.1163E+06    -61.3914E+06    -43.2996E+06     1.86535E+06    -74.3764E+03         66.9135
             778     4.64824E-03     40.9683E-03     873.781E-03     807.527E-03        -1.64574     815.793E-03        -1.64544     865.211E-03     9.03840E-03     507.648E-03    -251.973E-03    -255.747E-03    -251.582E-03     507.256E-03    -255.747E-03     33.5446E-03    -13.8741E+06    -55.0838E+06    -72.0523E+06    -71.7430E+06    -55.3930E+06    -13.8741E+06    -64.7569E+03         65.7291
             779     3.87436E-03     40.9719E-03     881.457E-03     831.805E-03        -1.67494     839.696E-03        -1.67426     872.888E-03    -9.03853E-03     508.557E-03    -253.235E-03    -255.720E-03    -253.093E-03     508.415E-03    -255.720E-03     20.0170E-03    -34.4326E+06    -69.3438E+06    -82.3740E+06    -82.3029E+06    -69.4148E+06    -34.4326E+06    -573.388E+03         64.7503
             780     3.09835E-03     40.9898E-03     888.192E-03     849.939E-03        -1.69777     852.986E-03        -1.69648     883.855E-03     1.41745E-03     509.193E-03    -253.789E-03    -255.700E-03    -253.750E-03     509.154E-03    -255.700E-03     9.85168E-03    -57.6798E+06    -84.6280E+06    -93.9286E+06    -90.6218E+06    -87.9349E+06    -57.6798E+06    -126.672E+03         63.9985
             781     2.32244E-03     41.0177E-03     909.757E-03     863.143E-03        -1.73493     874.507E-03        -1.73405     897.513E-03    -2.62665E-03     509.658E-03    -254.222E-03    -255.646E-03    -254.216E-03     509.651E-03    -255.646E-03     2.81424E-03    -77.8329E+06    -96.5554E+06    -123.377E+06    -97.1820E+06    -122.750E+06    -77.8329E+06     36.3239E+03         63.3877
             782     1.54880E-03     41.0481E-03     921.176E-03     885.549E-03        -1.77213     891.420E-03        -1.77010     913.268E-03     60.1092E-03     510.670E-03    -255.061E-03    -255.887E-03    -255.060E-03     510.669E-03    -255.887E-03    -392.935E-06    -93.3415E+06    -103.029E+06    -153.369E+06    -103.058E+06    -153.341E+06    -93.3415E+06    -872.262E+03         62.9099
             783     774.882E-06     41.0732E-03     981.664E-03     873.773E-03        -1.82293     866.986E-03        -1.81614     981.664E-03    -65.6654E-03     511.877E-03    -254.906E-03    -256.972E-03    -256.688E-03     511.875E-03    -255.188E-03    -1.80757E-03    -104.210E+06    -107.084E+06    -175.866E+06    -106.969E+06    -175.805E+06    -104.386E+06     540.763E+03         62.6180
             784     13.1806E-03     41.4039E-03     663.282E-03     47.8108E-03    -690.861E-03     46.8124E-03    -689.863E-03     663.282E-03    -46.6932E-03     530.594E-03    -254.821E-03    -274.566E-03    -257.814E-03     513.842E-03    -254.821E-03     214.737E-03     58.6148E+06     12.6647E+06    -5.16540E+06    -3.66390E+06     11.1632E+06     58.6148E+06    -101.448E+03         81.8501
             785     12.4025E-03     40.9324E-03     641.643E-03     111.794E-03    -723.670E-03     109.998E-03    -721.873E-03     641.643E-03    -67.3444E-03     531.937E-03    -254.938E-03    -276.182E-03    -256.761E-03     512.516E-03    -254.938E-03     241.377E-03     54.7485E+06     11.2603E+06    -9.05813E+06    -7.22580E+06     9.42797E+06     54.7485E+06     -26.731E+03         79.1917
             786     11.6285E-03     40.6688E-03     617.398E-03     180.216E-03    -762.086E-03     179.019E-03    -760.890E-03     617.398E-03    -53.8033E-03     519.886E-03    -254.077E-03    -264.958E-03    -252.227E-03     507.155E-03    -254.077E-03     197.614E-03     51.3541E+06     8.09188E+06    -12.8070E+06    -11.1891E+06     6.47401E+06     51.3541E+06    -10.8623E+03         76.7298
             787     10.8588E-03     40.3612E-03     593.581E-03     244.860E-03    -797.615E-03     243.985E-03    -796.741E-03     593.581E-03    -45.9204E-03     517.475E-03    -254.265E-03    -262.747E-03    -250.119E-03     504.846E-03    -254.265E-03     196.211E-03     48.1025E+06     3.80116E+06    -16.4901E+06    -15.8445E+06      3.1556E+06     48.1025E+06     147.486E+03         74.9225
             788     10.0833E-03     40.1215E-03     568.141E-03     291.988E-03    -812.111E-03     290.823E-03    -810.946E-03     568.141E-03    -49.2973E-03     511.045E-03    -254.700E-03    -257.479E-03    -247.466E-03     501.032E-03    -254.700E-03     174.244E-03     46.1359E+06    -274.278E+03    -20.4595E+06    -20.2414E+06    -492.378E+03     46.1359E+06     298.585E+03         73.6552
             789     9.30609E-03     39.8941E-03     544.540E-03     314.961E-03    -805.346E-03     313.739E-03    -804.124E-03     544.540E-03    -55.9367E-03     509.030E-03    -253.598E-03    -255.146E-03    -245.652E-03     500.406E-03    -254.468E-03     161.096E-03     44.6131E+06    -4.34762E+06    -25.4352E+06    -25.3094E+06    -4.47342E+06     44.6131E+06     131.841E+03         72.6997
             790     8.52631E-03     39.7057E-03     523.851E-03     329.021E-03    -795.518E-03     328.060E-03    -794.558E-03     523.851E-03    -49.5814E-03     507.253E-03    -252.042E-03    -254.391E-03    -245.378E-03     500.589E-03    -254.391E-03     141.224E-03     39.8493E+06    -10.3144E+06    -31.7369E+06    -31.5987E+06    -10.4525E+06     39.8493E+06    -150.706E+03         71.8697
             791     7.75239E-03     39.5493E-03     507.861E-03     354.854E-03    -804.475E-03     353.616E-03    -803.238E-03     507.861E-03    -52.7964E-03     505.556E-03    -250.685E-03    -254.750E-03    -245.948E-03     500.819E-03    -254.750E-03     118.706E-03     31.0129E+06    -18.2796E+06    -38.9663E+06    -38.8378E+06    -18.4081E+06     31.0129E+06    -320.796E+03         70.8767
             792     6.97726E-03     39.4414E-03     496.468E-03     390.812E-03    -829.228E-03     388.047E-03    -826.463E-03     496.468E-03    -92.7116E-03     504.848E-03    -250.391E-03    -255.402E-03    -247.336E-03     501.793E-03    -255.402E-03     95.1094E-03     20.8861E+06    -26.4207E+06    -46.3089E+06    -46.1089E+06    -26.6207E+06     20.8861E+06    -431.510E+03         69.6072
             793     6.19905E-03     39.3658E-03     488.505E-03     434.174E-03    -865.690E-03     429.841E-03    -861.357E-03     488.505E-03    -115.072E-03     505.723E-03    -251.344E-03    -255.552E-03    -249.562E-03     503.941E-03    -255.552E-03     72.5007E-03     12.0708E+06    -34.1731E+06    -54.1013E+06    -53.5714E+06    -34.7030E+06     12.0708E+06    -534.950E+03         68.2359
             794     5.42334E-03     39.3198E-03     488.870E-03     462.923E-03    -894.475E-03     463.930E-03    -889.440E-03     482.827E-03    -125.305E-03     507.024E-03    -251.713E-03    -255.666E-03    -250.808E-03     506.119E-03    -255.666E-03     51.3754E-03     992.979E+03    -43.7247E+06    -63.2842E+06    -62.5387E+06    -44.4702E+06     992.979E+03    -262.165E+03         66.9202
             795     4.64957E-03     39.3008E-03     494.918E-03     460.914E-03    -896.776E-03     471.303E-03    -892.553E-03     480.306E-03    -84.4495E-03     507.752E-03    -252.102E-03    -255.802E-03    -251.719E-03     507.368E-03    -255.802E-03     33.1597E-03    -13.3547E+06    -54.8177E+06    -71.9366E+06    -71.5563E+06     -55.198E+06    -13.3547E+06     307.581E+03         65.7303
             796     3.87280E-03     39.3054E-03     494.817E-03     455.551E-03    -888.663E-03     464.721E-03    -885.986E-03     482.969E-03    -71.0180E-03     508.639E-03    -253.228E-03    -255.747E-03    -253.096E-03     508.506E-03    -255.747E-03     19.0974E-03    -32.5963E+06    -67.5907E+06    -80.4976E+06    -80.4223E+06    -67.6660E+06    -32.5963E+06     12.0190E+03         64.7517
             797     3.09883E-03     39.3193E-03     495.175E-03     460.614E-03    -891.281E-03     462.679E-03    -890.068E-03     491.896E-03    -78.2650E-03     509.602E-03    -254.117E-03    -255.665E-03    -254.086E-03     509.571E-03    -255.665E-03     8.48962E-03    -56.8165E+06     -84.872E+06    -95.4055E+06    -90.2921E+06    -89.9854E+06    -56.8165E+06    -335.372E+03         64.0075
             798     2.32563E-03     39.3479E-03     512.946E-03     471.185E-03    -918.911E-03     477.339E-03    -918.537E-03     506.418E-03    -32.6489E-03     509.985E-03    -254.594E-03    -255.504E-03    -254.704E-03     509.982E-03    -255.391E-03     1.72446E-03    -79.0442E+06    -98.1266E+06    -122.181E+06    -98.3612E+06    -121.946E+06    -79.0442E+06     356.215E+03         63.3975
             799     1.54931E-03     39.3802E-03     534.713E-03     497.548E-03    -968.193E-03     508.700E-03    -966.601E-03     521.969E-03     57.3507E-03     510.195E-03    -254.976E-03    -255.469E-03    -255.088E-03     510.194E-03    -255.355E-03    -1.17431E-03    -95.4524E+06    -104.317E+06    -152.743E+06    -104.021E+06     -152.68E+06    -95.8110E+06     361.822E+03         62.9078
             800     774.454E-06     39.4036E-03     585.882E-03     484.784E-03        -1.00639     485.468E-03        -1.00086     579.666E-03    -43.8515E-03     510.515E-03    -254.352E-03    -256.198E-03    -256.056E-03     510.513E-03    -254.493E-03    -1.40244E-03    -105.188E+06    -107.998E+06    -177.418E+06    -107.544E+06    -177.189E+06    -105.872E+06    -1.03025E+06         62.6002
             801     13.1788E-03     39.7361E-03     394.346E-03     21.0676E-03    -356.853E-03     18.1959E-03    -353.981E-03     394.346E-03    -55.7615E-03     531.360E-03    -254.827E-03    -275.353E-03    -258.858E-03     514.864E-03    -254.827E-03     213.390E-03     59.5913E+06     12.7952E+06    -4.88037E+06    -3.54221E+06     11.4570E+06     59.5913E+06    -130.818E+03         81.8628
             802     12.4062E-03     39.2581E-03     353.159E-03     60.7725E-03    -349.847E-03     55.2983E-03    -344.373E-03     353.159E-03    -80.6384E-03     532.699E-03    -254.886E-03    -277.213E-03    -258.029E-03     513.515E-03    -254.886E-03     240.401E-03     55.2180E+06     10.8608E+06    -9.57607E+06    -7.87272E+06     9.15748E+06     55.2180E+06    -146.424E+03         79.1978
             803     11.6350E-03     38.9965E-03     310.099E-03     85.3111E-03    -327.248E-03     76.4883E-03    -318.425E-03     310.099E-03    -75.1956E-03     519.166E-03    -254.027E-03    -264.573E-03    -251.771E-03     506.365E-03    -254.027E-03     197.921E-03     50.4405E+06     7.22683E+06    -13.4971E+06    -12.0294E+06     5.75913E+06     50.4405E+06    -166.819E+03         76.7203
             804     10.8551E-03     38.6900E-03     270.252E-03     97.8201E-03    -295.393E-03     80.5960E-03    -278.169E-03     270.252E-03    -66.9219E-03     516.761E-03    -254.255E-03    -262.161E-03    -249.365E-03     503.965E-03    -254.255E-03     197.305E-03     47.0774E+06     3.50881E+06    -16.8545E+06    -16.0402E+06     2.69449E+06     47.0774E+06    -582.400E+03         74.9004
             805     10.0812E-03     38.4470E-03     248.439E-03     117.571E-03    -289.163E-03     83.9420E-03    -238.599E-03     231.504E-03    -69.9374E-03     510.741E-03    -254.703E-03    -257.151E-03    -247.095E-03     500.685E-03    -254.703E-03     174.526E-03     46.2392E+06     155.820E+03    -20.3245E+06    -19.8942E+06    -274.473E+03     46.2392E+06    -390.027E+03         73.6266
             806     9.30419E-03     38.2309E-03     246.019E-03     120.470E-03    -284.468E-03     93.9202E-03    -207.392E-03     195.492E-03    -58.3522E-03     508.716E-03    -253.406E-03    -255.056E-03    -245.249E-03     500.017E-03    -254.515E-03     161.761E-03     44.4359E+06    -4.51883E+06    -25.4265E+06    -25.3133E+06    -4.63201E+06     44.4359E+06    -81.8976E+03         72.6690
             807     8.53091E-03     38.0379E-03     245.212E-03     95.0648E-03    -256.944E-03     90.2279E-03    -168.727E-03     161.831E-03    -43.2883E-03     506.969E-03    -251.131E-03    -254.533E-03    -244.347E-03     500.185E-03    -254.533E-03     142.305E-03     39.3607E+06    -10.5026E+06    -31.5806E+06    -31.4033E+06    -10.6799E+06     39.3607E+06     65.1737E+03         71.8450
             808     7.75212E-03     37.8898E-03     266.022E-03     79.7147E-03    -261.843E-03     78.9891E-03    -128.307E-03     133.212E-03    -45.5733E-03     505.696E-03    -250.176E-03    -254.957E-03    -245.392E-03     500.913E-03    -254.957E-03     119.254E-03     30.6673E+06    -17.8145E+06    -38.2969E+06    -38.1460E+06    -17.9654E+06     30.6673E+06    -33.6787E+03         70.8672
             809     6.97168E-03     37.7732E-03     291.456E-03     73.5158E-03    -279.382E-03     71.2889E-03    -96.5280E-03     110.828E-03    -67.6675E-03     505.779E-03    -251.084E-03    -255.576E-03    -248.068E-03     502.763E-03    -255.576E-03     94.3179E-03     20.4947E+06    -26.1587E+06    -45.9189E+06    -45.6491E+06    -26.4285E+06     20.4947E+06    -25.0366E+03         69.6129
             810     6.19571E-03     37.6894E-03     314.541E-03     72.9124E-03    -302.952E-03     61.5162E-03    -72.6634E-03     95.6482E-03    -80.9523E-03     506.596E-03    -251.919E-03    -255.650E-03    -250.249E-03     504.926E-03    -255.650E-03     70.1096E-03     12.0155E+06    -34.1157E+06    -53.8763E+06    -53.3522E+06    -34.6398E+06     12.0155E+06     29.9334E+03         68.2472
             811     5.42397E-03     37.6473E-03     348.431E-03     82.1793E-03    -344.281E-03     56.0852E-03    -58.3379E-03     88.5819E-03    -56.9511E-03     507.446E-03    -252.037E-03    -255.708E-03    -251.200E-03     506.609E-03    -255.708E-03     49.4041E-03     1.39979E+06    -43.7568E+06    -62.9786E+06    -62.4025E+06    -44.3329E+06     1.39979E+06    -313.720E+03         66.9305
             812     4.64776E-03     37.6321E-03     338.297E-03     77.1834E-03    -330.562E-03     60.8001E-03    -64.3719E-03     88.4899E-03    -26.6996E-03     508.108E-03    -252.580E-03    -255.765E-03    -252.218E-03     507.745E-03    -255.765E-03     32.3564E-03    -13.3165E+06    -54.9274E+06    -72.0258E+06    -71.6010E+06    -55.3521E+06    -13.3165E+06    -586.814E+03         65.7357
             813     3.87527E-03     37.6345E-03     308.715E-03     80.5430E-03    -306.185E-03     83.0341E-03    -91.8107E-03     91.8495E-03    -13.1302E-03     508.692E-03    -253.370E-03    -255.654E-03    -253.238E-03     508.560E-03    -255.654E-03     19.1339E-03    -33.5762E+06    -68.1771E+06    -81.2107E+06    -80.9374E+06    -68.4504E+06    -33.5762E+06    -233.545E+03         64.7496
             814     3.09950E-03     37.6510E-03     310.144E-03     96.4631E-03    -321.109E-03     99.1046E-03    -109.647E-03     96.0405E-03    -17.3319E-03     509.344E-03    -253.962E-03    -255.563E-03    -253.928E-03     509.311E-03    -255.563E-03     9.21210E-03    -56.0682E+06    -84.7531E+06    -95.6265E+06    -90.0514E+06    -90.3281E+06    -56.0682E+06     192.215E+03         64.0020
             815     2.32397E-03     37.6788E-03     323.666E-03     103.140E-03    -337.851E-03     97.8415E-03    -111.603E-03     102.718E-03    -41.7511E-03     509.891E-03    -254.645E-03    -255.433E-03    -254.754E-03     509.886E-03    -255.320E-03     3.12105E-03    -76.4150E+06    -97.8262E+06    -122.671E+06    -97.9846E+06    -122.513E+06    -76.4150E+06     277.795E+03         63.3946
             816     1.55161E-03     37.7105E-03     313.772E-03     111.408E-03    -331.377E-03     109.016E-03    -126.622E-03     111.408E-03    -38.0747E-03     510.062E-03    -254.973E-03    -255.361E-03    -255.084E-03     510.060E-03    -255.248E-03     164.658E-06    -92.6013E+06    -102.889E+06    -150.940E+06    -102.574E+06    -150.896E+06    -92.9598E+06     675.393E+03         62.9052
             817     776.063E-06     37.7383E-03     310.916E-03     107.445E-03    -322.940E-03     73.2889E-03    -142.165E-03     164.297E-03    -49.8956E-03     510.121E-03    -254.698E-03    -255.439E-03    -254.826E-03     510.119E-03    -255.310E-03    -827.297E-06    -103.212E+06    -105.753E+06    -176.340E+06    -105.575E+06    -175.956E+06    -103.773E+06     867.408E+03         62.5932
             818     13.1824E-03     38.0619E-03     234.768E-03    -12.1222E-03    -129.518E-03    -27.9950E-03     16.1573E-03     104.965E-03    -44.4450E-03     531.889E-03    -254.748E-03    -275.962E-03    -259.289E-03     515.216E-03    -254.748E-03     214.062E-03     59.5304E+06     12.6460E+06    -4.68425E+06    -3.46901E+06     11.4307E+06     59.5304E+06     58.8566E+03         81.8454
             819     12.4078E-03     37.5813E-03     253.486E-03    -21.5752E-03    -137.534E-03    -25.1408E-03     73.8118E-03     45.7058E-03    -52.4594E-03     532.426E-03    -254.834E-03    -276.683E-03    -257.204E-03     512.946E-03    -254.834E-03     242.070E-03     54.9783E+06     10.6945E+06    -9.45367E+06    -7.90845E+06     9.14927E+06     54.9783E+06     -16.371E+03         79.1636
             820     11.6300E-03     37.3234E-03     281.952E-03    -41.1372E-03    -142.818E-03    -48.5796E-03     160.188E-03    -13.6115E-03    -53.5303E-03     518.442E-03    -254.042E-03    -263.903E-03    -250.807E-03     505.346E-03    -254.042E-03     199.911E-03     50.8463E+06     7.56766E+06    -12.9925E+06    -11.5921E+06     6.16723E+06     50.8463E+06    -167.575E+03         76.6807
             821     10.8584E-03     37.0128E-03     307.728E-03    -60.3127E-03    -145.363E-03    -76.5672E-03     246.644E-03    -68.0242E-03    -43.0923E-03     516.298E-03    -254.376E-03    -261.605E-03    -248.543E-03     503.236E-03    -254.376E-03     199.085E-03     47.4298E+06     4.16911E+06    -16.0156E+06    -15.2040E+06     3.35754E+06     47.4298E+06    -422.332E+03         74.8691
             822     10.0813E-03     36.7804E-03     354.138E-03    -78.5074E-03    -169.658E-03    -110.882E-03     337.330E-03    -120.476E-03    -43.4388E-03     510.916E-03    -254.863E-03    -256.980E-03    -246.690E-03     500.625E-03    -254.863E-03     176.517E-03     45.3743E+06    -315.323E+03    -20.9443E+06    -20.4370E+06    -822.610E+03     45.3743E+06    -594.905E+03         73.6147
             823     9.30517E-03     36.5594E-03     426.352E-03    -121.638E-03    -195.951E-03    -146.912E-03     424.498E-03    -168.823E-03    -38.8223E-03     509.272E-03    -253.693E-03    -255.655E-03    -245.728E-03     500.362E-03    -254.709E-03     163.723E-03     43.7104E+06    -4.98123E+06    -25.9377E+06    -25.7633E+06    -5.15560E+06     43.7104E+06    -364.306E+03         72.6827
             824     8.52372E-03     36.3729E-03     493.969E-03    -165.165E-03    -218.491E-03    -168.953E-03     493.184E-03    -213.917E-03    -36.5810E-03     507.325E-03    -251.836E-03    -254.740E-03    -245.101E-03     500.590E-03    -254.740E-03     141.791E-03     39.2635E+06    -10.5634E+06    -31.7874E+06    -31.5626E+06    -10.7883E+06     39.2635E+06    -134.857E+03         71.8717
             825     7.74629E-03     36.2184E-03     561.071E-03    -194.824E-03    -254.265E-03    -194.286E-03     560.533E-03    -254.265E-03    -31.0144E-03     506.432E-03    -251.574E-03    -255.015E-03    -246.956E-03     501.815E-03    -255.015E-03     117.178E-03     31.2178E+06    -17.8669E+06    -38.5110E+06    -38.2597E+06    -18.1182E+06     31.2178E+06     80.6618E+03         70.8893
             826     6.97691E-03     36.0992E-03     635.191E-03    -234.655E-03    -288.055E-03    -233.230E-03     633.766E-03    -288.055E-03    -64.1831E-03     506.168E-03    -251.982E-03    -255.497E-03    -249.132E-03     503.318E-03    -255.497E-03     91.8430E-03     21.9911E+06    -25.4461E+06    -45.7406E+06    -45.2660E+06    -25.9207E+06     21.9911E+06    -140.540E+03         69.6213
             827     6.20102E-03     36.0196E-03     704.277E-03    -268.382E-03    -320.706E-03    -274.774E-03     703.004E-03    -313.041E-03    -49.4509E-03     505.825E-03    -251.522E-03    -255.519E-03    -249.932E-03     504.234E-03    -255.519E-03     68.4862E-03     12.9372E+06    -33.6514E+06    -53.8216E+06    -53.1324E+06    -34.3407E+06     12.9372E+06    -361.285E+03         68.2438
             828     5.42330E-03     35.9766E-03     765.908E-03    -293.043E-03    -356.132E-03    -320.433E-03     764.575E-03    -327.409E-03     11.9639E-03     506.640E-03    -251.544E-03    -255.594E-03    -250.732E-03     505.828E-03    -255.594E-03     48.6870E-03     2.28578E+06    -43.1479E+06    -62.2320E+06    -61.6863E+06    -43.6936E+06     2.28578E+06    -158.528E+03         66.9221
             829     4.65050E-03     35.9598E-03     789.140E-03    -317.103E-03    -356.387E-03    -338.048E-03     785.918E-03    -332.219E-03     8.15016E-03     508.011E-03    -252.570E-03    -255.692E-03    -252.212E-03     507.653E-03    -255.692E-03     32.1881E-03    -13.7557E+06    -55.1246E+06    -72.1362E+06    -71.6455E+06    -55.6153E+06    -13.7557E+06    -82.8104E+03         65.7263
             830     3.87349E-03     35.9630E-03     781.230E-03    -329.925E-03    -337.822E-03    -334.028E-03     778.712E-03    -331.201E-03     27.5304E-03     508.665E-03    -253.432E-03    -255.559E-03    -253.303E-03     508.536E-03    -255.559E-03     18.7679E-03    -34.4985E+06    -68.6597E+06    -81.6477E+06    -81.1920E+06    -69.1153E+06    -34.4985E+06    -49.6246E+03         64.7379
             831     3.09886E-03     35.9794E-03     771.081E-03    -324.754E-03    -334.807E-03    -332.888E-03     770.448E-03    -326.040E-03     36.0123E-03     508.896E-03    -253.573E-03    -255.487E-03    -253.543E-03     508.866E-03    -255.487E-03     8.60275E-03    -56.6708E+06    -84.1360E+06    -95.4992E+06    -89.1924E+06    -90.4428E+06    -56.6708E+06    -643.338E+03         63.9863
             832     2.32454E-03     36.0062E-03     753.860E-03    -302.196E-03    -336.883E-03    -318.601E-03     751.884E-03    -318.502E-03     3.67682E-03     509.241E-03    -253.989E-03    -255.486E-03    -253.985E-03     509.237E-03    -255.486E-03     2.93538E-03    -78.1008E+06    -97.0707E+06    -121.245E+06    -97.1651E+06    -121.151E+06    -78.1008E+06    -1.11924E+06         63.3821
             833     1.54771E-03     36.0401E-03     739.145E-03    -288.422E-03    -330.079E-03    -302.592E-03     736.266E-03    -313.030E-03     18.2777E-03     510.481E-03    -254.985E-03    -255.792E-03    -254.984E-03     510.480E-03    -255.792E-03     434.081E-06    -92.4081E+06    -103.041E+06    -153.513E+06    -103.067E+06    -153.488E+06    -92.4081E+06    -718.414E+03         62.9085
             834     773.880E-06     36.0684E-03     742.094E-03    -260.559E-03    -358.571E-03    -343.875E-03     736.986E-03    -270.147E-03     58.6196E-03     511.536E-03    -255.299E-03    -256.215E-03    -255.298E-03     511.534E-03    -256.215E-03    -664.907E-06    -101.483E+06    -105.818E+06    -175.040E+06    -105.812E+06    -174.803E+06    -101.727E+06     1.31704E+06         62.6127
             835     13.1841E-03     36.3953E-03     414.479E-03    -88.2123E-03    -210.906E-03    -101.719E-03     413.207E-03    -196.128E-03    -34.7591E-03     531.532E-03    -254.700E-03    -275.589E-03    -258.663E-03     514.606E-03    -254.700E-03     215.884E-03     58.7533E+06     12.6779E+06    -4.79489E+06    -3.43720E+06     11.3202E+06     58.7533E+06     445.638E+03         81.8116
             836     12.4056E-03     35.9123E-03     532.277E-03    -142.053E-03    -268.914E-03    -141.501E-03     531.724E-03    -268.914E-03    -29.5429E-03     531.485E-03    -254.838E-03    -275.494E-03    -255.832E-03     511.823E-03    -254.838E-03     242.780E-03     55.0203E+06     11.8318E+06    -8.33114E+06    -6.58623E+06     10.0868E+06     55.0203E+06     361.010E+03         79.1197
             837     11.6328E-03     35.6558E-03     654.580E-03    -187.909E-03    -340.629E-03    -187.209E-03     653.880E-03    -340.629E-03    -32.7367E-03     517.604E-03    -254.109E-03    -263.083E-03    -249.933E-03     504.454E-03    -254.109E-03     200.108E-03     50.4986E+06     8.31673E+06    -12.1818E+06    -10.7027E+06     6.83764E+06     50.4986E+06    -345.483E+03         76.6449
             838     10.8519E-03     35.3443E-03     776.673E-03    -236.858E-03    -406.897E-03    -236.135E-03     775.951E-03    -406.897E-03    -44.0064E-03     515.788E-03    -254.519E-03    -261.105E-03    -248.017E-03     502.700E-03    -254.519E-03     199.138E-03     46.3506E+06     3.61293E+06    -16.3494E+06    -15.5707E+06     2.83418E+06     46.3506E+06    -515.488E+03         74.8575
             839     10.0759E-03     35.1105E-03     899.417E-03    -292.116E-03    -470.959E-03    -291.332E-03     898.633E-03    -470.959E-03    -56.8627E-03     511.124E-03    -255.068E-03    -257.036E-03    -246.792E-03     500.880E-03    -255.068E-03     176.134E-03     44.9835E+06    -510.342E+03    -21.0493E+06    -20.5429E+06    -1.01681E+06     44.9835E+06    -520.570E+03         73.6319
             840     9.29867E-03     34.8848E-03         1.02346    -353.457E-03    -530.694E-03    -352.557E-03         1.02256    -530.694E-03    -66.2693E-03     509.870E-03    -254.500E-03    -256.196E-03    -247.105E-03     501.171E-03    -254.892E-03     161.889E-03     43.5509E+06    -4.76313E+06    -26.1620E+06    -25.8429E+06    -5.08223E+06     43.5509E+06    -778.828E+03         72.7272
             841     8.52778E-03     34.7009E-03         1.15276    -426.702E-03    -585.726E-03    -425.887E-03         1.15194    -585.726E-03    -67.5234E-03     508.430E-03    -253.738E-03    -255.336E-03    -247.859E-03     501.929E-03    -254.715E-03     139.748E-03     38.9198E+06    -10.6767E+06    -32.3140E+06    -31.9059E+06    -11.0848E+06     38.9198E+06    -375.098E+03         71.9216
             842     7.75538E-03     34.5448E-03         1.26439    -490.540E-03    -633.712E-03    -490.050E-03         1.26390    -633.712E-03    -57.7494E-03     506.737E-03    -252.569E-03    -255.106E-03    -248.397E-03     502.225E-03    -254.765E-03     116.075E-03     31.6462E+06    -17.5047E+06    -38.6814E+06    -38.1636E+06    -18.0225E+06     31.6462E+06    -389.641E+03         70.9131
             843     6.97660E-03     34.4291E-03         1.36180    -545.062E-03    -674.149E-03    -543.651E-03         1.36039    -674.149E-03    -72.1853E-03     505.034E-03    -251.239E-03    -255.175E-03    -248.427E-03     502.222E-03    -255.175E-03     91.1583E-03     22.6572E+06    -25.0566E+06    -45.8658E+06    -45.0572E+06    -25.8651E+06     22.6572E+06    -503.082E+03         69.6126
             844     6.19885E-03     34.3502E-03         1.44886    -597.814E-03    -706.345E-03    -596.614E-03         1.44766    -706.345E-03    -57.9201E-03     504.763E-03    -250.784E-03    -255.265E-03    -249.208E-03     503.187E-03    -255.265E-03     68.0563E-03     13.2404E+06    -33.7285E+06    -54.0574E+06    -53.2232E+06    -34.5626E+06     13.2404E+06    -140.925E+03         68.2177
             845     5.42547E-03     34.3076E-03         1.51505    -636.857E-03    -730.618E-03    -636.496E-03         1.51469    -730.618E-03    -12.8766E-03     506.004E-03    -251.038E-03    -255.411E-03    -250.233E-03     505.199E-03    -255.411E-03     48.4763E-03     1.48826E+06    -43.6915E+06    -62.6349E+06    -61.9937E+06    -44.3326E+06     1.48826E+06    -77.0693E+03         66.8898
             846     4.64814E-03     34.2897E-03         1.58074    -682.595E-03    -750.147E-03    -684.794E-03         1.57983    -747.036E-03    -44.5872E-03     507.583E-03    -252.113E-03    -255.537E-03    -251.764E-03     507.234E-03    -255.537E-03     31.5539E-03    -13.9604E+06    -55.0858E+06    -72.1310E+06    -71.4495E+06    -55.7673E+06    -13.9604E+06    -210.618E+03         65.6941
             847     3.87593E-03     34.2940E-03         1.62969    -721.287E-03    -760.814E-03    -726.241E-03         1.62857    -754.743E-03    -4.24116E-03     508.342E-03    -253.244E-03    -255.443E-03    -253.124E-03     508.222E-03    -255.443E-03     18.2228E-03    -34.0635E+06     -68.438E+06    -81.6060E+06    -81.0165E+06    -69.0275E+06    -34.0635E+06    -344.719E+03         64.7131
             848     3.10076E-03     34.3112E-03         1.63328    -722.619E-03    -765.185E-03    -729.773E-03         1.63222    -756.968E-03     9.98169E-03     508.592E-03    -253.449E-03    -255.392E-03    -253.419E-03     508.561E-03    -255.392E-03     8.50582E-03    -57.3381E+06    -85.1008E+06    -95.8325E+06    -90.1720E+06    -90.7613E+06    -57.3381E+06     143.947E+03         63.9702
             849     2.32378E-03     34.3407E-03         1.62933    -721.411E-03    -764.712E-03    -724.871E-03         1.62753    -759.455E-03     38.4103E-03     509.057E-03    -253.879E-03    -255.361E-03    -253.876E-03     509.054E-03    -255.361E-03     2.28343E-03    -79.3557E+06    -97.7209E+06    -118.983E+06    -97.8920E+06    -118.812E+06    -79.3557E+06     527.351E+03         63.3675
             850     1.54928E-03     34.3678E-03         1.64971    -738.695E-03    -764.484E-03    -736.460E-03         1.64735    -764.357E-03     59.8272E-03     510.242E-03    -254.862E-03    -255.663E-03    -254.861E-03     510.241E-03    -255.663E-03    -1.31922E-03    -96.0585E+06    -104.910E+06    -155.189E+06    -104.984E+06    -155.115E+06    -96.0585E+06     4.58607E+03         62.8907
             851     774.399E-06     34.3964E-03         1.68626    -729.492E-03    -804.214E-03    -787.630E-03         1.67926    -739.081E-03     156.613E-03     511.418E-03    -255.009E-03    -256.441E-03    -255.907E-03     511.415E-03    -255.540E-03    -2.88662E-03    -106.022E+06    -109.830E+06    -178.049E+06    -109.688E+06    -178.001E+06    -106.211E+06     -1.4816E+06         62.5941
             852     13.1817E-03     34.7225E-03     798.357E-03    -163.462E-03    -493.158E-03    -163.050E-03     797.945E-03    -493.158E-03    -16.3396E-03     531.184E-03    -254.726E-03    -275.181E-03    -258.307E-03     514.310E-03    -254.726E-03     215.730E-03     58.4957E+06     12.6751E+06    -4.96974E+06    -3.54033E+06     11.2457E+06     58.4957E+06     106.399E+03         81.7870
             853     12.4075E-03     34.2460E-03     971.770E-03    -247.766E-03    -575.851E-03    -247.414E-03     971.417E-03    -575.851E-03    -20.9459E-03     530.729E-03    -254.872E-03    -275.006E-03    -255.311E-03     511.033E-03    -254.872E-03     243.139E-03     54.0781E+06     11.5698E+06    -9.05968E+06    -7.20534E+06     9.71546E+06     54.0781E+06     188.377E+03         79.1063
             854     11.6269E-03     33.9847E-03         1.13932    -326.447E-03    -656.331E-03    -325.937E-03         1.13881    -656.331E-03    -54.0460E-03     517.635E-03    -254.162E-03    -262.988E-03    -249.815E-03     504.463E-03    -254.162E-03     200.433E-03     49.9554E+06     8.09897E+06    -12.1855E+06    -10.7907E+06     6.70421E+06     49.9554E+06    -212.591E+03         76.6493
             855     10.8532E-03     33.6818E-03         1.29347    -398.705E-03    -730.882E-03    -397.968E-03         1.29273    -730.882E-03    -66.1155E-03     516.650E-03    -254.562E-03    -261.719E-03    -248.935E-03     503.866E-03    -254.562E-03     196.923E-03     46.8161E+06     4.22554E+06    -15.5478E+06    -14.8557E+06     3.53345E+06     46.8161E+06    -429.619E+03         74.8791
             856     10.0775E-03     33.4399E-03         1.44713    -476.385E-03    -803.203E-03    -475.645E-03         1.44639    -803.203E-03    -66.6078E-03     511.662E-03    -255.055E-03    -257.813E-03    -248.023E-03     501.872E-03    -255.055E-03     172.431E-03     45.5958E+06     296.669E+03    -20.0361E+06    -19.5647E+06    -174.661E+03     45.5958E+06    -509.323E+03         73.6605
             857     9.30368E-03     33.2203E-03         1.60643    -564.503E-03    -871.280E-03    -563.770E-03         1.60569    -871.280E-03    -43.3199E-03     510.139E-03    -254.761E-03    -256.483E-03    -248.034E-03     501.690E-03    -254.761E-03     159.845E-03     43.4776E+06    -4.90944E+06    -26.1052E+06    -25.7827E+06    -5.23192E+06     43.4776E+06    -567.236E+03         72.7512
             858     8.52692E-03     33.0206E-03         1.77240    -667.005E-03    -933.818E-03    -666.412E-03         1.77181    -933.818E-03    -37.5163E-03     508.308E-03    -253.944E-03    -255.325E-03    -248.261E-03     501.814E-03    -254.513E-03     139.700E-03     38.6682E+06    -10.5762E+06    -32.7585E+06    -32.0440E+06    -11.2906E+06     38.6682E+06    -906.204E+03         71.9324
             859     7.75267E-03     32.8774E-03         1.92596    -765.124E-03    -987.562E-03    -764.673E-03         1.92551    -987.562E-03    -64.9110E-03     506.417E-03    -252.493E-03    -254.889E-03    -248.275E-03     501.858E-03    -254.548E-03     116.731E-03     31.0207E+06    -17.3848E+06    -39.2827E+06    -38.3034E+06    -18.3641E+06     31.0207E+06    -485.019E+03         70.9046
             860     6.98130E-03     32.7617E-03         2.05460    -846.586E-03        -1.03228    -846.167E-03         2.05418        -1.03228    -59.6286E-03     504.754E-03    -251.106E-03    -254.911E-03    -248.274E-03     501.922E-03    -254.911E-03     91.2963E-03     21.7637E+06    -25.5131E+06    -46.7142E+06    -45.6696E+06    -26.5577E+06     21.7637E+06    -58.3741E+03         69.5888
             861     6.20339E-03     32.6869E-03         2.16093    -914.533E-03        -1.06855    -914.246E-03         2.16065        -1.06855    -51.0101E-03     504.415E-03    -250.667E-03    -255.001E-03    -249.132E-03     502.879E-03    -255.001E-03     67.2416E-03     12.6391E+06    -34.0725E+06    -54.3504E+06    -53.3834E+06    -35.0395E+06     12.6391E+06    -91.7132E+03         68.1853
             862     5.42532E-03     32.6390E-03         2.24437    -966.189E-03        -1.09740    -965.860E-03         2.24404        -1.09740    -20.1444E-03     505.534E-03    -250.919E-03    -255.185E-03    -250.130E-03     504.745E-03    -255.185E-03     47.9492E-03     1.70419E+06    -43.6506E+06    -62.7002E+06    -61.9189E+06    -44.4320E+06     1.70419E+06    -92.4369E+03         66.8503
             863     4.65248E-03     32.6230E-03         2.31057        -1.00692        -1.12040        -1.00655         2.31021        -1.12040    -22.9725E-03     506.748E-03    -251.468E-03    -255.341E-03    -251.128E-03     506.408E-03    -255.341E-03     31.1757E-03    -13.5477E+06    -54.7354E+06    -72.3114E+06    -71.3643E+06    -55.6825E+06    -13.5477E+06     34.2431E+03         65.6499
             864     3.87423E-03     32.6264E-03         2.37233        -1.05129        -1.13829        -1.05081         2.37185        -1.13829    -21.1612E-03     507.651E-03    -252.528E-03    -255.346E-03    -252.409E-03     507.532E-03    -255.346E-03     18.1112E-03    -34.7812E+06    -69.4783E+06    -82.8371E+06    -82.1576E+06    -70.1579E+06    -34.7812E+06     467.413E+03         64.6741
             865     3.09870E-03     32.6434E-03         2.42817        -1.09372        -1.15309        -1.09511         2.42711        -1.15064    -56.7522E-03     508.834E-03    -253.734E-03    -255.347E-03    -253.732E-03     508.803E-03    -255.319E-03     8.68734E-03    -57.4782E+06    -87.3627E+06    -96.1635E+06    -92.4112E+06    -91.1150E+06    -57.4782E+06     984.010E+03         63.9448
             866     2.32555E-03     32.6695E-03         2.47614        -1.13173        -1.16502        -1.14040         2.47454        -1.15476    -5.13436E-03     509.700E-03    -254.558E-03    -255.253E-03    -254.820E-03     509.696E-03    -254.987E-03     1.87689E-03    -78.1762E+06    -99.3705E+06    -119.462E+06    -99.6053E+06    -119.227E+06    -78.1762E+06     1.94515E+06         63.3474
             867     1.55074E-03     32.7002E-03         2.48811        -1.14654        -1.16467        -1.16189         2.48638        -1.14759    -13.3059E-03     509.449E-03    -254.548E-03    -255.098E-03    -254.784E-03     509.448E-03    -254.860E-03    -1.83061E-03    -95.7462E+06    -104.664E+06    -150.543E+06    -104.771E+06    -150.437E+06    -95.7462E+06     1.36097E+06         62.8567
             868     775.525E-06     32.7296E-03         2.45766        -1.10895        -1.17377        -1.16739         2.45128        -1.10895     116.413E-03     509.542E-03    -254.012E-03    -255.585E-03    -255.312E-03     509.539E-03    -254.282E-03    -1.99230E-03    -105.913E+06    -110.215E+06    -179.039E+06    -108.499E+06    -179.003E+06    -107.665E+06    -904.578E+03         62.5393
             869     13.1821E-03     33.0531E-03         1.15797    -215.733E-03    -769.114E-03    -215.497E-03         1.15773    -769.114E-03    -10.2797E-03     530.739E-03    -254.792E-03    -274.667E-03    -257.647E-03     513.718E-03    -254.792E-03     216.591E-03     58.0558E+06     12.1820E+06    -5.27220E+06    -4.18053E+06     11.0904E+06     58.0558E+06    -496.935E+03         81.7892
             870     12.4029E-03     32.5795E-03         1.36165    -319.780E-03    -858.167E-03    -319.107E-03         1.36098    -858.167E-03    -36.5057E-03     531.642E-03    -254.939E-03    -276.043E-03    -256.354E-03     511.954E-03    -254.939E-03     242.948E-03     54.6185E+06     11.9467E+06    -9.12959E+06    -7.11388E+06     9.93102E+06     54.6185E+06    -874.360E+03         79.1362
             871     11.6290E-03     32.3212E-03         1.55906    -424.120E-03    -944.912E-03    -423.175E-03         1.55812    -944.912E-03    -84.2196E-03     518.665E-03    -254.160E-03    -264.118E-03    -251.248E-03     505.796E-03    -254.160E-03     198.411E-03     50.8244E+06     8.66908E+06    -12.5897E+06    -10.8989E+06     6.97822E+06     50.8244E+06    -488.221E+03         76.6913
             872     10.8524E-03     32.0063E-03         1.74855    -527.971E-03        -1.02593    -527.112E-03         1.74769        -1.02593    -85.6214E-03     516.938E-03    -254.466E-03    -262.079E-03    -249.528E-03     504.387E-03    -254.466E-03     195.289E-03     47.6804E+06     4.19967E+06    -15.9769E+06    -15.2360E+06     3.45874E+06     47.6804E+06    -455.770E+03         74.9087
             873     10.0805E-03     31.7741E-03         1.94241    -641.079E-03        -1.10384    -640.374E-03         1.94170        -1.10384    -78.9140E-03     512.758E-03    -254.872E-03    -258.857E-03    -248.973E-03     502.874E-03    -254.872E-03     173.526E-03     45.5989E+06     102.378E+03    -20.6000E+06    -20.0466E+06    -450.972E+03     45.5989E+06    -256.509E+03         73.6668
             874     9.30414E-03     31.5429E-03         2.14288    -764.902E-03        -1.17598    -764.451E-03         2.14243        -1.17598    -43.8863E-03     511.020E-03    -254.455E-03    -256.952E-03    -248.465E-03     502.533E-03    -254.455E-03     160.193E-03     43.5196E+06    -4.38115E+06    -25.6490E+06    -25.2517E+06    -4.77845E+06     43.5196E+06    -302.954E+03         72.7272
             875     8.53141E-03     31.3549E-03         2.33434    -888.046E-03        -1.24129    -887.592E-03         2.33389        -1.24129    -45.5649E-03     507.391E-03    -252.860E-03    -254.462E-03    -246.795E-03     501.096E-03    -254.232E-03     137.345E-03     38.6419E+06    -10.1780E+06    -32.3025E+06    -31.4119E+06    -11.0685E+06     38.6419E+06    -489.001E+03         71.8886
             876     7.75555E-03     31.2029E-03         2.50510    -997.321E-03        -1.29811    -996.752E-03         2.50453        -1.29811    -85.0441E-03     505.608E-03    -251.393E-03    -254.414E-03    -246.913E-03     501.128E-03    -254.414E-03     115.651E-03     30.7706E+06    -17.7375E+06    -40.3413E+06    -39.0447E+06    -19.0341E+06     30.7706E+06    -385.041E+03         70.8661
             877     6.97894E-03     31.0921E-03         2.65626        -1.09746        -1.34641        -1.09686         2.65566        -1.34641    -93.6766E-03     505.242E-03    -251.457E-03    -254.879E-03    -248.578E-03     502.363E-03    -254.879E-03     92.2276E-03     20.8523E+06    -26.1191E+06    -47.6793E+06    -46.3817E+06    -27.4168E+06     20.8523E+06    -266.125E+03         69.5642
             878     6.20216E-03     31.0185E-03         2.78308        -1.18323        -1.38640        -1.18282         2.78266        -1.38640    -80.5443E-03     505.113E-03    -251.381E-03    -254.929E-03    -249.780E-03     503.513E-03    -254.929E-03     68.7336E-03     11.4905E+06    -34.5694E+06    -54.9476E+06    -53.8792E+06    -35.6378E+06     11.4905E+06    -22.4596E+03         68.1656
             879     5.42897E-03     30.9723E-03         2.88945        -1.25262        -1.41912        -1.25241         2.88924        -1.41912    -41.8857E-03     505.166E-03    -250.786E-03    -255.036E-03    -249.961E-03     504.341E-03    -255.036E-03     49.0420E-03     742.360E+03    -44.0811E+06    -63.6259E+06    -62.6200E+06    -45.0870E+06     742.360E+03     280.366E+03         66.8258
             880     4.65037E-03     30.9564E-03         2.97421        -1.30968        -1.44580        -1.30957         2.97410        -1.44580    -31.0476E-03     506.202E-03    -251.108E-03    -255.246E-03    -250.743E-03     505.838E-03    -255.246E-03     32.3820E-03    -14.2376E+06    -55.8282E+06    -73.3870E+06    -72.4524E+06    -56.7628E+06    -14.2376E+06     1.03120E+06         65.6187
             881     3.87631E-03     30.9633E-03         3.04939        -1.36236        -1.46742        -1.36178         3.04881        -1.46742     6.21595E-03     507.754E-03    -252.652E-03    -255.231E-03    -252.526E-03     507.628E-03    -255.231E-03     18.3759E-03    -33.9315E+06    -69.2156E+06    -82.8760E+06    -82.0548E+06    -70.0369E+06    -33.9315E+06     1.68867E+06         64.6388
             882     3.10063E-03     30.9794E-03         3.12825        -1.42321        -1.48494        -1.42496         3.12755        -1.48249    -4.01701E-03     508.812E-03    -253.873E-03    -255.133E-03    -253.874E-03     508.785E-03    -255.105E-03     8.41306E-03    -57.3905E+06    -86.0417E+06    -96.0582E+06    -91.6522E+06    -90.4476E+06    -57.3905E+06     2.06179E+06         63.9063
             883     2.32582E-03     31.0010E-03         3.17768        -1.46147        -1.49840        -1.47059         3.17653        -1.48814     45.6919E-03     509.128E-03    -254.225E-03    -255.054E-03    -254.486E-03     509.123E-03    -254.788E-03     2.32532E-03    -78.3521E+06    -99.4501E+06    -119.642E+06    -99.8996E+06    -119.192E+06    -78.3521E+06     1.09322E+06         63.3111
             884     1.55204E-03     31.0382E-03         3.18402        -1.46324        -1.50422        -1.47840         3.18222        -1.48727    -5.14583E-03     509.145E-03    -254.317E-03    -255.036E-03    -254.653E-03     509.145E-03    -254.699E-03    -684.248E-06    -94.0358E+06    -104.436E+06    -146.928E+06    -104.531E+06    -146.832E+06    -94.0358E+06     226.111E+03         62.8286
             885     775.496E-06     31.0647E-03         3.18304        -1.43531        -1.53568        -1.47457         3.17658        -1.48996     138.916E-03     509.177E-03    -254.127E-03    -255.094E-03    -254.627E-03     509.175E-03    -254.593E-03    -686.151E-06    -103.864E+06    -109.588E+06    -176.514E+06    -107.895E+06    -176.454E+06    -105.616E+06     642.451E+03         62.5157
             886     13.1770E-03     31.3876E-03         1.46798    -248.676E-03        -1.00980    -248.450E-03         1.46776        -1.00980    -34.1609E-03     531.080E-03    -254.856E-03    -275.036E-03    -258.247E-03     514.291E-03    -254.856E-03     215.307E-03     59.6229E+06     13.0178E+06    -4.61287E+06    -3.86899E+06     12.2739E+06     59.6229E+06    -333.113E+03         81.8184
             887     12.4032E-03     30.9071E-03         1.67935    -359.038E-03        -1.10259    -358.473E-03         1.67879        -1.10259    -54.0424E-03     532.894E-03    -254.948E-03    -277.397E-03    -258.008E-03     513.505E-03    -254.948E-03     241.433E-03     55.2778E+06     12.2775E+06    -8.72299E+06    -7.05441E+06     10.6089E+06     55.2778E+06    -656.536E+03         79.1780
             888     11.6309E-03     30.6498E-03         1.89813    -484.814E-03        -1.19334    -484.003E-03         1.89731        -1.19334    -80.0014E-03     519.640E-03    -254.105E-03    -265.018E-03    -252.316E-03     506.937E-03    -254.105E-03     197.328E-03     50.9412E+06     8.65747E+06    -13.3063E+06    -11.4240E+06     6.77520E+06     50.9412E+06    -888.686E+03         76.7210
             889     10.8576E-03     30.3438E-03         2.13560    -634.046E-03        -1.27765    -633.311E-03         2.13487        -1.27765    -77.3068E-03     517.259E-03    -254.290E-03    -262.363E-03    -249.884E-03     504.780E-03    -254.290E-03     194.842E-03     46.7759E+06     3.49232E+06    -17.4357E+06    -16.5109E+06     2.56750E+06     46.7759E+06    -1.00634E+06         74.9091
             890     10.0793E-03     30.1035E-03         2.37890    -793.824E-03        -1.35662    -793.181E-03         2.37826        -1.35662    -75.3327E-03     512.507E-03    -254.678E-03    -258.592E-03    -248.762E-03     502.677E-03    -254.678E-03     172.997E-03     44.7915E+06    -570.598E+03    -22.0558E+06    -21.2032E+06    -1.42319E+06     44.7915E+06    -1.17916E+06         73.6387
             891     9.30970E-03     29.8732E-03         2.59782    -935.291E-03        -1.42844    -934.879E-03         2.59741        -1.42844    -52.1594E-03     509.979E-03    -253.691E-03    -256.121E-03    -246.981E-03     501.452E-03    -254.305E-03     160.358E-03     43.3450E+06    -4.63578E+06    -27.0196E+06    -26.1466E+06    -5.50884E+06     43.3450E+06    -439.676E+03         72.6776
             892     8.53261E-03     29.6928E-03         2.79257        -1.06017        -1.49399        -1.05977         2.79217        -1.49399    -49.3553E-03     507.128E-03    -252.432E-03    -254.144E-03    -245.895E-03     500.551E-03    -254.105E-03     140.366E-03     38.3674E+06    -10.5558E+06    -33.3126E+06    -32.2828E+06    -11.5857E+06     38.3674E+06     93.3532E+03         71.8329
             893     7.75520E-03     29.5405E-03         2.97340        -1.17683        -1.55303        -1.17639         2.97297        -1.55303    -67.9038E-03     505.829E-03    -251.704E-03    -254.324E-03    -247.032E-03     501.157E-03    -254.324E-03     117.925E-03     29.9291E+06    -17.7554E+06    -40.4416E+06    -39.0236E+06    -19.1734E+06     29.9291E+06    -118.839E+03         70.8201
             894     6.97930E-03     29.4246E-03         3.14632        -1.29473        -1.60478        -1.29436         3.14594        -1.60478    -45.8187E-03     504.884E-03    -251.192E-03    -254.825E-03    -248.357E-03     502.048E-03    -254.825E-03     91.3765E-03     19.9149E+06    -26.0886E+06    -47.8254E+06    -46.4301E+06    -27.4838E+06     19.9149E+06     29.5786E+03         69.5307
             895     6.20383E-03     29.3505E-03         3.30754        -1.41122        -1.64750        -1.41090         3.30723        -1.64750    -51.0782E-03     504.612E-03    -250.913E-03    -254.941E-03    -249.351E-03     503.050E-03    -254.941E-03     67.9579E-03     10.3158E+06    -34.9524E+06    -55.6122E+06    -54.3517E+06    -36.2129E+06     10.3158E+06     428.702E+03         68.1419
             896     5.42669E-03     29.3100E-03         3.44088        -1.50727        -1.68099        -1.50708         3.44069        -1.68099    -42.7306E-03     505.531E-03    -251.087E-03    -255.020E-03    -250.255E-03     504.699E-03    -255.020E-03     49.3160E-03    -22.0701E+03    -44.9252E+06    -64.4612E+06    -63.3365E+06    -46.0498E+06    -22.0701E+03     960.481E+03         66.8110
             897     4.65199E-03     29.2928E-03         3.54289        -1.58233        -1.70650        -1.58150         3.54205        -1.70650    -81.8622E-03     506.782E-03    -251.734E-03    -255.136E-03    -251.372E-03     506.420E-03    -255.136E-03     32.0889E-03    -14.1003E+06    -56.3513E+06    -73.1702E+06    -72.4634E+06    -57.0581E+06    -14.1003E+06     992.668E+03         65.6044
             898     3.87525E-03     29.2940E-03         3.61279        -1.63148        -1.72645        -1.63022         3.61152        -1.72645    -35.8190E-03     507.559E-03    -252.679E-03    -255.060E-03    -252.555E-03     507.436E-03    -255.060E-03     18.5373E-03    -34.3669E+06    -69.9304E+06    -82.9932E+06    -82.2877E+06    -70.6358E+06    -34.3669E+06     1.77433E+06         64.6116
             899     3.10174E-03     29.3110E-03         3.66456        -1.66639        -1.74404        -1.66552         3.66369        -1.74404    -12.9870E-03     508.186E-03    -253.431E-03    -254.967E-03    -253.398E-03     508.152E-03    -254.967E-03     9.35630E-03    -57.5551E+06    -85.5379E+06    -94.0670E+06    -90.9900E+06    -88.6149E+06    -57.5551E+06     2.26989E+06         63.8636
             900     2.32543E-03     29.3349E-03         3.71865        -1.70824        -1.75950        -1.70695         3.71736        -1.75950     10.9285E-03     508.460E-03    -253.835E-03    -254.837E-03    -253.829E-03     508.454E-03    -254.837E-03     2.27651E-03    -79.3483E+06    -96.7374E+06    -114.943E+06    -97.1295E+06    -114.551E+06    -79.3483E+06     74.4773E+03         63.2658
             901     1.54833E-03     29.3652E-03         3.76410        -1.74156        -1.77541        -1.74222         3.76102        -1.77167    -84.9802E-03     509.220E-03    -254.398E-03    -255.107E-03    -254.495E-03     509.218E-03    -255.008E-03    -1.37904E-03    -95.1682E+06    -102.770E+06    -149.207E+06    -102.837E+06    -149.140E+06    -95.1682E+06    -1.45367E+06         62.8014
             902     775.462E-06     29.3941E-03         3.80712        -1.74329        -1.81606        -1.73780         3.79789        -1.81233     125.807E-03     509.974E-03    -254.389E-03    -255.622E-03    -254.486E-03     509.971E-03    -255.523E-03    -928.004E-06    -100.494E+06    -106.546E+06    -176.329E+06    -104.568E+06    -176.273E+06    -102.529E+06     276.617E+03         62.5163
             903     13.1813E-03     29.7180E-03         1.74021    -282.543E-03        -1.21097    -282.055E-03         1.73972        -1.21097     294.624E-06     531.946E-03    -254.818E-03    -276.135E-03    -259.650E-03     515.462E-03    -254.818E-03     212.893E-03     61.0578E+06     13.9126E+06    -4.38893E+06    -3.49318E+06     13.0169E+06     61.0578E+06    -857.932E+03         81.8347
             904     12.4063E-03     29.2388E-03         1.97132    -421.217E-03        -1.30478    -420.753E-03         1.97086        -1.30478     3.58360E-03     532.443E-03    -254.888E-03    -277.003E-03    -257.685E-03     513.124E-03    -254.888E-03     241.266E-03     55.7537E+06     11.0644E+06    -10.2475E+06    -8.81705E+06     9.63397E+06     55.7537E+06    -862.567E+03         79.1769
             905     11.6313E-03     28.9760E-03         2.22680    -584.430E-03        -1.39470    -584.253E-03         2.22662        -1.39470    -17.8607E-03     519.862E-03    -254.073E-03    -264.607E-03    -251.760E-03     507.015E-03    -254.073E-03     198.456E-03     50.2354E+06     7.80700E+06    -14.3750E+06    -12.7419E+06     6.17395E+06     50.2354E+06    -813.397E+03         76.7031
             906     10.8564E-03     28.6728E-03         2.48006    -752.059E-03        -1.47664    -751.932E-03         2.47994        -1.47664    -16.1009E-03     519.025E-03    -254.229E-03    -263.671E-03    -250.833E-03     506.187E-03    -254.229E-03     198.148E-03     46.6162E+06     3.57147E+06    -17.5042E+06    -16.6120E+06     2.67928E+06     46.6162E+06    -1.05704E+06         74.8802
             907     10.0889E-03     28.4304E-03         2.71737    -908.638E-03        -1.55295    -908.568E-03         2.71730        -1.55295    -27.0103E-03     512.266E-03    -254.593E-03    -258.488E-03    -248.330E-03     502.108E-03    -254.593E-03     175.716E-03     45.0759E+06    -577.662E+03    -22.4176E+06    -21.4570E+06    -1.53830E+06     45.0759E+06    -546.708E+03         73.5976
             908     9.30637E-03     28.2151E-03         2.93874        -1.05457        -1.62323        -1.05450         2.93867        -1.62323    -11.5617E-03     508.653E-03    -253.398E-03    -255.049E-03    -245.489E-03     499.999E-03    -254.304E-03     161.305E-03     43.0762E+06    -4.73316E+06    -28.3341E+06    -26.9651E+06    -6.10220E+06     43.0762E+06    -487.151E+03         72.6300
             909     8.52784E-03     28.0233E-03         3.14407        -1.19083        -1.68827        -1.19077         3.14401        -1.68827    -15.6258E-03     506.960E-03    -252.584E-03    -254.123E-03    -245.988E-03     500.364E-03    -254.123E-03     140.412E-03     36.9918E+06    -11.3719E+06    -34.8143E+06    -33.4109E+06    -12.7753E+06     36.9918E+06    -508.463E+03         71.7848
             910     7.75499E-03     27.8734E-03         3.33712        -1.31944        -1.74731        -1.31936         3.33704        -1.74731    -35.8421E-03     505.827E-03    -252.113E-03    -254.289E-03    -247.537E-03     501.250E-03    -254.289E-03     116.781E-03     29.2191E+06    -17.9779E+06    -41.1821E+06    -39.6659E+06    -19.4942E+06     29.2191E+06    -313.851E+03         70.7695
             911     6.98214E-03     27.7562E-03         3.52765        -1.45315        -1.79894        -1.45308         3.52759        -1.79894    -10.8099E-03     504.327E-03    -250.669E-03    -254.771E-03    -247.841E-03     501.499E-03    -254.771E-03     91.2675E-03     19.7048E+06    -26.0233E+06    -48.0877E+06    -46.4675E+06    -27.6434E+06     19.7048E+06     45.4245E+03         69.4784
             912     6.20170E-03     27.6894E-03         3.70600        -1.58521        -1.84142        -1.58509         3.70588        -1.84142    -23.6721E-03     504.219E-03    -250.559E-03    -254.917E-03    -249.005E-03     502.664E-03    -254.917E-03     67.6363E-03      9.9979E+06    -35.7737E+06    -56.2912E+06    -54.8987E+06    -37.1662E+06      9.9979E+06     636.579E+03         68.0944
             913     5.42683E-03     27.6437E-03         3.85547        -1.69950        -1.87414        -1.69940         3.85537        -1.87414    -30.6620E-03     506.055E-03    -251.532E-03    -254.960E-03    -250.730E-03     505.253E-03    -254.960E-03     48.4215E-03     104.090E+03    -44.8258E+06    -63.9307E+06    -62.7392E+06    -46.0174E+06     104.090E+03     1.00243E+06         66.7743
             914     4.65292E-03     27.6255E-03         3.96449        -1.78390        -1.89801        -1.78309         3.96368        -1.89801    -75.3960E-03     507.042E-03    -252.088E-03    -254.969E-03    -251.741E-03     506.695E-03    -254.969E-03     31.4652E-03    -14.4118E+06    -56.6979E+06    -73.0564E+06    -72.3449E+06    -57.4095E+06    -14.4118E+06     1.59611E+06         65.5743
             915     3.87836E-03     27.6322E-03         4.03588        -1.83804        -1.91535        -1.83710         4.03494        -1.91535    -48.9552E-03     507.223E-03    -252.491E-03    -254.870E-03    -252.371E-03     507.103E-03    -254.870E-03     18.3514E-03    -33.6506E+06    -70.5655E+06    -82.6153E+06    -82.3775E+06    -70.8033E+06    -33.6506E+06     1.32188E+06         64.5766
             916     3.09962E-03     27.6424E-03         4.07756        -1.87167        -1.92921        -1.87108         4.07697        -1.92921    -38.1063E-03     507.626E-03    -252.945E-03    -254.820E-03    -252.914E-03     507.595E-03    -254.820E-03     8.34510E-03    -56.5676E+06    -85.7503E+06    -91.2604E+06    -90.5286E+06    -86.4822E+06    -56.5676E+06     545.017E+03         63.8226
             917     2.32588E-03     27.6688E-03         4.10706        -1.89480        -1.94255        -1.89352         4.10578        -1.94255     9.05493E-03     508.193E-03    -253.556E-03    -254.781E-03    -253.552E-03     508.189E-03    -254.781E-03     1.40699E-03    -81.3371E+06    -98.0534E+06    -112.454E+06    -98.3136E+06    -112.193E+06    -81.3371E+06     925.614E+03         63.2239
             918     1.55201E-03     27.7040E-03         4.14923        -1.91829        -1.96124        -1.91954         4.14675        -1.95751    -39.8686E-03     509.123E-03    -254.338E-03    -255.037E-03    -254.336E-03     509.121E-03    -255.037E-03    -1.43595E-03    -98.1306E+06    -103.650E+06    -148.824E+06    -103.912E+06    -148.562E+06    -98.1306E+06     1.34466E+06         62.7634
             919     774.242E-06     27.7307E-03         4.20370        -1.93341        -2.00552        -1.92545         4.19200        -2.00178     234.454E-03     510.062E-03    -254.206E-03    -255.918E-03    -255.072E-03     510.055E-03    -255.044E-03    -2.50036E-03    -104.067E+06    -110.542E+06    -177.569E+06    -108.646E+06    -177.429E+06    -106.102E+06    -134.855E+03         62.4875
             920     13.1815E-03     28.0495E-03         1.96444    -332.159E-03        -1.36908    -331.779E-03         1.96406        -1.36908     15.3684E-03     531.892E-03    -254.722E-03    -276.119E-03    -259.421E-03     515.194E-03    -254.722E-03     214.252E-03     60.1428E+06     14.5969E+06    -4.14342E+06    -3.50632E+06     13.9598E+06     60.1428E+06    -43.8091E+03         81.8153
             921     12.4067E-03     27.5738E-03         2.22780    -498.627E-03        -1.45706    -498.239E-03         2.22742        -1.45706     14.9374E-03     532.393E-03    -254.848E-03    -276.767E-03    -257.226E-03     512.852E-03    -254.848E-03     242.540E-03     55.3266E+06     12.0622E+06    -9.26307E+06    -8.23365E+06     11.0328E+06     55.3266E+06    -560.545E+03         79.1410
             922     11.6313E-03     27.3129E-03         2.48525    -667.029E-03        -1.53977    -666.916E-03         2.48514        -1.53977    -13.2284E-03     519.837E-03    -254.056E-03    -264.559E-03    -251.492E-03     506.770E-03    -254.056E-03     200.057E-03     50.4720E+06     7.61073E+06    -13.9862E+06    -12.6513E+06     6.27585E+06     50.4720E+06    -885.277E+03         76.6601
             923     10.8586E-03     26.9980E-03         2.72183    -825.266E-03        -1.61548    -825.167E-03         2.72173        -1.61548    -15.4138E-03     518.167E-03    -254.261E-03    -262.693E-03    -249.674E-03     505.148E-03    -254.261E-03     199.213E-03     46.5495E+06     2.94976E+06    -18.1757E+06    -17.3469E+06     2.12092E+06     46.5495E+06    -162.588E+03         74.8347
             924     10.0790E-03     26.7615E-03         2.94740    -978.050E-03        -1.68649    -978.011E-03         2.94736        -1.68649    -21.5831E-03     512.063E-03    -254.671E-03    -257.998E-03    -247.813E-03     501.878E-03    -254.671E-03     175.866E-03     45.1104E+06    -182.161E+03    -23.7450E+06    -22.1275E+06    -1.79959E+06     45.1104E+06    -701.203E+03         73.5515
             925     9.30712E-03     26.5491E-03         3.16570        -1.12854        -1.75212        -1.12846         3.16562        -1.75212    -29.1241E-03     510.362E-03    -254.070E-03    -256.442E-03    -247.532E-03     501.745E-03    -254.362E-03     161.319E-03     41.7065E+06    -5.07801E+06    -29.5508E+06    -27.5423E+06    -7.08647E+06     41.7065E+06    -936.014E+03         72.5836
             926     8.53394E-03     26.3580E-03         3.37960        -1.28002        -1.81220        -1.27989         3.37946        -1.81220    -47.6568E-03     507.797E-03    -252.752E-03    -254.805E-03    -246.970E-03     501.294E-03    -254.085E-03     139.635E-03     37.1493E+06    -10.9993E+06    -35.1067E+06    -33.4859E+06    -12.6201E+06     37.1493E+06    -544.032E+03         71.7262
             927     7.75751E-03     26.2019E-03         3.58689        -1.42797        -1.86561        -1.42773         3.58666        -1.86561    -64.4919E-03     505.378E-03    -251.145E-03    -254.196E-03    -246.683E-03     500.916E-03    -254.196E-03     115.126E-03     29.5303E+06    -18.2221E+06    -41.8653E+06    -40.0990E+06    -19.9884E+06     29.5303E+06    -402.899E+03         70.6934
             928     6.97784E-03     26.0950E-03         3.76084        -1.55050        -1.91264        -1.55032         3.76066        -1.91264    -44.0652E-03     504.482E-03    -250.665E-03    -254.677E-03    -247.957E-03     501.773E-03    -254.677E-03     89.2886E-03     18.8014E+06    -27.0927E+06    -49.5980E+06    -47.6554E+06    -29.0352E+06     18.8014E+06    -178.836E+03         69.3938
             929     6.20303E-03     26.0185E-03         3.90269        -1.64868        -1.95519        -1.64863         3.90264        -1.95519    -27.8058E-03     504.871E-03    -251.381E-03    -254.768E-03    -249.907E-03     503.397E-03    -254.768E-03     65.8421E-03     8.88591E+06    -36.4951E+06    -56.9097E+06    -55.4655E+06    -37.9393E+06     8.88591E+06    -119.664E+03         68.0065
             930     5.42922E-03     25.9747E-03         4.04175        -1.74644        -1.99406        -1.74623         4.04154        -1.99406     12.3504E-03     505.571E-03    -251.405E-03    -254.746E-03    -250.662E-03     504.828E-03    -254.746E-03     46.5829E-03    -1.00472E+06    -46.2966E+06     -64.852E+06    -63.8401E+06    -47.3084E+06    -1.00472E+06     730.979E+03         66.6838
             931     4.65240E-03     25.9589E-03         4.18159        -1.85379        -2.02714        -1.85329         4.18109        -2.02714    -18.3544E-03     506.540E-03    -251.846E-03    -254.735E-03    -251.524E-03     506.218E-03    -254.735E-03     30.2976E-03    -14.1040E+06    -56.8652E+06    -72.4956E+06    -72.0017E+06    -57.3591E+06    -14.1040E+06     982.863E+03         65.4884
             932     3.87651E-03     25.9640E-03         4.29830        -1.94886        -2.05184        -1.94822         4.29766        -2.05184     6.47402E-03     507.377E-03    -252.996E-03    -254.556E-03    -252.888E-03     507.269E-03    -254.556E-03     17.1695E-03    -33.8614E+06    -70.1610E+06    -81.5976E+06    -81.2162E+06    -70.5423E+06    -33.8614E+06     1.25576E+06         64.5022
             933     3.10423E-03     25.9770E-03         4.38219        -2.02194        -2.06685        -2.02149         4.38174        -2.06685     17.2253E-03     506.947E-03    -252.741E-03    -254.395E-03    -252.717E-03     506.924E-03    -254.395E-03     7.07476E-03    -56.9786E+06    -84.7463E+06    -91.6412E+06    -90.7691E+06    -85.6184E+06    -56.9786E+06     1.81541E+06         63.7564
             934     2.32580E-03     26.0030E-03         4.42743        -2.04607        -2.09407        -2.06772         4.42643        -2.07142     35.4337E-03     507.316E-03    -252.977E-03    -254.458E-03    -252.974E-03     507.313E-03    -254.458E-03     767.651E-06    -78.2299E+06    -98.3186E+06    -115.559E+06    -100.040E+06    -113.837E+06    -78.2299E+06     2.69357E+06         63.1596
             935     1.54839E-03     26.0363E-03         4.42642        -2.03572        -2.11138        -2.07450         4.42267        -2.06885    -74.7305E-03     508.586E-03    -254.133E-03    -254.698E-03    -254.129E-03     508.581E-03    -254.698E-03    -2.24725E-03    -96.3629E+06    -106.465E+06    -144.474E+06    -106.882E+06    -144.057E+06    -96.3629E+06     3.85593E+06         62.6926
             936     776.331E-06     26.0618E-03         4.42335        -2.01511        -2.13153        -2.02118         4.40954        -2.11165     217.508E-03     509.191E-03    -253.814E-03    -255.453E-03    -255.330E-03     509.180E-03    -253.926E-03    -2.67561E-03    -104.926E+06    -113.788E+06    -172.413E+06    -110.035E+06    -172.185E+06    -108.906E+06     1.78645E+06         62.4046
             937     13.1823E-03     26.3825E-03         2.13239    -371.401E-03        -1.47112    -371.336E-03         2.13233        -1.47112     4.78751E-03     531.850E-03    -254.739E-03    -275.897E-03    -258.849E-03     514.802E-03    -254.739E-03     217.244E-03     59.4236E+06     14.8878E+06    -3.88059E+06    -3.61825E+06     14.6254E+06     59.4236E+06     133.545E+03         81.7989
             938     12.4055E-03     25.9038E-03         2.39203    -544.712E-03        -1.54884    -544.506E-03         2.39183        -1.54884     18.4077E-03     533.155E-03    -254.895E-03    -277.548E-03    -257.809E-03     513.416E-03    -254.895E-03     243.824E-03     54.3588E+06     11.7113E+06    -7.57045E+06    -7.13051E+06     11.2713E+06     54.3588E+06     262.425E+03         79.1233
             939     11.6329E-03     25.6432E-03         2.63146    -703.059E-03        -1.62209    -702.750E-03         2.63115        -1.62209     17.2205E-03     519.758E-03    -254.076E-03    -265.001E-03    -251.850E-03     506.607E-03    -254.076E-03     200.696E-03     50.3176E+06     7.77155E+06    -12.7282E+06    -11.8846E+06     6.92793E+06     50.3176E+06     728.014E+03         76.6303
             940     10.8555E-03     25.3315E-03         2.86358    -866.655E-03        -1.69014    -866.373E-03         2.86330        -1.69014     22.1823E-03     517.305E-03    -254.273E-03    -262.035E-03    -249.215E-03     504.484E-03    -254.273E-03     197.272E-03     47.7555E+06     5.00832E+06    -17.9155E+06    -16.2298E+06     3.32263E+06     47.7555E+06    -247.698E+03         74.7832
             941     10.0836E-03     25.0986E-03         3.09319        -1.03236        -1.75327        -1.03211         3.09294        -1.75327     29.1994E-03     512.519E-03    -254.682E-03    -258.206E-03    -248.416E-03     502.729E-03    -254.682E-03     172.587E-03     44.2011E+06     349.597E+03    -24.3380E+06    -21.6329E+06    -2.35559E+06     44.2011E+06    -507.690E+03         73.4814
             942     9.30540E-03     24.8692E-03         3.31260        -1.19482        -1.81059        -1.19454         3.31232        -1.81059     21.5122E-03     511.044E-03    -254.185E-03    -257.056E-03    -248.541E-03     502.645E-03    -254.302E-03     159.455E-03     41.0705E+06    -4.80360E+06    -30.7822E+06    -28.1441E+06    -7.44166E+06     41.0705E+06    -546.563E+03         72.4975
             943     8.53209E-03     24.6870E-03         3.51300        -1.34253        -1.86237        -1.34212         3.51258        -1.86237     25.3015E-03     508.110E-03    -253.205E-03    -254.844E-03    -247.680E-03     501.726E-03    -253.984E-03     138.458E-03     36.7892E+06    -11.1000E+06    -35.9606E+06    -33.9180E+06    -13.1426E+06     36.7892E+06    -749.407E+03         71.6193
             944     7.75592E-03     24.5384E-03         3.68676        -1.46351        -1.90977        -1.46302         3.68627        -1.90977     16.6726E-03     506.176E-03    -252.240E-03    -254.109E-03    -248.061E-03     501.859E-03    -253.969E-03     113.208E-03     27.9054E+06    -18.9967E+06    -42.7442E+06    -40.7800E+06    -20.9609E+06     27.9054E+06    -263.803E+03         70.5628
             945     6.98445E-03     24.4248E-03         3.84219        -1.57495        -1.95408        -1.57447         3.84171        -1.95408     32.6158E-03     504.839E-03    -251.547E-03    -254.208E-03    -249.062E-03     502.353E-03    -254.208E-03     85.5067E-03     17.7900E+06    -27.3216E+06    -50.2163E+06    -48.0565E+06    -29.4814E+06     17.7900E+06    -87.0269E+03         69.2395
             946     6.20604E-03     24.3527E-03         3.98531        -1.67689        -1.99568        -1.67663         3.98504        -1.99568     23.7310E-03     503.986E-03    -251.167E-03    -254.291E-03    -249.849E-03     502.668E-03    -254.291E-03     62.2552E-03     9.43651E+06    -36.4172E+06    -57.2557E+06    -55.6512E+06    -38.0218E+06     9.43651E+06     48.7788E+03         67.8327
             947     5.42967E-03     24.3098E-03         4.11868        -1.77079        -2.03471        -1.77055         4.11844        -2.03471     37.3316E-03     504.675E-03    -251.312E-03    -254.294E-03    -250.666E-03     504.029E-03    -254.294E-03     43.0276E-03    -1.68782E+06    -47.1878E+06    -64.8058E+06    -64.1648E+06    -47.8288E+06    -1.68782E+06    -442.758E+03         66.4988
             948     4.65493E-03     24.2962E-03         4.25226        -1.87103        -2.07023        -1.87028         4.25151        -2.07023    -30.5050E-03     505.922E-03    -251.763E-03    -254.191E-03    -251.508E-03     505.666E-03    -254.191E-03     26.8984E-03    -16.5789E+06    -58.7125E+06    -73.1137E+06    -72.9371E+06    -58.8891E+06    -16.5789E+06     243.426E+03         65.3075
             949     3.88103E-03     24.2972E-03         4.37579        -1.96462        -2.10059        -1.96389         4.37506        -2.10059    -63.7635E-03     506.178E-03    -252.352E-03    -253.957E-03    -252.272E-03     506.098E-03    -253.957E-03     14.2882E-03    -35.3055E+06    -71.1859E+06    -82.6561E+06    -82.1682E+06    -71.6738E+06    -35.3055E+06     1.86131E+06         64.3421
             950     3.10280E-03     24.3171E-03         4.48197        -2.04872        -2.12381        -2.04820         4.48146        -2.12381    -47.2186E-03     506.139E-03    -252.562E-03    -253.887E-03    -252.701E-03     506.126E-03    -253.735E-03     5.16207E-03    -58.0330E+06    -85.2526E+06    -94.1011E+06    -92.2692E+06    -87.0845E+06    -58.0330E+06     3.02363E+06         63.6144
             951     2.32798E-03     24.3416E-03         4.55963        -2.09463        -2.15912        -2.11685         4.55920        -2.13647    -31.5259E-03     506.381E-03    -252.806E-03    -253.793E-03    -252.955E-03     506.378E-03    -253.641E-03    -478.236E-06    -77.8069E+06    -97.2397E+06    -114.851E+06    -99.9357E+06    -112.155E+06    -77.8069E+06     3.34760E+06         63.0210
             952     1.55434E-03     24.3668E-03         4.58628        -2.10423        -2.18010        -2.14374         4.58325        -2.13756    -122.819E-03     506.696E-03    -253.179E-03    -253.742E-03    -253.174E-03     506.690E-03    -253.742E-03    -3.61418E-03    -94.5953E+06    -105.256E+06    -139.580E+06    -105.532E+06    -139.304E+06    -94.5953E+06     2.04051E+06         62.5470
             953     774.950E-06     24.3987E-03         4.57766        -2.08956        -2.19361        -2.09465         4.56287        -2.17373     237.472E-03     507.309E-03    -253.148E-03    -254.216E-03    -253.792E-03     507.299E-03    -253.563E-03    -2.82834E-03    -101.876E+06    -112.009E+06    -165.091E+06    -108.255E+06    -164.864E+06    -105.857E+06     2.26024E+06         62.2498
             954     13.1788E-03     24.7125E-03         2.22640    -384.478E-03        -1.51146    -384.395E-03         2.22631        -1.51146     20.6730E-03     532.513E-03    -254.816E-03    -276.541E-03    -259.363E-03     515.335E-03    -254.816E-03     218.455E-03     58.6786E+06     15.4400E+06    -4.72379E+06    -3.62687E+06     14.3430E+06     58.6786E+06     651.715E+03         81.8238
             955     12.4055E-03     24.2324E-03         2.44508    -539.759E-03        -1.57812    -539.536E-03         2.44486        -1.57812     31.4965E-03     533.633E-03    -254.956E-03    -278.185E-03    -258.400E-03     513.848E-03    -254.956E-03     244.131E-03     54.3528E+06     13.4081E+06    -8.73881E+06    -7.39057E+06     12.0599E+06     54.3528E+06     1.39797E+06         79.1411
             956     11.6309E-03     23.9739E-03         2.66556    -699.204E-03        -1.64064    -698.932E-03         2.66529        -1.64064     37.8618E-03     520.220E-03    -254.089E-03    -265.575E-03    -252.693E-03     507.338E-03    -254.089E-03     198.900E-03     49.8460E+06     9.09997E+06    -12.6896E+06    -11.2102E+06     7.62060E+06     49.8460E+06     558.164E+03         76.6129
             957     10.8582E-03     23.6650E-03         2.88930    -868.148E-03        -1.69814    -867.901E-03         2.88905        -1.69814     45.4139E-03     518.530E-03    -254.186E-03    -263.459E-03    -250.985E-03     506.056E-03    -254.186E-03     194.981E-03     45.9899E+06     5.77113E+06    -18.4402E+06    -15.5626E+06     2.89349E+06     45.9899E+06     910.811E+03         74.7132
             958     10.0831E-03     23.4266E-03         3.10429        -1.03044        -1.75051        -1.03020         3.10404        -1.75051     48.0635E-03     513.608E-03    -254.468E-03    -259.470E-03    -249.952E-03     504.090E-03    -254.468E-03     170.444E-03     43.8220E+06     1.74174E+06    -24.3825E+06    -21.0792E+06    -1.56157E+06     43.8220E+06     910.073E+03         73.3545
             959     9.31131E-03     23.2075E-03         3.29761        -1.17314        -1.79851        -1.17280         3.29727        -1.79851     29.8770E-03     510.565E-03    -253.819E-03    -256.838E-03    -248.779E-03     502.622E-03    -253.935E-03     154.912E-03     40.7605E+06    -3.16512E+06    -29.3656E+06    -26.1391E+06    -6.39165E+06     40.7605E+06     416.861E+03         72.3172
             960     8.53284E-03     23.0204E-03         3.46628        -1.29707        -1.84358        -1.29663         3.46584        -1.84358     37.2442E-03     507.751E-03    -253.394E-03    -254.795E-03    -248.905E-03     501.977E-03    -253.510E-03     131.613E-03     34.4825E+06    -10.6436E+06    -35.8363E+06    -33.2512E+06    -13.2287E+06     34.4825E+06     236.009E+03         71.3985
             961     7.76319E-03     22.8698E-03         3.63264        -1.41807        -1.88669        -1.41772         3.63229        -1.88669     48.3152E-03     506.221E-03    -253.066E-03    -253.936E-03    -249.911E-03     502.409E-03    -253.278E-03     106.479E-03     26.3804E+06    -19.0443E+06    -42.5219E+06    -40.4770E+06    -21.0892E+06     26.3804E+06    -191.076E+03         70.3104
             962     6.98792E-03     22.7585E-03         3.80393        -1.54825        -1.92707        -1.54789         3.80356        -1.92707     44.7932E-03     504.002E-03    -251.717E-03    -253.308E-03    -249.536E-03     501.821E-03    -253.308E-03     79.9139E-03     17.4871E+06    -27.4010E+06    -49.7542E+06    -47.5030E+06    -29.6523E+06     17.4871E+06     14.5572E+03         68.9557
             963     6.21095E-03     22.6906E-03         3.96742        -1.67925        -1.96287        -1.67901         3.96718        -1.96287     28.7228E-03     502.615E-03    -250.722E-03    -253.420E-03    -249.616E-03     501.508E-03    -253.420E-03     56.6844E-03     7.75674E+06    -36.5032E+06    -56.6661E+06    -54.9823E+06    -38.1871E+06     7.75674E+06     136.385E+03         67.5240
             964     5.43600E-03     22.6470E-03         4.10370        -1.78591        -1.99351        -1.78576         4.10356        -1.99351     36.1419E-03     502.960E-03    -250.733E-03    -253.358E-03    -250.226E-03     502.453E-03    -253.358E-03     38.0036E-03    -4.27865E+06    -47.7848E+06    -64.6498E+06    -63.9125E+06    -48.5221E+06    -4.27865E+06     873.682E+03         66.1744
             965     4.66107E-03     22.6310E-03         4.20333        -1.85970        -2.02096        -1.85933         4.20296        -2.02096    -4.63894E-03     503.878E-03    -250.797E-03    -253.172E-03    -250.607E-03     503.688E-03    -253.172E-03     22.9185E-03    -18.4165E+06    -59.9212E+06    -74.1621E+06    -73.8749E+06    -60.2083E+06    -18.4165E+06     1.88694E+06         64.9960
             966     3.88289E-03     22.6375E-03         4.29294        -1.92306        -2.04698        -1.92259         4.29248        -2.04698    -25.5589E-03     504.094E-03    -251.312E-03    -252.879E-03    -251.261E-03     504.043E-03    -252.879E-03     10.8236E-03    -36.5632E+06    -73.1543E+06    -84.4762E+06    -84.0202E+06    -73.6103E+06    -36.5632E+06     2.06469E+06         64.0675
             967     3.10746E-03     22.6519E-03         4.36646        -1.96894        -2.07337        -1.96842         4.36594        -2.07337    -36.8527E-03     504.142E-03    -251.827E-03    -252.739E-03    -251.974E-03     504.137E-03    -252.587E-03     2.07216E-03    -59.6668E+06    -86.1892E+06    -94.6179E+06    -92.6817E+06    -88.1254E+06    -59.6668E+06     2.87106E+06         63.3534
             968     2.33178E-03     22.6770E-03         4.42945        -2.00187        -2.10497        -2.00149         4.42907        -2.10497    -32.5346E-03     504.183E-03    -251.723E-03    -252.610E-03    -251.872E-03     504.180E-03    -252.458E-03    -2.25704E-03    -83.2637E+06    -96.6795E+06    -109.777E+06    -99.2336E+06    -107.223E+06    -83.2637E+06     3.70026E+06         62.7578
             969     1.55224E-03     22.7101E-03         4.53634        -2.07181        -2.14133        -2.06995         4.53447        -2.14133    -99.2733E-03     504.386E-03    -251.886E-03    -252.572E-03    -251.900E-03     504.382E-03    -252.554E-03    -3.46176E-03    -98.4039E+06    -104.118E+06    -136.102E+06    -104.739E+06    -135.481E+06    -98.4039E+06     2.75435E+06         62.2880
             970     777.739E-06     22.7331E-03         4.65585        -2.10977        -2.22055        -2.09956         4.64565        -2.22055     178.360E-03     505.007E-03    -251.791E-03    -253.318E-03    -252.975E-03     505.001E-03    -252.128E-03    -3.39410E-03    -103.284E+06    -112.939E+06    -158.693E+06    -109.467E+06    -158.394E+06    -107.056E+06     1.62627E+06         61.9950
             971     13.1806E-03     23.0449E-03         2.22823    -386.358E-03        -1.49294    -386.279E-03         2.22815        -1.49294     14.1678E-03     534.202E-03    -254.885E-03    -278.292E-03    -260.889E-03     516.799E-03    -254.885E-03     220.861E-03     56.9009E+06     15.2094E+06    -5.09426E+06    -3.60127E+06     13.7164E+06     56.9009E+06     430.302E+03         81.8866
             972     12.4049E-03     22.5667E-03         2.43002    -543.406E-03        -1.54490    -543.200E-03         2.42982        -1.54490     29.2955E-03     535.854E-03    -254.968E-03    -280.553E-03    -260.843E-03     516.143E-03    -254.968E-03     243.851E-03     51.9243E+06     13.7756E+06    -10.4062E+06    -7.27855E+06     10.6479E+06     51.9243E+06     8.30338E+03         79.1740
             973     11.6330E-03     22.3050E-03         2.62704    -695.017E-03        -1.59194    -694.854E-03         2.62687        -1.59194     23.3263E-03     522.052E-03    -253.950E-03    -267.232E-03    -254.951E-03     509.771E-03    -253.950E-03     194.774E-03     47.3229E+06     10.0277E+06    -14.3939E+06    -11.0729E+06     6.70672E+06     47.3229E+06     1.10999E+06         76.5751
             974     10.8602E-03     21.9937E-03         2.81101    -837.886E-03        -1.63497    -837.534E-03         2.81066        -1.63497     44.7470E-03     520.060E-03    -253.835E-03    -264.848E-03    -253.132E-03     508.344E-03    -253.835E-03     189.314E-03     44.2080E+06     7.22934E+06    -19.3525E+06    -15.4634E+06     3.34023E+06     44.2080E+06     1.24970E+06         74.5817
             975     10.0897E-03     21.7547E-03         2.98790    -976.935E-03        -1.67430    -976.537E-03         2.98750        -1.67430     54.4610E-03     514.489E-03    -253.801E-03    -260.420E-03    -251.694E-03     505.763E-03    -253.801E-03     163.377E-03     40.8114E+06     2.91565E+06    -24.3854E+06    -19.6400E+06    -1.82970E+06     40.8114E+06     1.38877E+06         73.1253
             976     9.31436E-03     21.5320E-03         3.14665        -1.09845        -1.71117        -1.09827         3.14646        -1.71117     1.05739E-03     511.535E-03    -253.022E-03    -258.284E-03    -251.230E-03     504.480E-03    -253.022E-03     146.076E-03     37.8079E+06    -2.52793E+06    -28.7315E+06    -25.1413E+06    -6.11817E+06     37.8079E+06     1.80709E+06         71.9919
             977     8.54599E-03     21.3464E-03         3.30174        -1.21820        -1.74597        -1.21807         3.30161        -1.74597    -8.98896E-03     507.634E-03    -252.407E-03    -255.739E-03    -250.730E-03     502.624E-03    -252.407E-03     122.633E-03     32.5761E+06    -8.87505E+06    -34.3059E+06    -31.0645E+06    -12.1165E+06     32.5761E+06     1.93664E+06         70.9913
             978     7.77112E-03     21.1956E-03         3.45693        -1.33769        -1.77904        -1.33753         3.45677        -1.77904    -21.7104E-03     504.730E-03    -251.830E-03    -253.275E-03    -249.993E-03     501.547E-03    -251.928E-03     96.8300E-03     25.0503E+06    -17.8036E+06    -40.2961E+06    -37.7691E+06    -20.3307E+06     25.0503E+06     2.16067E+06         69.8505
             979     6.99833E-03     21.0965E-03         3.60499        -1.45425        -1.81068        -1.45392         3.60467        -1.81068    -6.85574E-03     502.870E-03    -251.155E-03    -252.043E-03    -249.700E-03     501.164E-03    -251.791E-03     70.5245E-03     14.5600E+06    -26.5777E+06    -47.6991E+06    -45.1031E+06    -29.1737E+06     14.5600E+06     1.88359E+06         68.4704
             980     6.22143E-03     21.0257E-03         3.74644        -1.56913        -1.84039        -1.56882         3.74613        -1.84039    -1.11502E-03     501.470E-03    -250.627E-03    -251.766E-03    -249.861E-03     500.655E-03    -251.716E-03     48.1029E-03     2.93644E+06    -37.0065E+06    -56.1918E+06    -53.8677E+06    -39.3306E+06     2.93644E+06     2.61643E+06         67.0280
             981     5.44554E-03     20.9891E-03         3.86491        -1.66294        -1.86783        -1.66273         3.86469        -1.86783    -18.0204E-03     500.292E-03    -249.792E-03    -251.356E-03    -249.471E-03     499.971E-03    -251.356E-03     29.3167E-03    -6.98993E+06    -48.1000E+06    -63.5014E+06    -62.7334E+06    -48.8680E+06    -6.98993E+06     3.17999E+06         65.6834
             982     4.66619E-03     20.9743E-03         3.96748        -1.74204        -1.89352        -1.74174         3.96717        -1.89352    -32.4321E-03     500.174E-03    -249.226E-03    -251.086E-03    -249.126E-03     500.074E-03    -251.086E-03     14.6403E-03    -20.8091E+06    -59.0350E+06    -72.9212E+06    -71.8534E+06    -60.1029E+06    -20.8091E+06     3.33903E+06         64.5360
             983     3.89132E-03     20.9803E-03         4.05739        -1.80809        -1.91744        -1.80762         4.05692        -1.91744    -24.1755E-03     500.221E-03    -249.618E-03    -250.824E-03    -249.601E-03     500.204E-03    -250.824E-03     4.29358E-03    -40.3597E+06    -71.6977E+06    -84.2307E+06    -81.9475E+06    -73.9809E+06    -40.3597E+06     4.37972E+06         63.6320
             984     3.11295E-03     20.9949E-03         4.13263        -1.85954        -1.94023        -1.85848         4.13158        -1.94023    -66.9339E-03     499.903E-03    -249.795E-03    -250.613E-03    -249.788E-03     499.896E-03    -250.613E-03    -2.25543E-03    -62.5971E+06    -84.4227E+06    -97.1663E+06    -92.3637E+06    -89.2253E+06    -62.5971E+06     5.82832E+06         62.9115
             985     2.33334E-03     21.0223E-03         4.20740        -1.89850        -1.97385        -1.90927         4.20631        -1.96199    -45.1127E-03     500.365E-03    -249.874E-03    -250.743E-03    -249.936E-03     500.350E-03    -250.666E-03    -6.07433E-03    -84.7183E+06    -95.4251E+06    -112.354E+06    -102.164E+06    -105.615E+06    -84.7183E+06     7.54339E+06         62.3194
             986     1.55712E-03     21.0508E-03         4.27452        -1.94454        -1.99473        -1.95650         4.27248        -1.98072    -78.0474E-03     500.954E-03    -250.298E-03    -250.760E-03    -250.378E-03     500.939E-03    -250.664E-03    -6.58507E-03    -100.968E+06    -106.197E+06    -131.063E+06    -109.342E+06    -126.310E+06    -102.576E+06     7.90407E+06         61.8693
             987     777.153E-06     21.0807E-03         4.32973        -1.95179        -2.04248        -1.94364         4.31945        -2.04034     166.713E-03     501.066E-03    -249.986E-03    -251.225E-03    -251.166E-03     501.057E-03    -250.035E-03    -4.28060E-03    -108.020E+06    -117.362E+06    -146.605E+06    -113.976E+06    -144.611E+06    -113.400E+06     4.74013E+06         61.5882
             988     13.1740E-03     21.3701E-03         2.16800    -400.927E-03        -1.41670    -400.879E-03         2.16795        -1.41670     9.65879E-03     536.194E-03    -254.881E-03    -280.533E-03    -263.556E-03     519.217E-03    -254.881E-03     220.788E-03     53.1484E+06     17.0003E+06    -7.39606E+06    -3.14721E+06     12.7515E+06     53.1484E+06     858.389E+03         81.9938
             989     12.4057E-03     20.8824E-03         2.34857    -547.142E-03        -1.44989    -546.988E-03         2.34841        -1.44989     28.5635E-03     538.336E-03    -254.800E-03    -283.378E-03    -264.717E-03     519.675E-03    -254.800E-03     237.828E-03     47.6279E+06     15.9810E+06    -13.1662E+06    -7.27044E+06     10.0852E+06     47.6279E+06     1.77556E+06         79.2145
             990     11.6375E-03     20.6283E-03         2.51019    -676.746E-03        -1.47875    -676.616E-03         2.51006        -1.47875     24.5511E-03     524.778E-03    -253.497E-03    -270.520E-03    -259.239E-03     513.496E-03    -253.497E-03     187.541E-03     44.0726E+06     12.0363E+06    -16.2884E+06    -10.8898E+06     6.63774E+06     44.0726E+06     791.785E+03         76.5066
             991     10.8699E-03     20.3178E-03         2.65621    -798.499E-03        -1.50528    -798.161E-03         2.65588        -1.50528     46.5172E-03     522.095E-03    -252.882E-03    -268.004E-03    -257.638E-03     511.729E-03    -252.882E-03     178.336E-03     39.8141E+06     9.10763E+06    -20.3650E+06    -13.5960E+06     2.33858E+06     39.8141E+06     1.78410E+06         74.3840
             992     10.0995E-03     20.0840E-03         2.78425    -906.474E-03        -1.52909    -906.086E-03         2.78386        -1.52909     45.2773E-03     515.771E-03    -252.270E-03    -262.753E-03    -255.436E-03     508.454E-03    -252.270E-03     149.871E-03     37.0368E+06     4.28765E+06    -24.0610E+06    -18.5474E+06    -1.22594E+06     37.0368E+06     2.71518E+06         72.7864
             993     9.33373E-03     19.8603E-03         2.91957        -1.02166        -1.55097        -1.02152         2.91943        -1.55097    -8.77019E-03     511.862E-03    -251.351E-03    -259.905E-03    -254.202E-03     506.159E-03    -251.351E-03     131.327E-03     33.3380E+06    -1.72503E+06    -28.2759E+06    -23.6451E+06    -6.35587E+06     33.3380E+06     2.93424E+06         71.5118
             994     8.56076E-03     19.6795E-03         3.05289        -1.13703        -1.57047        -1.13690         3.05276        -1.57047    -20.4684E-03     506.175E-03    -250.690E-03    -255.911E-03    -252.090E-03     502.353E-03    -250.690E-03     106.611E-03     27.8494E+06    -8.68345E+06    -32.8373E+06    -28.7314E+06    -12.7894E+06     27.8494E+06     3.67096E+06         70.3887
             995     7.78923E-03     19.5339E-03         3.15588        -1.21888        -1.59000        -1.21869         3.15568        -1.59000    -37.3321E-03     502.315E-03    -249.922E-03    -252.418E-03    -250.148E-03     500.046E-03    -249.922E-03     80.7276E-03     19.5536E+06    -15.9058E+06    -38.5522E+06    -34.3844E+06    -20.0736E+06     19.5536E+06     4.62424E+06         69.1652
             996     7.01413E-03     19.4315E-03         3.24934        -1.28993        -1.61240        -1.28952         3.24893        -1.61240     15.3847E-03     500.023E-03    -249.392E-03    -250.527E-03    -249.449E-03     498.944E-03    -249.392E-03     54.6246E-03     9.09563E+06    -25.3706E+06    -46.2079E+06    -41.9019E+06    -29.6765E+06     9.09563E+06     6.18914E+06         67.7482
             997     6.23764E-03     19.3694E-03         3.34610        -1.36475        -1.63808        -1.36435         3.34570        -1.63808     27.2212E-03     498.063E-03    -248.794E-03    -249.524E-03    -249.035E-03     497.626E-03    -248.846E-03     33.5033E-03     760.277E+03    -34.2987E+06    -52.7263E+06    -49.1594E+06    -37.8656E+06     760.277E+03     6.50979E+06         66.3037
             998     5.46146E-03     19.3311E-03         3.45594        -1.45034        -1.66519        -1.44965         3.45524        -1.66519     19.2707E-03     496.483E-03    -247.837E-03    -248.862E-03    -248.488E-03     496.358E-03    -248.086E-03     16.0960E-03    -10.9557E+06    -43.7536E+06    -62.1763E+06    -57.7247E+06    -48.2052E+06    -10.9557E+06     6.81216E+06         64.9856
             999     4.68521E-03     19.3235E-03         3.57361        -1.54476        -1.69100        -1.54396         3.57282        -1.69100    -2.96817E-03     494.926E-03    -246.798E-03    -248.026E-03    -247.230E-03     494.904E-03    -247.572E-03     2.71447E-03    -27.0831E+06    -54.7050E+06    -74.0038E+06    -67.7430E+06    -60.9658E+06    -27.0831E+06     8.41499E+06         63.8630
            1000     3.90247E-03     19.3291E-03         3.66860        -1.62141        -1.71326        -1.62108         3.66828        -1.71326    -43.2899E-03     493.585E-03    -246.321E-03    -247.354E-03    -246.293E-03     493.557E-03    -247.354E-03    -5.86391E-03    -44.0832E+06    -64.8812E+06    -86.9156E+06    -77.6912E+06    -74.1056E+06    -44.0832E+06     10.5457E+06         62.9431
            1001     3.12135E-03     19.3477E-03         3.74515        -1.67910        -1.73141        -1.67825         3.74430        -1.73141    -55.8777E-03     493.662E-03    -246.589E-03    -247.447E-03    -246.739E-03     493.608E-03    -247.243E-03    -10.9911E-03    -61.5642E+06    -75.8621E+06    -100.141E+06    -88.2487E+06    -87.7545E+06    -61.5642E+06     12.0225E+06         62.2026
            1002     2.34193E-03     19.3700E-03         3.80553        -1.71028        -1.75732        -1.72075         3.80413        -1.74545     27.2971E-03     494.030E-03    -247.018E-03    -247.500E-03    -247.240E-03     493.967E-03    -247.215E-03    -13.0196E-03    -78.1044E+06    -86.5151E+06    -110.948E+06    -97.4106E+06    -100.052E+06    -78.1044E+06     12.0270E+06         61.6266
            1003     1.56072E-03     19.4010E-03         3.84244        -1.73197        -1.76983        -1.74516         3.84162        -1.75583     43.5903E-03     494.012E-03    -247.041E-03    -247.192E-03    -247.113E-03     493.965E-03    -247.072E-03    -11.2500E-03    -91.6710E+06    -97.8885E+06    -118.692E+06    -104.379E+06    -110.593E+06    -93.2789E+06     10.4657E+06         61.2080
            1004     781.621E-06     19.4291E-03         3.87356        -1.74868        -1.78513        -1.74112         3.86386        -1.78298     270.143E-03     493.942E-03    -246.914E-03    -247.108E-03    -246.934E-03     493.924E-03    -247.069E-03    -6.87327E-03    -100.126E+06    -109.874E+06    -126.162E+06    -108.430E+06    -122.350E+06    -105.382E+06     6.90682E+06         60.9469
            1005     13.1818E-03     19.6837E-03         2.02497    -383.408E-03        -1.28139    -383.277E-03         2.02484        -1.28139    -17.0102E-03     540.815E-03    -254.597E-03    -285.668E-03    -269.672E-03     524.819E-03    -254.597E-03     218.505E-03     46.5481E+06     19.7714E+06    -10.8850E+06    -2.36032E+06     11.2468E+06     46.5481E+06     1.32348E+06         82.2106
            1006     12.4148E-03     19.2111E-03         2.15741    -497.173E-03        -1.29443    -497.053E-03         2.15729        -1.29443    -16.7712E-03     541.623E-03    -254.130E-03    -287.199E-03    -270.342E-03     524.766E-03    -254.130E-03     227.277E-03     41.8693E+06     18.4117E+06    -16.0031E+06    -6.27285E+06     8.68150E+06     41.8693E+06     593.782E+03         79.3315
            1007     11.6491E-03     18.9437E-03         2.27686    -606.854E-03        -1.30449    -606.844E-03         2.27685        -1.30449    -2.64019E-03     528.562E-03    -252.400E-03    -275.463E-03    -265.788E-03     518.887E-03    -252.400E-03     174.850E-03     37.2360E+06     15.0324E+06    -18.6785E+06    -8.92086E+06     5.27470E+06     37.2360E+06     2.34512E+06         76.4681
            1008     10.8875E-03     18.6417E-03         2.39539    -719.187E-03        -1.31337    -719.182E-03         2.39539        -1.31337     4.15384E-03     524.459E-03    -251.179E-03    -272.483E-03    -264.094E-03     516.070E-03    -251.179E-03     160.929E-03     33.6033E+06     10.6391E+06    -22.5163E+06    -14.0314E+06     2.15429E+06     33.6033E+06     2.67438E+06         74.1843
            1009     10.1268E-03     18.4086E-03         2.50352    -822.959E-03        -1.31934    -822.922E-03         2.50348        -1.31934    -13.1721E-03     516.634E-03    -250.012E-03    -266.047E-03    -260.414E-03     511.002E-03    -250.012E-03     131.789E-03     31.1176E+06     6.17939E+06    -24.2582E+06    -16.1615E+06    -1.91723E+06     31.1176E+06     3.14692E+06         72.4214
            1010     9.35878E-03     18.1898E-03         2.58605    -904.988E-03        -1.32425    -904.798E-03         2.58586        -1.32425    -48.2360E-03     510.574E-03    -248.676E-03    -261.427E-03    -257.248E-03     506.395E-03    -248.676E-03     112.107E-03     26.6685E+06    -1.33191E+06    -26.2314E+06    -20.2111E+06    -7.35216E+06     26.6685E+06     4.95418E+06         70.9774
            1011     8.59234E-03     18.0167E-03         2.64672    -961.840E-03        -1.33030    -961.629E-03         2.64651        -1.33030    -53.3669E-03     503.833E-03    -247.501E-03    -256.699E-03    -254.186E-03     501.319E-03    -247.501E-03     85.6305E-03     19.7693E+06    -7.39916E+06    -31.6506E+06    -25.3674E+06    -13.6824E+06     19.7693E+06     6.24073E+06         69.6981
            1012     7.82022E-03     17.8769E-03         2.71622        -1.02258        -1.34013        -1.02240         2.71604        -1.34013    -49.5299E-03     498.487E-03    -246.237E-03    -252.270E-03    -251.036E-03     497.252E-03    -246.237E-03     58.0699E-03     11.8270E+06    -14.9317E+06    -38.3514E+06    -31.3702E+06    -21.9130E+06     11.8270E+06     8.23587E+06         68.3507
            1013     7.04679E-03     17.7805E-03         2.78942        -1.08373        -1.35448        -1.08352         2.78921        -1.35448    -6.89642E-03     493.689E-03    -245.204E-03    -248.618E-03    -248.179E-03     493.249E-03    -245.204E-03     32.3068E-03     3.15671E+06    -22.5638E+06    -43.3649E+06    -36.5188E+06    -29.4099E+06     3.15671E+06     9.09713E+06         66.8404
            1014     6.26651E-03     17.7261E-03         2.86291        -1.14039        -1.37336        -1.14024         2.86276        -1.37336     10.4662E-03     490.742E-03    -244.273E-03    -246.635E-03    -246.517E-03     490.625E-03    -244.273E-03     12.5160E-03    -6.70672E+06    -28.0667E+06    -52.4330E+06    -42.4159E+06    -38.0839E+06    -6.70672E+06     11.2842E+06         65.3465
            1015     5.48735E-03     17.6905E-03         2.95284        -1.21095        -1.39510        -1.21025         2.95215        -1.39510     21.5786E-03     488.430E-03    -243.411E-03    -245.214E-03    -245.157E-03     488.373E-03    -243.411E-03    -1.96542E-03    -16.5817E+06    -35.0160E+06    -64.5726E+06    -51.0295E+06    -48.5592E+06    -16.5817E+06     14.5563E+06         64.0208
            1016     4.70540E-03     17.6849E-03         3.04203        -1.28033        -1.41817        -1.27940         3.04110        -1.41817    -10.6793E-03     486.834E-03    -242.391E-03    -244.223E-03    -243.924E-03     486.740E-03    -242.595E-03    -12.6357E-03    -27.4231E+06    -43.5789E+06    -76.5612E+06    -60.4914E+06    -59.6486E+06    -27.4231E+06     16.3879E+06         62.8854
            1017     3.92371E-03     17.7021E-03         3.12820        -1.34710        -1.44072        -1.34673         3.12783        -1.44072    -32.4915E-03     485.318E-03    -241.695E-03    -243.388E-03    -242.883E-03     485.166E-03    -242.049E-03    -19.3440E-03    -39.5846E+06    -53.0640E+06    -86.0362E+06    -69.1571E+06    -69.9432E+06    -39.5846E+06     16.4460E+06         61.9301
            1018     3.13972E-03     17.7123E-03         3.20049        -1.40030        -1.46103        -1.39897         3.19916        -1.46103    -51.8990E-03     483.939E-03    -241.565E-03    -242.404E-03    -242.072E-03     483.756E-03    -241.715E-03    -22.2616E-03    -51.2808E+06     -62.077E+06    -92.2537E+06    -75.8507E+06    -78.4800E+06    -51.2808E+06     14.9696E+06         61.1652
            1019     2.35486E-03     17.7379E-03         3.25744        -1.43489        -1.48334        -1.43598         3.25559        -1.48041     11.0957E-03     483.036E-03    -241.476E-03    -241.807E-03    -241.535E-03     482.874E-03    -241.587E-03    -21.1164E-03    -64.0602E+06    -71.4952E+06    -96.4805E+06    -81.3055E+06    -86.6702E+06    -64.0602E+06     12.0984E+06         60.5992
            1020     1.57030E-03     17.7650E-03         3.31839        -1.47293        -1.50656        -1.48135         3.31704        -1.49678    -5.46872E-03     482.898E-03    -241.379E-03    -241.701E-03    -241.328E-03     482.804E-03    -241.658E-03    -15.9886E-03    -74.8740E+06    -80.5417E+06    -99.7994E+06    -85.2984E+06    -94.0191E+06    -75.8976E+06     8.37833E+06         60.2165
            1021     784.190E-06     17.7906E-03         3.36375        -1.49705        -1.52532        -1.50200         3.35536        -1.51196     177.871E-03     483.492E-03    -241.276E-03    -242.272E-03    -241.964E-03     483.458E-03    -241.550E-03    -9.13390E-03    -80.3230E+06    -90.1856E+06    -103.970E+06    -88.4001E+06    -101.083E+06    -84.9951E+06     5.16755E+06         59.9877
            1022     13.1849E-03     17.9873E-03         1.83267    -366.038E-03        -1.09333    -365.700E-03         1.83233        -1.09333    -4.41794E-03     549.395E-03    -254.030E-03    -295.122E-03    -279.995E-03     534.268E-03    -254.030E-03     216.878E-03     43.4938E+06     17.5206E+06    -16.0071E+06    -2.36512E+06     9.93818E+06     37.4343E+06     1.59852E+06         82.6184
            1023     12.4293E-03     17.5290E-03         1.92053    -465.862E-03        -1.08610    -465.501E-03         1.92016        -1.08610     3.83170E-03     549.209E-03    -252.741E-03    -295.868E-03    -280.678E-03     534.020E-03    -252.741E-03     217.466E-03     38.6572E+06     16.7021E+06    -20.4484E+06    -5.30287E+06     7.61622E+06     32.5976E+06     3.92178E+06         79.6415
            1024     11.6747E-03     17.2519E-03         2.00096    -554.526E-03        -1.07643    -554.199E-03         2.00063        -1.07643     8.10851E-03     534.121E-03    -250.567E-03    -282.630E-03    -274.573E-03     526.064E-03    -250.567E-03     161.216E-03     30.5633E+06     17.9504E+06    -22.3848E+06    -9.32488E+06     5.50257E+06     29.9512E+06     2.80025E+06         76.5998
            1025     10.9209E-03     16.9590E-03         2.06678    -630.898E-03        -1.06722    -630.456E-03         2.06634        -1.06722     14.9456E-03     526.855E-03    -248.827E-03    -277.400E-03    -270.729E-03     520.185E-03    -248.827E-03     144.451E-03     26.3513E+06     13.7337E+06    -23.7816E+06    -10.0892E+06     653.382E+03     25.7392E+06     3.22478E+06         74.1342
            1026     10.1612E-03     16.7310E-03         2.11901    -696.971E-03        -1.05732    -696.556E-03         2.11859        -1.05732     12.7075E-03     517.616E-03    -246.937E-03    -270.307E-03    -266.066E-03     513.375E-03    -246.937E-03     114.709E-03     20.5830E+06     5.65862E+06    -25.0726E+06    -14.6246E+06    -4.78940E+06     20.5830E+06     5.47533E+06         72.2035
            1027     9.40184E-03     16.5290E-03         2.15654    -744.902E-03        -1.04893    -744.766E-03         2.15640        -1.04893    -37.1274E-03     509.598E-03    -244.669E-03    -264.651E-03    -261.811E-03     506.758E-03    -244.669E-03     92.3018E-03     16.0339E+06    -495.736E+03    -26.8603E+06    -18.2962E+06    -9.05976E+06     16.0339E+06     7.20468E+06         70.5721
            1028     8.63410E-03     16.3572E-03         2.19339    -788.308E-03        -1.04284    -788.007E-03         2.19309        -1.04284    -51.3469E-03     501.037E-03    -242.447E-03    -258.943E-03    -257.475E-03     499.569E-03    -242.447E-03     64.4069E-03     10.9940E+06    -6.65136E+06    -30.9484E+06    -21.9068E+06    -15.6929E+06     10.9940E+06     9.54249E+06         69.0813
            1029     7.86792E-03     16.2288E-03         2.22729    -825.847E-03        -1.04093    -825.042E-03         2.22648        -1.04093    -85.9396E-03     493.520E-03    -240.486E-03    -253.081E-03    -252.555E-03     492.994E-03    -240.486E-03     35.4689E-03     4.28248E+06    -14.8534E+06    -36.3047E+06    -26.2112E+06    -22.7636E+06     2.09914E+06     11.3126E+06         67.5546
            1030     7.08965E-03     16.1458E-03         2.26955    -867.308E-03        -1.04409    -866.657E-03         2.26890        -1.04409    -64.3341E-03     486.273E-03    -238.658E-03    -247.743E-03    -247.623E-03     486.153E-03    -238.658E-03     9.48272E-03    -5.61549E+06    -17.8811E+06    -47.1505E+06    -31.4370E+06    -31.4112E+06    -7.79883E+06     15.3342E+06         65.8985
            1031     6.31062E-03     16.0914E-03         2.32387    -918.096E-03        -1.05124    -917.822E-03         2.32359        -1.05124    -45.5341E-03     480.731E-03    -237.130E-03    -243.523E-03    -243.394E-03     480.602E-03    -237.130E-03    -11.2431E-03    -13.9165E+06    -20.3839E+06    -58.7797E+06    -38.9133E+06    -40.2503E+06    -13.9165E+06     19.1660E+06         64.2702
            1032     5.52681E-03     16.0688E-03         2.35836    -943.431E-03        -1.06244    -943.133E-03         2.35806        -1.06244    -48.8159E-03     476.111E-03    -236.177E-03    -240.229E-03    -239.944E-03     475.826E-03    -236.177E-03    -25.2290E-03    -17.3868E+06    -25.1834E+06    -66.0869E+06    -45.3870E+06    -45.8832E+06    -17.3868E+06     20.4473E+06         62.8383
            1033     4.74052E-03     16.0631E-03         2.39232    -959.783E-03        -1.07991    -959.338E-03         2.39188        -1.07991    -61.4210E-03     473.441E-03    -235.266E-03    -238.326E-03    -237.912E-03     473.027E-03    -235.266E-03    -32.4844E-03    -20.2595E+06    -31.7300E+06    -70.7605E+06    -50.4132E+06    -52.0773E+06    -20.2595E+06     19.4870E+06         61.6241
            1034     3.95346E-03     16.0762E-03         2.45802        -1.00423        -1.10240        -1.00384         2.45763        -1.10240    -45.6659E-03     471.683E-03    -234.655E-03    -237.098E-03    -236.652E-03     471.237E-03    -234.655E-03    -34.5273E-03    -26.0232E+06    -39.5439E+06    -73.4579E+06    -54.6738E+06    -58.3280E+06    -26.0232E+06     16.8024E+06         60.6141
            1035     3.16512E-03     16.1013E-03         2.54155        -1.06926        -1.12408        -1.06784         2.54013        -1.12408    -91.6502E-03     469.547E-03    -234.305E-03    -235.313E-03    -234.920E-03     469.154E-03    -234.305E-03    -32.7583E-03    -36.4021E+06    -48.3465E+06    -75.6337E+06    -59.1955E+06    -64.7847E+06    -36.4021E+06     13.2641E+06         59.8231
            1036     2.37305E-03     16.1254E-03         2.61176        -1.12387        -1.14655        -1.12978         2.60946        -1.13835    -15.8026E-03     468.332E-03    -234.019E-03    -234.287E-03    -233.877E-03     468.033E-03    -234.130E-03    -28.5367E-03    -48.3177E+06    -56.8513E+06    -78.5235E+06    -63.3413E+06    -72.0334E+06    -48.3177E+06     9.60658E+06         59.2536
            1037     1.58072E-03     16.1525E-03         2.63550        -1.13801        -1.15961        -1.15003         2.63248        -1.14458    -42.2631E-03     468.275E-03    -233.916E-03    -234.453E-03    -233.996E-03     468.098E-03    -234.195E-03    -21.5696E-03    -58.6077E+06    -64.4966E+06    -82.7547E+06    -66.9920E+06    -79.2356E+06    -59.6313E+06     6.87715E+06         58.8823
            1038     790.389E-06     16.1802E-03         2.65413        -1.14256        -1.17291        -1.15079         2.63857        -1.14912     197.541E-03     468.586E-03    -233.585E-03    -235.048E-03    -234.814E-03     468.520E-03    -233.754E-03    -12.4202E-03    -63.7241E+06    -73.7224E+06    -88.1610E+06    -70.6588E+06    -86.4085E+06    -68.5402E+06     3.87989E+06         58.6721
            1039     13.1962E-03     16.2833E-03         1.58453    -351.957E-03    -862.660E-03    -350.986E-03         1.58356    -862.660E-03    -4.90660E-03     560.437E-03    -253.172E-03    -307.123E-03    -293.151E-03     546.465E-03    -253.172E-03     212.073E-03     42.1311E+06     10.6857E+06    -23.1242E+06    -2.23034E+06     6.49412E+06     25.4289E+06     2.75122E+06         83.2337
            1040     12.4513E-03     15.8120E-03         1.63001    -422.075E-03    -834.391E-03    -421.127E-03         1.62906    -834.391E-03    -21.7335E-03     557.068E-03    -251.060E-03    -305.339E-03    -291.520E-03     543.250E-03    -251.060E-03     209.992E-03     36.7969E+06     12.3217E+06    -25.7722E+06    -5.01220E+06     5.72598E+06     22.6327E+06     2.52033E+06         80.2077
            1041     11.7068E-03     15.5529E-03         1.64893    -470.524E-03    -805.677E-03    -469.548E-03         1.64795    -805.677E-03    -31.2569E-03     540.423E-03    -248.407E-03    -291.211E-03    -283.824E-03     533.036E-03    -248.407E-03     155.989E-03     30.0236E+06     15.5164E+06    -24.5919E+06    -3.82262E+06     4.73149E+06     20.0392E+06     4.88645E+06         77.0381
            1042     10.9564E-03     15.2676E-03         1.64852    -499.858E-03    -780.604E-03    -498.764E-03         1.64743    -780.604E-03    -25.5508E-03     531.810E-03    -245.863E-03    -285.485E-03    -279.476E-03     525.801E-03    -245.863E-03     138.167E-03     17.9127E+06     12.2775E+06    -25.3363E+06    -9.03480E+06    -623.643E+03     14.5124E+06     6.45287E+06         74.4314
            1043     10.2068E-03     15.0529E-03         1.63838    -514.607E-03    -757.959E-03    -513.763E-03         1.63754    -757.959E-03    -13.7680E-03     521.162E-03    -242.838E-03    -278.136E-03    -274.631E-03     517.656E-03    -242.838E-03     105.052E-03     13.1449E+06     4.66102E+06    -26.2209E+06    -11.3527E+06    -6.90267E+06     9.84046E+06     8.20976E+06         72.3523
            1044     9.44884E-03     14.8588E-03         1.64890    -545.480E-03    -738.828E-03    -544.943E-03         1.64836    -738.828E-03    -52.4930E-03     511.058E-03    -239.624E-03    -271.380E-03    -269.332E-03     509.010E-03    -239.624E-03     78.4517E-03     7.83245E+06    -397.418E+03    -26.9612E+06    -13.9115E+06    -11.6632E+06     6.04860E+06     10.8216E+06         70.5180
            1045     8.69243E-03     14.7049E-03         1.66874    -580.544E-03    -722.649E-03    -580.067E-03         1.66826    -722.649E-03    -58.2424E-03     499.178E-03    -236.375E-03    -263.295E-03    -262.469E-03     498.352E-03    -236.375E-03     47.2304E-03     4.80897E+06    -9.88442E+06    -32.0319E+06    -16.9367E+06    -19.1129E+06    -1.05769E+06     13.5720E+06         68.7649
            1046     7.92206E-03     14.5920E-03         1.68593    -610.269E-03    -710.937E-03    -609.302E-03         1.68496    -710.937E-03    -65.3169E-03     488.727E-03    -233.323E-03    -255.406E-03    -255.218E-03     488.539E-03    -233.323E-03     16.2144E-03     247.151E+03    -14.2677E+06    -43.9521E+06    -22.1975E+06    -26.8327E+06    -8.94246E+06     19.1421E+06         66.9943
            1047     7.14810E-03     14.5173E-03         1.70297    -639.180E-03    -704.112E-03    -638.033E-03         1.70182    -704.112E-03    -5.83088E-03     478.966E-03    -230.602E-03    -248.521E-03    -248.392E-03     478.838E-03    -230.602E-03    -11.2356E-03    -7.38191E+06    -11.1546E+06    -53.8498E+06    -28.4836E+06    -33.1979E+06    -10.7049E+06     22.8719E+06         65.1540
            1048     6.36892E-03     14.4814E-03         1.71092    -652.622E-03    -702.335E-03    -651.654E-03         1.70995    -702.335E-03     19.0286E-03     469.948E-03    -228.279E-03    -241.671E-03    -241.262E-03     469.539E-03    -228.279E-03    -31.9068E-03    -9.02349E+06    -11.1950E+06    -57.1142E+06    -32.2325E+06    -36.0767E+06    -9.02349E+06     22.8363E+06         63.3395
            1049     5.58149E-03     14.4671E-03         1.72860    -656.588E-03    -716.161E-03    -667.441E-03         1.72819    -704.897E-03     5.25463E-03     462.377E-03    -226.612E-03    -235.755E-03    -235.000E-03     461.621E-03    -226.612E-03    -44.8861E-03    -7.87169E+06    -14.4405E+06    -55.5319E+06    -34.1699E+06    -35.8026E+06    -7.87169E+06     20.5038E+06         61.6891
            1050     4.78924E-03     14.4714E-03         1.75200    -661.250E-03    -734.293E-03    -684.789E-03         1.75178    -710.533E-03    -27.6618E-03     456.229E-03    -225.519E-03    -230.840E-03    -229.884E-03     455.272E-03    -225.519E-03    -50.4485E-03    -9.37218E+06    -20.8953E+06    -55.9617E+06    -36.3023E+06    -40.5547E+06    -9.37218E+06     17.2648E+06         60.2848
            1051     3.99179E-03     14.4876E-03         1.76550    -675.814E-03    -732.553E-03    -688.094E-03         1.76516    -719.926E-03    -38.2056E-03     452.290E-03    -224.950E-03    -227.545E-03    -226.589E-03     451.333E-03    -224.950E-03    -50.1285E-03    -15.7226E+06    -27.9971E+06    -57.5800E+06    -39.5739E+06    -46.0032E+06    -15.7226E+06     14.3664E+06         59.1569
            1052     3.19330E-03     14.5146E-03         1.78792    -701.214E-03    -733.612E-03    -700.100E-03         1.78668    -733.481E-03    -70.8526E-03     450.764E-03    -224.690E-03    -226.194E-03    -225.403E-03     449.974E-03    -224.690E-03    -45.2773E-03    -25.2869E+06    -34.6501E+06    -59.8527E+06    -42.7697E+06    -51.7331E+06    -25.2869E+06     11.5964E+06         58.3048
            1053     2.39582E-03     14.5442E-03         1.81520    -720.425E-03    -753.863E-03    -723.909E-03         1.81342    -748.600E-03    -17.5460E-03     449.947E-03    -224.604E-03    -225.309E-03    -224.782E-03     449.421E-03    -224.604E-03    -36.9186E-03    -36.0846E+06    -42.6341E+06    -65.0300E+06    -47.6104E+06    -60.0537E+06    -36.0846E+06     9.14714E+06         57.6987
            1054     1.59813E-03     14.5662E-03         1.84741    -740.596E-03    -769.426E-03    -743.576E-03         1.84512    -764.162E-03    -37.1191E-03     449.550E-03    -224.565E-03    -224.980E-03    -224.704E-03     449.274E-03    -224.565E-03    -26.5849E-03    -44.7726E+06    -49.5455E+06    -69.7288E+06    -52.2722E+06    -66.7981E+06    -44.9765E+06     6.51690E+06         57.2964
            1055     799.448E-06     14.5908E-03         1.90554    -763.069E-03    -806.278E-03    -780.615E-03         1.88828    -771.471E-03     207.263E-03     449.173E-03    -224.047E-03    -225.159E-03    -225.060E-03     449.074E-03    -224.047E-03    -15.1478E-03    -49.1216E+06    -57.8087E+06    -74.9621E+06    -55.2333E+06    -73.5411E+06    -53.1181E+06     3.70208E+06         57.0672
            1056     13.2102E-03     14.5465E-03         1.28464    -309.412E-03    -593.949E-03    -306.759E-03         1.28199    -593.949E-03    -36.9590E-03     572.038E-03    -252.258E-03    -319.506E-03    -305.489E-03     558.020E-03    -252.258E-03     214.819E-03     42.2374E+06     3.76878E+06    -32.5627E+06    -3.56059E+06     2.25643E+06     14.7477E+06     2.48656E+06         84.0033
            1057     12.4738E-03     14.0999E-03         1.26213    -332.595E-03    -547.892E-03    -330.157E-03         1.25969    -547.892E-03    -62.7568E-03     565.407E-03    -249.573E-03    -315.302E-03    -301.192E-03     551.298E-03    -249.573E-03     214.806E-03     41.0108E+06     8.76576E+06    -29.3086E+06     393.244E+03     5.52072E+06     14.5540E+06     6.83125E+06         81.0161
            1058     11.7292E-03     13.8363E-03         1.22528    -342.626E-03    -504.617E-03    -341.502E-03         1.22416    -504.617E-03    -28.2834E-03     547.988E-03    -246.390E-03    -301.205E-03    -293.595E-03     540.379E-03    -246.390E-03     159.999E-03     27.6414E+06     7.76413E+06    -29.0954E+06    -4.78623E+06     3.33227E+06     7.76413E+06     7.38831E+06         77.8413
            1059     10.9902E-03     13.5654E-03         1.19246    -347.484E-03    -473.222E-03    -352.664E-03         1.19169    -467.279E-03    -44.8650E-03     539.339E-03    -242.891E-03    -296.311E-03    -290.185E-03     533.213E-03    -242.891E-03     141.100E-03     20.3879E+06     3.55742E+06    -27.9450E+06    -3.33149E+06    -4.22554E+06     3.55742E+06     9.04431E+06         75.1871
            1060     10.2463E-03     13.3637E-03         1.15320    -342.080E-03    -444.000E-03    -352.514E-03         1.15271    -433.073E-03    -31.0679E-03     527.980E-03    -238.812E-03    -289.263E-03    -285.787E-03     524.504E-03    -238.812E-03     105.576E-03     11.0822E+06     1.46407E+06    -28.1974E+06    -4.81819E+06    -10.3593E+06    -473.564E+03     12.5925E+06         73.0055
            1061     9.50254E-03     13.1816E-03         1.10272    -328.998E-03    -409.416E-03    -333.445E-03         1.10219    -404.432E-03    -47.6049E-03     515.352E-03    -234.591E-03    -280.481E-03    -278.590E-03     513.461E-03    -234.591E-03     76.0921E-03     8.00939E+06    -6.60871E+06    -31.8932E+06    -7.41511E+06    -16.3513E+06    -6.72611E+06     16.8169E+06         70.9901
            1062     8.74578E-03     13.0502E-03         1.06106    -315.194E-03    -382.776E-03    -314.813E-03         1.06068    -382.776E-03    -27.7526E-03     501.048E-03    -230.223E-03    -271.016E-03    -270.333E-03     500.365E-03    -230.223E-03     42.3927E-03     7.09629E+06    -11.7770E+06    -44.7560E+06    -13.4743E+06    -26.0056E+06    -9.95681E+06     24.0926E+06         68.9917
            1063     7.98714E-03     12.9595E-03         1.05768    -329.297E-03    -368.436E-03    -328.887E-03         1.05727    -368.436E-03    -4.04229E-03     486.899E-03    -225.895E-03    -260.877E-03    -260.767E-03     486.788E-03    -225.895E-03     7.73848E-03     4.81269E+06    -4.94194E+06    -49.4328E+06    -18.2971E+06    -26.3230E+06    -4.94194E+06     26.7763E+06         66.9545
            1064     7.21095E-03     12.9000E-03         1.06701    -349.004E-03    -365.204E-03    -353.571E-03         1.06594    -359.569E-03     16.8509E-03     472.678E-03    -222.306E-03    -250.392E-03    -250.152E-03     472.438E-03    -222.306E-03    -22.3313E-03     3.23001E+06    -895.668E+03    -46.6820E+06    -19.5626E+06    -25.5708E+06     785.800E+03     23.9151E+06         64.8738
            1065     6.43034E-03     12.8904E-03         1.06979    -344.410E-03    -375.825E-03    -363.803E-03         1.06862    -355.255E-03     33.1165E-03     460.088E-03    -219.188E-03    -240.914E-03    -240.216E-03     459.391E-03    -219.188E-03    -43.2974E-03     2.50960E+06    -2.06647E+06    -42.3623E+06    -19.5812E+06    -24.8475E+06     2.50960E+06     19.9617E+06         62.8340
            1066     5.64102E-03     12.8868E-03         1.08511    -345.559E-03    -389.843E-03    -380.408E-03         1.08348    -353.360E-03     58.1586E-03     449.253E-03    -216.553E-03    -232.429E-03    -231.277E-03     448.101E-03    -216.553E-03    -55.5980E-03     1.11908E+06    -5.25210E+06    -39.8280E+06    -19.6114E+06    -25.4687E+06     1.11908E+06     16.9406E+06         60.9238
            1067     4.84362E-03     12.9073E-03         1.09924    -351.554E-03    -397.200E-03    -395.675E-03         1.09771    -351.554E-03     23.6395E-03     439.976E-03    -214.711E-03    -225.041E-03    -223.591E-03     438.525E-03    -214.711E-03    -61.8422E-03    -4.04598E+06    -10.3513E+06    -43.1082E+06    -22.4245E+06    -31.0350E+06    -4.04598E+06     15.7376E+06         59.2522
            1068     4.04018E-03     12.9340E-03         1.08916    -350.132E-03    -388.885E-03    -386.849E-03         1.08712    -350.132E-03     14.5513E-03     432.673E-03    -213.532E-03    -219.167E-03    -217.687E-03     431.193E-03    -213.532E-03    -61.8396E-03    -10.8164E+06    -16.3750E+06    -45.9980E+06    -26.1059E+06    -35.6469E+06    -11.4367E+06     14.2956E+06         57.9018
            1069     3.23293E-03     12.9618E-03         1.06264    -343.090E-03    -372.658E-03    -360.783E-03         1.05967    -351.997E-03    -5.30680E-03     428.682E-03    -212.919E-03    -215.768E-03    -214.521E-03     427.435E-03    -212.919E-03    -56.2961E-03    -18.9532E+06    -22.8982E+06    -50.1229E+06    -30.6547E+06    -41.7461E+06    -19.5734E+06     12.6174E+06         56.8758
            1070     2.42439E-03     12.9897E-03         1.05462    -334.911E-03    -377.920E-03    -350.973E-03         1.05175    -358.982E-03     9.31739E-03     427.042E-03    -212.768E-03    -214.110E-03    -213.270E-03     426.201E-03    -212.768E-03    -45.6289E-03    -25.4789E+06    -29.2367E+06    -54.3371E+06    -34.0539E+06    -48.3612E+06    -26.6376E+06     10.7641E+06         56.1380
            1071     1.61541E-03     13.0162E-03         1.07325    -351.851E-03    -381.985E-03    -360.004E-03         1.06847    -369.055E-03    -21.5866E-03     426.063E-03    -212.752E-03    -213.180E-03    -212.730E-03     425.639E-03    -212.779E-03    -31.7100E-03    -32.4180E+06    -35.2219E+06    -57.3791E+06    -36.9636E+06    -54.2746E+06    -33.7807E+06     7.39336E+06         55.6416
            1072     807.374E-06     13.0363E-03         1.12290    -365.241E-03    -424.631E-03    -355.667E-03         1.08895    -400.253E-03     208.348E-03     425.903E-03    -212.312E-03    -213.589E-03    -213.417E-03     425.758E-03    -212.339E-03    -17.8881E-03    -34.2477E+06    -41.6290E+06    -60.7673E+06    -38.4733E+06    -59.5053E+06    -38.6655E+06     3.85353E+06         55.3519
            1073     13.2126E-03     12.8049E-03     971.793E-03    -224.358E-03    -354.247E-03    -268.324E-03     967.730E-03    -306.219E-03     7.60427E-03     577.907E-03    -251.842E-03    -325.748E-03    -311.190E-03     563.349E-03    -251.842E-03     219.186E-03     43.2549E+06    -4.57756E+06    -45.8866E+06    -1.21563E+06    -4.62532E+06    -1.36829E+06     2.50852E+06         84.8521
            1074     12.4750E-03     12.3543E-03     886.552E-03    -191.676E-03    -312.291E-03    -251.577E-03     882.428E-03    -248.265E-03    -955.265E-06     572.642E-03    -248.746E-03    -323.324E-03    -308.066E-03     557.384E-03    -248.746E-03     225.875E-03     38.1674E+06    -1.35090E+06    -40.3232E+06    -1.64053E+06    -1.78663E+06     -79.566E+03     3.49795E+06         81.9598
            1075     11.7487E-03     12.1076E-03     808.974E-03    -160.567E-03    -271.957E-03    -235.535E-03     806.127E-03    -194.142E-03     35.6836E-03     557.140E-03    -245.072E-03    -311.934E-03    -303.140E-03     548.346E-03    -245.072E-03     173.683E-03     35.7807E+06    -2.93902E+06    -34.9985E+06     2.91318E+06    -2.13097E+06    -2.93902E+06     9.19275E+06         78.9012
            1076     11.0110E-03     11.8450E-03     732.195E-03    -134.832E-03    -228.873E-03    -215.326E-03     730.675E-03    -146.859E-03     1.07939E-03     548.178E-03    -240.908E-03    -307.471E-03    -300.215E-03     540.922E-03    -240.908E-03     155.200E-03     22.2386E+06    -5.23668E+06    -34.5079E+06     349.109E+03    -8.98299E+06    -8.87211E+06     14.1174E+06         76.3025
            1077     10.2798E-03     11.6485E-03     651.772E-03    -104.495E-03    -185.304E-03    -183.990E-03     650.459E-03    -104.495E-03     15.5027E-03     535.327E-03    -236.176E-03    -299.359E-03    -294.969E-03     530.936E-03    -236.176E-03     119.735E-03     14.4841E+06    -8.30918E+06    -40.5920E+06    -1.32974E+06    -19.2052E+06    -13.8823E+06     19.2065E+06         74.0898
            1078     9.53712E-03     11.5030E-03     572.196E-03    -62.6165E-03    -151.384E-03    -144.234E-03     571.820E-03    -69.3900E-03    -21.1758E-03     522.251E-03    -230.963E-03    -290.511E-03    -287.889E-03     519.629E-03    -230.963E-03     90.1779E-03     14.7708E+06    -8.03345E+06    -47.7579E+06    -5.62386E+06    -25.4255E+06    -9.97109E+06     28.1381E+06         71.9679
            1079     8.79261E-03     11.3846E-03     504.027E-03    -30.6876E-03    -119.610E-03    -108.286E-03     503.878E-03    -41.8618E-03    -1.49275E-03     505.498E-03    -225.482E-03    -279.830E-03    -278.760E-03     504.429E-03    -225.482E-03     54.2541E-03     15.1419E+06     2.54906E+06    -44.8053E+06    -7.97163E+06    -21.6918E+06     2.54906E+06     29.0989E+06         69.7965
            1080     8.03563E-03     11.3237E-03     456.038E-03    -26.7605E-03    -80.0698E-03    -71.0445E-03     443.911E-03    -23.6590E-03     7.12422E-03     486.849E-03    -220.192E-03    -266.885E-03    -266.644E-03     486.609E-03    -220.192E-03     18.4661E-03     15.4175E+06     10.1663E+06    -34.4009E+06    -5.76705E+06    -14.7366E+06     11.6865E+06     23.6728E+06         67.5479
            1081     7.26682E-03     11.3053E-03     444.475E-03    -24.4266E-03    -77.1910E-03    -50.8381E-03     408.120E-03    -14.4237E-03     12.6321E-03     469.058E-03    -215.588E-03    -253.792E-03    -253.624E-03     468.890E-03    -215.588E-03    -12.1410E-03     14.9425E+06     9.16165E+06    -28.7661E+06    -3.84237E+06    -12.9734E+06     12.1537E+06     19.6997E+06         65.2465
            1082     6.48676E-03     11.3116E-03     454.890E-03    -17.9814E-03    -98.9242E-03    -52.9529E-03     402.062E-03    -11.1242E-03     29.4293E-03     453.288E-03    -211.514E-03    -242.021E-03    -241.478E-03     452.746E-03    -211.514E-03    -35.7341E-03     12.1691E+06     4.74355E+06    -27.7822E+06    -4.14691E+06    -14.6946E+06     7.97197E+06     17.4012E+06         62.9835
            1083     5.69552E-03     11.3378E-03     455.964E-03    -15.9753E-03    -103.699E-03    -42.3708E-03     390.279E-03    -11.6189E-03     70.1131E-03     439.391E-03    -207.952E-03    -231.427E-03    -230.410E-03     438.374E-03    -207.952E-03    -51.2477E-03     6.64453E+06     177.314E+03    -33.1613E+06    -7.51125E+06    -21.0134E+06     2.18519E+06     17.5319E+06         60.8328
            1084     4.89574E-03     11.3716E-03     455.837E-03    -16.0062E-03    -103.442E-03    -29.6616E-03     382.057E-03    -16.0062E-03     68.9195E-03     427.455E-03    -205.009E-03    -222.236E-03    -220.843E-03     426.062E-03    -205.009E-03    -59.7567E-03     2.40570E+06    -2.42916E+06    -36.8718E+06    -10.1007E+06    -24.7846E+06    -2.00994E+06     17.9241E+06         58.9033
            1085     4.08893E-03     11.4185E-03     448.059E-03    -22.7896E-03    -88.6430E-03    -41.8457E-03     400.034E-03    -21.5624E-03     63.7753E-03     417.060E-03    -202.639E-03    -214.344E-03    -212.813E-03     415.529E-03    -202.639E-03    -62.0278E-03    -1.96191E+06    -6.88984E+06    -38.6650E+06    -13.6171E+06    -27.1777E+06    -6.72194E+06     16.9067E+06         57.2908
            1086     3.27517E-03     11.4543E-03     427.760E-03    -24.8879E-03    -65.6921E-03    -54.8031E-03     415.644E-03    -23.6607E-03     52.2020E-03     408.933E-03    -200.971E-03    -207.773E-03    -206.389E-03     407.549E-03    -200.971E-03    -58.2923E-03    -7.20735E+06    -11.9184E+06    -41.4808E+06    -17.3436E+06    -31.5311E+06    -11.7318E+06     15.4003E+06         56.0161
            1087     2.45750E-03     11.4863E-03     442.665E-03    -21.6527E-03    -84.6241E-03    -50.8172E-03     408.858E-03    -21.6527E-03     97.6641E-03     403.891E-03    -199.914E-03    -203.603E-03    -202.569E-03     402.857E-03    -199.914E-03    -49.7905E-03    -12.6725E+06    -16.7559E+06    -42.3756E+06    -19.9941E+06    -35.2405E+06    -16.5694E+06     12.3672E+06         55.0677
            1088     1.63885E-03     11.5137E-03     440.771E-03    -19.5246E-03    -83.9879E-03    -30.1157E-03     387.100E-03    -19.7255E-03     73.5137E-03     400.568E-03    -199.343E-03    -201.045E-03    -200.431E-03     399.981E-03    -199.370E-03    -36.7093E-03    -17.1448E+06    -19.9852E+06    -43.3062E+06    -21.0411E+06    -39.4671E+06    -19.9280E+06     8.76126E+06         54.4166
            1089     819.044E-06     11.5336E-03     509.857E-03    -16.1543E-03    -153.107E-03     4.46271E-03     385.460E-03    -49.3274E-03     279.662E-03     398.886E-03    -198.754E-03    -200.115E-03    -199.877E-03     398.675E-03    -198.781E-03    -20.8753E-03    -16.7312E+06    -25.5860E+06    -45.7261E+06    -21.9066E+06    -43.8717E+06    -22.2651E+06     5.12145E+06         54.0309
            1090     13.2081E-03     11.0473E-03     632.549E-03    -23.4707E-03    -229.333E-03    -224.803E-03     628.019E-03    -23.4707E-03     25.2986E-03     578.633E-03    -252.123E-03    -325.873E-03    -310.374E-03     563.133E-03    -252.123E-03     224.017E-03     44.6526E+06    -13.0859E+06    -61.3334E+06    -1.14775E+06    -11.5868E+06    -17.0322E+06     3.47732E+06         85.6913
            1091     12.4777E-03     10.6022E-03     512.619E-03     44.5885E-03    -188.103E-03    -183.188E-03     507.704E-03     44.5885E-03     14.5661E-03     576.150E-03    -249.034E-03    -326.512E-03    -309.354E-03     558.993E-03    -249.034E-03     240.808E-03     46.4441E+06    -14.3333E+06    -52.0734E+06     3.27819E+06    -8.21402E+06    -15.0268E+06     8.89581E+06         82.9020
            1092     11.7380E-03     10.3597E-03     432.955E-03     62.6162E-03    -136.420E-03    -131.429E-03     382.324E-03     108.257E-03     57.3143E-03     562.934E-03    -245.117E-03    -317.673E-03    -306.963E-03     552.224E-03    -245.117E-03     192.685E-03     36.6748E+06    -17.5707E+06    -51.1077E+06     698.837E+03    -11.2028E+06    -21.4997E+06     10.1121E+06         79.9934
            1093     11.0170E-03     10.1021E-03     401.051E-03     38.0085E-03    -88.6709E-03    -70.9570E-03     258.367E-03     162.979E-03     19.2519E-03     554.520E-03    -240.853E-03    -313.406E-03    -303.886E-03     545.000E-03    -240.853E-03     179.325E-03     28.1415E+06    -16.5107E+06    -57.9755E+06     3.75950E+06    -26.0291E+06    -24.0751E+06     19.1645E+06         77.4868
            1094     10.2810E-03     9.94042E-03     373.679E-03     65.2110E-03    -93.1686E-03    -3.70928E-03     138.666E-03     210.765E-03     21.5287E-03     542.328E-03    -235.835E-03    -306.315E-03    -299.795E-03     535.808E-03    -235.835E-03     147.079E-03     25.7085E+06    -5.92838E+06    -55.9251E+06     1.26685E+06    -29.7248E+06    -7.68706E+06     31.3736E+06         75.2670
            1095     9.54872E-03     9.79493E-03     359.792E-03     128.872E-03    -145.902E-03     51.7996E-03     41.0499E-03     249.912E-03     3.70295E-03     528.336E-03    -230.116E-03    -297.438E-03    -293.112E-03     524.009E-03    -230.116E-03     117.140E-03     24.7081E+06     10.7791E+06    -37.0312E+06     1.10137E+06    -15.3012E+06     12.6558E+06     28.6718E+06         73.0800
            1096     8.80939E-03     9.71485E-03     341.851E-03     181.547E-03    -185.771E-03     101.588E-03    -44.3303E-03     280.370E-03     41.1243E-03     508.179E-03    -224.006E-03    -283.896E-03    -281.519E-03     505.802E-03    -224.006E-03     83.3284E-03     23.2399E+06     20.2303E+06    -21.2586E+06     6.38469E+06    -5.74464E+06     21.5714E+06     20.3468E+06         70.8243
            1097     8.05226E-03     9.68781E-03     317.585E-03     202.604E-03    -186.956E-03     154.876E-03    -122.609E-03     300.966E-03     72.0985E-03     487.416E-03    -218.111E-03    -269.222E-03    -268.089E-03     486.282E-03    -218.111E-03     51.8274E-03     24.7128E+06     15.6850E+06    -17.1163E+06     9.80371E+06    -5.06860E+06     18.5464E+06     17.6768E+06         68.4978
            1098     7.28692E-03     9.70004E-03     312.252E-03     226.083E-03    -211.179E-03     202.232E-03    -187.327E-03     312.252E-03     103.420E-03     468.980E-03    -212.929E-03    -256.432E-03    -256.008E-03     468.555E-03    -212.929E-03     23.1257E-03     22.6826E+06     8.95049E+06    -19.4528E+06     9.38403E+06    -7.67448E+06     10.4707E+06     18.3746E+06         66.1239
            1099     6.51249E-03     9.74096E-03     315.323E-03     265.225E-03    -255.692E-03     248.836E-03    -239.303E-03     315.323E-03     96.7936E-03     452.582E-03    -208.082E-03    -245.072E-03    -244.817E-03     452.328E-03    -208.082E-03    -777.540E-06     20.1463E+06     4.58756E+06    -26.1038E+06     6.70565E+06    -12.6631E+06     4.58756E+06     20.9815E+06         63.7656
            1100     5.72665E-03     9.79373E-03     314.018E-03     282.311E-03    -273.316E-03     277.417E-03    -265.985E-03     311.581E-03     92.7883E-03     437.487E-03    -203.546E-03    -234.140E-03    -233.749E-03     437.096E-03    -203.546E-03    -20.8192E-03     17.8096E+06     2.87408E+06    -30.7535E+06     3.42529E+06    -16.3691E+06     2.87408E+06     22.1649E+06         61.4824
            1101     4.92940E-03     9.85517E-03     313.230E-03     278.620E-03    -270.792E-03     283.287E-03    -265.711E-03     303.482E-03     77.7938E-03     422.940E-03    -199.359E-03    -223.563E-03    -222.927E-03     422.303E-03    -199.359E-03    -35.1268E-03     14.4992E+06     2.15937E+06    -32.2905E+06     112.732E+03    -17.9040E+06     2.15937E+06     21.5291E+06         59.3787
            1102     4.12242E-03     9.91536E-03     302.647E-03     278.109E-03    -257.030E-03     285.399E-03    -254.885E-03     293.212E-03     31.4881E-03     409.637E-03    -195.545E-03    -214.105E-03    -213.248E-03     408.780E-03    -195.545E-03    -43.5193E-03     12.1399E+06     1.62511E+06    -31.1279E+06    -1.42557E+06    -17.5625E+06     1.62511E+06     20.0078E+06         57.5738
            1103     3.30944E-03     9.96906E-03     291.352E-03     281.880E-03    -247.900E-03     277.404E-03    -235.180E-03     283.108E-03     9.22816E-03     397.806E-03    -192.210E-03    -205.609E-03    -204.687E-03     396.884E-03    -192.210E-03    -45.8555E-03     7.86835E+06     348.197E+03    -29.6062E+06    -3.09500E+06    -18.6429E+06     348.197E+03     16.9369E+06         56.1154
            1104     2.48838E-03     10.0102E-03     301.391E-03     273.206E-03    -248.123E-03     265.812E-03    -215.230E-03     275.891E-03     39.6702E-03     387.297E-03    -189.451E-03    -197.738E-03    -196.946E-03     386.506E-03    -189.451E-03    -42.3149E-03     2.96081E+06    -1.60830E+06    -28.6326E+06    -4.41008E+06    -21.2617E+06    -1.60830E+06     12.9089E+06         55.0040
            1105     1.66213E-03     10.0430E-03     305.910E-03     257.970E-03    -231.997E-03     254.464E-03    -197.678E-03     275.097E-03     44.1532E-03     379.184E-03    -187.554E-03    -191.520E-03    -191.018E-03     378.683E-03    -187.554E-03    -32.9836E-03    -540.964E+03    -4.47724E+06    -28.2615E+06    -5.87736E+06    -23.9125E+06    -3.48984E+06     9.14427E+06         54.2268
            1106     832.458E-06     10.0659E-03     378.983E-03     262.396E-03    -296.955E-03     270.469E-03    -202.883E-03     276.837E-03     210.603E-03     374.092E-03    -185.991E-03    -188.096E-03    -187.907E-03     373.903E-03    -185.991E-03    -18.9377E-03     111.161E+03    -9.26424E+06    -29.2955E+06    -6.52090E+06    -26.9146E+06    -5.01306E+06     5.16333E+06         53.7573
            1107     13.2016E-03     9.30966E-03     412.475E-03     141.250E-03    -198.833E-03    -193.853E-03     306.939E-03     241.807E-03     30.0376E-03     576.617E-03    -252.786E-03    -322.809E-03    -305.771E-03     559.580E-03    -252.786E-03     234.194E-03     58.3647E+06    -26.7620E+06    -80.0850E+06     2.29421E+06    -16.6995E+06    -34.0771E+06     1.88569E+06         86.5594
            1108     12.4525E-03     8.84634E-03     382.486E-03     107.086E-03    -148.624E-03    -118.133E-03     141.170E-03     317.910E-03     14.9291E-03     575.608E-03    -250.141E-03    -325.389E-03    -305.891E-03     556.110E-03    -250.141E-03     257.512E-03     57.5438E+06    -35.7631E+06    -77.7707E+06     4.12511E+06    -20.7839E+06    -39.3313E+06     1.13339E+06         83.8178
            1109     11.7314E-03     8.60179E-03     390.810E-03     96.5426E-03    -157.193E-03    -28.7152E-03    -29.3686E-03     388.243E-03     66.1223E-03     561.696E-03    -246.732E-03    -315.260E-03    -302.152E-03     548.588E-03    -246.732E-03     212.298E-03     53.2500E+06    -31.8199E+06    -87.2227E+06     14.1562E+06    -42.5967E+06    -37.3522E+06     19.0904E+06         80.8890
            1110     10.9865E-03     8.37033E-03     448.266E-03     96.2482E-03    -219.645E-03     61.8519E-03    -185.249E-03     448.266E-03     24.9255E-03     555.812E-03    -242.877E-03    -312.597E-03    -300.667E-03     543.882E-03    -242.877E-03     201.151E-03     44.8745E+06    -8.82229E+06    -71.7166E+06     7.16767E+06    -37.4347E+06    -5.39734E+06     34.4856E+06         78.2410
            1111     10.2577E-03     8.19725E-03     500.249E-03     153.051E-03    -330.453E-03     152.286E-03    -329.688E-03     500.249E-03     35.3031E-03     543.092E-03    -238.080E-03    -305.181E-03    -296.479E-03     534.390E-03    -238.080E-03     170.437E-03     36.3552E+06     13.3959E+06    -27.7600E+06     7.65747E+06    -8.29295E+06     22.6266E+06     24.9467E+06         75.8231
            1112     9.52542E-03     8.08727E-03     541.614E-03     242.890E-03    -462.862E-03     242.072E-03    -462.043E-03     541.614E-03     33.3448E-03     526.183E-03    -232.765E-03    -293.059E-03    -286.471E-03     519.595E-03    -232.765E-03     145.146E-03     27.7174E+06     22.7322E+06    -7.65529E+06     15.2662E+06     2.91915E+06     24.6089E+06     14.4720E+06         73.4897
            1113     8.77892E-03     8.04578E-03     572.548E-03     316.385E-03    -571.829E-03     314.123E-03    -569.567E-03     572.548E-03     43.2420E-03     506.932E-03    -227.198E-03    -279.151E-03    -274.376E-03     502.156E-03    -227.198E-03     120.355E-03     29.1800E+06     15.0939E+06    -10.6832E+06     18.7389E+06    -1.58327E+06     16.4351E+06     15.4140E+06         71.2305
            1114     8.02435E-03     8.04872E-03     594.330E-03     372.424E-03    -652.691E-03     368.870E-03    -649.137E-03     594.330E-03     48.1080E-03     488.974E-03    -221.843E-03    -266.160E-03    -262.826E-03     485.640E-03    -221.843E-03     96.8503E-03     30.0224E+06     6.46786E+06    -18.7987E+06     17.0907E+06    -7.20818E+06     7.80906E+06     20.3275E+06         69.0424
            1115     7.25837E-03     8.09593E-03     608.349E-03     425.779E-03    -723.739E-03     422.844E-03    -720.804E-03     608.349E-03     56.9001E-03     472.954E-03    -216.994E-03    -255.739E-03    -253.546E-03     470.760E-03    -216.994E-03     74.2769E-03     29.7582E+06     4.39818E+06    -26.3069E+06     13.4953E+06    -10.0440E+06     4.39818E+06     25.3100E+06         66.8730
            1116     6.48676E-03     8.16097E-03     615.599E-03     474.996E-03    -781.091E-03     473.314E-03    -779.410E-03     615.599E-03     65.6175E-03     459.234E-03    -212.085E-03    -247.379E-03    -245.980E-03     457.835E-03    -212.085E-03     54.1178E-03     29.5174E+06     5.65685E+06    -28.0953E+06     11.0228E+06    -9.60066E+06     5.65685E+06     26.8134E+06         64.7217
            1117     5.70801E-03     8.24025E-03     617.329E-03     508.957E-03    -813.164E-03     506.534E-03    -810.741E-03     617.329E-03     75.6461E-03     445.636E-03    -207.036E-03    -238.798E-03    -237.961E-03     444.799E-03    -207.036E-03     34.3957E-03     28.0776E+06     8.33675E+06    -26.0868E+06     10.0385E+06    -8.04782E+06     8.33675E+06     25.4713E+06         62.5933
            1118     4.92116E-03     8.33034E-03     614.979E-03     535.298E-03    -835.338E-03     532.902E-03    -832.942E-03     614.979E-03     42.1636E-03     430.930E-03    -201.941E-03    -229.428E-03    -228.900E-03     430.402E-03    -201.941E-03     16.6644E-03     25.1955E+06     10.2815E+06    -22.6219E+06     8.72725E+06    -6.15367E+06     10.2815E+06     22.6726E+06         60.5260
            1119     4.12355E-03     8.41378E-03     611.452E-03     561.538E-03    -857.727E-03     563.379E-03    -857.443E-03     609.327E-03     817.287E-06     415.861E-03    -196.993E-03    -219.441E-03    -219.056E-03     415.476E-03    -196.993E-03     1.96039E-03      21.701E+06     11.5218E+06    -19.7253E+06     7.39171E+06    -5.41600E+06     11.5218E+06     19.5761E+06         58.6750
            1120     3.31574E-03     8.48542E-03     607.938E-03     570.209E-03    -863.924E-03     576.838E-03    -863.647E-03     601.032E-03    -3.42055E-03     401.034E-03    -192.262E-03    -209.361E-03    -209.038E-03     400.710E-03    -192.262E-03    -8.78802E-03     18.8505E+06     12.4997E+06    -15.7986E+06     8.00754E+06     -4.9556E+06     12.4997E+06     15.7870E+06         57.1724
            1121     2.49948E-03     8.55068E-03     598.612E-03     563.800E-03    -845.588E-03     568.368E-03    -845.375E-03     593.831E-03    -18.4267E-03     386.715E-03    -188.006E-03    -199.105E-03    -198.832E-03     386.442E-03    -188.006E-03    -13.7426E-03     15.0447E+06     11.6357E+06    -14.4400E+06     7.42893E+06    -6.82426E+06     11.6357E+06     12.1299E+06         56.0286
            1122     1.67215E-03     8.59951E-03     596.681E-03     563.983E-03    -839.722E-03     566.805E-03    -838.465E-03     592.602E-03    -19.5928E-03     374.693E-03    -184.680E-03    -190.106E-03    -189.924E-03     374.510E-03    -184.680E-03    -13.2549E-03     12.2367E+06     7.84358E+06    -14.3590E+06     6.25524E+06    -9.36500E+06     8.83099E+06     8.64605E+06         55.2190
            1123     837.888E-06     8.62991E-03     631.357E-03     555.818E-03    -857.196E-03     610.076E-03    -850.357E-03     570.259E-03     109.371E-03     366.706E-03    -182.146E-03    -184.624E-03    -184.387E-03     366.639E-03    -182.316E-03    -7.87645E-03     13.3074E+06     3.59005E+06    -13.6506E+06     7.09285E+06    -11.3784E+06     7.53241E+06     4.23476E+06         54.7204
            1124     13.1708E-03     7.55047E-03     478.296E-03     51.8804E-03    -215.330E-03    -147.362E-03    -16.0880E-03     478.296E-03     36.9688E-03     571.833E-03    -254.538E-03    -316.974E-03    -296.327E-03     551.186E-03    -254.538E-03     257.938E-03     77.8478E+06    -44.5411E+06    -102.425E+06     9.44866E+06    -28.6751E+06    -49.8914E+06    -1.16788E+06         87.4535
            1125     12.4414E-03     7.10738E-03     558.980E-03     12.6886E-03    -269.042E-03    -47.1974E-03    -209.156E-03     558.980E-03     10.9467E-03     574.654E-03    -252.590E-03    -322.920E-03    -299.500E-03     551.235E-03    -252.590E-03     281.788E-03     73.2447E+06    -47.6060E+06    -115.866E+06     13.6374E+06    -54.6556E+06    -49.2093E+06     21.2348E+06         84.5485
            1126     11.6808E-03     6.86281E-03     633.025E-03     69.4781E-03    -406.611E-03     62.4924E-03    -399.625E-03     633.025E-03     51.5150E-03     564.358E-03    -249.868E-03    -314.623E-03    -299.463E-03     549.198E-03    -249.868E-03     228.507E-03     56.7514E+06    -10.7765E+06    -114.772E+06    -4.19310E+06    -52.7510E+06    -11.8526E+06     29.1931E+06         81.1203
            1127     10.9525E-03     6.61964E-03     696.481E-03     173.798E-03    -575.825E-03     173.414E-03    -575.440E-03     696.481E-03     27.6172E-03     554.742E-03    -246.209E-03    -307.690E-03    -295.424E-03     542.477E-03    -246.209E-03     203.342E-03     47.8895E+06     16.9559E+06    -48.4475E+06     4.10500E+06    -10.5158E+06     22.8088E+06     11.3345E+06         77.8038
            1128     10.2134E-03     6.46874E-03     751.000E-03     280.541E-03    -736.017E-03     280.067E-03    -735.543E-03     751.000E-03     22.3623E-03     533.588E-03    -242.209E-03    -291.576E-03    -282.589E-03     524.601E-03    -242.209E-03     171.122E-03     32.4735E+06     9.14058E+06    -4.15455E+06     18.9942E+06     3.99911E+06     14.4662E+06     5.56660E+06         74.8699
            1129     9.46074E-03     6.39839E-03     795.383E-03     377.704E-03    -876.419E-03     377.196E-03    -875.912E-03     795.383E-03     259.307E-06     514.760E-03    -238.636E-03    -275.838E-03    -268.408E-03     507.330E-03    -238.636E-03     152.448E-03     28.0644E+06     3.11420E+06    -12.4321E+06     20.0408E+06    -4.40849E+06     3.11420E+06     14.7537E+06         72.3338
            1130     8.70486E-03     6.38530E-03     830.747E-03     470.771E-03        -1.00615     470.265E-03        -1.00564     830.747E-03     14.8496E-03     499.649E-03    -235.006E-03    -264.028E-03    -257.523E-03     493.144E-03    -235.006E-03     140.172E-03     30.4030E+06    -4.28047E+06    -26.3307E+06     15.4234E+06    -11.3511E+06    -4.28047E+06     24.1484E+06         70.1857
            1131     7.94170E-03     6.41406E-03     857.860E-03     553.496E-03        -1.11771     552.627E-03        -1.11684     857.860E-03     30.5832E-03     487.035E-03    -231.669E-03    -254.858E-03    -248.938E-03     481.115E-03    -231.669E-03     131.146E-03     32.1343E+06     786.450E+03    -31.4510E+06     11.6496E+06    -10.9663E+06     786.450E+03     29.3134E+06         68.3664
            1132     7.17101E-03     6.48084E-03     878.257E-03     610.821E-03        -1.19779     610.235E-03        -1.19720     878.257E-03     23.4919E-03     477.755E-03    -228.601E-03    -249.098E-03    -243.674E-03     472.331E-03    -228.601E-03     123.087E-03     33.9606E+06     9.32795E+06    -27.3346E+06     11.5783E+06    -4.95233E+06     9.32795E+06     29.1592E+06         66.7401
            1133     6.40131E-03     6.56780E-03     893.595E-03     664.521E-03        -1.26317     664.361E-03        -1.26301     893.595E-03     27.0201E-03     470.158E-03    -225.294E-03    -244.817E-03    -239.882E-03     465.224E-03    -225.294E-03     114.493E-03     34.2877E+06     15.0706E+06    -20.7475E+06     12.7164E+06     823.766E+03     15.0706E+06     26.7285E+06         65.2069
            1134     5.62793E-03     6.66731E-03     903.245E-03     733.716E-03        -1.33552     733.375E-03        -1.33518     903.245E-03     41.2630E-03     462.236E-03    -221.454E-03    -240.516E-03    -236.201E-03     457.922E-03    -221.454E-03     103.612E-03     33.4628E+06     19.6568E+06    -14.9354E+06     13.8307E+06     4.69671E+06     19.6568E+06     23.6142E+06         63.6750
            1135     4.84877E-03     6.78082E-03     905.981E-03     798.539E-03        -1.40163     798.051E-03        -1.40114     905.981E-03     14.5721E-03     453.004E-03    -217.177E-03    -235.993E-03    -232.449E-03     449.460E-03    -217.177E-03     90.2769E-03     31.7135E+06     22.5470E+06    -8.92607E+06     14.9588E+06     7.82859E+06     22.5470E+06     19.8222E+06         62.0816
            1136     4.06450E-03     6.88308E-03     903.320E-03     836.774E-03        -1.43538     835.833E-03        -1.43444     903.320E-03     28.9221E-03     441.076E-03    -212.584E-03    -229.199E-03    -226.563E-03     438.440E-03    -212.584E-03     73.8767E-03     28.1774E+06     22.7876E+06    -4.62871E+06     15.0951E+06     8.45358E+06     22.7876E+06     15.9085E+06         60.5338
            1137     3.26996E-03     6.98342E-03     899.230E-03     848.405E-03        -1.44159     847.173E-03        -1.44036     899.230E-03     61.6430E-03     427.796E-03    -207.890E-03    -220.535E-03    -218.772E-03     426.034E-03    -207.890E-03     56.1518E-03     25.1964E+06     21.6016E+06    -1.68088E+06     15.2157E+06     8.29979E+06     21.6016E+06     12.4083E+06         59.2105
            1138     2.46395E-03     7.07104E-03     903.984E-03     858.570E-03        -1.45430     866.626E-03        -1.45353     895.156E-03     45.5481E-03     415.389E-03    -203.560E-03    -212.169E-03    -211.156E-03     414.376E-03    -203.560E-03     39.4408E-03     22.0023E+06     19.8124E+06    -1.41735E+06     14.8773E+06     5.70772E+06     19.8124E+06     9.26676E+06         58.1822
            1139     1.65018E-03     7.14106E-03     902.076E-03     870.405E-03        -1.46442     882.936E-03        -1.46404     889.170E-03     45.1527E-03     404.414E-03    -199.897E-03    -204.561E-03    -204.092E-03     403.945E-03    -199.897E-03     24.6675E-03     19.8283E+06     16.9435E+06    -1.07674E+06     14.7806E+06     3.53260E+06     17.3819E+06     6.24025E+06         57.4507
            1140     827.765E-06     7.18749E-03     927.272E-03     838.498E-03        -1.45514     916.255E-03        -1.45140     845.770E-03     134.474E-03     396.198E-03    -196.995E-03    -199.189E-03    -198.177E-03     396.047E-03    -197.855E-03     12.8184E-03     20.6787E+06     11.9260E+06    -2.38065E+06     14.5736E+06     331.115E+03     15.3193E+06     3.39121E+06         57.0013
            1141     13.1478E-03     5.82244E-03     680.953E-03    -48.0389E-03    -353.574E-03    -67.9828E-03    -333.630E-03     680.953E-03    -2.53492E-03     579.555E-03    -258.125E-03    -321.919E-03    -294.339E-03     551.975E-03    -258.125E-03     305.847E-03     81.8772E+06    -31.5356E+06    -129.568E+06    -7.78002E+06    -43.5483E+06    -27.8980E+06     22.3119E+06         87.8499
            1142     12.3662E-03     5.36054E-03     763.614E-03     43.8067E-03    -539.398E-03     42.6221E-03    -538.213E-03     763.614E-03    -30.0739E-03     589.797E-03    -255.894E-03    -335.126E-03    -311.524E-03     566.195E-03    -255.894E-03     281.994E-03     75.1773E+06    -22.8745E+06    -148.202E+06    -28.1967E+06    -48.4653E+06    -19.2370E+06     3.06429E+06         84.5107
            1143     11.6502E-03     5.08682E-03     837.225E-03     158.259E-03    -733.382E-03     157.812E-03    -732.935E-03     837.225E-03     4.19775E-03     567.910E-03    -252.747E-03    -315.561E-03    -303.845E-03     556.194E-03    -252.747E-03     198.643E-03     75.7832E+06     1.75643E+06    -110.733E+06     653.529E+03    -33.6223E+06    -224.243E+03    -19.5935E+06         80.2497
            1144     10.9104E-03     4.86939E-03     900.272E-03     273.498E-03    -909.846E-03     272.944E-03    -909.292E-03     900.272E-03    -8.46311E-03     541.763E-03    -249.355E-03    -291.266E-03    -282.511E-03     533.009E-03    -249.355E-03     167.577E-03     39.4620E+06    -19.6156E+06    -53.7704E+06     19.7280E+06    -30.0274E+06    -23.6245E+06    -6.46295E+06         76.0273
            1145     10.1557E-03     4.76780E-03     955.419E-03     387.335E-03        -1.07509     387.029E-03        -1.07479     955.419E-03    -7.76128E-03     514.369E-03    -244.961E-03    -268.969E-03    -259.805E-03     507.491E-03    -247.248E-03     145.096E-03     22.9748E+06    -21.8561E+06    -34.1373E+06     12.9874E+06    -22.1216E+06    -23.8844E+06     17.0292E+06         72.5007
            1146     9.38977E-03     4.72654E-03         1.00256     501.478E-03        -1.23238     501.294E-03        -1.23219         1.00256    -7.94202E-03     495.548E-03    -237.742E-03    -257.685E-03    -242.324E-03     488.913E-03    -246.469E-03     139.825E-03     25.3311E+06    -18.4283E+06    -39.8487E+06     6.15796E+06    -20.6755E+06    -18.4283E+06     28.3589E+06         69.7869
            1147     8.60907E-03     4.73741E-03         1.04278     608.612E-03        -1.37906     608.093E-03        -1.37854         1.04278     18.6408E-03     484.666E-03    -231.334E-03    -253.097E-03    -230.903E-03     477.418E-03    -246.280E-03     143.679E-03     28.4922E+06    -1.77223E+06    -36.8399E+06     3.72204E+06    -12.0697E+06    -1.77223E+06     31.1640E+06         67.8360
            1148     7.82437E-03     4.78523E-03         1.07700     700.804E-03        -1.50443     700.150E-03        -1.50378         1.07700     60.7347E-03     480.425E-03    -229.817E-03    -251.075E-03    -225.989E-03     472.179E-03    -246.656E-03     152.059E-03     31.2687E+06     13.5214E+06    -24.0157E+06     6.58887E+06     600.803E+03     13.5848E+06     27.0443E+06         66.5313
            1149     7.04111E-03     4.86141E-03         1.10591     782.745E-03        -1.61145     782.126E-03        -1.61083         1.10591     68.1414E-03     480.967E-03    -230.508E-03    -250.929E-03    -225.217E-03     471.902E-03    -247.155E-03     159.052E-03     32.4314E+06     21.9075E+06    -12.6547E+06     10.7833E+06     8.93001E+06     21.9708E+06     22.2917E+06         65.6574
            1150     6.25787E-03     4.96023E-03         1.12907     872.488E-03        -1.71908     872.072E-03        -1.71866         1.12907     33.9280E-03     483.737E-03    -232.296E-03    -251.116E-03    -226.336E-03     474.071E-03    -247.409E-03     164.421E-03     35.1206E+06     26.4457E+06    -4.42425E+06     14.3498E+06     14.8500E+06     27.9423E+06     18.7204E+06         65.0419
            1151     5.47868E-03     5.07493E-03         1.14472     968.321E-03        -1.82824     967.995E-03        -1.82791         1.14472     31.5867E-03     486.714E-03    -234.887E-03    -251.270E-03    -229.395E-03     477.045E-03    -247.092E-03     164.954E-03     35.6821E+06     28.8945E+06     1.80687E+06     16.5831E+06     18.6598E+06     31.1406E+06     15.4668E+06         64.5381
            1152     4.70317E-03     5.18814E-03         1.15296         1.03124        -1.89846         1.03090        -1.89811         1.15296     43.8167E-03     488.223E-03    -236.658E-03    -251.347E-03    -232.938E-03     479.302E-03    -246.146E-03     158.673E-03     34.0663E+06     30.0577E+06     6.03146E+06     18.0478E+06     20.2180E+06     31.8896E+06     12.8931E+06         63.9808
            1153     3.92861E-03     5.31343E-03         1.15605         1.07214        -1.93757         1.07117        -1.93660         1.15605     74.7870E-03     487.437E-03    -237.952E-03    -249.753E-03    -235.628E-03     479.944E-03    -244.585E-03     145.126E-03     33.0147E+06     29.6276E+06     8.92843E+06     19.5111E+06     20.6306E+06     31.4291E+06     10.5939E+06         63.3267
            1154     3.15123E-03     5.42869E-03         1.15475         1.10899        -1.96998         1.10759        -1.96858         1.15475     74.8536E-03     484.668E-03    -238.509E-03    -246.587E-03    -236.923E-03     479.070E-03    -242.575E-03     124.716E-03     29.0269E+06     26.9418E+06     9.91525E+06     18.6373E+06     19.0797E+06     28.1669E+06     8.38396E+06         62.6636
            1155     2.37030E-03     5.53099E-03         1.15801         1.12238        -1.98117         1.13040        -1.98036         1.14918     46.2700E-03     481.011E-03    -237.901E-03    -243.383E-03    -237.249E-03     477.467E-03    -240.491E-03     98.1460E-03     25.3511E+06     24.1500E+06     8.99062E+06     18.4212E+06     15.3313E+06     24.7391E+06     5.92914E+06         62.0934
            1156     1.58425E-03     5.61435E-03         1.15218         1.12067        -1.97138         1.12894        -1.97082         1.14335     68.4994E-03     477.348E-03    -236.920E-03    -240.398E-03    -236.915E-03     475.571E-03    -238.625E-03     68.1443E-03     22.2155E+06     21.0739E+06     8.08745E+06     17.6434E+06     12.1382E+06     21.5954E+06     3.19844E+06         61.6773
            1157     793.881E-06     5.66730E-03         1.18447         1.08977        -1.97390         1.17105        -1.97284         1.10213     81.8194E-03     474.674E-03    -235.621E-03    -238.940E-03    -237.007E-03     474.064E-03    -236.944E-03     37.9875E-03     21.8185E+06     16.5245E+06     4.30609E+06     16.7176E+06     7.75661E+06     18.1749E+06     2.18016E+06         61.4235
            1158     13.0604E-03     4.02599E-03     842.964E-03    -41.1477E-03    -556.847E-03    -42.0868E-03    -555.907E-03     842.964E-03    -32.3040E-03     616.502E-03    -260.956E-03    -356.301E-03    -328.547E-03     588.748E-03    -260.956E-03     305.824E-03     96.0792E+06     14.7025E+06    -144.667E+06    -4.92422E+06    -48.0333E+06     19.0725E+06    -26.9451E+06         87.3740
            1159     12.3662E-03     3.53488E-03     923.078E-03     78.9799E-03    -769.532E-03     78.5582E-03    -769.110E-03     923.078E-03    -29.8603E-03     602.173E-03    -257.135E-03    -345.425E-03    -333.317E-03     590.065E-03    -257.135E-03     187.677E-03     125.098E+06     20.9036E+06    -123.230E+06     37.7075E+06    -39.4771E+06     24.5412E+06    -36.9140E+06         83.6900
            1160     11.6404E-03     3.32374E-03     991.913E-03     208.250E-03    -965.329E-03     208.108E-03    -965.186E-03     991.913E-03    -23.6344E-03     549.365E-03    -253.611E-03    -296.193E-03    -291.309E-03     544.480E-03    -253.611E-03     122.806E-03     74.9946E+06    -36.0638E+06    -131.509E+06     31.6734E+06    -85.6803E+06    -38.5717E+06    -1.94137E+06         78.9103
            1161     10.8879E-03     3.17834E-03         1.05296     347.877E-03        -1.16013     347.564E-03        -1.15981         1.05296    -38.5975E-03     511.499E-03    -244.154E-03    -267.075E-03    -255.083E-03     507.110E-03    -251.757E-03     114.175E-03     19.2456E+06    -50.6148E+06    -85.9565E+06     3.66070E+06    -67.8637E+06    -53.1227E+06     27.7821E+06         74.1684
            1162     10.1037E-03     3.11866E-03         1.10808     487.271E-03        -1.34848     486.385E-03        -1.34760         1.10808    -49.0166E-03     484.257E-03    -228.538E-03    -255.628E-03    -227.104E-03     479.818E-03    -252.623E-03     111.770E-03     18.7830E+06    -23.8314E+06    -52.6041E+06    -3.42306E+06    -33.1339E+06    -21.0955E+06     30.2468E+06         70.2871
            1163     9.29977E-03     3.10709E-03         1.15763     610.785E-03        -1.51853     609.868E-03        -1.51761         1.15763    -52.1897E-03     470.536E-03    -215.314E-03    -255.476E-03    -209.806E-03     465.029E-03    -255.476E-03     122.091E-03     25.8330E+06    -609.421E+03    -36.9648E+06    -561.640E+03    -15.3569E+06     4.17738E+06     27.7451E+06         67.4217
            1164     8.48988E-03     3.14312E-03         1.20281     722.468E-03        -1.67214     722.176E-03        -1.67184         1.20281    -24.2710E-03     468.620E-03    -209.165E-03    -259.646E-03    -202.197E-03     461.652E-03    -259.646E-03     136.369E-03     33.3222E+06     18.7069E+06    -13.8017E+06     7.25871E+06     5.71050E+06     25.2583E+06     20.0490E+06         65.6294
            1165     7.67759E-03     3.18614E-03         1.24323     841.340E-03        -1.82550     841.299E-03        -1.82546         1.24323     17.8913E-03     474.883E-03    -211.020E-03    -264.646E-03    -202.670E-03     466.533E-03    -264.646E-03     150.140E-03     36.4598E+06     25.7122E+06     451.193E+03     13.0341E+06     16.4949E+06     33.0941E+06     14.1592E+06         64.7923
            1166     6.87209E-03     3.25794E-03         1.27709     966.121E-03        -1.97645     965.681E-03        -1.97601         1.27709     30.2123E-03     486.335E-03    -217.356E-03    -269.793E-03    -207.933E-03     476.912E-03    -269.793E-03     161.255E-03     37.3672E+06     30.9658E+06     7.40104E+06     16.4011E+06     22.4259E+06     36.9070E+06     10.6154E+06         64.5890
            1167     6.07235E-03     3.34346E-03         1.30445         1.05961        -2.09178         1.05918        -2.09135         1.30445     9.89140E-03     501.962E-03    -227.042E-03    -274.850E-03    -216.724E-03     491.643E-03    -274.850E-03     171.532E-03     38.5027E+06     31.7507E+06     12.2291E+06     18.3320E+06     26.1080E+06     38.0425E+06     8.20169E+06         64.8763
            1168     5.28676E-03     3.43513E-03         1.32793         1.12072        -2.17390         1.12049        -2.17367         1.32793     28.7103E-03     518.529E-03    -238.592E-03    -279.563E-03    -228.030E-03     507.967E-03    -279.563E-03     176.734E-03     37.9825E+06     32.1774E+06     15.9861E+06     20.1280E+06     28.0355E+06     37.9825E+06     6.17003E+06         65.5550
            1169     4.51066E-03     3.53876E-03         1.34853         1.18118        -2.25225         1.18086        -2.25194         1.34853     28.4493E-03     534.424E-03    -250.519E-03    -283.932E-03    -240.511E-03     524.417E-03    -283.932E-03     175.047E-03     36.1210E+06     31.8136E+06     17.0812E+06     20.8198E+06     28.0750E+06     36.1210E+06     5.46691E+06         66.3368
            1170     3.74347E-03     3.64436E-03         1.36376         1.25459        -2.33305         1.25416        -2.33261         1.36376     41.1419E-03     550.014E-03    -262.612E-03    -287.524E-03    -253.932E-03     541.334E-03    -287.524E-03     165.707E-03     32.8460E+06     29.1947E+06     17.0210E+06     19.8922E+06     26.3236E+06     32.8460E+06     4.51674E+06         67.0218
            1171     2.98701E-03     3.75097E-03         1.37204         1.30918        -2.38945         1.30859        -2.38886         1.37204     44.6136E-03     563.606E-03    -273.329E-03    -290.307E-03    -266.596E-03     556.873E-03    -290.307E-03     147.940E-03     30.4186E+06     27.4754E+06     16.8007E+06     20.0374E+06     24.7589E+06     29.8983E+06     3.96108E+06         67.5756
            1172     2.23645E-03     3.84618E-03         1.37661         1.33299        -2.41713         1.33247        -2.41661         1.37661     38.0599E-03     574.127E-03    -281.804E-03    -292.377E-03    -277.349E-03     569.672E-03    -292.377E-03     121.203E-03     25.8744E+06     24.3987E+06     15.5095E+06     18.7963E+06     21.6322E+06     25.3542E+06     3.91102E+06         67.9842
            1173     1.48877E-03     3.92840E-03         1.38037         1.35634        -2.44585         1.35577        -2.44528         1.38037     51.4069E-03     582.024E-03    -288.236E-03    -293.712E-03    -285.930E-03     579.718E-03    -293.712E-03     86.6945E-03     22.4746E+06     20.3261E+06     13.0555E+06     17.4245E+06     17.6562E+06     20.7755E+06     2.22923E+06         68.2431
            1174     742.668E-06     3.98038E-03         1.41558         1.34201        -2.47088         1.40876        -2.47047         1.34842     34.6519E-03     587.489E-03    -291.846E-03    -295.583E-03    -293.163E-03     586.677E-03    -293.455E-03     49.8179E-03     20.3539E+06     16.4815E+06     7.77872E+06     14.7643E+06     12.1563E+06     17.6935E+06     1.30085E+06         68.3800
            1175     13.1022E-03     2.05033E-03     956.570E-03    -34.9164E-03    -718.724E-03    -36.3988E-03    -717.242E-03     956.570E-03    -52.5315E-03     720.118E-03    -262.965E-03    -457.674E-03    -437.226E-03     699.670E-03    -262.965E-03     274.973E-03     105.353E+06     4.95519E+06    -158.999E+06     8.93146E+06    -63.3092E+06     5.68763E+06    -39.9221E+06         86.8118
            1176     12.4103E-03     1.77490E-03         1.02374     91.1549E-03    -910.759E-03     90.9832E-03    -910.587E-03         1.02374    -21.2842E-03     600.043E-03    -256.157E-03    -343.649E-03    -341.119E-03     597.513E-03    -256.157E-03     93.8091E-03     128.738E+06     6.53085E+06    -139.168E+06     37.1044E+06    -47.5344E+06     6.53085E+06     61.4328E+06         83.3522
            1177     11.6550E-03     1.63600E-03         1.08511     239.261E-03        -1.10352     239.231E-03        -1.10349         1.08511    -8.03622E-03     520.531E-03    -245.609E-03    -274.761E-03    -265.459E-03     519.150E-03    -253.530E-03     63.0488E-03     52.7450E+06    -22.3990E+06    -128.040E+06    -5.85564E+06    -75.7105E+06    -16.1281E+06     63.8509E+06         78.5833
            1178     10.8610E-03     1.55734E-03         1.14407     388.144E-03        -1.30284     388.089E-03        -1.30278         1.14407    -9.48562E-03     476.466E-03    -221.257E-03    -255.699E-03    -220.961E-03     474.805E-03    -254.334E-03     63.8749E-03     25.3712E+06    -8.85887E+06    -64.0495E+06    -3.47912E+06    -50.1903E+06     6.13234E+06     24.9222E+06         73.7584
            1179     10.0425E-03     1.53866E-03         1.20061     535.218E-03        -1.50048     534.071E-03        -1.49933         1.20061    -7.67217E-03     454.475E-03    -197.168E-03    -258.157E-03    -195.012E-03     452.319E-03    -258.157E-03     70.3546E-03     39.2287E+06     9.39919E+06    -31.5497E+06     8.85886E+06    -20.4309E+06     28.6502E+06     18.8777E+06         69.7658
            1180     9.20797E-03     1.54967E-03         1.25454     665.190E-03        -1.68277     663.647E-03        -1.68123         1.25454    -3.97183E-03     451.127E-03    -187.424E-03    -263.904E-03    -184.540E-03     448.244E-03    -263.904E-03     80.0471E-03     46.1442E+06     26.5984E+06    -3.25384E+06     17.8457E+06     5.49888E+06     46.1442E+06     10.8874E+06         66.8211
            1181     8.37263E-03     1.56494E-03         1.30556     794.974E-03        -1.85927     794.532E-03        -1.85883         1.30556    -5.07590E-03     459.103E-03    -187.829E-03    -271.136E-03    -184.172E-03     455.445E-03    -271.136E-03     89.6267E-03     47.6106E+06     29.0308E+06     12.9853E+06     22.3529E+06     19.6632E+06     47.6106E+06     5.79970E+06         65.0476
            1182     7.54503E-03     1.59802E-03         1.35221     932.826E-03        -2.03489     932.599E-03        -2.03466         1.35221    -20.8270E-03     474.108E-03    -194.737E-03    -279.691E-03    -190.518E-03     469.888E-03    -279.691E-03     97.3667E-03     46.2370E+06     29.9740E+06     19.1151E+06     24.0604E+06     25.0288E+06     46.2370E+06     3.84024E+06         64.3517
            1183     6.72385E-03     1.63832E-03         1.39314         1.05910        -2.19212         1.05870        -2.19172         1.39314    -53.8094E-03     495.024E-03    -206.760E-03    -288.677E-03    -202.154E-03     490.417E-03    -288.677E-03     103.794E-03     44.0037E+06     32.2457E+06     20.5996E+06     24.1409E+06     28.7044E+06     44.0037E+06     3.06314E+06         64.4939
            1184     5.91767E-03     1.68537E-03         1.42892         1.15627        -2.31926         1.15590        -2.31889         1.42892    -62.1637E-03     520.850E-03    -222.729E-03    -297.961E-03    -217.786E-03     515.907E-03    -297.961E-03     110.092E-03     41.1722E+06     33.3050E+06     21.5719E+06     23.8439E+06     31.0331E+06     41.1722E+06      1.3909E+06         65.4304
            1185     5.12282E-03     1.74338E-03         1.46146         1.23251        -2.42526         1.23195        -2.42470         1.46146    -34.1263E-03     548.819E-03    -240.922E-03    -307.257E-03    -235.910E-03     543.807E-03    -307.257E-03     113.591E-03     38.2789E+06     33.3900E+06     20.9455E+06     23.2476E+06     31.0878E+06     38.2789E+06     1.54815E+06         67.0605
            1186     4.34692E-03     1.80459E-03         1.49123         1.30947        -2.52501         1.30876        -2.52430         1.49123    -55.9212E-03     577.772E-03    -260.991E-03    -316.339E-03    -256.250E-03     573.032E-03    -316.339E-03     113.444E-03     35.9288E+06     32.5604E+06     19.6359E+06     22.3295E+06     30.5018E+06     35.2938E+06     877.034E+03         68.9676
            1187     3.58988E-03     1.86945E-03         1.51630         1.39072        -2.61985         1.39020        -2.61934         1.51630    -16.9995E-03     606.873E-03    -281.885E-03    -324.751E-03    -277.760E-03     602.748E-03    -324.751E-03     108.983E-03     33.2655E+06     29.4949E+06     18.0822E+06     21.2684E+06     28.2294E+06     31.3447E+06     1.29616E+06         70.8439
            1188     2.84762E-03     1.93100E-03         1.53565         1.45561        -2.69412         1.45516        -2.69367         1.53565     22.7948E-03     634.160E-03    -301.753E-03    -332.202E-03    -298.512E-03     630.919E-03    -332.202E-03     98.9507E-03     30.4691E+06     26.1026E+06     16.9815E+06     19.9448E+06     26.3080E+06     27.3005E+06     1.15052E+06         72.5864
            1189     2.12043E-03     1.99240E-03         1.55023         1.50321        -2.75432         1.50270        -2.75381         1.55023     16.1477E-03     658.330E-03    -319.567E-03    -338.362E-03    -317.377E-03     656.141E-03    -338.362E-03     82.5976E-03     26.7252E+06     23.4541E+06     16.2133E+06     19.2552E+06     23.3169E+06     23.8205E+06     986.842E+03         74.0410
            1190     1.40674E-03     2.03956E-03         1.55939         1.54145        -2.80488         1.54114        -2.80457         1.55939     5.45439E-03     677.164E-03    -333.983E-03    -342.864E-03    -332.831E-03     676.012E-03    -342.864E-03     60.4015E-03     23.5722E+06     20.1203E+06     14.7374E+06     17.7920E+06     20.1513E+06     20.4866E+06     1.78644E+06         75.0603
            1191     702.564E-06     2.07815E-03         1.57682         1.54468        -2.83075         1.56663        -2.83028         1.55440     35.6349E-03     689.112E-03    -341.646E-03    -347.418E-03    -341.905E-03     688.693E-03    -346.740E-03     36.2742E-03     22.3104E+06     16.8827E+06     10.3545E+06     16.4880E+06     16.1768E+06     16.8827E+06     1.22651E+06         75.6458
            1192     774.394E-06     92.7638E-03         2.25574         2.14420        -5.01392         2.15015        -5.00999         2.24586     216.394E-03     509.819E-03    -253.962E-03    -255.883E-03    -254.800E-03     509.817E-03    -255.043E-03    -1.92017E-03    -106.160E+06    -109.935E+06    -180.705E+06    -110.102E+06    -180.537E+06    -106.160E+06    -1.17376E+06         62.5309
            1193     1.55051E-03     92.7475E-03         2.19885         2.16179        -4.97133         2.17085        -4.97052         2.18898     45.0889E-03     509.423E-03    -254.618E-03    -255.074E-03    -254.712E-03     509.422E-03    -254.978E-03    -1.59541E-03    -96.9402E+06    -106.205E+06    -157.903E+06    -106.253E+06    -157.855E+06    -96.9402E+06    -1.22344E+06         62.8276
            1194     2.32682E-03     92.7266E-03         2.18426         2.09049        -4.87763         2.10483        -4.87654         2.16884     125.790E-03     509.553E-03    -254.564E-03    -255.184E-03    -254.696E-03     509.547E-03    -255.047E-03     2.20792E-03    -80.3695E+06    -100.343E+06    -124.995E+06    -100.445E+06    -124.893E+06    -80.3695E+06     554.999E+03         63.3033
            1195     3.09983E-03     92.7077E-03         2.16104         2.06053        -4.82148         2.07557        -4.82109         2.14561     76.1518E-03     509.230E-03    -253.957E-03    -255.500E-03    -254.022E-03     509.198E-03    -255.403E-03     8.99460E-03    -59.1145E+06    -85.8805E+06    -98.1951E+06    -93.1275E+06    -90.9480E+06    -59.1145E+06     972.622E+03         63.9017
            1196     3.87325E-03     92.6953E-03         2.12611         2.03719        -4.76570         2.03713        -4.76564         2.12611     15.7248E-03     508.177E-03    -252.935E-03    -255.553E-03    -252.794E-03     508.037E-03    -255.553E-03     19.5044E-03    -35.3825E+06    -66.6385E+06    -83.9964E+06    -83.9214E+06    -66.7136E+06    -35.3825E+06     877.081E+03         64.6434
            1197     4.64975E-03     92.6974E-03         2.10527         1.95912        -4.66799         1.95910        -4.66797         2.10527     11.9098E-03     507.476E-03    -252.019E-03    -255.644E-03    -251.620E-03     507.076E-03    -255.644E-03     33.9252E-03    -13.9273E+06    -52.2258E+06    -73.9385E+06    -73.8866E+06    -52.2778E+06    -13.9273E+06     709.710E+03         65.6270
            1198     5.42359E-03     92.7122E-03         2.07990         1.86078        -4.54456         1.86056        -4.54434         2.07990    -31.9562E-03     506.235E-03    -251.361E-03    -255.515E-03    -250.463E-03     505.338E-03    -255.515E-03     51.2100E-03     2.29362E+06    -40.6932E+06    -64.3138E+06    -64.2355E+06    -40.7715E+06     2.29362E+06     367.788E+03         66.8215
            1199     6.20173E-03     92.7411E-03         2.05152         1.76335        -4.41493         1.76305        -4.41463         2.05152    -51.9227E-03     505.132E-03    -251.137E-03    -255.209E-03    -249.485E-03     503.480E-03    -255.209E-03     69.9844E-03     14.7554E+06    -30.2756E+06    -54.5744E+06    -54.4832E+06    -30.3668E+06     14.7554E+06     292.772E+03         68.1432
            1200     6.97957E-03     92.8002E-03         2.02437         1.67539        -4.29587         1.67522        -4.29570         2.02437    -37.6001E-03     505.632E-03    -251.709E-03    -255.014E-03    -248.859E-03     502.782E-03    -255.014E-03     91.8827E-03     23.9892E+06    -21.9263E+06    -46.6319E+06    -46.6128E+06    -21.9454E+06     23.9892E+06     267.297E+03         69.5285
            1201     7.74888E-03     92.9225E-03         2.00202         1.58826        -4.18716         1.58812        -4.18701         2.00202    -47.1477E-03     506.500E-03    -252.150E-03    -254.790E-03    -247.583E-03     501.933E-03    -254.790E-03     116.668E-03     32.5491E+06    -14.4256E+06    -39.6724E+06    -39.6570E+06    -14.4411E+06     32.5491E+06     443.741E+03         70.8132
            1202     8.51996E-03     93.1018E-03         1.98181         1.47957        -4.06048         1.47912        -4.06003         1.98181    -37.0676E-03     507.353E-03    -252.357E-03    -254.703E-03    -245.742E-03     500.738E-03    -254.703E-03     140.606E-03     40.6867E+06    -6.93606E+06    -32.4109E+06    -32.3952E+06    -6.95180E+06     40.6867E+06     444.150E+03         71.8234
            1203     9.30386E-03     93.2752E-03         1.95854         1.34778        -3.90897         1.34728        -3.90847         1.95854    -1.43580E-03     508.822E-03    -253.659E-03    -255.124E-03    -245.287E-03     499.984E-03    -254.658E-03     162.948E-03     46.3278E+06    -341.082E+03    -26.0145E+06    -26.0005E+06    -355.062E+03     46.3278E+06     407.611E+03         72.6674
            1204     10.0796E-03     93.4852E-03         1.93260         1.22372        -3.76308         1.22356        -3.76292         1.93260    -260.218E-06     510.953E-03    -254.813E-03    -256.616E-03    -246.511E-03     500.848E-03    -254.813E-03     174.962E-03     47.3187E+06     4.02806E+06    -20.8695E+06    -20.8533E+06     4.01190E+06     47.3187E+06     444.493E+03         73.6162
            1205     10.8547E-03     93.7312E-03         1.90719         1.10503        -3.62216         1.10488        -3.62201         1.90719     12.5400E-03     517.365E-03    -254.400E-03    -261.597E-03    -248.979E-03     504.746E-03    -254.400E-03     195.866E-03     48.3501E+06     8.14218E+06    -15.8384E+06    -15.8173E+06     8.12108E+06     48.3501E+06     414.606E+03         74.8677
            1206     11.6253E-03     94.0662E-03         1.87883     962.574E-03        -3.45737     962.445E-03        -3.45724         1.87883     24.0968E-03     519.128E-03    -254.140E-03    -263.700E-03    -251.013E-03     506.441E-03    -254.140E-03     196.899E-03     52.2858E+06     12.3971E+06    -10.8395E+06    -10.8189E+06     12.3765E+06     52.2858E+06     411.308E+03         76.6754
            1207     12.4044E-03     94.2897E-03         1.84597     799.942E-03        -3.26799     799.872E-03        -3.26792         1.84597     14.1028E-03     531.677E-03    -254.958E-03    -275.808E-03    -256.642E-03     512.512E-03    -254.958E-03     239.655E-03     55.1622E+06     15.9243E+06    -7.22247E+06    -7.17527E+06     15.8771E+06     55.1622E+06     81.2226E+03         79.1557
            1208     13.1790E-03     94.7665E-03         1.80850     620.333E-03        -3.05420     620.006E-03        -3.05388         1.80850    -18.2920E-03     530.925E-03    -254.797E-03    -274.844E-03    -258.223E-03     514.304E-03    -254.797E-03     214.204E-03     59.2711E+06     18.2991E+06    -3.79158E+06    -3.70435E+06     18.2119E+06     59.2711E+06     66.3768E+03         81.8488
            1209     774.611E-06     94.4284E-03         2.55271         2.44403        -5.61949         2.44090        -5.61578         2.55213     164.622E-03     511.942E-03    -254.704E-03    -257.308E-03    -256.819E-03     511.939E-03    -255.190E-03    -2.33260E-03    -105.696E+06    -111.293E+06    -179.740E+06    -109.538E+06    -179.611E+06    -107.580E+06     680.889E+03         62.5720
            1210     1.54889E-03     94.4093E-03         2.47864         2.41125        -5.50249         2.41037        -5.50104         2.47806     56.3692E-03     510.451E-03    -254.860E-03    -255.863E-03    -254.858E-03     510.449E-03    -255.863E-03    -1.23849E-03    -94.6612E+06    -106.301E+06    -157.245E+06    -106.366E+06    -157.180E+06    -94.6612E+06     285.088E+03         62.8363
            1211     2.32246E-03     94.3850E-03         2.43896         2.32059        -5.36980         2.31953        -5.36873         2.43896     126.385E-03     509.180E-03    -253.864E-03    -255.527E-03    -253.860E-03     509.176E-03    -255.527E-03     2.26930E-03    -79.6099E+06    -101.053E+06    -128.413E+06    -101.101E+06    -128.365E+06    -79.6099E+06     680.024E+03         63.2787
            1212     3.09952E-03     94.3639E-03         2.39801         2.24728        -5.25239         2.24714        -5.25225         2.39801     24.7324E-03     508.445E-03    -253.120E-03    -255.502E-03    -253.088E-03     508.413E-03    -255.502E-03     8.74319E-03    -58.6963E+06    -85.9561E+06    -97.6559E+06    -92.6760E+06     -90.936E+06    -58.6963E+06     809.122E+03         63.8544
            1213     3.87599E-03     94.3520E-03         2.36104         2.19287        -5.16164         2.19274        -5.16151         2.36104     40.9464E-03     508.137E-03    -252.849E-03    -255.521E-03    -252.719E-03     508.006E-03    -255.521E-03     18.9927E-03    -34.2233E+06    -66.4426E+06    -83.4921E+06    -83.4132E+06    -66.5215E+06    -34.2233E+06     817.481E+03         64.5838
            1214     4.65002E-03     94.3530E-03         2.32890         2.14352        -5.08204         2.14341        -5.08194         2.32890     46.4720E-03     507.386E-03    -251.859E-03    -255.609E-03    -251.495E-03     507.023E-03    -255.609E-03     32.2678E-03    -13.0541E+06    -52.0302E+06    -73.9508E+06    -73.8986E+06    -52.0824E+06    -13.0541E+06     578.282E+03         65.5656
            1215     5.42697E-03     94.3670E-03         2.30016         2.08849        -4.99690         2.08838        -4.99679         2.30016     34.7596E-03     506.722E-03    -251.551E-03    -255.497E-03    -250.759E-03     505.930E-03    -255.497E-03     48.2005E-03     3.19750E+06    -40.2165E+06    -64.0736E+06    -64.0331E+06    -40.2570E+06     3.19750E+06     24.6769E+03         66.7696
            1216     6.20089E-03     94.3986E-03         2.27250         2.00551        -4.88504         2.00538        -4.88491         2.27250     39.1335E-03     506.237E-03    -251.948E-03    -255.269E-03    -250.356E-03     504.646E-03    -255.269E-03     68.3280E-03     13.3447E+06    -31.3931E+06    -55.8111E+06    -55.7593E+06    -31.4449E+06     13.3447E+06     146.605E+03         68.1029
            1217     6.97393E-03     94.4650E-03         2.24454         1.89840        -4.74865         1.89798        -4.74822         2.24454     59.0710E-03     505.683E-03    -251.459E-03    -255.121E-03    -248.479E-03     502.703E-03    -255.121E-03     93.7400E-03     23.2518E+06    -22.4757E+06    -47.0894E+06    -47.0658E+06    -22.4993E+06     23.2518E+06     580.913E+03         69.4942
            1218     7.75096E-03     94.5741E-03         2.21578         1.75774        -4.57914         1.75699        -4.57838         2.21578     82.3040E-03     505.925E-03    -251.037E-03    -254.760E-03    -246.180E-03     501.068E-03    -254.760E-03     120.168E-03     33.4498E+06    -13.7244E+06    -39.2358E+06    -39.2130E+06    -13.7472E+06     33.4498E+06     555.602E+03         70.7852
            1219     8.52427E-03     94.7512E-03         2.18346         1.59568        -4.38746         1.59514        -4.38693         2.18346     93.2205E-03     507.285E-03    -251.909E-03    -254.668E-03    -245.198E-03     500.455E-03    -254.548E-03     143.025E-03     40.5759E+06    -6.54349E+06    -32.7078E+06    -32.6799E+06    -6.57135E+06     40.5759E+06     610.705E+03         71.8138
            1220     9.30310E-03     94.9246E-03         2.14557         1.44112        -4.19812         1.44081        -4.19781         2.14557     82.3508E-03     509.542E-03    -253.697E-03    -255.868E-03    -246.330E-03     500.891E-03    -254.584E-03     161.530E-03     45.8287E+06    -281.932E+03    -26.5364E+06    -26.5094E+06    -308.912E+03     45.8287E+06     553.201E+03         72.6820
            1221     10.0817E-03     95.1478E-03         2.10401         1.29958        -4.01635         1.29933        -4.01611         2.10401     13.1632E-03     511.747E-03    -254.837E-03    -257.862E-03    -248.067E-03     501.952E-03    -254.837E-03     172.520E-03     47.9247E+06     4.75376E+06    -20.3137E+06    -20.2992E+06     4.73931E+06     47.9247E+06     290.322E+03         73.6392
            1222     10.8504E-03     95.3899E-03         2.06112         1.16173        -3.83945         1.16152        -3.83925         2.06112     2.58830E-03     517.127E-03    -254.457E-03    -262.061E-03    -249.586E-03     504.651E-03    -254.457E-03     194.746E-03     49.1633E+06     8.82944E+06    -15.1852E+06    -15.1673E+06     8.81150E+06     49.1633E+06     335.920E+03         74.8792
            1223     11.6232E-03     95.7277E-03         2.01459         1.01320        -3.64801         1.01299        -3.64780         2.01459     11.2247E-03     518.433E-03    -254.195E-03    -263.289E-03    -250.571E-03     505.715E-03    -254.195E-03     197.095E-03     51.6391E+06     11.7844E+06    -11.5365E+06    -11.5165E+06     11.7644E+06     51.6391E+06     355.593E+03         76.6655
            1224     12.4027E-03     95.9522E-03         1.96223     838.222E-03        -3.42448     838.106E-03        -3.42436         1.96223    -23.5322E-03     531.021E-03    -254.969E-03    -275.017E-03    -255.548E-03     511.551E-03    -254.969E-03     241.273E-03     55.8375E+06     16.3176E+06    -7.38852E+06    -7.31884E+06     16.2479E+06     55.8375E+06     200.611E+03         79.1289
            1225     13.1799E-03     96.4269E-03         1.90361     639.789E-03        -3.16935     639.449E-03        -3.16901         1.90361    -50.0389E-03     530.578E-03    -254.763E-03    -274.533E-03    -257.673E-03     513.718E-03    -254.763E-03     215.441E-03     60.5390E+06     19.0047E+06    -3.86486E+06    -3.75916E+06     18.8990E+06     60.5390E+06     276.680E+03         81.8222
            1226     772.886E-06     96.0956E-03         2.60703         2.50420        -5.72171         2.54950        -5.71543         2.55546     196.145E-03     512.496E-03    -255.234E-03    -257.329E-03    -257.076E-03     512.493E-03    -255.484E-03    -1.79283E-03    -109.839E+06    -115.114E+06    -182.035E+06    -113.275E+06    -181.990E+06    -111.723E+06     599.729E+03         62.6301
            1227     1.54786E-03     96.0696E-03         2.58682         2.51171        -5.71122         2.54578        -5.71012         2.55164    -6.68294E-03     511.074E-03    -255.054E-03    -256.283E-03    -255.169E-03     511.072E-03    -256.166E-03    -457.043E-06    -97.9574E+06    -108.618E+06    -157.695E+06    -108.655E+06    -157.657E+06    -97.9574E+06     784.888E+03         62.8890
            1228     2.32463E-03     96.0427E-03         2.58396         2.50859        -5.70463         2.54310        -5.70410         2.54892     90.1527E-03     509.312E-03    -253.697E-03    -255.808E-03    -253.694E-03     509.309E-03    -255.808E-03     2.25424E-03    -79.0838E+06    -101.354E+06    -128.015E+06    -101.416E+06    -127.953E+06    -79.0838E+06     230.995E+03         63.3169
            1229     3.09981E-03     96.0174E-03         2.55462         2.46622        -5.63385         2.48091        -5.63377         2.53986     14.5053E-03     508.753E-03    -253.182E-03    -255.708E-03    -253.153E-03     508.724E-03    -255.708E-03     8.24484E-03    -58.0970E+06    -86.3644E+06    -98.6856E+06    -93.3152E+06    -91.7348E+06    -58.0970E+06     372.211E+03         63.8767
            1230     3.87384E-03     96.0080E-03         2.51874         2.38713        -5.51866         2.38697        -5.51850         2.51874     58.6383E-03     508.664E-03    -253.161E-03    -255.706E-03    -253.052E-03     508.555E-03    -255.706E-03     17.5622E-03    -34.3383E+06    -66.5954E+06    -83.5444E+06    -83.5204E+06    -66.6194E+06    -34.3383E+06     407.133E+03         64.5955
            1231     4.64907E-03     96.0045E-03         2.49034         2.30635        -5.40668         2.30619        -5.40652         2.49034     68.9388E-03     508.117E-03    -252.420E-03    -255.819E-03    -252.092E-03     507.789E-03    -255.819E-03     30.5152E-03    -13.1266E+06    -51.9283E+06    -73.5139E+06    -73.4705E+06    -51.9717E+06    -13.1266E+06     599.026E+03         65.5676
            1232     5.42208E-03     96.0214E-03         2.46005         2.23299        -5.30270         2.23288        -5.30259         2.46005     56.8197E-03     506.836E-03    -251.429E-03    -255.726E-03    -250.618E-03     506.025E-03    -255.726E-03     48.4144E-03     2.02165E+06    -40.8759E+06    -64.2707E+06    -64.2205E+06    -40.9260E+06     2.02165E+06     948.102E+03         66.7620
            1233     6.19696E-03     96.0573E-03         2.42849         2.14117        -5.17890         2.14099        -5.17872         2.42849     70.1623E-03     504.971E-03    -250.654E-03    -255.379E-03    -248.971E-03     503.288E-03    -255.379E-03     70.1283E-03     13.2616E+06    -31.2449E+06    -55.3928E+06    -55.3531E+06    -31.2846E+06     13.2616E+06     843.395E+03         68.0960
            1234     6.97889E-03     96.1153E-03         2.39355         2.00864        -5.01294         2.00819        -5.01249         2.39355     80.8587E-03     504.102E-03    -250.024E-03    -255.034E-03    -246.988E-03     501.066E-03    -255.034E-03     94.6198E-03     24.0357E+06    -21.9551E+06    -47.1489E+06    -47.1176E+06    -21.9864E+06     24.0357E+06     473.986E+03         69.5019
            1235     7.75554E-03     96.2350E-03         2.35353         1.84739        -4.81536         1.84662        -4.81458         2.35353     111.293E-03     505.527E-03    -251.026E-03    -254.597E-03    -246.379E-03     500.880E-03    -254.597E-03     117.728E-03     33.9256E+06    -13.4888E+06    -39.5584E+06    -39.5479E+06    -13.4994E+06     33.9256E+06     89.1437E+03         70.8173
            1236     8.52580E-03     96.4059E-03         2.30758         1.67660        -4.60229         1.67608        -4.60177         2.30758     86.3820E-03     508.092E-03    -253.374E-03    -254.659E-03    -246.994E-03     501.593E-03    -254.540E-03     139.624E-03     41.1434E+06    -6.20947E+06    -32.6396E+06    -32.6212E+06    -6.22784E+06     41.1434E+06     112.224E+03         71.8614
            1237     9.30279E-03     96.5998E-03         2.25621         1.52152        -4.39774         1.52140        -4.39762         2.25621     33.6263E-03     510.700E-03    -254.662E-03    -256.491E-03    -247.918E-03     502.173E-03    -254.707E-03     160.586E-03     46.2995E+06     406.005E+03    -25.9562E+06    -25.9367E+06     386.486E+03     46.2995E+06     118.806E+03         72.7173
            1238     10.0748E-03     96.8048E-03         2.20091         1.36101        -4.18337         1.36089        -4.18325         2.20091    -5.64393E-03     511.731E-03    -254.917E-03    -257.907E-03    -248.021E-03     501.845E-03    -254.917E-03     173.283E-03     47.3989E+06     4.70873E+06    -20.6026E+06    -20.5919E+06     4.69805E+06     47.3989E+06     286.304E+03         73.6484
            1239     10.8507E-03     97.0599E-03         2.14126         1.17408        -3.93799         1.17397        -3.93789         2.14126    -25.0085E-03     515.879E-03    -254.480E-03    -261.220E-03    -248.482E-03     503.141E-03    -254.480E-03     196.453E-03     48.0070E+06     7.89421E+06    -16.4420E+06    -16.4154E+06     7.86757E+06     48.0070E+06     626.739E+03         74.8712
            1240     11.6231E-03     97.3858E-03         2.07558     984.577E-03        -3.68616     984.426E-03        -3.68600         2.07558    -36.2593E-03     517.643E-03    -254.178E-03    -262.980E-03    -249.922E-03     504.585E-03    -254.178E-03     199.561E-03     51.8459E+06     12.0361E+06    -11.7124E+06    -11.6839E+06     12.0076E+06     51.8459E+06     538.616E+03         76.6497
            1241     12.4050E-03     97.6154E-03         2.00317     794.073E-03        -3.42631     793.894E-03        -3.42614         2.00317    -31.9018E-03     531.377E-03    -254.925E-03    -275.588E-03    -255.887E-03     511.676E-03    -254.925E-03     243.200E-03     56.2477E+06     16.6108E+06    -7.62574E+06    -7.55851E+06     16.5436E+06     56.2477E+06     430.512E+03         79.1121
            1242     13.1811E-03     98.0872E-03         1.92539     608.666E-03        -3.16670     608.353E-03        -3.16639         1.92539    -40.1403E-03     531.008E-03    -254.718E-03    -275.080E-03    -258.213E-03     514.141E-03    -254.718E-03     215.297E-03     60.6578E+06     19.4207E+06    -3.73901E+06    -3.66234E+06     19.3440E+06     60.6578E+06     248.943E+03         81.8126
            1243     776.205E-06     97.7665E-03         2.65508         2.54094        -5.79940         2.64977        -5.79409         2.54094     207.722E-03     511.725E-03    -255.262E-03    -256.515E-03    -256.337E-03     511.723E-03    -255.438E-03    -1.29965E-03    -106.864E+06    -111.475E+06    -181.956E+06    -110.539E+06    -181.924E+06    -107.832E+06    -283.132E+03         62.6831
            1244     1.54855E-03     97.7415E-03         2.65083         2.59316        -5.85078         2.63972        -5.84900         2.60249     92.2390E-03     511.118E-03    -255.282E-03    -256.055E-03    -255.409E-03     511.117E-03    -255.926E-03    -869.220E-06    -96.9543E+06    -106.427E+06    -157.755E+06    -106.435E+06    -157.747E+06    -96.9543E+06    -273.271E+03         62.9624
            1245     2.32268E-03     97.7045E-03         2.64495         2.57627        -5.83401         2.60954        -5.83224         2.60991     204.302E-03     510.335E-03    -254.595E-03    -255.850E-03    -254.601E-03     510.330E-03    -255.839E-03     2.14195E-03    -79.5806E+06    -99.8535E+06    -126.937E+06    -99.8778E+06    -126.913E+06    -79.5806E+06    -511.256E+03         63.4011
            1246     3.09742E-03     97.6834E-03         2.61969         2.55919        -5.79208         2.57353        -5.79166         2.60493     108.374E-03     509.680E-03    -253.851E-03    -255.948E-03    -253.820E-03     509.649E-03    -255.948E-03     8.75652E-03    -58.3524E+06    -85.7459E+06    -99.5579E+06    -92.4562E+06    -92.8477E+06    -58.3524E+06     133.265E+03         63.9587
            1247     3.87279E-03     97.6666E-03         2.59288         2.51548        -5.72020         2.51517        -5.71989         2.59288     96.8226E-03     508.889E-03    -253.134E-03    -255.985E-03    -253.003E-03     508.758E-03    -255.985E-03     18.9203E-03    -35.0498E+06    -66.8004E+06    -83.8305E+06    -83.7622E+06    -66.8687E+06    -35.0498E+06     1.00963E+06         64.6756
            1248     4.64645E-03     97.6671E-03         2.57147         2.40813        -5.59010         2.40794        -5.58991         2.57147     77.1819E-03     508.053E-03    -252.167E-03    -256.016E-03    -251.798E-03     507.684E-03    -256.016E-03     32.5927E-03    -13.7153E+06    -52.3827E+06    -74.2754E+06    -74.1873E+06    -52.4709E+06    -13.7153E+06     1.05771E+06         65.6451
            1249     5.42249E-03     97.6800E-03         2.53851         2.26459        -5.41116         2.26449        -5.41105         2.53851     42.9034E-03     506.339E-03    -251.103E-03    -255.830E-03    -250.250E-03     505.486E-03    -255.830E-03     49.7711E-03     1.69755E+06    -41.2252E+06    -64.4972E+06    -64.4488E+06    -41.2735E+06     1.69755E+06     761.718E+03         66.8314
            1250     6.20232E-03     97.7140E-03         2.49565         2.11887        -5.22391         2.11878        -5.22382         2.49565     26.7487E-03     504.658E-03    -250.469E-03    -255.432E-03    -248.884E-03     503.073E-03    -255.432E-03     68.4016E-03     13.9000E+06    -30.4197E+06    -54.5534E+06    -54.5158E+06    -30.4572E+06     13.9000E+06     715.291E+03         68.1578
            1251     6.97784E-03     97.7763E-03         2.44608         1.97929        -5.03834         1.97914        -5.03819         2.44608     37.2819E-03     504.344E-03    -250.433E-03    -255.118E-03    -247.661E-03     501.572E-03    -255.118E-03     90.3259E-03     24.4637E+06    -21.2780E+06    -46.4949E+06    -46.4550E+06    -21.3179E+06     24.4637E+06     480.801E+03         69.5580
            1252     7.75235E-03     97.9010E-03         2.39215         1.84731        -4.85691         1.84718        -4.85677         2.39215     42.4773E-03     505.618E-03    -251.508E-03    -254.715E-03    -247.040E-03     501.150E-03    -254.715E-03     115.355E-03     34.3202E+06    -13.4520E+06    -39.5092E+06    -39.4786E+06    -13.4826E+06     34.3202E+06     479.331E+03         70.8652
            1253     8.52142E-03     98.0715E-03         2.33554         1.72703        -4.68419         1.72696        -4.68412         2.33554     29.3155E-03     507.823E-03    -253.195E-03    -254.661E-03    -246.655E-03     501.283E-03    -254.661E-03     139.899E-03     41.8512E+06    -5.99362E+06    -32.5534E+06    -32.5300E+06    -6.01700E+06     41.8512E+06     314.878E+03         71.8872
            1254     9.29909E-03     98.2612E-03         2.27569         1.57183        -4.47199         1.57181        -4.47198         2.27569     9.83758E-03     509.889E-03    -254.349E-03    -255.858E-03    -246.608E-03     501.029E-03    -254.738E-03     163.358E-03     45.4592E+06    -437.199E+03    -26.9862E+06    -26.9562E+06    -467.195E+03     45.4592E+06     427.454E+03         72.7148
            1255     10.0794E-03     98.4714E-03         2.20997         1.37604        -4.21132         1.37602        -4.21130         2.20997    -2.82933E-03     511.035E-03    -254.825E-03    -257.420E-03    -247.121E-03     500.735E-03    -254.825E-03     176.706E-03     47.0359E+06     4.12265E+06    -21.5910E+06    -21.5614E+06     4.09297E+06     47.0359E+06     741.741E+03         73.6368
            1256     10.8509E-03     98.7185E-03         2.13642         1.16846        -3.93291         1.16842        -3.93286         2.13642    -27.3626E-03     515.485E-03    -254.344E-03    -261.296E-03    -248.346E-03     502.535E-03    -254.344E-03     198.126E-03     48.5217E+06     8.26218E+06    -16.8269E+06    -16.8083E+06     8.24353E+06     48.5217E+06     584.282E+03         74.8649
            1257     11.6281E-03     99.0491E-03         2.05607     964.562E-03        -3.65123     964.349E-03        -3.65101         2.05607    -56.2694E-03     517.646E-03    -254.068E-03    -263.263E-03    -250.224E-03     504.607E-03    -254.068E-03     199.351E-03     51.5896E+06     12.1534E+06    -12.1107E+06    -12.0911E+06     12.1338E+06     51.5896E+06     418.736E+03         76.6507
            1258     12.4063E-03     99.2778E-03         1.96949     779.174E-03        -3.37956     778.930E-03        -3.37932         1.96949    -38.9823E-03     531.951E-03    -254.860E-03    -276.289E-03    -256.692E-03     512.353E-03    -254.860E-03     242.627E-03     56.0360E+06     17.2439E+06    -7.17707E+06    -7.14399E+06     17.2108E+06     56.0360E+06     124.965E+03         79.1194
            1259     13.1793E-03     99.7516E-03         1.87844     602.547E-03        -3.10952     602.137E-03        -3.10912         1.87844    -50.1237E-03     530.946E-03    -254.683E-03    -275.120E-03    -258.318E-03     514.145E-03    -254.683E-03     214.787E-03     60.8063E+06     20.2426E+06    -3.25961E+06    -3.22044E+06     20.2034E+06     60.8063E+06     13.1247E+03         81.8211
            1260     772.511E-06     99.4346E-03         2.73558         2.56823        -5.90698         2.70286        -5.90553         2.59949     39.2021E-03     511.162E-03    -254.760E-03    -256.459E-03    -256.104E-03     511.160E-03    -255.113E-03    -1.47904E-03    -103.352E+06    -108.065E+06    -180.201E+06    -107.178E+06    -180.120E+06    -104.320E+06     416.556E+03         62.7138
            1261     1.54996E-03     99.4096E-03         2.65187         2.57536        -5.83317         2.58664        -5.83129         2.63871    -218.455E-06     510.897E-03    -255.337E-03    -255.732E-03    -255.348E-03     510.896E-03    -255.720E-03    -699.220E-06    -94.3545E+06    -103.995E+06    -156.784E+06    -104.044E+06    -156.735E+06    -94.3545E+06     477.799E+03         63.0183
            1262     2.32402E-03     99.3758E-03         2.61528         2.54777        -5.77074         2.54601        -5.76897         2.61528     82.4480E-03     510.914E-03    -255.245E-03    -255.776E-03    -255.251E-03     510.909E-03    -255.765E-03     2.73384E-03    -78.7389E+06    -99.3729E+06    -128.986E+06    -99.4870E+06    -128.872E+06    -78.7389E+06     986.050E+03         63.4727
            1263     3.09817E-03     99.3486E-03         2.59375         2.50521        -5.70984         2.50458        -5.70921         2.59375     14.7211E-03     509.931E-03    -254.091E-03    -255.976E-03    -254.056E-03     509.897E-03    -255.976E-03     9.24925E-03    -58.0661E+06    -86.2648E+06    -101.034E+06    -92.6530E+06    -94.6457E+06    -58.0661E+06     1.37592E+06         64.0338
            1264     3.87239E-03     99.3324E-03         2.56978         2.43456        -5.61574         2.43422        -5.61540         2.56978     57.3538E-03     508.712E-03    -252.923E-03    -256.044E-03    -252.782E-03     508.572E-03    -256.044E-03     19.6961E-03    -34.9444E+06    -67.0347E+06    -84.3182E+06    -84.1364E+06    -67.2165E+06    -34.9444E+06     1.17362E+06         64.7606
            1265     4.64867E-03     99.3290E-03         2.53916         2.33426        -5.48174         2.33409        -5.48156         2.53916     52.3766E-03     507.936E-03    -252.115E-03    -256.045E-03    -251.755E-03     507.575E-03    -256.045E-03     32.4017E-03    -13.4176E+06    -51.4589E+06    -74.0152E+06    -73.9476E+06    -51.5265E+06    -13.4176E+06     623.364E+03         65.7383
            1266     5.42367E-03     99.3421E-03         2.50020         2.20785        -5.31759         2.20776        -5.31751         2.50020     12.6337E-03     507.118E-03    -251.666E-03    -255.894E-03    -250.874E-03     506.327E-03    -255.894E-03     48.0758E-03     3.12217E+06    -39.6198E+06    -63.7020E+06    -63.6733E+06    -39.6486E+06     3.12217E+06     285.530E+03         66.9241
            1267     6.19556E-03     99.3781E-03         2.45271         2.06482        -5.12890         2.06482        -5.12889         2.45271    -1.50333E-03     505.590E-03    -251.133E-03    -255.596E-03    -249.596E-03     504.053E-03    -255.596E-03     67.2894E-03     13.4267E+06    -30.9819E+06    -55.2465E+06    -55.2211E+06    -31.0074E+06     13.4267E+06     271.714E+03         68.2380
            1268     6.97332E-03     99.4422E-03         2.39809         1.92868        -4.94051         1.92859        -4.94042         2.39809     30.2202E-03     504.575E-03    -250.346E-03    -255.329E-03    -247.482E-03     501.711E-03    -255.329E-03     91.5972E-03     22.7194E+06    -22.6198E+06    -46.9818E+06    -46.9146E+06    -22.6870E+06     22.7194E+06     1.00273E+06         69.6116
            1269     7.74926E-03     99.5632E-03         2.33855         1.80695        -4.76202         1.80684        -4.76191         2.33855     28.8910E-03     505.361E-03    -250.401E-03    -254.829E-03    -245.647E-03     500.608E-03    -254.829E-03     118.776E-03     33.0144E+06    -13.5828E+06    -39.1256E+06    -39.0464E+06    -13.6621E+06     33.0144E+06     1.38417E+06         70.8881
            1270     8.52405E-03     99.7363E-03         2.27460         1.66732        -4.56034         1.66728        -4.56030         2.27460     13.3789E-03     507.252E-03    -251.875E-03    -254.566E-03    -245.031E-03     500.408E-03    -254.566E-03     143.062E-03     41.4097E+06    -6.14017E+06    -32.8423E+06    -32.7427E+06    -6.23977E+06     41.4097E+06     1.46486E+06         71.8857
            1271     9.30386E-03     99.9249E-03         2.20484         1.49730        -4.32187         1.49727        -4.32183         2.20484     15.5142E-03     509.142E-03    -253.756E-03    -255.320E-03    -245.573E-03     500.200E-03    -254.561E-03     164.021E-03     46.6970E+06    -4.00529E+03    -27.1151E+06    -27.0096E+06    -109.512E+03     46.6970E+06     1.53494E+06         72.7042
            1272     10.0817E-03     100.135E-03         2.12834         1.31860        -4.06937         1.31851        -4.06928         2.12834    -28.4568E-03     510.507E-03    -254.657E-03    -256.718E-03    -246.538E-03     500.327E-03    -254.657E-03     175.550E-03     47.5738E+06     4.44280E+06    -21.6592E+06    -21.6212E+06     4.40486E+06     47.5738E+06     894.693E+03         73.6344
            1273     10.8571E-03     100.388E-03         2.04459         1.14486        -3.81534         1.14476        -3.81523         2.04459    -41.0619E-03     515.981E-03    -254.178E-03    -261.411E-03    -248.684E-03     503.254E-03    -254.178E-03     196.535E-03     48.9099E+06     9.12919E+06    -16.2061E+06    -16.1751E+06     9.09814E+06     48.9099E+06     76.2443E+03         74.8742
            1274     11.6258E-03     100.709E-03         1.95612     964.615E-03        -3.54693     964.451E-03        -3.54677         1.95612    -41.8793E-03     518.739E-03    -253.971E-03    -264.145E-03    -251.207E-03     505.801E-03    -253.971E-03     198.944E-03     52.0639E+06     13.3364E+06    -11.3144E+06    -11.2848E+06     13.3069E+06     52.0639E+06    -114.218E+03         76.6621
            1275     12.4043E-03     100.948E-03         1.86229     781.271E-03        -3.26622     781.092E-03        -3.26604         1.86229    -42.1690E-03     531.784E-03    -254.815E-03    -276.064E-03    -256.470E-03     512.190E-03    -254.815E-03     242.572E-03     56.5534E+06     17.6528E+06    -7.38717E+06    -7.37388E+06     17.6395E+06     56.5534E+06     139.384E+03         79.1308
            1276     13.1819E-03     101.410E-03         1.76394     608.522E-03        -2.98774     608.343E-03        -2.98756         1.76394    -36.1029E-03     530.575E-03    -254.649E-03    -274.784E-03    -257.989E-03     513.780E-03    -254.649E-03     214.762E-03     61.8088E+06     20.4563E+06    -3.80213E+06    -3.78565E+06     20.4398E+06     61.8088E+06    -26.7880E+03         81.8373
            1277     776.676E-06     101.101E-03         2.56661         2.40833        -5.57632         2.53393        -5.57489         2.43959     79.9814E-03     510.793E-03    -254.432E-03    -256.449E-03    -255.432E-03     510.789E-03    -255.445E-03    -2.10809E-03    -107.175E+06    -113.515E+06    -183.005E+06    -110.994E+06    -182.868E+06    -109.833E+06     975.273E+03         62.7179
            1278     1.54924E-03     101.079E-03         2.48351         2.42432        -5.51088         2.42883        -5.51028         2.47840    -39.6172E-03     510.737E-03    -255.125E-03    -255.831E-03    -255.348E-03     510.736E-03    -255.607E-03    -316.664E-06    -97.4337E+06    -108.065E+06    -157.633E+06    -108.155E+06    -157.543E+06    -97.4337E+06     1.54644E+06         63.0329
            1279     2.32347E-03     101.050E-03         2.46081         2.40459        -5.47172         2.40427        -5.47140         2.46081    -35.9885E-03     510.384E-03    -254.850E-03    -255.647E-03    -254.845E-03     510.378E-03    -255.647E-03     3.01759E-03    -78.4791E+06    -101.388E+06    -131.141E+06    -101.564E+06    -130.965E+06    -78.4791E+06     1.82929E+06         63.4943
            1280     3.09742E-03     101.020E-03         2.44227         2.33962        -5.39141         2.33932        -5.39111         2.44227    -70.8179E-03     509.972E-03    -254.270E-03    -255.849E-03    -254.235E-03     509.937E-03    -255.849E-03     9.40533E-03    -56.6724E+06    -86.7745E+06    -102.052E+06    -93.0697E+06    -95.7564E+06    -56.6724E+06     1.72784E+06         64.0676
            1281     3.87279E-03     101.000E-03         2.41532         2.24990        -5.27432         2.24973        -5.27415         2.41532    -27.4224E-03     508.925E-03    -253.278E-03    -255.982E-03    -253.139E-03     508.786E-03    -255.982E-03     19.5958E-03    -33.2513E+06    -65.9524E+06    -83.7408E+06    -83.4328E+06    -66.2603E+06    -33.2513E+06     1.57248E+06         64.8144
            1282     4.64689E-03     100.996E-03         2.38124         2.16600        -5.15752         2.16590        -5.15743         2.38124    -1.57182E-03     508.069E-03    -252.327E-03    -256.026E-03    -251.937E-03     507.679E-03    -256.026E-03     33.4273E-03    -12.1980E+06    -50.1387E+06    -74.0563E+06    -73.8545E+06    -50.3405E+06    -12.1980E+06     1.36766E+06         65.7978
            1283     5.42014E-03     101.010E-03         2.34320         2.08898        -5.04352         2.08887        -5.04341         2.34320    -29.2382E-03     507.214E-03    -251.630E-03    -255.898E-03    -250.737E-03     506.322E-03    -255.898E-03     50.9446E-03     3.30800E+06    -39.4821E+06    -64.6345E+06    -64.5144E+06    -39.6022E+06     3.30800E+06     1.08712E+06         66.9814
            1284     6.19813E-03     101.044E-03         2.30161         2.00129        -4.91693         2.00120        -4.91684         2.30161    -19.9250E-03     505.086E-03    -250.614E-03    -255.559E-03    -248.920E-03     503.391E-03    -255.559E-03     70.7358E-03     14.0285E+06    -30.7252E+06    -55.7403E+06    -55.6108E+06    -30.8547E+06     14.0285E+06     1.24361E+06         68.2933
            1285     6.97543E-03     101.109E-03         2.25359         1.88271        -4.75138         1.88262        -4.75129         2.25359    -10.8535E-03     504.120E-03    -249.852E-03    -255.238E-03    -246.824E-03     501.092E-03    -255.238E-03     94.3685E-03     22.3984E+06    -22.9963E+06    -48.0267E+06    -47.9622E+06    -23.0608E+06     22.3984E+06     1.06664E+06         69.6599
            1286     7.75243E-03     101.231E-03         2.19558         1.72771        -4.53725         1.72762        -4.53716         2.19558    -19.2436E-03     505.453E-03    -250.523E-03    -254.750E-03    -245.751E-03     500.681E-03    -254.750E-03     119.218E-03     31.7812E+06    -14.5291E+06    -40.5531E+06    -40.4815E+06    -14.6007E+06     31.7812E+06     1.16165E+06         70.9266
            1287     8.52569E-03     101.400E-03         2.12652         1.54258        -4.28171         1.54255        -4.28168         2.12652     1.64435E-03     507.131E-03    -251.925E-03    -254.530E-03    -245.352E-03     500.558E-03    -254.530E-03     140.288E-03     40.8699E+06    -6.47444E+06    -33.2179E+06    -33.1155E+06    -6.57679E+06     40.8699E+06     1.27953E+06         71.9142
            1288     9.30376E-03     101.596E-03         2.04900         1.36701        -4.02866         1.36699        -4.02864         2.04900     8.61957E-03     508.628E-03    -253.544E-03    -255.053E-03    -245.528E-03     500.108E-03    -254.550E-03     160.012E-03     46.6601E+06     571.141E+03    -26.4596E+06    -26.3467E+06     458.314E+03     46.6601E+06     1.36739E+06         72.7228
            1289     10.0809E-03     101.798E-03         1.96635         1.21911        -3.79910         1.21902        -3.79901         1.96635    -24.2289E-03     510.094E-03    -254.641E-03    -256.090E-03    -246.180E-03     500.184E-03    -254.641E-03     173.119E-03     48.4894E+06     6.06124E+06    -20.1741E+06    -20.1175E+06     6.00471E+06     48.4894E+06     1.11266E+06         73.6443
            1290     10.8547E-03     102.049E-03         1.87781         1.07151        -3.56327         1.07141        -3.56316         1.87781    -16.6570E-03     515.948E-03    -254.146E-03    -261.111E-03    -248.381E-03     503.218E-03    -254.146E-03     196.429E-03     49.5794E+06     10.1959E+06    -15.4349E+06    -15.4036E+06     10.1646E+06     49.5794E+06     87.5216E+03         74.8825
            1291     11.6291E-03     102.381E-03         1.78571     914.849E-03        -3.31271     914.782E-03        -3.31264         1.78571     13.7682E-03     518.683E-03    -253.921E-03    -264.039E-03    -251.006E-03     505.650E-03    -253.921E-03     199.629E-03     52.4830E+06     13.3637E+06    -11.8676E+06    -11.8442E+06     13.3402E+06     52.4830E+06    -194.037E+03         76.6731
            1292     12.4054E-03     102.611E-03         1.68905     751.643E-03        -3.04716     751.593E-03        -3.04711         1.68905     12.3611E-03     531.978E-03    -254.759E-03    -276.097E-03    -256.476E-03     512.356E-03    -254.759E-03     242.872E-03     57.0553E+06     17.7001E+06    -8.06121E+06    -8.05263E+06     17.6915E+06     57.0553E+06     100.695E+03         79.1488
            1293     13.1814E-03     103.073E-03         1.58740     578.045E-03        -2.76711     578.031E-03        -2.76710         1.58740     3.49769E-03     531.530E-03    -254.618E-03    -275.656E-03    -258.827E-03     514.701E-03    -254.618E-03     215.392E-03     61.5530E+06     20.6179E+06    -4.18381E+06    -4.17518E+06     20.6093E+06     61.5530E+06    -11.4339E+03         81.8684
            1294     773.866E-06     102.769E-03         2.28833         2.14519        -5.03349         2.28723        -5.03238         2.14519     104.234E-03     510.775E-03    -254.545E-03    -256.320E-03    -254.764E-03     510.770E-03    -256.096E-03    -1.55731E-03    -108.280E+06    -117.301E+06    -185.732E+06    -114.798E+06    -185.577E+06    -110.938E+06     299.406E+03         62.7022
            1295     1.54919E-03     102.752E-03         2.23419         2.19181        -5.03033         2.20808        -5.02995         2.21754     97.5154E-03     510.187E-03    -254.719E-03    -255.728E-03    -254.942E-03     510.186E-03    -255.504E-03    -148.231E-06    -98.9366E+06    -109.533E+06    -160.595E+06    -109.649E+06    -160.478E+06    -98.9366E+06     1.01788E+06         63.0147
            1296     2.32489E-03     102.718E-03         2.20609         2.12486        -4.94001         2.12453        -4.93968         2.20609     80.6554E-03     509.465E-03    -254.188E-03    -255.403E-03    -254.181E-03     509.457E-03    -255.403E-03     3.54301E-03    -79.9390E+06    -103.099E+06    -133.190E+06    -103.256E+06    -133.033E+06    -79.9390E+06     1.77546E+06         63.4805
            1297     3.10028E-03     102.694E-03         2.18174         2.06026        -4.85023         2.05996        -4.84994         2.18174     45.3053E-03     509.395E-03    -254.026E-03    -255.552E-03    -253.984E-03     509.354E-03    -255.552E-03     10.4650E-03    -58.1856E+06    -86.8806E+06    -103.906E+06    -94.8582E+06    -95.9285E+06    -58.1856E+06     1.83770E+06         64.0695
            1298     3.87298E-03     102.667E-03         2.15616         2.02072        -4.78561         2.02042        -4.78530         2.15616     25.5248E-03     508.914E-03    -253.613E-03    -255.712E-03    -253.460E-03     508.761E-03    -255.712E-03     20.6400E-03    -34.1913E+06    -65.6343E+06    -85.5562E+06    -85.2222E+06    -65.9682E+06    -34.1913E+06     1.70195E+06         64.8322
            1299     4.64892E-03     102.665E-03         2.13054         1.97753        -4.71659         1.97726        -4.71633         2.13054     36.3431E-03     507.620E-03    -252.003E-03    -255.810E-03    -251.575E-03     507.192E-03    -255.810E-03     35.0727E-03    -12.8491E+06    -50.6943E+06    -75.5767E+06    -75.1055E+06    -51.1655E+06    -12.8491E+06     2.29775E+06         65.8218
            1300     5.42584E-03     102.677E-03         2.10131         1.90548        -4.61759         1.90536        -4.61747         2.10131    -5.19374E-03     506.128E-03    -250.888E-03    -255.617E-03    -249.962E-03     505.202E-03    -255.617E-03     52.1315E-03     2.81329E+06    -39.8293E+06    -65.9919E+06    -65.5713E+06    -40.2499E+06     2.81329E+06     2.75573E+06         67.0110
            1301     6.20040E-03     102.713E-03         2.06561         1.81884        -4.49750         1.81875        -4.49740         2.06561    -20.1779E-03     504.687E-03    -250.683E-03    -255.257E-03    -248.997E-03     503.002E-03    -255.257E-03     70.6051E-03     13.7486E+06    -30.2488E+06    -56.5547E+06    -56.3921E+06    -30.4115E+06     13.7486E+06     1.88833E+06         68.3352
            1302     6.97752E-03     102.778E-03         2.02056         1.70608        -4.33914         1.70565        -4.33871         2.02056     20.6701E-03     504.793E-03    -251.042E-03    -255.038E-03    -248.111E-03     501.862E-03    -255.038E-03     93.0650E-03     23.2022E+06    -21.8117E+06    -48.2202E+06     -48.183E+06    -21.8489E+06     23.2022E+06     862.105E+03         69.7166
            1303     7.75200E-03     102.903E-03         1.96257         1.55013        -4.12294         1.54965        -4.12246         1.96257     40.1871E-03     506.002E-03    -251.780E-03    -254.696E-03    -247.145E-03     501.367E-03    -254.696E-03     117.583E-03     33.1812E+06    -14.1499E+06    -40.9837E+06    -40.9526E+06    -14.1810E+06     33.1812E+06     615.370E+03         70.9870
            1304     8.52231E-03     103.070E-03         1.89307         1.40375        -3.90442         1.40368        -3.90435         1.89307     27.8844E-03     507.277E-03    -252.413E-03    -254.633E-03    -245.852E-03     500.715E-03    -254.633E-03     140.146E-03     41.3701E+06    -6.15218E+06    -33.7127E+06    -33.6490E+06    -6.21584E+06     41.3701E+06     826.226E+03         71.9602
            1305     9.29984E-03     103.260E-03         1.81762         1.27460        -3.69749         1.27456        -3.69745         1.81762     23.3595E-03     508.540E-03    -253.695E-03    -254.900E-03    -245.337E-03     499.936E-03    -254.654E-03     160.764E-03     46.2199E+06     1.11877E+06    -26.6515E+06    -26.5639E+06     1.03121E+06     46.2199E+06     614.824E+03         72.7490
            1306     10.0806E-03     103.467E-03         1.73766         1.12304        -3.46421         1.12302        -3.46420         1.73766     9.43193E-03     509.943E-03    -254.678E-03    -255.823E-03    -245.862E-03     499.983E-03    -254.678E-03     173.502E-03     47.4660E+06     6.19318E+06    -20.4796E+06    -20.4232E+06     6.13683E+06     47.4660E+06     519.780E+03         73.6559
            1307     10.8553E-03     103.715E-03         1.64902     961.749E-03        -3.21170     961.722E-03        -3.21168         1.64902     8.34024E-03     515.524E-03    -254.163E-03    -260.906E-03    -248.084E-03     502.702E-03    -254.163E-03     196.995E-03     49.5979E+06     10.4945E+06    -15.6749E+06    -15.6257E+06     10.4452E+06     49.5979E+06     995.707E+03         74.8917
            1308     11.6283E-03     104.049E-03         1.55543     813.339E-03        -2.96496     813.270E-03        -2.96489         1.55543     16.6245E-03     517.776E-03    -253.896E-03    -263.319E-03    -250.310E-03     504.767E-03    -253.896E-03     199.118E-03     54.2426E+06     14.4370E+06    -11.5016E+06    -11.4516E+06     14.3871E+06     54.2426E+06     836.919E+03         76.6953
            1309     12.4078E-03     104.274E-03         1.45716     672.083E-03        -2.72259     672.005E-03        -2.72251         1.45716     4.02210E-03     532.387E-03    -254.716E-03    -276.473E-03    -257.049E-03     512.963E-03    -254.716E-03     241.730E-03     57.9369E+06     18.6674E+06    -7.47679E+06    -7.45621E+06     18.6468E+06     57.9369E+06     249.753E+03         79.1868
            1310     13.1813E-03     104.739E-03         1.35439     535.864E-03        -2.47834     535.818E-03        -2.47829         1.35439     2.52968E-03     532.246E-03    -254.607E-03    -276.391E-03    -259.692E-03     515.546E-03    -254.607E-03     214.748E-03     61.1607E+06     20.9471E+06    -3.85373E+06    -3.84202E+06     20.9354E+06     61.1607E+06      25.085E+03         81.9117
            1311     774.888E-06     104.438E-03         1.95471         1.82124        -4.37781         1.90949        -4.37643         1.86507    -14.8364E-03     510.662E-03    -254.015E-03    -256.647E-03    -255.847E-03     510.661E-03    -254.814E-03    -187.436E-06    -105.462E+06    -118.051E+06    -186.813E+06    -113.009E+06    -186.670E+06    -110.647E+06     1.30745E+06         62.6914
            1312     1.55030E-03     104.416E-03         1.89532         1.83001        -4.33244         1.84208        -4.33188         1.88270     95.6875E-03     509.793E-03    -254.642E-03    -255.334E-03    -254.641E-03     509.792E-03    -255.334E-03    -184.529E-06    -98.8525E+06    -109.921E+06    -164.013E+06    -110.068E+06    -163.866E+06    -98.8525E+06     1.42829E+06         63.0058
            1313     2.32473E-03     104.387E-03         1.87632         1.81140        -4.29722         1.81692        -4.29672         1.87029     90.4959E-03     509.153E-03    -254.081E-03    -255.143E-03    -254.077E-03     509.148E-03    -255.143E-03     2.74519E-03    -81.3304E+06    -103.231E+06    -134.922E+06    -103.437E+06    -134.717E+06    -81.3304E+06     2.02677E+06         63.4744
            1314     3.10022E-03     104.360E-03         1.86307         1.78150        -4.25399         1.78593        -4.25348         1.85814     82.2161E-03     508.446E-03    -253.300E-03    -255.247E-03    -253.261E-03     508.407E-03    -255.247E-03     9.78782E-03    -59.8098E+06    -88.8381E+06    -102.854E+06    -95.4063E+06    -96.2859E+06    -59.8098E+06     1.96330E+06         64.0657
            1315     3.87657E-03     104.345E-03         1.84270         1.74123        -4.19085         1.74091        -4.19053         1.84270     62.1043E-03     508.214E-03    -253.144E-03    -255.335E-03    -252.999E-03     508.069E-03    -255.335E-03     20.2311E-03    -36.0333E+06    -67.7583E+06    -86.7657E+06    -86.1429E+06    -68.3811E+06    -36.0333E+06     2.46945E+06         64.8329
            1316     4.64968E-03     104.332E-03         1.82261         1.69196        -4.11903         1.69163        -4.11870         1.82261     53.5171E-03     507.591E-03    -252.284E-03    -255.467E-03    -251.893E-03     507.199E-03    -255.467E-03     33.5706E-03    -14.4076E+06    -51.2579E+06    -76.9310E+06    -76.1769E+06    -52.0121E+06    -14.4076E+06     2.65421E+06         65.8330
            1317     5.42475E-03     104.347E-03         1.79677         1.62816        -4.02905         1.62810        -4.02899         1.79677     11.0635E-03     505.926E-03    -251.069E-03    -255.361E-03    -250.219E-03     505.076E-03    -255.361E-03     49.9594E-03     2.47902E+06    -39.3454E+06    -65.9428E+06    -65.6123E+06    -39.6759E+06     2.47902E+06     1.80299E+06         67.0322
            1318     6.20304E-03     104.382E-03         1.76210         1.52770        -3.89488         1.52767        -3.89486         1.76210     3.78328E-03     504.831E-03    -251.018E-03    -255.106E-03    -249.402E-03     503.215E-03    -255.106E-03     69.0238E-03     13.6220E+06    -29.6013E+06    -56.4563E+06    -56.3511E+06    -29.7066E+06     13.6220E+06     1.52290E+06         68.3624
            1319     6.97770E-03     104.451E-03         1.71540         1.41647        -3.73624         1.41607        -3.73584         1.71540     48.0743E-03     505.397E-03    -251.726E-03    -254.940E-03    -248.769E-03     502.440E-03    -254.940E-03     93.3979E-03     23.3848E+06    -21.1860E+06    -48.6468E+06    -48.5306E+06    -21.3023E+06     23.3848E+06     1.69654E+06         69.7465
            1320     7.74912E-03     104.575E-03         1.65777         1.32687        -3.58693         1.32643        -3.58649         1.65777     71.7660E-03     506.159E-03    -251.961E-03    -254.661E-03    -247.264E-03     501.461E-03    -254.661E-03     118.428E-03     33.5743E+06    -12.7183E+06    -40.7625E+06    -40.6979E+06    -12.7829E+06     33.5743E+06     1.08483E+06         71.0159
            1321     8.52494E-03     104.738E-03         1.59304         1.23378        -3.42588         1.23368        -3.42578         1.59304     36.2944E-03     507.043E-03    -251.866E-03    -254.628E-03    -245.208E-03     500.385E-03    -254.628E-03     141.063E-03     41.5574E+06    -5.02134E+06    -33.5936E+06    -33.5332E+06    -5.08171E+06     41.5574E+06     598.827E+03         71.9854
            1322     9.30321E-03     104.932E-03         1.52311         1.11557        -3.23482         1.11549        -3.23474         1.52311     37.3948E-03     508.861E-03    -253.278E-03    -255.340E-03    -245.215E-03     500.040E-03    -254.582E-03     162.816E-03     47.1389E+06     1.81413E+06    -27.0583E+06    -26.9803E+06     1.73612E+06     47.1389E+06     356.779E+03         72.7746
            1323     10.0790E-03     105.131E-03         1.44695     980.242E-03        -3.02074     980.207E-03        -3.02071         1.44695     19.4909E-03     510.616E-03    -254.626E-03    -256.724E-03    -246.547E-03     500.439E-03    -254.626E-03     175.547E-03     47.9310E+06     5.89288E+06    -21.8797E+06    -21.8462E+06     5.85929E+06     47.9310E+06     134.831E+03         73.6892
            1324     10.8531E-03     105.385E-03         1.36040     837.881E-03        -2.78854     837.820E-03        -2.78848         1.36040    -10.1409E-03     516.123E-03    -254.171E-03    -261.376E-03    -248.530E-03     503.277E-03    -254.171E-03     197.421E-03     49.1915E+06     10.1271E+06    -16.8319E+06    -16.7895E+06     10.0846E+06     49.1915E+06     745.961E+03         74.9306
            1325     11.6285E-03     105.715E-03         1.26851     698.600E-03        -2.55553     698.531E-03        -2.55546         1.26851    -20.2353E-03     518.507E-03    -253.925E-03    -263.818E-03    -250.948E-03     505.637E-03    -253.925E-03     198.184E-03     53.4068E+06     14.8418E+06    -11.5444E+06    -11.4936E+06     14.7910E+06     53.4068E+06     859.925E+03         76.7373
            1326     12.4062E-03     105.944E-03         1.17257     578.789E-03        -2.33665     578.691E-03        -2.33655         1.17257    -28.0355E-03     532.113E-03    -254.776E-03    -276.299E-03    -257.126E-03     512.940E-03    -254.776E-03     240.018E-03     57.5590E+06     19.0865E+06    -7.53619E+06    -7.49835E+06     19.0487E+06     57.5590E+06     463.178E+03         79.2269
            1327     13.1805E-03     106.405E-03         1.07370     482.626E-03        -2.13970     482.527E-03        -2.13960         1.07370    -17.1106E-03     531.367E-03    -254.674E-03    -275.461E-03    -258.994E-03     514.900E-03    -254.674E-03     212.833E-03     62.1408E+06     21.6411E+06    -3.50072E+06    -3.46739E+06     21.6078E+06     62.1408E+06     146.958E+03         81.9434
            1328     775.119E-06     106.103E-03         1.50815         1.37283        -3.47695         1.46045        -3.47308         1.41667    -28.8659E-03     510.776E-03    -254.237E-03    -256.577E-03    -256.338E-03     510.773E-03    -254.473E-03    -2.98396E-03    -104.197E+06    -117.638E+06    -190.026E+06    -111.730E+06    -189.944E+06    -110.188E+06     242.464E+03         62.7058
            1329     1.54977E-03     106.086E-03         1.46782         1.41532        -3.48258         1.43798        -3.48095         1.44353     108.622E-03     509.794E-03    -254.571E-03    -255.336E-03    -254.570E-03     509.793E-03    -255.336E-03    -1.01793E-03    -97.6750E+06    -108.348E+06    -166.480E+06    -107.630E+06    -166.392E+06    -98.4797E+06     1.23136E+06         63.0231
            1330     2.32529E-03     106.056E-03         1.46157         1.44968        -3.51453         1.46012        -3.51428         1.45088     32.8088E-03     508.887E-03    -253.843E-03    -255.044E-03    -253.838E-03     508.882E-03    -255.044E-03     2.93953E-03    -81.3251E+06    -101.295E+06    -135.537E+06    -101.422E+06    -135.410E+06    -81.3251E+06     1.30547E+06         63.4871
            1331     3.10011E-03     106.030E-03         1.47039         1.45038        -3.52474         1.46120        -3.52449         1.45932     29.1655E-03     508.282E-03    -253.255E-03    -255.098E-03    -253.220E-03     508.246E-03    -255.098E-03     9.46856E-03    -59.4138E+06    -89.0573E+06    -104.295E+06    -93.8242E+06    -99.5283E+06    -59.4138E+06     2.68336E+06         64.0716
            1332     3.87577E-03     106.006E-03         1.46090         1.41049        -3.47366         1.41184        -3.47354         1.45944     20.6026E-03     507.852E-03    -252.792E-03    -255.179E-03    -252.660E-03     507.720E-03    -255.179E-03     19.2253E-03    -35.7094E+06    -68.7874E+06    -87.2145E+06    -85.6875E+06    -70.3143E+06    -35.7094E+06     3.54249E+06         64.8393
            1333     4.65172E-03     106.005E-03         1.44713         1.34186        -3.38725         1.34166        -3.38706         1.44713     3.32911E-03     507.612E-03    -252.402E-03    -255.296E-03    -252.038E-03     507.249E-03    -255.296E-03     32.3641E-03    -13.6482E+06    -49.7180E+06    -75.8554E+06    -75.2269E+06    -50.3465E+06    -13.6482E+06     2.45807E+06         65.8421
            1334     5.42568E-03     106.012E-03         1.42390         1.27109        -3.29038         1.27097        -3.29026         1.42390    -32.6896E-03     506.701E-03    -251.739E-03    -255.293E-03    -250.906E-03     505.868E-03    -255.293E-03     49.3043E-03     2.22750E+06    -39.2363E+06    -66.2557E+06    -66.0144E+06    -39.4776E+06     2.22750E+06     1.68364E+06         67.0395
            1335     6.20017E-03     106.053E-03         1.39124         1.19897        -3.18466         1.19892        -3.18462         1.39124    -5.18194E-03     504.896E-03    -250.867E-03    -255.138E-03    -249.248E-03     503.276E-03    -255.138E-03     69.0849E-03     13.1038E+06    -30.1080E+06    -57.7075E+06    -57.5639E+06    -30.2515E+06     13.1038E+06     1.79406E+06         68.3605
            1336     6.97788E-03     106.122E-03         1.34890         1.13430        -3.07576         1.13425        -3.07571         1.34890     13.1161E-03     504.270E-03    -250.258E-03    -254.904E-03    -247.290E-03     501.302E-03    -254.904E-03     93.3914E-03     23.2449E+06    -20.2080E+06    -48.6199E+06    -48.4939E+06    -20.3340E+06     23.2449E+06     1.82267E+06         69.7320
            1337     7.75366E-03     106.253E-03         1.29751         1.07417        -2.96108         1.07414        -2.96104         1.29751     14.3098E-03     505.458E-03    -250.865E-03    -254.521E-03    -246.124E-03     500.716E-03    -254.521E-03     118.829E-03     33.4277E+06    -11.6448E+06    -40.6496E+06    -40.5789E+06    -11.7155E+06     33.4277E+06     1.31696E+06         71.0069
            1338     8.52321E-03     106.406E-03         1.23873     989.595E-03        -2.81506     989.552E-03        -2.81502         1.23873     4.72363E-03     507.274E-03    -252.152E-03    -254.622E-03    -245.635E-03     500.582E-03    -254.447E-03     141.519E-03     42.2589E+06    -4.27431E+06    -33.4798E+06    -33.4286E+06    -4.32554E+06     42.2589E+06     706.662E+03         72.0065
            1339     9.30372E-03     106.594E-03         1.17320     882.321E-03        -2.63932     882.206E-03        -2.63921         1.17320     453.960E-06     509.041E-03    -253.547E-03    -255.576E-03    -245.954E-03     500.309E-03    -254.437E-03     162.124E-03     47.7199E+06     1.90254E+06    -27.3322E+06    -27.2793E+06     1.84958E+06     47.7199E+06     483.205E+03         72.8238
            1340     10.0838E-03     106.803E-03         1.10094     779.336E-03        -2.46172     779.196E-03        -2.46158         1.10094    -14.4066E-03     510.542E-03    -254.568E-03    -257.325E-03    -247.351E-03     500.569E-03    -254.568E-03     173.837E-03     49.0319E+06     6.69309E+06    -21.8014E+06    -21.7595E+06     6.65122E+06     49.0319E+06     593.721E+03         73.7474
            1341     10.8545E-03     107.052E-03         1.01939     684.629E-03        -2.28501     684.491E-03        -2.28487         1.01939    -29.7758E-03     517.324E-03    -254.224E-03    -262.612E-03    -249.824E-03     504.536E-03    -254.224E-03     197.155E-03      49.988E+06     11.1669E+06    -16.6317E+06    -16.5846E+06     11.1198E+06      49.988E+06     121.465E+03         74.9821
            1342     11.6249E-03     107.382E-03     935.057E-03     597.185E-03        -2.10968     597.094E-03        -2.10959     935.057E-03    -13.7533E-03     519.916E-03    -254.030E-03    -264.773E-03    -251.845E-03     506.987E-03    -254.030E-03     198.919E-03     52.5640E+06     14.5606E+06    -12.5181E+06    -12.4877E+06     14.5302E+06     52.5640E+06    -61.2905E+03         76.7729
            1343     12.4009E-03     107.614E-03     848.960E-03     511.459E-03        -1.93583     511.374E-03        -1.93574     848.960E-03    -7.32929E-03     531.845E-03    -254.878E-03    -275.953E-03    -256.651E-03     512.543E-03    -254.878E-03     240.558E-03     57.2375E+06     19.3754E+06    -7.83820E+06    -7.80104E+06     19.3383E+06     57.2375E+06     334.441E+03         79.2459
            1344     13.1796E-03     108.066E-03     760.709E-03     438.665E-03        -1.77308     438.599E-03        -1.77301     760.709E-03    -14.3363E-03     530.857E-03    -254.750E-03    -274.838E-03    -258.206E-03     514.225E-03    -254.750E-03     213.760E-03     62.5463E+06     22.3590E+06    -3.54921E+06    -3.45347E+06     22.2632E+06     62.5463E+06     542.323E+03         81.9538
            1345     773.835E-06     107.774E-03         1.04141     940.405E-03        -2.56437         1.02552        -2.55800     949.925E-03    -20.4198E-03     510.816E-03    -255.163E-03    -255.777E-03    -255.431E-03     510.813E-03    -255.505E-03    -1.98201E-03    -105.703E+06    -118.002E+06    -191.663E+06    -113.318E+06    -191.632E+06    -110.418E+06     146.354E+03         62.7313
            1346     1.54914E-03     107.754E-03         1.02697     992.872E-03        -2.60228         1.01880        -2.59952     998.282E-03     119.644E-03     510.014E-03    -254.710E-03    -255.433E-03    -254.709E-03     510.013E-03    -255.433E-03    -997.874E-06    -99.2832E+06    -109.710E+06    -167.794E+06    -108.919E+06    -167.780E+06    -100.088E+06     92.8011E+03         63.0532
            1347     2.32559E-03     107.724E-03         1.02042         1.00047        -2.60778         1.01007        -2.60723         1.01027     21.8786E-03     509.117E-03    -254.020E-03    -255.161E-03    -254.016E-03     509.113E-03    -255.161E-03     1.95342E-03    -82.9832E+06    -103.504E+06    -139.749E+06    -103.868E+06    -139.385E+06    -82.9832E+06     1.74478E+06         63.5149
            1348     3.10148E-03     107.701E-03         1.02124     996.037E-03        -2.60623         1.00146        -2.60552         1.01510     62.4043E-03     508.529E-03    -253.716E-03    -255.177E-03    -253.688E-03     508.500E-03    -255.177E-03     8.24929E-03    -60.6264E+06    -90.0682E+06    -109.350E+06    -96.3257E+06    -103.092E+06    -60.6264E+06     3.33417E+06         64.0916
            1349     3.87507E-03     107.682E-03         1.01728     991.159E-03        -2.59724     991.955E-03        -2.59657         1.01581     69.7114E-03     508.041E-03    -253.054E-03    -255.287E-03    -252.934E-03     507.921E-03    -255.287E-03     18.2075E-03    -36.3669E+06    -67.9304E+06    -87.1377E+06    -85.8737E+06    -69.1945E+06    -36.3669E+06     2.77691E+06         64.8522
            1350     4.65016E-03     107.673E-03         1.01053     961.047E-03        -2.56037     960.397E-03        -2.55972         1.01053     52.9311E-03     507.332E-03    -251.947E-03    -255.353E-03    -251.596E-03     506.981E-03    -255.353E-03     31.6811E-03    -15.4163E+06    -50.9168E+06    -76.8971E+06    -76.4750E+06    -51.3388E+06    -15.4163E+06     2.66931E+06         65.8453
            1351     5.42524E-03     107.689E-03     996.252E-03     910.788E-03        -2.49482     910.379E-03        -2.49441     996.252E-03     18.2603E-03     506.405E-03    -251.366E-03    -255.278E-03    -250.531E-03     505.570E-03    -255.278E-03     49.2549E-03     1.17700E+06    -39.5437E+06    -67.3706E+06    -67.0117E+06    -39.9026E+06     1.17700E+06     3.06047E+06         67.0326
            1352     6.20045E-03     107.723E-03     973.199E-03     868.139E-03        -2.42702     867.791E-03        -2.42668     973.199E-03     37.9955E-03     504.436E-03    -250.509E-03    -255.119E-03    -248.834E-03     502.760E-03    -255.119E-03     70.1598E-03     13.8216E+06    -29.0745E+06    -57.5065E+06    -57.3259E+06    -29.2551E+06     13.8216E+06     2.14815E+06         68.3454
            1353     6.97789E-03     107.793E-03     940.757E-03     824.718E-03        -2.34771     824.577E-03        -2.34756     940.757E-03     23.0500E-03     503.578E-03    -249.496E-03    -254.831E-03    -246.531E-03     500.614E-03    -254.831E-03     93.4841E-03     24.1128E+06    -19.6279E+06    -48.4777E+06    -48.4267E+06    -19.6789E+06     24.1128E+06     1.01278E+06         69.7168
            1354     7.75311E-03     107.919E-03     896.545E-03     753.453E-03        -2.22829     753.400E-03        -2.22823     896.545E-03     10.5081E-03     505.081E-03    -250.173E-03    -254.393E-03    -245.526E-03     500.433E-03    -254.393E-03     117.545E-03     33.9888E+06    -11.4147E+06    -40.7955E+06    -40.7610E+06    -11.4492E+06     33.9888E+06     806.701E+03         71.0082
            1355     8.53122E-03     108.081E-03     841.973E-03     670.985E-03        -2.08818     670.906E-03        -2.08810     841.973E-03     10.8240E-03     507.503E-03    -252.743E-03    -254.507E-03    -246.370E-03     500.932E-03    -254.309E-03     140.323E-03     43.0667E+06    -3.66221E+06    -33.7018E+06    -33.6472E+06    -3.71681E+06     43.0667E+06     1.16201E+06         72.0369
            1356     9.30434E-03     108.263E-03     782.053E-03     616.640E-03        -1.97164     616.533E-03        -1.97154     782.053E-03    -20.6141E-03     510.117E-03    -254.402E-03    -256.128E-03    -247.607E-03     501.596E-03    -254.402E-03     160.449E-03     48.6783E+06     3.12923E+06    -27.1577E+06    -27.0984E+06     3.06999E+06     48.6783E+06     962.343E+03         72.8731
            1357     10.0784E-03     108.468E-03     718.906E-03     570.941E-03        -1.86278     570.429E-03        -1.86227     718.906E-03    -5.90556E-03     511.567E-03    -254.670E-03    -257.924E-03    -248.199E-03     501.842E-03    -254.670E-03     171.892E-03     49.4198E+06     7.70656E+06    -21.3734E+06    -21.3222E+06     7.65538E+06     49.4198E+06     663.421E+03         73.7882
            1358     10.8523E-03     108.722E-03     648.314E-03     512.971E-03        -1.73203     512.521E-03        -1.73158     648.314E-03     6.23913E-03     517.544E-03    -254.358E-03    -262.647E-03    -249.909E-03     504.806E-03    -254.358E-03     196.671E-03     50.1162E+06     11.9439E+06    -16.3020E+06    -16.2327E+06     11.8746E+06     50.1162E+06     369.566E+03         75.0043
            1359     11.6243E-03     109.055E-03     579.524E-03     462.909E-03        -1.61019     466.019E-03        -1.61011     576.333E-03     8.13409E-03     519.580E-03    -254.109E-03    -264.245E-03    -251.245E-03     506.581E-03    -254.109E-03     199.320E-03     53.5942E+06     15.8788E+06    -11.7846E+06    -11.7321E+06     15.8263E+06     53.5942E+06     193.213E+03         76.7827
            1360     12.4046E-03     109.274E-03     536.613E-03     403.765E-03        -1.50389     435.939E-03        -1.50375     504.293E-03     27.3155E-03     532.012E-03    -254.908E-03    -275.777E-03    -256.309E-03     512.545E-03    -254.908E-03     241.490E-03     57.1421E+06     19.4678E+06    -8.23851E+06    -8.19704E+06     19.4263E+06     57.1421E+06     355.442E+03         79.2474
            1361     13.1774E-03     109.737E-03     495.600E-03     343.967E-03        -1.39671     408.071E-03        -1.39655     431.345E-03     21.9235E-03     530.725E-03    -254.757E-03    -274.636E-03    -257.802E-03     513.891E-03    -254.757E-03     215.140E-03     62.0228E+06     22.0542E+06    -4.42205E+06    -4.29778E+06     21.9299E+06     62.0228E+06     330.026E+03         81.9512
            1362     776.047E-06     109.441E-03     560.772E-03     543.718E-03        -1.67855     544.805E-03        -1.67211     553.238E-03    -91.6525E-03     510.662E-03    -255.049E-03    -255.664E-03    -255.469E-03     510.659E-03    -255.241E-03    -2.17250E-03    -108.407E+06    -119.085E+06    -192.114E+06    -115.203E+06    -192.086E+06    -112.317E+06     653.489E+03         62.7469
            1363     1.55053E-03     109.426E-03     561.564E-03     544.289E-03        -1.67744     550.332E-03        -1.67545     553.529E-03     69.6592E-03     510.589E-03    -255.230E-03    -255.560E-03    -255.290E-03     510.587E-03    -255.498E-03    -1.29940E-03    -99.3569E+06    -111.186E+06    -169.981E+06    -111.283E+06    -169.883E+06    -99.3569E+06     1.47788E+06         63.0742
            1364     2.32334E-03     109.398E-03     563.218E-03     540.427E-03        -1.67501     544.781E-03        -1.67388     557.733E-03     42.3324E-03     510.039E-03    -254.833E-03    -255.473E-03    -254.828E-03     510.034E-03    -255.473E-03     2.30434E-03    -81.5353E+06    -104.336E+06    -144.632E+06    -104.787E+06    -144.181E+06    -81.5353E+06     2.24328E+06         63.5375
            1365     3.09759E-03     109.369E-03     558.316E-03     525.958E-03        -1.65593     524.418E-03        -1.65439     558.316E-03     84.6651E-03     508.754E-03    -253.923E-03    -255.464E-03    -253.891E-03     508.722E-03    -255.464E-03     8.76276E-03    -61.6011E+06    -90.3203E+06    -110.586E+06    -96.1228E+06    -104.783E+06    -61.6011E+06     2.68100E+06         64.1060
            1366     3.87396E-03     109.353E-03     555.245E-03     518.368E-03        -1.64808     516.978E-03        -1.64669     555.245E-03     87.4715E-03     507.813E-03    -252.791E-03    -255.464E-03    -252.662E-03     507.683E-03    -255.464E-03     18.8463E-03    -38.8338E+06    -69.3192E+06    -88.7525E+06    -87.5617E+06    -70.5100E+06    -38.8338E+06     3.42534E+06         64.8549
            1367     4.64872E-03     109.342E-03     555.382E-03     526.542E-03        -1.66112     530.192E-03        -1.66033     550.937E-03     68.5692E-03     507.095E-03    -251.503E-03    -255.436E-03    -251.121E-03     506.712E-03    -255.436E-03     33.0258E-03    -15.9579E+06    -50.8911E+06    -77.9578E+06    -77.5365E+06    -51.3125E+06    -15.9579E+06     3.20270E+06         65.8406
            1368     5.42487E-03     109.358E-03     548.521E-03     528.412E-03        -1.65898     532.197E-03        -1.65832     544.077E-03     50.0342E-03     505.465E-03    -250.653E-03    -255.265E-03    -249.801E-03     504.613E-03    -255.265E-03     49.9559E-03     1.19927E+06    -38.4344E+06    -67.0406E+06    -66.8538E+06    -38.6212E+06     1.19927E+06     2.06275E+06         67.0293
            1369     6.20241E-03     109.395E-03     533.404E-03     503.006E-03        -1.61788     505.171E-03        -1.61745     530.802E-03     23.3925E-03     503.805E-03    -250.255E-03    -255.067E-03    -248.634E-03     502.184E-03    -255.067E-03     69.0326E-03     14.1522E+06    -27.1627E+06    -56.9284E+06    -56.8212E+06    -27.2698E+06     14.1522E+06     1.51985E+06         68.3481
            1370     6.98014E-03     109.460E-03     509.263E-03     459.898E-03        -1.54833     462.340E-03        -1.54817     506.661E-03     11.7672E-03     503.837E-03    -249.997E-03    -254.786E-03    -247.141E-03     500.981E-03    -254.786E-03     91.7592E-03     24.5398E+06    -19.2380E+06    -49.2265E+06    -49.1180E+06    -19.3465E+06     24.5398E+06     1.42293E+06         69.7300
            1371     7.75475E-03     109.584E-03     480.601E-03     411.582E-03        -1.46678     422.189E-03        -1.46657     469.789E-03     24.0769E-03     505.680E-03    -251.332E-03    -254.427E-03    -246.792E-03     501.140E-03    -254.427E-03     116.274E-03     34.9876E+06    -11.5660E+06    -41.9528E+06    -41.8602E+06    -11.6586E+06     34.9876E+06     1.07723E+06         71.0301
            1372     8.52310E-03     109.751E-03     456.357E-03     361.189E-03        -1.38959     392.749E-03        -1.38933     424.533E-03     38.7995E-03     507.634E-03    -253.151E-03    -254.436E-03    -246.803E-03     501.263E-03    -254.413E-03     138.301E-03     43.7247E+06    -3.13313E+06    -34.2263E+06    -34.1967E+06    -3.16275E+06     43.7247E+06     786.059E+03         72.0555
            1373     9.30378E-03     109.944E-03     415.316E-03     321.453E-03        -1.30912     360.111E-03        -1.30901     376.555E-03     10.5363E-03     509.802E-03    -254.102E-03    -255.873E-03    -247.061E-03     501.395E-03    -254.507E-03     159.182E-03     47.8138E+06     3.02770E+06    -27.8931E+06    -27.8561E+06     2.99076E+06     47.8138E+06     858.439E+03         72.8850
            1374     10.0795E-03     110.141E-03     366.602E-03     295.925E-03        -1.23326     335.915E-03        -1.23285     326.204E-03     24.2229E-03     512.360E-03    -254.755E-03    -258.243E-03    -248.271E-03     502.387E-03    -254.755E-03     174.147E-03     49.2303E+06     8.47200E+06    -21.3436E+06    -21.3052E+06     8.43358E+06     49.2303E+06     667.501E+03         73.7947
            1375     10.8490E-03     110.390E-03     341.630E-03     252.455E-03        -1.16466     324.795E-03        -1.16423     268.857E-03     17.2423E-03     517.997E-03    -254.420E-03    -262.685E-03    -249.662E-03     504.974E-03    -254.420E-03     199.014E-03     50.5176E+06     12.6057E+06    -16.4054E+06    -16.3630E+06     12.5634E+06     50.5176E+06     822.271E+03         75.0026
            1376     11.6245E-03     110.723E-03     332.312E-03     202.200E-03        -1.10128     323.128E-03        -1.10115     211.256E-03     2.93282E-03     519.171E-03    -254.131E-03    -263.733E-03    -250.647E-03     506.086E-03    -254.131E-03     199.798E-03     53.3257E+06     15.6398E+06    -12.4396E+06    -12.3903E+06     15.5905E+06     53.3257E+06     883.593E+03         76.7745
            1377     12.4015E-03     110.944E-03     334.460E-03     154.912E-03        -1.05180     334.285E-03        -1.05163     154.912E-03     19.0028E-03     531.664E-03    -254.879E-03    -275.310E-03    -255.705E-03     512.060E-03    -254.879E-03     242.076E-03     57.6877E+06     20.2313E+06    -7.67365E+06    -7.62041E+06     20.1781E+06     57.6877E+06     500.954E+03         79.2404
            1378     13.1799E-03     111.405E-03     354.293E-03     98.7164E-03        -1.01119     354.101E-03        -1.01100     98.7164E-03     19.4883E-03     530.267E-03    -254.680E-03    -274.121E-03    -257.140E-03     513.285E-03    -254.680E-03     215.883E-03     62.5388E+06     22.9434E+06    -4.00141E+06    -3.91279E+06     22.8548E+06     62.5388E+06     148.793E+03         81.9529
            1379     773.743E-06     111.109E-03     94.7670E-03     53.9448E-03    -727.834E-03     54.9366E-03    -676.037E-03     41.9780E-03    -54.8474E-03     511.158E-03    -255.277E-03    -255.889E-03    -255.860E-03     511.155E-03    -255.303E-03    -2.10898E-03    -109.743E+06    -119.954E+06    -194.304E+06    -115.880E+06    -194.291E+06    -113.830E+06     135.558E+03         62.7493
            1380     1.54844E-03     111.097E-03     110.808E-03     45.8383E-03    -729.783E-03     38.6040E-03    -662.611E-03     50.8702E-03     11.2390E-03     510.906E-03    -255.350E-03    -255.781E-03    -255.411E-03     510.904E-03    -255.719E-03    -1.05620E-03    -101.636E+06    -111.775E+06    -174.078E+06    -111.876E+06    -173.977E+06    -101.636E+06     1.03303E+06         63.0685
            1381     2.32484E-03     111.070E-03     108.388E-03     46.3992E-03    -722.084E-03     50.0858E-03    -672.489E-03     55.1068E-03    -34.7055E-03     509.799E-03    -254.485E-03    -255.601E-03    -254.479E-03     509.793E-03    -255.601E-03     2.98663E-03    -82.4944E+06    -103.605E+06    -147.335E+06    -104.253E+06    -146.687E+06    -82.4944E+06     2.40106E+06         63.5252
            1382     3.09909E-03     111.044E-03     108.685E-03     51.0467E-03    -726.043E-03     79.5070E-03    -710.156E-03     64.3373E-03    -19.9375E-03     508.375E-03    -253.492E-03    -255.444E-03    -253.449E-03     508.333E-03    -255.444E-03     10.3928E-03    -62.6102E+06    -92.7063E+06    -112.562E+06    -97.4518E+06    -107.816E+06    -62.6102E+06     3.29336E+06         64.0942
            1383     3.87389E-03     111.020E-03     119.134E-03     53.8431E-03    -745.096E-03     96.1686E-03    -742.234E-03     73.9465E-03    -1.45899E-03     507.573E-03    -252.641E-03    -255.375E-03    -252.487E-03     507.418E-03    -255.375E-03     20.8031E-03    -39.1700E+06    -70.7483E+06    -88.9127E+06    -87.8477E+06    -71.8133E+06    -39.1700E+06     3.14754E+06         64.8466
            1384     4.65074E-03     111.017E-03     111.785E-03     68.3413E-03    -757.770E-03     98.6211E-03    -755.095E-03     78.8297E-03    -17.2418E-03     507.054E-03    -251.623E-03    -255.330E-03    -251.229E-03     506.660E-03    -255.330E-03     33.8412E-03    -15.4055E+06    -49.2124E+06    -76.9505E+06    -76.6935E+06    -49.4694E+06    -15.4055E+06     2.56207E+06         65.8381
            1385     5.42566E-03     111.031E-03     111.228E-03     77.2405E-03    -769.610E-03     108.803E-03    -767.984E-03     78.0400E-03    -14.8445E-03     505.990E-03    -251.156E-03    -255.244E-03    -250.311E-03     505.145E-03    -255.244E-03     49.7594E-03     2.87335E+06    -36.9577E+06    -66.6527E+06    -66.4980E+06    -37.1125E+06     2.87335E+06     1.88933E+06         67.0367
            1386     6.20109E-03     111.068E-03     125.563E-03     71.6275E-03    -780.088E-03     122.457E-03    -777.782E-03     72.4270E-03    -2.38375E-03     504.550E-03    -250.649E-03    -255.153E-03    -249.115E-03     503.016E-03    -255.153E-03     67.4140E-03     14.2666E+06    -27.3611E+06    -57.9823E+06    -57.8560E+06    -27.4873E+06     14.2666E+06     1.71487E+06         68.3623
            1387     6.97776E-03     111.134E-03     132.446E-03     56.4985E-03    -770.199E-03     127.625E-03    -768.208E-03     59.3288E-03     27.1756E-03     504.329E-03    -250.478E-03    -254.977E-03    -247.710E-03     501.560E-03    -254.977E-03     90.1687E-03     24.5676E+06    -18.4615E+06    -49.2995E+06    -49.1580E+06    -18.6030E+06     24.5676E+06     1.94088E+06         69.7422
            1388     7.75142E-03     111.258E-03     133.670E-03     33.1066E-03    -745.467E-03     130.298E-03    -744.925E-03     35.9370E-03     33.0250E-03     505.939E-03    -251.903E-03    -254.620E-03    -247.297E-03     501.333E-03    -254.620E-03     117.091E-03     35.2186E+06    -10.3470E+06    -41.4231E+06    -41.2708E+06    -10.4992E+06     35.2186E+06     1.75635E+06         71.0363
            1389     8.52362E-03     111.430E-03     132.612E-03     5.53437E-03    -716.544E-03     132.044E-03    -715.976E-03     5.53437E-03     28.2624E-03     507.770E-03    -253.006E-03    -254.542E-03    -246.428E-03     501.193E-03    -254.542E-03     140.468E-03     43.4492E+06    -3.42782E+06    -35.0829E+06    -35.0036E+06    -3.50707E+06     43.4492E+06     1.17676E+06         72.0540
            1390     9.29940E-03     111.607E-03     132.242E-03    -27.1517E-03    -683.608E-03     132.056E-03    -683.423E-03    -27.1517E-03     2.35439E-03     509.518E-03    -253.864E-03    -255.691E-03    -246.266E-03     500.842E-03    -254.614E-03     161.605E-03     48.9642E+06     3.93513E+06    -27.5691E+06    -27.5383E+06     3.90424E+06     48.9642E+06     834.385E+03         72.8778
            1391     10.0804E-03     111.813E-03     132.128E-03    -62.3814E-03    -648.587E-03     131.980E-03    -648.439E-03    -62.3814E-03     5.46450E-03     511.445E-03    -254.781E-03    -257.730E-03    -247.723E-03     501.438E-03    -254.781E-03     174.299E-03     48.9185E+06     8.42789E+06    -22.0856E+06    -22.0555E+06     8.39781E+06     48.9185E+06     723.240E+03         73.7870
            1392     10.8537E-03     112.063E-03     145.014E-03    -103.878E-03    -617.715E-03     144.308E-03    -617.010E-03    -103.878E-03     13.2574E-03     516.934E-03    -254.404E-03    -262.034E-03    -249.231E-03     504.130E-03    -254.404E-03     197.111E-03     50.1928E+06     12.5093E+06    -17.1967E+06    -17.1688E+06     12.4814E+06     50.1928E+06     809.685E+03         74.9939
            1393     11.6238E-03     112.393E-03     172.450E-03    -144.729E-03    -601.055E-03     171.805E-03    -600.409E-03    -144.729E-03     9.95905E-03     518.317E-03    -254.113E-03    -263.372E-03    -250.202E-03     505.147E-03    -254.113E-03     200.510E-03     54.4074E+06     16.5026E+06    -12.1571E+06    -12.1221E+06     16.4676E+06     54.4074E+06     764.302E+03         76.7671
            1394     12.4047E-03     112.616E-03     212.426E-03    -183.909E-03    -600.420E-03     212.332E-03    -600.326E-03    -183.909E-03     2.59501E-03     531.206E-03    -254.818E-03    -275.297E-03    -255.487E-03     511.396E-03    -254.818E-03     243.730E-03     58.3688E+06     20.5744E+06    -8.02929E+06    -7.99435E+06     20.5394E+06     58.3688E+06     331.508E+03         79.2481
            1395     13.1819E-03     113.070E-03     284.037E-03    -221.722E-03    -634.009E-03     283.940E-03    -633.911E-03    -221.722E-03    -714.984E-06     530.703E-03    -254.579E-03    -274.765E-03    -257.813E-03     513.751E-03    -254.579E-03     215.623E-03     63.5700E+06     23.6502E+06    -3.89318E+06    -3.83064E+06     23.5877E+06     63.5700E+06     21.3162E+03         81.9799
            1396     775.488E-06     112.776E-03     375.605E-03    -465.740E-03    -501.473E-03    -482.781E-03     368.880E-03    -477.707E-03     82.3760E-03     511.419E-03    -255.589E-03    -255.893E-03    -255.787E-03     511.417E-03    -255.694E-03    -1.19033E-03    -106.634E+06    -117.366E+06    -196.292E+06    -113.341E+06    -196.230E+06    -110.721E+06     343.683E+03         62.7490
            1397     1.54963E-03     112.767E-03     360.531E-03    -450.221E-03    -493.165E-03    -465.495E-03     356.088E-03    -473.447E-03     6.11022E-03     510.800E-03    -255.154E-03    -255.837E-03    -255.190E-03     510.799E-03    -255.801E-03    -646.845E-06    -99.7268E+06    -110.060E+06    -177.176E+06    -110.221E+06    -177.015E+06    -99.7268E+06     1.82195E+06         63.0559
            1398     2.32279E-03     112.737E-03     301.805E-03    -408.603E-03    -470.980E-03    -404.119E-03     281.719E-03    -455.379E-03    -30.6141E-03     509.012E-03    -253.680E-03    -255.468E-03    -253.675E-03     509.008E-03    -255.468E-03     2.30460E-03    -84.4163E+06    -105.010E+06    -150.545E+06    -105.741E+06    -149.815E+06    -84.4163E+06     2.06809E+06         63.5059
            1399     3.10095E-03     112.708E-03     274.572E-03    -389.663E-03    -465.213E-03    -359.931E-03     210.416E-03    -430.790E-03    -14.7834E-03     507.902E-03    -253.113E-03    -255.198E-03    -253.076E-03     507.865E-03    -255.198E-03     9.54757E-03    -62.3919E+06    -93.2556E+06    -113.794E+06    -96.9320E+06    -110.118E+06    -62.3919E+06     2.48164E+06         64.0799
            1400     3.87672E-03     112.693E-03     256.189E-03    -363.483E-03    -475.289E-03    -319.935E-03     145.893E-03    -408.540E-03    -1.32287E-03     507.997E-03    -253.251E-03    -255.242E-03    -253.115E-03     507.861E-03    -255.242E-03     19.4864E-03    -37.0945E+06    -70.0648E+06    -87.4735E+06    -86.3877E+06    -71.1507E+06    -37.0945E+06     2.18760E+06         64.8394
            1401     4.65014E-03     112.687E-03     200.967E-03    -318.802E-03    -468.249E-03    -292.276E-03     97.1154E-03    -390.924E-03    -6.45444E-03     507.625E-03    -252.423E-03    -255.322E-03    -252.070E-03     507.272E-03    -255.322E-03     31.9444E-03    -15.4401E+06    -49.1801E+06    -77.1199E+06    -76.9228E+06    -49.3771E+06    -15.4401E+06     2.07681E+06         65.8343
            1402     5.42540E-03     112.705E-03     169.218E-03    -296.329E-03    -461.269E-03    -268.475E-03     59.3869E-03    -379.292E-03    -3.62910E-03     506.162E-03    -251.407E-03    -255.298E-03    -250.588E-03     505.343E-03    -255.298E-03     48.7843E-03     2.04991E+06    -37.6519E+06    -67.9748E+06    -67.6720E+06    -37.9547E+06     2.04991E+06     2.91749E+06         67.0333
            1403     6.19973E-03     112.742E-03     180.022E-03    -291.134E-03    -477.166E-03    -242.026E-03     27.0032E-03    -373.255E-03     39.9822E-03     504.994E-03    -250.880E-03    -255.247E-03    -249.297E-03     503.411E-03    -255.247E-03     68.3785E-03     14.9254E+06    -27.3036E+06    -58.5985E+06    -58.3525E+06    -27.5496E+06     14.9254E+06     2.67354E+06         68.3576
            1404     6.97628E-03     112.801E-03     180.147E-03    -276.696E-03    -490.315E-03    -206.414E-03    -5.98949E-03    -374.460E-03     29.2492E-03     504.880E-03    -250.861E-03    -255.128E-03    -247.956E-03     501.975E-03    -255.128E-03     92.3986E-03     24.6940E+06    -18.3432E+06    -49.5640E+06    -49.4353E+06    -18.4719E+06     24.6940E+06     1.94003E+06         69.7343
            1405     7.74962E-03     112.937E-03     155.508E-03    -249.560E-03    -492.306E-03    -162.008E-03    -39.9977E-03    -384.352E-03    -4.84123E-03     505.541E-03    -251.326E-03    -254.744E-03    -246.576E-03     500.792E-03    -254.744E-03     118.898E-03     34.2901E+06    -9.40228E+06    -41.6474E+06    -41.4684E+06    -9.58128E+06     34.2901E+06     2.31104E+06         71.0255
            1406     8.52367E-03     113.095E-03     119.334E-03    -224.421E-03    -482.576E-03    -129.402E-03    -58.5829E-03    -399.679E-03     17.1495E-03     507.371E-03    -252.698E-03    -254.573E-03    -246.047E-03     500.719E-03    -254.573E-03     141.233E-03     43.3419E+06    -1.41119E+06    -34.6504E+06    -34.4961E+06    -1.56550E+06     43.3419E+06     2.11326E+06         72.0439
            1407     9.30453E-03     113.284E-03     114.293E-03    -216.080E-03    -486.335E-03    -95.2380E-03    -76.7036E-03    -416.180E-03     6.34735E-03     509.415E-03    -254.206E-03    -255.486E-03    -246.400E-03     500.752E-03    -254.629E-03     161.520E-03     48.8487E+06     4.21582E+06    -28.5737E+06    -28.5127E+06     4.15490E+06     48.8487E+06     1.32864E+06         72.8690
            1408     10.0781E-03     113.480E-03     110.728E-03    -198.938E-03    -497.546E-03    -44.4129E-03    -107.725E-03    -433.618E-03     19.2428E-03     510.863E-03    -254.773E-03    -257.087E-03    -246.857E-03     500.634E-03    -254.773E-03     175.955E-03     50.3610E+06     8.93180E+06    -22.5096E+06    -22.4658E+06     8.88801E+06     50.3610E+06     1.03986E+06         73.7815
            1409     10.8484E-03     113.738E-03     83.4939E-03    -174.562E-03    -491.236E-03     1.23169E-03    -127.840E-03    -455.697E-03     30.6456E-03     515.840E-03    -254.326E-03    -261.560E-03    -248.517E-03     502.798E-03    -254.326E-03     198.878E-03     51.5246E+06     13.0729E+06    -17.3067E+06    -17.2705E+06     13.0366E+06     51.5246E+06     516.458E+03         74.9996
            1410     11.6272E-03     114.055E-03     77.9687E-03    -169.302E-03    -488.182E-03     53.7302E-03    -156.446E-03    -476.800E-03     14.9014E-03     517.725E-03    -254.017E-03    -263.586E-03    -250.456E-03     504.595E-03    -254.017E-03     200.130E-03     54.7837E+06     16.5887E+06    -12.8848E+06    -12.8331E+06     16.5370E+06     54.7837E+06     525.160E+03         76.7915
            1411     12.4072E-03     114.284E-03     144.536E-03    -213.951E-03    -508.330E-03     143.249E-03    -226.254E-03    -494.740E-03     24.0734E-03     531.303E-03    -254.761E-03    -275.653E-03    -256.207E-03     511.857E-03    -254.761E-03     241.827E-03     59.8456E+06     21.3705E+06    -8.17271E+06    -8.10582E+06     21.3036E+06     59.8456E+06     274.466E+03         79.2854
            1412     13.1820E-03     114.738E-03     261.736E-03    -291.225E-03    -548.555E-03     260.428E-03    -329.612E-03    -508.860E-03     24.8358E-03     530.847E-03    -254.569E-03    -275.007E-03    -258.387E-03     514.227E-03    -254.569E-03     213.988E-03     65.0111E+06     24.2109E+06    -3.88138E+06    -3.80090E+06     24.1304E+06     65.0111E+06    -158.359E+03         82.0150
            1413     773.836E-06     114.445E-03         1.29778    -894.605E-03        -1.00006    -903.541E-03         1.29073    -984.069E-03     98.8557E-03     511.304E-03    -255.036E-03    -256.292E-03    -255.838E-03     511.302E-03    -255.488E-03    -1.11472E-03    -106.619E+06    -118.584E+06    -200.697E+06    -114.737E+06    -200.481E+06    -110.681E+06     2.10800E+06         62.7463
            1414     1.54836E-03     114.438E-03         1.19082    -856.903E-03    -930.410E-03    -861.585E-03         1.18926    -924.168E-03    -50.5250E-03     510.208E-03    -254.719E-03    -255.702E-03    -254.754E-03     510.207E-03    -255.666E-03    -885.117E-06    -99.3649E+06    -110.902E+06    -181.560E+06    -111.068E+06    -181.394E+06    -99.3649E+06     2.60173E+06         63.0561
            1415     2.32604E-03     114.400E-03         1.11690    -822.529E-03    -890.876E-03    -821.927E-03         1.11630    -890.876E-03    -15.3786E-03     509.584E-03    -254.309E-03    -255.501E-03    -254.398E-03     509.581E-03    -255.409E-03     1.48257E-03    -82.3864E+06    -103.476E+06    -151.150E+06    -104.304E+06    -150.323E+06    -82.3864E+06     3.08480E+06         63.5119
            1416     3.09990E-03     114.378E-03         1.06134    -793.972E-03    -864.737E-03    -793.149E-03         1.06052    -864.737E-03    -3.34174E-03     508.885E-03    -253.896E-03    -255.421E-03    -253.960E-03     508.857E-03    -255.329E-03     8.11776E-03    -61.4510E+06    -93.2334E+06    -113.584E+06    -96.4037E+06    -110.414E+06    -61.4510E+06     2.34299E+06         64.0827
            1417     3.87410E-03     114.362E-03     994.025E-03    -750.425E-03    -843.044E-03    -749.746E-03     993.346E-03    -843.044E-03     6.58374E-03     508.134E-03    -253.115E-03    -255.462E-03    -252.994E-03     508.013E-03    -255.462E-03     18.2431E-03    -39.2948E+06    -72.1406E+06    -89.8810E+06    -88.4499E+06    -73.5716E+06    -39.2948E+06     2.79779E+06         64.8334
            1418     4.64869E-03     114.359E-03     907.670E-03    -683.870E-03    -821.991E-03    -683.158E-03     906.958E-03    -821.991E-03    -7.11788E-03     507.321E-03    -251.941E-03    -255.462E-03    -251.572E-03     506.952E-03    -255.462E-03     32.3508E-03    -17.6272E+06    -50.4978E+06    -80.1522E+06    -79.5609E+06    -51.0892E+06    -17.6272E+06     3.55402E+06         65.8197
            1419     5.42252E-03     114.375E-03     834.183E-03    -631.115E-03    -802.269E-03    -630.527E-03     833.595E-03    -802.269E-03    -8.09500E-03     505.501E-03    -250.902E-03    -255.301E-03    -250.045E-03     504.644E-03    -255.301E-03     49.9668E-03     118.017E+03    -38.1465E+06    -70.0124E+06    -69.6327E+06    -38.5262E+06     118.017E+03     3.42970E+06         67.0110
            1420     6.20207E-03     114.411E-03     769.741E-03    -580.388E-03    -786.437E-03    -579.419E-03     768.772E-03    -786.437E-03    -3.39370E-03     504.298E-03    -250.542E-03    -255.213E-03    -248.864E-03     502.620E-03    -255.213E-03     70.2500E-03     12.8435E+06    -26.4168E+06    -60.1562E+06    -59.8441E+06    -26.7289E+06     12.8435E+06     3.13788E+06         68.3327
            1421     6.97696E-03     114.480E-03     693.648E-03    -513.262E-03    -776.130E-03    -511.257E-03     691.643E-03    -776.130E-03    -30.4405E-03     504.631E-03    -250.881E-03    -255.048E-03    -247.892E-03     501.642E-03    -255.048E-03     93.9824E-03     23.3259E+06    -18.1304E+06    -52.2265E+06    -51.9805E+06    -18.3764E+06     23.3259E+06     2.80953E+06         69.7150
            1422     7.75130E-03     114.600E-03     617.772E-03    -442.396E-03    -772.162E-03    -441.168E-03     616.544E-03    -772.162E-03    -37.8340E-03     505.576E-03    -251.673E-03    -254.678E-03    -246.920E-03     500.822E-03    -254.678E-03     118.988E-03     34.6342E+06    -9.09067E+06    -44.1528E+06    -43.9890E+06    -9.25446E+06     34.6342E+06     2.27761E+06         71.0125
            1423     8.52499E-03     114.774E-03     539.140E-03    -364.073E-03    -771.498E-03    -363.938E-03     539.006E-03    -771.498E-03     13.2259E-03     507.272E-03    -252.701E-03    -254.539E-03    -245.988E-03     500.559E-03    -254.539E-03     141.809E-03     43.3318E+06    -200.231E+03    -35.8762E+06    -35.7824E+06    -294.025E+03     43.3318E+06     1.58882E+06         72.0365
            1424     9.29774E-03     114.957E-03     466.260E-03    -290.954E-03    -770.263E-03    -290.618E-03     465.924E-03    -770.263E-03     18.2615E-03     508.867E-03    -253.909E-03    -255.076E-03    -245.611E-03     500.051E-03    -254.558E-03     162.758E-03     48.2725E+06     4.68673E+06    -29.4284E+06    -29.3812E+06     4.63951E+06     48.2725E+06     1.10765E+06         72.8741
            1425     10.0814E-03     115.155E-03     398.646E-03    -221.124E-03    -769.237E-03    -220.570E-03     398.092E-03    -769.237E-03     18.3219E-03     510.383E-03    -254.635E-03    -256.306E-03    -245.964E-03     500.040E-03    -254.635E-03     176.774E-03     50.2422E+06     9.03954E+06    -23.1293E+06    -23.0923E+06     9.00251E+06     50.2422E+06     1.02755E+06         73.8020
            1426     10.8588E-03     115.406E-03     306.116E-03    -122.836E-03    -771.167E-03    -121.084E-03     304.364E-03    -771.167E-03     35.5284E-03     516.347E-03    -254.160E-03    -261.469E-03    -248.520E-03     503.398E-03    -254.160E-03     198.325E-03     52.2722E+06     13.6901E+06    -17.5224E+06    -17.4460E+06     13.6137E+06     52.2722E+06     955.670E+03         75.0345
            1427     11.6271E-03     115.725E-03     203.947E-03    -19.1777E-03    -769.239E-03     6.99612E-03     177.773E-03    -769.239E-03     37.2084E-03     518.979E-03    -253.942E-03    -264.454E-03    -251.615E-03     506.139E-03    -253.942E-03     198.128E-03     56.1980E+06     17.8474E+06    -12.8209E+06    -12.6975E+06     17.7241E+06     56.1980E+06     395.038E+03         76.8336
            1428     12.4037E-03     115.955E-03     184.220E-03    -7.06478E-03    -761.503E-03     139.787E-03     37.3683E-03    -761.503E-03     42.0342E-03     531.494E-03    -254.778E-03    -275.773E-03    -256.509E-03     512.230E-03    -254.778E-03     240.313E-03     61.4412E+06     22.7482E+06    -7.90135E+06    -7.79113E+06     22.6380E+06     61.4412E+06    -65.0777E+03         79.3150
            1429     13.1805E-03     116.408E-03     276.558E-03    -108.162E-03    -749.659E-03     273.898E-03    -105.503E-03    -749.659E-03     25.4612E-03     529.880E-03    -254.593E-03    -273.978E-03    -257.302E-03     513.203E-03    -254.593E-03     214.453E-03     65.9221E+06     24.7984E+06    -3.98451E+06    -3.89209E+06     24.7060E+06     65.9221E+06    -54.8156E+03         82.0260
            1430     774.472E-06     116.115E-03         1.97983        -1.21982        -1.36417        -1.26796         1.97309        -1.30929     33.2381E-03     510.582E-03    -254.225E-03    -256.369E-03    -255.993E-03     510.581E-03    -254.599E-03    -968.047E-06    -111.468E+06    -122.106E+06    -208.050E+06    -117.667E+06    -207.725E+06    -116.233E+06     2.45669E+06         62.7347
            1431     1.55098E-03     116.099E-03         1.92854        -1.22904        -1.30528        -1.25289         1.92601        -1.27890    -124.465E-03     510.135E-03    -254.843E-03    -255.521E-03    -254.980E-03     510.134E-03    -255.383E-03    -695.267E-06    -103.081E+06    -114.516E+06    -185.102E+06    -113.967E+06    -184.949E+06    -103.783E+06     2.73615E+06         63.0558
            1432     2.32362E-03     116.074E-03         1.88314        -1.22819        -1.26167        -1.22776         1.88272        -1.26167    -37.7521E-03     510.365E-03    -255.087E-03    -255.613E-03    -255.277E-03     510.359E-03    -255.418E-03     2.59212E-03    -85.8693E+06    -105.979E+06    -153.007E+06    -106.690E+06    -152.297E+06    -85.8693E+06     2.65120E+06         63.5178
            1433     3.09705E-03     116.047E-03         1.81974        -1.18392        -1.24355        -1.18345         1.81927        -1.24355    -53.2378E-03     509.328E-03    -254.238E-03    -255.609E-03    -254.290E-03     509.288E-03    -255.517E-03     9.65976E-03    -64.0565E+06    -95.0400E+06    -117.698E+06    -99.1799E+06    -113.558E+06    -64.0565E+06     3.97880E+06         64.0825
            1434     3.87264E-03     116.032E-03         1.73215        -1.11774        -1.22258        -1.11735         1.73175        -1.22258    -55.6507E-03     507.756E-03    -252.501E-03    -255.587E-03    -252.350E-03     507.605E-03    -255.587E-03     20.4574E-03    -41.1531E+06    -73.3849E+06    -94.2973E+06    -90.9892E+06    -76.6930E+06    -41.1531E+06     4.73025E+06         64.8219
            1435     4.64937E-03     116.032E-03         1.64474        -1.05345        -1.19986        -1.05304         1.64433        -1.19986    -61.0431E-03     506.819E-03    -251.255E-03    -255.463E-03    -250.865E-03     506.429E-03    -255.463E-03     33.5936E-03    -19.0708E+06    -50.7607E+06    -81.1786E+06    -80.4970E+06    -51.4423E+06    -19.0708E+06     4.21166E+06         65.8030
            1436     5.42713E-03     116.046E-03         1.53359    -964.028E-03        -1.17596    -963.812E-03         1.53337        -1.17596    -34.9786E-03     505.673E-03    -250.952E-03    -255.273E-03    -250.106E-03     504.827E-03    -255.273E-03     49.6980E-03    -812.067E+03    -37.6882E+06    -70.4732E+06    -70.0573E+06    -38.1042E+06    -812.067E+03     3.62588E+06         66.9901
            1437     6.19997E-03     116.082E-03         1.39638    -850.917E-03        -1.14985    -850.697E-03         1.39616        -1.14985    -21.3054E-03     503.963E-03    -250.165E-03    -255.219E-03    -248.530E-03     502.328E-03    -255.219E-03     69.3124E-03     12.2681E+06    -26.3803E+06    -61.0492E+06    -60.6954E+06    -26.7342E+06     12.2681E+06     3.45706E+06         68.3028
            1438     6.97993E-03     116.150E-03         1.26727    -746.777E-03        -1.12449    -746.491E-03         1.26698        -1.12449    -22.4029E-03     503.965E-03    -250.138E-03    -254.959E-03    -247.140E-03     500.967E-03    -254.959E-03     93.8730E-03     23.9561E+06    -16.8334E+06    -52.0609E+06    -51.7739E+06    -17.1204E+06     23.9561E+06     3.12670E+06         69.6796
            1439     7.75123E-03     116.283E-03         1.17120    -671.349E-03        -1.10411    -670.625E-03         1.17048        -1.10411     17.8343E-03     505.625E-03    -251.592E-03    -254.512E-03    -246.751E-03     500.785E-03    -254.512E-03     120.062E-03     35.7598E+06    -7.84342E+06    -43.8958E+06    -43.7767E+06    -7.96252E+06     35.7598E+06     1.86846E+06         70.9861
            1440     8.52240E-03     116.439E-03         1.08205    -597.362E-03        -1.08784    -596.782E-03         1.08147        -1.08784     23.8978E-03     507.290E-03    -252.417E-03    -254.379E-03    -245.577E-03     500.450E-03    -254.379E-03     143.099E-03     44.2122E+06    -381.299E+03    -36.2160E+06    -36.1759E+06    -421.325E+03     44.2122E+06     1.07220E+06         72.0370
            1441     9.30918E-03     116.625E-03     953.071E-03    -483.001E-03        -1.07122    -482.728E-03     952.798E-03        -1.07122     9.26784E-03     509.759E-03    -253.528E-03    -255.815E-03    -246.072E-03     500.910E-03    -254.422E-03     163.289E-03     50.1566E+06     5.76946E+06    -28.5382E+06    -28.5055E+06     5.73680E+06     50.1566E+06     796.443E+03         72.9040
            1442     10.0818E-03     116.826E-03     794.531E-03    -341.495E-03        -1.05159    -341.092E-03     794.128E-03        -1.05159     32.7586E-03     511.752E-03    -254.585E-03    -257.473E-03    -247.610E-03     501.889E-03    -254.585E-03     173.046E-03     50.9715E+06     9.67571E+06    -23.1751E+06    -23.1258E+06     9.62643E+06     50.9715E+06     954.805E+03         73.8402
            1443     10.8520E-03     117.069E-03     630.417E-03    -195.645E-03        -1.03048    -193.867E-03     628.638E-03        -1.03048     51.5588E-03     516.800E-03    -254.194E-03    -261.693E-03    -249.137E-03     504.244E-03    -254.194E-03     195.065E-03     52.3752E+06     13.9023E+06    -17.8601E+06    -17.7700E+06     13.8122E+06     52.3752E+06     1.29645E+06         75.0568
            1444     11.6262E-03     117.405E-03     453.691E-03    -44.6628E-03        -1.00465    -42.4546E-03     451.483E-03        -1.00465     38.5853E-03     518.322E-03    -253.969E-03    -263.763E-03    -250.900E-03     505.459E-03    -253.969E-03     198.110E-03     56.8098E+06     18.9115E+06    -12.0966E+06    -11.9880E+06     18.8029E+06     56.8098E+06     502.247E+03         76.8352
            1445     12.4045E-03     117.621E-03     306.722E-03     69.9231E-03    -973.649E-03     110.477E-03     266.168E-03    -973.649E-03     27.9978E-03     530.921E-03    -254.750E-03    -275.407E-03    -255.866E-03     511.379E-03    -254.750E-03     241.611E-03     60.7936E+06     22.7856E+06    -8.24768E+06    -8.15850E+06     22.6964E+06     60.7936E+06    -15.8463E+03         79.3090
            1446     13.1819E-03     118.079E-03     292.530E-03     46.1129E-03    -939.431E-03     257.957E-03     80.6853E-03    -939.431E-03     9.06388E-03     530.221E-03    -254.527E-03    -274.526E-03    -257.564E-03     513.260E-03    -254.527E-03     215.977E-03     66.2392E+06     25.3566E+06    -4.08150E+06    -4.00650E+06     25.2816E+06     66.2392E+06     26.9747E+03         82.0249
            1447     775.890E-06     117.778E-03         2.47744        -1.51033        -1.58296        -1.56035         2.46779        -1.52329     138.976E-03     510.217E-03    -254.511E-03    -255.762E-03    -255.641E-03     510.215E-03    -254.630E-03    -2.25498E-03    -114.092E+06    -119.699E+06    -212.419E+06    -117.764E+06    -212.201E+06    -116.246E+06     67.7751E+03         62.7253
            1448     1.54929E-03     117.768E-03         2.53228        -1.54459        -1.60052        -1.59299         2.53057        -1.55041    -55.5747E-03     510.540E-03    -255.174E-03    -255.576E-03    -255.441E-03     510.539E-03    -255.308E-03    -352.737E-06    -104.970E+06    -113.793E+06    -187.309E+06    -113.294E+06    -187.106E+06    -105.673E+06     2.00937E+06         63.0473
            1449     2.32514E-03     117.745E-03         2.49459        -1.52866        -1.57530        -1.54716         2.49415        -1.55635     14.3855E-03     509.644E-03    -254.525E-03    -255.427E-03    -254.623E-03     509.638E-03    -255.324E-03     3.36737E-03    -88.6694E+06    -108.109E+06    -155.814E+06    -108.621E+06    -155.302E+06    -88.6694E+06     2.70008E+06         63.5063
            1450     3.10055E-03     117.720E-03         2.40638        -1.47298        -1.54276        -1.47263         2.40603        -1.54276    -17.9080E-03     508.274E-03    -253.535E-03    -255.268E-03    -253.492E-03     508.231E-03    -255.268E-03     10.2300E-03    -67.0655E+06    -97.7965E+06    -123.451E+06    -100.918E+06    -120.330E+06    -67.0655E+06     3.55307E+06         64.0679
            1451     3.87552E-03     117.702E-03         2.30869        -1.39941        -1.51993        -1.39891         2.30820        -1.51993     17.6219E-03     507.738E-03    -252.860E-03    -255.306E-03    -252.703E-03     507.581E-03    -255.306E-03     20.9817E-03    -41.6907E+06    -73.4349E+06    -96.3162E+06    -90.8299E+06    -78.9212E+06    -41.6907E+06     4.93039E+06         64.8008
            1452     4.64989E-03     117.704E-03         2.18813        -1.30556        -1.49233        -1.30509         2.18766        -1.49233     20.8217E-03     507.301E-03    -252.023E-03    -255.315E-03    -251.630E-03     506.907E-03    -255.315E-03     33.8264E-03    -18.5790E+06    -49.2638E+06    -81.7259E+06    -80.8469E+06    -50.1428E+06    -18.5790E+06     4.68106E+06         65.7842
            1453     5.42263E-03     117.719E-03         2.04362        -1.19273        -1.45996        -1.19249         2.04338        -1.45996     27.7833E-03     505.821E-03    -251.188E-03    -255.274E-03    -250.329E-03     504.963E-03    -255.274E-03     50.0152E-03       9.125E+03    -36.8966E+06    -71.3668E+06    -70.9976E+06    -37.2658E+06       9.125E+03     3.43311E+06         66.9785
            1454     6.20132E-03     117.757E-03         1.90698        -1.09076        -1.42501        -1.09021         1.90644        -1.42501     58.3465E-03     504.174E-03    -250.362E-03    -255.249E-03    -248.741E-03     502.554E-03    -255.249E-03     69.1434E-03     13.0610E+06    -26.8306E+06    -61.0520E+06    -60.7923E+06    -27.0903E+06     13.0610E+06     2.89619E+06         68.2900
            1455     6.97765E-03     117.816E-03         1.78535        -1.00076        -1.39225        -1.00018         1.78477        -1.39225     31.1223E-03     503.693E-03    -249.533E-03    -254.930E-03    -246.575E-03     500.735E-03    -254.930E-03     93.1172E-03      24.589E+06    -16.0536E+06    -51.4363E+06    -51.2544E+06    -16.2355E+06      24.589E+06     2.42983E+06         69.6597
            1456     7.75553E-03     117.953E-03         1.64466    -889.757E-03        -1.36318    -889.139E-03         1.64404        -1.36318     26.9355E-03     504.877E-03    -250.165E-03    -254.377E-03    -245.483E-03     500.194E-03    -254.377E-03     118.000E-03     36.0160E+06    -6.38537E+06    -43.4055E+06    -43.3065E+06    -6.48441E+06     36.0160E+06     1.77576E+06         70.9691
            1457     8.53145E-03     118.111E-03         1.48026    -755.182E-03        -1.33377    -754.578E-03         1.47966        -1.33377     31.8053E-03     507.398E-03    -252.351E-03    -254.544E-03    -246.145E-03     500.854E-03    -254.205E-03     139.954E-03     45.1990E+06     370.839E+03    -35.7065E+06    -35.6479E+06     312.286E+03     45.1990E+06     1.30195E+06         72.0457
            1458     9.30096E-03     118.298E-03         1.29832    -605.970E-03        -1.30010    -605.698E-03         1.29805        -1.30010     8.13981E-03     510.188E-03    -254.049E-03    -256.338E-03    -247.380E-03     501.554E-03    -254.373E-03     161.436E-03     50.9692E+06     6.00054E+06    -28.9567E+06    -28.8494E+06     5.89317E+06     50.9692E+06     1.40456E+06         72.9395
            1459     10.0802E-03     118.501E-03         1.08742    -433.264E-03        -1.26119    -432.854E-03         1.08701        -1.26119     27.6769E-03     512.371E-03    -254.633E-03    -258.371E-03    -248.390E-03     502.390E-03    -254.633E-03     174.219E-03     52.5286E+06     10.5656E+06    -22.9492E+06    -22.8248E+06     10.4412E+06     52.5286E+06     1.21515E+06         73.8710
            1460     10.8518E-03     118.738E-03     871.891E-03    -260.572E-03        -1.21916    -260.032E-03     871.351E-03        -1.21916     35.5147E-03     516.879E-03    -254.235E-03    -262.380E-03    -249.386E-03     503.885E-03    -254.235E-03     198.487E-03     53.7718E+06     14.6855E+06    -17.6596E+06    -17.6057E+06     14.6317E+06     53.7718E+06     651.836E+03         75.0568
            1461     11.6259E-03     119.073E-03     661.651E-03    -97.9857E-03        -1.17320    -97.4211E-03     661.087E-03        -1.17320     9.96483E-03     516.935E-03    -253.951E-03    -263.072E-03    -249.895E-03     503.758E-03    -253.951E-03     200.138E-03     56.6255E+06     17.9678E+06    -12.9853E+06    -12.9478E+06     17.9302E+06     56.6255E+06     647.154E+03         76.8148
            1462     12.4084E-03     119.291E-03     448.330E-03     60.3275E-03        -1.12277     63.8569E-03     444.800E-03        -1.12277     20.2793E-03     530.216E-03    -254.656E-03    -274.864E-03    -255.398E-03     510.749E-03    -254.656E-03     241.292E-03     61.2528E+06     23.1513E+06    -8.26521E+06    -8.19386E+06     23.0799E+06     61.2528E+06     613.803E+03         79.2989
            1463     13.1835E-03     119.749E-03     339.857E-03     109.715E-03        -1.06810     240.155E-03     209.417E-03        -1.06810     18.7301E-03     531.028E-03    -254.408E-03    -275.338E-03    -258.533E-03     514.223E-03    -254.408E-03     215.177E-03     67.9306E+06     27.2448E+06    -3.57480E+06    -3.50558E+06     27.1756E+06     67.9306E+06     454.725E+03         82.0375
            1464     774.705E-06     119.445E-03         2.96127        -1.76230        -1.81832        -1.77069         2.95329        -1.80195     157.145E-03     511.222E-03    -255.140E-03    -256.168E-03    -255.810E-03     511.221E-03    -255.497E-03    -2.10557E-03    -112.781E+06    -117.831E+06    -213.723E+06    -116.463E+06    -213.640E+06    -114.232E+06     876.327E+03         62.7467
            1465     1.55006E-03     119.441E-03         2.90089        -1.71620        -1.79930        -1.73916         2.90011        -1.77556    -37.1424E-03     510.276E-03    -254.761E-03    -255.751E-03    -254.890E-03     510.275E-03    -255.621E-03    -538.971E-06    -105.787E+06    -114.308E+06    -191.820E+06    -114.422E+06    -191.706E+06    -105.787E+06     1.18845E+06         63.0553
            1466     2.32414E-03     119.411E-03         2.85771        -1.69407        -1.77565        -1.71248         2.85717        -1.75670    -16.1985E-03     508.741E-03    -253.796E-03    -255.241E-03    -253.793E-03     508.738E-03    -255.241E-03     2.21601E-03    -88.6107E+06    -108.309E+06    -159.115E+06    -108.787E+06    -158.637E+06    -88.6107E+06     2.84655E+06         63.5049
            1467     3.10065E-03     119.388E-03         2.78118        -1.65249        -1.73665        -1.65207         2.78076        -1.73665    -32.6986E-03     507.876E-03    -253.332E-03    -255.025E-03    -253.300E-03     507.845E-03    -255.025E-03     8.55661E-03    -67.3802E+06    -99.3855E+06    -126.518E+06    -101.848E+06    -124.055E+06    -67.3802E+06     3.99622E+06         64.0632
            1468     3.87597E-03     119.374E-03         2.66837        -1.56469        -1.71030        -1.56392         2.66760        -1.71030    -5.81784E-03     507.703E-03    -252.883E-03    -255.107E-03    -252.744E-03     507.563E-03    -255.107E-03     19.5687E-03    -43.6687E+06    -75.1646E+06    -100.160E+06    -93.1882E+06    -82.1363E+06    -43.6687E+06     4.93384E+06         64.7944
            1469     4.65014E-03     119.374E-03         2.54355        -1.47220        -1.67849        -1.47147         2.54282        -1.67849     675.713E-06     507.065E-03    -251.812E-03    -255.134E-03    -251.413E-03     506.666E-03    -255.134E-03     33.8380E-03    -19.5186E+06    -49.1936E+06    -84.0670E+06    -83.1819E+06    -50.0786E+06    -19.5186E+06     4.71124E+06         65.7799
            1470     5.42748E-03     119.389E-03         2.43599        -1.39922        -1.64519        -1.39878         2.43555        -1.64519    -854.293E-06     505.600E-03    -251.174E-03    -255.097E-03    -250.288E-03     504.714E-03    -255.097E-03     50.9030E-03     422.822E+03    -35.4573E+06    -72.4632E+06    -72.1087E+06    -35.8117E+06     422.822E+03     3.42953E+06         66.9896
            1471     6.20157E-03     119.425E-03         2.31342        -1.31056        -1.61220        -1.30955         2.31241        -1.61220    -8.83290E-03     504.754E-03    -251.144E-03    -255.124E-03    -249.480E-03     503.090E-03    -255.124E-03     70.1155E-03     12.9465E+06    -25.5349E+06    -62.3989E+06    -62.2482E+06    -25.6856E+06     12.9465E+06     2.27825E+06         68.3259
            1472     6.97854E-03     119.490E-03         2.14709        -1.17958        -1.57772        -1.17862         2.14613        -1.57772    -27.1205E-03     504.557E-03    -250.637E-03    -254.970E-03    -247.755E-03     501.675E-03    -254.970E-03     92.2987E-03     23.7376E+06    -15.6428E+06    -53.7366E+06    -53.6060E+06    -15.7734E+06     23.7376E+06     2.11169E+06         69.7121
            1473     7.75216E-03     119.611E-03         1.94600        -1.01747        -1.53955        -1.01723         1.94576        -1.53955    -22.2440E-03     505.098E-03    -250.600E-03    -254.501E-03    -246.077E-03     500.575E-03    -254.501E-03     115.952E-03     35.5581E+06    -5.52706E+06    -45.3876E+06    -45.2865E+06    -5.62818E+06     35.5581E+06     1.85059E+06         71.0127
            1474     8.52283E-03     119.787E-03         1.71532    -831.120E-03        -1.49517    -831.083E-03         1.71528        -1.49517     14.3778E-03     507.230E-03    -252.080E-03    -254.619E-03    -245.966E-03     500.777E-03    -254.281E-03     138.934E-03     44.9934E+06     898.196E+03    -38.1498E+06    -38.0929E+06     841.352E+03     44.9934E+06     1.33399E+06         72.0601
            1475     9.30391E-03     119.977E-03         1.48325    -651.185E-03        -1.44377    -651.170E-03         1.48324        -1.44377     5.10246E-03     509.430E-03    -253.916E-03    -255.913E-03    -246.689E-03     500.811E-03    -254.522E-03     161.094E-03     50.4867E+06     5.66549E+06    -30.9111E+06    -30.8048E+06     5.55917E+06     50.4867E+06     1.44588E+06         72.9336
            1476     10.0819E-03     120.168E-03         1.26798    -496.607E-03        -1.38771    -496.522E-03         1.26790        -1.38771     10.0387E-03     510.921E-03    -254.775E-03    -257.242E-03    -247.096E-03     500.776E-03    -254.775E-03     175.343E-03     51.6231E+06     10.3921E+06    -24.3337E+06    -24.2162E+06     10.2746E+06     51.6231E+06     1.21044E+06         73.8619
            1477     10.8560E-03     120.417E-03         1.04519    -335.355E-03        -1.32883    -334.736E-03         1.04457        -1.32883     41.2121E-03     515.573E-03    -254.172E-03    -261.531E-03    -248.519E-03     502.561E-03    -254.172E-03     198.582E-03     53.8820E+06     15.3484E+06    -18.7953E+06    -18.7211E+06     15.2742E+06     53.8820E+06     179.232E+03         75.0538
            1478     11.6320E-03     120.711E-03     802.291E-03    -155.612E-03        -1.26615    -154.922E-03     801.601E-03        -1.26615     37.0834E-03     517.022E-03    -253.811E-03    -263.411E-03    -250.336E-03     503.947E-03    -253.811E-03     199.501E-03     57.1294E+06     18.8463E+06    -14.6659E+06    -14.6196E+06     18.8000E+06     57.1294E+06     20.0647E+03         76.8185
            1479     12.4024E-03     121.000E-03     543.637E-03     33.8971E-03        -1.19828     37.1149E-03     540.419E-03        -1.19828     42.5108E-03     531.410E-03    -254.614E-03    -275.833E-03    -256.340E-03     511.916E-03    -254.614E-03     241.833E-03     61.9660E+06     24.3487E+06    -9.98411E+06    -9.90210E+06     24.2667E+06     61.9660E+06     147.528E+03         79.3097
            1480     13.1855E-03     121.387E-03     374.347E-03     127.476E-03        -1.12487     236.819E-03     265.004E-03        -1.12487     23.9010E-03     531.400E-03    -254.366E-03    -275.505E-03    -258.666E-03     514.561E-03    -254.366E-03     215.727E-03     69.0142E+06     27.5330E+06    -4.54651E+06    -4.46685E+06     27.4533E+06     69.0142E+06    -85.9262E+03         82.0670
            1481     773.395E-06     121.116E-03         3.28590        -1.91869        -1.98175        -1.94883         3.27967        -1.94538     53.1456E-03     511.860E-03    -255.162E-03    -256.825E-03    -256.404E-03     511.859E-03    -255.582E-03    -1.60130E-03    -115.559E+06    -122.261E+06    -218.135E+06    -120.551E+06    -218.072E+06    -117.332E+06     2.36163E+06         62.7872
            1482     1.54816E-03     121.107E-03         3.15318        -1.84066        -1.92534        -1.83879         3.15072        -1.92475    -107.322E-03     509.991E-03    -254.403E-03    -255.797E-03    -254.403E-03     509.991E-03    -255.797E-03    -814.534E-06    -105.140E+06    -116.824E+06    -194.784E+06    -116.889E+06    -194.719E+06    -105.140E+06     2.17452E+06         63.0873
            1483     2.32584E-03     121.081E-03         3.04959        -1.77653        -1.88391        -1.77569         3.04874        -1.88391    -42.2380E-03     508.798E-03    -253.736E-03    -255.338E-03    -253.733E-03     508.795E-03    -255.338E-03     2.21800E-03    -88.2938E+06    -110.701E+06    -164.976E+06    -111.059E+06    -164.618E+06    -88.2938E+06     2.47342E+06         63.5253
            1484     3.10027E-03     121.055E-03         2.98057        -1.73851        -1.85062        -1.73790         2.97996        -1.85062    -86.5680E-03     508.386E-03    -253.715E-03    -255.139E-03    -253.682E-03     508.354E-03    -255.139E-03     8.85205E-03    -66.0570E+06    -100.114E+06    -131.667E+06    -102.393E+06    -129.388E+06    -66.0570E+06     4.90313E+06         64.0699
            1485     3.87483E-03     121.041E-03         2.89659        -1.67991        -1.82167        -1.67899         2.89567        -1.82167    -106.505E-03     507.797E-03    -252.818E-03    -255.250E-03    -252.694E-03     507.673E-03    -255.250E-03     18.6943E-03    -42.5674E+06    -74.4885E+06    -102.086E+06    -92.9777E+06    -83.5967E+06    -42.5674E+06     5.71704E+06         64.7921
            1486     4.65213E-03     121.040E-03         2.78735        -1.60149        -1.79158        -1.60049         2.78636        -1.79158    -118.735E-03     506.907E-03    -251.401E-03    -255.238E-03    -251.055E-03     506.561E-03    -255.238E-03     31.4705E-03    -19.9149E+06    -48.4421E+06    -83.5281E+06    -82.7260E+06    -49.2441E+06    -19.9149E+06     4.70078E+06         65.7700
            1487     5.42618E-03     121.057E-03         2.64489        -1.49636        -1.75780        -1.49601         2.64454        -1.75780    -62.7014E-03     505.614E-03    -250.997E-03    -255.152E-03    -250.194E-03     504.811E-03    -255.152E-03     48.3353E-03    -617.138E+03    -34.3196E+06    -73.0926E+06    -72.6115E+06    -34.8007E+06    -617.138E+03     4.19326E+06         66.9829
            1488     6.20325E-03     121.095E-03         2.46636        -1.35968        -1.71809        -1.35902         2.46570        -1.71809    -38.1888E-03     504.818E-03    -251.095E-03    -255.221E-03    -249.483E-03     503.206E-03    -255.221E-03     68.8503E-03     13.4954E+06    -23.6560E+06    -63.6599E+06    -63.3790E+06    -23.9369E+06     13.4954E+06     3.16053E+06         68.3435
            1489     6.97785E-03     121.163E-03         2.25296        -1.19430        -1.67095        -1.19372         2.25239        -1.67095    -25.0593E-03     504.987E-03    -251.251E-03    -255.153E-03    -248.315E-03     502.051E-03    -255.153E-03     93.1052E-03     24.8158E+06    -14.9109E+06    -54.8670E+06    -54.7158E+06    -15.0622E+06     24.8158E+06     2.06522E+06         69.7598
            1490     7.75024E-03     121.290E-03         2.03416        -1.03194        -1.61723        -1.03176         2.03398        -1.61723    -2.65951E-03     506.108E-03    -252.270E-03    -254.715E-03    -247.469E-03     501.307E-03    -254.715E-03     119.548E-03     35.6137E+06    -5.79119E+06    -46.2270E+06    -46.1202E+06    -5.89795E+06     35.6137E+06     1.70489E+06         71.0680
            1491     8.52516E-03     121.455E-03         1.82253    -881.295E-03        -1.55904    -881.232E-03         1.82246        -1.55904     9.73902E-03     507.340E-03    -252.539E-03    -254.293E-03    -245.842E-03     500.642E-03    -254.293E-03     141.759E-03     45.6871E+06     1.87595E+06    -37.8827E+06    -37.7914E+06     1.78462E+06     45.6871E+06     1.76979E+06         72.0740
            1492     9.30036E-03     121.649E-03         1.58728    -710.188E-03        -1.49647    -710.153E-03         1.58724        -1.49647    -6.23965E-03     508.529E-03    -253.450E-03    -254.853E-03    -245.254E-03     499.967E-03    -254.488E-03     160.389E-03     51.2967E+06     6.27232E+06    -31.0687E+06    -30.9983E+06     6.20195E+06     51.2967E+06     1.40662E+06         72.8948
            1493     10.0712E-03     121.909E-03         1.32914    -520.856E-03        -1.42854    -520.768E-03         1.32905        -1.42854     13.3308E-03     510.096E-03    -254.931E-03    -256.300E-03    -246.382E-03     500.177E-03    -254.931E-03     173.212E-03     52.9748E+06     10.2943E+06    -24.4088E+06    -24.3440E+06     10.2294E+06     52.9748E+06     1.18699E+06         73.8237
            1494     10.8541E-03     122.110E-03         1.07414    -340.061E-03        -1.35563    -339.537E-03         1.07361        -1.35563     44.7247E-03     514.538E-03    -254.208E-03    -260.636E-03    -247.791E-03     501.693E-03    -254.208E-03     196.949E-03     55.3761E+06     15.8805E+06    -18.6098E+06    -18.4811E+06     15.7518E+06     55.3761E+06     931.763E+03         75.0549
            1495     11.6383E-03     122.349E-03     809.762E-03    -153.958E-03        -1.27812    -153.347E-03     809.151E-03        -1.27812     32.9236E-03     517.192E-03    -253.660E-03    -263.587E-03    -250.453E-03     504.058E-03    -253.660E-03     200.033E-03     59.7176E+06     20.3263E+06    -13.5464E+06    -13.4398E+06     20.2197E+06     59.7176E+06     352.073E+03         76.8406
            1496     12.4005E-03     122.673E-03     531.740E-03     40.6925E-03        -1.19492     42.5521E-03     529.881E-03        -1.19492     28.9471E-03     532.951E-03    -254.573E-03    -277.412E-03    -257.741E-03     513.280E-03    -254.573E-03     243.487E-03     64.5418E+06     25.7966E+06    -8.73572E+06    -8.66585E+06     25.7267E+06     64.5418E+06    -121.002E+03         79.3351
            1497     13.1864E-03     123.046E-03     362.748E-03     121.440E-03        -1.10728     235.986E-03     248.203E-03        -1.10728     15.1440E-03     532.162E-03    -254.383E-03    -276.423E-03    -259.556E-03     515.295E-03    -254.383E-03     215.692E-03     69.7552E+06     27.1699E+06    -4.71612E+06    -4.64518E+06     27.0990E+06     69.7552E+06    -351.763E+03         82.1019
            1498     774.728E-06     122.796E-03         3.22252        -1.89408        -1.93904        -1.92099         3.20991        -1.89952     114.772E-03     510.846E-03    -254.590E-03    -256.301E-03    -256.118E-03     510.846E-03    -254.773E-03    -946.399E-06    -119.710E+06    -124.951E+06    -223.452E+06    -123.228E+06    -223.402E+06    -121.483E+06     920.795E+03         62.7925
            1499     1.54945E-03     122.799E-03         3.22247        -1.88753        -1.94728        -1.91877         3.21870        -1.91226    -134.826E-03     510.679E-03    -254.939E-03    -255.914E-03    -255.245E-03     510.679E-03    -255.607E-03    -658.615E-06    -106.763E+06    -118.032E+06    -197.548E+06    -118.099E+06    -197.481E+06    -106.763E+06     2.05536E+06         63.1084
            1500     2.32377E-03     122.762E-03         3.14236        -1.82842        -1.92477        -1.84664         3.14087        -1.90505    -52.1046E-03     509.859E-03    -254.430E-03    -255.676E-03    -254.565E-03     509.855E-03    -255.536E-03     2.26859E-03    -88.0085E+06    -110.843E+06    -170.675E+06    -111.234E+06    -170.284E+06    -88.0085E+06     3.54735E+06         63.5486
            1501     3.09912E-03     122.743E-03         3.02107        -1.75108        -1.87977        -1.74990         3.01989        -1.87977    -100.651E-03     508.705E-03    -253.813E-03    -255.358E-03    -253.783E-03     508.675E-03    -255.358E-03     8.69182E-03    -66.7512E+06    -101.919E+06    -135.569E+06    -103.026E+06    -134.462E+06    -66.7512E+06     4.51961E+06         64.0807
            1502     3.87385E-03     122.731E-03         2.91159        -1.67587        -1.84673        -1.67538         2.91110        -1.84673    -44.3858E-03     507.834E-03    -252.904E-03    -255.375E-03    -252.777E-03     507.707E-03    -255.375E-03     18.6292E-03    -43.2696E+06    -77.2685E+06    -101.561E+06    -92.3460E+06    -86.4830E+06    -43.2696E+06     5.25938E+06         64.7863
            1503     4.64617E-03     122.736E-03         2.77531        -1.57585        -1.80991        -1.57507         2.77453        -1.80991    -44.4781E-03     507.196E-03    -251.756E-03    -255.344E-03    -251.392E-03     506.832E-03    -255.344E-03     32.2613E-03    -19.2120E+06    -49.4345E+06    -83.5862E+06    -82.4478E+06    -50.5730E+06    -19.2120E+06     5.92768E+06         65.7493
            1504     5.42236E-03     122.758E-03         2.57941        -1.42587        -1.76503        -1.42553         2.57907        -1.76503     11.0682E-03     505.954E-03    -251.194E-03    -255.320E-03    -250.379E-03     505.140E-03    -255.320E-03     48.7661E-03     628.052E+03    -32.9632E+06    -73.9187E+06    -73.1576E+06    -33.7244E+06     628.052E+03     5.38933E+06         66.9506
            1505     6.19716E-03     122.806E-03         2.37309        -1.27517        -1.71106        -1.27497         2.37289        -1.71106     31.4427E-03     504.815E-03    -250.766E-03    -255.568E-03    -249.219E-03     503.269E-03    -255.568E-03     67.5602E-03     13.5503E+06    -22.2351E+06    -64.3462E+06    -63.8500E+06    -22.7313E+06     13.5503E+06     4.51730E+06         68.3066
            1506     6.97352E-03     122.882E-03         2.18715        -1.15134        -1.65179        -1.15114         2.18694        -1.65179     18.9155E-03     504.639E-03    -250.524E-03    -255.574E-03    -247.722E-03     501.837E-03    -255.574E-03     90.7595E-03     26.1028E+06    -12.6520E+06    -55.0254E+06    -54.7883E+06    -12.8891E+06     26.1028E+06     2.74964E+06         69.7276
            1507     7.74791E-03     123.035E-03         1.99347        -1.02248        -1.59012        -1.02240         1.99338        -1.59012     12.0916E-03     505.827E-03    -251.884E-03    -254.982E-03    -247.203E-03     501.146E-03    -254.982E-03     117.897E-03     38.0482E+06    -5.01264E+06    -46.1551E+06    -46.0620E+06    -5.10570E+06     38.0482E+06     1.61984E+06         71.0529
            1508     8.52394E-03     123.127E-03         1.77811    -874.053E-03        -1.52628    -873.949E-03         1.77801        -1.52628     21.4010E-03     507.380E-03    -252.785E-03    -254.177E-03    -246.014E-03     500.609E-03    -254.177E-03     142.421E-03     46.2676E+06     1.51789E+06    -38.1779E+06    -38.1005E+06     1.44054E+06     46.2676E+06     1.58318E+06         72.0832
            1509     9.31312E-03     123.225E-03         1.54689    -711.686E-03        -1.45710    -711.484E-03         1.54669        -1.45710    -19.4104E-03     508.710E-03    -253.540E-03    -254.857E-03    -245.369E-03     499.851E-03    -254.168E-03     163.171E-03     52.7184E+06     8.28315E+06    -30.5484E+06    -30.4885E+06     8.22322E+06     52.7184E+06     1.39630E+06         72.9173
            1510     10.0762E-03     123.532E-03         1.28819    -527.480E-03        -1.38085    -527.309E-03         1.28802        -1.38085    -16.7292E-03     510.164E-03    -254.898E-03    -256.455E-03    -246.444E-03     500.153E-03    -254.898E-03     174.056E-03     55.5982E+06     11.7009E+06    -23.4189E+06    -23.3808E+06     11.6628E+06     55.5982E+06     621.746E+03         73.8492
            1511     10.8531E-03     123.736E-03         1.00174    -323.192E-03        -1.29935    -322.928E-03         1.00148        -1.29935     28.3191E-03     514.823E-03    -254.303E-03    -260.820E-03    -248.010E-03     502.013E-03    -254.303E-03     196.657E-03     58.0170E+06     16.1729E+06    -17.1867E+06    -17.1139E+06     16.1002E+06     58.0170E+06     671.163E+03         75.0816
            1512     11.6408E-03     123.983E-03     709.785E-03    -121.499E-03        -1.21168    -121.004E-03     709.290E-03        -1.21168     6.65669E-03     517.550E-03    -253.627E-03    -263.917E-03    -250.830E-03     504.463E-03    -253.627E-03     199.664E-03     62.3465E+06     20.5639E+06    -12.3761E+06    -12.2560E+06     20.4438E+06     62.3465E+06     1.18338E+06         76.8571
            1513     12.4042E-03     124.342E-03     421.826E-03     67.5937E-03        -1.11653     69.7756E-03     419.644E-03        -1.11653    -5.97927E-03     532.408E-03    -254.593E-03    -277.027E-03    -257.858E-03     513.239E-03    -254.593E-03     240.390E-03     67.1924E+06     26.2166E+06    -7.47246E+06    -7.40261E+06     26.1468E+06     67.1924E+06     916.629E+03         79.3357
            1514     13.1849E-03     124.707E-03     317.472E-03     68.9110E-03        -1.01870     259.543E-03     126.841E-03        -1.01870    -15.3175E-03     531.692E-03    -254.492E-03    -276.018E-03    -259.546E-03     515.220E-03    -254.492E-03     213.545E-03     70.9998E+06     28.1702E+06    -3.81762E+06    -3.72589E+06     28.0785E+06     70.9998E+06     858.998E+03         82.0908
            1515     776.088E-06     124.457E-03         2.98438        -1.76799        -1.81687        -1.79044         2.96991        -1.77995     185.464E-03     510.459E-03    -254.302E-03    -256.171E-03    -256.045E-03     510.455E-03    -254.424E-03    -2.58430E-03    -118.700E+06    -121.402E+06    -226.481E+06    -121.443E+06    -226.440E+06    -118.700E+06     763.797E+03         62.7566
            1516     1.54953E-03     124.462E-03         2.97807        -1.76199        -1.82191        -1.79372         2.97536        -1.78748    -106.079E-03     511.014E-03    -255.363E-03    -255.881E-03    -255.668E-03     511.013E-03    -255.574E-03    -1.33485E-03    -108.049E+06    -117.840E+06    -202.645E+06    -117.933E+06    -202.552E+06    -108.049E+06     2.59745E+06         63.0879
            1517     2.32346E-03     124.430E-03         2.94187        -1.74213        -1.80709        -1.76031         2.94035        -1.78737    -61.8833E-03     510.415E-03    -254.957E-03    -255.754E-03    -255.091E-03     510.411E-03    -255.615E-03     2.56231E-03    -89.3063E+06    -111.414E+06    -175.405E+06    -111.712E+06    -175.107E+06    -89.3063E+06     3.75071E+06         63.5460
            1518     3.09882E-03     124.389E-03         2.82739        -1.66320        -1.77260        -1.66192         2.82611        -1.77260    -98.4985E-03     508.679E-03    -253.751E-03    -255.402E-03    -253.717E-03     508.646E-03    -255.402E-03     9.30962E-03    -67.8557E+06    -102.414E+06    -139.125E+06    -103.470E+06    -138.069E+06    -67.8557E+06     4.61341E+06         64.1042
            1519     3.87546E-03     124.357E-03         2.65211        -1.52196        -1.73951        -1.52188         2.65204        -1.73951    -7.27247E-03     507.461E-03    -252.629E-03    -255.265E-03    -252.498E-03     507.331E-03    -255.265E-03     18.9185E-03    -44.9374E+06    -81.7452E+06    -106.245E+06    -95.8553E+06    -92.1350E+06    -44.9374E+06     5.76679E+06         64.8377
            1520     4.65467E-03     124.348E-03         2.49126        -1.40628        -1.69401        -1.40586         2.49083        -1.69401    -13.8924E-03     506.967E-03    -251.698E-03    -255.125E-03    -251.327E-03     506.596E-03    -255.125E-03     32.5291E-03    -20.0042E+06    -51.4684E+06    -86.7147E+06    -85.3426E+06    -52.8406E+06    -20.0042E+06     6.45193E+06         65.8056
            1521     5.42831E-03     124.369E-03         2.35562        -1.32057        -1.64407        -1.32016         2.35521        -1.64407     1.35337E-03     505.849E-03    -251.242E-03    -255.166E-03    -250.414E-03     505.020E-03    -255.166E-03     49.2371E-03     299.125E+03    -31.8824E+06    -74.7530E+06    -73.9528E+06    -32.6827E+06     299.125E+03     5.65571E+06         66.9860
            1522     6.20156E-03     124.436E-03         2.19909        -1.21643        -1.59121        -1.21637         2.19902        -1.59121    -8.09675E-03     505.130E-03    -251.005E-03    -255.622E-03    -249.425E-03     503.550E-03    -255.622E-03     68.2727E-03     13.7479E+06    -21.0270E+06    -64.2054E+06    -63.7188E+06    -21.5137E+06     13.7479E+06     4.52694E+06         68.3066
            1523     6.97050E-03     124.545E-03         2.00753        -1.08541        -1.53336        -1.08534         2.00746        -1.53336    -24.4524E-03     505.272E-03    -250.954E-03    -255.861E-03    -248.118E-03     502.436E-03    -255.861E-03     91.4273E-03     26.7363E+06    -10.0934E+06    -54.3359E+06    -53.9904E+06    -10.4388E+06     26.7363E+06     3.83151E+06         69.6898
            1524     7.74175E-03     124.670E-03         1.80263    -946.478E-03        -1.47124    -946.347E-03         1.80250        -1.47124    -20.8375E-03     505.535E-03    -250.943E-03    -255.216E-03    -246.304E-03     500.896E-03    -255.216E-03     117.331E-03     39.7774E+06    -3.16327E+06    -45.5771E+06    -45.3751E+06    -3.36524E+06     39.7774E+06     2.68241E+06         70.9977
            1525     8.52922E-03     124.776E-03         1.58180    -791.710E-03        -1.40582    -791.452E-03         1.58155        -1.40582    -12.2226E-03     506.719E-03    -251.563E-03    -254.113E-03    -244.768E-03     499.924E-03    -254.113E-03     142.406E-03     49.4088E+06     1.84915E+06    -37.8921E+06    -37.8191E+06     1.77615E+06     49.4088E+06     1.45794E+06         72.0577
            1526     9.31431E-03     124.899E-03         1.33795    -621.614E-03        -1.33149    -621.266E-03         1.33760        -1.33149    -30.8041E-03     509.134E-03    -253.364E-03    -255.403E-03    -245.871E-03     500.221E-03    -253.983E-03     163.832E-03     55.2044E+06     9.33720E+06    -30.4442E+06    -30.4204E+06     9.31342E+06     55.2044E+06     943.232E+03         72.9353
            1527     10.0729E-03     125.221E-03         1.08369    -451.992E-03        -1.24721    -451.722E-03         1.08342        -1.24721    -29.5993E-03     511.485E-03    -254.922E-03    -257.509E-03    -247.598E-03     501.574E-03    -254.922E-03     173.463E-03     56.5056E+06     13.2319E+06    -23.5155E+06    -23.5035E+06     13.2198E+06     56.5056E+06     189.868E+03         73.8673
            1528     10.8514E-03     125.418E-03     817.372E-03    -275.200E-03        -1.15958    -274.917E-03     817.089E-03        -1.15958     7.18432E-03     517.110E-03    -254.470E-03    -262.251E-03    -249.572E-03     504.431E-03    -254.470E-03     196.102E-03     57.9125E+06     15.6630E+06    -18.3558E+06    -18.3042E+06     15.6115E+06     57.9125E+06     397.599E+03         75.0708
            1529     11.6363E-03     125.666E-03     537.113E-03    -91.6286E-03        -1.06640    -90.8566E-03     536.341E-03        -1.06640     16.3881E-03     518.857E-03    -253.746E-03    -264.467E-03    -251.552E-03     505.942E-03    -253.746E-03     198.579E-03     62.2247E+06     20.5940E+06    -13.3439E+06    -13.2465E+06     20.4966E+06     62.2247E+06     1.35084E+06         76.8149
            1530     12.3954E-03     126.018E-03     290.978E-03     46.9629E-03    -963.572E-03     90.6397E-03     247.302E-03    -963.572E-03     22.6101E-03     531.394E-03    -254.702E-03    -275.675E-03    -256.578E-03     512.297E-03    -254.702E-03     239.237E-03     66.2462E+06     25.1040E+06    -8.59365E+06    -8.43706E+06     24.9474E+06     66.2462E+06     1.73753E+06         79.2635
            1531     13.1819E-03     126.388E-03     273.605E-03    -49.8710E-03    -859.313E-03     269.242E-03    -45.5079E-03    -859.313E-03     1.78549E-03     530.164E-03    -254.606E-03    -274.285E-03    -257.687E-03     513.566E-03    -254.606E-03     214.281E-03     70.7846E+06     28.8466E+06    -4.56187E+06    -4.38825E+06     28.6730E+06     70.7846E+06     1.53723E+06         82.0035
            1532     773.127E-06     126.122E-03         2.57672        -1.55635        -1.60786        -1.56891         2.54740        -1.56598     280.916E-03     511.347E-03    -254.981E-03    -256.391E-03    -255.899E-03     511.344E-03    -255.470E-03    -2.60034E-03    -120.120E+06    -124.435E+06    -233.879E+06    -122.762E+06    -233.803E+06    -121.869E+06     2.74928E+06         62.7047
            1533     1.54876E-03     126.129E-03         2.47018        -1.50611        -1.55495        -1.50172         2.46580        -1.55495    -87.0209E-03     510.682E-03    -255.111E-03    -255.769E-03    -255.110E-03     510.681E-03    -255.769E-03    -940.529E-06    -110.783E+06    -121.276E+06    -207.971E+06    -121.438E+06    -207.809E+06    -110.783E+06     3.51139E+06         63.0306
            1534     2.32373E-03     126.105E-03         2.39099        -1.45332        -1.53244        -1.45146         2.38913        -1.53244    -12.7647E-03     509.889E-03    -254.635E-03    -255.621E-03    -254.632E-03     509.885E-03    -255.621E-03     2.39251E-03    -92.0279E+06    -115.040E+06    -180.360E+06    -115.407E+06    -179.993E+06    -92.0279E+06     4.44270E+06         63.5031
            1535     3.09917E-03     126.072E-03         2.34382        -1.42647        -1.51353        -1.42544         2.34279        -1.51353    -85.2122E-03     508.678E-03    -253.811E-03    -255.364E-03    -253.777E-03     508.645E-03    -255.364E-03     8.96858E-03    -70.2566E+06    -106.087E+06    -144.117E+06    -107.312E+06    -142.892E+06    -70.2566E+06     5.25094E+06         64.0988
            1536     3.87543E-03     126.050E-03         2.26807        -1.36967        -1.49407        -1.36919         2.26760        -1.49407    -48.8058E-03     507.706E-03    -252.958E-03    -255.224E-03    -252.827E-03     507.574E-03    -255.224E-03     19.0759E-03    -45.1373E+06    -84.6405E+06    -107.335E+06    -96.4225E+06    -95.5529E+06    -45.1373E+06     5.61835E+06         64.8690
            1537     4.64864E-03     126.040E-03         2.14388        -1.27306        -1.46608        -1.27237         2.14318        -1.46608    -64.9573E-03     506.999E-03    -251.769E-03    -255.090E-03    -251.395E-03     506.625E-03    -255.090E-03     32.6509E-03    -21.4988E+06    -53.2219E+06    -86.4355E+06    -85.2536E+06    -54.4038E+06    -21.4988E+06     5.73331E+06         65.8486
            1538     5.42504E-03     126.071E-03         2.00425        -1.17195        -1.42758        -1.17166         2.00396        -1.42758    -13.3473E-03     505.505E-03    -250.953E-03    -255.138E-03    -250.112E-03     504.663E-03    -255.138E-03     49.5789E-03    -1.76646E+06    -31.1990E+06    -75.2175E+06    -74.5424E+06    -31.8741E+06    -1.76646E+06     5.36224E+06         67.0150
            1539     6.19978E-03     126.127E-03         1.85932        -1.07476        -1.38036        -1.07468         1.85924        -1.38036    -5.64591E-03     505.056E-03    -251.026E-03    -255.590E-03    -249.411E-03     503.441E-03    -255.590E-03     69.0162E-03     13.8502E+06    -19.7463E+06    -64.3470E+06    -63.9295E+06    -20.1637E+06     13.8502E+06     4.22077E+06         68.3073
            1540     6.97092E-03     126.240E-03         1.68578    -957.229E-03        -1.32595    -957.178E-03         1.68573        -1.32595    -15.6963E-03     505.485E-03    -250.856E-03    -255.841E-03    -247.937E-03     502.566E-03    -255.841E-03     92.7818E-03     27.2675E+06    -9.85011E+06    -54.7831E+06    -54.4952E+06    -10.1381E+06     27.2675E+06     3.52544E+06         69.6574
            1541     7.74633E-03     126.350E-03         1.47160    -806.406E-03        -1.26603    -806.278E-03         1.47147        -1.26603    -29.9366E-03     505.898E-03    -251.079E-03    -255.177E-03    -246.419E-03     501.238E-03    -255.177E-03     117.806E-03     39.6613E+06    -2.44236E+06    -46.4271E+06    -46.1972E+06    -2.67227E+06     39.6613E+06     3.09283E+06         70.9395
            1542     8.52580E-03     126.443E-03         1.23638    -641.348E-03        -1.20074    -640.856E-03         1.23589        -1.20074    -19.0884E-03     506.962E-03    -251.963E-03    -254.059E-03    -245.258E-03     500.258E-03    -254.059E-03     141.515E-03     50.8744E+06     3.71713E+06    -38.1370E+06    -37.9888E+06     3.56889E+06     50.8744E+06     2.33559E+06         71.9836
            1543     9.31487E-03     126.576E-03     996.755E-03    -480.898E-03        -1.12289    -480.353E-03     996.210E-03        -1.12289     8.30443E-03     508.610E-03    -253.488E-03    -254.804E-03    -245.610E-03     499.954E-03    -254.027E-03     161.419E-03     57.0355E+06     10.4131E+06    -30.8611E+06    -30.7924E+06     10.3444E+06     57.0355E+06     1.36367E+06         72.8487
            1544     10.0740E-03     126.888E-03     748.613E-03    -322.453E-03        -1.03262    -321.388E-03     747.548E-03        -1.03262     19.9151E-03     512.234E-03    -255.036E-03    -257.981E-03    -248.279E-03     502.532E-03    -255.036E-03     171.783E-03     56.3395E+06     13.0983E+06    -25.7226E+06    -25.6516E+06     13.0274E+06     56.3395E+06     1.09762E+06         73.7733
            1545     10.8490E-03     127.084E-03     500.360E-03    -168.589E-03    -940.729E-03    -165.322E-03     497.094E-03    -940.729E-03     37.2487E-03     519.398E-03    -254.598E-03    -263.759E-03    -250.928E-03     506.567E-03    -254.598E-03     197.619E-03     57.3107E+06     15.9071E+06    -20.5031E+06    -20.3806E+06     15.7846E+06     57.3107E+06     1.05861E+06         74.9720
            1546     11.6328E-03     127.331E-03     286.276E-03    -53.4654E-03    -844.570E-03    -7.72475E-03     240.535E-03    -844.570E-03     46.5156E-03     519.361E-03    -253.861E-03    -264.325E-03    -251.170E-03     506.206E-03    -253.861E-03     200.431E-03     61.7734E+06     20.5347E+06    -14.3592E+06    -14.2601E+06     20.4356E+06     61.7734E+06     990.476E+03         76.7072
            1547     12.3985E-03     127.672E-03     209.434E-03    -85.4323E-03    -737.833E-03     145.643E-03    -21.6411E-03    -737.833E-03     60.7681E-03     530.629E-03    -254.737E-03    -274.835E-03    -255.222E-03     511.017E-03    -254.737E-03     241.962E-03     65.5279E+06     24.2563E+06    -9.76345E+06    -9.61622E+06     24.1091E+06     65.5279E+06     1.55487E+06         79.1476
            1548     13.1838E-03     128.041E-03     292.174E-03    -259.646E-03    -646.532E-03     288.419E-03    -270.622E-03    -631.801E-03     14.0195E-03     529.311E-03    -254.572E-03    -273.327E-03    -256.240E-03     512.224E-03    -254.572E-03     216.988E-03     71.5941E+06     30.4618E+06    -5.00788E+06    -4.87592E+06     30.3298E+06     71.5941E+06     1.18712E+06         81.8874
            1549     775.499E-06     127.780E-03         1.85857        -1.17009        -1.25942        -1.15145         1.82015        -1.23963     212.469E-03     511.299E-03    -255.319E-03    -256.091E-03    -255.535E-03     511.299E-03    -255.874E-03    -1.25150E-03    -122.163E+06    -126.437E+06    -241.916E+06    -124.833E+06    -241.771E+06    -123.911E+06     577.449E+03         62.6533
            1550     1.54875E-03     127.785E-03         1.78959        -1.16700        -1.19820        -1.16566         1.78041        -1.19036    -153.704E-03     510.787E-03    -254.997E-03    -255.962E-03    -255.213E-03     510.787E-03    -255.745E-03    -762.285E-06    -112.643E+06    -120.752E+06    -215.777E+06    -120.961E+06    -215.567E+06    -112.643E+06     3.95269E+06         62.9771
            1551     2.32376E-03     127.758E-03         1.74639        -1.13129        -1.19121        -1.13657         1.74173        -1.18127    -70.4191E-03     509.491E-03    -254.207E-03    -255.581E-03    -254.202E-03     509.486E-03    -255.581E-03     2.55622E-03    -95.4126E+06    -116.126E+06    -183.790E+06    -116.439E+06    -183.477E+06    -95.4126E+06     4.54781E+06         63.4584
            1552     3.09893E-03     127.735E-03         1.70620        -1.11164        -1.17373        -1.10989         1.70226        -1.17154    -125.895E-03     508.667E-03    -253.819E-03    -255.287E-03    -253.786E-03     508.634E-03    -255.287E-03     9.12505E-03    -72.5016E+06    -106.332E+06    -146.751E+06    -107.341E+06    -145.742E+06    -72.5016E+06     4.08054E+06         64.0616
            1553     3.87448E-03     127.714E-03         1.67681        -1.09717        -1.16116        -1.09620         1.67585        -1.16116    -66.5936E-03     507.886E-03    -253.012E-03    -255.190E-03    -252.872E-03     507.746E-03    -255.190E-03     19.5461E-03    -47.3448E+06    -86.2221E+06    -109.669E+06    -96.6003E+06    -99.2908E+06    -47.3448E+06     4.96879E+06         64.8223
            1554     4.65200E-03     127.714E-03         1.61641        -1.05141        -1.14695        -1.05040         1.61540        -1.14695    -55.2896E-03     506.947E-03    -251.728E-03    -255.116E-03    -251.348E-03     506.566E-03    -255.116E-03     33.1652E-03    -22.0026E+06    -54.7771E+06    -87.8469E+06    -86.5417E+06    -56.0823E+06    -22.0026E+06     5.57782E+06         65.7991
            1555     5.42724E-03     127.725E-03         1.49432    -955.386E-03        -1.12131    -955.137E-03         1.49407        -1.12131     43.6682E-03     505.738E-03    -251.219E-03    -255.178E-03    -250.377E-03     504.896E-03    -255.178E-03     49.5373E-03    -1.19529E+06    -30.2341E+06    -76.5837E+06    -76.0294E+06    -30.7884E+06    -1.19529E+06     4.83821E+06         66.9728
            1556     6.20016E-03     127.799E-03         1.33347    -834.806E-03        -1.08071    -834.569E-03         1.33323        -1.08071     36.8844E-03     505.102E-03    -251.013E-03    -255.655E-03    -249.456E-03     503.545E-03    -255.655E-03     67.9439E-03     13.2815E+06    -19.1633E+06    -66.1071E+06    -65.7873E+06    -19.4831E+06     13.2815E+06     3.72403E+06         68.2676
            1557     6.97133E-03     127.888E-03         1.15650    -712.074E-03        -1.02816    -711.809E-03         1.15624        -1.02816     25.2831E-03     505.307E-03    -250.555E-03    -255.840E-03    -247.816E-03     502.568E-03    -255.840E-03     89.8941E-03     25.9945E+06    -10.9864E+06    -57.2357E+06    -57.0263E+06    -11.1959E+06     25.9945E+06     3.10013E+06         69.6181
            1558     7.74597E-03     128.007E-03     971.019E-03    -589.075E-03    -969.595E-03    -588.706E-03     970.650E-03    -969.595E-03     17.3111E-03     505.927E-03    -251.603E-03    -255.181E-03    -247.152E-03     501.477E-03    -255.181E-03     115.134E-03     39.7328E+06    -1.70922E+06    -48.2998E+06    -48.0662E+06    -1.94275E+06     39.7328E+06     3.21462E+06         70.8996
            1559     8.52741E-03     128.104E-03     776.945E-03    -462.814E-03    -907.686E-03    -461.673E-03     775.804E-03    -907.686E-03     44.0144E-03     506.870E-03    -252.426E-03    -254.144E-03    -245.831E-03     500.275E-03    -254.144E-03     140.309E-03     50.7613E+06     6.19140E+06    -39.6248E+06    -39.4001E+06     5.96670E+06     50.7613E+06     3.10981E+06         71.9191
            1560     9.31096E-03     128.229E-03     559.568E-03    -323.470E-03    -832.873E-03    -322.340E-03     558.438E-03    -832.873E-03     55.0747E-03     508.644E-03    -253.262E-03    -255.027E-03    -245.429E-03     499.833E-03    -254.048E-03     162.735E-03     56.0747E+06     10.7378E+06    -32.6050E+06    -32.3351E+06     10.4679E+06     56.0747E+06     2.85544E+06         72.7424
            1561     10.0755E-03     128.533E-03     332.319E-03    -188.286E-03    -743.091E-03    -171.475E-03     315.508E-03    -743.091E-03     46.5540E-03     512.595E-03    -254.989E-03    -258.483E-03    -248.535E-03     502.648E-03    -254.989E-03     173.988E-03     56.3935E+06     14.3618E+06    -26.5082E+06    -26.2227E+06     14.0763E+06     56.3935E+06     2.89155E+06         73.6489
            1562     10.8506E-03     128.748E-03     181.400E-03    -131.011E-03    -652.353E-03    -33.8286E-03     84.2176E-03    -652.353E-03     82.0680E-03     518.240E-03    -254.555E-03    -263.248E-03    -250.278E-03     505.271E-03    -254.555E-03     198.441E-03     58.4158E+06     17.8134E+06    -20.3704E+06    -20.1602E+06     17.6031E+06     58.4158E+06     2.01938E+06         74.8494
            1563     11.6367E-03     128.991E-03     143.028E-03    -170.398E-03    -575.432E-03     86.2002E-03    -129.841E-03    -559.160E-03     55.7409E-03     517.624E-03    -253.811E-03    -263.308E-03    -250.034E-03     504.350E-03    -253.811E-03     200.957E-03     62.3080E+06     20.1718E+06    -15.8350E+06    -15.6806E+06     20.0175E+06     62.3080E+06     869.592E+03         76.5893
            1564     12.3987E-03     129.339E-03     216.785E-03    -245.650E-03    -571.716E-03     215.299E-03    -360.841E-03    -455.040E-03     21.2079E-03     530.411E-03    -254.641E-03    -274.804E-03    -255.043E-03     510.650E-03    -254.641E-03     242.881E-03     66.6311E+06     24.4890E+06    -10.9302E+06    -10.8796E+06     24.4384E+06     66.6311E+06     90.8042E+03         79.0363
            1565     13.1850E-03     129.733E-03     331.623E-03    -295.446E-03    -637.320E-03     330.021E-03    -577.899E-03    -353.266E-03    -13.9377E-03     529.457E-03    -254.463E-03    -273.526E-03    -256.337E-03     512.268E-03    -254.463E-03     217.602E-03     72.5718E+06     30.9584E+06    -5.04563E+06    -4.99385E+06     30.9066E+06     72.5718E+06    -247.564E+03         81.7824
            1566     774.617E-06     129.437E-03         1.03847    -749.647E-03    -837.758E-03    -714.686E-03     995.728E-03    -829.974E-03     96.3876E-03     510.651E-03    -254.972E-03    -255.839E-03    -255.302E-03     510.651E-03    -255.508E-03    -1.29410E-03    -119.826E+06    -124.798E+06    -246.714E+06    -125.103E+06    -246.409E+06    -119.826E+06     1.72988E+06         62.6092
            1567     1.54876E-03     129.444E-03         1.00898    -773.218E-03    -789.254E-03    -773.939E-03     994.169E-03    -773.724E-03    -150.464E-03     510.375E-03    -254.843E-03    -255.716E-03    -255.066E-03     510.374E-03    -255.493E-03    -455.338E-06    -112.096E+06    -120.305E+06    -223.661E+06    -120.406E+06    -223.560E+06    -112.096E+06     1.53764E+06         62.9432
            1568     2.32432E-03     129.421E-03         1.00339    -775.390E-03    -787.795E-03    -776.253E-03     994.313E-03    -777.856E-03    -97.1197E-03     509.564E-03    -254.472E-03    -255.356E-03    -254.473E-03     509.558E-03    -255.349E-03     3.03811E-03    -95.1508E+06    -112.632E+06    -186.664E+06    -112.873E+06    -186.423E+06    -95.1508E+06     2.94652E+06         63.4369
            1569     3.10079E-03     129.398E-03     951.448E-03    -737.918E-03    -779.751E-03    -732.046E-03     943.383E-03    -777.558E-03    -123.333E-03     508.568E-03    -253.863E-03    -255.139E-03    -253.830E-03     508.534E-03    -255.139E-03     9.47472E-03    -71.1096E+06    -104.254E+06    -151.732E+06    -105.264E+06    -150.722E+06    -71.1096E+06     4.94713E+06         64.0443
            1570     3.87590E-03     129.377E-03     881.531E-03    -685.189E-03    -767.866E-03    -683.792E-03     880.135E-03    -767.866E-03    -1.20144E-03     507.799E-03    -252.979E-03    -255.061E-03    -252.849E-03     507.669E-03    -255.061E-03     18.9257E-03    -47.7627E+06    -86.6573E+06    -116.060E+06    -98.4322E+06    -104.285E+06    -47.7627E+06     6.29896E+06         64.7987
            1571     4.65127E-03     129.367E-03     843.706E-03    -665.938E-03    -752.422E-03    -664.849E-03     842.618E-03    -752.422E-03    -7.79095E-03     507.025E-03    -251.871E-03    -255.006E-03    -251.518E-03     506.671E-03    -255.006E-03     31.9554E-03    -23.2524E+06    -54.3015E+06    -90.7861E+06    -89.3779E+06    -55.7097E+06    -23.2524E+06     6.00106E+06         65.7744
            1572     5.42626E-03     129.398E-03     783.104E-03    -628.301E-03    -730.548E-03    -627.583E-03     782.385E-03    -730.548E-03     46.1521E-03     505.801E-03    -251.318E-03    -255.149E-03    -250.513E-03     504.996E-03    -255.149E-03     48.4270E-03    -1.31986E+06    -29.5279E+06    -78.6862E+06    -78.2300E+06    -29.9840E+06    -1.31986E+06     4.62142E+06         66.9481
            1573     6.19987E-03     129.455E-03     655.641E-03    -535.070E-03    -696.697E-03    -534.724E-03     655.295E-03    -696.697E-03     36.6985E-03     504.888E-03    -250.753E-03    -255.676E-03    -249.217E-03     503.352E-03    -255.676E-03     67.3813E-03     12.8561E+06    -19.4994E+06    -68.5154E+06    -68.1750E+06    -19.8398E+06     12.8561E+06     3.99765E+06         68.2402
            1574     6.97087E-03     129.565E-03     491.782E-03    -417.920E-03    -649.872E-03    -417.270E-03     491.132E-03    -649.872E-03     42.1183E-03     505.428E-03    -250.863E-03    -255.862E-03    -248.039E-03     502.605E-03    -255.862E-03     91.1375E-03     25.6537E+06    -10.4032E+06    -58.8728E+06    -58.5714E+06    -10.7046E+06     25.6537E+06     3.78332E+06         69.5933
            1575     7.74326E-03     129.672E-03     343.344E-03    -325.098E-03    -597.341E-03    -323.727E-03     341.973E-03    -597.341E-03     25.9594E-03     505.972E-03    -251.905E-03    -255.229E-03    -247.240E-03     501.307E-03    -255.229E-03     117.837E-03     39.1043E+06    -1.51787E+06    -49.3238E+06    -49.0659E+06    -1.77578E+06     39.1043E+06     3.36006E+06         70.8785
            1576     8.52356E-03     129.776E-03     239.044E-03    -279.643E-03    -544.168E-03    -242.458E-03     201.859E-03    -544.168E-03     15.0501E-03     506.550E-03    -252.351E-03    -254.241E-03    -245.734E-03     499.883E-03    -254.191E-03     141.190E-03     50.3106E+06     6.01935E+06    -40.4357E+06    -40.1748E+06     5.75850E+06     50.3106E+06     3.25961E+06         71.8837
            1577     9.31532E-03     129.895E-03     153.722E-03    -237.488E-03    -505.453E-03    -131.806E-03     20.9638E-03    -478.378E-03     1.21883E-03     509.071E-03    -253.368E-03    -255.618E-03    -246.167E-03     500.290E-03    -254.038E-03     162.546E-03     56.4213E+06     10.6505E+06    -32.6167E+06    -32.2917E+06     10.3255E+06     56.4213E+06     3.25998E+06         72.6739
            1578     10.0750E-03     130.204E-03     78.4491E-03    -161.748E-03    -509.421E-03    -10.0387E-03    -186.607E-03    -396.073E-03    -3.50187E-03     511.780E-03    -254.943E-03    -257.852E-03    -247.915E-03     501.843E-03    -254.943E-03     173.742E-03     57.3834E+06     14.8974E+06    -25.4300E+06    -25.1224E+06     14.5899E+06     57.3834E+06     3.08218E+06         73.5599
            1579     10.8489E-03     130.410E-03     101.032E-03    -143.800E-03    -553.141E-03     96.8562E-03    -378.500E-03    -314.265E-03     29.7251E-03     515.387E-03    -254.444E-03    -261.375E-03    -248.460E-03     502.472E-03    -254.444E-03     197.400E-03     59.3939E+06     18.3371E+06    -19.2279E+06    -18.9637E+06     18.0729E+06     59.3939E+06     3.08571E+06         74.7620
            1580     11.6401E-03     130.636E-03     205.883E-03    -176.980E-03    -625.621E-03     203.593E-03    -569.669E-03    -230.643E-03     3.19393E-03     515.977E-03    -253.673E-03    -262.438E-03    -249.209E-03     502.748E-03    -253.673E-03     200.254E-03     64.8381E+06     22.5275E+06    -13.7809E+06    -13.5353E+06     22.2819E+06     64.8381E+06     2.19518E+06         76.5117
            1581     12.4038E-03     130.996E-03     296.914E-03    -134.143E-03    -760.345E-03     296.579E-03    -760.010E-03    -134.143E-03    -10.4562E-03     530.703E-03    -254.548E-03    -275.146E-03    -255.589E-03     511.146E-03    -254.548E-03     241.888E-03     69.2977E+06     27.5355E+06    -9.15708E+06    -9.04949E+06     27.4279E+06     69.2977E+06     482.231E+03         78.9703
            1582     13.1865E-03     131.384E-03     365.447E-03    -41.0919E-03    -925.231E-03     365.226E-03    -925.011E-03    -41.0919E-03    -2.68741E-03     530.761E-03    -254.386E-03    -275.065E-03    -258.127E-03     513.823E-03    -254.386E-03     216.169E-03     74.3282E+06     31.5413E+06    -4.67599E+06    -4.63276E+06     31.4981E+06     74.3282E+06    -327.078E+03         81.7282
            1583     774.388E-06     131.093E-03     391.874E-03    -320.556E-03    -611.177E-03    -255.544E-03     38.4139E-03    -322.728E-03     205.335E-03     510.178E-03    -254.589E-03    -255.636E-03    -255.286E-03     510.177E-03    -254.937E-03    -1.08562E-03    -121.430E+06    -126.963E+06    -252.090E+06    -125.276E+06    -251.758E+06    -123.449E+06     1.47873E+06         62.5753
            1584     1.55126E-03     131.100E-03     290.944E-03    -306.249E-03    -528.097E-03    -314.786E-03     66.4200E-03    -295.036E-03    -37.1981E-03     510.076E-03    -254.876E-03    -255.335E-03    -254.928E-03     510.075E-03    -255.282E-03    -795.602E-06    -110.403E+06    -121.011E+06    -226.006E+06    -121.134E+06    -225.884E+06    -110.403E+06     1.86036E+06         62.9147
            1585     2.32519E-03     131.085E-03     272.092E-03    -301.418E-03    -519.576E-03    -302.766E-03     57.7479E-03    -303.884E-03    -22.1879E-03     509.611E-03    -254.676E-03    -255.220E-03    -254.678E-03     509.607E-03    -255.213E-03     2.54562E-03    -92.9348E+06    -114.641E+06    -193.052E+06    -114.900E+06    -192.794E+06    -92.9348E+06     3.24431E+06         63.4117
            1586     3.09912E-03     131.062E-03     241.727E-03    -308.186E-03    -491.050E-03    -306.791E-03     58.5806E-03    -309.299E-03    -88.4586E-03     508.307E-03    -253.794E-03    -255.040E-03    -253.756E-03     508.269E-03    -255.040E-03     9.54035E-03    -71.1199E+06    -106.091E+06    -160.020E+06    -107.150E+06    -158.962E+06    -71.1199E+06     5.72492E+06         64.0186
            1587     3.87583E-03     131.046E-03     199.100E-03    -291.689E-03    -470.187E-03    -291.537E-03     40.1832E-03    -311.422E-03     12.4560E-03     507.622E-03    -253.031E-03    -254.953E-03    -252.890E-03     507.481E-03    -254.953E-03     19.8288E-03    -47.5894E+06    -86.9241E+06    -120.853E+06    -97.9918E+06    -109.785E+06    -47.5894E+06     7.92270E+06         64.7686
            1588     4.65144E-03     131.038E-03     203.141E-03    -263.931E-03    -505.290E-03    -242.198E-03    -19.8187E-03    -304.063E-03     16.3851E-03     507.063E-03    -252.022E-03    -254.914E-03    -251.624E-03     506.665E-03    -254.914E-03     33.7337E-03    -22.9665E+06    -53.2282E+06    -91.3654E+06    -88.5168E+06    -56.0768E+06    -22.9665E+06     8.06096E+06         65.7403
            1589     5.42550E-03     131.071E-03     202.879E-03    -235.302E-03    -537.147E-03    -191.179E-03    -94.4321E-03    -283.960E-03     56.2843E-03     505.600E-03    -251.144E-03    -255.118E-03    -250.280E-03     504.737E-03    -255.118E-03     50.3513E-03    -802.497E+03    -28.2748E+06    -79.7771E+06    -78.8401E+06    -29.2118E+06    -802.497E+03     6.72277E+06         66.9066
            1590     6.20033E-03     131.132E-03     153.421E-03    -186.711E-03    -537.212E-03    -153.977E-03    -163.395E-03    -253.130E-03     24.3517E-03     504.744E-03    -250.633E-03    -255.627E-03    -249.033E-03     503.144E-03    -255.627E-03     68.7280E-03     14.7656E+06    -17.8413E+06    -69.1672E+06    -68.6029E+06    -18.4055E+06     14.7656E+06     5.26679E+06         68.1905
            1591     6.97180E-03     131.232E-03     92.3950E-03    -136.445E-03    -527.908E-03    -124.189E-03    -231.636E-03    -216.134E-03     36.4669E-03     505.499E-03    -250.945E-03    -255.787E-03    -248.039E-03     502.593E-03    -255.787E-03     92.5498E-03     27.2788E+06    -8.66286E+06    -59.2198E+06    -58.9092E+06    -8.97343E+06     27.2788E+06     3.84784E+06         69.5430
            1592     7.74669E-03     131.341E-03     50.8289E-03    -82.4870E-03    -542.973E-03    -65.5622E-03    -331.208E-03    -177.861E-03     4.92378E-03     506.312E-03    -252.183E-03    -255.189E-03    -247.562E-03     501.691E-03    -255.189E-03     117.457E-03     39.1978E+06    -1.47261E+06    -50.4665E+06    -50.2802E+06    -1.65884E+06     39.1978E+06     2.88843E+06         70.8338
            1593     8.52927E-03     131.436E-03     53.6421E-03    -54.5666E-03    -576.656E-03     22.1994E-03    -462.009E-03    -137.771E-03    -12.6527E-03     507.189E-03    -253.190E-03    -254.265E-03    -246.657E-03     500.605E-03    -254.214E-03     140.332E-03     49.9133E+06     5.18300E+06    -41.7240E+06    -41.5363E+06     4.99535E+06     49.9133E+06     2.53996E+06         71.8392
            1594     9.30827E-03     131.555E-03     92.6400E-03    -53.2013E-03    -619.789E-03     90.8836E-03    -587.826E-03    -83.4082E-03    -17.4577E-03     508.651E-03    -253.969E-03    -254.799E-03    -245.828E-03     499.781E-03    -254.070E-03     163.182E-03     56.5244E+06     10.1889E+06    -33.4442E+06    -33.2061E+06     9.95083E+06     56.5244E+06     2.56968E+06         72.6202
            1595     10.0721E-03     131.853E-03     151.054E-03    -13.2323E-03    -721.003E-03     150.363E-03    -720.312E-03    -13.2323E-03    -30.4041E-03     510.081E-03    -254.839E-03    -256.049E-03    -245.902E-03     499.933E-03    -254.839E-03     175.102E-03     58.1449E+06     14.1387E+06    -26.4312E+06    -26.2165E+06     13.9241E+06     58.1449E+06     2.43254E+06         73.5051
            1596     10.8533E-03     132.069E-03     233.809E-03     55.7316E-03    -875.775E-03     233.742E-03    -875.708E-03     55.7316E-03    -14.7053E-03     514.758E-03    -254.275E-03    -260.772E-03    -247.790E-03     501.777E-03    -254.275E-03     197.921E-03     59.6423E+06     17.9496E+06    -20.0879E+06    -19.9424E+06     17.8041E+06     59.6423E+06     2.08132E+06         74.7211
            1597     11.6423E-03     132.295E-03     321.011E-03     127.129E-03        -1.03710     320.805E-03        -1.03690     127.129E-03    -26.2768E-03     516.237E-03    -253.601E-03    -262.767E-03    -249.821E-03     503.291E-03    -253.601E-03     198.013E-03     64.2084E+06     23.4071E+06    -14.0652E+06    -13.8991E+06     23.2410E+06     64.2084E+06     1.58193E+06         76.4876
            1598     12.4044E-03     132.658E-03     379.393E-03     211.888E-03        -1.18058     379.126E-03        -1.18031     211.888E-03     746.675E-06     530.561E-03    -254.599E-03    -275.029E-03    -255.987E-03     511.519E-03    -254.599E-03     238.414E-03     69.5853E+06     30.2030E+06    -8.79658E+06    -8.62504E+06     30.0314E+06     69.5853E+06     1.38146E+06         78.9603
            1599     13.1880E-03     133.049E-03     424.600E-03     270.648E-03        -1.28513     403.205E-03        -1.28482     291.733E-03    -9.94679E-03     531.033E-03    -254.435E-03    -275.299E-03    -258.624E-03     514.358E-03    -254.435E-03     214.993E-03     76.0005E+06     33.9657E+06    -4.58834E+06    -4.49996E+06     33.8773E+06     76.0005E+06     792.422E+03         81.7242
            1600     776.157E-06     132.748E-03     341.292E-03     161.729E-03        -1.04874     265.563E-03    -984.729E-03     173.448E-03     224.899E-03     510.441E-03    -254.815E-03    -255.620E-03    -255.599E-03     510.438E-03    -254.833E-03    -2.16619E-03    -118.854E+06    -125.195E+06    -255.235E+06    -123.305E+06    -255.107E+06    -120.872E+06    -669.830E+03         62.5376
            1601     1.54857E-03     132.758E-03     241.792E-03     199.525E-03    -986.937E-03     208.530E-03    -970.819E-03     216.669E-03    -54.5683E-03     510.456E-03    -255.102E-03    -255.492E-03    -255.147E-03     510.454E-03    -255.446E-03    -940.880E-06    -109.468E+06    -118.910E+06    -234.231E+06    -119.134E+06    -234.007E+06    -109.468E+06     3.87984E+06         62.8595
            1602     2.32399E-03     132.748E-03     217.464E-03     195.111E-03    -960.716E-03     186.783E-03    -942.521E-03     207.597E-03    -48.8698E-03     509.376E-03    -254.342E-03    -255.343E-03    -254.339E-03     509.373E-03    -255.343E-03     2.30320E-03    -91.1937E+06    -113.952E+06    -198.867E+06    -114.414E+06    -198.404E+06    -91.1937E+06     6.20064E+06         63.3389
            1603     3.10150E-03     132.725E-03     203.282E-03     170.980E-03    -922.938E-03     167.515E-03    -911.487E-03     195.295E-03    -61.3458E-03     508.005E-03    -253.552E-03    -255.027E-03    -253.514E-03     507.968E-03    -255.027E-03     9.25215E-03    -70.8777E+06    -106.995E+06    -166.649E+06    -107.852E+06    -165.792E+06    -70.8777E+06     6.31644E+06         63.9246
            1604     3.87626E-03     132.720E-03     189.166E-03     160.385E-03    -901.345E-03     160.769E-03    -898.300E-03     185.737E-03     14.1836E-03     507.139E-03    -252.571E-03    -254.842E-03    -252.428E-03     506.995E-03    -254.842E-03     20.0366E-03    -48.0804E+06    -90.8875E+06    -125.177E+06    -98.3160E+06    -117.748E+06    -48.0804E+06     8.10359E+06         64.6477
            1605     4.65290E-03     132.714E-03     207.512E-03     161.711E-03    -922.936E-03     182.500E-03    -920.177E-03     183.964E-03     5.75303E-03     506.433E-03    -251.430E-03    -254.741E-03    -251.028E-03     506.031E-03    -254.741E-03     33.8889E-03    -22.0927E+06    -55.0039E+06    -92.0176E+06    -87.6156E+06    -59.4059E+06    -22.0927E+06     9.91001E+06         65.6106
            1606     5.42810E-03     132.743E-03     237.656E-03     159.798E-03    -953.484E-03     203.043E-03    -952.249E-03     193.176E-03     59.2422E-03     505.379E-03    -251.051E-03    -254.928E-03    -250.188E-03     504.516E-03    -254.928E-03     50.3770E-03     931.971E+03    -25.1659E+06    -78.9877E+06    -77.3805E+06    -26.7731E+06     931.971E+03     9.00050E+06         66.7866
            1607     6.20137E-03     132.801E-03     245.206E-03     178.365E-03    -983.833E-03     210.937E-03    -983.532E-03     212.333E-03     20.7158E-03     505.419E-03    -251.362E-03    -255.499E-03    -249.752E-03     503.809E-03    -255.499E-03     68.9675E-03     16.6736E+06    -15.2368E+06    -68.6794E+06    -67.6947E+06    -16.2215E+06     16.6736E+06     7.02948E+06         68.0795
            1608     6.97202E-03     132.909E-03     252.447E-03     223.394E-03        -1.03875     237.047E-03        -1.03810     238.139E-03     7.73846E-03     506.029E-03    -251.737E-03    -255.739E-03    -248.860E-03     503.153E-03    -255.739E-03     92.2789E-03     28.7721E+06    -7.19759E+06    -59.7942E+06    -59.0892E+06    -7.90260E+06     28.7721E+06     5.60771E+06         69.4423
            1609     7.74456E-03     133.004E-03     284.356E-03     254.671E-03        -1.10621     272.019E-03        -1.10504     265.832E-03    -34.3717E-03     506.537E-03    -252.583E-03    -255.185E-03    -247.921E-03     501.876E-03    -255.185E-03     117.816E-03     41.6307E+06     674.823E+03    -50.7901E+06    -50.3917E+06     276.435E+03     41.6307E+06     4.14220E+06         70.7508
            1610     8.52120E-03     133.105E-03     334.265E-03     251.669E-03        -1.15288     291.732E-03        -1.15191     293.228E-03    -28.2114E-03     507.091E-03    -252.852E-03    -254.243E-03    -246.075E-03     500.314E-03    -254.243E-03     142.255E-03     52.1339E+06     6.47511E+06    -42.1936E+06    -42.0145E+06     6.29600E+06     52.1339E+06     2.69236E+06         71.7777
            1611     9.31359E-03     133.215E-03     372.141E-03     281.924E-03        -1.22030     320.829E-03        -1.21949     332.425E-03    -23.8062E-03     507.816E-03    -253.301E-03    -254.401E-03    -244.680E-03     498.785E-03    -253.991E-03     164.512E-03     57.5978E+06     9.64807E+06    -34.7876E+06    -34.5969E+06     9.45735E+06     57.5978E+06     2.36167E+06         72.5791
            1612     10.0811E-03     133.511E-03     416.894E-03     347.176E-03        -1.33170     374.665E-03        -1.33127     388.980E-03    -46.6342E-03     510.317E-03    -254.646E-03    -256.318E-03    -246.273E-03     500.272E-03    -254.646E-03     174.267E-03     58.9321E+06     14.6498E+06    -27.7230E+06    -27.5429E+06     14.4697E+06     58.9321E+06     2.31894E+06         73.4762
            1613     10.8523E-03     133.729E-03     477.218E-03     384.128E-03        -1.42992     415.398E-03        -1.42978     445.802E-03    -30.4882E-03     515.607E-03    -254.195E-03    -261.413E-03    -248.795E-03     502.989E-03    -254.195E-03     195.305E-03     60.0241E+06     19.3821E+06    -21.8178E+06    -21.7521E+06     19.3164E+06     60.0241E+06     1.09405E+06         74.6974
            1614     11.6413E-03     133.963E-03     526.993E-03     397.405E-03        -1.49211     421.743E-03        -1.49202     502.562E-03    -22.3479E-03     516.674E-03    -253.648E-03    -263.040E-03    -250.271E-03     503.906E-03    -253.648E-03     196.938E-03     64.3023E+06     23.2413E+06    -16.3174E+06    -16.2408E+06     23.1647E+06     64.3023E+06     521.015E+03         76.4711
            1615     12.3989E-03     134.318E-03     577.717E-03     410.443E-03        -1.55346     418.627E-03        -1.55343     569.500E-03    -10.1992E-03     531.335E-03    -254.679E-03    -275.624E-03    -256.365E-03     512.076E-03    -254.679E-03     239.857E-03     70.0568E+06     30.6304E+06    -10.5146E+06    -10.3488E+06     30.4646E+06     70.0568E+06     484.001E+03         78.9484
            1616     13.1845E-03     134.712E-03     631.276E-03     412.973E-03        -1.60709     413.624E-03        -1.60689     630.426E-03    -13.9620E-03     530.566E-03    -254.460E-03    -274.630E-03    -257.700E-03     513.636E-03    -254.460E-03     216.756E-03     76.2293E+06     34.9817E+06    -5.24507E+06    -5.12106E+06     34.8577E+06     76.2293E+06     67.8562E+03         81.7098
            1617     773.652E-06     134.422E-03     734.352E-03     653.325E-03        -1.92236     707.623E-03        -1.90623     663.924E-03     119.432E-03     510.994E-03    -255.017E-03    -256.018E-03    -255.216E-03     510.992E-03    -255.816E-03    -1.68723E-03    -115.728E+06    -125.627E+06    -260.812E+06    -123.419E+06    -260.678E+06    -118.070E+06     3.34038E+06         62.4503
            1618     1.54997E-03     134.426E-03     726.433E-03     684.735E-03        -1.94911     717.145E-03        -1.94569     690.598E-03    -68.6027E-03     510.457E-03    -254.986E-03    -255.635E-03    -254.986E-03     510.457E-03    -255.635E-03    -256.403E-06    -108.004E+06    -119.624E+06    -245.126E+06    -119.847E+06    -244.902E+06    -108.004E+06     4.05356E+06         62.7475
            1619     2.32473E-03     134.414E-03     719.240E-03     682.488E-03        -1.94015     704.310E-03        -1.93770     694.974E-03    -49.1746E-03     509.352E-03    -254.221E-03    -255.354E-03    -254.216E-03     509.347E-03    -255.354E-03     2.84480E-03    -93.3862E+06    -112.287E+06    -207.915E+06    -112.893E+06    -207.309E+06    -93.3862E+06     6.39518E+06         63.2129
            1620     3.09912E-03     134.387E-03     702.065E-03     676.334E-03        -1.91508     685.052E-03        -1.91212     690.390E-03    -48.3782E-03     508.037E-03    -253.477E-03    -255.017E-03    -253.443E-03     508.003E-03    -255.017E-03     9.19227E-03    -70.8113E+06    -104.466E+06    -172.350E+06    -105.807E+06    -171.010E+06    -70.8113E+06     9.00777E+06         63.7940
            1621     3.87651E-03     134.374E-03     685.074E-03     649.195E-03        -1.87120     650.097E-03        -1.86995     682.919E-03     9.62652E-03     506.873E-03    -252.248E-03    -254.812E-03    -252.115E-03     506.739E-03    -254.812E-03     19.2151E-03    -46.6321E+06    -92.5454E+06    -129.561E+06    -97.6230E+06    -124.484E+06    -46.6321E+06     9.45106E+06         64.5138
            1622     4.65284E-03     134.372E-03     674.340E-03     599.774E-03        -1.81099     599.126E-03        -1.81034     674.340E-03    -26.5977E-03     505.857E-03    -250.981E-03    -254.613E-03    -250.608E-03     505.484E-03    -254.613E-03     32.7062E-03    -22.2503E+06    -57.9021E+06    -94.2426E+06    -87.1782E+06    -64.9665E+06    -22.2503E+06     10.3311E+06         65.4773
            1623     5.42879E-03     134.398E-03     670.013E-03     576.937E-03        -1.78668     576.542E-03        -1.78628     670.013E-03     16.2136E-03     505.199E-03    -250.972E-03    -254.755E-03    -250.137E-03     504.365E-03    -254.755E-03     49.3787E-03     823.785E+03    -24.0637E+06    -78.8268E+06    -76.4749E+06    -26.4155E+06     823.785E+03     10.9653E+06         66.6566
            1624     6.20205E-03     134.462E-03     676.944E-03     592.226E-03        -1.81384     592.166E-03        -1.81378     676.944E-03     21.6264E-03     505.770E-03    -251.658E-03    -255.398E-03    -250.071E-03     504.182E-03    -255.398E-03     68.5380E-03     16.8476E+06    -13.1310E+06    -69.4061E+06    -67.5735E+06    -14.9637E+06     16.8476E+06     9.78507E+06         67.9540
            1625     6.97024E-03     134.575E-03     695.215E-03     607.306E-03        -1.84956     609.032E-03        -1.84939     693.319E-03     6.76809E-03     505.826E-03    -251.625E-03    -255.720E-03    -248.741E-03     502.942E-03    -255.720E-03     92.2737E-03     30.6581E+06    -4.84491E+06    -59.6400E+06    -58.4980E+06    -5.98694E+06     30.6581E+06     7.78106E+06         69.3241
            1626     7.74598E-03     134.671E-03     712.199E-03     599.857E-03        -1.86005     601.286E-03        -1.85958     710.302E-03    -41.7279E-03     505.796E-03    -251.370E-03    -255.099E-03    -246.591E-03     501.016E-03    -255.099E-03     119.130E-03     44.3053E+06     2.75056E+06    -50.4502E+06    -49.5985E+06     1.89885E+06     44.3053E+06     6.41703E+06         70.6482
            1627     8.53118E-03     134.771E-03     724.925E-03     589.131E-03        -1.86256     588.732E-03        -1.86217     724.925E-03    -43.2152E-03     506.927E-03    -251.941E-03    -254.486E-03    -245.423E-03     500.033E-03    -254.110E-03     143.555E-03     55.0745E+06     8.58878E+06    -42.4759E+06    -41.8590E+06     7.97181E+06     55.0745E+06     5.21959E+06         71.7090
            1628     9.31292E-03     134.872E-03     750.902E-03     600.119E-03        -1.89528     599.757E-03        -1.89492     750.902E-03    -48.0470E-03     509.111E-03    -253.312E-03    -255.684E-03    -246.362E-03     500.376E-03    -253.900E-03     162.310E-03     61.6743E+06     12.3352E+06    -34.3709E+06    -34.0659E+06     12.0302E+06     61.6743E+06     3.47646E+06         72.5447
            1629     10.0769E-03     135.164E-03     793.893E-03     609.790E-03        -1.94516     609.378E-03        -1.94474     793.893E-03    -61.2835E-03     511.366E-03    -254.662E-03    -257.360E-03    -247.668E-03     501.674E-03    -254.662E-03     171.494E-03     62.0956E+06     15.5534E+06    -27.2397E+06    -27.1061E+06     15.4198E+06     62.0956E+06     1.98766E+06         73.4501
            1630     10.8487E-03     135.393E-03     834.845E-03     587.092E-03        -1.96186     586.928E-03        -1.96170     834.845E-03    -32.2131E-03     514.925E-03    -254.291E-03    -261.053E-03    -248.449E-03     502.321E-03    -254.291E-03     195.015E-03     63.5517E+06     21.1399E+06    -20.3691E+06    -20.2433E+06     21.0142E+06     63.5517E+06     1.47412E+06         74.6672
            1631     11.6409E-03     135.617E-03     873.009E-03     542.001E-03        -1.95201     541.933E-03        -1.95195     873.009E-03    -14.8583E-03     516.011E-03    -253.712E-03    -262.562E-03    -249.507E-03     502.957E-03    -253.712E-03     199.170E-03     68.3462E+06     24.9101E+06    -14.3624E+06    -14.2313E+06     24.7790E+06     68.3462E+06     1.24262E+06         76.4407
            1632     12.4048E-03     135.984E-03     920.035E-03     485.856E-03        -1.93989     485.820E-03        -1.93985     920.035E-03    -10.0199E-03     531.048E-03    -254.679E-03    -275.332E-03    -255.793E-03     511.509E-03    -254.679E-03     242.082E-03     73.4406E+06     31.2061E+06    -9.14731E+06    -8.96928E+06     31.0281E+06     73.4406E+06     809.657E+03         78.9186
            1633     13.1877E-03     136.377E-03     959.889E-03     425.892E-03        -1.91433     425.486E-03        -1.91392     959.889E-03    -25.2455E-03     530.097E-03    -254.387E-03    -274.303E-03    -257.291E-03     513.085E-03    -254.387E-03     217.488E-03     78.6872E+06     35.8061E+06    -4.31128E+06    -4.17118E+06     35.6660E+06     78.6872E+06     301.155E+03         81.6813
            1634     775.677E-06     136.073E-03         1.19715         1.15727        -2.86953         1.15078        -2.86119         1.19530     66.4125E-03     510.398E-03    -254.515E-03    -255.929E-03    -255.147E-03     510.397E-03    -255.297E-03    -397.649E-06    -119.374E+06    -127.442E+06    -270.900E+06    -124.907E+06    -270.779E+06    -122.031E+06     2.29154E+06         62.3428
            1635     1.54921E-03     136.077E-03         1.18778         1.16128        -2.86499         1.17440        -2.86152         1.17119    -70.2232E-03     509.930E-03    -254.716E-03    -255.404E-03    -254.777E-03     509.930E-03    -255.342E-03     94.2587E-06    -108.063E+06    -119.186E+06    -252.226E+06    -119.177E+06    -251.919E+06    -108.378E+06     4.48207E+06         62.6306
            1636     2.32475E-03     136.059E-03         1.19159         1.14263        -2.85075         1.16520        -2.84906         1.16733    -11.7893E-03     508.769E-03    -253.850E-03    -255.019E-03    -253.841E-03     508.761E-03    -255.019E-03     3.80739E-03    -94.4816E+06    -114.457E+06    -218.965E+06    -115.063E+06    -218.359E+06    -94.4816E+06     6.69193E+06         63.0975
            1637     3.10186E-03     136.037E-03         1.16764         1.12007        -2.80251         1.12843        -2.80135         1.15812    -54.8184E-03     507.975E-03    -253.483E-03    -254.785E-03    -253.437E-03     507.929E-03    -254.785E-03     11.0849E-03    -73.0869E+06    -105.277E+06    -179.838E+06    -106.530E+06    -178.586E+06    -73.0869E+06     8.81438E+06         63.7003
            1638     3.87657E-03     136.023E-03         1.14509         1.08369        -2.74368         1.08330        -2.74329         1.14509     17.0320E-03     507.327E-03    -252.950E-03    -254.766E-03    -252.805E-03     507.183E-03    -254.766E-03     20.2633E-03    -47.7915E+06    -92.5422E+06    -134.361E+06    -96.5306E+06    -130.373E+06    -47.7915E+06     10.0861E+06         64.4544
            1639     4.65328E-03     136.021E-03         1.13283         1.04783        -2.69757         1.04747        -2.69722         1.13283    -9.13328E-03     506.540E-03    -251.805E-03    -254.679E-03    -251.445E-03     506.179E-03    -254.679E-03     32.3215E-03    -22.8045E+06    -61.7017E+06    -98.3705E+06    -87.0706E+06    -73.0015E+06    -22.8045E+06     11.7894E+06         65.4319
            1640     5.42879E-03     136.052E-03         1.12664         1.02211        -2.66666         1.02193        -2.66649         1.12664     17.7514E-03     505.210E-03    -250.924E-03    -254.845E-03    -250.112E-03     504.398E-03    -254.845E-03     48.5863E-03     845.112E+03    -26.1724E+06    -80.5871E+06    -76.8918E+06    -29.8677E+06     845.112E+03     13.2668E+06         66.5933
            1641     6.20186E-03     136.120E-03         1.12863     992.188E-03        -2.64135     992.119E-03        -2.64128         1.12863     17.4488E-03     504.327E-03    -250.376E-03    -255.375E-03    -248.802E-03     502.752E-03    -255.375E-03     68.1113E-03     18.4521E+06    -10.3634E+06    -69.3565E+06    -66.8331E+06    -12.8869E+06     18.4521E+06     11.8126E+06         67.8730
            1642     6.97320E-03     136.223E-03         1.13487     950.876E-03        -2.60776     950.747E-03        -2.60763         1.13487     28.6800E-03     504.653E-03    -250.448E-03    -255.586E-03    -247.543E-03     501.749E-03    -255.586E-03     92.3950E-03     33.0589E+06    -1.70740E+06    -59.1089E+06    -57.3339E+06    -3.48241E+06     33.0589E+06     9.73978E+06         69.2444
            1643     7.74737E-03     136.326E-03         1.13965     913.719E-03        -2.57310     913.594E-03        -2.57298         1.13965     5.60254E-03     505.881E-03    -251.343E-03    -255.132E-03    -246.918E-03     501.298E-03    -254.974E-03     117.021E-03     46.7937E+06     4.75754E+06    -50.3493E+06    -48.9938E+06     3.40205E+06     46.7937E+06     8.29307E+06         70.5816
            1644     8.52724E-03     136.425E-03         1.14278     891.443E-03        -2.55322     891.398E-03        -2.55317         1.14278    -18.8994E-03     507.370E-03    -252.353E-03    -254.631E-03    -246.306E-03     500.791E-03    -254.098E-03     140.253E-03     58.0714E+06     10.5496E+06    -41.5818E+06    -40.4161E+06     9.38389E+06     58.0714E+06     7.49276E+06         71.6531
            1645     9.31398E-03     136.544E-03         1.15584     860.786E-03        -2.53189     860.603E-03        -2.53171         1.15584    -35.9787E-03     509.099E-03    -253.345E-03    -255.401E-03    -246.071E-03     500.349E-03    -253.924E-03     162.320E-03     65.4968E+06      16.194E+06    -32.9971E+06    -32.1321E+06     15.3290E+06     65.4968E+06     6.11940E+06         72.4934
            1646     10.0765E-03     136.821E-03         1.18162     802.497E-03        -2.49454     802.269E-03        -2.49431         1.18162    -48.8821E-03     510.992E-03    -254.500E-03    -257.132E-03    -246.883E-03     500.849E-03    -254.607E-03     175.303E-03     67.0839E+06     19.0529E+06    -25.6845E+06    -25.3300E+06     18.6983E+06     67.0839E+06     3.54042E+06         73.4111
            1647     10.8512E-03     137.049E-03         1.20230     727.571E-03        -2.43931     727.517E-03        -2.43926         1.20230    -8.09680E-03     515.051E-03    -254.226E-03    -261.467E-03    -248.393E-03     501.978E-03    -254.226E-03     198.926E-03     68.5855E+06     23.4244E+06    -19.2101E+06    -19.0073E+06     23.2215E+06     68.5855E+06     2.15324E+06         74.6445
            1648     11.6438E-03     137.256E-03         1.21943     649.711E-03        -2.37650     649.699E-03        -2.37649         1.21943     8.24570E-03     516.375E-03    -253.708E-03    -262.979E-03    -249.752E-03     503.148E-03    -253.708E-03     200.537E-03     71.5919E+06     27.1939E+06    -13.8669E+06    -13.7087E+06     27.0357E+06     71.5919E+06     1.66859E+06         76.4259
            1649     12.4023E-03     137.647E-03         1.24512     566.118E-03        -2.31553     566.097E-03        -2.31551         1.24512     10.8814E-03     529.989E-03    -254.666E-03    -274.426E-03    -254.963E-03     510.527E-03    -254.666E-03     241.462E-03     74.9215E+06     31.1172E+06    -10.0279E+06    -9.85068E+06     30.9399E+06     74.9215E+06     1.35566E+06         78.9049
            1650     13.1902E-03     138.045E-03         1.26297     459.486E-03        -2.22118     458.975E-03        -2.22067         1.26297     95.1968E-06     529.174E-03    -254.314E-03    -273.629E-03    -256.789E-03     512.334E-03    -254.314E-03     215.953E-03     80.4793E+06     36.1838E+06    -5.01513E+06    -4.90163E+06     36.0702E+06     80.4793E+06     708.917E+03         81.6646
            1651     775.199E-06     137.732E-03         1.69410         1.61770        -3.80065         1.61188        -3.79297         1.69225     104.161E-03     509.332E-03    -254.066E-03    -255.277E-03    -254.999E-03     509.331E-03    -254.343E-03    -1.20886E-03    -117.795E+06    -125.927E+06    -280.462E+06    -123.517E+06    -280.359E+06    -120.308E+06     2.29932E+06         62.2766
            1652     1.55111E-03     137.734E-03         1.63972         1.59598        -3.72547         1.59511        -3.72274         1.63787    -71.2552E-03     508.859E-03    -254.229E-03    -254.832E-03    -254.292E-03     508.859E-03    -254.768E-03     278.717E-06    -110.202E+06    -120.441E+06    -262.110E+06    -120.420E+06    -261.816E+06    -110.517E+06     4.68881E+06         62.5673
            1653     2.32693E-03     137.711E-03         1.61378         1.55885        -3.66328         1.55779        -3.66221         1.61378    -18.8838E-03     508.570E-03    -253.944E-03    -254.724E-03    -254.068E-03     508.562E-03    -254.592E-03     3.83582E-03    -93.4729E+06    -113.292E+06    -226.230E+06    -113.736E+06    -225.786E+06    -93.4729E+06     6.37735E+06         63.0431
            1654     3.10265E-03     137.695E-03         1.59362         1.54150        -3.62484         1.54046        -3.62380         1.59362    -19.3625E-03     508.061E-03    -253.579E-03    -254.755E-03    -253.667E-03     508.019E-03    -254.626E-03     10.5169E-03    -72.6625E+06    -105.241E+06    -188.542E+06    -106.192E+06    -187.591E+06    -72.6625E+06     7.93106E+06         63.6546
            1655     3.87823E-03     137.688E-03         1.57875         1.52152        -3.59145         1.52111        -3.59104         1.57875     78.6139E-03     507.474E-03    -253.257E-03    -254.685E-03    -253.102E-03     507.319E-03    -254.685E-03     20.6803E-03    -49.7806E+06    -93.5265E+06    -144.078E+06    -97.5937E+06    -140.011E+06    -49.7806E+06     11.1611E+06         64.4203
            1656     4.65182E-03     137.685E-03         1.56735         1.48626        -3.54548         1.48597        -3.54520         1.56735     66.9585E-03     507.446E-03    -252.804E-03    -254.701E-03    -252.382E-03     507.024E-03    -254.701E-03     34.8204E-03    -24.0324E+06    -65.6881E+06    -104.365E+06    -88.7934E+06    -81.2593E+06    -24.0324E+06     13.6015E+06         65.4092
            1657     5.42480E-03     137.711E-03         1.55818         1.42104        -3.47012         1.42055        -3.46963         1.55818     93.1252E-03     505.744E-03    -251.527E-03    -254.932E-03    -250.672E-03     504.889E-03    -254.932E-03     50.1454E-03    -611.186E+03    -29.9168E+06    -83.3726E+06    -79.2470E+06    -34.0424E+06    -611.186E+03     13.8927E+06         66.5702
            1658     6.20137E-03     137.768E-03         1.55068         1.33710        -3.37866         1.33658        -3.37814         1.55068     74.9766E-03     503.651E-03    -249.916E-03    -255.387E-03    -248.379E-03     502.114E-03    -255.387E-03     67.2974E-03     19.0250E+06    -9.02505E+06    -70.5819E+06    -67.5733E+06    -12.0336E+06     19.0250E+06     13.2498E+06         67.8475
            1659     6.97525E-03     137.872E-03         1.54529         1.28153        -3.31865         1.28117        -3.31828         1.54529     40.7886E-03     504.084E-03    -249.998E-03    -255.565E-03    -247.228E-03     501.313E-03    -255.565E-03     90.2383E-03     34.9169E+06     94.7879E+03    -59.8653E+06    -57.3940E+06    -2.37654E+06     34.9169E+06     11.8505E+06         69.2206
            1660     7.74895E-03     137.977E-03         1.54032         1.24304        -3.27468         1.24294        -3.27458         1.54032     3.85516E-03     506.089E-03    -252.038E-03    -255.150E-03    -247.573E-03     501.466E-03    -254.993E-03     117.253E-03     48.8432E+06     7.63817E+06    -50.7559E+06    -48.6941E+06     5.57637E+06     48.8432E+06     10.4891E+06         70.5569
            1661     8.52467E-03     138.084E-03         1.53219         1.16087        -3.18211         1.16084        -3.18208         1.53219    -4.47521E-03     507.205E-03    -252.679E-03    -254.326E-03    -245.982E-03     500.351E-03    -254.169E-03     143.112E-03     60.4632E+06     12.3796E+06    -41.7435E+06    -40.0739E+06     10.7100E+06     60.4632E+06     8.95554E+06         71.6163
            1662     9.31211E-03     138.187E-03         1.52832         1.05607        -3.07151         1.05596        -3.07140         1.52832    -4.38158E-03     507.220E-03    -252.772E-03    -253.915E-03    -243.731E-03     498.180E-03    -253.915E-03     164.517E-03     68.1990E+06     18.4363E+06    -32.6057E+06    -31.4488E+06     17.2795E+06     68.1990E+06     7.39392E+06         72.4444
            1663     10.0840E-03     138.488E-03         1.53361     957.651E-03        -2.97685     957.511E-03        -2.97671         1.53361     4.16001E-03     509.788E-03    -254.150E-03    -256.304E-03    -245.912E-03     499.634E-03    -254.388E-03     175.175E-03     70.4449E+06     23.9922E+06    -24.8849E+06    -24.0604E+06     23.1678E+06     70.4449E+06     6.19865E+06         73.3724
            1664     10.8536E-03     138.708E-03         1.53356     850.630E-03        -2.86915     850.568E-03        -2.86909         1.53356     21.6102E-03     516.504E-03    -254.009E-03    -262.434E-03    -249.483E-03     503.554E-03    -254.009E-03     198.165E-03     71.0139E+06     26.5955E+06    -19.8058E+06    -19.1036E+06     25.8933E+06     71.0139E+06     4.82360E+06         74.6276
            1665     11.6447E-03     138.931E-03         1.52876     736.005E-03        -2.74791     735.970E-03        -2.74787         1.52876     21.2261E-03     517.418E-03    -253.655E-03    -263.425E-03    -250.314E-03     504.308E-03    -253.655E-03     199.747E-03     73.5665E+06     29.6809E+06    -15.6106E+06    -15.1531E+06     29.2234E+06     73.5665E+06     3.32661E+06         76.4257
            1666     12.4048E-03     139.302E-03         1.52981     612.300E-03        -2.62207     612.277E-03        -2.62204         1.52981     15.6925E-03     530.370E-03    -254.611E-03    -274.734E-03    -255.197E-03     510.833E-03    -254.611E-03     241.555E-03     78.0742E+06     33.3702E+06    -10.3629E+06    -10.1191E+06     33.1264E+06     78.0742E+06     2.12314E+06         78.9075
            1667     13.1900E-03     139.705E-03         1.52310     479.317E-03        -2.47771     479.066E-03        -2.47746         1.52310     11.1878E-03     529.645E-03    -254.229E-03    -274.153E-03    -257.099E-03     512.591E-03    -254.229E-03     217.241E-03     82.4653E+06     37.8730E+06    -4.76690E+06    -4.59846E+06     37.7045E+06     82.4653E+06     1.10534E+06         81.6562
            1668     775.655E-06     139.396E-03         2.09749         1.99249        -4.55976         1.99034        -4.55497         2.09484     146.722E-03     508.680E-03    -254.009E-03    -254.700E-03    -254.421E-03     508.679E-03    -254.286E-03    -1.41747E-03    -119.107E+06    -127.617E+06    -290.699E+06    -125.262E+06    -290.588E+06    -121.572E+06     3.30807E+06         62.2451
            1669     1.55166E-03     139.385E-03         2.04153         2.00081        -4.51382         2.00815        -4.51286         2.03322    -19.5617E-03     508.680E-03    -254.218E-03    -254.648E-03    -254.370E-03     508.679E-03    -254.494E-03    -533.362E-06    -111.610E+06    -121.591E+06    -270.506E+06    -121.505E+06    -270.324E+06    -111.878E+06     4.20744E+06         62.5351
            1670     2.32709E-03     139.370E-03         2.02234         1.97091        -4.46479         1.97598        -4.46420         2.01668     28.0693E-03     509.131E-03    -254.371E-03    -254.855E-03    -254.633E-03     509.126E-03    -254.587E-03     3.27787E-03    -95.7424E+06    -114.123E+06    -234.484E+06    -114.475E+06    -234.132E+06    -95.7424E+06     5.90667E+06         63.0124
            1671     3.10109E-03     139.350E-03         1.99758         1.93072        -4.39715         1.93026        -4.39668         1.99758     10.5533E-03     508.230E-03    -253.624E-03    -254.889E-03    -253.718E-03     508.194E-03    -254.760E-03     9.64573E-03    -73.7191E+06    -106.023E+06    -199.496E+06    -107.101E+06    -198.419E+06    -73.7191E+06     9.01409E+06         63.6192
            1672     3.87780E-03     139.339E-03         1.97696         1.87962        -4.32501         1.87935        -4.32474         1.97696     43.4977E-03     506.980E-03    -252.671E-03    -254.671E-03    -252.521E-03     506.830E-03    -254.671E-03     20.2535E-03    -50.6733E+06    -95.6252E+06    -155.159E+06    -99.5827E+06    -151.201E+06    -50.6733E+06     12.2831E+06         64.3610
            1673     4.65569E-03     139.339E-03         1.95625         1.81399        -4.23974         1.81377        -4.23953         1.95625     28.0823E-03     506.265E-03    -251.770E-03    -254.566E-03    -251.341E-03     505.836E-03    -254.566E-03     35.0095E-03    -25.7706E+06    -69.7925E+06    -111.168E+06    -89.7560E+06    -91.2042E+06    -25.7706E+06     15.0012E+06         65.3284
            1674     5.42961E-03     139.371E-03         1.93653         1.74176        -4.14681         1.74137        -4.14643         1.93653     69.2439E-03     505.435E-03    -251.275E-03    -254.690E-03    -250.366E-03     504.526E-03    -254.690E-03     51.6381E-03     1.08975E+03    -31.0280E+06    -85.8362E+06    -79.3366E+06    -37.5276E+06     1.08975E+03     15.9364E+06         66.5032
            1675     6.20152E-03     139.419E-03         1.92025         1.67588        -4.06256         1.67537        -4.06206         1.92025     78.6097E-03     505.290E-03    -251.304E-03    -255.213E-03    -249.639E-03     503.625E-03    -255.213E-03     70.1386E-03     19.6042E+06    -7.60223E+06    -72.6538E+06    -69.1981E+06    -11.0580E+06     19.6042E+06     14.5437E+06         67.8122
            1676     6.97046E-03     139.530E-03         1.90677         1.59380        -3.96768         1.59345        -3.96733         1.90677     18.5436E-03     505.094E-03    -250.932E-03    -255.614E-03    -247.990E-03     502.152E-03    -255.614E-03     93.0937E-03     34.8527E+06     230.653E+03    -61.3813E+06    -58.6941E+06    -2.45657E+06     34.8527E+06     12.5032E+06         69.1982
            1677     7.74477E-03     139.639E-03         1.89021         1.48778        -3.84436         1.48768        -3.84426         1.89021    -9.81373E-03     505.218E-03    -250.787E-03    -255.031E-03    -245.977E-03     500.408E-03    -255.031E-03     119.417E-03     50.4191E+06     7.91744E+06    -50.9745E+06    -48.5013E+06     5.44428E+06     50.4191E+06     11.7128E+06         70.5260
            1678     8.53119E-03     139.747E-03         1.86698         1.37195        -3.70396         1.37187        -3.70388         1.86698     2.61779E-03     506.051E-03    -251.301E-03    -254.067E-03    -244.393E-03     499.143E-03    -254.067E-03     143.563E-03     63.4718E+06     15.1989E+06    -41.4333E+06    -39.2722E+06     13.0378E+06     63.4718E+06     10.5848E+06         71.5850
            1679     9.31867E-03     139.847E-03         1.84514         1.24309        -3.55142         1.24301        -3.55134         1.84514     2.23703E-03     507.456E-03    -252.681E-03    -254.545E-03    -244.473E-03     498.512E-03    -253.808E-03     163.746E-03     70.8761E+06     20.6046E+06    -33.0858E+06    -31.5315E+06     19.0503E+06     70.8761E+06     8.80275E+06         72.4247
            1680     10.0835E-03     140.126E-03         1.82971         1.10259        -3.39601         1.10226        -3.39568         1.82971    -7.27185E-03     510.201E-03    -254.163E-03    -256.830E-03    -246.666E-03     500.169E-03    -254.294E-03     174.259E-03     71.9066E+06     25.4561E+06    -26.1854E+06     -24.788E+06     24.0587E+06     71.9066E+06     8.30083E+06         73.3551
            1681     10.8553E-03     140.378E-03         1.80873     961.268E-03        -3.23463     960.938E-03        -3.23430         1.80873    -6.08815E-03     515.435E-03    -253.892E-03    -261.574E-03    -248.812E-03     502.673E-03    -253.892E-03     196.494E-03     72.1537E+06     29.0342E+06    -20.2862E+06    -18.9898E+06     27.7378E+06     72.1537E+06     7.76482E+06         74.6116
            1682     11.6459E-03     140.587E-03         1.78157     809.917E-03        -3.05385     809.639E-03        -3.05357         1.78157    -8.62983E-03     516.517E-03    -253.564E-03    -262.837E-03    -249.855E-03     503.535E-03    -253.564E-03     198.636E-03     76.0290E+06     34.0652E+06    -14.2597E+06    -13.2849E+06     33.0904E+06     76.0290E+06     6.16514E+06         76.4216
            1683     12.4057E-03     140.962E-03         1.75659     653.993E-03        -2.87015     653.687E-03        -2.86985         1.75659    -38.8720E-03     530.593E-03    -254.445E-03    -275.166E-03    -255.679E-03     511.107E-03    -254.445E-03     241.384E-03     80.0461E+06     39.1771E+06    -9.14794E+06    -8.58737E+06     38.6165E+06     80.0461E+06     4.19400E+06         78.9094
            1684     13.1921E-03     141.365E-03         1.72401     487.569E-03        -2.66848     487.376E-03        -2.66829         1.72401    -40.8241E-03     529.540E-03    -254.058E-03    -274.089E-03    -257.006E-03     512.457E-03    -254.058E-03     217.893E-03     83.4161E+06     41.6722E+06    -4.67969E+06    -4.46663E+06     41.4592E+06     83.4161E+06     2.29531E+06         81.6515
            1685     776.096E-06     141.048E-03         2.40347         2.33107        -5.21305         2.34396        -5.20879         2.38631     123.959E-03     509.113E-03    -254.351E-03    -254.805E-03    -254.803E-03     509.112E-03    -254.351E-03    -1.71448E-03    -122.788E+06    -130.197E+06    -299.621E+06    -127.532E+06    -299.573E+06    -125.500E+06     2.53446E+06         62.2270
            1686     1.55103E-03     141.040E-03         2.38485         2.35380        -5.20860         2.37294        -5.20733         2.36444    -14.4829E-03     509.284E-03    -254.492E-03    -254.977E-03    -254.727E-03     509.283E-03    -254.741E-03    -156.213E-06    -113.146E+06    -122.833E+06    -277.439E+06    -122.696E+06    -277.308E+06    -113.414E+06     3.68075E+06         62.4937
            1687     2.32499E-03     141.031E-03         2.36197         2.30650        -5.13270         2.31155        -5.13209         2.35631     65.7413E-03     508.503E-03    -253.687E-03    -254.927E-03    -253.816E-03     508.495E-03    -254.790E-03     4.24841E-03    -97.1950E+06    -117.211E+06    -246.043E+06    -117.669E+06    -245.585E+06    -97.1950E+06     6.99830E+06         62.9506
            1688     3.10252E-03     141.006E-03         2.33202         2.22307        -5.01387         2.22289        -5.01369         2.33202     16.5783E-03     507.673E-03    -253.173E-03    -254.660E-03    -253.120E-03     507.621E-03    -254.660E-03     11.4898E-03    -76.6506E+06    -109.552E+06    -210.187E+06    -110.684E+06    -209.055E+06    -76.6506E+06     9.60962E+06         63.5609
            1689     3.87809E-03     140.990E-03         2.30011         2.13962        -4.89660         2.13947        -4.89644         2.30011     21.1455E-03     506.858E-03    -252.607E-03    -254.481E-03    -252.437E-03     506.688E-03    -254.481E-03     21.9449E-03    -52.1707E+06    -98.1528E+06    -163.414E+06    -100.757E+06    -160.810E+06    -52.1707E+06     11.3685E+06         64.2939
            1690     4.65308E-03     140.986E-03         2.26812         2.07090        -4.79520         2.07050        -4.79481         2.26812     34.7853E-03     505.160E-03    -250.828E-03    -254.411E-03    -250.417E-03     504.749E-03    -254.411E-03     34.4517E-03    -26.7171E+06    -76.4318E+06    -116.086E+06    -89.7533E+06    -102.764E+06    -26.7171E+06     14.3924E+06         65.2254
            1691     5.43179E-03     141.017E-03         2.24019         2.00771        -4.69992         2.00734        -4.69954         2.24019     66.0567E-03     503.977E-03    -249.902E-03    -254.381E-03    -249.011E-03     503.085E-03    -254.381E-03     50.9220E-03     579.514E+03    -35.1935E+06    -86.2653E+06    -77.7854E+06    -43.6734E+06     579.514E+03     17.0380E+06         66.3863
            1692     6.20614E-03     141.090E-03         2.21631         1.93241        -4.59819         1.93233        -4.59811         2.21631     36.2640E-03     504.503E-03    -250.684E-03    -254.786E-03    -248.954E-03     502.773E-03    -254.786E-03     71.3583E-03     21.9390E+06    -4.76339E+06    -71.3904E+06    -67.0390E+06    -9.11475E+06     21.9390E+06     16.3269E+06         67.7197
            1693     6.97580E-03     141.188E-03         2.19261         1.82357        -4.46419         1.82344        -4.46406         2.19261    -2.22700E-03     505.355E-03    -251.560E-03    -255.282E-03    -248.436E-03     502.231E-03    -255.282E-03     96.0463E-03     36.9745E+06     1.54313E+06    -61.3519E+06    -57.8666E+06    -1.94214E+06     36.9745E+06     14.3070E+06         69.1425
            1694     7.74924E-03     141.298E-03         2.16311         1.67602        -4.28576         1.67593        -4.28567         2.16311    -13.5008E-03     505.922E-03    -251.731E-03    -254.859E-03    -246.913E-03     501.104E-03    -254.859E-03     119.985E-03     52.2902E+06     7.44932E+06    -51.7213E+06    -48.6363E+06     4.36433E+06     52.2902E+06     13.0593E+06         70.4953
            1695     8.52874E-03     141.406E-03         2.12497         1.51721        -4.08818         1.51703        -4.08800         2.12497    -26.6286E-03     505.997E-03    -251.454E-03    -253.962E-03    -244.790E-03     499.333E-03    -253.962E-03     141.027E-03     64.7480E+06     16.2612E+06    -42.7517E+06    -39.9635E+06     13.4730E+06     64.7480E+06     12.4161E+06         71.5725
            1696     9.31752E-03     141.509E-03         2.08528         1.37099        -3.90160         1.37083        -3.90144         2.08528    -35.9297E-03     507.453E-03    -252.607E-03    -254.646E-03    -244.698E-03     498.643E-03    -253.745E-03     162.491E-03     72.1326E+06      23.709E+06    -34.8361E+06    -32.5255E+06     21.3985E+06     72.1326E+06     11.3385E+06         72.4281
            1697     10.0858E-03     141.789E-03         2.04953         1.22503        -3.71967         1.22474        -3.71938         2.04953    -42.7442E-03     510.930E-03    -254.273E-03    -257.277E-03    -247.116E-03     500.770E-03    -254.273E-03     175.510E-03     73.3446E+06     26.5845E+06    -28.0571E+06    -26.0456E+06     24.5730E+06     73.3446E+06     10.2470E+06         73.3581
            1698     10.8542E-03     142.036E-03         2.00891         1.05728        -3.50817         1.05694        -3.50783         2.00891    -26.6514E-03     514.407E-03    -253.846E-03    -261.136E-03    -248.353E-03     501.624E-03    -253.846E-03     196.634E-03     73.5076E+06     30.4535E+06    -21.1331E+06    -19.3509E+06     28.6714E+06     73.5076E+06     9.29564E+06         74.6031
            1699     11.6516E-03     142.242E-03         1.96173     872.352E-03        -3.27240     872.065E-03        -3.27211         1.96173    -9.96859E-03     515.062E-03    -253.462E-03    -262.227E-03    -249.267E-03     502.101E-03    -253.462E-03     198.326E-03     75.3954E+06     36.9727E+06    -15.9115E+06    -14.4301E+06     35.4913E+06     75.3954E+06     8.59432E+06         76.4060
            1700     12.4081E-03     142.630E-03         1.91366     677.344E-03        -3.02562     676.915E-03        -3.02519         1.91366    -23.9872E-03     529.764E-03    -254.244E-03    -274.802E-03    -255.378E-03     510.340E-03    -254.244E-03     241.124E-03     79.5163E+06     45.6315E+06    -10.9154E+06    -9.98111E+06     44.6973E+06     79.5163E+06     6.57259E+06         78.8961
            1701     13.1935E-03     143.022E-03         1.85824     479.625E-03        -2.76746     479.388E-03        -2.76722         1.85824    -1.76132E-03     528.238E-03    -253.846E-03    -273.042E-03    -256.108E-03     511.304E-03    -253.846E-03     216.818E-03     85.5355E+06     49.1002E+06    -5.55793E+06    -5.24375E+06     48.7860E+06     85.5355E+06     2.63376E+06         81.6421
            1702     775.189E-06     142.706E-03         2.61040         2.57822        -5.66962         2.59035        -5.66672         2.59537     26.1758E-03     509.555E-03    -254.348E-03    -255.226E-03    -254.970E-03     509.554E-03    -254.602E-03    -692.104E-06    -124.876E+06    -131.646E+06    -307.119E+06    -129.175E+06    -307.066E+06    -127.399E+06     2.13294E+06         62.1976
            1703     1.54976E-03     142.696E-03         2.59706         2.54946        -5.61388         2.56012        -5.61243         2.58495    -72.2130E-03     508.682E-03    -254.031E-03    -254.878E-03    -254.114E-03     508.681E-03    -254.793E-03     1.32897E-03    -115.882E+06    -126.280E+06    -285.931E+06    -126.315E+06    -285.817E+06    -115.961E+06     4.04615E+06         62.4444
            1704     2.32729E-03     142.675E-03         2.56987         2.52549        -5.54934         2.52504        -5.54890         2.56987     14.8548E-03     507.723E-03    -253.322E-03    -254.610E-03    -253.313E-03     507.714E-03    -254.610E-03     4.62790E-03    -97.9504E+06    -119.535E+06    -257.492E+06    -119.916E+06    -257.112E+06    -97.9504E+06     6.31003E+06         62.8842
            1705     3.10489E-03     142.650E-03         2.55047         2.46916        -5.46991         2.46886        -5.46961         2.55047     6.47226E-03     506.791E-03    -252.550E-03    -254.263E-03    -252.495E-03     506.737E-03    -254.263E-03     11.7959E-03    -78.2852E+06    -111.177E+06    -219.559E+06    -112.188E+06    -218.548E+06    -78.2852E+06     9.17327E+06         63.5016
            1706     3.88078E-03     142.646E-03         2.52511         2.38687        -5.36088         2.38656        -5.36057         2.52511     13.2834E-03     505.665E-03    -251.703E-03    -253.966E-03    -251.525E-03     505.487E-03    -253.966E-03     22.4789E-03    -54.9672E+06    -100.565E+06    -172.003E+06    -102.902E+06    -169.666E+06    -54.9672E+06     11.4011E+06         64.2475
            1707     4.65890E-03     142.631E-03         2.49481         2.29423        -5.23472         2.29373        -5.23422         2.49481     15.6276E-03     504.777E-03    -250.830E-03    -253.989E-03    -250.378E-03     504.326E-03    -253.989E-03     36.0594E-03    -28.8087E+06    -82.4457E+06    -125.004E+06    -92.5010E+06    -114.948E+06    -28.8087E+06     14.2568E+06         65.1655
            1708     5.43228E-03     142.668E-03         2.46176         2.18656        -5.09086         2.18616        -5.09046         2.46176     51.6599E-03     503.381E-03    -249.664E-03    -254.074E-03    -248.722E-03     502.440E-03    -254.074E-03     52.4793E-03    -3.01655E+06    -41.1412E+06    -93.3330E+06    -82.4946E+06    -51.9797E+06    -3.01655E+06     16.8893E+06         66.3059
            1709     6.20831E-03     142.722E-03         2.42609         2.05831        -4.92120         2.05816        -4.92104         2.42609     37.3046E-03     502.711E-03    -249.520E-03    -254.339E-03    -247.818E-03     501.009E-03    -254.339E-03     70.7966E-03     18.7373E+06    -5.52940E+06    -76.5699E+06    -71.9741E+06    -10.1251E+06     18.7373E+06     17.3815E+06         67.6457
            1710     6.98156E-03     142.837E-03         2.38681         1.92204        -4.74305         1.92181        -4.74282         2.38681     4.78143E-03     504.500E-03    -251.310E-03    -254.747E-03    -248.334E-03     501.525E-03    -254.747E-03     93.7596E-03     34.9383E+06     2.13036E+06    -66.7435E+06    -62.2073E+06    -2.40583E+06     34.9383E+06     17.0268E+06         69.0935
            1711     7.75106E-03     142.952E-03         2.34270         1.78701        -4.56205         1.78682        -4.56187         2.34270    -11.0995E-03     506.268E-03    -252.421E-03    -254.535E-03    -247.725E-03     501.571E-03    -254.535E-03     118.439E-03     49.9679E+06     7.74521E+06    -58.0909E+06    -53.9964E+06     3.65072E+06     49.9679E+06     15.8104E+06         70.4736
            1712     8.52915E-03     143.059E-03         2.29265         1.62920        -4.35288         1.62895        -4.35264         2.29265    -20.0142E-03     506.932E-03    -252.278E-03    -254.137E-03    -245.753E-03     500.035E-03    -253.766E-03     143.427E-03     62.8631E+06     16.0407E+06    -49.1013E+06    -45.6400E+06     12.5794E+06     62.8631E+06     14.5402E+06         71.5783
            1713     9.31809E-03     143.161E-03         2.23982         1.45718        -4.12606         1.45700        -4.12588         2.23982    -37.5086E-03     508.253E-03    -253.093E-03    -255.044E-03    -245.408E-03     499.190E-03    -253.667E-03     165.081E-03     71.4434E+06     26.9922E+06    -40.6247E+06    -37.6928E+06     24.0603E+06     71.4434E+06     13.6659E+06         72.4446
            1714     10.0881E-03     143.446E-03         2.18693         1.28289        -3.89486         1.28284        -3.89482         2.18693    -11.4317E-03     510.511E-03    -254.282E-03    -256.678E-03    -246.685E-03     500.517E-03    -254.282E-03     173.965E-03     73.0036E+06     30.4194E+06    -33.1573E+06    -30.9115E+06     28.1736E+06     73.0036E+06     11.7003E+06         73.3601
            1715     10.8576E-03     143.696E-03         2.12861         1.09982        -3.64728         1.09969        -3.64714         2.12861     12.1250E-03     514.299E-03    -253.813E-03    -260.770E-03    -248.107E-03     501.636E-03    -253.813E-03     195.489E-03     70.8498E+06     31.1646E+06    -27.3615E+06    -25.6682E+06     29.4713E+06     70.8498E+06     9.44824E+06         74.5821
            1716     11.6491E-03     143.896E-03         2.06395     910.347E-03        -3.38910     910.159E-03        -3.38891         2.06395     10.5494E-03     514.903E-03    -253.380E-03    -262.004E-03    -249.064E-03     501.963E-03    -253.380E-03     198.057E-03     73.7072E+06     38.2097E+06    -20.5488E+06    -19.3865E+06     37.0473E+06     73.7072E+06     7.73006E+06         76.3692
            1717     12.4106E-03     144.285E-03         1.99584     710.888E-03        -3.11439     710.604E-03        -3.11410         1.99584     17.6902E-03     527.899E-03    -254.058E-03    -273.283E-03    -253.763E-03     508.380E-03    -254.058E-03     240.832E-03     81.1014E+06     48.9276E+06    -12.5101E+06    -11.8506E+06     48.2681E+06     81.1014E+06     5.33548E+06         78.8599
            1718     13.1974E-03     144.687E-03         1.92088     493.597E-03        -2.81479     493.077E-03        -2.81427         1.92088     8.80400E-03     526.773E-03    -253.609E-03    -272.132E-03    -254.989E-03     509.630E-03    -253.609E-03     217.726E-03     89.0644E+06     55.3962E+06    -5.11007E+06    -4.74763E+06     55.0337E+06     89.0644E+06     2.72276E+06         81.6175
            1719     775.497E-06     144.359E-03         2.69931         2.65745        -5.81968         2.68054        -5.81807         2.67461     28.5939E-03     508.496E-03    -253.637E-03    -254.882E-03    -254.624E-03     508.496E-03    -253.895E-03     209.718E-06    -128.216E+06    -134.839E+06    -315.842E+06    -132.686E+06    -315.790E+06    -130.420E+06     2.17801E+06         62.1468
            1720     1.55287E-03     144.339E-03         2.68229         2.64834        -5.78306         2.65655        -5.78218         2.67320    -57.2665E-03     507.903E-03    -253.735E-03    -254.353E-03    -253.734E-03     507.902E-03    -254.353E-03     1.20492E-03    -119.609E+06    -129.528E+06    -294.375E+06    -129.580E+06    -294.244E+06    -119.689E+06     4.36951E+06         62.3997
            1721     2.32806E-03     144.321E-03         2.66865         2.64981        -5.76251         2.65229        -5.76233         2.66600    -16.8189E-03     507.181E-03    -253.340E-03    -254.201E-03    -253.328E-03     507.169E-03    -254.201E-03     4.93702E-03    -101.670E+06    -123.316E+06    -267.891E+06    -123.738E+06    -267.469E+06    -101.670E+06     6.97529E+06         62.8394
            1722     3.10339E-03     144.294E-03         2.65756         2.61498        -5.71203         2.61467        -5.71172         2.65756     9.13277E-03     505.777E-03    -252.124E-03    -253.816E-03    -252.068E-03     505.721E-03    -253.816E-03     12.2314E-03    -81.3706E+06    -115.384E+06    -229.951E+06    -116.395E+06    -228.941E+06    -81.3706E+06     9.39305E+06         63.4638
            1723     3.88323E-03     144.274E-03         2.64048         2.52864        -5.60482         2.52829        -5.60447         2.64048     6.90870E-03     504.112E-03    -250.718E-03    -253.430E-03    -250.547E-03     503.941E-03    -253.430E-03     22.0099E-03    -59.3013E+06    -104.753E+06    -183.610E+06    -107.232E+06    -181.131E+06    -59.3013E+06     12.3334E+06         64.2274
            1724     4.66025E-03     144.282E-03         2.61235         2.40861        -5.45458         2.40831        -5.45428         2.61235    -12.0386E-03     503.416E-03    -250.071E-03    -253.379E-03    -249.629E-03     502.973E-03    -253.379E-03     35.6197E-03    -35.0019E+06    -88.6108E+06    -137.283E+06    -98.1015E+06    -127.792E+06    -35.0019E+06     15.9509E+06         65.1485
            1725     5.43779E-03     144.306E-03         2.57452         2.26945        -5.27443         2.26929        -5.27426         2.57452     18.3006E-03     503.195E-03    -249.948E-03    -253.589E-03    -248.992E-03     502.240E-03    -253.589E-03     52.8161E-03    -8.53673E+06    -46.8157E+06    -102.545E+06    -89.1530E+06    -60.2072E+06    -8.53673E+06     18.9959E+06         66.2805
            1726     6.21248E-03     144.373E-03         2.52959         2.12732        -5.08296         2.12723        -5.08287         2.52959    -53.0102E-06     503.252E-03    -250.563E-03    -253.938E-03    -248.807E-03     501.495E-03    -253.938E-03     71.9977E-03     13.2997E+06    -8.90068E+06    -86.1447E+06    -80.1754E+06    -14.8699E+06     13.2997E+06     20.3145E+06         67.6217
            1727     6.98000E-03     144.491E-03         2.47959         1.98278        -4.88313         1.98254        -4.88290         2.47959    -29.7588E-03     504.097E-03    -250.767E-03    -254.303E-03    -247.740E-03     501.069E-03    -254.303E-03     94.5685E-03     28.7692E+06     617.401E+03    -76.6799E+06    -71.0733E+06    -4.98916E+06     28.7692E+06     19.9549E+06         69.0672
            1728     7.75440E-03     144.608E-03         2.42487         1.83237        -4.67472         1.83211        -4.67446         2.42487    -35.6727E-03     505.522E-03    -251.381E-03    -254.193E-03    -246.666E-03     500.808E-03    -254.193E-03     118.556E-03     45.4241E+06     9.69259E+06    -65.9176E+06    -61.3020E+06     5.07696E+06     45.4241E+06     18.0009E+06         70.4476
            1729     8.53614E-03     144.719E-03         2.36576         1.68231        -4.46385         1.68209        -4.46363         2.36576    -27.5484E-03     507.394E-03    -252.706E-03    -254.641E-03    -246.997E-03     500.546E-03    -253.501E-03     143.131E-03     60.0704E+06     16.9515E+06    -55.3734E+06    -51.7689E+06     13.3470E+06     60.0704E+06     15.6892E+06         71.5718
            1730     9.32025E-03     144.826E-03         2.30275         1.50756        -4.22068         1.50743        -4.22054         2.30275    -35.3901E-03     508.821E-03    -253.490E-03    -255.727E-03    -246.769E-03     499.863E-03    -253.490E-03     164.318E-03     70.0427E+06     27.0571E+06    -45.5149E+06    -42.1872E+06     23.7294E+06     70.0427E+06     15.0543E+06         72.4419
            1731     10.0857E-03     145.100E-03         2.23490         1.30932        -3.95038         1.30898        -3.95005         2.23490    -41.3247E-03     509.770E-03    -254.256E-03    -255.985E-03    -245.993E-03     499.779E-03    -254.256E-03     173.772E-03     72.9361E+06     35.5045E+06    -37.0296E+06    -34.4022E+06     32.8771E+06     72.9361E+06     13.4230E+06         73.3253
            1732     10.8564E-03     145.352E-03         2.16081         1.11718        -3.67865         1.11677        -3.67824         2.16081    -37.4862E-03     513.908E-03    -253.791E-03    -260.364E-03    -247.210E-03     500.754E-03    -253.791E-03     198.827E-03     72.5536E+06     36.5814E+06    -29.2781E+06    -27.7445E+06     35.0479E+06     72.5536E+06     9.70833E+06         74.5199
            1733     11.6529E-03     145.565E-03         2.08054     918.014E-03        -3.39449     917.593E-03        -3.39407         2.08054    -42.5668E-03     514.967E-03    -253.238E-03    -262.125E-03    -248.714E-03     501.556E-03    -253.238E-03     201.340E-03     77.5063E+06     42.7799E+06    -19.9865E+06    -19.3288E+06     42.1221E+06     77.5063E+06     5.53551E+06         76.3083
            1734     12.4106E-03     145.936E-03         1.99320     709.785E-03        -3.09878     709.371E-03        -3.09837         1.99320    -41.0650E-03     527.216E-03    -253.730E-03    -273.010E-03    -253.023E-03     507.229E-03    -253.730E-03     243.166E-03     83.9385E+06     51.9756E+06    -12.6742E+06    -12.4879E+06     51.7893E+06     83.9385E+06     2.57376E+06         78.8152
            1735     13.2037E-03     146.344E-03         1.89978     492.890E-03        -2.78645     492.368E-03        -2.78593         1.89978    -40.8525E-03     526.314E-03    -253.292E-03    -271.899E-03    -254.341E-03     508.755E-03    -253.292E-03     219.595E-03     90.0708E+06     57.2935E+06    -7.24047E+06    -7.03964E+06     57.0926E+06     90.0708E+06     1.42718E+06         81.5896
            1736     777.073E-06     146.010E-03         2.73063         2.69991        -5.87460         2.72158        -5.87112         2.70548     130.448E-03     507.169E-03    -252.966E-03    -254.240E-03    -254.235E-03     507.169E-03    -252.970E-03    -467.060E-06    -135.299E+06    -141.782E+06    -325.882E+06    -139.728E+06    -325.811E+06    -137.424E+06     3.02774E+06         62.0729
            1737     1.55183E-03     145.991E-03         2.71658         2.67891        -5.83927         2.68678        -5.83805         2.70749     8.16660E-03     506.729E-03    -253.196E-03    -253.698E-03    -253.211E-03     506.726E-03    -253.681E-03     1.58401E-03    -124.325E+06    -135.051E+06    -302.081E+06    -135.178E+06    -301.954E+06    -124.325E+06     4.52528E+06         62.3377
            1738     2.32879E-03     145.967E-03         2.69386         2.62300        -5.75569         2.62464        -5.75467         2.69121     8.02111E-03     505.577E-03    -252.402E-03    -253.528E-03    -252.384E-03     505.559E-03    -253.528E-03     6.50223E-03    -107.061E+06    -128.285E+06    -278.189E+06    -128.667E+06    -277.807E+06    -107.061E+06     6.43511E+06         62.7831
            1739     3.10849E-03     145.943E-03         2.66765         2.56648        -5.66955         2.56586        -5.66893         2.66765    -22.9570E-03     504.319E-03    -251.581E-03    -253.096E-03    -251.512E-03     504.250E-03    -253.096E-03     13.8389E-03    -86.6024E+06    -119.203E+06    -241.336E+06    -120.343E+06    -240.196E+06    -86.6024E+06     10.0295E+06         63.4130
            1740     3.88390E-03     145.935E-03         2.64084         2.49793        -5.56718         2.49759        -5.56684         2.64084     8.20970E-03     503.348E-03    -250.811E-03    -252.836E-03    -250.609E-03     503.147E-03    -252.836E-03     23.8904E-03    -63.7196E+06    -108.715E+06    -196.947E+06    -111.428E+06    -194.234E+06    -63.7196E+06     13.8131E+06         64.1925
            1741     4.66277E-03     145.931E-03         2.60817         2.39205        -5.42303         2.39176        -5.42274         2.60817    -9.15984E-03     502.994E-03    -250.273E-03    -252.804E-03    -249.814E-03     502.535E-03    -252.804E-03     36.5540E-03    -39.4556E+06    -93.3612E+06    -149.710E+06    -102.150E+06    -140.922E+06    -39.4556E+06     17.2892E+06         65.1235
            1742     5.43950E-03     145.964E-03         2.56751         2.26886        -5.25620         2.26872        -5.25606         2.56751     31.5416E-03     503.124E-03    -250.325E-03    -253.091E-03    -249.394E-03     502.193E-03    -253.091E-03     52.1821E-03    -13.2004E+06    -54.6704E+06    -111.327E+06    -92.1700E+06    -73.8269E+06    -13.2004E+06     21.8707E+06         66.2507
            1743     6.21328E-03     146.028E-03         2.51993         2.14067        -5.07477         2.14063        -5.07473         2.51993     4.42881E-03     503.142E-03    -250.506E-03    -253.577E-03    -248.755E-03     501.391E-03    -253.577E-03     71.7765E-03     10.6969E+06    -12.9610E+06    -91.0544E+06    -81.9387E+06    -22.0767E+06     10.6969E+06     24.8247E+06         67.5899
            1744     6.98378E-03     146.147E-03         2.46649         1.99956        -4.87523         1.99946        -4.87513         2.46649    -7.84637E-03     503.921E-03    -250.417E-03    -254.025E-03    -247.429E-03     500.933E-03    -254.025E-03     94.0278E-03     30.0864E+06     3.31635E+06    -79.4570E+06    -72.0328E+06    -4.10786E+06     30.0864E+06     23.5582E+06         69.0335
            1745     7.75847E-03     146.260E-03         2.40731         1.83526        -4.64871         1.83517        -4.64861         2.40731    -31.0896E-03     506.117E-03    -252.046E-03    -254.112E-03    -247.359E-03     501.430E-03    -254.112E-03     118.193E-03     47.4753E+06     13.2570E+06    -68.7427E+06    -62.9653E+06     7.47965E+06     47.4753E+06     20.8147E+06         70.4080
            1746     8.53322E-03     146.384E-03         2.34192         1.64710        -4.39272         1.64701        -4.39263         2.34192    -29.5738E-03     507.604E-03    -253.274E-03    -254.336E-03    -247.342E-03     500.751E-03    -253.414E-03     143.267E-03     61.7160E+06     20.4071E+06    -57.9144E+06    -53.8010E+06     16.2938E+06     61.7160E+06     17.4087E+06         71.5340
            1747     9.31808E-03     146.487E-03         2.26897         1.45713        -4.12411         1.45705        -4.12404         2.26897    -22.4838E-03     507.304E-03    -253.079E-03    -254.367E-03    -245.162E-03     498.209E-03    -253.190E-03     165.121E-03     70.8079E+06     25.4076E+06    -46.7924E+06    -43.7482E+06     22.3633E+06     70.8079E+06     14.2921E+06         72.4030
            1748     10.0928E-03     146.761E-03         2.18798         1.27113        -3.85167         1.27080        -3.85135         2.18798    -45.2218E-03     509.098E-03    -253.815E-03    -255.823E-03    -245.397E-03     498.784E-03    -253.926E-03     176.423E-03     76.3767E+06     37.9355E+06    -35.8380E+06    -33.4783E+06     35.5758E+06     76.3767E+06     12.7291E+06         73.2649
            1749     10.8620E-03     147.014E-03         2.10134         1.07516        -3.56533         1.07483        -3.56499         2.10134    -48.5282E-03     513.826E-03    -253.551E-03    -260.514E-03    -247.231E-03     500.543E-03    -253.551E-03     199.963E-03     80.0475E+06     45.7766E+06    -25.1132E+06    -23.7062E+06     44.3696E+06     80.0475E+06     9.17929E+06         74.4420
            1750     11.6574E-03     147.228E-03         2.00876     869.397E-03        -3.26298     869.128E-03        -3.26271         2.00876    -41.9345E-03     513.326E-03    -252.932E-03    -260.308E-03    -246.906E-03     499.924E-03    -252.932E-03     200.876E-03     82.8966E+06     48.0962E+06    -16.8792E+06    -16.1845E+06     47.4016E+06     82.8966E+06     5.43413E+06         76.2377
            1751     12.4216E-03     147.594E-03         1.90631     647.780E-03        -2.93702     647.408E-03        -2.93665         1.90631    -20.3572E-03     526.767E-03    -253.311E-03    -272.887E-03    -252.879E-03     506.759E-03    -253.311E-03     243.406E-03     88.2012E+06     56.8070E+06    -10.5780E+06    -10.2137E+06     56.4427E+06     88.2012E+06     3.95241E+06         78.7688
            1752     13.2063E-03     148.002E-03         1.79964     444.357E-03        -2.62602     444.109E-03        -2.62578         1.79964    -6.76469E-03     526.543E-03    -253.035E-03    -272.672E-03    -255.054E-03     508.926E-03    -253.035E-03     220.547E-03     94.2194E+06     61.8378E+06    -4.66943E+06    -4.41226E+06     61.5806E+06     94.2194E+06     2.26782E+06         81.5683
            1753     776.047E-06     147.667E-03         2.65999         2.61837        -5.71041         2.63454        -5.70636         2.63977     98.5951E-03     505.090E-03    -251.577E-03    -253.441E-03    -253.300E-03     505.089E-03    -251.717E-03     642.720E-06    -142.432E+06    -147.885E+06    -333.275E+06    -145.649E+06    -333.241E+06    -144.701E+06     955.928E+03         61.9577
            1754     1.55490E-03     147.636E-03         2.62762         2.57329        -5.63488         2.57178        -5.63338         2.62762    -43.0995E-03     504.394E-03    -251.974E-03    -252.591E-03    -252.066E-03     504.390E-03    -252.496E-03     2.75022E-03    -132.922E+06    -141.852E+06    -310.498E+06    -141.931E+06    -310.419E+06    -132.922E+06     3.00014E+06         62.2446
            1755     2.33316E-03     147.611E-03         2.60039         2.50576        -5.54309         2.50480        -5.54214         2.60039     12.9747E-03     503.759E-03    -251.488E-03    -252.492E-03    -251.547E-03     503.741E-03    -252.414E-03     6.87737E-03    -114.397E+06    -134.841E+06    -287.191E+06    -135.081E+06    -286.951E+06    -114.397E+06     5.26486E+06         62.7088
            1756     3.10957E-03     147.588E-03         2.56778         2.41860        -5.41745         2.41803        -5.41688         2.56778    -14.4652E-03     502.940E-03    -251.039E-03    -252.249E-03    -250.968E-03     502.869E-03    -252.249E-03     13.9486E-03    -93.1926E+06    -125.101E+06    -253.336E+06    -126.052E+06    -252.384E+06    -93.1926E+06     8.70747E+06         63.3430
            1757     3.88986E-03     147.574E-03         2.53056         2.33625        -5.29247         2.33594        -5.29216         2.53056     18.4586E-03     502.816E-03    -251.024E-03    -252.158E-03    -250.816E-03     502.608E-03    -252.158E-03     24.3041E-03    -69.2264E+06    -113.716E+06    -208.018E+06    -115.738E+06    -205.995E+06    -69.2264E+06     12.0998E+06         64.1244
            1758     4.66540E-03     147.579E-03         2.49147         2.26630        -5.18019         2.26617        -5.18005         2.49147    -24.1476E-03     503.081E-03    -251.011E-03    -252.200E-03    -250.520E-03     502.591E-03    -252.200E-03     37.7159E-03    -44.3615E+06    -98.8032E+06    -162.419E+06    -104.549E+06    -156.673E+06    -44.3615E+06     16.3574E+06         65.0631
            1759     5.43908E-03     147.616E-03         2.45079         2.19274        -5.05683         2.19273        -5.05682         2.45079     4.20426E-03     502.736E-03    -250.448E-03    -252.544E-03    -249.437E-03     501.725E-03    -252.544E-03     54.3072E-03    -18.6198E+06    -64.4431E+06    -122.305E+06    -93.1956E+06    -93.5529E+06    -18.6198E+06     22.7558E+06         66.2011
            1760     6.21508E-03     147.675E-03         2.40510         2.08309        -4.89669         2.08300        -4.89660         2.40510    -12.1582E-03     502.440E-03    -250.066E-03    -253.153E-03    -248.266E-03     500.640E-03    -253.153E-03     72.8962E-03     5.85002E+06    -18.4138E+06    -95.0808E+06    -82.7663E+06    -30.7283E+06     5.85002E+06     27.1878E+06         67.5448
            1761     6.98689E-03     147.798E-03         2.35103         1.93489        -4.69240         1.93480        -4.69231         2.35103    -7.23759E-03     504.315E-03    -251.294E-03    -253.818E-03    -248.248E-03     501.268E-03    -253.818E-03     94.8987E-03     27.4645E+06     6.48256E+06    -82.0150E+06    -72.7075E+06    -2.82492E+06     27.4645E+06     27.1340E+06         68.9829
            1762     7.75451E-03     147.926E-03         2.28878         1.75326        -4.44402         1.75321        -4.44397         2.28878     11.4709E-03     506.249E-03    -252.528E-03    -254.078E-03    -247.651E-03     501.373E-03    -254.078E-03     120.517E-03     47.1376E+06     16.7376E+06    -70.1769E+06    -62.9119E+06     9.47266E+06     47.1376E+06     23.8945E+06         70.3520
            1763     8.53743E-03     148.043E-03         2.21956         1.55492        -4.17328         1.55485        -4.17321         2.21956     3.95157E-03     505.834E-03    -252.071E-03    -253.301E-03    -245.111E-03     498.720E-03    -253.147E-03     145.633E-03     64.8395E+06     26.2334E+06    -58.1539E+06    -53.3343E+06     21.4138E+06     64.8395E+06     19.4969E+06         71.4819
            1764     9.32750E-03     148.145E-03         2.14158         1.37331        -3.90641         1.37327        -3.90637         2.14158    -18.9824E-03     506.253E-03    -252.229E-03    -253.605E-03    -243.983E-03     497.081E-03    -252.679E-03     165.708E-03     77.0304E+06     31.1212E+06    -46.3338E+06    -43.5408E+06     28.3283E+06     77.0304E+06     14.1924E+06         72.3620
            1765     10.1006E-03     148.389E-03         2.05282         1.18758        -3.62548         1.18755        -3.62544         2.05282    -19.3286E-03     509.245E-03    -253.393E-03    -256.410E-03    -245.944E-03     498.890E-03    -253.504E-03     176.814E-03     82.4236E+06     39.6644E+06    -34.9625E+06    -33.5838E+06     38.2856E+06     82.4236E+06     9.55986E+06         73.2254
            1766     10.8639E-03     148.670E-03         1.95790     984.440E-03        -3.32420     984.417E-03        -3.32418         1.95790    -5.86180E-03     513.022E-03    -253.189E-03    -259.736E-03    -246.707E-03     499.993E-03    -253.189E-03     198.174E-03     84.5882E+06     50.8205E+06    -25.2540E+06    -24.3599E+06     49.9264E+06     84.5882E+06     7.38269E+06         74.3927
            1767     11.6605E-03     148.865E-03         1.85752     787.140E-03        -3.01693     787.125E-03        -3.01692         1.85752    -4.98196E-03     512.387E-03    -252.550E-03    -259.256E-03    -246.101E-03     499.232E-03    -252.550E-03     199.083E-03     85.5894E+06     51.5789E+06    -17.8045E+06    -17.1583E+06     50.9327E+06     85.5894E+06     5.47113E+06         76.1715
            1768     12.4248E-03     149.251E-03         1.74623     604.095E-03        -2.71130     603.781E-03        -2.71098         1.74623     34.4472E-03     525.472E-03    -252.856E-03    -272.121E-03    -252.330E-03     505.681E-03    -252.856E-03     242.255E-03     89.7227E+06     58.6932E+06    -11.2673E+06    -10.8436E+06     58.2695E+06     89.7227E+06     4.36134E+06         78.6995
            1769     13.2143E-03     149.655E-03         1.63312     418.676E-03        -2.39633     418.265E-03        -2.39592         1.63312     26.0852E-03     524.238E-03    -252.691E-03    -270.990E-03    -253.653E-03     506.902E-03    -252.691E-03     218.833E-03     94.9954E+06     67.2705E+06    -5.66696E+06    -5.35314E+06     66.9567E+06     94.9954E+06     2.87685E+06         81.5136
            1770     779.293E-06     149.306E-03         2.42553         2.36864        -5.21711         2.40761        -5.21502         2.38447     106.685E-03     502.038E-03    -249.960E-03    -251.983E-03    -251.364E-03     502.036E-03    -250.578E-03    -352.558E-06    -150.470E+06    -155.795E+06    -335.670E+06    -153.529E+06    -335.666E+06    -152.739E+06    -385.722E+03         61.7906
            1771     1.55698E-03     149.276E-03         2.40879         2.35503        -5.19694         2.36725        -5.19580         2.39542     31.8367E-03     502.059E-03    -250.757E-03    -251.325E-03    -251.079E-03     502.055E-03    -251.000E-03     2.45318E-03    -140.746E+06    -150.424E+06    -315.716E+06    -150.441E+06    -315.698E+06    -140.746E+06     982.534E+03         62.1080
            1772     2.33403E-03     149.259E-03         2.38055         2.31069        -5.12458         2.30981        -5.12370         2.38055     91.7446E-03     502.283E-03    -250.950E-03    -251.421E-03    -251.039E-03     502.264E-03    -251.313E-03     6.97891E-03    -123.618E+06    -143.682E+06    -293.163E+06    -143.896E+06    -292.949E+06    -123.618E+06     2.39182E+06         62.6015
            1773     3.11453E-03     149.228E-03         2.35715         2.23886        -5.02618         2.23849        -5.02582         2.35715     67.5988E-03     502.366E-03    -250.979E-03    -251.554E-03    -250.933E-03     502.289E-03    -251.524E-03     14.4616E-03    -101.559E+06    -132.695E+06    -260.794E+06    -132.952E+06    -260.537E+06    -101.559E+06     3.33684E+06         63.2527
            1774     3.88978E-03     149.225E-03         2.32658         2.15479        -4.90766         2.15443        -4.90730         2.32658     79.7751E-03     501.920E-03    -250.797E-03    -251.532E-03    -250.564E-03     501.687E-03    -251.532E-03     25.5924E-03    -80.1624E+06    -121.004E+06    -220.004E+06    -121.832E+06    -219.176E+06    -80.1624E+06     6.64899E+06         64.0412
            1775     4.66707E-03     149.228E-03         2.28948         2.06569        -4.77696         2.06557        -4.77684         2.28948     40.9300E-03     501.499E-03    -250.456E-03    -251.599E-03    -249.907E-03     500.950E-03    -251.599E-03     39.8192E-03    -55.3524E+06    -107.559E+06    -174.840E+06    -110.525E+06    -171.875E+06    -55.3524E+06     12.0215E+06         64.9881
            1776     5.44521E-03     149.261E-03         2.24652         1.97753        -4.63856         1.97743        -4.63846         2.24652     34.3383E-03     501.628E-03    -250.243E-03    -251.848E-03    -249.150E-03     500.535E-03    -251.848E-03     56.5634E-03    -28.9713E+06    -81.1743E+06    -131.397E+06    -97.4373E+06    -115.133E+06    -28.9713E+06     18.4241E+06         66.1522
            1777     6.21999E-03     149.325E-03         2.19592         1.87150        -4.47692         1.87134        -4.47676         2.19592     8.66248E-03     502.305E-03    -250.832E-03    -252.553E-03    -248.927E-03     500.400E-03    -252.553E-03     75.0608E-03    -2.71681E+06    -31.8878E+06    -100.045E+06    -84.4478E+06    -47.4851E+06    -2.71681E+06     26.4888E+06         67.5097
            1778     6.98816E-03     149.452E-03         2.13568         1.73047        -4.27122         1.73034        -4.27109         2.13568    -1.23697E-03     504.238E-03    -251.720E-03    -253.401E-03    -248.464E-03     500.982E-03    -253.401E-03     98.0812E-03     20.5043E+06     7.05784E+06    -85.2672E+06    -74.5771E+06    -3.63222E+06     20.5043E+06     29.2966E+06         68.9407
            1779     7.76127E-03     149.582E-03         2.06869         1.57879        -4.04670         1.57870        -4.04661         2.06869    -865.796E-06     505.476E-03    -251.870E-03    -253.700E-03    -246.841E-03     500.447E-03    -253.700E-03     122.516E-03     42.7575E+06     22.2461E+06    -72.4104E+06    -65.1240E+06     14.9597E+06     42.7575E+06     24.9524E+06         70.3172
            1780     8.54055E-03     149.693E-03         1.99925         1.43321        -3.82462         1.43304        -3.82444         1.99925    -28.9150E-03     505.294E-03    -251.442E-03    -253.283E-03    -244.988E-03     498.297E-03    -252.739E-03     144.467E-03     66.2586E+06     31.7195E+06    -58.2309E+06    -53.5842E+06     27.0727E+06     66.2586E+06     19.8111E+06         71.4587
            1781     9.32963E-03     149.801E-03         1.92222         1.26959        -3.57857         1.26943        -3.57840         1.92222    -53.3676E-03     506.555E-03    -251.954E-03    -253.822E-03    -244.547E-03     497.620E-03    -252.294E-03     163.661E-03     83.3899E+06     40.8439E+06    -45.9212E+06    -43.0275E+06     37.9502E+06     83.3899E+06     15.3354E+06         72.3299
            1782     10.0991E-03     150.068E-03         1.83065         1.08338        -3.29272         1.08328        -3.29262         1.83065    -34.8742E-03     508.296E-03    -253.169E-03    -255.205E-03    -244.940E-03     498.144E-03    -253.281E-03     174.852E-03     89.8702E+06     47.8632E+06    -35.5668E+06    -34.1913E+06     46.4877E+06     89.8702E+06     10.1643E+06         73.1789
            1783     10.8710E-03     150.326E-03         1.73233     896.949E-03        -2.99782     896.763E-03        -2.99763         1.73233    -31.9780E-03     511.615E-03    -252.854E-03    -258.354E-03    -245.370E-03     498.743E-03    -252.967E-03     196.597E-03     89.4184E+06     51.9782E+06    -27.8213E+06    -27.0351E+06     51.1920E+06     89.4184E+06     7.38561E+06         74.3284
            1784     11.6689E-03     150.520E-03         1.62989     722.410E-03        -2.71484     722.162E-03        -2.71459         1.62989    -42.4770E-03     512.520E-03    -252.254E-03    -259.718E-03    -246.606E-03     499.409E-03    -252.254E-03     198.874E-03     88.7384E+06     55.2215E+06    -21.1477E+06    -20.5100E+06     54.5839E+06     88.7384E+06     5.98502E+06         76.0386
            1785     12.4269E-03     150.899E-03         1.51424     554.439E-03        -2.41900     553.855E-03        -2.41841         1.51424    -25.6391E-03     523.449E-03    -252.507E-03    -271.308E-03    -251.178E-03     503.320E-03    -252.507E-03     243.424E-03     90.4931E+06     62.1784E+06    -14.6418E+06    -14.2539E+06     61.7905E+06     90.4931E+06     2.99765E+06         78.4861
            1786     13.2184E-03     151.301E-03         1.39695     386.286E-03        -2.11534     385.604E-03        -2.11465         1.39695    -32.9115E-03     520.579E-03    -252.380E-03    -268.489E-03    -250.706E-03     502.796E-03    -252.380E-03     220.882E-03     95.6618E+06     69.3472E+06    -6.85085E+06    -6.59735E+06     69.0937E+06     95.6618E+06     1.06505E+06         81.2701
            1787     778.691E-06     150.950E-03         2.09412         2.03630        -4.54688         2.06618        -4.54418         2.06153     115.128E-03     499.199E-03    -249.167E-03    -250.073E-03    -249.411E-03     499.194E-03    -249.824E-03     956.120E-06    -161.622E+06    -166.079E+06    -333.950E+06    -166.122E+06    -333.907E+06    -161.622E+06    -1.96039E+06         61.5641
            1788     1.55790E-03     150.917E-03         2.07605         2.01170        -4.51238         2.02376        -4.51108         2.06268     36.4138E-03     499.508E-03    -249.561E-03    -250.003E-03    -249.895E-03     499.502E-03    -249.663E-03     3.31667E-03    -150.390E+06    -158.999E+06    -312.806E+06    -159.106E+06    -312.699E+06    -150.390E+06    -2.36775E+06         61.8969
            1789     2.33824E-03     150.898E-03         2.04832         1.98864        -4.46389         1.98751        -4.46276         2.04832     72.3932E-03     500.048E-03    -249.949E-03    -250.234E-03    -250.102E-03     500.018E-03    -250.051E-03     8.75821E-03    -134.151E+06    -151.287E+06    -291.571E+06    -151.465E+06    -291.393E+06    -134.151E+06    -4.03882E+06         62.4139
            1790     3.11450E-03     150.877E-03         2.03240         1.95232        -4.40903         1.95181        -4.40852         2.03240     9.13799E-03     500.297E-03    -250.030E-03    -250.418E-03    -250.014E-03     500.187E-03    -250.326E-03     17.1951E-03    -114.135E+06    -141.433E+06    -264.095E+06    -141.818E+06    -263.709E+06    -114.135E+06    -4.03300E+06         63.1019
            1791     3.89471E-03     150.866E-03         2.01258         1.89847        -4.33492         1.89750        -4.33395         2.01258    -13.1067E-03     499.842E-03    -249.787E-03    -250.543E-03    -249.586E-03     499.549E-03    -250.451E-03     28.8641E-03    -91.2743E+06    -129.789E+06    -228.358E+06    -130.197E+06    -227.950E+06    -91.2743E+06    -1.67266E+06         63.9314
            1792     4.67396E-03     150.866E-03         1.98454         1.81533        -4.21856         1.81391        -4.21714         1.98454    -82.0030E-03     500.295E-03    -249.942E-03    -250.893E-03    -249.586E-03     499.690E-03    -250.644E-03     42.0684E-03    -66.4450E+06    -115.089E+06    -186.550E+06    -115.983E+06    -185.657E+06    -66.4450E+06     2.70001E+06         64.9105
            1793     5.44898E-03     150.905E-03         1.94497         1.70647        -4.06730         1.70509        -4.06591         1.94497    -83.4028E-03     501.264E-03    -250.405E-03    -251.267E-03    -249.431E-03     500.134E-03    -251.111E-03     57.5882E-03    -41.0278E+06    -96.6292E+06    -142.057E+06    -102.342E+06    -136.344E+06    -41.0278E+06     9.64876E+06         66.1047
            1794     6.22317E-03     150.974E-03         1.89167         1.57991        -3.88242         1.57896        -3.88146         1.89167    -56.4651E-03     502.137E-03    -251.016E-03    -251.959E-03    -249.056E-03     500.178E-03    -251.959E-03     76.1109E-03    -15.9524E+06    -57.5173E+06    -106.837E+06    -89.4296E+06    -74.9250E+06    -15.9524E+06     19.3028E+06         67.4774
            1795     6.99403E-03     151.108E-03         1.82663         1.45173        -3.68364         1.45135        -3.68326         1.82663    -29.7108E-03     503.876E-03    -251.626E-03    -252.809E-03    -248.421E-03     500.665E-03    -252.803E-03     97.5977E-03     13.1275E+06    -3.24563E+06    -85.9046E+06    -75.8598E+06    -11.7211E+06     11.5582E+06     26.6656E+06         68.9157
            1796     7.76509E-03     151.231E-03         1.75830         1.34458        -3.49837         1.34443        -3.49821         1.75830    -36.4853E-03     505.805E-03    -252.219E-03    -253.209E-03    -247.409E-03     500.989E-03    -253.202E-03     119.971E-03     42.0758E+06     29.1967E+06    -71.5056E+06    -64.3881E+06     23.6485E+06     40.5065E+06     25.8384E+06         70.3101
            1797     8.54454E-03     151.354E-03         1.69159         1.22691        -3.30745         1.22676        -3.30729         1.69159    -48.9141E-03     506.344E-03    -252.112E-03    -253.180E-03    -246.000E-03     499.541E-03    -252.489E-03     142.554E-03     64.5790E+06     38.1509E+06    -59.0322E+06    -54.5881E+06     33.7068E+06     64.5790E+06     20.0499E+06         71.4562
            1798     9.32894E-03     151.458E-03         1.61739         1.08072        -3.08047         1.08045        -3.08020         1.61739    -65.8902E-03     506.265E-03    -252.066E-03    -252.973E-03    -243.976E-03     497.270E-03    -252.068E-03     164.015E-03     84.4253E+06     47.1599E+06    -46.7600E+06    -44.0445E+06     44.4443E+06     84.4253E+06     15.5457E+06         72.2879
            1799     10.1048E-03     151.705E-03         1.52653     923.071E-03        -2.82163     922.885E-03        -2.82144         1.52653    -46.0478E-03     507.012E-03    -252.902E-03    -253.679E-03    -243.469E-03     496.917E-03    -253.017E-03     174.087E-03     96.0052E+06     55.2361E+06    -36.2696E+06    -34.2780E+06     53.2445E+06     96.0052E+06     13.2821E+06         73.0821
            1800     10.8725E-03     151.972E-03         1.42896     768.311E-03        -2.56385     767.449E-03        -2.56299         1.42896    -78.2715E-03     510.842E-03    -252.735E-03    -257.530E-03    -244.771E-03     498.196E-03    -252.848E-03     194.590E-03     96.5521E+06     56.3969E+06    -27.3034E+06    -25.8391E+06     54.9325E+06     96.5521E+06     10.4217E+06         74.1686
            1801     11.6681E-03     152.179E-03         1.32795     618.452E-03        -2.30649     617.065E-03        -2.30511         1.32795    -115.733E-03     510.525E-03    -251.946E-03    -257.669E-03    -244.658E-03     497.514E-03    -251.946E-03     197.619E-03     94.9771E+06     60.5176E+06    -19.4284E+06    -18.6081E+06     59.6972E+06     94.9771E+06     7.03363E+06         75.7542
            1802     12.4369E-03     152.540E-03         1.21170     465.837E-03        -2.03454     464.786E-03        -2.03348         1.21170    -96.0746E-03     518.936E-03    -252.207E-03    -267.500E-03    -247.275E-03     498.711E-03    -252.207E-03     242.398E-03     97.3696E+06     68.8754E+06    -11.2874E+06    -10.7023E+06     68.2903E+06     97.3696E+06     4.38323E+06         78.0627
            1803     13.2297E-03     152.954E-03         1.09568     341.890E-03        -1.79247     340.970E-03        -1.79155         1.09568    -85.1284E-03     514.810E-03    -249.919E-03    -265.869E-03    -245.538E-03     496.514E-03    -251.955E-03     224.025E-03     101.665E+06     73.0288E+06    -3.90609E+06    -3.50060E+06     72.6233E+06     101.665E+06     2.67303E+06         80.7776
            1804     780.758E-06     152.585E-03         1.61529         1.54242        -3.56733         1.58671        -3.56399         1.56766     71.2890E-03     495.828E-03    -246.786E-03    -248.995E-03    -248.811E-03     495.824E-03    -246.966E-03     3.10520E-03    -154.150E+06    -159.908E+06    -325.199E+06    -157.460E+06    -325.100E+06    -156.697E+06    -3.76998E+06         61.2566
            1805     1.56144E-03     152.548E-03         1.61223         1.55280        -3.57873         1.57500        -3.57784         1.58914    -58.1580E-03     496.449E-03    -247.987E-03    -248.586E-03    -248.572E-03     496.435E-03    -247.987E-03     5.78010E-03    -150.959E+06    -155.846E+06    -305.677E+06    -156.058E+06    -305.465E+06    -150.959E+06    -5.47953E+06         61.6082
            1806     2.33974E-03     152.533E-03         1.60232         1.56897        -3.58786         1.57961        -3.58746         1.59129    -21.5553E-03     496.902E-03    -248.272E-03    -248.782E-03    -248.733E-03     496.853E-03    -248.272E-03     11.4588E-03    -136.056E+06    -150.328E+06    -282.940E+06    -150.801E+06    -282.467E+06    -136.056E+06    -7.36559E+06         62.1606
            1807     3.12186E-03     152.506E-03         1.59321         1.55526        -3.56718         1.55779        -3.56674         1.59024    -87.5241E-03     497.047E-03    -248.317E-03    -248.950E-03    -248.544E-03     496.910E-03    -248.586E-03     19.5972E-03    -118.219E+06    -143.933E+06    -259.211E+06    -144.816E+06    -258.328E+06    -118.219E+06    -9.65656E+06         62.9041
            1808     3.90077E-03     152.509E-03         1.58118         1.52307        -3.51778         1.52222        -3.51692         1.58118    -85.1335E-03     498.036E-03    -248.679E-03    -249.858E-03    -249.260E-03     497.707E-03    -248.948E-03     30.7272E-03    -97.5226E+06    -133.301E+06    -229.519E+06    -134.549E+06    -228.270E+06    -97.5226E+06    -10.1214E+06         63.7908
            1809     4.67724E-03     152.516E-03         1.56286         1.46698        -3.43823         1.46564        -3.43689         1.56286    -117.776E-03     499.815E-03    -249.417E-03    -250.679E-03    -250.020E-03     499.156E-03    -249.417E-03     43.9060E-03    -75.9760E+06    -121.836E+06    -195.623E+06    -123.004E+06    -194.456E+06    -75.9760E+06    -7.70851E+06         64.8159
            1810     5.45380E-03     152.556E-03         1.53255         1.38007        -3.32026         1.37872        -3.31891         1.53255    -138.956E-03     501.332E-03    -250.078E-03    -251.216E-03    -249.909E-03     500.126E-03    -250.179E-03     59.5405E-03    -54.2150E+06    -108.552E+06    -155.387E+06    -110.431E+06    -153.507E+06    -54.2150E+06    -2.81959E+06         66.0295
            1811     6.22803E-03     152.622E-03         1.48771         1.28716        -3.18056         1.28613        -3.17954         1.48771    -124.704E-03     502.643E-03    -250.895E-03    -252.082E-03    -249.675E-03     500.663E-03    -251.321E-03     76.7487E-03    -30.2453E+06    -83.2753E+06    -113.141E+06    -95.9240E+06    -100.492E+06    -30.2453E+06     4.77177E+06         67.3872
            1812     6.99708E-03     152.752E-03         1.43088         1.19630        -3.02648         1.19554        -3.02572         1.43088    -109.320E-03     504.276E-03    -252.023E-03    -252.728E-03    -249.286E-03     501.158E-03    -252.348E-03     96.2978E-03    -1.67891E+06    -30.9654E+06    -85.3179E+06    -80.3228E+06    -34.3911E+06    -3.24826E+06     14.8513E+06         68.8196
            1813     7.76552E-03     152.891E-03         1.37005         1.08486        -2.84683         1.08381        -2.84578         1.37005    -104.200E-03     505.632E-03    -252.393E-03    -252.875E-03    -247.634E-03     500.860E-03    -252.862E-03     119.292E-03     31.1661E+06     19.1982E+06    -70.5954E+06    -64.9413E+06     18.9391E+06     25.7711E+06     22.3180E+06         70.2324
            1814     8.54286E-03     153.003E-03         1.30937     957.554E-03        -2.65179     956.422E-03        -2.65066         1.30937    -99.0193E-03     505.485E-03    -251.902E-03    -252.659E-03    -245.299E-03     498.594E-03    -252.371E-03     143.292E-03     58.9152E+06     42.8404E+06    -58.5433E+06    -53.7456E+06     41.8682E+06     55.0896E+06     21.6902E+06         71.4008
            1815     9.33465E-03     153.115E-03         1.24041     837.851E-03        -2.45610     836.791E-03        -2.45504         1.24041    -103.786E-03     505.811E-03    -251.694E-03    -252.756E-03    -243.828E-03     496.885E-03    -251.696E-03     163.396E-03     81.6837E+06     52.6856E+06    -47.8737E+06    -44.9485E+06     49.7604E+06     81.6837E+06     16.6995E+06         72.2261
            1816     10.1100E-03     153.346E-03         1.15436     722.314E-03        -2.24937     721.358E-03        -2.24842         1.15436    -92.6512E-03     506.506E-03    -252.141E-03    -253.694E-03    -243.356E-03     496.500E-03    -252.473E-03     173.214E-03     98.2712E+06     56.3900E+06    -37.0760E+06    -34.9817E+06     54.2957E+06     98.2712E+06     13.7970E+06         72.9547
            1817     10.8757E-03     153.620E-03         1.06183     597.220E-03        -2.02850     595.784E-03        -2.02706         1.06183    -110.750E-03     508.400E-03    -252.424E-03    -255.869E-03    -242.632E-03     495.493E-03    -252.754E-03     195.847E-03     103.474E+06     63.8863E+06    -27.3783E+06    -25.6620E+06     62.1700E+06     103.474E+06     12.1116E+06         73.9183
            1818     11.6743E-03     153.818E-03     967.150E-03     476.613E-03        -1.80764     474.881E-03        -1.80591     967.150E-03    -124.963E-03     506.802E-03    -251.368E-03    -254.576E-03    -240.741E-03     493.283E-03    -251.685E-03     200.481E-03     103.380E+06     67.5657E+06    -17.9671E+06    -16.9253E+06     66.5239E+06     103.380E+06     8.51699E+06         75.3474
            1819     12.4423E-03     154.188E-03     859.180E-03     380.654E-03        -1.60194     379.684E-03        -1.60097     859.180E-03    -84.7169E-03     513.569E-03    -251.006E-03    -262.434E-03    -241.082E-03     492.534E-03    -251.323E-03     245.333E-03     102.813E+06     72.0957E+06    -11.5464E+06    -10.9197E+06     71.4690E+06     102.813E+06     5.53803E+06         77.5194
            1820     13.2395E-03     154.597E-03     755.415E-03     307.275E-03        -1.42695     306.519E-03        -1.42619     755.415E-03    -69.9930E-03     505.607E-03    -244.316E-03    -261.518E-03    -235.855E-03     486.260E-03    -250.632E-03     229.065E-03     104.976E+06     78.2719E+06    -4.56959E+06    -4.03859E+06     77.7409E+06     104.976E+06     4.45558E+06         80.1534
            1821     782.487E-06     154.211E-03         1.07804         1.01573        -2.50460         1.05651        -2.50104         1.03371     74.0106E-03     491.807E-03    -244.784E-03    -246.903E-03    -246.899E-03     491.803E-03    -244.784E-03     2.19395E-03    -149.931E+06    -156.917E+06    -310.707E+06    -154.503E+06    -310.574E+06    -152.479E+06    -4.18084E+06         60.9051
            1822     1.56441E-03     154.177E-03         1.09869         1.06556        -2.57434         1.09777        -2.57342         1.06556    -25.2585E-03     492.531E-03    -245.960E-03    -246.695E-03    -246.672E-03     492.508E-03    -245.960E-03     7.75241E-03    -142.813E+06    -150.039E+06    -292.781E+06    -150.607E+06    -292.213E+06    -142.813E+06    -7.77783E+06         61.2840
            1823     2.34659E-03     154.155E-03         1.09945         1.08292        -2.59303         1.09901        -2.59259         1.08292     10.8796E-03     493.782E-03    -246.351E-03    -247.633E-03    -247.570E-03     493.719E-03    -246.351E-03     13.4137E-03    -128.254E+06    -142.821E+06    -272.168E+06    -143.844E+06    -271.146E+06    -128.254E+06    -10.8125E+06         61.8788
            1824     3.12585E-03     154.133E-03         1.09734         1.08908        -2.59371         1.09629        -2.59340         1.08983    -44.9274E-03     495.645E-03    -246.964E-03    -248.828E-03    -248.669E-03     495.486E-03    -246.964E-03     21.1372E-03    -111.244E+06    -134.815E+06    -250.070E+06    -136.150E+06    -248.735E+06    -111.244E+06    -12.1872E+06         62.6722
            1825     3.90461E-03     154.143E-03         1.08997         1.07697        -2.56844         1.07753        -2.56741         1.08838    -52.1294E-03     497.313E-03    -247.746E-03    -249.712E-03    -249.352E-03     496.953E-03    -247.746E-03     32.1965E-03    -94.5013E+06    -127.846E+06    -223.979E+06    -129.800E+06    -222.026E+06    -94.5013E+06    -13.3201E+06         63.6143
            1826     4.68307E-03     154.158E-03         1.07698         1.03334        -2.50812         1.03228        -2.50705         1.07698    -69.6453E-03     498.888E-03    -248.537E-03    -250.605E-03    -249.884E-03     498.167E-03    -248.537E-03     45.8737E-03    -76.1669E+06    -118.811E+06    -196.730E+06    -121.531E+06    -194.010E+06    -76.1669E+06    -14.1061E+06         64.6966
            1827     5.45782E-03     154.208E-03         1.05408     975.733E-03        -2.42813     974.874E-03        -2.42727         1.05408    -85.5400E-03     501.196E-03    -249.319E-03    -251.849E-03    -250.551E-03     499.899E-03    -249.319E-03     61.8946E-03    -58.0148E+06    -107.401E+06    -163.369E+06    -110.943E+06    -159.827E+06    -58.0148E+06    -13.2054E+06         65.9216
            1828     6.23170E-03     154.271E-03         1.01873     921.821E-03        -2.33589     920.549E-03        -2.33462         1.01873    -110.945E-03     503.374E-03    -250.576E-03    -252.789E-03    -250.651E-03     501.236E-03    -250.576E-03     79.6971E-03    -38.8957E+06    -91.5303E+06    -122.434E+06    -98.5121E+06    -115.452E+06    -38.8957E+06    -9.81422E+06         67.2356
            1829     6.99756E-03     154.409E-03     971.176E-03     845.335E-03        -2.20924     844.206E-03        -2.20811     971.176E-03    -110.988E-03     504.623E-03    -251.847E-03    -252.803E-03    -249.336E-03     501.251E-03    -251.942E-03     100.139E-03    -17.9218E+06    -57.4650E+06    -90.3541E+06    -84.7249E+06    -63.0942E+06    -17.9218E+06    -1.57568E+06         68.6148
            1830     7.76801E-03     154.539E-03     918.487E-03     755.297E-03        -2.05966     754.184E-03        -2.05855     918.487E-03    -103.545E-03     504.835E-03    -252.057E-03    -252.667E-03    -247.122E-03     499.772E-03    -252.539E-03     122.802E-03     11.3468E+06    -7.24980E+06    -73.0233E+06    -70.7101E+06    -3.86162E+06     5.64539E+06     10.0193E+06         70.0065
            1831     8.55146E-03     154.654E-03     867.273E-03     670.025E-03        -1.91831     668.744E-03        -1.91703     867.273E-03    -106.683E-03     505.032E-03    -251.867E-03    -252.981E-03    -245.535E-03     497.973E-03    -252.255E-03     145.169E-03       45.14E+06     34.9585E+06    -60.5768E+06    -56.9511E+06     38.9504E+06     37.5223E+06     18.3710E+06         71.2171
            1832     9.33577E-03     154.763E-03     809.237E-03     584.281E-03        -1.77148     582.778E-03        -1.76997     809.237E-03    -118.028E-03     505.250E-03    -251.371E-03    -252.925E-03    -243.743E-03     496.244E-03    -251.547E-03     164.012E-03     70.4583E+06     56.3236E+06    -50.1178E+06    -46.5271E+06     54.6491E+06     68.5421E+06     19.2178E+06         72.0854
            1833     10.1095E-03     154.998E-03     733.940E-03     499.849E-03        -1.60455     498.540E-03        -1.60324     733.940E-03    -102.748E-03     503.757E-03    -250.590E-03    -252.401E-03    -241.066E-03     493.460E-03    -251.628E-03     175.054E-03     91.3362E+06     62.4119E+06    -40.9937E+06    -38.7757E+06     60.1939E+06     91.3362E+06     14.6224E+06         72.7518
            1834     10.8826E-03     155.264E-03     653.162E-03     424.143E-03        -1.44792     423.184E-03        -1.44696     653.162E-03    -82.9593E-03     503.935E-03    -250.831E-03    -252.811E-03    -238.332E-03     490.319E-03    -251.693E-03     199.834E-03     105.868E+06     67.4428E+06    -30.8535E+06    -29.6688E+06     66.2581E+06     105.868E+06     10.5893E+06         73.5514
            1835     11.6839E-03     155.468E-03     573.962E-03     365.628E-03        -1.30822     364.900E-03        -1.30749     573.962E-03    -59.6297E-03     500.101E-03    -247.801E-03    -251.913E-03    -234.399E-03     485.580E-03    -250.795E-03     206.038E-03     108.285E+06     71.3658E+06    -21.9866E+06    -20.9693E+06     70.3485E+06     108.285E+06     9.61431E+06         74.7931
            1836     12.4606E-03     155.820E-03     487.472E-03     310.726E-03        -1.15834     312.908E-03        -1.15801     484.958E-03    -34.0314E-03     504.725E-03    -246.773E-03    -257.745E-03    -231.413E-03     481.387E-03    -249.766E-03     254.773E-03     108.661E+06     78.0983E+06    -14.2272E+06    -13.3030E+06     77.1741E+06     108.661E+06     7.89388E+06         76.8166
            1837     13.2707E-03     156.201E-03     415.069E-03     255.287E-03        -1.02146     268.674E-03        -1.02121     401.435E-03    -31.5577E-03     494.500E-03    -238.193E-03    -256.330E-03    -224.385E-03     472.714E-03    -248.351E-03     240.101E-03     109.751E+06     83.5700E+06    -7.57238E+06    -6.91811E+06     82.9157E+06     109.751E+06     3.89287E+06         79.3660
            1838     783.890E-06     155.837E-03     582.318E-03     533.539E-03        -1.52260     529.554E-03        -1.51112     574.830E-03    -16.3172E-03     487.380E-03    -243.326E-03    -244.154E-03    -243.568E-03     487.371E-03    -243.903E-03     4.24672E-03    -149.007E+06    -155.801E+06    -290.718E+06    -153.913E+06    -290.290E+06    -151.323E+06    -6.51487E+06         60.5692
            1839     1.56791E-03     155.784E-03     583.674E-03     562.417E-03        -1.55068     569.664E-03        -1.54194     567.690E-03    -83.2372E-03     488.338E-03    -243.891E-03    -244.652E-03    -244.620E-03     488.306E-03    -243.891E-03     9.06764E-03    -140.683E+06    -147.883E+06    -274.569E+06    -148.862E+06    -273.589E+06    -140.683E+06    -10.4928E+06         60.9608
            1840     2.35037E-03     155.778E-03     586.669E-03     572.855E-03        -1.55930     583.234E-03        -1.55823     575.223E-03     4.95610E-03     490.410E-03    -244.395E-03    -246.261E-03    -246.169E-03     490.317E-03    -244.395E-03     15.8880E-03    -126.665E+06    -141.430E+06    -259.835E+06    -142.939E+06    -258.325E+06    -126.665E+06    -12.9320E+06         61.5659
            1841     3.13095E-03     155.769E-03     580.900E-03     563.457E-03        -1.54155     567.183E-03        -1.54074     576.363E-03    -44.8286E-03     493.533E-03    -245.296E-03    -248.285E-03    -248.052E-03     493.299E-03    -245.296E-03     25.5152E-03    -110.480E+06    -134.007E+06    -240.691E+06    -136.303E+06    -238.396E+06    -110.480E+06    -14.9353E+06         62.3779
            1842     3.90864E-03     155.784E-03     578.211E-03     555.276E-03        -1.52631     560.949E-03        -1.52482     571.052E-03    -77.2752E-03     496.079E-03    -246.378E-03    -249.577E-03    -249.095E-03     495.597E-03    -246.378E-03     37.2219E-03    -94.3052E+06    -125.002E+06    -215.620E+06    -128.531E+06    -212.091E+06    -94.3052E+06    -16.7560E+06         63.3644
            1843     4.68665E-03     155.797E-03     573.559E-03     553.265E-03        -1.51643     563.160E-03        -1.51480     562.032E-03    -81.6521E-03     497.905E-03    -247.411E-03    -250.705E-03    -249.826E-03     497.026E-03    -247.411E-03     50.5683E-03    -77.0913E+06    -114.858E+06    -192.018E+06    -119.825E+06    -187.051E+06    -77.0913E+06    -18.2163E+06         64.4940
            1844     5.46240E-03     155.849E-03     559.951E-03     531.596E-03        -1.48117     542.571E-03        -1.47845     546.255E-03    -96.2474E-03     499.992E-03    -248.350E-03    -251.680E-03    -250.161E-03     498.472E-03    -248.350E-03     66.8462E-03    -58.8760E+06    -102.923E+06    -163.554E+06    -110.427E+06    -156.050E+06    -58.8760E+06    -18.9565E+06         65.7271
            1845     6.23577E-03     155.923E-03     526.266E-03     489.476E-03        -1.40635     494.350E-03        -1.40348     518.526E-03    -123.262E-03     501.923E-03    -249.481E-03    -252.130E-03    -249.675E-03     499.468E-03    -249.481E-03     85.3139E-03    -42.7695E+06    -89.1851E+06    -131.834E+06    -101.150E+06    -119.869E+06    -42.7695E+06    -18.1230E+06         67.0282
            1846     7.00874E-03     156.047E-03     481.980E-03     428.049E-03        -1.30098     430.856E-03        -1.29988     478.070E-03    -75.9804E-03     503.838E-03    -250.635E-03    -252.749E-03    -248.907E-03     500.090E-03    -250.729E-03     105.685E-03    -25.7252E+06    -67.8007E+06    -103.598E+06    -90.1641E+06    -81.2347E+06    -25.7252E+06    -14.6644E+06         68.3687
            1847     7.77777E-03     156.186E-03     441.064E-03     376.314E-03        -1.20407     382.211E-03        -1.20260     433.691E-03    -73.7728E-03     505.191E-03    -251.244E-03    -253.577E-03    -248.038E-03     499.746E-03    -251.338E-03     127.563E-03    -2.85441E+06    -29.1571E+06    -81.1646E+06    -77.5365E+06    -30.9094E+06    -4.73026E+06    -5.52480E+06         69.6984
            1848     8.55260E-03     156.303E-03     413.876E-03     333.068E-03        -1.12696     351.200E-03        -1.12511     393.897E-03    -79.3477E-03     504.182E-03    -251.066E-03    -253.115E-03    -245.179E-03     496.562E-03    -251.381E-03     150.481E-03     25.3224E+06     13.2624E+06    -65.7620E+06    -64.3799E+06     18.3553E+06     18.8473E+06     6.76136E+06         70.8861
            1849     9.34093E-03     156.416E-03     385.198E-03     284.988E-03        -1.04530     318.471E-03        -1.04371     350.131E-03    -85.7098E-03     501.560E-03    -249.885E-03    -251.429E-03    -240.278E-03     491.488E-03    -250.964E-03     172.334E-03     52.8240E+06     45.3639E+06    -52.7167E+06    -50.3864E+06     50.3109E+06     45.5467E+06     14.5058E+06         71.7416
            1850     10.1242E-03     156.634E-03     352.955E-03     226.532E-03    -950.646E-03     286.670E-03    -949.031E-03     291.203E-03    -78.3593E-03     499.182E-03    -248.321E-03    -250.441E-03    -236.523E-03     487.385E-03    -250.441E-03     186.076E-03     77.7661E+06     66.4392E+06    -41.0336E+06    -38.6798E+06     67.3093E+06     74.5422E+06     15.4933E+06         72.3164
            1851     10.8976E-03     156.910E-03     317.070E-03     178.818E-03    -863.693E-03     264.726E-03    -861.599E-03     229.069E-03    -78.6106E-03     498.206E-03    -247.696E-03    -250.185E-03    -232.407E-03     482.591E-03    -249.858E-03     212.073E-03     99.9691E+06     71.3933E+06    -31.3271E+06    -29.7663E+06     70.3782E+06     99.4234E+06     12.3493E+06         72.9444
            1852     11.7051E-03     157.108E-03     280.258E-03     144.497E-03    -786.717E-03     252.375E-03    -785.195E-03     170.858E-03    -54.8742E-03     491.084E-03    -241.889E-03    -249.079E-03    -225.467E-03     474.336E-03    -248.753E-03     218.400E-03     111.122E+06     72.4008E+06    -21.8218E+06    -20.7590E+06     71.3380E+06     111.122E+06     9.93479E+06         73.9982
            1853     12.4946E-03     157.427E-03     253.130E-03     93.2160E-03    -695.769E-03     240.961E-03    -694.791E-03     104.407E-03    -38.1333E-03     492.348E-03    -241.140E-03    -251.109E-03    -218.853E-03     466.150E-03    -247.198E-03     265.800E-03     116.871E+06     83.8754E+06    -11.9965E+06    -11.0854E+06     82.9643E+06     116.871E+06     8.63335E+06         75.8696
            1854     13.3177E-03     157.799E-03     223.319E-03     43.1204E-03    -598.691E-03     221.896E-03    -597.268E-03     43.1204E-03    -46.0360E-03     479.171E-03    -230.266E-03    -248.933E-03    -209.479E-03     454.474E-03    -245.022E-03     251.658E-03     118.051E+06     89.3306E+06    -5.48147E+06    -4.44943E+06     88.2985E+06     118.051E+06     5.97331E+06         78.3564
            1855     786.013E-06     157.453E-03     198.270E-03     38.8311E-03    -636.211E-03     24.1137E-03    -485.367E-03     62.1437E-03     40.3498E-03     481.824E-03    -240.112E-03    -241.906E-03    -241.305E-03     481.800E-03    -240.690E-03     7.71202E-03    -135.596E+06    -141.508E+06    -268.208E+06    -139.602E+06    -267.797E+06    -137.912E+06    -6.17620E+06         60.1083
            1856     1.57086E-03     157.405E-03     207.238E-03     44.9437E-03    -654.877E-03     15.1349E-03    -468.047E-03     50.2163E-03    -79.8244E-03     483.457E-03    -241.253E-03    -242.430E-03    -242.362E-03     483.388E-03    -241.253E-03     13.2314E-03    -132.085E+06    -137.847E+06    -256.269E+06    -138.829E+06    -255.286E+06    -132.085E+06    -9.97269E+06         60.5054
            1857     2.35482E-03     157.394E-03     217.059E-03     41.1478E-03    -653.285E-03     28.4517E-03    -467.046E-03     43.5156E-03    -51.8941E-03     485.633E-03    -241.912E-03    -244.064E-03    -243.882E-03     485.450E-03    -241.912E-03     22.0491E-03    -122.230E+06    -135.358E+06    -244.299E+06    -137.103E+06    -242.553E+06    -122.230E+06    -13.3663E+06         61.1066
            1858     3.13795E-03     157.395E-03     182.686E-03     42.6904E-03    -618.430E-03     44.6358E-03    -477.840E-03     40.1509E-03    -74.3157E-03     489.198E-03    -242.868E-03    -246.428E-03    -246.058E-03     488.829E-03    -242.868E-03     32.3322E-03    -107.845E+06    -128.066E+06    -226.463E+06    -131.199E+06    -223.330E+06    -107.845E+06    -16.9848E+06         61.9315
            1859     3.91896E-03     157.413E-03     193.030E-03     41.6044E-03    -624.036E-03     50.8526E-03    -476.951E-03     36.6970E-03    -114.008E-03     493.026E-03    -244.129E-03    -248.821E-03    -248.134E-03     492.339E-03    -244.129E-03     44.4457E-03    -91.9819E+06    -119.070E+06    -205.539E+06    -123.828E+06    -200.781E+06    -91.9819E+06    -19.5231E+06         62.9400
            1860     4.69545E-03     157.436E-03     213.871E-03     33.2595E-03    -630.956E-03     55.6189E-03    -469.768E-03     30.3235E-03    -126.179E-03     495.314E-03    -245.384E-03    -250.276E-03    -249.070E-03     494.107E-03    -245.384E-03     59.2501E-03    -74.2514E+06    -109.202E+06    -183.850E+06    -115.693E+06    -177.359E+06    -74.2514E+06    -20.8300E+06         64.0695
            1861     5.47067E-03     157.488E-03     216.577E-03     20.7645E-03    -621.641E-03     56.5521E-03    -458.680E-03     17.8285E-03    -161.906E-03     496.888E-03    -246.375E-03    -250.473E-03    -248.481E-03     494.895E-03    -246.375E-03     76.2635E-03    -57.8028E+06    -98.5443E+06    -158.566E+06    -108.281E+06    -148.829E+06    -57.8028E+06    -21.5073E+06         65.2878
            1862     6.24806E-03     157.570E-03     196.951E-03     20.0539E-03    -602.760E-03     50.8281E-03    -432.865E-03    -3.71791E-03    -174.291E-03     498.709E-03    -247.513E-03    -250.859E-03    -247.817E-03     495.668E-03    -247.513E-03     94.6381E-03    -40.4397E+06    -85.3734E+06    -131.767E+06    -100.301E+06    -116.839E+06    -40.4397E+06    -21.1727E+06         66.5710
            1863     7.01803E-03     157.699E-03     173.780E-03     11.6780E-03    -570.306E-03     40.7757E-03    -391.958E-03    -33.6655E-03    -136.029E-03     501.018E-03    -248.702E-03    -252.202E-03    -247.602E-03     496.418E-03    -248.702E-03     116.280E-03    -24.4661E+06    -67.4365E+06    -110.079E+06    -92.4018E+06    -85.1134E+06    -24.4661E+06    -19.7439E+06         67.8780
            1864     7.78808E-03     157.842E-03     156.631E-03     9.00237E-03    -547.632E-03     41.2714E-03    -359.269E-03    -64.0006E-03    -158.733E-03     502.006E-03    -249.232E-03    -252.415E-03    -245.566E-03     495.157E-03    -249.232E-03     141.872E-03    -10.9016E+06    -42.6602E+06    -91.3686E+06    -84.1579E+06    -49.8709E+06    -10.9016E+06    -15.3237E+06         69.1406
            1865     8.57084E-03     157.954E-03     133.700E-03     15.7048E-03    -525.702E-03     56.8310E-03    -345.624E-03    -87.5039E-03    -136.184E-03     498.942E-03    -248.523E-03    -250.335E-03    -240.202E-03     489.336E-03    -249.050E-03     167.423E-03     9.27063E+06    -6.85555E+06    -75.1753E+06    -73.0626E+06    -5.07958E+06     5.38196E+06    -6.73078E+06         70.2328
            1866     9.36433E-03     158.060E-03     128.583E-03     7.21321E-03    -510.639E-03     71.5158E-03    -332.246E-03    -114.114E-03    -122.036E-03     495.261E-03    -247.113E-03    -248.306E-03    -234.469E-03     482.617E-03    -248.306E-03     191.235E-03     38.0636E+06     25.2813E+06    -61.4748E+06    -60.8293E+06     37.4180E+06     25.2813E+06     1.18439E+06         70.9836
            1867     10.1475E-03     158.301E-03     139.486E-03    -5.04066E-03    -503.688E-03     84.3407E-03    -299.507E-03    -154.077E-03    -119.419E-03     492.263E-03    -244.870E-03    -247.512E-03    -229.931E-03     477.324E-03    -247.512E-03     207.044E-03     61.8724E+06     46.0285E+06    -49.5565E+06    -48.4664E+06     60.7823E+06     46.0285E+06     5.96388E+06         71.4453
            1868     10.9333E-03     158.537E-03     149.298E-03    -25.5603E-03    -485.877E-03     93.9529E-03    -262.115E-03    -193.977E-03    -135.976E-03     489.125E-03    -242.947E-03    -246.469E-03    -223.499E-03     469.678E-03    -246.469E-03     233.676E-03     82.5389E+06     66.6331E+06    -36.3882E+06    -35.3305E+06     72.5257E+06     75.5886E+06     7.74694E+06         71.9640
            1869     11.7520E-03     158.728E-03     150.233E-03    -37.0869E-03    -469.186E-03     108.483E-03    -235.805E-03    -228.718E-03    -120.678E-03     481.269E-03    -236.478E-03    -244.808E-03    -215.481E-03     460.272E-03    -244.808E-03     241.045E-03     103.032E+06     74.1017E+06    -23.8259E+06    -23.2220E+06     73.4978E+06     103.032E+06     5.74003E+06         72.9535
            1870     12.5443E-03     159.027E-03     165.144E-03    -52.7631E-03    -458.052E-03     133.901E-03    -206.896E-03    -272.676E-03    -104.924E-03     480.709E-03    -235.908E-03    -244.561E-03    -206.288E-03     449.220E-03    -242.693E-03     287.175E-03     114.758E+06     79.5664E+06    -15.0601E+06    -14.3028E+06     78.8091E+06     114.758E+06     6.23744E+06         74.8586
            1871     13.3808E-03     159.386E-03     181.980E-03    -84.1499E-03    -433.993E-03     167.638E-03    -192.265E-03    -311.537E-03    -85.2833E-03     464.095E-03    -222.532E-03    -241.765E-03    -195.053E-03     434.748E-03    -239.897E-03     269.504E-03     119.468E+06     92.5611E+06    -9.69275E+06    -8.61226E+06     91.4806E+06     119.468E+06     8.05357E+06         77.4978
            1872     789.357E-06     159.070E-03     743.662E-03    -540.638E-03    -592.348E-03    -540.005E-03     714.875E-03    -564.193E-03    -64.1015E-03     473.405E-03    -235.803E-03    -237.728E-03    -237.678E-03     473.356E-03    -235.803E-03     10.9984E-03    -119.161E+06    -125.193E+06    -250.026E+06    -123.248E+06    -249.848E+06    -121.283E+06    -4.13300E+06         59.3170
            1873     1.57776E-03     159.024E-03     671.705E-03    -503.389E-03    -559.809E-03    -526.379E-03     665.441E-03    -530.555E-03    -128.711E-03     475.557E-03    -237.123E-03    -238.617E-03    -238.474E-03     475.415E-03    -237.123E-03     19.4499E-03    -113.485E+06    -120.494E+06    -238.654E+06    -121.149E+06    -237.999E+06    -113.485E+06    -7.77569E+06         59.7114
            1874     2.36487E-03     159.017E-03     634.837E-03    -483.576E-03    -542.519E-03    -496.470E-03     626.676E-03    -521.464E-03    -175.512E-03     478.568E-03    -237.995E-03    -240.961E-03    -240.626E-03     478.232E-03    -237.995E-03     30.1486E-03    -104.498E+06    -116.379E+06    -225.852E+06    -118.059E+06    -224.172E+06    -104.498E+06    -12.6298E+06         60.2979
            1875     3.14882E-03     159.031E-03     593.492E-03    -464.809E-03    -514.528E-03    -457.683E-03     586.249E-03    -514.411E-03    -152.519E-03     482.234E-03    -239.032E-03    -243.442E-03    -242.781E-03     481.573E-03    -239.032E-03     42.7404E-03    -92.8134E+06    -110.273E+06    -209.844E+06    -113.140E+06    -206.977E+06    -92.8134E+06    -16.4094E+06         61.1063
            1876     3.92897E-03     159.058E-03     588.851E-03    -451.694E-03    -519.932E-03    -442.711E-03     569.099E-03    -509.163E-03    -194.270E-03     485.649E-03    -240.271E-03    -245.365E-03    -244.186E-03     484.470E-03    -240.271E-03     57.2207E-03    -78.4801E+06    -103.385E+06    -192.345E+06    -107.657E+06    -188.073E+06    -78.4801E+06    -18.7040E+06         62.0980
            1877     4.71063E-03     159.088E-03     579.398E-03    -442.112E-03    -519.191E-03    -426.695E-03     553.213E-03    -508.423E-03    -203.991E-03     488.355E-03    -241.501E-03    -246.956E-03    -245.007E-03     486.406E-03    -241.501E-03     74.2635E-03    -65.0976E+06    -97.2980E+06    -173.352E+06    -103.140E+06    -167.510E+06    -65.0976E+06    -20.0929E+06         63.2083
            1878     5.49074E-03     159.144E-03     579.969E-03    -442.003E-03    -517.913E-03    -415.952E-03     550.066E-03    -514.061E-03    -191.959E-03     491.044E-03    -242.574E-03    -248.452E-03    -245.425E-03     488.017E-03    -242.574E-03     93.1522E-03    -50.8897E+06    -88.7391E+06    -149.388E+06    -97.5700E+06    -140.557E+06    -50.8897E+06    -20.7624E+06         64.3880
            1879     6.26664E-03     159.223E-03     578.672E-03    -423.945E-03    -530.366E-03    -396.528E-03     547.404E-03    -526.514E-03    -216.821E-03     492.892E-03    -243.790E-03    -249.032E-03    -244.521E-03     488.381E-03    -243.790E-03     113.984E-03    -35.4094E+06    -79.2644E+06    -125.510E+06    -91.3022E+06    -113.472E+06    -35.4094E+06    -19.8966E+06         65.5939
            1880     7.04274E-03     159.344E-03     543.540E-03    -375.084E-03    -541.874E-03    -346.219E-03     514.675E-03    -541.874E-03    -207.234E-03     493.299E-03    -244.809E-03    -248.642E-03    -241.866E-03     486.524E-03    -244.809E-03     139.442E-03    -20.2179E+06    -66.1517E+06    -104.755E+06    -85.4285E+06    -85.4786E+06    -20.2179E+06    -17.5202E+06         66.7990
            1881     7.82308E-03     159.466E-03     496.015E-03    -313.535E-03    -552.558E-03    -282.766E-03     465.245E-03    -552.558E-03    -219.318E-03     491.903E-03    -245.007E-03    -247.048E-03    -237.307E-03     482.163E-03    -245.007E-03     167.188E-03    -6.10817E+06    -43.5781E+06    -86.9021E+06    -78.7418E+06    -51.7384E+06    -6.10817E+06    -15.8774E+06         67.9664
            1882     8.61449E-03     159.576E-03     444.795E-03    -259.302E-03    -556.055E-03    -231.437E-03     416.930E-03    -556.055E-03    -190.682E-03     489.337E-03    -244.020E-03    -245.430E-03    -231.973E-03     476.093E-03    -244.233E-03     194.084E-03     7.51012E+06    -13.3453E+06    -74.6504E+06    -70.8446E+06    -15.9454E+06     6.30443E+06    -13.5035E+06         68.9780
            1883     9.41071E-03     159.692E-03     415.932E-03    -222.984E-03    -563.905E-03    -182.470E-03     375.418E-03    -563.905E-03    -227.084E-03     486.329E-03    -242.604E-03    -243.826E-03    -226.329E-03     469.122E-03    -242.894E-03     220.120E-03     30.0939E+06     16.7730E+06    -62.2125E+06    -60.9140E+06     24.7957E+06     20.7728E+06    -8.03335E+06         69.6502
            1884     10.2028E-03     159.939E-03     384.442E-03    -166.944E-03    -584.726E-03    -126.156E-03     343.654E-03    -584.726E-03    -226.175E-03     481.972E-03    -240.258E-03    -241.869E-03    -219.954E-03     461.488E-03    -241.689E-03     238.650E-03     56.0100E+06     36.8410E+06    -50.3458E+06    -50.0875E+06     55.7516E+06     36.8410E+06    -4.59121E+06         70.0603
            1885     11.0015E-03     160.160E-03     362.004E-03    -123.510E-03    -603.894E-03    -78.7796E-03     317.274E-03    -603.894E-03    -214.870E-03     478.790E-03    -237.969E-03    -241.020E-03    -213.017E-03     452.880E-03    -240.063E-03     265.805E-03     69.1492E+06     54.0958E+06    -38.8506E+06    -38.3739E+06     68.6398E+06     54.1285E+06    -4.19631E+06         70.6469
            1886     11.8271E-03     160.305E-03     327.626E-03    -78.8109E-03    -614.470E-03    -28.3345E-03     277.150E-03    -614.470E-03    -205.180E-03     470.727E-03    -232.150E-03    -238.788E-03    -205.661E-03     443.281E-03    -237.830E-03     271.482E-03     83.5408E+06     66.0506E+06    -27.5304E+06    -27.0819E+06     69.5694E+06     79.5735E+06    -291.829E+03         71.9270
            1887     12.6397E-03     160.563E-03     275.048E-03    -11.0642E-03    -632.705E-03     44.0240E-03     219.960E-03    -632.705E-03    -172.757E-03     471.755E-03    -230.653E-03    -241.238E-03    -198.910E-03     434.368E-03    -235.594E-03     311.913E-03     100.146E+06     70.5607E+06    -18.2039E+06    -17.6027E+06     69.9594E+06     100.146E+06     4.19365E+06         74.3604
            1888     13.4855E-03     160.939E-03     234.553E-03     39.6797E-03    -646.145E-03     143.001E-03     131.232E-03    -646.145E-03    -109.119E-03     460.913E-03    -222.371E-03    -238.693E-03    -195.978E-03     428.876E-03    -233.050E-03     278.403E-03     115.738E+06     90.9325E+06    -9.49127E+06    -8.71872E+06     90.1600E+06     115.738E+06     6.03643E+06         77.4811
            1889     794.157E-06     160.663E-03         1.88219        -1.09729        -1.17097        -1.11038         1.87638        -1.15208    -161.599E-03     459.878E-03    -228.849E-03    -231.108E-03    -231.010E-03     459.780E-03    -228.849E-03     15.4058E-03    -103.916E+06    -108.283E+06    -234.573E+06    -106.293E+06    -234.441E+06    -106.038E+06    -2.94761E+06         58.0448
            1890     1.58820E-03     160.608E-03         1.72450        -1.00957        -1.09464        -1.00494         1.71988        -1.09464    -124.290E-03     462.241E-03    -230.346E-03    -231.995E-03    -231.690E-03     461.936E-03    -230.346E-03     27.5913E-03    -100.222E+06    -105.182E+06    -223.037E+06    -105.783E+06    -222.436E+06    -100.222E+06    -7.17704E+06         58.4163
            1891     2.37853E-03     160.616E-03         1.65750    -984.327E-03        -1.05730    -979.063E-03         1.65224        -1.05730    -141.771E-03     465.532E-03    -231.212E-03    -234.430E-03    -233.723E-03     464.825E-03    -231.212E-03     42.7046E-03    -90.9893E+06    -100.404E+06    -207.713E+06    -101.792E+06    -206.326E+06    -90.9893E+06    -11.2999E+06         58.9584
            1892     3.16745E-03     160.627E-03         1.62555    -965.393E-03        -1.03938    -960.740E-03         1.62090        -1.03938    -146.855E-03     468.558E-03    -232.186E-03    -236.470E-03    -235.110E-03     467.197E-03    -232.186E-03     60.0038E-03    -79.2130E+06    -95.4619E+06    -194.871E+06    -97.7650E+06    -192.568E+06    -79.2130E+06    -14.6417E+06         59.6982
            1893     3.95747E-03     160.668E-03         1.57028    -918.998E-03        -1.02716    -913.013E-03         1.56430        -1.02716    -185.731E-03     471.587E-03    -233.142E-03    -238.447E-03    -236.217E-03     469.358E-03    -233.142E-03     77.9651E-03    -67.7688E+06    -90.7968E+06    -181.204E+06    -94.0598E+06    -177.941E+06    -67.7688E+06    -16.3859E+06         60.6256
            1894     4.74448E-03     160.702E-03         1.52176    -877.491E-03        -1.01741    -871.683E-03         1.51595        -1.01741    -190.831E-03     475.125E-03    -234.194E-03    -240.758E-03    -237.293E-03     471.659E-03    -234.194E-03     97.6651E-03    -55.7134E+06    -85.2390E+06    -161.227E+06    -89.7783E+06    -156.687E+06    -55.7134E+06    -17.4568E+06         61.6825
            1895     5.52763E-03     160.789E-03         1.48286    -839.000E-03        -1.01333    -833.168E-03         1.47703        -1.01333    -199.203E-03     478.222E-03    -235.369E-03    -242.801E-03    -237.624E-03     473.045E-03    -235.369E-03     119.901E-03    -41.7931E+06    -78.7493E+06     -138.31E+06    -85.1260E+06    -131.933E+06    -41.7931E+06    -17.7882E+06         62.7811
            1896     6.31064E-03     160.877E-03         1.42781    -779.261E-03        -1.01260    -770.674E-03         1.41922        -1.01260    -270.399E-03     479.519E-03    -236.391E-03    -243.205E-03    -235.729E-03     472.043E-03    -236.391E-03     144.183E-03    -27.8936E+06    -71.4040E+06    -119.119E+06    -79.7099E+06    -110.813E+06    -27.8936E+06    -17.6301E+06         63.8859
            1897     7.09493E-03     160.981E-03         1.35474    -705.562E-03        -1.01083    -695.635E-03         1.34482        -1.01083    -277.079E-03     478.785E-03    -236.885E-03    -242.057E-03    -231.337E-03     468.065E-03    -236.885E-03     172.310E-03    -11.8689E+06    -59.6285E+06    -96.2383E+06    -72.0112E+06    -83.8557E+06    -11.8689E+06    -16.0855E+06         65.0025
            1898     7.88672E-03     161.086E-03         1.26942    -628.111E-03        -1.00399    -616.883E-03         1.25819        -1.00399    -289.933E-03     477.401E-03    -236.578E-03    -240.922E-03    -226.211E-03     462.691E-03    -236.578E-03     201.408E-03     5.71095E+06    -37.1474E+06    -73.2221E+06    -63.8624E+06    -46.5071E+06     5.71095E+06    -14.1189E+06         66.1083
            1899     8.68713E-03     161.173E-03         1.16399    -535.154E-03    -990.881E-03    -524.733E-03         1.15357    -990.881E-03    -261.753E-03     476.082E-03    -235.468E-03    -240.613E-03    -221.064E-03     456.533E-03    -235.468E-03     231.321E-03     20.7669E+06     -9.5308E+06    -60.2487E+06    -55.7861E+06    -13.9934E+06     20.7669E+06    -13.9625E+06         67.1128
            1900     9.49435E-03     161.284E-03         1.07050    -459.134E-03    -979.358E-03    -443.013E-03         1.05438    -979.358E-03    -295.791E-03     473.413E-03    -233.917E-03    -239.503E-03    -214.996E-03     448.906E-03    -233.917E-03     258.126E-03     34.9330E+06     20.5825E+06    -49.5384E+06    -46.9691E+06     20.1533E+06     32.7929E+06    -11.9157E+06         67.8699
            1901     10.3033E-03     161.465E-03     980.557E-03    -373.798E-03    -978.751E-03    -355.991E-03     962.750E-03    -978.751E-03    -290.821E-03     469.801E-03    -232.221E-03    -237.636E-03    -209.177E-03     441.544E-03    -232.423E-03     275.878E-03     57.7122E+06     50.5416E+06    -39.0903E+06    -38.1094E+06     56.7313E+06     50.5416E+06    -7.75593E+06         68.4685
            1902     11.1105E-03     161.767E-03     868.188E-03    -266.156E-03    -978.978E-03    -249.536E-03     851.568E-03    -978.978E-03    -255.830E-03     469.309E-03    -230.447E-03    -238.936E-03    -204.858E-03     435.433E-03    -230.649E-03     301.043E-03     68.9131E+06     58.6986E+06    -32.9194E+06    -32.4450E+06     67.2219E+06     59.9154E+06    -5.93987E+06         69.4594
            1903     11.9457E-03     161.909E-03     723.369E-03    -145.848E-03    -968.447E-03    -128.046E-03     705.567E-03    -968.447E-03    -229.337E-03     466.258E-03    -227.021E-03    -239.389E-03    -204.668E-03     433.075E-03    -228.558E-03     297.479E-03     77.7515E+06     53.5553E+06    -28.0841E+06    -27.5956E+06     57.0341E+06     73.7843E+06    -2.44177E+06         71.5120
            1904     12.7620E-03     162.130E-03     563.417E-03    -8.36533E-03    -959.870E-03     9.08373E-03     545.968E-03    -959.870E-03    -175.995E-03     475.780E-03    -225.462E-03    -250.296E-03    -210.444E-03     437.465E-03    -226.999E-03     321.833E-03     92.6265E+06     63.6169E+06    -20.4786E+06    -20.0383E+06     63.1766E+06     92.6265E+06     2.68093E+06         74.8787
            1905     13.5852E-03     162.492E-03     395.319E-03     130.830E-03    -947.704E-03     149.470E-03     376.679E-03    -947.704E-03    -99.3786E-03     479.555E-03    -224.049E-03    -255.252E-03    -223.884E-03     450.379E-03    -226.241E-03     267.485E-03     120.078E+06     92.7404E+06    -11.5119E+06    -10.8309E+06     92.0594E+06     120.078E+06     2.34712E+06         78.5649
            1906     802.367E-06     162.223E-03         2.66414        -1.48250        -1.57326        -1.53965         2.66176        -1.51374    -146.969E-03     438.742E-03    -218.291E-03    -220.494E-03    -220.295E-03     438.544E-03    -218.291E-03     20.8274E-03    -89.7292E+06    -92.1932E+06    -221.076E+06    -91.2052E+06    -220.916E+06    -90.8782E+06    -2.22414E+06         56.0905
            1907     1.60349E-03     162.169E-03         2.66299        -1.46035        -1.57575        -1.51567         2.66081        -1.51826    -129.632E-03     440.617E-03    -219.678E-03    -220.985E-03    -220.349E-03     439.980E-03    -219.678E-03     39.0903E-03    -88.3701E+06    -90.1664E+06    -205.633E+06    -90.7449E+06    -204.908E+06    -88.5170E+06    -8.06296E+06         56.4278
            1908     2.40514E-03     162.169E-03         2.61217        -1.45081        -1.53110        -1.46955         2.61008        -1.51027    -137.597E-03     442.997E-03    -220.193E-03    -222.812E-03    -221.449E-03     441.635E-03    -220.193E-03     58.6927E-03    -81.8199E+06    -86.7634E+06    -192.596E+06    -88.2618E+06    -191.098E+06    -81.8199E+06    -12.0985E+06         56.9085
            1909     3.20577E-03     162.178E-03         2.53695        -1.40628        -1.49638        -1.40388         2.53455        -1.49638    -168.652E-03     445.846E-03    -220.802E-03    -224.998E-03    -222.527E-03     443.375E-03    -220.802E-03     79.6913E-03    -70.5544E+06    -83.1392E+06    -183.630E+06    -85.2686E+06    -181.500E+06    -70.5544E+06    -14.1392E+06         57.5689
            1910     4.00304E-03     162.207E-03         2.48025        -1.36115        -1.48072        -1.35787         2.47696        -1.48072    -199.594E-03     449.581E-03    -221.508E-03    -227.961E-03    -223.911E-03     445.531E-03    -221.508E-03     102.513E-03    -56.9044E+06    -77.8955E+06    -170.624E+06    -80.5062E+06    -168.013E+06    -56.9044E+06    -15.1003E+06         58.3964
            1911     4.79915E-03     162.243E-03         2.40426        -1.29530        -1.46638        -1.29102         2.39998        -1.46638    -248.560E-03     453.081E-03    -222.344E-03    -230.617E-03    -224.433E-03     446.897E-03    -222.344E-03     127.133E-03    -42.9990E+06    -71.7932E+06    -151.429E+06    -75.1169E+06    -148.106E+06    -42.9990E+06    -15.4525E+06         59.3318
            1912     5.59515E-03     162.317E-03         2.28102        -1.18412        -1.45072        -1.17773         2.27464        -1.45072    -279.940E-03     454.862E-03    -223.123E-03    -231.797E-03    -222.785E-03     445.850E-03    -223.123E-03     153.846E-03    -28.9656E+06    -64.8465E+06    -129.403E+06    -69.0090E+06    -125.240E+06    -28.9656E+06    -15.5676E+06         60.3247
            1913     6.39108E-03     162.414E-03         2.16419        -1.08360        -1.43289        -1.07534         2.15593        -1.43289    -311.420E-03     456.225E-03    -223.596E-03    -232.714E-03    -220.050E-03     443.561E-03    -223.596E-03     182.434E-03    -13.5124E+06    -57.0844E+06    -108.796E+06    -62.6408E+06    -103.239E+06    -13.5124E+06    -15.4361E+06         61.3789
            1914     7.18804E-03     162.552E-03         2.06774        -1.00908        -1.41486        -1.00000         2.05866        -1.41486    -315.003E-03     457.706E-03    -223.688E-03    -234.232E-03    -216.871E-03     440.345E-03    -223.688E-03     213.817E-03     1.35649E+06    -47.0433E+06    -87.1276E+06    -56.6420E+06    -77.5288E+06     1.35649E+06    -15.9892E+06         62.5142
            1915     7.99092E-03     162.677E-03         1.95599    -919.721E-03        -1.39460    -910.079E-03         1.94635        -1.39460    -319.622E-03     459.121E-03    -223.211E-03    -235.825E-03    -213.100E-03     436.396E-03    -223.211E-03     244.994E-03     18.7264E+06    -31.3615E+06    -62.4320E+06    -49.2683E+06    -44.5253E+06     18.7264E+06    -13.0376E+06         63.7104
            1916     8.80199E-03     162.790E-03         1.80361    -796.328E-03        -1.36894    -786.798E-03         1.79408        -1.36894    -309.521E-03     459.801E-03    -222.122E-03    -237.223E-03    -208.864E-03     431.442E-03    -222.122E-03     273.746E-03     38.9011E+06    -4.90336E+06    -46.4706E+06    -43.4475E+06    -7.92645E+06     38.9011E+06    -9.85221E+06         64.8944
            1917     9.62203E-03     162.895E-03         1.63127    -661.206E-03        -1.34040    -650.084E-03         1.62015        -1.34040    -316.363E-03     459.967E-03    -220.914E-03    -239.074E-03    -205.853E-03     426.747E-03    -220.914E-03     296.539E-03     53.3878E+06     24.9829E+06    -42.7293E+06    -40.9343E+06     23.4280E+06     53.1477E+06    -8.91381E+06         66.0093
            1918     10.4410E-03     163.044E-03         1.46220    -527.596E-03        -1.31641    -516.940E-03         1.45154        -1.31641    -288.951E-03     461.083E-03    -219.834E-03    -241.479E-03    -206.197E-03     425.801E-03    -219.834E-03     306.570E-03     69.2167E+06     53.2386E+06    -38.1825E+06    -37.4020E+06     53.0798E+06     68.5950E+06    -5.08705E+06         67.1979
            1919     11.2546E-03     163.278E-03         1.27379    -375.725E-03        -1.29395    -367.086E-03         1.26515        -1.29395    -234.170E-03     467.378E-03    -218.968E-03    -248.419E-03    -210.939E-03     429.899E-03    -218.968E-03     318.681E-03     81.1864E+06     64.8972E+06    -32.1770E+06    -31.9433E+06     65.0451E+06     80.8049E+06     228.352E+03         69.0194
            1920     12.0841E-03     163.481E-03         1.05367    -198.684E-03        -1.26392    -191.237E-03         1.04623        -1.26392    -187.158E-03     474.920E-03    -218.543E-03    -256.280E-03    -223.482E-03     442.121E-03    -218.543E-03     300.341E-03     90.0831E+06     51.8886E+06    -27.6175E+06    -27.3503E+06     51.6213E+06     90.0831E+06      895.44E+03         72.1251
            1921     12.8747E-03     163.719E-03     824.482E-03    -27.2707E-03        -1.23389    -22.1609E-03     819.372E-03        -1.23389    -112.726E-03     498.005E-03    -219.081E-03    -278.813E-03    -245.653E-03     464.845E-03    -219.081E-03     311.801E-03     99.8845E+06     61.2323E+06    -21.0497E+06    -20.1502E+06     60.3328E+06     99.8845E+06    -1.87313E+06         76.3691
            1922     13.6605E-03     164.093E-03     584.858E-03     154.472E-03        -1.20150     156.411E-03     582.919E-03        -1.20150    -35.8594E-03     518.077E-03    -221.234E-03    -296.567E-03    -273.037E-03     494.548E-03    -221.234E-03     249.556E-03     128.589E+06     94.6201E+06    -9.94780E+06    -8.72247E+06     93.3948E+06     128.589E+06    -1.18493E+06         80.4042
            1923     815.092E-06     163.763E-03         3.45689        -1.87189        -1.93973        -1.91785         3.45452        -1.89140    -151.618E-03     407.188E-03    -203.027E-03    -204.171E-03    -203.823E-03     406.839E-03    -203.027E-03     26.6918E-03    -75.5334E+06    -77.7503E+06    -205.147E+06    -76.0798E+06    -204.743E+06    -77.6080E+06    -5.50763E+06         53.3122
            1924     1.62963E-03     163.723E-03         3.46187        -1.85740        -1.95274        -1.91277         3.45975        -1.89524    -154.434E-03     408.773E-03    -203.928E-03    -204.851E-03    -203.761E-03     407.683E-03    -203.928E-03     49.7819E-03    -72.9022E+06    -74.6669E+06    -188.176E+06    -74.4041E+06    -187.366E+06    -73.9749E+06    -9.24498E+06         53.6098
            1925     2.44332E-03     163.729E-03         3.42817        -1.85175        -1.91565        -1.87053         3.42577        -1.89446    -192.806E-03     410.946E-03    -204.199E-03    -206.773E-03    -204.439E-03     408.612E-03    -204.199E-03     73.9737E-03    -67.5731E+06    -72.4411E+06    -179.097E+06    -73.8861E+06    -177.652E+06    -67.5731E+06    -11.8776E+06         54.0181
            1926     3.25578E-03     163.750E-03         3.34835        -1.79716        -1.88400        -1.79467         3.34552        -1.88365    -217.350E-03     414.130E-03    -204.528E-03    -209.522E-03    -205.388E-03     409.996E-03    -204.528E-03     99.2378E-03    -58.0178E+06    -69.7226E+06    -171.884E+06    -71.9773E+06    -169.629E+06    -58.0178E+06    -14.4924E+06         54.5861
            1927     4.06965E-03     163.786E-03         3.23145        -1.69885        -1.86292        -1.69625         3.22885        -1.86292    -205.405E-03     417.400E-03    -204.942E-03    -212.240E-03    -205.479E-03     410.639E-03    -204.942E-03     127.644E-03    -45.6240E+06    -63.9682E+06    -160.870E+06    -67.1034E+06    -157.735E+06    -45.6240E+06    -16.9275E+06         55.2961
            1928     4.88165E-03     163.831E-03         3.08515        -1.58251        -1.83411        -1.57888         3.08151        -1.83411    -254.004E-03     419.766E-03    -205.347E-03    -214.327E-03    -204.046E-03     409.485E-03    -205.347E-03     157.874E-03    -32.4597E+06    -57.8135E+06    -146.068E+06    -61.1535E+06    -142.728E+06    -32.4597E+06    -16.7967E+06         56.1190
            1929     5.69473E-03     163.883E-03         2.93309        -1.46283        -1.80022        -1.45872         2.92898        -1.80022    -263.821E-03     422.170E-03    -205.521E-03    -216.789E-03    -201.942E-03     407.322E-03    -205.521E-03     189.901E-03    -16.8583E+06    -51.8679E+06    -124.909E+06    -54.9295E+06    -121.848E+06    -16.8583E+06    -13.7838E+06         57.0990
            1930     6.51026E-03     163.958E-03         2.79390        -1.35964        -1.76604        -1.35588         2.79013        -1.76604    -246.449E-03     426.057E-03    -205.437E-03    -220.867E-03    -200.746E-03     405.936E-03    -205.437E-03     222.349E-03     317.317E+03    -48.1440E+06    -99.7162E+06    -50.8772E+06    -96.9829E+06     317.317E+03    -10.7195E+06         58.2743
            1931     7.32677E-03     164.051E-03         2.65027        -1.25783        -1.73373        -1.25308         2.64552        -1.73373    -265.989E-03     432.204E-03    -205.322E-03    -227.027E-03    -201.030E-03     406.207E-03    -205.322E-03     254.767E-03     16.9278E+06    -42.4247E+06    -78.4449E+06    -49.7708E+06    -71.0988E+06     16.9278E+06    -7.77323E+06         59.6388
            1932     8.14235E-03     164.160E-03         2.47538        -1.12597        -1.70037        -1.12012         2.46954        -1.70037    -288.577E-03     439.186E-03    -205.200E-03    -233.623E-03    -201.854E-03     407.417E-03    -205.200E-03     284.292E-03     33.9584E+06    -31.6325E+06    -60.5397E+06    -49.9252E+06    -42.2470E+06     33.9584E+06    -5.71639E+06         61.1923
            1933     8.96240E-03     164.292E-03         2.27876    -973.876E-03        -1.66254    -967.709E-03         2.27260        -1.66254    -274.738E-03     445.612E-03    -205.054E-03    -240.105E-03    -203.727E-03     409.233E-03    -205.054E-03     306.886E-03     53.1826E+06    -3.02571E+06    -50.4956E+06    -48.8890E+06    -4.63229E+06     53.1826E+06    -1.18271E+06         62.8831
            1934     9.78469E-03     164.430E-03         2.06074    -808.997E-03        -1.62012    -802.379E-03         2.05412        -1.62012    -256.560E-03     452.586E-03    -205.090E-03    -247.495E-03    -208.856E-03     413.947E-03    -205.090E-03     319.632E-03     72.8129E+06     32.6064E+06    -47.1922E+06    -46.2122E+06     31.6264E+06     72.8129E+06     1.01537E+06         64.6774
            1935     10.6040E-03     164.607E-03         1.81176    -620.502E-03        -1.57712    -614.275E-03         1.80553        -1.57712    -229.353E-03     463.242E-03    -205.682E-03    -257.633E-03    -220.882E-03     426.491E-03    -205.682E-03     316.686E-03     85.5247E+06     52.4517E+06    -40.7891E+06    -40.7144E+06     52.3771E+06     85.5247E+06    -228.415E+03         66.7663
            1936     11.3991E-03     164.858E-03         1.55296    -420.117E-03        -1.53367    -415.103E-03         1.54794        -1.53367    -193.805E-03     481.799E-03    -207.165E-03    -274.511E-03    -239.970E-03     447.258E-03    -207.165E-03     315.138E-03     91.2994E+06     57.7178E+06    -32.6438E+06    -32.3788E+06     57.4527E+06     91.2994E+06     3.04988E+06         69.6155
            1937     12.1890E-03     165.075E-03         1.29607    -226.721E-03        -1.48575    -223.092E-03         1.29244        -1.48575    -142.858E-03     500.424E-03    -209.536E-03    -290.607E-03    -262.864E-03     472.681E-03    -209.536E-03     287.560E-03     98.9084E+06     57.8440E+06    -21.9820E+06    -21.6515E+06     57.5135E+06     98.9084E+06     1.53638E+06         73.6514
            1938     12.9550E-03     165.346E-03         1.03798    -46.0957E-03        -1.43815    -44.2239E-03         1.03610        -1.43815    -74.9703E-03     532.550E-03    -213.148E-03    -319.523E-03    -293.043E-03     506.070E-03    -213.148E-03     293.904E-03     106.997E+06     71.4525E+06    -14.5303E+06    -13.4254E+06     70.3476E+06     106.997E+06    -1.71594E+06         78.4216
            1939     13.6891E-03     165.799E-03     779.000E-03     150.951E-03        -1.38882     151.168E-03     778.783E-03        -1.38882    -13.2036E-03     557.122E-03    -218.359E-03    -338.911E-03    -320.300E-03     538.511E-03    -218.359E-03     234.571E-03     130.042E+06     92.7333E+06    -9.94200E+06    -8.12946E+06     90.9208E+06     130.042E+06    -2.64034E+06         82.5005
            1940     831.944E-06     165.245E-03         4.13249        -2.19187        -2.23721        -2.19949         4.13242        -2.22952    -26.8726E-03     366.294E-03    -182.648E-03    -183.657E-03    -183.145E-03     365.782E-03    -182.648E-03     31.0002E-03     -66.547E+06    -69.2608E+06    -184.106E+06    -68.9858E+06    -183.455E+06    -67.4727E+06    -7.12466E+06         49.7457
            1941     1.66321E-03     165.205E-03         4.03624        -2.13660        -2.19487        -2.13648         4.03613        -2.19487    -18.2308E-03     367.949E-03    -183.561E-03    -184.395E-03    -182.781E-03     366.335E-03    -183.561E-03     57.5001E-03    -63.9995E+06    -67.3089E+06    -173.392E+06    -67.6034E+06    -172.172E+06    -64.9252E+06    -11.0115E+06         49.9818
            1942     2.49515E-03     165.204E-03         3.98599        -2.11456        -2.17113        -2.11427         3.98534        -2.17077    -64.0391E-03     369.559E-03    -183.601E-03    -185.960E-03    -182.387E-03     365.985E-03    -183.601E-03     86.8599E-03    -57.5802E+06    -62.3153E+06    -167.641E+06    -64.0827E+06    -165.874E+06    -57.5802E+06    -13.1158E+06         50.3078
            1943     3.32692E-03     165.231E-03         3.89675        -2.04409        -2.15097        -2.04374         3.89605        -2.15062    -107.567E-03     371.821E-03    -183.447E-03    -188.300E-03    -181.692E-03     365.213E-03    -183.447E-03     118.577E-03    -48.3754E+06    -58.0462E+06    -160.858E+06    -60.2561E+06    -158.648E+06    -48.3754E+06    -14.0911E+06         50.8242
            1944     4.15691E-03     165.258E-03         3.73190        -1.91053        -2.12012        -1.90982         3.73119        -2.12012    -104.429E-03     374.268E-03    -183.218E-03    -190.980E-03    -180.232E-03     363.519E-03    -183.218E-03     151.774E-03    -39.3756E+06    -57.4178E+06    -152.762E+06    -59.6776E+06    -150.502E+06    -39.3756E+06    -13.8816E+06         51.5456
            1945     4.99320E-03     165.295E-03         3.58526        -1.80513        -2.08102        -1.80382         3.58395        -2.08102    -145.651E-03     377.705E-03    -182.986E-03    -194.579E-03    -178.783E-03     361.910E-03    -182.986E-03     185.157E-03    -27.4606E+06    -58.2218E+06    -143.653E+06    -60.4468E+06    -141.428E+06    -27.4606E+06    -10.8887E+06         52.4728
            1946     5.83095E-03     165.337E-03         3.45637        -1.71632        -2.04129        -1.71421         3.45426        -2.04129    -193.408E-03     384.133E-03    -182.947E-03    -201.182E-03    -179.581E-03     362.533E-03    -182.947E-03     218.948E-03    -14.1594E+06    -62.0453E+06    -124.440E+06    -63.2787E+06    -123.207E+06    -14.1594E+06    -5.00688E+06         53.6809
            1947     6.66563E-03     165.395E-03         3.27383        -1.57727        -2.00088        -1.57484         3.27140        -2.00088    -214.526E-03     393.819E-03    -183.042E-03    -210.909E-03    -183.258E-03     366.168E-03    -183.042E-03     251.524E-03     2.31068E+06    -60.2154E+06    -102.895E+06    -66.4313E+06    -96.6792E+06     2.31068E+06     1.08832E+06         55.2163
            1948     7.49599E-03     165.501E-03         3.05864        -1.41945        -1.95777        -1.41586         3.05505        -1.95777    -242.262E-03     407.099E-03    -183.515E-03    -223.406E-03    -189.971E-03     373.664E-03    -183.515E-03     281.942E-03     22.2748E+06    -52.8168E+06    -84.0967E+06    -67.8562E+06    -69.0573E+06     22.2748E+06     5.15672E+06         57.0602
            1949     8.32236E-03     165.648E-03         2.83072        -1.25182        -1.91182        -1.24766         2.82655        -1.91182    -253.783E-03     422.857E-03    -184.666E-03    -237.884E-03    -200.310E-03     385.282E-03    -184.666E-03     305.902E-03     41.4913E+06    -30.7909E+06    -72.4292E+06    -67.8555E+06    -35.3645E+06     41.4913E+06     7.16532E+06         59.2108
            1950     9.13972E-03     165.806E-03         2.57918        -1.06099        -1.86158        -1.05746         2.57565        -1.86158    -223.274E-03     439.556E-03    -186.589E-03    -253.038E-03    -213.919E-03     400.437E-03    -186.589E-03     319.665E-03     59.4240E+06     5.84678E+06    -67.1812E+06    -64.1240E+06     2.78952E+06     59.4240E+06     6.20041E+06         61.6563
            1951     9.95090E-03     165.971E-03         2.32000    -871.993E-03        -1.80604    -868.235E-03         2.31624        -1.80604    -215.574E-03     457.533E-03    -189.114E-03    -268.581E-03    -230.801E-03     419.753E-03    -189.114E-03     322.022E-03     78.4595E+06     43.2875E+06    -54.7226E+06    -53.7769E+06     42.3419E+06     78.4595E+06     3.64495E+06         64.3613
            1952     10.7503E-03     166.129E-03         2.04979    -676.394E-03        -1.74812    -672.019E-03         2.04541        -1.74812    -212.284E-03     480.350E-03    -192.354E-03    -287.599E-03    -254.251E-03     447.003E-03    -192.354E-03     311.953E-03     87.2681E+06     58.8441E+06    -43.1862E+06    -42.7341E+06     58.3920E+06     87.2681E+06     84.8331E+03         67.4193
            1953     11.5158E-03     166.432E-03         1.76448    -473.186E-03        -1.68970    -469.455E-03         1.76075        -1.68970    -179.123E-03     509.468E-03    -197.024E-03    -312.107E-03    -282.972E-03     480.334E-03    -197.024E-03     302.799E-03     86.8542E+06     52.3249E+06    -32.4834E+06    -31.8495E+06     51.6910E+06     86.8542E+06    -3.27724E+06         71.1056
            1954     12.2723E-03     166.714E-03         1.47957    -266.447E-03        -1.62819    -263.874E-03         1.47699        -1.62819    -130.025E-03     536.639E-03    -202.865E-03    -333.573E-03    -310.974E-03     514.040E-03    -202.865E-03     273.622E-03     95.8032E+06     62.3984E+06    -21.9002E+06    -21.4141E+06     61.9123E+06     95.8032E+06    -2.85146E+06         75.6419
            1955     12.9920E-03     167.021E-03         1.20211    -71.6660E-03        -1.56495    -68.2949E-03         1.19874        -1.56495    -121.302E-03     568.724E-03    -209.489E-03    -359.413E-03    -336.759E-03     546.070E-03    -209.489E-03     284.731E-03     105.186E+06     75.5702E+06    -15.9004E+06    -14.6688E+06     74.3387E+06     105.186E+06    -1.58017E+06         80.5026
            1956     13.7068E-03     167.490E-03     923.729E-03     130.931E-03        -1.49902     132.908E-03     921.752E-03        -1.49902    -58.1817E-03     581.546E-03    -216.875E-03    -365.182E-03    -348.598E-03     564.962E-03    -216.875E-03     231.398E-03     128.694E+06     90.1844E+06    -8.14804E+06    -5.03961E+06     87.0760E+06     128.694E+06     88.8025E+03         84.4138
            1957     852.648E-06     166.654E-03         4.42211        -2.30213        -2.37530        -2.35691         4.42187        -2.32028    -38.6579E-03     318.448E-03    -158.747E-03    -159.715E-03    -158.741E-03     317.765E-03    -159.038E-03     33.0747E-03    -58.8882E+06    -63.1591E+06    -163.974E+06    -61.2702E+06    -163.238E+06    -61.5132E+06    -7.20256E+06         45.7589
            1958     1.70389E-03     166.609E-03         4.38626        -2.29823        -2.34140        -2.30793         4.38613        -2.33157     6.69055E-03     319.258E-03    -159.369E-03    -159.899E-03    -157.525E-03     316.965E-03    -159.450E-03     63.4611E-03    -59.6455E+06    -64.0702E+06    -159.179E+06    -62.8374E+06    -157.916E+06    -62.1420E+06    -10.7538E+06         46.0170
            1959     2.55637E-03     166.620E-03         4.27308        -2.22058        -2.31051        -2.22048         4.27298        -2.31051    -15.2014E-03     319.425E-03    -158.921E-03    -160.496E-03    -155.308E-03     314.237E-03    -158.921E-03     96.7834E-03    -60.7351E+06    -64.8647E+06    -161.161E+06    -64.9625E+06    -159.540E+06    -62.2583E+06    -10.4518E+06         46.3983
            1960     3.41274E-03     166.632E-03         4.16100        -2.14105        -2.27916        -2.14074         4.16070        -2.27916    -77.5791E-03     320.403E-03    -158.081E-03    -162.327E-03    -152.821E-03     310.896E-03    -158.081E-03     131.884E-03    -61.7376E+06    -71.0902E+06    -159.290E+06    -72.2447E+06    -158.135E+06    -61.7376E+06    -5.14846E+06         47.0525
            1961     4.27355E-03     166.673E-03         4.07620        -2.08872        -2.24775        -2.08826         4.07574        -2.24775    -101.671E-03     324.608E-03    -157.261E-03    -167.291E-03    -152.307E-03     309.624E-03    -157.261E-03     167.444E-03    -54.2346E+06    -79.1293E+06    -155.090E+06    -82.4370E+06    -151.783E+06    -54.2346E+06     2.35856E+06         48.0304
            1962     5.13036E-03     166.711E-03         3.95084        -1.99819        -2.21666        -1.99778         3.95043        -2.21666    -95.9546E-03     333.879E-03    -156.891E-03    -176.764E-03    -155.524E-03     312.638E-03    -156.891E-03     202.668E-03    -39.4015E+06    -86.7282E+06    -150.612E+06    -91.3676E+06    -145.972E+06    -39.4015E+06     7.96003E+06         49.3303
            1963     5.98423E-03     166.778E-03         3.77461        -1.86350        -2.18024        -1.86260         3.77371        -2.18024    -132.169E-03     347.614E-03    -157.418E-03    -190.009E-03    -162.586E-03     320.190E-03    -157.418E-03     235.818E-03    -22.5396E+06    -86.6590E+06    -134.806E+06    -96.1277E+06    -125.337E+06    -22.5396E+06     11.5427E+06         50.9828
            1964     6.83392E-03     166.847E-03         3.55843        -1.69943        -2.13596        -1.69810         3.55710        -2.13596    -162.698E-03     365.441E-03    -158.786E-03    -206.440E-03    -173.579E-03     332.580E-03    -158.786E-03     265.844E-03    -2.07513E+06    -77.2395E+06    -111.950E+06    -93.4864E+06    -95.7031E+06    -2.07513E+06     12.9956E+06         53.0192
            1965     7.67536E-03     166.934E-03         3.30719        -1.51253        -2.08468        -1.51040         3.30505        -2.08468    -195.483E-03     388.189E-03    -161.033E-03    -227.068E-03    -190.042E-03     351.163E-03    -161.033E-03     292.584E-03     19.8857E+06    -57.7303E+06    -93.4264E+06    -86.0664E+06    -65.0904E+06     19.8857E+06     12.7944E+06         55.4347
            1966     8.50031E-03     167.081E-03         3.04054        -1.31547        -2.02808        -1.31287         3.03794        -2.02808    -212.239E-03     414.810E-03    -164.424E-03    -250.616E-03    -211.998E-03     376.192E-03    -164.424E-03     311.063E-03     42.6079E+06    -22.6883E+06    -78.6998E+06    -74.3088E+06    -27.0792E+06     42.6079E+06     11.7884E+06         58.2251
            1967     9.30716E-03     167.287E-03         2.76311        -1.11475        -1.96691        -1.11188         2.76024        -1.96691    -207.629E-03     444.522E-03    -169.305E-03    -275.396E-03    -237.984E-03     407.109E-03    -169.305E-03     319.199E-03     65.4464E+06     21.7187E+06    -63.5363E+06    -60.9738E+06     19.1562E+06     65.4464E+06     7.85013E+06         61.4119
            1968     10.0901E-03     167.534E-03         2.46779    -902.010E-03        -1.90056    -898.498E-03         2.46428        -1.90056    -211.534E-03     476.344E-03    -175.299E-03    -301.163E-03    -267.330E-03     442.511E-03    -175.299E-03     316.300E-03     79.5940E+06     57.3191E+06    -50.7606E+06    -49.8200E+06     56.3785E+06     79.5940E+06     2.76403E+06         64.9554
            1969     10.8626E-03     167.738E-03         2.17975    -702.735E-03        -1.83025    -698.443E-03         2.17546        -1.83025    -213.621E-03     508.727E-03    -181.891E-03    -326.431E-03    -297.818E-03     480.114E-03    -181.891E-03     302.370E-03     83.9651E+06     65.7068E+06    -40.4184E+06    -39.8405E+06     65.1290E+06     83.9651E+06    -984.675E+03         68.7828
            1970     11.6008E-03     168.077E-03         1.90316    -518.351E-03        -1.75838    -513.371E-03         1.89818        -1.75838    -212.025E-03     543.221E-03    -189.897E-03    -352.967E-03    -328.715E-03     518.969E-03    -189.897E-03     289.803E-03     84.7787E+06     63.2176E+06    -34.7243E+06    -34.0196E+06     62.5129E+06     84.7787E+06    -5.30343E+06         72.9330
            1971     12.3183E-03     168.397E-03         1.61005    -313.350E-03        -1.68368    -308.315E-03         1.60501        -1.68368    -189.921E-03     571.716E-03    -198.927E-03    -372.911E-03    -353.602E-03     552.407E-03    -198.927E-03     265.724E-03     90.7884E+06     63.6242E+06    -30.9758E+06    -29.4512E+06     62.0996E+06     90.7884E+06    -8.14174E+06         77.5362
            1972     13.0176E-03     168.743E-03         1.30145    -115.519E-03        -1.60388    -109.706E-03         1.29564        -1.60388    -178.961E-03     594.105E-03    -207.777E-03    -386.699E-03    -365.679E-03     573.084E-03    -207.777E-03     282.100E-03     99.3660E+06     66.6623E+06    -21.9736E+06    -20.1318E+06     64.8205E+06     99.3660E+06    -8.44917E+06         82.1809
            1973     13.7134E-03     169.277E-03     971.342E-03     97.7065E-03        -1.51886     101.024E-03     968.025E-03        -1.51886    -78.4676E-03     594.128E-03    -216.263E-03    -378.332E-03    -362.578E-03     578.375E-03    -216.263E-03     230.445E-03     116.975E+06     82.0108E+06    -13.9312E+06    -9.97073E+06     78.0504E+06     116.975E+06    -6.95163E+06         85.8276
            1974     875.250E-06     167.986E-03         4.50967        -2.31194        -2.39758        -2.39237         4.50919        -2.31666     45.9492E-03     262.365E-03    -130.976E-03    -131.391E-03    -129.990E-03     261.380E-03    -131.391E-03     35.7978E-03    -77.8302E+06    -83.5991E+06    -149.652E+06    -78.7544E+06    -149.161E+06    -83.1656E+06    -4.22347E+06         42.1938
            1975     1.75115E-03     167.923E-03         4.49297        -2.33518        -2.36320        -2.34475         4.49271        -2.35337     62.8971E-03     262.896E-03    -131.209E-03    -131.692E-03    -128.436E-03     259.752E-03    -131.320E-03     67.4602E-03    -86.2879E+06    -93.6129E+06    -155.881E+06    -88.2129E+06    -153.956E+06    -93.6129E+06    -1.99310E+06         42.6344
            1976     2.63201E-03     167.915E-03         4.44231        -2.29136        -2.35102        -2.29812         4.44202        -2.34398    -15.3334E-03     263.889E-03    -130.636E-03    -133.241E-03    -126.308E-03     256.956E-03    -130.636E-03     101.876E-03    -95.4057E+06    -102.309E+06    -173.193E+06    -102.750E+06    -169.110E+06     -99.047E+06     6.78616E+06         43.2892
            1977     3.51326E-03     167.927E-03         4.37219        -2.23922        -2.33354        -2.24590         4.37183        -2.32650    -75.5646E-03     268.055E-03    -129.969E-03    -138.047E-03    -125.980E-03     255.987E-03    -129.969E-03     136.446E-03    -93.8549E+06    -106.726E+06    -180.929E+06    -116.899E+06    -170.755E+06    -93.8549E+06     17.3821E+06         44.2592
            1978     4.39453E-03     167.951E-03         4.26691        -2.17052        -2.30381        -2.16985         4.26624        -2.30381    -111.681E-03     277.871E-03    -129.869E-03    -147.836E-03    -129.779E-03     259.814E-03    -129.869E-03     170.636E-03    -77.3294E+06    -110.287E+06    -175.921E+06    -125.273E+06    -160.935E+06    -77.3294E+06     23.6853E+06         45.6008
            1979     5.27276E-03     168.007E-03         4.09214        -2.03771        -2.27216        -2.03711         4.09154        -2.27216    -112.422E-03     294.139E-03    -130.658E-03    -163.463E-03    -138.979E-03     269.654E-03    -130.658E-03     205.450E-03    -53.8929E+06    -108.890E+06    -164.010E+06    -125.908E+06    -146.992E+06    -53.8929E+06     23.3401E+06         47.3220
            1980     6.14078E-03     168.111E-03         3.87545        -1.87674        -2.22897        -1.87608         3.87480        -2.22897    -112.206E-03     317.051E-03    -132.611E-03    -184.208E-03    -153.876E-03     286.719E-03    -132.611E-03     238.907E-03    -27.2530E+06    -97.5901E+06    -138.734E+06    -116.057E+06    -120.268E+06    -27.2530E+06     18.4042E+06         49.4301
            1981     6.99582E-03     168.234E-03         3.64567        -1.70883        -2.17625        -1.70785         3.64469        -2.17625    -143.708E-03     345.578E-03    -135.983E-03    -209.306E-03    -174.674E-03     310.946E-03    -135.983E-03     268.443E-03    -2.85157E+06    -80.4270E+06    -110.892E+06    -101.054E+06     -90.265E+06    -2.85157E+06     13.2747E+06         51.9453
            1982     7.83481E-03     168.346E-03         3.39699        -1.52694        -2.11606        -1.52535         3.39540        -2.11606    -171.076E-03     379.207E-03    -140.784E-03    -238.600E-03    -201.520E-03     342.127E-03    -140.784E-03     293.405E-03     19.7794E+06    -51.6220E+06    -90.1620E+06    -84.5717E+06    -57.2123E+06     19.7794E+06     9.44081E+06         54.8771
            1983     8.65096E-03     168.558E-03         3.12425        -1.33444        -2.04943        -1.33260         3.12241        -2.04943    -174.622E-03     416.865E-03    -147.074E-03    -270.015E-03    -233.164E-03     380.014E-03    -147.074E-03     309.128E-03     41.9163E+06    -15.3095E+06    -72.2537E+06    -68.9918E+06    -18.5714E+06     41.9163E+06     5.88402E+06         58.2317
            1984     9.44815E-03     168.737E-03         2.83428        -1.13771        -1.97728        -1.13541         2.83198        -1.97728    -180.728E-03     458.368E-03    -155.015E-03    -303.444E-03    -269.139E-03     424.064E-03    -155.015E-03     315.209E-03     65.8104E+06     33.8380E+06    -56.7152E+06    -55.7094E+06     32.8321E+06     65.8104E+06     4.89515E+06         62.0105
            1985     10.2057E-03     169.093E-03         2.54693    -947.149E-03        -1.90054    -944.254E-03         2.54404        -1.90054    -198.887E-03     501.554E-03    -164.283E-03    -337.161E-03    -307.151E-03     471.544E-03    -164.283E-03     310.404E-03     79.0625E+06     68.4644E+06    -46.1685E+06    -45.3334E+06     67.6292E+06     79.0625E+06     2.61814E+06         66.0932
            1986     10.9403E-03     169.379E-03         2.25547    -755.524E-03        -1.81960    -751.418E-03         2.25136        -1.81960    -212.731E-03     540.677E-03    -174.379E-03    -365.950E-03    -341.021E-03     515.748E-03    -174.379E-03     295.575E-03     82.1334E+06     72.8894E+06    -38.0339E+06    -37.6434E+06     72.4988E+06     82.1334E+06    -766.259E+03         70.2689
            1987     11.6466E-03     169.757E-03         1.94339    -544.813E-03        -1.73230    -538.174E-03         1.93676        -1.73230    -252.439E-03     575.925E-03    -185.470E-03    -390.267E-03    -368.517E-03     554.175E-03    -185.470E-03     286.377E-03     87.5609E+06     73.4811E+06    -28.9358E+06    -28.6967E+06     73.2420E+06     87.5609E+06    -2.29006E+06         74.4596
            1988     12.3319E-03     170.272E-03         1.60920    -323.214E-03        -1.63796    -317.562E-03         1.60355        -1.63796    -202.320E-03     597.828E-03    -196.719E-03    -401.335E-03    -383.140E-03     579.632E-03    -196.719E-03     266.331E-03     95.2762E+06     72.0816E+06    -19.6974E+06    -18.4979E+06     70.8821E+06     95.2762E+06    -5.57852E+06         78.8421
            1989     13.0169E-03     170.619E-03         1.27077    -119.634E-03        -1.53590    -115.163E-03         1.26630        -1.53590    -149.441E-03     609.609E-03    -206.910E-03    -403.301E-03    -383.140E-03     589.447E-03    -206.910E-03     281.050E-03     102.180E+06     68.6773E+06    -12.8663E+06    -9.92234E+06     65.7333E+06     102.180E+06    -9.62413E+06         83.1723
            1990     13.7065E-03     171.129E-03     924.034E-03     89.1351E-03        -1.42979     91.9386E-03     921.230E-03        -1.42979    -72.5954E-03     605.356E-03    -216.038E-03    -389.759E-03    -374.662E-03     590.260E-03    -216.038E-03     229.102E-03     113.444E+06     73.2190E+06    -11.6811E+06    -3.74852E+06     65.2864E+06     113.444E+06    -7.57773E+06         86.5551
            1991     905.403E-06     169.259E-03         4.42713        -2.26070        -2.30453        -2.29887         4.42619        -2.26542     112.562E-03     199.423E-03    -99.1430E-03    -100.279E-03    -98.7777E-03     198.047E-03    -99.2683E-03     37.1935E-03    -115.500E+06    -127.474E+06    -179.267E+06    -130.909E+06    -164.292E+06    -127.040E+06     17.7712E+06         39.7857
            1992     1.80871E-03     169.205E-03         4.45521        -2.28357        -2.30708        -2.30071         4.45411        -2.28885     159.998E-03     204.076E-03    -100.348E-03    -103.784E-03    -99.6473E-03     199.968E-03    -100.378E-03     68.3794E-03    -127.468E+06    -141.822E+06    -198.175E+06    -153.828E+06    -171.815E+06    -141.822E+06     26.6628E+06         40.3917
            1993     2.71228E-03     169.198E-03         4.48609        -2.29670        -2.32705        -2.32543         4.48504        -2.29726     101.363E-03     211.073E-03    -101.203E-03    -109.950E-03    -101.548E-03     202.671E-03    -101.203E-03     100.934E-03    -136.948E+06    -147.245E+06    -212.541E+06    -168.095E+06    -187.444E+06    -141.195E+06     29.7271E+06         41.3113
            1994     3.61626E-03     169.213E-03         4.41814        -2.25304        -2.30907        -2.26439         4.41711        -2.29669     78.5049E-03     222.615E-03    -102.312E-03    -120.328E-03    -106.564E-03     208.851E-03    -102.312E-03     133.817E-03    -120.860E+06    -141.009E+06    -208.377E+06    -164.304E+06    -185.081E+06    -120.860E+06     30.3805E+06         42.5829
            1995     4.51310E-03     169.259E-03         4.26062        -2.13652        -2.27565        -2.13512         4.25922        -2.27565     73.8173E-03     240.426E-03    -104.229E-03    -136.157E-03    -116.384E-03     220.654E-03    -104.229E-03     167.572E-03    -89.9338E+06    -127.596E+06    -186.973E+06    -149.195E+06    -165.374E+06    -89.9338E+06     28.3518E+06         44.2429
            1996     5.40042E-03     169.318E-03         4.08030        -2.00496        -2.23736        -2.00385         4.07919        -2.23736     35.7089E-03     264.237E-03    -107.245E-03    -157.095E-03    -131.506E-03     238.647E-03    -107.245E-03     201.163E-03    -57.6193E+06    -111.863E+06    -159.252E+06    -131.193E+06    -139.922E+06    -57.6193E+06     22.0776E+06         46.3104
            1997     6.27723E-03     169.395E-03         3.86703        -1.85572        -2.18780        -1.85529         3.86660        -2.18780    -32.0643E-03     294.880E-03    -111.367E-03    -183.542E-03    -153.226E-03     264.564E-03    -111.367E-03     233.099E-03    -29.1545E+06    -93.8624E+06    -127.389E+06    -114.296E+06    -106.956E+06    -29.1545E+06     12.6523E+06         48.7956
            1998     7.13388E-03     169.565E-03         3.61392        -1.67235        -2.12749        -1.67175         3.61332        -2.12749    -77.3826E-03     333.809E-03    -117.131E-03    -216.639E-03    -182.956E-03     300.127E-03    -117.131E-03     263.792E-03    -5.68285E+06    -72.9105E+06    -103.799E+06    -97.6458E+06    -79.0641E+06    -5.68285E+06     4.56761E+06         51.7110
            1999     7.96512E-03     169.746E-03         3.35392        -1.48930        -2.05704        -1.48843         3.35305        -2.05704    -106.207E-03     378.351E-03    -124.645E-03    -253.717E-03    -218.586E-03     343.219E-03    -124.645E-03     289.353E-03     15.9952E+06    -44.7805E+06    -85.4835E+06    -81.2931E+06    -48.9710E+06     15.9952E+06    -688.526E+03         55.0663
            2000     8.76863E-03     170.032E-03         3.08512        -1.31481        -1.97933        -1.31347         3.08378        -1.97933    -145.703E-03     426.645E-03    -133.789E-03    -292.842E-03    -258.933E-03     392.736E-03    -133.789E-03     304.262E-03     37.0518E+06    -9.56611E+06    -68.6094E+06    -66.9050E+06    -11.2706E+06     37.0518E+06    -2.32387E+06         58.8640
            2001     9.54359E-03     170.308E-03         2.80461        -1.13716        -1.89617        -1.13432         2.80176        -1.89617    -197.230E-03     476.676E-03    -144.431E-03    -332.302E-03    -301.336E-03     445.710E-03    -144.431E-03     309.731E-03     58.6329E+06     33.3805E+06    -55.1010E+06    -53.5697E+06     31.8492E+06     58.6329E+06      603.89E+03         63.0740
            2002     10.2837E-03     170.648E-03         2.50778    -944.333E-03        -1.80689    -940.176E-03         2.50362        -1.80689    -238.513E-03     524.549E-03    -156.300E-03    -368.249E-03    -340.951E-03     497.251E-03    -156.300E-03     306.668E-03     81.6184E+06     69.7445E+06    -42.7127E+06    -42.2914E+06     74.8858E+06     76.0559E+06     2.50865E+06         67.4552
            2003     10.9993E-03     171.018E-03         2.17707    -730.699E-03        -1.70751    -725.512E-03         2.17188        -1.70751    -242.008E-03     567.215E-03    -169.201E-03    -397.778E-03    -374.577E-03     544.014E-03    -169.201E-03     294.985E-03     89.0720E+06     78.7204E+06    -33.1595E+06    -32.9443E+06     84.0677E+06     83.5095E+06    -626.376E+03         71.6187
            2004     11.6784E-03     171.536E-03         1.83085    -510.687E-03        -1.59566    -503.949E-03         1.82411        -1.59566    -249.382E-03     599.353E-03    -182.532E-03    -416.689E-03    -396.028E-03     578.692E-03    -182.532E-03     286.630E-03     89.0676E+06     72.9983E+06    -24.2160E+06    -23.6382E+06     72.4205E+06     89.0676E+06    -5.35354E+06         75.4737
            2005     12.3547E-03     172.007E-03         1.47486    -294.651E-03        -1.47752    -288.836E-03         1.46905        -1.47752    -193.949E-03     612.078E-03    -194.950E-03    -417.291E-03    -400.027E-03     594.814E-03    -194.950E-03     263.397E-03     101.264E+06     78.1632E+06    -17.5775E+06    -16.3725E+06     76.9582E+06     101.264E+06    -7.26434E+06         79.4062
            2006     13.0381E-03     172.403E-03         1.11571    -86.2539E-03        -1.35420    -80.7549E-03         1.11021        -1.35420    -148.516E-03     618.175E-03    -205.907E-03    -412.856E-03    -394.242E-03     599.560E-03    -205.907E-03     272.641E-03     110.473E+06     74.3279E+06    -13.9856E+06    -11.4398E+06     71.7821E+06     110.473E+06    -9.08009E+06         83.3727
            2007     13.7173E-03     172.933E-03     772.198E-03     105.620E-03        -1.23120     109.607E-03     768.210E-03        -1.23120    -93.9754E-03     613.315E-03    -215.697E-03    -398.178E-03    -384.213E-03     599.351E-03    -215.697E-03     222.794E-03     115.516E+06     61.5269E+06    -18.0051E+06    -9.15414E+06     52.6759E+06     115.516E+06    -8.21084E+06         86.5109
            2008     936.549E-06     170.455E-03         4.24268        -2.12157        -2.18516        -2.18178         4.23930        -2.12157     212.117E-03     139.667E-03    -68.4648E-03    -71.1991E-03    -69.5748E-03     138.043E-03    -68.4648E-03     34.2737E-03    -183.857E+06    -224.532E+06    -266.395E+06    -231.578E+06    -217.143E+06    -226.064E+06     31.1645E+06         38.4700
            2009     1.86725E-03     170.423E-03         4.30057        -2.16249        -2.20372        -2.19780         4.29596        -2.16379     319.452E-03     151.380E-03    -71.2693E-03    -80.1492E-03    -75.3601E-03     146.591E-03    -71.2693E-03     64.3356E-03    -162.872E+06    -187.007E+06    -249.056E+06    -209.850E+06    -202.078E+06    -187.007E+06     42.6256E+06         39.1533
            2010     2.79140E-03     170.422E-03         4.26376        -2.14928        -2.19386        -2.16868         4.26041        -2.17112     278.369E-03     167.778E-03    -74.5218E-03    -93.3219E-03    -83.8591E-03     158.316E-03    -74.5218E-03     96.7424E-03    -149.388E+06    -164.251E+06    -233.748E+06    -192.439E+06    -197.016E+06    -157.931E+06     37.8956E+06         40.2259
            2011     3.70545E-03     170.442E-03         4.19340        -2.11227        -2.16519        -2.11370         4.18948        -2.15985     299.144E-03     188.418E-03    -78.3175E-03    -110.203E-03    -95.3206E-03     173.536E-03    -78.3175E-03     129.548E-03    -132.341E+06    -154.009E+06    -211.388E+06    -179.271E+06    -186.125E+06    -132.341E+06     26.7367E+06         41.7037
            2012     4.61240E-03     170.485E-03         4.10751        -2.05628        -2.13556        -2.05305         4.10428        -2.13556     270.423E-03     214.057E-03    -82.8952E-03    -131.327E-03    -110.894E-03     193.624E-03    -82.8952E-03     162.831E-03    -103.113E+06    -140.909E+06    -180.821E+06    -162.529E+06    -159.201E+06    -103.113E+06     16.3250E+06         43.6019
            2013     5.50546E-03     170.592E-03         3.95654        -1.95146        -2.09927        -1.94931         3.95439        -2.09927     211.711E-03     245.957E-03    -88.5192E-03    -157.562E-03    -131.961E-03     220.355E-03    -88.5192E-03     196.714E-03    -70.7959E+06    -113.608E+06    -152.194E+06    -139.658E+06    -126.144E+06    -70.7959E+06     4.78647E+06         45.9340
            2014     6.37857E-03     170.762E-03         3.75736        -1.81039        -2.04902        -1.80928         3.75626        -2.04902     120.221E-03     284.977E-03    -95.2830E-03    -189.790E-03    -160.190E-03     255.376E-03    -95.2830E-03     229.540E-03    -39.9894E+06    -81.3848E+06    -127.105E+06    -113.973E+06    -94.5171E+06    -39.9894E+06    -4.71614E+06         48.7105
            2015     7.23190E-03     170.933E-03         3.52492        -1.64593        -1.98479        -1.64574         3.52473        -1.98479     39.7529E-03     331.718E-03    -103.627E-03    -227.888E-03    -196.030E-03     299.859E-03    -103.627E-03     259.108E-03    -13.5390E+06    -62.5175E+06    -101.504E+06    -91.4880E+06    -72.5334E+06    -13.5390E+06    -8.71786E+06         51.9368
            2016     8.05596E-03     171.224E-03         3.25804        -1.46613        -1.90791        -1.46571         3.25762        -1.90791    -50.4782E-03     383.682E-03    -113.709E-03    -269.702E-03    -237.723E-03     351.702E-03    -113.709E-03     281.383E-03     11.2818E+06    -39.8803E+06    -78.7659E+06    -75.1132E+06    -43.5330E+06     11.2818E+06    -7.40197E+06         55.6120
            2017     8.84734E-03     171.485E-03         2.97762        -1.28909        -1.82016        -1.28805         2.97657        -1.82016    -118.422E-03     439.078E-03    -125.301E-03    -313.545E-03    -283.138E-03     408.671E-03    -125.301E-03     295.703E-03     33.3741E+06    -6.20796E+06    -65.0226E+06    -62.9480E+06    -8.28251E+06     33.3741E+06    -6.67875E+06         59.7304
            2018     9.60036E-03     171.884E-03         2.67830        -1.09829        -1.72190        -1.09565         2.67565        -1.72190    -176.441E-03     493.103E-03    -138.054E-03    -354.595E-03    -326.683E-03     465.190E-03    -138.054E-03     301.859E-03     51.7571E+06     27.2476E+06    -54.7216E+06    -52.7943E+06     25.3203E+06     51.7571E+06    -5.70827E+06         64.2103
            2019     10.3341E-03     172.259E-03         2.33191    -873.704E-03        -1.60980    -870.252E-03         2.32846        -1.60980    -206.570E-03     541.147E-03    -151.870E-03    -389.310E-03    -364.358E-03     516.194E-03    -151.870E-03     299.999E-03     81.4836E+06     62.3984E+06    -45.2032E+06    -44.1142E+06     72.2518E+06     70.5412E+06    -1.41430E+06         68.6581
            2020     11.0278E-03     172.761E-03         1.96572    -650.870E-03        -1.48070    -646.358E-03         1.96121        -1.48070    -207.150E-03     582.162E-03    -166.518E-03    -415.571E-03    -393.858E-03     560.449E-03    -166.518E-03     290.583E-03     99.8315E+06     79.8135E+06    -38.2452E+06    -38.0309E+06     96.5214E+06     82.9093E+06    -2.57785E+06         72.5489
            2021     11.6948E-03     173.307E-03         1.60979    -452.525E-03        -1.34217    -444.576E-03         1.60185        -1.34217    -248.273E-03     610.321E-03    -180.859E-03    -428.959E-03    -409.517E-03     590.878E-03    -180.859E-03     281.536E-03     97.3868E+06     81.8259E+06    -34.4855E+06    -32.8787E+06     87.8679E+06     89.7380E+06    -11.8963E+06         75.8716
            2022     12.3713E-03     173.768E-03         1.25395    -266.262E-03        -1.20653    -254.018E-03         1.24170        -1.20653    -258.439E-03     618.655E-03    -193.758E-03    -424.807E-03    -408.726E-03     602.574E-03    -193.758E-03     256.082E-03     105.329E+06     77.4076E+06    -28.2475E+06    -24.0781E+06     74.9072E+06     103.660E+06    -19.2968E+06         79.2579
            2023     13.0433E-03     174.172E-03     890.185E-03    -82.0460E-03        -1.06970    -62.6377E-03     870.777E-03        -1.06970    -243.103E-03     622.422E-03    -205.263E-03    -417.679E-03    -400.993E-03     605.737E-03    -205.263E-03     259.900E-03     113.837E+06     59.9551E+06    -17.2799E+06    -13.3969E+06     56.0721E+06     113.837E+06    -13.4976E+06         82.8225
            2024     13.7166E-03     174.719E-03     541.866E-03     75.6998E-03    -936.269E-03     121.763E-03     495.802E-03    -936.269E-03    -159.667E-03     614.430E-03    -215.486E-03    -399.433E-03    -386.953E-03     601.950E-03    -215.486E-03     212.307E-03     123.422E+06     60.4103E+06    -21.0217E+06    -2.48456E+06     41.8731E+06     123.422E+06    -2.39640E+06         85.7258
            2025     958.308E-06     171.579E-03         3.94512        -1.93508        -2.02664        -1.99514         3.94026        -1.96172     315.162E-03     98.0141E-03    -47.3797E-03    -50.6281E-03    -49.2006E-03     96.5866E-03    -47.3797E-03     27.2059E-03    -244.195E+06    -361.256E+06    -373.542E+06    -363.675E+06    -252.530E+06    -362.788E+06     2.07380E+06         37.8512
            2026     1.90918E-03     171.569E-03         3.90951        -1.92519        -1.99208        -1.93732         3.89995        -1.97039     452.235E-03     112.591E-03    -50.5478E-03    -62.0266E-03    -57.5315E-03     108.096E-03    -50.5478E-03     54.2187E-03    -201.871E+06    -300.728E+06    -327.733E+06    -309.170E+06    -220.433E+06    -300.728E+06     4.91874E+06         38.6109
            2027     2.84892E-03     171.588E-03         3.88525        -1.91390        -1.98486        -1.93515         3.87462        -1.95299     474.278E-03     134.931E-03    -55.0451E-03    -79.8527E-03    -70.5169E-03     125.595E-03    -55.0451E-03     87.1368E-03    -167.258E+06    -232.816E+06    -276.357E+06    -250.541E+06    -195.525E+06    -230.365E+06     3.04858E+06         39.7951
            2028     3.77612E-03     171.636E-03         3.87567        -1.91409        -1.97996        -1.94749         3.86659        -1.93748     450.827E-03     163.846E-03    -60.7617E-03    -103.125E-03    -88.0072E-03     148.729E-03    -60.7617E-03     123.237E-03    -145.343E+06    -175.573E+06    -224.687E+06    -198.536E+06    -180.186E+06    -166.881E+06    -2.04234E+06         41.4089
            2029     4.68441E-03     171.755E-03         3.81058        -1.90022        -1.92667        -1.90389         3.80365        -1.91606     382.102E-03     198.195E-03    -67.5930E-03    -130.706E-03    -110.002E-03     177.491E-03    -67.5930E-03     159.740E-03    -116.150E+06    -136.565E+06    -174.728E+06    -158.661E+06    -150.081E+06    -118.700E+06    -7.27395E+06         43.4619
            2030     5.57605E-03     171.897E-03         3.68799        -1.81877        -1.87976        -1.81393         3.68314        -1.87976     313.260E-03     238.482E-03    -75.5819E-03    -162.864E-03    -137.583E-03     213.200E-03    -75.5819E-03     194.980E-03    -79.9833E+06    -99.4318E+06    -141.820E+06    -130.761E+06    -109.902E+06    -80.5724E+06    -14.6155E+06         45.9623
            2031     6.44788E-03     172.082E-03         3.52621        -1.69548        -1.82613        -1.69282         3.52355        -1.82613     222.289E-03     286.097E-03    -84.9743E-03    -200.956E-03    -172.547E-03     257.688E-03    -84.9743E-03     228.104E-03    -49.1409E+06    -67.9164E+06    -129.425E+06    -112.832E+06    -84.5096E+06    -49.1409E+06    -21.5668E+06         48.9150
            2032     7.28792E-03     172.345E-03         3.32753        -1.56180        -1.75549        -1.56079         3.32653        -1.75549     124.055E-03     339.415E-03    -95.8741E-03    -243.373E-03    -214.049E-03     310.092E-03    -95.8741E-03     254.273E-03    -23.3598E+06    -54.1878E+06    -116.607E+06    -100.123E+06    -70.6712E+06    -23.3598E+06    -24.0775E+06         52.3162
            2033     8.09790E-03     172.636E-03         3.08155        -1.40779        -1.66776        -1.40702         3.08078        -1.66776     35.1800E-03     395.510E-03    -108.405E-03    -287.064E-03    -258.737E-03     367.183E-03    -108.405E-03     271.588E-03     605.833E+03    -39.1064E+06    -99.2665E+06    -88.0239E+06    -50.3489E+06     605.833E+03    -21.7023E+06         56.1560
            2034     8.87203E-03     173.048E-03         2.78000        -1.21865        -1.56205        -1.21814         2.77948        -1.56205     2.28011E-03     451.860E-03    -122.221E-03    -329.371E-03    -302.989E-03     425.478E-03    -122.221E-03     281.432E-03     25.4627E+06    -5.66880E+06    -82.6108E+06    -75.6893E+06    -12.5902E+06     25.4627E+06    -19.2026E+06         60.4355
            2035     9.61960E-03     173.470E-03         2.43011    -998.403E-03        -1.43723    -997.105E-03         2.42881        -1.43723    -62.5694E-03     505.134E-03    -136.667E-03    -367.750E-03    -343.982E-03     481.366E-03    -136.667E-03     283.137E-03     45.2349E+06     22.8000E+06    -68.8021E+06    -63.5051E+06     17.5030E+06     45.2349E+06    -18.7196E+06         64.9093
            2036     10.3320E-03     173.963E-03         2.06801    -784.025E-03        -1.29374    -781.894E-03         2.06588        -1.29374    -152.825E-03     549.846E-03    -151.828E-03    -398.040E-03    -376.920E-03     528.726E-03    -151.828E-03     279.038E-03     67.9583E+06     46.3766E+06    -52.7156E+06    -49.2096E+06     48.2505E+06     62.5784E+06    -14.1098E+06         68.9947
            2037     11.0194E-03     174.540E-03         1.70708    -595.717E-03        -1.13824    -589.008E-03         1.70037        -1.13824    -218.842E-03     582.708E-03    -167.067E-03    -416.113E-03    -397.470E-03     564.065E-03    -167.067E-03     269.667E-03     97.2309E+06     79.5253E+06    -31.6826E+06    -30.1681E+06     91.2418E+06     83.9999E+06    -6.64694E+06         72.3286
            2038     11.7020E-03     175.058E-03         1.33349    -411.670E-03    -981.813E-03    -398.653E-03         1.32047    -981.813E-03    -291.627E-03     604.258E-03    -181.335E-03    -422.623E-03    -406.005E-03     587.640E-03    -181.335E-03     258.529E-03     116.278E+06     103.348E+06    -14.5857E+06    -13.0213E+06     111.303E+06     106.758E+06    -4.58320E+06         75.1675
            2039     12.3758E-03     175.528E-03     960.277E-03    -238.151E-03    -831.324E-03    -219.975E-03     942.100E-03    -831.324E-03    -284.321E-03     613.497E-03    -194.199E-03    -418.997E-03    -405.029E-03     599.529E-03    -194.199E-03     237.633E-03     123.960E+06     95.4028E+06    -10.6762E+06    -6.60364E+06     92.9993E+06     122.291E+06    -3.86572E+06         78.2085
            2040     13.0452E-03     175.964E-03     592.666E-03    -83.1212E-03    -680.658E-03    -54.8734E-03     564.418E-03    -680.658E-03    -253.908E-03     617.439E-03    -205.783E-03    -412.136E-03    -397.646E-03     602.949E-03    -205.783E-03     241.386E-03     126.323E+06     56.4684E+06    -13.5098E+06    -9.64563E+06     52.6043E+06     126.323E+06    -3.84223E+06         81.4958
            2041     13.7162E-03     176.511E-03     304.704E-03    -17.3298E-03    -540.060E-03     106.677E-03     180.697E-03    -540.060E-03    -139.358E-03     605.793E-03    -215.893E-03    -390.264E-03    -379.491E-03     595.020E-03    -215.893E-03     197.159E-03     134.024E+06     48.0336E+06    -30.4393E+06    -10.9722E+06     28.5665E+06     134.024E+06    -3.21055E+06         84.1531
            2042     962.324E-06     172.660E-03         3.43711        -1.68075        -1.75461        -1.68601         3.42782        -1.74007     398.688E-03     85.0879E-03    -41.3443E-03    -43.7337E-03    -42.9679E-03     84.3221E-03    -41.3443E-03     17.6594E-03    -224.718E+06    -374.213E+06    -385.591E+06    -380.266E+06    -230.043E+06    -374.213E+06    -25.8463E+06         37.8105
            2043     1.92184E-03     172.667E-03         3.39550        -1.64974        -1.71159        -1.64867         3.38036        -1.69752     532.806E-03     96.3669E-03    -43.7261E-03    -52.6373E-03    -49.8779E-03     93.6074E-03    -43.7261E-03     38.0086E-03    -189.375E+06    -345.155E+06    -371.124E+06    -357.990E+06    -202.509E+06    -345.155E+06    -43.5750E+06         38.6184
            2044     2.87287E-03     172.715E-03         3.44635        -1.65865        -1.73775        -1.70040         3.42627        -1.67592     629.090E-03     116.505E-03    -47.6951E-03    -68.8087E-03    -62.2673E-03     109.963E-03    -47.6951E-03     66.8687E-03    -157.399E+06    -291.333E+06    -336.408E+06    -315.050E+06    -178.757E+06    -291.333E+06    -55.2451E+06         39.8615
            2045     3.80786E-03     172.820E-03         3.47580        -1.66334        -1.75417        -1.73153         3.45315        -1.66334     659.340E-03     146.146E-03    -53.3082E-03    -92.8311E-03    -80.9418E-03     134.256E-03    -53.3082E-03     103.103E-03    -133.285E+06    -233.531E+06    -298.702E+06    -263.248E+06    -168.739E+06    -233.531E+06    -62.8708E+06         41.5416
            2046     4.72514E-03     172.959E-03         3.42966        -1.63751        -1.71718        -1.69478         3.40974        -1.63998     609.994E-03     186.090E-03    -60.5959E-03    -125.378E-03    -107.585E-03     168.297E-03    -60.5959E-03     144.201E-03    -104.986E+06    -186.792E+06    -253.086E+06    -211.163E+06    -146.909E+06    -186.792E+06    -64.2063E+06         43.6693
            2047     5.61542E-03     173.130E-03         3.34760        -1.58786        -1.66182        -1.63529         3.33183        -1.59863     529.742E-03     235.639E-03    -69.9116E-03    -165.538E-03    -143.004E-03     213.105E-03    -69.9116E-03     184.423E-03    -69.9445E+06    -134.859E+06    -204.955E+06    -167.732E+06    -110.143E+06    -131.883E+06    -57.9250E+06         46.2397
            2048     6.47342E-03     173.396E-03         3.20837        -1.49604        -1.58237        -1.53120         3.19682        -1.53566     420.688E-03     292.194E-03    -81.3420E-03    -210.740E-03    -185.716E-03     267.169E-03    -81.3420E-03     218.134E-03    -49.2797E+06    -78.9952E+06    -168.140E+06    -136.547E+06    -88.3413E+06    -71.5265E+06    -46.9471E+06         49.2355
            2049     7.30172E-03     173.701E-03         3.00519        -1.37894        -1.47125        -1.39465         2.99641        -1.44677     343.086E-03     351.564E-03    -94.5777E-03    -257.102E-03    -232.131E-03     326.593E-03    -94.5777E-03     240.459E-03    -27.2376E+06    -46.9276E+06    -139.584E+06    -112.645E+06    -73.8659E+06    -27.2376E+06    -40.1599E+06         52.6265
            2050     8.09066E-03     174.136E-03         2.74835        -1.23773        -1.34072        -1.23937         2.74315        -1.33388     243.057E-03     410.229E-03    -109.285E-03    -301.130E-03    -277.954E-03     387.053E-03    -109.285E-03     251.213E-03     2.12979E+06    -32.0012E+06    -119.243E+06    -90.1809E+06    -61.0636E+06     2.12979E+06    -37.0987E+06         56.3708
            2051     8.85231E-03     174.570E-03         2.43315        -1.05290        -1.19873        -1.05106         2.43131        -1.19873     138.101E-03     465.274E-03    -125.086E-03    -340.346E-03    -319.891E-03     444.819E-03    -125.086E-03     251.527E-03     27.1302E+06    -6.83393E+06    -89.1975E+06    -69.1988E+06    -26.8326E+06     27.1302E+06    -29.1805E+06         60.3966
            2052     9.57901E-03     175.097E-03         2.08226    -850.383E-03        -1.04264    -849.218E-03         2.08110        -1.04264    -3.69116E-03     513.420E-03    -141.188E-03    -371.978E-03    -354.542E-03     495.984E-03    -141.188E-03     243.954E-03     50.8578E+06     15.6745E+06    -58.2939E+06    -51.4217E+06     8.80225E+06     50.8578E+06    -21.2268E+06         64.3219
            2053     10.2813E-03     175.679E-03         1.71997    -658.352E-03    -873.315E-03    -656.866E-03         1.71848    -873.315E-03    -114.568E-03     547.941E-03    -157.001E-03    -390.800E-03    -375.805E-03     532.947E-03    -157.001E-03     233.340E-03     71.6466E+06     42.7080E+06    -40.3425E+06    -35.2452E+06     37.6108E+06     71.6466E+06    -19.7952E+06         67.6488
            2054     10.9725E-03     176.226E-03         1.34850    -479.672E-03    -699.836E-03    -474.234E-03         1.34306    -699.836E-03    -170.098E-03     568.062E-03    -171.778E-03    -396.901E-03    -383.572E-03     554.733E-03    -171.778E-03     223.812E-03     89.3629E+06     71.0468E+06    -31.5442E+06    -24.8691E+06     66.2430E+06     87.4916E+06    -20.6185E+06         70.3855
            2055     11.6565E-03     176.756E-03     973.038E-03    -309.740E-03    -530.108E-03    -307.082E-03     964.202E-03    -523.930E-03    -186.991E-03     581.158E-03    -185.132E-03    -396.421E-03    -383.988E-03     568.725E-03    -185.132E-03     218.610E-03     111.874E+06     93.6294E+06    -28.8458E+06    -23.8871E+06     90.5420E+06     110.002E+06    -10.8563E+06         72.9783
            2056     12.3373E-03     177.305E-03     601.681E-03    -145.504E-03    -378.830E-03    -167.236E-03     592.073E-03    -347.491E-03    -134.113E-03     590.992E-03    -197.123E-03    -393.851E-03    -381.845E-03     578.986E-03    -197.123E-03     215.987E-03     127.513E+06     91.2984E+06    -26.4197E+06    -23.8393E+06     88.7180E+06     127.513E+06    -1.51714E+06         75.9606
            2057     13.0109E-03     177.812E-03     317.581E-03    -33.9922E-03    -278.893E-03    -46.8985E-03     226.775E-03    -175.180E-03    -94.4261E-03     597.715E-03    -207.742E-03    -390.424E-03    -376.689E-03     583.980E-03    -207.742E-03     230.604E-03     141.098E+06     64.9161E+06    -14.8741E+06    -12.4477E+06     62.4897E+06     141.098E+06     3.78346E+06         79.0765
            2058     13.6935E-03     178.318E-03     222.647E-03    -22.5057E-03    -289.849E-03     57.5594E-03    -115.516E-03    -31.7523E-03    -22.4888E-03     588.432E-03    -216.836E-03    -371.984E-03    -361.603E-03     578.051E-03    -216.836E-03     191.892E-03     162.491E+06     64.6619E+06    -28.7368E+06     1.05909E+06     34.8661E+06     162.491E+06     3.42928E+06         81.5043
            2059     954.436E-06     173.762E-03         2.74732        -1.33375        -1.39793        -1.34481         2.73530        -1.37485     373.696E-03     104.283E-03    -51.4071E-03    -52.8536E-03    -52.5388E-03     104.095E-03    -51.5331E-03     5.10694E-03    -162.209E+06    -274.854E+06    -289.553E+06    -280.578E+06    -171.184E+06    -274.854E+06    -30.3704E+06         38.3674
            2060     1.90460E-03     173.774E-03         2.83451        -1.35632        -1.43072        -1.39509         2.80276        -1.36020     686.859E-03     111.366E-03    -53.2322E-03    -58.1141E-03    -57.3645E-03     110.616E-03    -53.2322E-03     13.4628E-03    -128.659E+06    -256.009E+06    -295.663E+06    -273.839E+06    -150.483E+06    -256.009E+06    -55.6335E+06         39.1461
            2061     2.84885E-03     173.848E-03         2.89630        -1.35482        -1.45451        -1.40293         2.84471        -1.35482     881.251E-03     124.238E-03    -56.2827E-03    -67.9935E-03    -65.8261E-03     122.070E-03    -56.2827E-03     29.9503E-03    -102.234E+06    -238.320E+06    -302.409E+06    -265.942E+06    -138.702E+06    -238.320E+06    -76.8337E+06         40.3752
            2062     3.78377E-03     173.962E-03         2.93849        -1.33625        -1.46848        -1.41125         2.88126        -1.33625     961.138E-03     146.058E-03    -60.8049E-03    -85.2674E-03    -80.4403E-03     141.231E-03    -60.8049E-03     55.9352E-03    -81.0214E+06    -218.377E+06    -306.831E+06    -252.630E+06    -135.223E+06    -218.377E+06    -95.1615E+06         42.0463
            2063     4.70261E-03     174.110E-03         2.97367        -1.30437        -1.47879        -1.42730         2.92218        -1.30437     919.228E-03     180.541E-03    -67.3224E-03    -113.198E-03    -104.637E-03     171.981E-03    -67.3224E-03     90.0718E-03    -61.5129E+06    -198.537E+06    -300.010E+06    -231.850E+06    -129.673E+06    -198.537E+06    -106.792E+06         44.1535
            2064     5.59324E-03     174.374E-03         2.93541        -1.25328        -1.44219        -1.39483         2.88805        -1.25328     865.732E-03     229.165E-03    -76.5092E-03    -152.554E-03    -140.335E-03     216.945E-03    -76.5092E-03     126.908E-03    -44.2997E+06    -163.816E+06    -274.669E+06    -202.385E+06    -116.584E+06    -163.816E+06    -105.199E+06         46.6715
            2065     6.44945E-03     174.642E-03         2.80895        -1.17279        -1.34454        -1.30713         2.77154        -1.17279     749.289E-03     287.713E-03    -88.5641E-03    -199.081E-03    -184.742E-03     273.373E-03    -88.5641E-03     157.653E-03    -40.1039E+06    -117.937E+06    -238.926E+06    -168.854E+06    -111.895E+06    -116.219E+06    -92.6581E+06         49.5478
            2066     7.25640E-03     175.107E-03         2.60060        -1.05980        -1.19951        -1.17293         2.57403        -1.05980     612.772E-03     348.736E-03    -102.982E-03    -245.743E-03    -231.371E-03     334.364E-03    -102.982E-03     175.585E-03    -21.4666E+06    -81.5654E+06    -202.378E+06    -136.667E+06    -95.8866E+06    -72.8563E+06    -83.1572E+06         52.7027
            2067     8.03300E-03     175.552E-03         2.31126    -908.207E-03        -1.02088    -993.864E-03         2.29509    -919.045E-03     436.406E-03     408.356E-03    -118.997E-03    -289.299E-03    -276.508E-03     395.565E-03    -118.997E-03     179.315E-03     2.37194E+06    -60.9770E+06    -179.424E+06    -111.615E+06    -84.3040E+06    -42.1100E+06    -78.5404E+06         56.0147
            2068     8.76843E-03     176.099E-03         1.97746    -729.623E-03    -826.990E-03    -796.570E-03         1.96900    -751.582E-03     275.143E-03     461.667E-03    -136.047E-03    -325.708E-03    -315.136E-03     451.096E-03    -136.047E-03     172.869E-03     14.9493E+06    -47.3518E+06    -161.929E+06    -93.8688E+06    -75.6104E+06    -24.8528E+06    -73.2666E+06         59.2998
            2069     9.47363E-03     176.701E-03         1.63209    -535.208E-03    -649.651E-03    -611.517E-03         1.62177    -563.019E-03     186.743E-03     502.351E-03    -153.043E-03    -349.255E-03    -340.520E-03     493.615E-03    -153.043E-03     164.771E-03     32.0491E+06    -14.6905E+06    -131.297E+06    -77.6378E+06    -45.7331E+06     9.43257E+06    -64.0256E+06         62.2987
            2070     10.1660E-03     177.281E-03         1.28066    -331.795E-03    -496.503E-03    -445.958E-03         1.26523    -366.913E-03     156.933E-03     526.391E-03    -168.524E-03    -357.639E-03    -349.833E-03     518.585E-03    -168.524E-03     161.750E-03     60.0297E+06     33.3718E+06    -99.1961E+06    -63.8597E+06     628.440E+03     57.4367E+06    -54.8652E+06         64.8918
            2071     10.8635E-03     177.823E-03     930.447E-03    -132.950E-03    -366.683E-03    -309.965E-03     908.664E-03    -167.885E-03     153.143E-03     538.822E-03    -181.847E-03    -357.207E-03    -349.268E-03     530.882E-03    -181.847E-03     166.612E-03     93.0964E+06     46.4513E+06    -74.9427E+06    -56.4571E+06     27.9658E+06     93.0964E+06    -39.7109E+06         67.2286
            2072     11.5668E-03     178.390E-03     639.403E-03     3.10597E-03    -244.881E-03    -192.958E-03     552.633E-03     37.9524E-03     150.899E-03     545.865E-03    -193.345E-03    -353.024E-03    -344.449E-03     537.290E-03    -193.345E-03     173.978E-03     118.838E+06     47.3756E+06    -52.7419E+06    -47.5549E+06     42.1886E+06     118.838E+06    -18.4640E+06         69.6478
            2073     12.2674E-03     179.011E-03     486.398E-03     51.5010E-03    -186.202E-03    -107.879E-03     216.530E-03     243.046E-03     188.435E-03     549.067E-03    -203.374E-03    -345.867E-03    -336.498E-03     539.698E-03    -203.374E-03     181.287E-03     141.865E+06     76.4414E+06    -33.1807E+06    -31.6591E+06     74.9198E+06     141.865E+06    -8.47508E+06         72.4568
            2074     12.9816E-03     179.582E-03     483.893E-03     8.61550E-03    -218.424E-03    -77.7877E-03    -79.1097E-03     430.982E-03     167.954E-03     552.501E-03    -211.752E-03    -340.954E-03    -329.195E-03     540.742E-03    -211.752E-03     202.283E-03     146.466E+06     68.5469E+06    -28.8780E+06    -18.0310E+06     57.6998E+06     146.466E+06    -11.3685E+06         75.4193
            2075     13.6925E-03     180.104E-03     568.047E-03    -38.2066E-03    -369.436E-03    -58.8709E-03    -348.772E-03     568.047E-03     116.794E-03     549.256E-03    -218.506E-03    -331.032E-03    -321.680E-03     539.904E-03    -218.506E-03     175.274E-03     162.972E+06     58.3635E+06    -45.7740E+06    -9.98089E+06     22.5704E+06     162.972E+06    -2.38823E+06         77.8724
            2076     928.366E-06     174.902E-03         1.96398    -976.912E-03        -1.03437        -1.00310         1.94113    -985.337E-03     403.102E-03     159.094E-03    -78.9219E-03    -80.1250E-03    -79.5714E-03     158.823E-03    -79.2047E-03    -12.8752E-03    -95.5349E+06    -167.719E+06    -180.738E+06    -170.076E+06    -106.197E+06    -167.719E+06    -27.3275E+06         39.4879
            2077     1.85501E-03     174.936E-03         2.06067    -989.965E-03        -1.08398        -1.02559         2.00228    -989.965E-03     808.130E-03     164.925E-03    -80.7691E-03    -84.0945E-03    -83.2871E-03     164.118E-03    -80.7691E-03    -22.2649E-03    -71.1897E+06    -158.911E+06    -191.993E+06    -169.595E+06    -93.5881E+06    -158.911E+06    -46.2301E+06         40.2168
            2078     2.77426E-03     175.007E-03         2.17588    -980.467E-03        -1.12124        -1.02591         2.08056    -980.467E-03         1.08318     174.832E-03    -83.9854E-03    -90.8773E-03    -89.2480E-03     173.203E-03    -83.9854E-03    -28.1924E-03    -46.1773E+06    -139.766E+06    -202.074E+06    -164.291E+06    -83.9600E+06    -139.766E+06    -66.1255E+06         41.3965
            2079     3.68739E-03     175.102E-03         2.30313    -956.225E-03        -1.16871        -1.04266         2.17708    -956.225E-03         1.25105     190.108E-03    -88.7888E-03    -101.299E-03    -98.5003E-03     187.310E-03    -88.7888E-03    -28.5487E-03    -29.8280E+06    -122.104E+06    -212.900E+06    -157.435E+06    -85.2936E+06    -122.104E+06    -83.4467E+06         43.0086
            2080     4.58106E-03     175.312E-03         2.38329    -916.290E-03        -1.18826        -1.05853         2.25355    -916.290E-03         1.27402     212.977E-03    -95.5352E-03    -117.256E-03    -113.104E-03     208.825E-03    -95.5352E-03    -21.8282E-03    -21.3586E+06    -110.643E+06    -221.907E+06    -153.534E+06    -89.7317E+06    -110.643E+06    -94.9516E+06         45.0072
            2081     5.45290E-03     175.550E-03         2.37510    -851.508E-03        -1.13561        -1.02775         2.26724    -851.508E-03         1.16995     245.004E-03    -104.937E-03    -139.873E-03    -134.496E-03     239.627E-03    -104.937E-03    -10.0745E-03    -14.8264E+06    -107.685E+06    -230.487E+06    -152.307E+06    -93.0063E+06    -107.685E+06    -103.174E+06         47.3231
            2082     6.28610E-03     175.952E-03         2.27206    -752.796E-03        -1.02986    -939.210E-03         2.18141    -752.796E-03         1.03134     284.178E-03    -117.162E-03    -166.952E-03    -160.544E-03     277.770E-03    -117.162E-03    -815.008E-06    -18.2812E+06    -106.267E+06    -236.403E+06    -147.520E+06    -107.164E+06    -106.267E+06    -106.050E+06         49.8624
            2083     7.08194E-03     176.407E-03         2.08372    -619.591E-03    -880.934E-03    -804.989E-03         2.00777    -619.591E-03     876.571E-03     328.308E-03    -131.698E-03    -196.603E-03    -189.526E-03     321.231E-03    -131.698E-03     684.008E-06    -9.50209E+06    -90.0040E+06    -227.116E+06    -137.615E+06    -99.0031E+06    -90.0040E+06    -106.176E+06         52.5152
            2084     7.84196E-03     176.930E-03         1.81497    -449.723E-03    -692.926E-03    -620.181E-03         1.74222    -449.723E-03     733.747E-03     372.147E-03    -148.034E-03    -224.139E-03    -216.723E-03     364.730E-03    -148.034E-03    -6.80314E-03    -3.15255E+06    -68.5136E+06    -214.132E+06    -126.760E+06    -90.5242E+06    -68.5136E+06    -103.140E+06         55.1581
            2085     8.55870E-03     177.549E-03         1.53356    -242.595E-03    -547.367E-03    -444.058E-03         1.43025    -242.595E-03     723.952E-03     406.727E-03    -160.038E-03    -246.700E-03    -234.959E-03     399.824E-03    -164.877E-03    -12.6502E-03     754.432E+03    -49.0581E+06    -204.196E+06    -113.708E+06    -89.7330E+06    -49.0581E+06    -100.856E+06         57.6419
            2086     9.25678E-03     178.184E-03         1.24600    -14.9297E-03    -445.777E-03    -304.392E-03         1.10462    -14.9297E-03     759.120E-03     429.369E-03    -166.232E-03    -263.056E-03    -244.210E-03     424.264E-03    -179.973E-03    -1.41877E-03     9.14983E+06    -20.6835E+06    -190.984E+06    -102.497E+06    -82.3272E+06    -17.6937E+06     -96.904E+06         59.9162
            2087     9.96909E-03     178.779E-03     951.800E-03     215.234E-03    -369.538E-03    -200.597E-03     782.859E-03     215.234E-03     732.234E-03     444.247E-03    -173.535E-03    -270.519E-03    -248.465E-03     440.720E-03    -192.063E-03     24.3430E-03     27.1790E+06     13.9234E+06    -162.322E+06    -93.7721E+06    -52.0332E+06     24.5859E+06    -84.9727E+06         62.0711
            2088     10.6926E-03     179.369E-03     772.773E-03     342.425E-03    -333.858E-03    -128.934E-03     460.540E-03     449.735E-03     669.822E-03     454.756E-03    -181.086E-03    -273.749E-03    -249.788E-03     451.589E-03    -201.880E-03     53.1209E-03     64.4371E+06     18.5552E+06    -128.788E+06    -76.2115E+06    -34.0213E+06     64.4371E+06    -62.6532E+06         64.1638
            2089     11.4059E-03     180.043E-03     770.155E-03     313.810E-03    -333.301E-03    -75.7686E-03     137.699E-03     688.734E-03     599.127E-03     461.988E-03    -188.208E-03    -274.049E-03    -248.908E-03     458.540E-03    -209.901E-03     80.3790E-03     94.9580E+06     13.0928E+06    -91.0862E+06    -53.1642E+06    -24.8291E+06     94.9580E+06    -39.5634E+06         66.3119
            2090     12.1316E-03     180.647E-03     909.489E-03     188.666E-03    -403.619E-03    -79.7516E-03    -135.202E-03     909.489E-03     556.847E-03     467.993E-03    -198.263E-03    -269.748E-03    -247.676E-03     463.684E-03    -216.027E-03     105.485E-03     133.987E+06     55.0520E+06    -50.8122E+06    -30.2723E+06     34.5121E+06     133.987E+06    -27.6419E+06         68.7876
            2091     12.8698E-03     181.212E-03         1.09032     18.2670E-03    -497.810E-03    -125.634E-03    -353.909E-03         1.09032     446.741E-03     469.139E-03    -203.717E-03    -265.455E-03    -241.172E-03     461.238E-03    -220.100E-03     145.644E-03     162.886E+06     75.9052E+06    -46.8862E+06    -21.7879E+06     50.8069E+06     162.886E+06    -7.99749E+06         71.7804
            2092     13.6333E-03     181.733E-03         1.20985    -145.180E-03    -565.263E-03    -198.353E-03    -512.090E-03         1.20985     267.345E-03     477.995E-03    -213.122E-03    -265.052E-03    -244.878E-03     466.964E-03    -222.265E-03     171.516E-03     172.368E+06     66.6521E+06    -58.4925E+06    -14.0028E+06     22.1625E+06     172.368E+06     2.08659E+06         74.7648
            2093     886.520E-06     176.122E-03         1.16527    -701.688E-03    -764.364E-03    -706.315E-03         1.14394    -738.412E-03     369.970E-03     259.350E-03    -128.431E-03    -130.887E-03    -129.631E-03     258.251E-03    -128.588E-03    -37.9632E-03    -33.1637E+06    -62.1683E+06    -82.6938E+06    -66.8923E+06    -48.9652E+06    -62.1683E+06    -20.5647E+06         41.2257
            2094     1.76823E-03     176.148E-03         1.22473    -681.156E-03    -745.309E-03    -673.675E-03         1.17969    -707.747E-03     564.366E-03     269.266E-03    -131.795E-03    -137.573E-03    -133.956E-03     265.649E-03    -131.795E-03    -73.1796E-03    -18.7641E+06    -57.6180E+06    -94.5247E+06    -70.3676E+06    -42.9212E+06    -57.6180E+06    -34.2351E+06         41.9541
            2095     2.64232E-03     176.218E-03         1.29518    -619.782E-03    -743.250E-03    -594.995E-03         1.19935    -672.205E-03     820.238E-03     286.953E-03    -137.407E-03    -149.794E-03    -141.244E-03     278.403E-03    -137.407E-03    -116.538E-03    -3.75842E+06    -45.6590E+06    -104.396E+06    -72.2730E+06    -35.8814E+06    -45.6590E+06    -46.2019E+06         43.1197
            2096     3.49572E-03     176.369E-03         1.42812    -557.307E-03    -747.799E-03    -516.885E-03         1.25908    -619.182E-03         1.11400     308.295E-03    -145.453E-03    -162.882E-03    -146.521E-03     291.934E-03    -145.453E-03    -165.285E-03     859.410E+03    -39.7914E+06    -116.242E+06    -78.3043E+06    -40.3785E+06    -36.4917E+06    -53.3362E+06         44.6798
            2097     4.33432E-03     176.534E-03         1.57117    -516.833E-03    -712.879E-03    -443.463E-03         1.33276    -547.836E-03         1.29943     328.470E-03    -155.358E-03    -173.032E-03    -146.277E-03     301.715E-03    -155.358E-03    -212.157E-03     394.990E+03    -35.4889E+06    -127.126E+06    -83.0218E+06    -47.0085E+06    -32.1892E+06    -59.1786E+06         46.5303
            2098     5.14348E-03     176.834E-03         1.66177    -448.458E-03    -656.111E-03    -347.779E-03         1.35344    -448.458E-03         1.37912     346.027E-03    -167.387E-03    -178.756E-03    -139.646E-03     307.026E-03    -167.497E-03    -251.860E-03     7.44076E+06    -35.0471E+06    -133.839E+06    -85.9267E+06    -47.1996E+06    -28.3194E+06    -64.1074E+06         48.5472
            2099     5.91165E-03     177.233E-03         1.70274    -314.236E-03    -622.122E-03    -242.852E-03         1.32347    -314.236E-03         1.45893     360.818E-03    -173.510E-03    -187.269E-03    -127.926E-03     309.538E-03    -181.573E-03    -281.815E-03     11.4374E+06    -37.1946E+06    -139.663E+06    -84.1155E+06    -58.6256E+06    -22.6793E+06    -65.8553E+06         50.6020
            2100     6.66504E-03     177.669E-03         1.69337    -141.164E-03    -608.828E-03    -140.086E-03         1.22463    -141.164E-03         1.55504     370.398E-03    -168.090E-03    -202.016E-03    -113.710E-03     310.593E-03    -196.591E-03    -294.985E-03     18.3128E+06    -34.0360E+06    -138.193E+06    -80.7544E+06    -62.3624E+06    -10.7995E+06    -64.5598E+06         52.5985
            2101     7.36734E-03     178.231E-03         1.59124     80.1828E-03    -594.334E-03    -29.5594E-03         1.02646     80.1828E-03         1.63000     371.564E-03    -156.444E-03    -215.247E-03    -99.1652E-03     311.171E-03    -212.132E-03    -287.310E-03     31.7069E+06    -16.1474E+06    -128.619E+06    -71.3742E+06    -52.5131E+06     10.8279E+06    -64.6911E+06         54.4828
            2102     8.04833E-03     178.847E-03         1.43808     338.182E-03    -607.874E-03     45.0097E-03     785.200E-03     338.182E-03         1.70394     364.468E-03    -138.840E-03    -225.816E-03    -87.1921E-03     312.568E-03    -225.563E-03    -258.121E-03     43.5505E+06    -3.80849E+06    -114.427E+06    -62.6059E+06    -45.6194E+06     33.5400E+06    -58.7759E+06         56.2794
            2103     8.76821E-03     179.448E-03         1.25055     601.593E-03    -625.743E-03     68.2875E-03     556.523E-03     601.593E-03         1.68421     352.365E-03    -117.773E-03    -234.213E-03    -78.6203E-03     313.213E-03    -234.213E-03    -210.491E-03     53.4787E+06     6.08066E+06    -108.076E+06    -57.3168E+06    -40.4520E+06     49.2517E+06    -57.0606E+06         58.1310
            2104     9.52970E-03     180.045E-03         1.08353     794.668E-03    -627.526E-03     63.1792E-03     328.560E-03     858.938E-03         1.55728     340.107E-03    -100.509E-03    -239.330E-03    -73.1191E-03     312.718E-03    -239.330E-03    -156.780E-03     56.6565E+06     7.40882E+06    -106.391E+06    -55.8923E+06    -43.0904E+06     56.6565E+06    -50.3720E+06         60.0951
            2105     10.2874E-03     180.700E-03         1.14062     739.601E-03    -647.547E-03     43.4365E-03     68.9314E-03         1.12031         1.37518     328.515E-03    -85.8131E-03    -242.591E-03    -68.0282E-03     310.730E-03    -242.591E-03    -105.813E-03     72.0923E+06     16.3017E+06    -102.897E+06    -48.4669E+06    -38.1287E+06     72.0923E+06    -51.5525E+06         62.0728
            2106     11.0467E-03     181.407E-03         1.37570     486.811E-03    -679.668E-03    -9.45736E-03    -183.400E-03         1.37570         1.14610     318.544E-03    -74.3180E-03    -244.110E-03    -64.4047E-03     308.631E-03    -244.110E-03    -54.3413E-03     87.0860E+06     16.1219E+06    -112.928E+06    -46.1966E+06    -50.6097E+06     87.0860E+06    -42.4898E+06         64.0752
            2107     11.8501E-03     182.083E-03         1.59175     232.052E-03    -728.314E-03    -106.552E-03    -389.710E-03         1.59175     914.696E-03     316.459E-03    -73.4921E-03    -243.002E-03    -69.2515E-03     312.219E-03    -243.002E-03    -2.48357E-03     125.566E+06     40.9044E+06    -86.3909E+06    -36.0264E+06    -9.46011E+06     125.566E+06    -38.9019E+06         66.5082
            2108     12.6785E-03     182.683E-03         1.74814    -18.5594E-03    -750.945E-03    -212.391E-03    -557.113E-03         1.74814     636.749E-03     326.294E-03    -86.7380E-03    -239.697E-03    -78.3600E-03     317.915E-03    -239.697E-03     18.6912E-03     148.108E+06     65.1551E+06    -88.5321E+06    -19.2768E+06    -4.10025E+06     148.108E+06    -5.73238E+06         69.8320
            2109     13.5740E-03     183.156E-03         1.82869    -271.694E-03    -702.599E-03    -340.954E-03    -633.339E-03         1.82869     309.950E-03     312.249E-03    -75.7510E-03    -236.662E-03    -66.4705E-03     300.139E-03    -233.832E-03     64.2756E-03     155.956E+06     87.6222E+06    -81.7043E+06     3.98213E+06     1.93576E+06     155.956E+06     9.81537E+06         73.4863


