********************************************************************************
Field Output Report, written Tue May  6 15:41:38 2025

Source 1
---------

   ODB: D:/AISI_1020/Vel_20/1020_2a_8_rd_1500_cal_100_v_20_f_050.odb
   Step: Step-1
   Frame: Increment   7226579: Step Time =   0.8763

Loc 1 : Nodal values from source 1

Output sorted by column "Node Label".

Field Output reported at nodes for region: DIE_2A_8_D0_36-1.Region_1
   Computation algorithm: EXTRAPOLATE_COMPUTE_AVERAGE
   Averaged at nodes
   Averaging regions: ODB_REGIONS

      Node Label     COORD.COOR1     COORD.COOR2
                          @Loc 1          @Loc 1
-------------------------------------------------
               1     16.3673E-03     226.760E-03


Field Output reported at nodes for region: DIE_2A_8_D0_36-1.Region_2
   Computation algorithm: EXTRAPOLATE_COMPUTE_AVERAGE
   Averaged at nodes
   Averaging regions: ODB_REGIONS

      Node Label     COORD.COOR1     COORD.COOR2
                          @Loc 1          @Loc 1
-------------------------------------------------
               1     16.3673E-03     226.760E-03


Field Output reported at nodes for part: WIRE_1-1
   Computation algorithm: EXTRAPOLATE_COMPUTE_AVERAGE
   Averaged at nodes
   Averaging regions: ODB_REGIONS

      Node Label     COORD.COOR1     COORD.COOR2    ER.Max. Prin    ER.Mid. Prin    ER.Min. Prin         ER.ER11         ER.ER22         ER.ER33         ER.ER12    PE.Max. Prin    PE.Mid. Prin    PE.Min. Prin         PE.PE11         PE.PE22         PE.PE33         PE.PE12     S.Max. Prin     S.Mid. Prin     S.Min. Prin           S.S11           S.S22           S.S33           S.S12            TEMP
                          @Loc 1          @Loc 1          @Loc 1          @Loc 1          @Loc 1          @Loc 1          @Loc 1          @Loc 1          @Loc 1          @Loc 1          @Loc 1          @Loc 1          @Loc 1          @Loc 1          @Loc 1          @Loc 1          @Loc 1          @Loc 1          @Loc 1          @Loc 1          @Loc 1          @Loc 1          @Loc 1          @Loc 1
-----------------------------------------------------------------------------------------------------------------------------------------------------------------------------------------------------------------------------------------------------------------------------------------------------------------------------------------------------------------------------------------------------------------
               1     15.2807E-03     76.7923E-03     71.5870E-03     56.0469E-03    -196.686E-03     55.5707E-03    -196.210E-03     71.5870E-03    -9.38338E-03     331.660E-03    -164.170E-03    -167.599E-03    -165.867E-03     330.415E-03    -164.657E-03     49.6932E-03     146.415E+06     99.3692E+06    -8.21149E+06    -8.17128E+06     99.3289E+06     146.415E+06    -2.04147E+06         70.0582
               2    -1.91895E-06     76.1931E-03     339.436E-03    -136.143E-03    -279.939E-03     276.676E-03    -217.179E-03    -136.143E-03    -373.650E-03     328.140E-03    -163.715E-03    -164.433E-03    -163.996E-03     328.135E-03    -164.147E-03     2.26629E-03    -126.895E+06    -132.977E+06    -291.777E+06    -128.218E+06    -291.742E+06    -131.689E+06     1.60192E+06         45.4967
               3     76.9375E-09    -536.442E-09     135.229E-03    -38.0159E-03    -159.106E-03     93.1666E-03     4.04631E-03    -159.106E-03     148.564E-03     370.613E-03    -184.679E-03    -185.963E-03    -185.961E-03     370.611E-03    -184.679E-03     1.76952E-03    -78.4943E+06    -83.4155E+06    -287.091E+06    -78.4944E+06    -287.091E+06    -83.4155E+06    -168.556E+03         48.8001
               4     15.1796E-03    -536.442E-09     51.1492E-03     13.3853E-03    -137.988E-03     51.1488E-03    -137.988E-03     13.3853E-03     524.575E-06     423.839E-03    -167.047E-03    -256.252E-03    -254.826E-03     422.413E-03    -167.047E-03     62.2238E-03     113.710E+06     60.2139E+06    -35.7125E+06    -35.5537E+06     60.0552E+06     113.710E+06    -3.89854E+06         73.7472
               5     15.3090E-03     153.384E-03     12.1466E-03     3.21032E-03    -24.6141E-03    -21.7058E-03     9.23834E-03     3.21032E-03     19.8446E-03     273.638E-03    -109.468E-03    -164.450E-03    -109.406E-03     273.576E-03    -164.450E-03     9.73470E-03     122.121E+06     43.1476E+06    -23.2641E+06    -20.3847E+06     40.2682E+06     122.121E+06    -13.5253E+06         82.3429
               6     7.09619E-06     151.947E-03     50.1827E-03     30.9581E-03    -76.6105E-03    -69.1369E-03     42.7091E-03     30.9581E-03     59.7243E-03     377.464E-03    -185.273E-03    -192.205E-03    -192.077E-03     377.337E-03    -185.273E-03    -17.0271E-03     62.7165E+06     62.2997E+06    -17.2519E+06     61.1626E+06    -16.1147E+06     62.7165E+06    -9.44286E+06         48.2179
               7     14.4391E-03     76.7098E-03     71.9472E-03     56.0387E-03    -196.479E-03     55.6852E-03    -196.126E-03     71.9472E-03    -12.1887E-03     330.375E-03    -163.424E-03    -167.121E-03    -164.098E-03     328.487E-03    -164.559E-03     59.7442E-03     135.009E+06     92.0299E+06    -9.13924E+06    -8.97647E+06     91.8671E+06     135.009E+06    -3.24030E+06         68.5339
               8     13.5867E-03     76.6337E-03     72.7638E-03     54.9421E-03    -194.949E-03     54.8019E-03    -194.808E-03     72.7638E-03    -4.32914E-03     328.305E-03    -162.811E-03    -165.692E-03    -161.944E-03     326.229E-03    -164.484E-03     63.0374E-03     109.280E+06     78.7269E+06    -11.4700E+06    -10.7730E+06     78.0298E+06     109.280E+06    -825.662E+03         64.9339
               9     12.7287E-03     76.5674E-03     73.9071E-03     51.5705E-03    -192.693E-03     51.5450E-03    -192.667E-03     73.9071E-03     2.75621E-03     327.556E-03    -163.116E-03    -164.691E-03    -161.836E-03     326.159E-03    -164.573E-03     51.8046E-03     82.7039E+06     64.5319E+06    -16.5752E+06    -14.4588E+06     63.9045E+06     81.2150E+06     5.95652E+06         60.8120
              10     11.8780E-03     76.5088E-03     75.3602E-03     52.8135E-03    -195.888E-03     52.4899E-03    -195.564E-03     75.3602E-03    -12.8666E-03     327.657E-03    -163.243E-03    -164.700E-03    -162.175E-03     326.590E-03    -164.700E-03     44.9977E-03     56.4987E+06     39.5984E+06    -35.8544E+06    -33.9438E+06     44.2194E+06     49.9670E+06     2.09837E+06         56.9792
              11     11.0284E-03     76.4599E-03     76.7733E-03     58.7459E-03    -203.894E-03     58.1475E-03    -203.296E-03     76.7733E-03    -10.0128E-03     328.759E-03    -163.823E-03    -165.316E-03    -163.422E-03     327.917E-03    -164.876E-03     40.2459E-03     45.9623E+06     30.8288E+06    -50.4545E+06    -49.9775E+06     35.3946E+06     40.9195E+06    -1.48483E+06         53.6800
              12     10.1816E-03     76.4046E-03     78.1842E-03     59.4827E-03    -206.385E-03     58.3377E-03    -205.240E-03     78.1842E-03     5.60172E-03     329.853E-03    -164.359E-03    -165.768E-03    -164.686E-03     329.267E-03    -164.855E-03     33.7656E-03     45.4492E+06     37.5643E+06    -53.3139E+06    -53.0158E+06     37.2663E+06     45.4492E+06     3.24034E+06         50.9415
              13     9.33511E-03     76.3657E-03     80.0413E-03     68.9174E-03    -215.874E-03     66.7377E-03    -213.138E-03     79.4848E-03    -29.0463E-03     329.055E-03    -163.824E-03    -165.191E-03    -163.903E-03     328.661E-03    -164.719E-03     27.7827E-03     37.4827E+06     16.0182E+06    -59.1261E+06    -58.8311E+06     15.7232E+06     37.4827E+06     3.74891E+06         48.7914
              14     8.48402E-03     76.3327E-03     87.7986E-03     79.6915E-03    -233.364E-03     83.8578E-03    -229.503E-03     79.7715E-03    -15.4928E-03     328.600E-03    -163.521E-03    -164.755E-03    -163.285E-03     328.319E-03    -164.710E-03     23.3180E-03     26.0426E+06    -24.1869E+06    -64.2059E+06    -62.7758E+06    -25.6170E+06     26.0426E+06     4.06771E+06         47.2660
              15     7.63412E-03     76.3068E-03     91.0381E-03     77.3200E-03    -234.788E-03     86.7842E-03    -232.237E-03     79.0238E-03     34.0261E-03     329.487E-03    -164.018E-03    -165.111E-03    -164.253E-03     329.283E-03    -164.672E-03     19.9883E-03     5.90300E+06    -61.8921E+06    -82.8952E+06    -73.0323E+06    -71.7550E+06     5.90300E+06     2.42966E+06         46.4165
              16     6.78760E-03     76.2754E-03     84.3373E-03     76.6851E-03    -227.459E-03     80.4707E-03    -225.216E-03     78.3089E-03    -14.4174E-03     330.031E-03    -164.562E-03    -165.552E-03    -165.271E-03     329.883E-03    -164.696E-03     16.9276E-03    -12.0020E+06    -83.3621E+06    -112.085E+06    -84.2727E+06    -111.175E+06    -12.0020E+06    -1.25598E+06         46.1031
              17     5.93990E-03     76.2517E-03     80.3030E-03     72.9449E-03    -220.387E-03     69.4781E-03    -215.303E-03     78.6865E-03     11.4635E-03     329.187E-03    -164.428E-03    -165.220E-03    -164.804E-03     329.101E-03    -164.757E-03     12.8415E-03    -25.4264E+06    -92.3228E+06    -138.882E+06    -92.5433E+06    -138.662E+06    -25.4264E+06     612.861E+03         45.9805
              18     5.09086E-03     76.2365E-03     80.7228E-03     68.1525E-03    -217.168E-03     64.4185E-03    -213.302E-03     80.5911E-03     35.8137E-03     328.490E-03    -163.979E-03    -164.732E-03    -163.927E-03     328.438E-03    -164.732E-03     9.92093E-03    -44.5575E+06    -100.929E+06    -167.607E+06    -101.341E+06    -167.196E+06    -44.5575E+06     5.08843E+06         45.8811
              19     4.24362E-03     76.2225E-03     89.2697E-03     71.5626E-03    -228.708E-03     75.7658E-03    -226.196E-03     82.5547E-03     5.56947E-03     328.773E-03    -164.042E-03    -164.703E-03    -164.012E-03     328.743E-03    -164.703E-03     7.33917E-03    -68.0457E+06    -108.649E+06    -197.723E+06    -108.944E+06    -197.428E+06    -68.0457E+06     3.20901E+06         45.7973
              20     3.39199E-03     76.2153E-03     101.127E-03     77.5006E-03    -245.948E-03     92.7721E-03    -241.888E-03     81.7957E-03    -23.4707E-03     329.050E-03    -164.292E-03    -164.740E-03    -164.401E-03     329.031E-03    -164.613E-03     5.97837E-03    -88.6198E+06    -117.031E+06    -221.080E+06    -117.091E+06    -221.020E+06    -88.6198E+06    -14.5320E+03         45.7089
              21     2.54627E-03     76.2030E-03     104.811E-03     77.2604E-03    -249.756E-03     95.6207E-03    -240.566E-03     77.2604E-03     27.9225E-03     329.233E-03    -164.332E-03    -164.855E-03    -164.759E-03     329.219E-03    -164.414E-03     5.11173E-03    -105.259E+06    -123.355E+06    -239.902E+06    -123.512E+06    -239.744E+06    -105.259E+06     1.14896E+06         45.6225
              22     1.69726E-03     76.1978E-03     90.1005E-03     72.1772E-03    -230.758E-03     79.8009E-03    -220.459E-03     72.1772E-03     105.298E-03     328.822E-03    -164.061E-03    -164.782E-03    -164.645E-03     328.810E-03    -164.185E-03     4.82061E-03    -120.784E+06    -128.828E+06    -257.722E+06    -128.933E+06    -257.617E+06    -120.784E+06     821.150E+03         45.5544
              23     849.007E-06     76.1897E-03     207.815E-03    -32.9633E-03    -247.653E-03     173.309E-03    -213.146E-03    -32.9633E-03    -145.870E-03     328.283E-03    -163.763E-03    -164.530E-03    -164.179E-03     328.273E-03    -164.104E-03     3.88792E-03    -127.263E+06    -132.442E+06    -278.636E+06    -130.066E+06    -278.615E+06    -129.660E+06     619.261E+03         45.5117
              24     2.33585E-06     74.7976E-03     337.854E-03    -144.946E-03    -261.171E-03     264.158E-03    -187.475E-03    -144.946E-03    -392.511E-03     329.434E-03    -164.334E-03    -165.113E-03    -165.111E-03     329.432E-03    -164.334E-03     1.55328E-03    -126.840E+06    -131.026E+06    -288.429E+06    -131.028E+06    -288.428E+06    -126.840E+06    -484.543E+03         45.4664
              25    -1.59136E-06     73.4104E-03     322.640E-03    -112.902E-03    -278.729E-03     261.411E-03    -217.500E-03    -112.902E-03    -355.773E-03     327.901E-03    -163.361E-03    -164.539E-03    -163.848E-03     327.895E-03    -164.046E-03     3.47549E-03    -132.146E+06    -135.261E+06    -287.218E+06    -135.056E+06    -287.207E+06    -132.362E+06     452.289E+03         45.4505
              26     306.861E-09     72.0179E-03     278.359E-03    -86.9377E-03    -260.178E-03     253.207E-03    -235.027E-03    -86.9377E-03    -222.276E-03     325.609E-03    -162.298E-03    -163.305E-03    -162.611E-03     325.600E-03    -162.983E-03     4.06522E-03    -132.281E+06    -133.986E+06    -286.020E+06    -132.296E+06    -286.004E+06    -133.986E+06     115.327E+03         45.4306
              27     94.8496E-09     70.6428E-03     183.036E-03    -58.8435E-03    -188.387E-03     176.215E-03    -128.805E-03    -111.604E-03    -76.9125E-03     326.662E-03    -162.700E-03    -163.971E-03    -163.966E-03     326.657E-03    -162.700E-03     3.06650E-03    -130.004E+06    -131.523E+06    -285.274E+06    -130.072E+06    -285.206E+06    -131.523E+06     1.45603E+06         45.4243
              28     1.38807E-06     69.2580E-03     124.648E-03    -59.5611E-03    -129.403E-03     123.902E-03    -75.8961E-03    -112.322E-03     22.8554E-03     329.660E-03    -164.029E-03    -165.634E-03    -164.977E-03     329.659E-03    -164.685E-03     506.043E-06    -130.779E+06    -131.423E+06    -286.841E+06    -130.984E+06    -286.636E+06    -131.423E+06    -1.20841E+06         45.4321
              29    -2.62024E-06     67.8617E-03     167.071E-03    -46.5038E-03    -185.823E-03     148.958E-03    -167.710E-03    -46.5038E-03     138.443E-03     328.941E-03    -164.074E-03    -164.862E-03    -164.073E-03     328.940E-03    -164.862E-03    -18.9501E-06    -127.132E+06    -128.705E+06    -293.318E+06    -127.294E+06    -293.156E+06    -128.705E+06    -2.12069E+06         45.4319
              30     2.28002E-06     66.4743E-03     174.884E-03    -33.0783E-03    -200.629E-03     130.747E-03    -156.492E-03    -33.0783E-03     235.757E-03     326.895E-03    -163.087E-03    -163.819E-03    -163.686E-03     326.894E-03    -163.219E-03     1.51346E-03    -130.199E+06    -134.490E+06    -295.361E+06    -133.559E+06    -295.332E+06    -131.158E+06     2.13234E+06         45.4341
              31    -1.33099E-06     65.0940E-03     131.406E-03    -32.2153E-03    -158.591E-03     88.5400E-03    -115.725E-03    -32.2153E-03     204.547E-03     327.661E-03    -163.528E-03    -164.145E-03    -164.143E-03     327.659E-03    -163.528E-03     1.95923E-03    -127.026E+06    -133.522E+06    -288.333E+06    -130.450E+06    -288.241E+06    -130.190E+06     3.48117E+06         45.4495
              32     1.20684E-06     63.6995E-03     96.3211E-03    -14.5776E-03    -144.860E-03     69.3141E-03    -117.853E-03    -14.5776E-03     152.013E-03     328.123E-03    -163.909E-03    -164.217E-03    -163.923E-03     328.120E-03    -164.200E-03     2.49234E-03    -126.648E+06    -133.357E+06    -285.142E+06    -130.569E+06    -284.766E+06    -129.811E+06    -1.99313E+06         45.4648
              33    -1.75855E-06     62.3132E-03     76.9666E-03    -35.9994E-03    -92.9955E-03     18.5852E-03    -26.8373E-03    -43.7762E-03     107.871E-03     329.261E-03    -164.254E-03    -165.001E-03    -164.701E-03     329.251E-03    -164.545E-03     4.16507E-03    -133.365E+06    -139.671E+06    -292.766E+06    -137.315E+06    -292.362E+06    -136.125E+06    -1.55966E+06         45.4884
              34     2.39410E-06     60.9244E-03     62.1984E-03    -45.0563E-03    -73.3706E-03    -43.6316E-03    -9.24948E-03    -3.34737E-03     23.7975E-03     332.360E-03    -165.742E-03    -166.607E-03    -166.190E-03     332.352E-03    -166.150E-03     3.59795E-03    -124.796E+06    -130.554E+06    -286.114E+06    -127.908E+06       -286.E+06    -127.556E+06     2.45425E+06         45.5325
              35    -3.16791E-06     59.5249E-03     95.3795E-03    -8.62472E-03    -153.929E-03    -25.4530E-03    -137.101E-03     95.3795E-03    -81.4901E-03     330.691E-03    -164.888E-03    -165.807E-03    -164.884E-03     330.687E-03    -165.807E-03     2.57231E-03    -120.080E+06    -130.078E+06    -277.968E+06    -123.085E+06    -277.960E+06    -127.081E+06    -36.2156E+03         45.5654
              36     2.11812E-06     58.1350E-03     95.2034E-03     37.9761E-03    -194.384E-03    -47.1646E-03    -106.535E-03     92.4947E-03    -159.789E-03     329.084E-03    -163.563E-03    -165.534E-03    -165.018E-03     329.078E-03    -164.074E-03     3.35640E-03    -124.253E+06    -139.021E+06    -283.794E+06    -132.063E+06    -283.750E+06    -131.253E+06    -1.14153E+06         45.5581
              37     374.238E-09     56.7580E-03     75.7732E-03     34.3806E-03    -163.557E-03    -115.508E-03     27.7244E-03     34.3806E-03    -187.175E-03     332.363E-03    -165.108E-03    -167.255E-03    -166.565E-03     332.360E-03    -165.795E-03     2.21817E-03    -123.635E+06    -137.741E+06    -290.304E+06    -131.458E+06    -290.248E+06    -129.974E+06    -470.064E+03         45.5360
              38    -1.71557E-06     55.3488E-03     71.4352E-03    -13.3587E-03    -114.548E-03    -89.6356E-03     413.185E-06     32.7513E-03    -78.3877E-03     331.947E-03    -165.447E-03    -166.492E-03    -165.446E-03     331.946E-03    -166.492E-03     1.38318E-03    -118.641E+06    -130.946E+06    -284.385E+06    -124.634E+06    -284.357E+06    -124.981E+06     324.150E+03         45.5147
              39     1.11361E-06     53.9614E-03     47.2876E-03    -9.57222E-03    -100.117E-03    -46.9396E-03    -62.7497E-03     47.2876E-03     88.9464E-03     327.687E-03    -162.982E-03    -164.711E-03    -164.351E-03     327.684E-03    -163.340E-03     2.08852E-03    -119.440E+06    -132.167E+06    -282.781E+06    -125.428E+06    -282.758E+06    -126.202E+06    -1.90855E+06         45.4758
              40     1.03466E-06     52.5814E-03     70.5142E-03     14.1315E-03    -152.281E-03    -12.6303E-03    -79.8864E-03     24.8813E-03     199.052E-03     326.777E-03    -162.283E-03    -164.490E-03    -163.648E-03     326.771E-03    -163.119E-03     3.32136E-03    -123.020E+06    -135.616E+06    -287.440E+06    -128.940E+06    -287.353E+06    -129.782E+06     1.32859E+06         45.4312
              41    -2.48746E-06     51.1899E-03     182.699E-03    -56.5340E-03    -198.248E-03     45.8941E-03    -61.4432E-03    -56.5340E-03     363.346E-03     327.673E-03    -162.801E-03    -164.860E-03    -162.793E-03     327.664E-03    -164.860E-03     4.06797E-03    -129.746E+06    -140.338E+06    -285.393E+06    -135.746E+06    -285.226E+06    -134.504E+06    -304.077E+03         45.4143
              42     250.161E-09     49.7997E-03     283.630E-03    -123.969E-03    -228.611E-03     122.937E-03    -67.9182E-03    -123.969E-03     467.246E-03     327.125E-03    -162.357E-03    -164.769E-03    -163.540E-03     327.119E-03    -163.580E-03     3.59099E-03    -127.301E+06    -132.899E+06    -285.881E+06    -128.292E+06    -285.730E+06    -132.059E+06    -463.479E+03         45.4236
              43     1.65289E-06     48.4209E-03     343.223E-03    -152.230E-03    -251.709E-03     221.568E-03    -130.054E-03    -152.230E-03     478.030E-03     326.592E-03    -162.639E-03    -163.941E-03    -163.938E-03     326.589E-03    -162.639E-03     2.26443E-03    -125.245E+06    -128.676E+06    -291.059E+06    -128.879E+06    -290.857E+06    -125.245E+06    -1.21837E+06         45.4362
              44    -1.53093E-06     47.0321E-03     310.491E-03    -155.238E-03    -213.191E-03     225.868E-03    -120.455E-03    -163.351E-03     380.925E-03     327.382E-03    -163.585E-03    -163.791E-03    -163.788E-03     327.379E-03    -163.585E-03     2.38331E-03    -125.523E+06    -128.454E+06    -300.584E+06    -128.601E+06    -300.437E+06    -125.523E+06    -4.00867E+06         45.4450
              45     1.55889E-06     45.6463E-03     236.694E-03    -145.002E-03    -160.274E-03     186.257E-03    -101.724E-03    -153.115E-03     261.142E-03     328.849E-03    -164.276E-03    -164.579E-03    -164.575E-03     328.845E-03    -164.276E-03     793.504E-06    -125.022E+06    -131.970E+06    -301.980E+06    -125.474E+06    -301.867E+06    -131.630E+06     2.43419E+06         45.4674
              46    -1.40963E-06     44.2644E-03     199.598E-03    -115.871E-03    -155.518E-03     152.307E-03    -108.227E-03    -115.871E-03     240.952E-03     330.841E-03    -164.910E-03    -165.927E-03    -165.118E-03     330.840E-03    -165.719E-03    -392.182E-06    -123.997E+06    -135.690E+06    -291.359E+06    -129.249E+06    -291.191E+06    -130.605E+06     5.18716E+06         45.5116
              47    -8.01609E-09     42.8628E-03     138.803E-03    -34.0005E-03    -178.290E-03     85.3906E-03    -124.878E-03    -34.0005E-03     236.766E-03     333.394E-03    -166.177E-03    -167.221E-03    -166.408E-03     333.389E-03    -166.985E-03     2.61653E-03    -126.036E+06    -136.950E+06    -287.155E+06    -137.064E+06    -287.041E+06    -126.036E+06     166.183E+03         45.5506
              48     379.180E-09     41.4607E-03     124.413E-03     18.5299E-03    -218.924E-03     86.6030E-03    -181.114E-03     18.5299E-03     197.192E-03     333.706E-03    -166.467E-03    -167.243E-03    -167.231E-03     333.694E-03    -166.467E-03     4.81588E-03    -126.262E+06    -140.021E+06    -291.571E+06    -132.154E+06    -291.510E+06    -134.190E+06    -1.19912E+06         45.5655
              49     325.741E-09     40.0744E-03     137.264E-03     41.1657E-03    -268.831E-03     93.9539E-03    -225.521E-03     41.1657E-03     235.365E-03     332.241E-03    -165.738E-03    -166.486E-03    -166.478E-03     332.233E-03    -165.738E-03     1.59953E-03    -122.345E+06    -130.914E+06    -291.149E+06    -123.010E+06    -291.126E+06    -130.272E+06    -380.398E+03         45.5727
              50    -66.5464E-09     38.6861E-03     147.511E-03     55.4724E-03    -301.122E-03     107.592E-03    -261.203E-03     55.4724E-03     221.181E-03     331.168E-03    -165.288E-03    -165.851E-03    -165.493E-03     331.166E-03    -165.644E-03    -2.14054E-03    -129.014E+06    -130.289E+06    -290.519E+06    -130.317E+06    -290.491E+06    -129.014E+06    -216.513E+03         45.5768
              51    -629.218E-09     37.2937E-03     182.876E-03    -25.4046E-03    -247.047E-03     147.036E-03    -211.207E-03    -25.4046E-03     205.419E-03     331.213E-03    -164.976E-03    -166.225E-03    -164.973E-03     331.210E-03    -166.225E-03     448.401E-06    -132.778E+06    -136.881E+06    -294.140E+06    -136.895E+06    -294.126E+06    -132.778E+06     1.40402E+06         45.5556
              52    -937.985E-09     35.8901E-03     230.747E-03    -102.364E-03    -196.867E-03     192.988E-03    -159.108E-03    -102.364E-03     218.575E-03     331.403E-03    -164.973E-03    -166.426E-03    -165.516E-03     331.385E-03    -165.866E-03     5.38558E-03    -126.870E+06    -134.372E+06    -288.274E+06    -130.343E+06    -288.271E+06    -130.902E+06     324.671E+03         45.5193
              53     1.67700E-06     34.4984E-03     333.627E-03    -81.1898E-03    -310.965E-03     316.494E-03    -293.832E-03    -81.1898E-03     207.221E-03     328.165E-03    -163.685E-03    -164.490E-03    -164.472E-03     328.148E-03    -163.685E-03     5.36791E-03    -123.772E+06    -131.966E+06    -288.993E+06    -127.949E+06    -288.978E+06    -127.805E+06    -1.23033E+06         45.5088
              54    -1.37789E-06     33.1239E-03     399.973E-03    -132.690E-03    -331.121E-03     388.017E-03    -319.164E-03    -132.690E-03     138.406E-03     325.342E-03    -162.380E-03    -162.977E-03    -162.969E-03     325.335E-03    -162.380E-03     3.80847E-03    -124.849E+06    -130.891E+06    -292.069E+06    -129.028E+06    -292.052E+06    -126.730E+06      -673.7E+03         45.5311
              55     1.85069E-06     31.7348E-03     372.774E-03    -166.942E-03    -268.641E-03     370.125E-03    -265.992E-03    -166.942E-03     56.9933E-03     327.208E-03    -162.994E-03    -164.215E-03    -164.208E-03     327.202E-03    -162.994E-03     3.42618E-03    -131.348E+06    -139.261E+06    -291.274E+06    -131.371E+06    -291.251E+06    -139.261E+06    -840.682E+03         45.5861
              56    -556.206E-09     30.3516E-03     337.371E-03    -102.685E-03    -300.880E-03     334.712E-03    -298.221E-03    -102.685E-03     63.7889E-03     329.560E-03    -164.299E-03    -165.267E-03    -165.166E-03     329.558E-03    -164.398E-03     1.84538E-03    -125.761E+06    -133.841E+06    -297.782E+06    -127.829E+06    -297.761E+06    -131.793E+06    -1.45310E+06         45.6856
              57     281.295E-09     28.9601E-03     254.549E-03    -71.4994E-03    -251.132E-03     252.339E-03    -248.921E-03    -71.4994E-03     46.4802E-03     331.506E-03    -165.448E-03    -166.071E-03    -165.447E-03     331.505E-03    -166.071E-03     1.71343E-03    -125.387E+06    -130.598E+06    -301.464E+06    -130.685E+06    -301.378E+06    -125.387E+06    -2.80954E+06         45.8106
              58    -1.27464E-06     27.5670E-03     238.103E-03    -12.0945E-03    -304.218E-03     235.880E-03    -301.995E-03    -12.0945E-03     36.0628E-03     333.649E-03    -166.488E-03    -167.209E-03    -166.487E-03     333.648E-03    -167.209E-03     1.11770E-03    -123.498E+06    -130.639E+06    -306.120E+06    -126.767E+06    -306.014E+06    -127.476E+06    -1.21361E+06         45.9328
              59     744.040E-09     26.1727E-03     249.141E-03     20.9699E-03    -358.581E-03     246.619E-03    -356.059E-03     20.9699E-03     45.5546E-03     334.751E-03    -167.195E-03    -167.599E-03    -167.401E-03     334.750E-03    -167.392E-03     1.36019E-03     -124.14E+06    -130.269E+06    -309.003E+06    -126.315E+06    -308.979E+06    -128.118E+06     1.99798E+06         46.0375
              60    -511.912E-09     24.7706E-03     224.690E-03    -68.3927E-03    -233.706E-03     217.336E-03    -226.352E-03    -68.3927E-03    -7.88750E-03     335.124E-03    -167.395E-03    -167.719E-03    -167.715E-03     335.121E-03    -167.395E-03     2.74368E-03    -131.346E+06    -133.776E+06    -305.262E+06    -133.677E+06    -305.082E+06    -131.625E+06     4.53232E+06         46.1199
              61     626.163E-09     23.3753E-03     273.339E-03    -103.625E-03    -233.627E-03     265.334E-03    -225.622E-03    -103.625E-03     3.44964E-03     336.570E-03    -167.976E-03    -168.588E-03    -168.584E-03     336.566E-03    -167.976E-03     2.52947E-03    -122.306E+06    -127.118E+06    -293.505E+06    -127.122E+06    -293.222E+06    -122.585E+06     1.05418E+06         46.1761
              62     134.731E-09     21.9785E-03     278.662E-03    -61.8653E-03    -283.015E-03     275.385E-03    -279.739E-03    -61.8653E-03     51.7747E-03     338.188E-03    -168.691E-03    -169.487E-03    -169.486E-03     338.187E-03    -168.691E-03     140.012E-06    -124.791E+06    -133.702E+06    -298.248E+06    -129.457E+06    -298.115E+06    -129.169E+06    -4.41885E+06         46.1722
              63     194.279E-09     20.5722E-03     258.674E-03    -29.4270E-03    -296.475E-03     256.071E-03    -293.871E-03    -29.4270E-03    -66.6836E-03     336.956E-03    -168.290E-03    -168.674E-03    -168.590E-03     336.955E-03    -168.372E-03    -136.123E-06    -127.581E+06    -136.706E+06    -304.073E+06    -132.396E+06    -304.005E+06    -131.959E+06     320.503E+03         46.0623
              64    -438.229E-09     19.1751E-03     214.744E-03    -3.93577E-03    -282.080E-03     207.082E-03    -274.418E-03    -3.93577E-03     5.53893E-03     334.023E-03    -166.784E-03    -167.270E-03    -166.784E-03     334.022E-03    -167.270E-03     796.243E-06    -121.261E+06    -132.597E+06    -294.163E+06    -126.071E+06    -294.100E+06    -127.850E+06     491.438E+03         45.8368
              65    -402.966E-09     17.7812E-03     115.895E-03    -5.05607E-03    -188.626E-03     62.1832E-03    -182.579E-03     42.6087E-03     76.6402E-03     330.204E-03    -164.842E-03    -165.346E-03    -164.842E-03     330.204E-03    -165.346E-03    -541.192E-06    -125.065E+06    -134.082E+06    -290.686E+06    -127.717E+06    -290.461E+06    -131.654E+06     2.57005E+06         45.4982
              66     185.108E-09     16.3952E-03     112.664E-03     13.0825E-03    -195.581E-03     12.1144E-03    -194.613E-03     112.664E-03     23.4675E-03     324.416E-03    -162.052E-03    -162.351E-03    -162.251E-03     324.415E-03    -162.152E-03    -1.46164E-03    -130.212E+06    -135.945E+06    -293.077E+06    -136.387E+06    -292.636E+06    -130.212E+06    -457.831E+03         45.0222
              67     98.0112E-09     15.0163E-03     145.727E-03    -19.9048E-03    -194.144E-03    -20.2329E-03    -193.816E-03     145.727E-03     13.5188E-03     316.059E-03    -157.581E-03    -158.488E-03    -157.779E-03     316.058E-03    -158.288E-03    -1.58532E-03    -128.596E+06    -138.446E+06    -301.513E+06    -132.161E+06    -301.253E+06    -135.140E+06    -2.98562E+06         44.4068
              68    -1.54719E-06     13.6523E-03     176.035E-03    -52.7087E-03    -202.127E-03    -81.0621E-03    -173.773E-03     176.035E-03    -90.8308E-03     305.214E-03    -152.231E-03    -152.957E-03    -152.247E-03     305.211E-03    -152.938E-03    -2.24570E-03    -128.006E+06    -139.058E+06    -295.018E+06    -132.630E+06    -294.901E+06    -134.550E+06     4.04683E+06         43.7048
              69     1.54248E-06     12.3059E-03     182.569E-03    -21.8530E-03    -232.584E-03    -67.3581E-03    -187.079E-03     182.569E-03    -172.220E-03     292.906E-03    -146.293E-03    -146.591E-03    -146.586E-03     292.901E-03    -146.293E-03    -3.08627E-03    -137.827E+06    -142.484E+06    -293.663E+06    -142.738E+06    -293.409E+06    -137.827E+06    -859.853E+03         43.0235
              70    -1.18786E-06     10.9748E-03     167.634E-03    -47.8503E-03    -183.454E-03    -83.0539E-03    -148.251E-03     167.634E-03    -111.534E-03     282.951E-03    -141.067E-03    -141.897E-03    -141.342E-03     282.946E-03    -141.617E-03    -2.77833E-03    -138.994E+06    -143.614E+06    -292.442E+06    -139.589E+06    -291.996E+06    -143.465E+06     1.15569E+06         42.5185
              71     46.4902E-09     9.65755E-03     139.722E-03    -56.7650E-03    -147.127E-03    -110.534E-03    -93.3577E-03     139.722E-03    -87.5029E-03     278.918E-03    -138.654E-03    -140.271E-03    -138.651E-03     278.915E-03    -140.271E-03    -2.10520E-03    -132.154E+06    -142.011E+06    -286.775E+06    -138.254E+06    -286.061E+06    -136.625E+06    -912.851E+03         42.3082
              72    -1.87544E-06     8.33640E-03     55.9879E-03    -18.2652E-03    -103.718E-03    -73.3143E-03    -44.8119E-03     52.1312E-03    -84.6389E-03     280.717E-03    -139.357E-03    -141.355E-03    -140.286E-03     280.716E-03    -140.424E-03    -1.58349E-03    -133.694E+06    -143.429E+06    -300.030E+06    -139.587E+06    -299.524E+06    -138.043E+06    -2.94475E+06         42.4737
              73     3.32889E-06     7.00833E-03     29.2945E-03     18.2273E-03    -113.976E-03    -1.74765E-03    -82.9339E-03     18.2273E-03     23.8785E-03     291.144E-03    -144.655E-03    -146.482E-03    -146.475E-03     291.138E-03    -144.655E-03     1.61401E-03    -119.265E+06    -128.454E+06    -301.433E+06    -124.184E+06    -301.354E+06    -123.614E+06     2.60326E+06         43.0942
              74    -1.82280E-06     5.66905E-03     54.5542E-03     25.1976E-03    -154.898E-03     44.6692E-03    -145.013E-03     25.1976E-03     30.0849E-03     308.680E-03    -153.349E-03    -155.302E-03    -154.239E-03     308.674E-03    -154.405E-03     1.60016E-03    -104.703E+06    -115.364E+06    -294.981E+06    -109.623E+06    -294.901E+06    -110.523E+06    -2.78254E+06         44.1224
              75    -187.526E-09     4.28990E-03     48.2041E-03     15.2762E-03    -132.977E-03     43.6919E-03    -59.0987E-03    -54.0901E-03    -17.4925E-03     329.480E-03    -164.146E-03    -165.320E-03    -164.255E-03     329.472E-03    -165.203E-03     2.25770E-03    -90.8870E+06    -96.8756E+06    -292.395E+06    -90.9828E+06    -292.300E+06    -96.8756E+06    -1.43407E+06         45.3671
              76     203.894E-09     2.88292E-03     89.5210E-03    -5.17083E-03    -154.135E-03     86.5157E-03    -81.7639E-03    -74.5371E-03    -4.82253E-03     351.532E-03    -175.422E-03    -176.115E-03    -176.105E-03     351.522E-03    -175.422E-03     4.25067E-03    -77.6324E+06    -84.5470E+06    -292.087E+06    -84.4627E+06    -292.003E+06    -77.8008E+06     3.94676E+06         46.6780
              77     578.420E-09     1.44614E-03     136.177E-03    -34.3552E-03    -174.499E-03     114.839E-03    -92.6152E-03    -94.9004E-03     60.1193E-03     366.401E-03    -182.597E-03    -183.815E-03    -183.813E-03     366.399E-03    -182.597E-03     2.21789E-03    -76.6728E+06    -85.8797E+06    -289.895E+06    -83.4866E+06    -289.828E+06    -79.1335E+06     2.54027E+06         48.0703
              78     830.206E-06    -536.442E-09     107.671E-03    -34.1023E-03    -140.892E-03     34.8027E-03    -7.47879E-03    -94.6475E-03     175.652E-03     369.795E-03    -184.463E-03    -185.323E-03    -185.103E-03     369.793E-03    -184.681E-03     2.09985E-03    -72.0027E+06    -80.3395E+06    -269.728E+06    -77.8934E+06    -269.713E+06    -74.4633E+06    -1.20934E+06         48.7189
              79     1.66151E-03    -536.442E-09     54.7865E-03    -25.3939E-03    -99.1917E-03    -5.51495E-03    -38.8903E-03    -25.3939E-03     140.019E-03     366.586E-03    -182.345E-03    -184.173E-03    -182.342E-03     366.583E-03    -184.173E-03     2.39650E-03    -63.1712E+06    -74.7392E+06    -250.894E+06    -74.7742E+06    -250.859E+06    -63.1712E+06     222.680E+03         48.4966
              80     2.49655E-03    -536.442E-09     32.2539E-03    -14.3143E-03    -84.9644E-03     23.4299E-03    -76.1404E-03    -14.3143E-03     29.0362E-03     360.198E-03    -177.207E-03    -182.770E-03    -177.201E-03     360.192E-03    -182.770E-03     3.43795E-03    -59.8184E+06    -71.3282E+06    -240.856E+06    -71.3612E+06    -240.823E+06    -59.8184E+06     338.673E+03         48.1710
              81     3.33549E-03    -536.442E-09     28.0102E-03    -4.40323E-03    -93.3579E-03     23.9952E-03    -89.3430E-03    -4.40323E-03    -37.4717E-03     351.492E-03    -170.599E-03    -180.755E-03    -170.585E-03     351.478E-03    -180.755E-03     5.36467E-03    -57.6744E+06     -68.553E+06    -224.125E+06    -68.5776E+06      -224.1E+06    -57.6744E+06    -60.4845E+03         47.8206
              82     4.18228E-03    -536.442E-09     15.2104E-03    -106.027E-06    -87.7682E-03     6.03995E-03    -78.5978E-03    -106.027E-06    -57.8336E-03     342.097E-03    -164.233E-03    -178.240E-03    -164.218E-03     342.082E-03    -178.240E-03     5.59423E-03    -58.7250E+06    -66.1696E+06    -204.359E+06    -66.1869E+06    -204.341E+06    -58.7250E+06     372.205E+03         47.5982
              83     5.03455E-03    -536.442E-09     8.22799E-03     507.091E-06    -80.4655E-03    -535.840E-06    -71.7017E-03     507.091E-06    -52.5453E-03     333.276E-03    -158.464E-03    -175.296E-03    -158.448E-03     333.260E-03    -175.296E-03     5.53834E-03    -59.7139E+06    -62.9745E+06    -178.570E+06    -63.1903E+06    -178.354E+06    -59.7139E+06    -3.88022E+06         47.6612
              84     5.88932E-03    -536.442E-09     5.26888E-03     481.952E-06    -75.1723E-03     683.559E-06    -70.5870E-03     481.952E-06    -36.5686E-03     325.030E-03    -152.987E-03    -172.199E-03    -152.967E-03     325.010E-03    -172.199E-03     6.20563E-03    -57.7124E+06    -59.1924E+06    -145.934E+06    -58.8186E+06    -145.705E+06    -58.3157E+06    -2.48745E+06         48.1056
              85     6.75133E-03    -536.442E-09     7.16117E-03     754.729E-06    -75.3674E-03     4.38005E-03    -72.5863E-03     754.729E-06    -29.7785E-03     317.275E-03    -148.075E-03    -169.264E-03    -148.057E-03     317.257E-03    -169.264E-03     5.83589E-03    -52.8779E+06    -59.0334E+06    -111.044E+06    -54.4370E+06    -109.485E+06    -59.0334E+06    -4.91593E+06         48.9643
              86     7.61668E-03    -536.442E-09     13.2361E-03     1.57016E-03    -80.5287E-03     11.6485E-03    -78.9411E-03     1.57016E-03    -21.0767E-03     311.421E-03    -144.745E-03    -166.670E-03    -144.731E-03     311.407E-03    -166.670E-03     5.09702E-03    -41.6782E+06    -52.4472E+06    -74.3690E+06    -46.8760E+06    -64.5718E+06    -57.0466E+06    -8.12039E+06         50.2368
              87     8.48353E-03    -536.442E-09     17.4138E-03     2.87999E-03    -85.5752E-03     17.2582E-03    -85.4195E-03     2.87999E-03    -3.63839E-03     308.030E-03    -143.633E-03    -164.356E-03    -143.612E-03     308.009E-03    -164.356E-03     5.98810E-03    -8.53736E+06    -44.2399E+06    -49.4322E+06    -42.5423E+06    -10.2349E+06    -49.4322E+06    -338.882E+03         51.9117
              88     9.34892E-03    -536.442E-09     24.0140E-03     4.51612E-03    -95.1053E-03     23.9966E-03    -95.0879E-03     4.51612E-03     2.76005E-03     308.419E-03    -146.018E-03    -162.500E-03    -145.956E-03     308.357E-03    -162.500E-03     10.1860E-03     24.0085E+06    -35.8721E+06    -39.9482E+06    -37.8751E+06     22.5284E+06    -36.4651E+06    -4.45571E+06         53.9629
              89     10.2102E-03    -536.442E-09     27.2197E-03     6.29866E-03    -101.001E-03     27.1698E-03    -100.951E-03     6.29866E-03    -2.27312E-03     311.702E-03    -150.727E-03    -161.264E-03    -150.648E-03     311.624E-03    -161.264E-03     11.9711E-03     35.8365E+06    -16.3499E+06    -31.0468E+06    -29.6259E+06     34.4156E+06    -16.3499E+06    -8.14358E+06         56.3538
              90     11.0693E-03    -536.442E-09     18.3880E-03     7.57046E-03    -93.0903E-03     17.6260E-03    -92.3283E-03     7.57046E-03    -15.0934E-03     312.997E-03    -152.696E-03    -160.646E-03    -152.654E-03     312.955E-03    -160.646E-03     8.54254E-03     47.8243E+06     11.6097E+06    -22.9504E+06    -22.6493E+06     47.5232E+06     11.6097E+06    -4.48665E+06         59.0461
              91     11.9276E-03    -536.442E-09     12.7289E-03     8.09863E-03    -87.3309E-03     11.8505E-03    -86.4525E-03     8.09863E-03    -17.4773E-03     314.825E-03    -154.446E-03    -160.373E-03    -154.415E-03     314.794E-03    -160.373E-03     7.58178E-03     58.4171E+06     43.4464E+06    -15.9928E+06    -14.6198E+06     57.0440E+06     43.4464E+06    -9.32901E+06         61.9739
              92     12.7879E-03    -536.442E-09     26.2457E-03     8.81371E-03    -100.232E-03     26.0218E-03    -100.008E-03     8.81371E-03    -1.43866E-03     327.309E-03    -158.891E-03    -168.369E-03    -166.502E-03     327.279E-03    -160.727E-03     7.54795E-03     93.0593E+06     72.7796E+06    -6.55292E+06    -5.30315E+06     73.0776E+06     91.5116E+06    -4.41819E+06         65.2272
              93     13.6283E-03    -536.442E-09     42.3624E-03     10.3740E-03    -120.422E-03     42.0419E-03    -120.101E-03     10.3740E-03     13.8274E-03     356.033E-03    -162.271E-03    -194.057E-03    -193.974E-03     355.949E-03    -162.271E-03     12.4287E-03     124.996E+06     82.2965E+06    -10.4452E+06    -8.08888E+06     79.9402E+06     124.996E+06     12.3906E+06         68.9164
              94     14.4330E-03    -536.442E-09     48.8120E-03     12.3708E-03    -133.505E-03     48.5535E-03    -133.246E-03     12.3708E-03     9.76943E-03     399.177E-03    -165.183E-03    -233.929E-03    -233.143E-03     398.390E-03    -165.183E-03     40.3905E-03     119.927E+06     69.2118E+06    -28.2535E+06    -25.9165E+06     66.8748E+06     119.927E+06     8.37852E+06         72.3055
              95     15.2353E-03     1.56698E-03     44.1805E-03     14.2041E-03    -127.463E-03     43.1636E-03    -126.446E-03     14.2041E-03    -17.3253E-03     395.618E-03    -166.221E-03    -229.059E-03    -227.130E-03     393.688E-03    -166.221E-03     68.2462E-03     128.786E+06     70.7438E+06    -13.2435E+06    -12.3217E+06     69.8221E+06     128.786E+06     3.49472E+06         73.2755
              96     15.2718E-03     3.01021E-03     41.8848E-03     16.3236E-03    -124.195E-03     39.5799E-03    -121.890E-03     16.3236E-03    -38.8476E-03     360.037E-03    -165.016E-03    -194.704E-03    -192.674E-03     358.007E-03    -165.016E-03     66.7422E-03     146.951E+06     88.0439E+06     3.05837E+06     3.92744E+06     87.1749E+06     146.951E+06     4.30153E+06         72.6279
              97     15.2744E-03     4.42488E-03     53.2997E-03     18.7689E-03    -137.982E-03     50.0405E-03    -134.722E-03     18.7689E-03    -49.3817E-03     352.705E-03    -164.503E-03    -188.250E-03    -186.956E-03     351.411E-03    -164.503E-03     52.3932E-03     148.821E+06     91.9184E+06     1.16335E+06     1.27600E+06     91.8058E+06     148.821E+06     751.218E+03         72.3556
              98     15.2811E-03     5.84690E-03     46.7504E-03     21.0928E-03    -134.431E-03     44.4082E-03    -132.089E-03     21.0928E-03    -38.9189E-03     347.976E-03    -164.314E-03    -183.896E-03    -182.958E-03     347.038E-03    -164.314E-03     44.6221E-03     150.535E+06     94.3210E+06     5.06686E+06     5.15365E+06     94.2343E+06     150.535E+06     1.69780E+06         72.1659
              99     15.2820E-03     7.25753E-03     42.0680E-03     23.9824E-03    -137.409E-03     41.6548E-03    -136.996E-03     23.9824E-03    -14.9110E-03     340.259E-03    -164.373E-03    -175.971E-03    -174.982E-03     339.270E-03    -164.373E-03     45.1057E-03     145.325E+06     88.4049E+06    -1.07543E+06    -866.175E+03     88.1956E+06     145.325E+06    -3.14808E+06         71.9711
             100     15.2844E-03     8.66071E-03     55.6543E-03     28.6942E-03    -159.428E-03     55.4441E-03    -159.218E-03     28.6942E-03     4.65409E-03     338.967E-03    -164.463E-03    -174.963E-03    -173.950E-03     337.955E-03    -164.463E-03     45.5623E-03     134.537E+06     75.8956E+06    -13.0840E+06    -12.8678E+06     75.6795E+06     134.537E+06    -2.35223E+06         71.7645
             101     15.2763E-03     10.0703E-03     49.3392E-03     34.7536E-03    -155.185E-03     49.1245E-03    -154.970E-03     34.7536E-03     4.66954E-03     339.922E-03    -164.501E-03    -175.828E-03    -174.916E-03     339.010E-03    -164.501E-03     43.3301E-03     140.408E+06     84.0348E+06    -4.40733E+06    -4.36454E+06     83.9920E+06     140.408E+06    -606.551E+03         71.5456
             102     15.2766E-03     11.4723E-03     42.2886E-03     40.4262E-03    -150.302E-03     41.0381E-03    -149.051E-03     40.4262E-03     17.9949E-03     334.699E-03    -164.629E-03    -170.308E-03    -169.124E-03     333.516E-03    -164.629E-03     48.3117E-03     147.435E+06     93.2748E+06     4.96524E+06     5.13882E+06     93.1013E+06     147.435E+06     1.33595E+06         71.3218
             103     15.2828E-03     12.8646E-03     47.9159E-03     45.9527E-03    -165.427E-03     46.1154E-03    -163.627E-03     45.9527E-03     5.87775E-03     331.539E-03    -164.732E-03    -167.053E-03    -165.718E-03     330.204E-03    -164.732E-03     51.4220E-03     140.357E+06     84.5470E+06    -3.73981E+06    -3.39062E+06     84.1978E+06     140.357E+06    -405.838E+03         71.1110
             104     15.2754E-03     14.2627E-03     51.5047E-03     50.9192E-03    -176.000E-03     50.2243E-03    -175.086E-03     51.2861E-03    -28.3411E-03     334.992E-03    -164.892E-03    -170.137E-03    -169.007E-03     333.861E-03    -164.892E-03     47.7389E-03     134.210E+06     78.1020E+06    -10.3887E+06    -10.1558E+06     77.8691E+06     134.210E+06    -3.96857E+06         70.9104
             105     15.2712E-03     15.6641E-03     56.5579E-03     54.3423E-03    -184.775E-03     53.8947E-03    -184.327E-03     56.5579E-03    -4.11378E-03     333.278E-03    -164.590E-03    -168.513E-03    -166.725E-03     331.948E-03    -165.049E-03     51.3290E-03     137.793E+06     83.0529E+06     420.546E+03     644.859E+03     82.8286E+06     137.793E+06     1.65491E+06         70.7254
             106     15.2816E-03     17.0490E-03     61.9814E-03     54.1265E-03    -193.076E-03     53.7589E-03    -192.708E-03     61.9814E-03    -2.83355E-03     328.828E-03    -164.040E-03    -164.940E-03    -162.577E-03     327.364E-03    -164.940E-03     53.5993E-03     132.615E+06     76.2769E+06    -5.37668E+06    -4.76785E+06     75.6681E+06     132.615E+06    -1.63321E+06         70.5693
             107     15.2749E-03     18.4369E-03     66.7865E-03     51.9311E-03    -196.534E-03     51.6674E-03    -196.270E-03     66.7865E-03    -14.5048E-03     330.242E-03    -164.481E-03    -166.408E-03    -164.668E-03     328.943E-03    -164.922E-03     50.6829E-03     123.193E+06     66.0657E+06    -21.4171E+06    -21.0095E+06     65.6581E+06     123.193E+06    -4.50571E+06         70.4311
             108     15.2712E-03     19.8385E-03     72.3220E-03     51.2994E-03    -199.908E-03     50.8496E-03    -199.459E-03     72.3220E-03     10.9827E-03     329.120E-03    -162.758E-03    -166.559E-03    -162.729E-03     327.605E-03    -165.073E-03     54.3090E-03     128.509E+06     75.3654E+06    -13.6364E+06    -12.7524E+06     74.4815E+06     128.509E+06     6.22346E+06         70.3184
             109     15.2787E-03     21.2132E-03     77.9111E-03     58.5124E-03    -208.542E-03     57.9052E-03    -207.935E-03     77.9111E-03     4.49262E-03     323.894E-03    -158.559E-03    -165.044E-03    -156.915E-03     322.249E-03    -165.044E-03     56.1902E-03     144.553E+06     90.2365E+06     8.70498E+06     9.81490E+06     89.1266E+06     144.553E+06     3.65413E+06         70.2569
             110     15.2798E-03     22.5954E-03     161.516E-03     74.2836E-03    -219.418E-03     154.085E-03    -219.212E-03     81.5088E-03    -5.67803E-03     325.584E-03    -160.684E-03    -164.975E-03    -159.224E-03     324.124E-03    -164.975E-03     53.1954E-03     138.680E+06     80.8754E+06    -514.224E+03    -281.048E+03     80.6422E+06     138.680E+06    -3.31165E+06         70.2500
             111     15.2732E-03     23.9883E-03     162.888E-03    -16.6426E-03    -343.552E-03    -109.574E-03    -170.614E-03     82.8811E-03     14.5404E-03     329.014E-03    -164.367E-03    -165.110E-03    -163.064E-03     327.711E-03    -165.110E-03     50.5860E-03     128.184E+06     71.7781E+06    -18.2380E+06    -18.2297E+06     71.7698E+06     128.184E+06    -840.872E+03         70.2847
             112     15.2737E-03     25.3753E-03     83.4374E-03    -198.510E-03        -1.01392        -1.00618    -206.252E-03     83.4374E-03     148.939E-03     326.328E-03    -161.410E-03    -165.226E-03    -159.934E-03     324.852E-03    -165.226E-03     53.2771E-03     137.759E+06     83.1782E+06    -1.86753E+06    -1.80324E+06     83.1139E+06     137.759E+06     1.32846E+06         70.3537
             113     15.2784E-03     26.7540E-03     484.471E-03    -92.7109E-03        -1.06710    -332.970E-03    -432.087E-03     89.7130E-03     111.244E-03     326.666E-03    -161.797E-03    -165.117E-03    -160.251E-03     325.120E-03    -165.117E-03     54.7028E-03     137.413E+06     83.5272E+06    -1.97484E+06    -1.91243E+06     83.4648E+06     137.413E+06     1.71018E+06         70.4482
             114     15.2711E-03     28.1511E-03         2.50889     135.151E-03    -238.871E-03         2.49144    -179.440E-03     93.1719E-03    -394.894E-03     328.650E-03    -164.018E-03    -165.165E-03    -162.685E-03     327.317E-03    -165.165E-03     51.1850E-03     133.256E+06     79.6708E+06    -12.5550E+06    -12.2930E+06     79.4088E+06     133.256E+06     3.66456E+06         70.5448
             115     15.2750E-03     29.5305E-03         4.17321     128.380E-03    -13.2643E-03         4.14934     52.5778E-03     86.4009E-03    -127.201E-03     327.021E-03    -162.022E-03    -165.224E-03    -160.520E-03     325.519E-03    -165.224E-03     54.0397E-03     140.006E+06     89.8071E+06    -4.34810E+06    -4.05355E+06     89.5125E+06     140.006E+06     4.79205E+06         70.6396
             116     15.2779E-03     30.9185E-03         5.68769     94.3611E-03    -649.686E-03         5.67900    -641.000E-03     94.3611E-03     423.271E-03     327.906E-03    -162.823E-03    -165.058E-03    -161.242E-03     326.324E-03    -165.058E-03     55.6012E-03     153.477E+06     101.336E+06     11.0821E+06     11.2525E+06     101.165E+06     153.477E+06    -1.27937E+06         70.7419
             117     15.2824E-03     32.3065E-03         24.4942     206.882E-03        -2.46233         24.4796        -2.44777     206.882E-03         1.25232     329.331E-03    -164.362E-03    -164.892E-03    -162.917E-03     327.886E-03    -164.892E-03     53.3367E-03     151.822E+06     92.5714E+06     5.12227E+06     5.69458E+06     91.9990E+06     151.822E+06    -6.75183E+06         70.8480
             118     15.2820E-03     33.6989E-03         161.648         3.80407    -679.350E-03         160.847         2.58021         1.34548         21.8016     330.001E-03    -164.353E-03    -165.729E-03    -163.737E-03     328.485E-03    -164.830E-03     54.6634E-03     145.144E+06     101.536E+06    -11.0426E+06    -7.24682E+06     97.7407E+06     145.144E+06     10.7530E+06         70.9590
             119     15.2786E-03     35.0926E-03         165.580         3.64499        -19.0596         144.504         4.47526         1.18640        -24.1367     331.682E-03    -164.860E-03    -167.309E-03    -165.881E-03     330.254E-03    -164.860E-03     53.1528E-03     157.048E+06     140.031E+06    -6.33871E+06    -2.87327E+06     141.577E+06     152.036E+06     12.1074E+06         71.0647
             120     15.2749E-03     36.4803E-03         23.7224        -3.81067        -164.371        -138.541        -4.79010        -1.12795        -21.0149     331.178E-03    -164.852E-03    -166.455E-03    -165.125E-03     329.901E-03    -164.904E-03     50.3400E-03     150.679E+06     131.689E+06    -6.54433E+06    -2.79071E+06     132.947E+06     145.668E+06    -17.5314E+06         71.1441
             121     15.2779E-03     37.8707E-03     656.439E-03        -3.84137        -165.258        -164.236        -3.04758        -1.15864         23.8123     330.391E-03    -164.931E-03    -165.395E-03    -163.976E-03     329.025E-03    -164.984E-03     51.9779E-03     134.654E+06     90.3870E+06    -21.6556E+06    -17.8379E+06     86.5693E+06     134.654E+06    -11.7365E+06         71.1843
             122     15.2746E-03     39.2646E-03         2.06234    -15.8806E-03        -24.7355        -24.7312         2.05805    -15.8806E-03    -299.323E-03     330.619E-03    -165.007E-03    -165.671E-03    -164.134E-03     329.082E-03    -165.007E-03     55.0900E-03     140.919E+06     81.7703E+06    -2.97458E+06    -2.80568E+06     81.6014E+06     140.919E+06     2.75920E+06         71.1743
             123     15.2785E-03     40.6570E-03     307.742E-03    -71.2196E-03        -5.71438        -5.69848     176.019E-03     44.6046E-03     48.8642E-03     329.855E-03    -164.760E-03    -165.198E-03    -163.385E-03     328.228E-03    -164.945E-03     56.6469E-03     141.359E+06     87.9403E+06    -3.99061E+06    -3.60280E+06     87.5525E+06     141.359E+06     4.54980E+06         71.1195
             124     15.2781E-03     42.0401E-03     47.3083E-03    -361.274E-03        -4.13044        -4.11333    -378.382E-03     47.3083E-03     110.978E-03     329.731E-03    -164.663E-03    -165.107E-03    -163.513E-03     328.323E-03    -164.849E-03     52.6200E-03     143.526E+06     93.5204E+06    -5.94093E+06    -5.53510E+06     93.1146E+06     143.526E+06     5.56760E+06         71.0323
             125     15.2778E-03     43.4341E-03     121.783E-03    -251.179E-03        -2.40704        -2.37615    -201.865E-03     41.5791E-03    -413.029E-03     329.588E-03    -164.613E-03    -165.109E-03    -163.563E-03     328.280E-03    -164.851E-03     50.7754E-03     142.764E+06     93.2623E+06    -2.66188E+06    -2.32696E+06     92.9274E+06     142.764E+06    -3.21217E+06         70.9253
             126     15.2775E-03     44.8188E-03     973.291E-03     35.5945E-03    -441.773E-03     504.619E-03     26.8993E-03     35.5945E-03    -140.931E-03     331.441E-03    -164.594E-03    -167.087E-03    -165.336E-03     329.928E-03    -164.831E-03     54.7774E-03     140.307E+06     89.8562E+06    -8.32579E+06    -8.00829E+06     89.5387E+06     140.307E+06    -3.87863E+06         70.8311
             127     15.2773E-03     46.2222E-03         1.16056     31.2813E-03    -162.756E-03         1.15758    -159.783E-03     31.2813E-03     123.657E-03     331.369E-03    -164.211E-03    -167.101E-03    -165.213E-03     330.116E-03    -164.846E-03     49.2651E-03     141.212E+06     92.5701E+06    -5.83755E+06    -5.45398E+06     92.1866E+06     141.212E+06     4.73378E+06         70.7758
             128     15.2770E-03     47.5975E-03     297.184E-03    -42.3066E-03    -190.203E-03     209.307E-03    -170.035E-03     25.4030E-03     43.3409E-03     327.657E-03    -162.488E-03    -165.044E-03    -161.406E-03     326.575E-03    -165.044E-03     45.7245E-03     141.972E+06     92.0107E+06    -2.77861E+06    -2.16984E+06     91.4019E+06     141.972E+06     1.47041E+06         70.7740
             129     15.2790E-03     48.9900E-03     30.7373E-03    -46.7508E-03    -141.132E-03    -56.9144E-03    -121.190E-03     20.9588E-03     16.2202E-03     328.750E-03    -163.089E-03    -165.571E-03    -162.284E-03     327.384E-03    -165.011E-03     51.7798E-03     147.881E+06      93.412E+06     5.97136E+06     6.22342E+06     93.1599E+06     147.881E+06    -4.13508E+06         70.8182
             130     15.2774E-03     50.3901E-03     42.4718E-03     17.9055E-03    -131.623E-03     41.3274E-03    -130.479E-03     17.9055E-03     18.1400E-03     331.446E-03    -164.975E-03    -166.645E-03    -165.185E-03     329.986E-03    -164.975E-03     53.8527E-03     141.628E+06     89.6320E+06    -4.91014E+06    -4.88005E+06     89.6019E+06     141.628E+06    -1.54854E+06         70.8578
             131     15.2718E-03     51.7828E-03     49.5243E-03     15.0595E-03    -131.523E-03     48.4085E-03    -130.407E-03     15.0595E-03     18.6785E-03     330.900E-03    -165.124E-03    -166.314E-03    -164.608E-03     329.193E-03    -165.124E-03     58.0512E-03     129.501E+06     80.1876E+06    -18.6668E+06    -18.6620E+06     80.1828E+06     129.501E+06    -609.262E+03         70.8623
             132     15.2767E-03     53.1712E-03     41.6227E-03     12.9085E-03    -119.559E-03     40.1827E-03    -118.119E-03     12.9085E-03     29.6287E-03     327.832E-03    -162.873E-03    -165.184E-03    -161.072E-03     325.951E-03    -165.105E-03     60.6389E-03     138.015E+06     87.6681E+06    -5.48723E+06    -5.34479E+06     87.5257E+06     138.015E+06     2.30096E+06         70.8472
             133     15.2830E-03     54.5490E-03     34.7669E-03     11.5233E-03    -110.639E-03     34.4369E-03    -110.309E-03     11.5233E-03     9.67521E-03     325.747E-03    -161.017E-03    -164.814E-03    -159.307E-03     324.036E-03    -164.814E-03     57.5534E-03     151.407E+06     102.161E+06     10.6984E+06     11.0326E+06     101.827E+06     151.407E+06     5.51389E+06         70.8346
             134     15.2842E-03     55.9357E-03     45.9676E-03     11.2755E-03    -120.633E-03     45.9448E-03    -120.610E-03     11.2755E-03     3.01612E-03     329.744E-03    -163.129E-03    -167.221E-03    -164.363E-03     328.450E-03    -164.694E-03     50.2182E-03     144.959E+06     97.7852E+06    -2.63867E+06    -1.52304E+06     96.6696E+06     144.959E+06    -3.77461E+06         70.8234
             135     15.2722E-03     57.3357E-03     47.6150E-03     12.3276E-03    -125.463E-03     47.1841E-03    -125.032E-03     12.3276E-03     14.4657E-03     333.745E-03    -164.824E-03    -169.341E-03    -168.103E-03     332.507E-03    -164.824E-03     49.6609E-03     138.149E+06     90.6082E+06    -12.0160E+06    -10.5456E+06     89.1378E+06     138.149E+06    -1.57579E+06         70.8011
             136     15.2774E-03     58.7305E-03     43.0030E-03     13.5835E-03    -122.450E-03     42.1867E-03    -121.633E-03     13.5835E-03     19.3547E-06     330.244E-03    -163.609E-03    -166.890E-03    -163.964E-03     328.610E-03    -164.900E-03     56.7377E-03     142.493E+06     96.4214E+06    -1.92535E+06    -1.34452E+06     95.8405E+06     142.493E+06     3.99385E+06         70.7687
             137     15.2822E-03     60.1151E-03     38.3355E-03     14.9604E-03    -117.571E-03     37.8718E-03    -117.107E-03     14.9604E-03    -15.6167E-03     328.586E-03    -163.546E-03    -165.351E-03    -162.351E-03     326.878E-03    -164.838E-03     57.8865E-03     144.388E+06     95.6531E+06    -1.60774E+06    -1.56824E+06     95.6136E+06     144.388E+06    -1.79383E+06         70.7255
             138     15.2808E-03     61.5070E-03     37.7031E-03     17.4656E-03    -116.934E-03     37.5691E-03    -116.800E-03     17.4656E-03    -9.08489E-03     330.620E-03    -164.768E-03    -166.076E-03    -164.808E-03     329.352E-03    -164.768E-03     49.6649E-03     142.815E+06     93.4639E+06    -8.04232E+06    -7.99402E+06     93.4156E+06     142.815E+06    -2.01091E+06         70.6623
             139     15.2754E-03     62.8939E-03     43.0558E-03     20.9953E-03    -128.804E-03     41.8398E-03    -127.588E-03     20.9953E-03    -25.2202E-03     328.886E-03    -163.202E-03    -165.744E-03    -162.978E-03     327.866E-03    -164.949E-03     44.7350E-03     142.307E+06     95.0528E+06    -4.53188E+06    -4.46389E+06     94.9848E+06     142.307E+06    -2.58462E+06         70.5879
             140     15.2768E-03     64.2813E-03     44.3925E-03     25.8408E-03    -137.872E-03     43.1551E-03    -136.635E-03     25.8408E-03    -26.2188E-03     326.356E-03    -161.180E-03    -165.013E-03    -159.784E-03     324.960E-03    -165.013E-03     51.8224E-03     142.372E+06     95.8040E+06    -4.39241E+06    -3.28137E+06     94.6930E+06     142.372E+06     6.33926E+06         70.5345
             141     15.2844E-03     65.6660E-03     47.3920E-03     31.5445E-03    -143.662E-03     46.6674E-03    -142.937E-03     31.5445E-03    -21.7558E-03     326.575E-03    -161.393E-03    -164.869E-03    -160.110E-03     325.292E-03    -164.869E-03     49.3249E-03     142.906E+06     97.4541E+06    -6.17460E+06    -3.57476E+06     94.8543E+06     142.906E+06    -1.26121E+06         70.5074
             142     15.2755E-03     67.0539E-03     44.8149E-03     36.4008E-03    -149.141E-03     43.7289E-03    -148.055E-03     36.4008E-03    -28.8869E-03     329.084E-03    -163.455E-03    -165.136E-03    -162.479E-03     327.816E-03    -164.844E-03     49.3551E-03     139.291E+06     91.2821E+06    -7.84788E+06    -6.33379E+06      89.768E+06     139.291E+06    -8.72881E+06         70.4927
             143     15.2811E-03     68.4456E-03     43.4209E-03     41.0931E-03    -149.572E-03     42.7674E-03    -148.919E-03     41.0931E-03    -21.8689E-03     332.943E-03    -164.718E-03    -167.951E-03    -166.443E-03     331.435E-03    -164.718E-03     54.8077E-03     143.364E+06     92.5938E+06    -4.33055E+06    -4.17647E+06     92.4397E+06     143.364E+06     2.72667E+06         70.4870
             144     15.2747E-03     69.8492E-03     48.6472E-03     42.1216E-03    -151.382E-03     43.6644E-03    -151.135E-03     46.8573E-03    -13.2979E-03     332.391E-03    -164.760E-03    -167.831E-03    -166.478E-03     331.038E-03    -164.760E-03     51.9515E-03     142.203E+06     94.1009E+06    -5.24156E+06    -5.07290E+06     93.9322E+06     142.203E+06     3.60686E+06         70.4631
             145     15.2796E-03     71.2347E-03     55.2100E-03     48.1365E-03    -167.301E-03     50.4168E-03    -167.244E-03     52.8722E-03    -3.47591E-03     330.059E-03    -164.986E-03    -165.246E-03    -163.741E-03     328.555E-03    -164.986E-03     54.4361E-03     137.209E+06     93.2268E+06    -9.33826E+06    -9.31273E+06     93.2012E+06     137.209E+06     96.2958E+03         70.4014
             146     15.2745E-03     72.6261E-03     60.2274E-03     52.8124E-03    -179.583E-03     55.0731E-03    -179.506E-03     57.8896E-03     6.95645E-03     331.417E-03    -164.913E-03    -166.597E-03    -165.103E-03     329.924E-03    -164.913E-03     54.3677E-03     141.468E+06     96.6461E+06    -6.95345E+06    -6.89238E+06     96.5850E+06     141.468E+06     840.965E+03         70.3037
             147     15.2783E-03     74.0210E-03     62.2121E-03     39.4665E-03    -169.750E-03     39.0882E-03    -169.372E-03     62.2121E-03    -4.92611E-03     327.050E-03    -161.010E-03    -166.336E-03    -161.160E-03     325.648E-03    -164.783E-03     52.2880E-03     147.281E+06     99.4330E+06     6.44677E+06     6.50763E+06     99.3721E+06     147.281E+06     2.26944E+06         70.1895
             148     15.2873E-03     75.3886E-03     66.9518E-03     44.3402E-03    -179.450E-03     43.9851E-03    -179.095E-03     66.9518E-03    -5.62080E-03     324.998E-03    -160.420E-03    -164.680E-03    -158.989E-03     323.567E-03    -164.680E-03     52.6118E-03     151.217E+06     102.030E+06     7.13825E+06     7.17629E+06     101.992E+06     151.217E+06    -532.026E+03         70.1023
             149     15.2772E-03     78.1827E-03     74.4993E-03     47.9906E-03    -192.582E-03     47.1023E-03    -191.694E-03     74.4993E-03    -29.1626E-03     332.991E-03    -164.829E-03    -168.502E-03    -167.298E-03     331.787E-03    -164.829E-03     49.0484E-03     140.879E+06     95.1972E+06    -12.8041E+06    -12.6128E+06     95.0059E+06     140.879E+06     2.24131E+06         70.0440
             150     15.2757E-03     79.5798E-03     76.4673E-03     45.0905E-03    -190.506E-03     44.6252E-03    -190.041E-03     76.4673E-03    -15.6121E-03     326.839E-03    -161.447E-03    -165.697E-03    -160.813E-03     325.474E-03    -164.967E-03     51.5687E-03     147.397E+06     101.562E+06     -2.3798E+06    -1.97563E+06     101.158E+06     147.397E+06     6.45191E+06         70.0426
             151     15.2845E-03     80.9501E-03     78.3818E-03     47.4052E-03    -195.680E-03     46.5346E-03    -194.809E-03     78.3818E-03    -21.6260E-03     327.486E-03    -161.363E-03    -166.123E-03    -161.082E-03     325.964E-03    -164.882E-03     54.5230E-03     146.238E+06     102.296E+06    -2.28257E+06    -1.39942E+06     101.413E+06     146.238E+06    -2.55034E+06         70.0374
             152     15.2766E-03     82.3523E-03     79.4623E-03     48.9697E-03    -195.022E-03     48.0998E-03    -194.152E-03     79.4623E-03    -21.4301E-03     334.621E-03    -164.848E-03    -169.855E-03    -168.516E-03     333.282E-03    -164.848E-03     51.6152E-03     146.177E+06     101.833E+06    -8.73374E+06    -7.98292E+06     101.082E+06     146.177E+06    -3.62466E+06         70.0090
             153     15.2758E-03     83.7589E-03     79.5803E-03     41.5910E-03    -182.713E-03     41.5697E-03    -182.692E-03     79.5803E-03     2.13285E-03     333.143E-03    -164.745E-03    -168.754E-03    -167.285E-03     331.916E-03    -164.987E-03     49.4184E-03     143.000E+06     98.1912E+06    -11.2076E+06    -11.0435E+06     98.0272E+06     143.000E+06     4.22684E+06         69.9566
             154     15.2743E-03     85.1310E-03     78.0198E-03     44.5044E-03    -183.022E-03     44.3354E-03    -182.853E-03     78.0198E-03    -5.67098E-03     328.323E-03    -163.467E-03    -165.067E-03    -162.220E-03     327.076E-03    -165.067E-03     49.4059E-03     134.465E+06     95.4338E+06    -15.2258E+06    -15.1122E+06     95.3203E+06     134.465E+06     3.50587E+06         69.9083
             155     15.2794E-03     86.5276E-03     75.0682E-03     54.7823E-03    -189.856E-03     54.5570E-03    -189.630E-03     75.0682E-03    -2.48066E-03     325.273E-03    -160.364E-03    -165.068E-03    -159.132E-03     324.041E-03    -165.068E-03     48.7891E-03     148.643E+06     113.325E+06     1.37593E+06     1.58910E+06     113.112E+06     148.643E+06    -1.45376E+06         69.8759
             156     15.2813E-03     87.9049E-03     72.0031E-03     45.7001E-03    -181.643E-03     45.5947E-03    -181.538E-03     72.0031E-03     9.58959E-03     326.119E-03    -161.590E-03    -165.017E-03    -160.383E-03     324.913E-03    -165.017E-03     48.3477E-03     157.011E+06     117.964E+06     3.84851E+06     4.14556E+06     117.666E+06     157.011E+06    -5.78622E+06         69.8604
             157     15.2735E-03     89.2984E-03     68.4194E-03     43.6928E-03    -175.552E-03     43.5265E-03    -175.386E-03     68.4194E-03    -4.37712E-03     329.087E-03    -164.605E-03    -164.904E-03    -163.494E-03     327.976E-03    -164.904E-03     46.7667E-03     151.164E+06     114.769E+06    -3.90577E+06    -3.29077E+06     114.154E+06     151.164E+06     2.57375E+06         69.8649
             158     15.2798E-03     90.6860E-03     64.3429E-03     40.2906E-03    -160.913E-03     39.1583E-03    -159.781E-03     64.3429E-03    -26.4970E-03     328.953E-03    -164.140E-03    -164.897E-03    -162.836E-03     327.650E-03    -164.897E-03     50.5622E-03     153.703E+06     119.370E+06    -153.001E+03     533.817E+03     118.684E+06     153.703E+06     1.85861E+06         69.8851
             159     15.2778E-03     92.0769E-03     59.4059E-03     41.6550E-03    -156.147E-03     40.6442E-03    -155.136E-03     59.4059E-03    -21.2566E-03     328.538E-03    -163.551E-03    -164.887E-03    -162.374E-03     327.361E-03    -164.887E-03     47.7733E-03     156.294E+06     119.823E+06    -2.44301E+06    -2.17573E+06     119.555E+06     156.294E+06    -1.42014E+06         69.9027
             160     15.2785E-03     93.4634E-03     53.4607E-03     49.8426E-03    -162.244E-03     49.8101E-03    -162.211E-03     53.4607E-03    -29.4670E-06     327.603E-03    -162.368E-03    -164.953E-03    -161.378E-03     326.612E-03    -164.953E-03     43.9735E-03     153.661E+06     119.920E+06    -7.10902E+06    -6.88314E+06     119.694E+06     153.661E+06    -1.15747E+06         69.9050
             161     15.2753E-03     94.8461E-03     47.5022E-03     34.8747E-03    -140.136E-03     30.8426E-03    -136.104E-03     47.5022E-03    -30.5898E-03     328.817E-03    -163.214E-03    -165.437E-03    -162.404E-03     327.571E-03    -165.002E-03     49.3716E-03     153.854E+06     120.618E+06    -7.58309E+06    -7.32628E+06     120.362E+06     153.854E+06    -714.794E+03         69.9068
             162     15.2812E-03     96.2485E-03     48.2926E-03     30.4578E-03    -126.522E-03     33.3670E-03    -122.507E-03     41.3679E-03    -33.3783E-03     329.998E-03    -164.668E-03    -165.322E-03    -163.741E-03     328.635E-03    -164.886E-03     51.8696E-03     158.316E+06     124.106E+06    -5.27754E+06    -5.16095E+06     123.990E+06     158.316E+06     3.56207E+06         69.9122
             163     15.2797E-03     97.6310E-03     47.4321E-03     35.3519E-03    -130.297E-03     47.4284E-03    -130.293E-03     35.3519E-03     936.223E-06     326.344E-03    -161.790E-03    -164.793E-03    -160.640E-03     325.194E-03    -164.793E-03     47.2325E-03     164.277E+06     132.916E+06    -1.92073E+06    -1.76802E+06     132.764E+06     164.277E+06     4.10321E+06         69.9130
             164     15.2840E-03     99.0125E-03     40.4713E-03     28.4985E-03    -116.688E-03     40.2110E-03    -116.427E-03     28.4985E-03    -7.38991E-03     325.968E-03    -161.624E-03    -164.707E-03    -160.322E-03     324.666E-03    -164.707E-03     49.9810E-03     162.556E+06     133.922E+06    -6.85983E+06    -6.66742E+06     133.730E+06     162.556E+06     1.00330E+06         69.9203
             165     15.2835E-03     100.405E-03     27.6206E-03     20.5408E-03    -93.3435E-03     26.9933E-03    -92.9786E-03     20.8033E-03    -3.85994E-03     331.812E-03    -164.242E-03    -167.746E-03    -165.981E-03     330.345E-03    -164.541E-03     53.9526E-03     168.969E+06     141.735E+06    -4.02676E+06    -3.58696E+06     141.295E+06     168.969E+06     3.24339E+06         69.9349
             166     15.2822E-03     101.812E-03     20.3794E-03     14.9529E-03    -82.1180E-03     18.7606E-03    -80.7617E-03     15.2154E-03    -11.3090E-03     329.385E-03    -161.871E-03    -167.680E-03    -163.568E-03     327.877E-03    -164.474E-03     54.3869E-03     171.528E+06     145.200E+06     606.096E+03     1.02808E+06     144.778E+06     171.528E+06     6.94488E+06         69.9377
             167     15.2900E-03     103.182E-03     43.4434E-03     10.8396E-03    -95.9406E-03     41.4340E-03    -93.9312E-03     10.8396E-03    -32.1736E-03     322.452E-03    -158.328E-03    -164.500E-03    -156.748E-03     320.872E-03    -164.500E-03     55.0012E-03     170.154E+06     142.589E+06    -1.50863E+06    -812.950E+03     141.893E+06     170.154E+06    -5.20078E+06         69.9340
             168     15.2887E-03     104.561E-03     36.9020E-03     5.74433E-03    -89.0342E-03     35.9674E-03    -88.0996E-03     5.74433E-03    -21.3928E-03     322.815E-03    -159.107E-03    -164.366E-03    -157.794E-03     321.501E-03    -164.366E-03     50.1515E-03     172.443E+06     146.016E+06    -2.99465E+06    -2.32353E+06     145.345E+06     172.443E+06    -5.82036E+06         69.9415
             169     15.2914E-03     105.946E-03     15.8187E-03     866.956E-06    -64.2562E-03     15.2982E-03    -63.7357E-03     866.956E-06    -12.7139E-03     325.752E-03    -162.112E-03    -164.208E-03    -160.887E-03     324.527E-03    -164.208E-03     48.8355E-03     173.634E+06     150.616E+06    -4.43801E+06    -4.41955E+06     150.598E+06     173.634E+06     1.61289E+06         69.9693
             170     15.2907E-03     107.334E-03     26.8201E-03    -3.38161E-03    -64.4439E-03     25.9487E-03    -63.5725E-03    -3.38161E-03    -17.7234E-03     328.359E-03    -163.689E-03    -164.999E-03    -163.352E-03     327.119E-03    -164.096E-03     49.3827E-03     173.839E+06     153.506E+06    -4.65376E+06    -4.64973E+06     153.502E+06     173.839E+06     548.456E+03         70.0177
             171     15.2923E-03     108.727E-03     23.2314E-03    -5.80476E-03    -56.5067E-03     22.2400E-03    -55.5153E-03    -5.80476E-03    -2.78357E-03     328.384E-03    -163.585E-03    -165.000E-03    -163.271E-03     327.168E-03    -164.097E-03     48.9116E-03     173.257E+06     154.685E+06    -5.59045E+06    -5.58412E+06     154.679E+06     173.257E+06     700.597E+03         70.0716
             172     15.2930E-03     110.112E-03     28.5294E-03    -6.47383E-03    -56.2853E-03     27.8495E-03    -55.6054E-03    -6.47383E-03     567.823E-06     326.854E-03    -162.963E-03    -164.109E-03    -161.648E-03     325.540E-03    -164.109E-03     50.6551E-03     176.655E+06     160.399E+06    -3.76922E+06    -3.75137E+06     160.382E+06     176.655E+06     1.69515E+06         70.1234
             173     15.2940E-03     111.502E-03     31.5966E-03    -7.07594E-03    -59.8832E-03     28.3251E-03    -56.6116E-03    -7.07594E-03     13.3755E-03     326.378E-03    -162.742E-03    -164.049E-03    -161.411E-03     325.048E-03    -164.049E-03     50.9355E-03     176.540E+06     163.181E+06    -6.31100E+06    -6.29875E+06     163.169E+06     176.540E+06     728.444E+03         70.1782
             174     15.2948E-03     112.884E-03     15.5337E-03    -7.20062E-03    -40.6595E-03     12.2661E-03    -37.3920E-03    -7.20062E-03     16.1662E-03     326.398E-03    -162.767E-03    -164.005E-03    -161.549E-03     325.180E-03    -164.005E-03     48.7357E-03     179.550E+06     166.426E+06    -4.00208E+06    -3.97308E+06     166.397E+06     179.550E+06     1.29216E+06         70.2360
             175     15.2961E-03     114.269E-03     24.0849E-03    -7.06535E-03    -51.7040E-03     23.5552E-03    -51.1743E-03    -7.06535E-03    -12.4976E-03     327.602E-03    -163.352E-03    -164.326E-03    -162.530E-03     326.372E-03    -163.918E-03     49.0813E-03     181.588E+06     170.902E+06    -6.24908E+06    -6.22058E+06     170.874E+06     181.588E+06     1.69314E+06         70.2963
             176     15.2972E-03     115.662E-03     15.7241E-03    -24.5948E-03    -75.6457E-03    -19.8877E-03    -58.1991E-03    -6.42955E-03    -6.57472E-03     329.981E-03    -163.779E-03    -166.397E-03    -164.991E-03     328.575E-03    -163.779E-03     52.7291E-03     183.361E+06     174.526E+06    -4.71746E+06    -4.71263E+06     174.522E+06     183.361E+06     779.228E+03         70.3657
             177     15.2983E-03     117.056E-03     136.664E-03    -21.7648E-03    -85.0838E-03     101.289E-03    -67.8743E-03    -3.59960E-03    -6.02333E-03     329.140E-03    -163.538E-03    -165.965E-03    -164.426E-03     327.818E-03    -163.756E-03     50.9682E-03     184.137E+06     176.774E+06    -5.23109E+06    -5.22519E+06     176.769E+06     184.137E+06     983.769E+03         70.4451
             178     15.2987E-03     118.445E-03     566.830E-03     268.142E-06    -56.2616E-03     564.505E-03    -53.9363E-03     268.142E-06    -70.3157E-03     323.795E-03    -160.167E-03    -163.878E-03    -158.980E-03     322.609E-03    -163.878E-03     47.8466E-03     185.326E+06     179.326E+06    -5.58157E+06    -5.58015E+06     179.325E+06     185.326E+06     453.683E+03         70.5322
             179     15.2999E-03     119.815E-03     487.673E-03     1.17605E-03    -230.857E-03     206.182E-03     50.6346E-03     1.17605E-03    -8.59101E-03     321.966E-03    -158.238E-03    -163.892E-03    -157.014E-03     320.743E-03    -163.892E-03     48.4130E-03     185.586E+06     180.754E+06    -5.64640E+06    -5.64267E+06     180.750E+06     185.586E+06     692.773E+03         70.6385
             180     15.2997E-03     121.201E-03     63.9491E-03    -141.796E-03        -1.28358        -1.27009    -95.0878E-03     3.75073E-03     252.900E-03     325.122E-03    -161.619E-03    -163.781E-03    -160.408E-03     323.911E-03    -163.781E-03     48.4807E-03     188.933E+06     183.316E+06    -4.74607E+06    -4.73969E+06     183.310E+06     188.933E+06     1.09386E+06         70.7710
             181     15.3014E-03     122.588E-03     11.7934E-03    -191.160E-03        -2.07728        -2.06015    -208.290E-03     11.7934E-03     44.3919E-03     326.927E-03    -163.499E-03    -163.741E-03    -162.253E-03     325.682E-03    -163.741E-03     49.3642E-03     191.601E+06     184.025E+06    -4.26287E+06    -4.25185E+06     184.014E+06     191.601E+06    -394.872E+03         70.9264
             182     15.3001E-03     123.982E-03     253.937E-03    -46.1746E-03        -2.95102        -2.94397     189.477E-03     11.2323E-03    -239.260E-03     326.665E-03    -163.097E-03    -163.790E-03    -161.588E-03     325.156E-03    -163.790E-03     54.1219E-03     191.741E+06     181.709E+06    -4.38183E+06    -4.36998E+06     181.697E+06     191.741E+06    -330.540E+03         71.1168
             183     15.3012E-03     125.368E-03         1.12272    -43.4551E-03        -13.1271        -13.1229         1.11852    -43.4551E-03    -488.324E-03     325.541E-03    -162.127E-03    -163.783E-03    -160.509E-03     323.922E-03    -163.783E-03     56.0534E-03     187.598E+06     175.871E+06    -7.11016E+06     -6.9628E+06     175.724E+06     187.598E+06    -3.11007E+06         71.3588
             184     15.3022E-03     126.745E-03     291.325E-03        -2.18068        -84.0072        -83.6005        -1.66387    -632.148E-03        -11.0512     326.206E-03    -162.485E-03    -163.954E-03    -161.133E-03     324.590E-03    -163.690E-03     56.1028E-03     181.598E+06     172.556E+06    -5.32315E+06    -4.23437E+06     171.467E+06     181.598E+06     5.17098E+06         71.7020
             185     15.3033E-03     128.140E-03         10.7990        -2.09212        -84.8766        -73.1194        -2.50678    -543.581E-03         12.7862     329.865E-03    -163.498E-03    -166.292E-03    -164.688E-03     328.261E-03    -163.498E-03     56.2718E-03     184.847E+06     171.516E+06    -11.8994E+06    -10.5242E+06     179.132E+06     175.856E+06     2.02356E+06         72.2234
             186     15.3029E-03     129.523E-03         88.1991         2.01052        -11.4351         75.6095         2.49732     667.569E-03         11.2618     330.436E-03    -163.420E-03    -167.077E-03    -165.790E-03     329.149E-03    -163.420E-03     50.4255E-03     185.030E+06     164.180E+06    -18.1520E+06    -17.6952E+06     172.715E+06     176.039E+06    -5.34159E+06         72.9406
             187     15.3043E-03     130.916E-03         90.1228         2.03151    -678.474E-03         89.6244         1.16283     688.557E-03        -12.0699     328.439E-03    -163.513E-03    -165.235E-03    -163.992E-03     327.196E-03    -163.513E-03     49.4018E-03     181.243E+06     156.987E+06    -9.07698E+06    -8.75705E+06     156.667E+06     181.243E+06    -3.45594E+06         73.7796
             188     15.3045E-03     132.305E-03         27.1811     154.186E-03        -2.49371         27.1738        -2.48644     154.186E-03     755.514E-03     331.281E-03    -163.383E-03    -168.238E-03    -166.611E-03     329.654E-03    -163.383E-03     56.7905E-03     176.910E+06     148.741E+06    -941.821E+03    -646.997E+03     148.446E+06     176.910E+06    -5.24706E+06         74.6127
             189     15.3058E-03     133.707E-03         92.8329         2.11933    -525.337E-03         92.4169         1.25447     755.526E-03         11.8413     336.533E-03    -163.183E-03    -173.728E-03    -171.913E-03     334.718E-03    -163.183E-03     60.7418E-03     176.453E+06     143.319E+06     10.6500E+06     10.7247E+06     143.244E+06     176.453E+06     1.89391E+06         75.3394
             190     15.3049E-03     135.111E-03         93.2396         2.02862        -10.0114         82.0431         2.54898     664.812E-03        -13.5376     336.597E-03    -163.146E-03    -173.819E-03    -172.212E-03     334.990E-03    -163.146E-03     57.1441E-03     161.539E+06     142.715E+06    -9.97853E+06    -9.75640E+06     142.493E+06     161.539E+06    -1.37833E+06         75.9527
             191     15.3064E-03     136.493E-03         13.6619        -2.07176        -90.9202        -76.1675        -2.54542    -617.198E-03        -11.2497     338.525E-03    -163.094E-03    -175.722E-03    -174.232E-03     337.035E-03    -163.094E-03     55.2786E-03     150.768E+06     127.681E+06    -20.7284E+06    -20.4341E+06     127.387E+06     150.768E+06    -6.58303E+06         76.5186
             192     15.3059E-03     137.907E-03     292.864E-03        -2.08899        -93.2975        -92.7123        -1.74686    -634.433E-03         13.4262     344.076E-03    -162.923E-03    -181.357E-03    -179.962E-03     342.680E-03    -162.923E-03     54.0113E-03     157.150E+06     111.840E+06    -2.78594E+06    -2.63836E+06     111.693E+06     157.150E+06    -3.33940E+06         77.0702
             193     15.3073E-03     139.326E-03         1.11473     704.499E-06        -15.6612        -15.6581         1.11167     704.499E-06    -233.461E-03     343.733E-03    -162.866E-03    -181.083E-03    -179.775E-03     342.425E-03    -162.866E-03     52.3291E-03     165.732E+06     113.219E+06    -2.99460E+06    -2.95766E+06     113.182E+06     165.732E+06     1.14902E+06         77.5975
             194     15.3069E-03     140.723E-03     225.354E-03    -42.9832E-03        -3.96468        -3.95802     137.089E-03     38.6261E-03    -46.8661E-03     343.202E-03    -162.891E-03    -180.683E-03    -179.381E-03     341.900E-03    -162.891E-03     52.1562E-03     175.823E+06     116.101E+06    -1.22880E+06    -1.10477E+06     115.977E+06     175.823E+06    -699.249E+03         78.1047
             195     15.3083E-03     142.136E-03     41.9309E-03    -197.678E-03        -2.42283        -2.41532    -205.189E-03     41.9309E-03     17.5075E-03     348.483E-03    -162.732E-03    -186.118E-03    -184.715E-03     347.081E-03    -162.732E-03     54.6300E-03     174.461E+06     111.759E+06     2.53902E+06     2.69897E+06     111.599E+06     174.461E+06    -4.16724E+06         78.5938
             196     15.3078E-03     143.569E-03     158.075E-03    -119.807E-03        -1.07463        -1.00620    -68.3538E-03     38.1919E-03    -264.308E-03     351.877E-03    -162.600E-03    -189.408E-03    -187.868E-03     350.337E-03    -162.600E-03     57.6641E-03     171.091E+06     101.774E+06    -2.32075E+06    -2.24368E+06     101.697E+06     171.091E+06    -2.53721E+06         79.0449
             197     15.3098E-03     144.987E-03     784.326E-03     32.8639E-03    -26.3425E-03     701.277E-03     56.7065E-03     32.8639E-03    -70.8356E-03     354.300E-03    -162.492E-03    -191.810E-03    -190.044E-03     352.534E-03    -162.492E-03     61.8978E-03     170.664E+06     91.0601E+06    -2.45002E+06    -2.33670E+06     90.9468E+06     170.664E+06    -2.74712E+06         79.4552
             198     15.3096E-03     146.410E-03     801.538E-03     28.5820E-03    -75.4318E-03     796.678E-03    -70.5719E-03     28.5820E-03     122.237E-03     356.261E-03    -162.391E-03    -193.975E-03    -192.447E-03     354.733E-03    -162.391E-03     57.2078E-03     167.033E+06     80.6378E+06    -8.58271E+06    -8.41578E+06     80.4709E+06     167.033E+06    -3.81857E+06         79.8467
             199     15.3115E-03     147.840E-03     164.755E-03     3.18783E-03    -139.626E-03     69.9920E-03    -65.0530E-03     23.3783E-03     61.2199E-03     353.611E-03    -162.442E-03    -191.358E-03    -189.919E-03     352.172E-03    -162.442E-03     55.3908E-03     169.694E+06     72.8023E+06    -436.180E+03     -364.65E+03     72.7308E+06     169.694E+06    -1.04968E+06         80.2635
             200     15.3118E-03     149.256E-03     17.8580E-03    -5.41122E-03    -96.0171E-03    -77.2404E-03    -24.1879E-03     17.8580E-03     10.6223E-03     349.547E-03    -162.467E-03    -187.407E-03    -185.962E-03     348.101E-03    -162.467E-03     55.1832E-03     166.764E+06     67.7637E+06    -505.313E+03    -343.000E+03     67.6014E+06     166.764E+06    -1.85030E+06         80.7771
             201     15.3132E-03     150.669E-03     25.8555E-03     8.89604E-03    -40.1434E-03     12.8322E-03    -30.1988E-03     11.9748E-03     34.9208E-03     341.384E-03    -162.596E-03    -179.162E-03    -177.932E-03     340.154E-03    -162.596E-03     50.3978E-03     154.401E+06     55.1481E+06    -835.010E+03    -402.469E+03     54.7156E+06     154.401E+06    -4.58034E+06         81.4172
             202     15.3137E-03     152.074E-03     24.3896E-03     6.04076E-03    -38.6389E-03    -2.41777E-03    -11.8315E-03     6.04076E-03     46.9919E-03     304.533E-03    -136.108E-03    -168.681E-03    -140.463E-03     303.805E-03    -163.599E-03     31.4394E-03     136.457E+06     44.1244E+06    -5.79477E+06    -4.07330E+06     42.4029E+06     136.457E+06    -8.91437E+06         82.0549
             203     14.3676E-03     153.299E-03     8.47170E-03     1.03660E-03    -17.5665E-03    -13.3614E-03     1.29964E-03     4.00355E-03     5.30205E-03     277.829E-03    -112.270E-03    -165.894E-03    -112.033E-03     277.592E-03    -165.894E-03    -7.92535E-03     101.380E+06     14.9517E+06    -37.2170E+06    -17.4851E+06    -4.78025E+06     101.380E+06    -10.2650E+06         80.6522
             204     13.4674E-03     153.172E-03     6.83911E-03     2.36265E-03    -14.4678E-03    -1.20663E-03    -9.38901E-03     5.32961E-03    -16.1077E-03     282.587E-03    -114.414E-03    -168.592E-03    -113.401E-03     281.574E-03    -168.592E-03    -38.0425E-03     83.3598E+06    -1.99102E+06    -28.6421E+06    -10.3228E+06    -20.3103E+06     83.3598E+06    -3.95747E+06         76.2403
             205     12.5709E-03     153.028E-03     13.3700E-03     6.39068E-03    -19.2324E-03     4.06420E-03    -9.92655E-03     6.39068E-03    -29.2473E-03     286.708E-03    -115.569E-03    -171.340E-03    -113.084E-03     284.223E-03    -171.340E-03    -62.0935E-03     89.9353E+06     14.4024E+06    -2.47896E+06    -1.67180E+06     13.5953E+06     89.9353E+06    -3.01699E+06         70.4105
             206     11.6848E-03     152.900E-03     13.0435E-03     3.07460E-03    -15.5811E-03     2.17251E-03    -9.20917E-03     7.57368E-03    -15.7418E-03     297.706E-03    -123.489E-03    -174.280E-03    -119.595E-03     293.813E-03    -174.280E-03    -80.5035E-03     90.5912E+06     17.7997E+06    -10.6031E+06     7.41427E+06    -217.684E+03     90.5912E+06    -8.39274E+06         64.6877
             207     10.8159E-03     152.766E-03     15.6537E-03     3.98190E-03    -21.4926E-03     10.9220E-03    -21.2599E-03     8.48098E-03     273.719E-06     311.834E-03    -135.091E-03    -176.837E-03    -130.354E-03     307.097E-03    -176.837E-03    -91.5153E-03     96.5896E+06     16.8746E+06    -11.6207E+06     14.7130E+06    -9.45907E+06     96.5896E+06    -7.14271E+06         59.8834
             208     9.95871E-03     152.652E-03     24.2061E-03     8.39439E-03    -28.5519E-03     24.1781E-03    -28.5239E-03     8.39439E-03    -1.58106E-03     324.411E-03    -145.409E-03    -178.934E-03    -140.562E-03     319.564E-03    -178.934E-03    -94.8951E-03     107.230E+06     18.5278E+06    -5.05054E+06     18.0064E+06    -4.52915E+06     107.230E+06    -3.46537E+06         55.9115
             209     9.11045E-03     152.531E-03     18.5843E-03     7.84068E-03    -17.0178E-03     18.3558E-03    -16.7894E-03     7.84068E-03    -2.87158E-03     334.293E-03    -153.542E-03    -180.676E-03    -148.889E-03     329.641E-03    -180.676E-03    -94.8197E-03     110.967E+06     18.1710E+06    -688.624E+03     17.3849E+06      97.508E+03     110.967E+06    -3.51991E+06         52.7891
             210     8.26630E-03     152.431E-03     11.8808E-03     7.62331E-03    -8.29692E-03     10.7781E-03    -7.19425E-03     7.62331E-03    -8.64073E-03     342.081E-03    -159.795E-03    -182.110E-03    -155.410E-03     337.696E-03    -182.110E-03    -93.3449E-03     110.090E+06     18.4613E+06    -2.97072E+06     16.5762E+06    -1.08566E+06     110.090E+06    -6.06616E+06         50.3953
             211     7.42861E-03     152.332E-03     16.6790E-03     7.85953E-03    -11.8897E-03     8.19572E-03    -3.40641E-03     7.85953E-03    -23.9872E-03     349.747E-03    -165.927E-03    -183.442E-03    -162.099E-03     345.919E-03    -183.442E-03    -88.4419E-03     109.801E+06     21.7694E+06    -7.18939E+06     18.4677E+06    -3.88768E+06     109.801E+06    -9.07279E+06         48.6291
             212     6.59463E-03     152.251E-03     26.8788E-03     8.84749E-03    -27.1036E-03     4.64662E-03    -4.87135E-03     8.84749E-03    -53.1351E-03     356.044E-03    -171.363E-03    -184.552E-03    -168.151E-03     352.831E-03    -184.552E-03    -81.9457E-03     111.112E+06     28.8760E+06    -3.26439E+06     25.0900E+06     521.607E+03     111.112E+06    -10.2661E+06         47.6361
             213     5.76511E-03     152.172E-03     34.0312E-03     10.7491E-03    -39.4199E-03     3.28575E-03    -8.67446E-03     10.7491E-03    -72.4686E-03     360.036E-03    -174.527E-03    -185.506E-03    -171.863E-03     357.371E-03    -185.506E-03    -75.2219E-03     104.515E+06     34.5491E+06    -6.15623E+06     30.4942E+06    -2.10136E+06     104.515E+06    -12.1876E+06         47.4058
             214     4.93468E-03     152.113E-03     39.7166E-03     12.2293E-03    -45.8488E-03     16.0119E-03    -22.1441E-03     12.2293E-03    -72.4607E-03     364.562E-03    -177.894E-03    -186.327E-03    -175.801E-03     362.469E-03    -186.327E-03    -66.9946E-03     94.9648E+06     38.3576E+06    -5.97751E+06     34.3733E+06    -1.99324E+06     94.9648E+06    -12.6408E+06         47.5755
             215     4.10911E-03     152.058E-03     31.5135E-03     12.0603E-03    -51.6564E-03     22.3767E-03    -42.5197E-03     12.0603E-03    -49.3331E-03     369.472E-03    -182.268E-03    -186.911E-03    -180.788E-03     367.992E-03    -186.911E-03    -56.8370E-03     87.0562E+06     43.0412E+06    -7.67836E+06     39.6938E+06    -4.33100E+06     87.0562E+06    -12.5411E+06         47.7927
             216     3.28560E-03     152.015E-03     20.3649E-03     10.7489E-03    -41.7416E-03     18.8006E-03    -40.1774E-03     10.7489E-03    -13.5579E-03     372.085E-03    -184.728E-03    -187.288E-03    -183.680E-03     371.037E-03    -187.288E-03    -48.0976E-03     80.9348E+06     48.9675E+06    -7.31326E+06     46.5865E+06    -4.93222E+06     80.9348E+06    -11.1862E+06         47.9609
             217     2.46104E-03     151.977E-03     33.4162E-03     6.13938E-03    -33.5765E-03     27.3987E-03    -27.5590E-03     6.13938E-03     29.8899E-03     372.874E-03    -185.220E-03    -187.639E-03    -184.418E-03     372.073E-03    -187.639E-03    -42.2190E-03     76.2837E+06     58.4146E+06    -3.02864E+06     56.4441E+06    -1.05809E+06     76.2837E+06    -10.8204E+06         48.0790
             218     1.63524E-03     151.952E-03     57.7187E-03    -4.00210E-03    -40.2102E-03     19.5439E-03    -2.03543E-03    -4.00210E-03     85.6808E-03     374.827E-03    -186.670E-03    -188.168E-03    -186.132E-03     374.289E-03    -188.168E-03    -34.1741E-03     65.9071E+06     58.8721E+06    -8.12502E+06     58.3556E+06    -6.15791E+06     64.4565E+06    -11.3921E+06         48.1553
             219     819.008E-06     151.942E-03     60.0935E-03     10.3045E-03    -60.5623E-03    -31.7337E-03     31.2648E-03     10.3045E-03     86.6824E-03     377.060E-03    -186.718E-03    -190.334E-03    -189.945E-03     376.821E-03    -186.868E-03    -22.5703E-03     60.0797E+06     58.4207E+06    -16.1468E+06     58.4276E+06    -14.7031E+06     58.6291E+06    -10.2846E+06         48.2012
             220    -1.63404E-06     150.495E-03     80.9353E-03     1.05025E-03    -77.9983E-03    -62.2774E-03    -5.05829E-03     71.3229E-03     4.63119E-03     358.915E-03    -177.348E-03    -181.564E-03    -181.454E-03     358.805E-03    -177.348E-03    -15.3913E-03     27.0056E+06     25.7508E+06    -33.0980E+06     26.2279E+06    -32.5287E+06     25.9592E+06    -4.60270E+06         47.3568
             221     2.65339E-06     149.075E-03     133.541E-03    -19.6807E-03    -113.417E-03    -70.8865E-03    -62.2109E-03     133.541E-03     42.8420E-03     329.140E-03    -163.381E-03    -165.755E-03    -164.081E-03     329.090E-03    -165.005E-03    -4.93254E-03    -28.9882E+06    -33.7763E+06    -59.5771E+06    -35.1016E+06    -53.4637E+06    -33.7763E+06    -5.04189E+06         45.5081
             222    -5.40829E-06     147.696E-03     152.737E-03    -26.5359E-03    -126.869E-03    -93.2174E-03    -60.1873E-03     152.737E-03     49.1735E-03     309.163E-03    -152.065E-03    -157.122E-03    -152.049E-03     309.146E-03    -157.122E-03     5.27282E-03    -87.8667E+06    -112.448E+06    -119.785E+06    -113.805E+06    -93.2375E+06    -113.057E+06    -9.64433E+06         43.8484
             223    -652.598E-09     146.335E-03     152.284E-03    -32.0643E-03    -119.472E-03    -66.7769E-03    -84.7596E-03     152.284E-03     15.4744E-03     293.849E-03    -144.659E-03    -149.221E-03    -145.746E-03     293.806E-03    -148.092E-03     8.46899E-03    -138.534E+06    -193.348E+06    -194.287E+06    -192.331E+06    -139.551E+06    -194.287E+06     -4.8151E+06         42.7590
             224     2.41872E-06     145.012E-03     130.127E-03    -7.32572E-03    -132.418E-03    -15.5258E-03    -124.218E-03     130.127E-03     58.9491E-03     285.170E-03    -140.783E-03    -144.398E-03    -144.362E-03     285.134E-03    -140.783E-03     7.18133E-03    -169.905E+06    -244.048E+06    -245.204E+06    -244.691E+06    -170.087E+06    -244.379E+06    -3.03529E+06         42.1369
             225     1.85924E-06     143.692E-03     111.403E-03     6.95955E-03    -112.119E-03     3.13663E-03    -108.296E-03     111.403E-03     41.9814E-03     282.712E-03    -139.731E-03    -142.980E-03    -142.975E-03     282.706E-03    -139.731E-03     2.96268E-03    -188.490E+06    -235.373E+06    -239.238E+06    -235.471E+06    -192.258E+06    -235.373E+06    -7.40767E+06         41.8530
             226    -648.271E-09     142.362E-03     91.2229E-03     19.5359E-03    -114.839E-03     17.6844E-03    -112.987E-03     91.2229E-03     7.81489E-03     283.316E-03    -140.031E-03    -143.305E-03    -140.774E-03     283.296E-03    -142.541E-03     5.01172E-03    -176.510E+06    -184.415E+06    -209.983E+06    -182.693E+06    -203.800E+06    -184.415E+06    -4.04871E+06         41.7700
             227    -3.83506E-06     141.029E-03     79.8931E-03     50.2558E-03    -169.415E-03     47.2672E-03    -166.427E-03     79.8931E-03     28.2985E-03     282.166E-03    -139.719E-03    -142.466E-03    -139.936E-03     282.146E-03    -142.229E-03     3.14792E-03    -151.091E+06    -154.479E+06    -210.142E+06    -153.338E+06    -210.092E+06    -152.283E+06    -376.188E+03         41.8070
             228     4.31449E-06     139.710E-03     106.767E-03     60.6913E-03    -204.139E-03     44.9699E-03    -188.418E-03     106.767E-03     115.903E-03     279.751E-03    -138.388E-03    -141.368E-03    -141.357E-03     279.741E-03    -138.388E-03     1.93485E-03    -137.057E+06    -141.443E+06    -215.884E+06    -139.502E+06    -215.635E+06    -139.247E+06    -4.09386E+06         41.9179
             229     372.748E-09     138.394E-03     96.1586E-03     47.2220E-03    -162.780E-03    -27.3077E-03    -72.4228E-03     80.3309E-03     153.622E-03     283.620E-03    -140.322E-03    -143.301E-03    -143.291E-03     283.610E-03    -140.322E-03     3.41437E-03    -134.687E+06    -136.955E+06    -222.624E+06    -135.117E+06    -222.273E+06    -136.876E+06    -5.50341E+06         42.1181
             230     4.93437E-09     137.058E-03     131.166E-03    -9.60909E-03    -144.197E-03    -78.5025E-03    -59.4764E-03     115.338E-03     112.915E-03     291.880E-03    -145.617E-03    -146.257E-03    -145.820E-03     291.848E-03    -146.022E-03     5.88641E-03    -145.783E+06    -146.090E+06    -239.198E+06    -146.063E+06    -238.996E+06    -146.011E+06    -636.574E+03         42.4248
             231    -856.669E-09     135.703E-03     219.653E-03    -12.7642E-03    -232.827E-03    -36.6089E-03    -208.983E-03     219.653E-03     136.401E-03     295.358E-03    -147.415E-03    -147.957E-03    -147.508E-03     295.314E-03    -147.820E-03     8.60400E-03    -149.928E+06    -151.940E+06    -252.949E+06    -152.207E+06    -252.454E+06    -150.156E+06    -2.90826E+06         42.7759
             232     992.573E-09     134.362E-03     219.589E-03    -26.0174E-03    -214.545E-03    -57.6573E-03    -182.905E-03     219.589E-03     120.968E-03     296.477E-03    -147.812E-03    -148.689E-03    -148.641E-03     296.429E-03    -147.812E-03     8.93760E-03    -148.906E+06    -155.454E+06    -259.622E+06    -151.119E+06    -259.193E+06    -153.670E+06    -4.45485E+06         43.1353
             233     100.123E-09     133.028E-03     195.518E-03    -77.3044E-03    -150.472E-03    -96.1296E-03    -131.646E-03     195.518E-03    -4.21201E-03     304.465E-03    -151.467E-03    -152.994E-03    -152.168E-03     304.425E-03    -152.253E-03     7.61336E-03    -150.985E+06    -161.409E+06    -270.043E+06    -156.695E+06    -269.994E+06    -155.749E+06    -1.39467E+06         43.5284
             234    -1.42445E-06     131.654E-03     157.713E-03    -29.2288E-03    -160.774E-03    -33.2611E-03    -156.741E-03     157.713E-03    -37.0470E-03     312.725E-03    -155.488E-03    -157.212E-03    -155.446E-03     312.683E-03    -157.212E-03     7.92021E-03    -153.617E+06    -164.535E+06    -282.143E+06    -159.380E+06    -282.041E+06    -158.874E+06    -3.54700E+06         43.9312
             235    -394.412E-09     130.278E-03     77.6279E-03     15.9667E-03    -132.302E-03     11.2405E-03    -127.575E-03     77.6279E-03    -43.9567E-03     313.270E-03    -155.745E-03    -157.510E-03    -155.692E-03     313.216E-03    -157.510E-03     9.77779E-03    -159.434E+06    -167.880E+06    -293.045E+06    -162.844E+06    -292.824E+06    -164.691E+06     1.37504E+06         44.2904
             236    -1.12175E-06     128.921E-03     63.4139E-03    -1.20960E-03    -92.9619E-03     47.3971E-03    -61.4385E-03    -16.7162E-03    -11.1355E-03     313.526E-03    -156.201E-03    -157.314E-03    -156.155E-03     313.480E-03    -157.314E-03     9.13515E-03    -157.294E+06    -162.110E+06    -295.014E+06    -160.691E+06    -294.806E+06    -158.921E+06     1.56736E+06         44.6011
             237     458.111E-09     127.552E-03     91.6292E-03    -30.8216E-03    -80.6132E-03     87.9195E-03    -51.9910E-03    -55.7341E-03     44.8237E-03     318.195E-03    -158.913E-03    -159.283E-03    -158.879E-03     318.162E-03    -159.283E-03     3.58162E-03    -158.721E+06    -161.754E+06    -306.243E+06    -160.211E+06    -306.159E+06    -160.348E+06    -3.50888E+06         44.8747
             238    -665.260E-09     126.186E-03     110.072E-03     17.3333E-03    -145.058E-03     107.909E-03    -142.894E-03     17.3333E-03     44.4217E-03     323.497E-03    -161.215E-03    -162.302E-03    -161.210E-03     323.492E-03    -162.302E-03    -342.706E-06    -161.234E+06    -163.498E+06    -315.222E+06    -162.693E+06    -315.170E+06    -162.092E+06    -2.66907E+06         45.1022
             239    -1.17589E-06     124.788E-03     78.2212E-03     33.5353E-03    -136.492E-03     38.9935E-03    -116.444E-03     52.7154E-03    -10.4692E-03     327.704E-03    -162.779E-03    -164.950E-03    -163.943E-03     327.701E-03    -163.782E-03     2.28783E-03    -163.139E+06    -164.205E+06    -316.098E+06    -163.436E+06    -316.009E+06    -163.997E+06     1.59216E+06         45.2553
             240     3.14915E-06     123.397E-03     46.7710E-03     1.40423E-03    -75.5330E-03    -62.2817E-03     14.3396E-03     20.5844E-03    -27.3356E-03     326.491E-03    -162.222E-03    -164.299E-03    -164.295E-03     326.487E-03    -162.222E-03     2.63647E-03    -165.075E+06    -165.661E+06    -316.857E+06    -165.373E+06    -316.767E+06    -165.454E+06     1.54223E+06         45.3171
             241    -1.69602E-06     122.021E-03     69.3329E-03     25.4808E-03    -115.717E-03    -13.7885E-03    -32.5959E-03     25.4808E-03     76.2025E-03     322.459E-03    -159.670E-03    -162.807E-03    -160.576E-03     322.455E-03    -161.898E-03     1.61472E-03    -162.015E+06    -162.548E+06    -313.312E+06    -162.182E+06      -313.3E+06    -162.393E+06    -652.105E+03         45.3200
             242    -2.17539E-06     120.646E-03     144.202E-03     13.4343E-03    -179.136E-03     15.8297E-03    -50.7632E-03     13.4343E-03     279.275E-03     323.646E-03    -160.626E-03    -163.029E-03    -160.625E-03     323.646E-03    -163.029E-03     62.4982E-06    -161.748E+06    -162.906E+06    -315.026E+06    -162.910E+06    -315.022E+06    -161.748E+06    -218.820E+03         45.3137
             243     1.84915E-06     119.256E-03     203.791E-03    -44.3340E-03    -182.309E-03    -16.4623E-03     37.9436E-03    -44.3340E-03     382.002E-03     325.085E-03    -162.438E-03    -162.647E-03    -162.438E-03     325.085E-03    -162.647E-03     623.099E-06    -159.486E+06    -162.090E+06    -317.187E+06    -160.511E+06    -317.164E+06    -161.087E+06      762.83E+03         45.3115
             244    -1.95162E-06     117.874E-03     167.345E-03    -42.2218E-03    -160.887E-03     19.7743E-03    -13.3167E-03    -42.2218E-03     310.749E-03     324.782E-03    -161.869E-03    -162.920E-03    -162.880E-03     324.775E-03    -161.902E-03     2.99369E-03    -155.554E+06    -159.649E+06    -316.548E+06    -158.095E+06    -316.500E+06    -157.156E+06    -260.450E+03         45.3121
             245     3.64139E-06     116.488E-03     130.379E-03    -12.6005E-03    -165.240E-03     16.1753E-03    -51.0367E-03    -12.6005E-03     280.980E-03     325.315E-03    -161.760E-03    -163.571E-03    -163.558E-03     325.302E-03    -161.760E-03     4.95199E-03    -155.483E+06    -161.306E+06    -320.489E+06    -158.007E+06    -320.458E+06    -158.813E+06    -1.03393E+06         45.3188
             246    -2.40635E-06     115.103E-03     118.944E-03     16.7161E-03    -171.579E-03    -59.2716E-03     6.63666E-03     16.7161E-03     273.535E-03     323.901E-03    -160.776E-03    -163.121E-03    -161.560E-03     323.892E-03    -162.328E-03     4.01284E-03    -153.848E+06    -160.769E+06    -321.926E+06    -157.442E+06    -321.923E+06    -157.177E+06     479.230E+03         45.3298
             247    -292.552E-09     113.729E-03     124.133E-03     86.5243E-03    -228.260E-03    -177.519E-03     73.3911E-03     86.5243E-03     225.288E-03     324.043E-03    -160.713E-03    -163.319E-03    -160.710E-03     324.041E-03    -163.319E-03     1.64894E-03    -152.587E+06    -159.630E+06    -324.286E+06    -156.182E+06    -324.283E+06    -156.039E+06    -531.546E+03         45.3575
             248    -1.61509E-06     112.346E-03     184.609E-03     53.2916E-03    -265.620E-03    -253.546E-03     45.0319E-03     180.794E-03     104.699E-03     328.732E-03    -163.599E-03    -165.135E-03    -164.077E-03     328.728E-03    -164.654E-03     1.74457E-03    -150.255E+06    -157.015E+06    -325.263E+06    -153.573E+06    -325.253E+06    -153.707E+06     207.293E+03         45.4100
             249     2.35155E-06     110.947E-03     248.400E-03    -20.8288E-03    -265.897E-03    -243.880E-03    -42.8459E-03     248.400E-03     105.086E-03     330.749E-03    -164.638E-03    -166.122E-03    -166.116E-03     330.742E-03    -164.638E-03     3.68440E-03    -148.355E+06    -154.906E+06    -323.940E+06    -151.672E+06    -323.931E+06    -151.597E+06     335.096E+03         45.4619
             250    -774.307E-09     109.555E-03     264.162E-03    -27.0838E-03    -277.868E-03    -255.246E-03    -49.7059E-03     264.162E-03     115.857E-03     326.319E-03    -162.110E-03    -164.225E-03    -163.109E-03     326.314E-03    -163.222E-03     2.51466E-03    -148.249E+06    -153.723E+06    -320.496E+06    -150.492E+06    -320.485E+06    -151.491E+06     459.188E+03         45.4975
             251    -1.14747E-06     108.189E-03     188.457E-03     36.0013E-03    -267.129E-03    -251.152E-03     22.9612E-03     185.521E-03     120.539E-03     326.364E-03    -161.555E-03    -164.814E-03    -163.701E-03     326.363E-03    -162.667E-03     102.307E-06    -146.366E+06    -152.719E+06    -318.015E+06    -148.608E+06    -318.005E+06    -150.487E+06     1.12572E+06         45.5388
             252     4.64586E-06     106.795E-03     119.943E-03     88.3542E-03    -251.920E-03    -206.582E-03     45.9522E-03     117.006E-03     226.061E-03     329.210E-03    -162.566E-03    -166.640E-03    -164.712E-03     329.210E-03    -164.494E-03    -628.535E-06    -141.584E+06    -149.990E+06    -316.199E+06    -145.872E+06    -316.196E+06    -145.704E+06     611.753E+03         45.5900
             253    -7.89886E-06     105.404E-03     157.087E-03     45.2438E-03    -260.332E-03    -157.079E-03    -58.0094E-03     157.087E-03     271.115E-03     329.988E-03    -163.872E-03    -166.114E-03    -164.175E-03     329.977E-03    -165.799E-03     3.08616E-03    -140.969E+06    -145.311E+06    -312.698E+06    -145.325E+06    -312.684E+06    -140.969E+06     1.40707E+06         45.6251
             254     8.32162E-06     104.005E-03     139.889E-03     45.3291E-03    -250.518E-03    -157.585E-03    -36.2350E-03     128.520E-03     252.106E-03     332.596E-03    -164.691E-03    -167.899E-03    -167.882E-03     332.580E-03    -164.691E-03     5.66158E-03    -140.986E+06    -142.327E+06    -311.957E+06    -141.055E+06    -311.944E+06    -142.271E+06     1.12640E+06         45.6331
             255    -3.55060E-06     102.615E-03     167.688E-03     57.9204E-03    -277.250E-03    -194.447E-03    -13.5127E-03     156.318E-03     281.554E-03     328.548E-03    -161.168E-03    -167.390E-03    -164.056E-03     328.542E-03    -164.497E-03     2.55131E-03    -133.335E+06    -141.645E+06    -308.080E+06    -133.341E+06    -308.074E+06    -141.645E+06     822.943E+03         45.6281
             256    -2.32958E-06     101.236E-03     278.638E-03    -44.8741E-03    -276.601E-03    -188.565E-03    -132.910E-03     278.638E-03     221.668E-03     327.749E-03    -161.928E-03    -165.840E-03    -162.507E-03     327.746E-03    -165.257E-03     2.06721E-03    -127.326E+06    -138.861E+06    -304.179E+06    -131.852E+06    -304.162E+06    -134.351E+06    -193.169E+03         45.6402
             257     3.27397E-06     99.8444E-03     257.527E-03    -30.3809E-03    -261.216E-03    -221.396E-03    -70.2010E-03     257.527E-03     146.081E-03     331.285E-03    -164.720E-03    -166.566E-03    -166.552E-03     331.272E-03    -164.720E-03    -1.17520E-03    -134.565E+06    -143.759E+06    -310.898E+06    -143.779E+06    -310.879E+06    -134.565E+06    -1.81107E+06         45.6649
             258    -1.16044E-06     98.4518E-03     220.441E-03     37.4323E-03    -297.841E-03    -240.906E-03    -19.5032E-03     220.441E-03     235.398E-03     329.174E-03    -163.580E-03    -165.588E-03    -164.830E-03     329.160E-03    -164.324E-03    -1.12288E-03    -129.307E+06    -141.695E+06    -311.884E+06    -134.019E+06    -311.856E+06    -137.010E+06     442.249E+03         45.6697
             259    -259.016E-09     97.0691E-03     256.441E-03    -17.2054E-03    -288.389E-03    -148.080E-03    -157.515E-03     256.441E-03     229.344E-03     331.116E-03    -165.076E-03    -166.031E-03    -165.282E-03     331.110E-03    -165.820E-03     3.24045E-03    -122.625E+06    -140.700E+06    -312.497E+06    -133.054E+06    -312.440E+06    -130.328E+06    -490.649E+03         45.6635
             260     622.775E-09     95.6575E-03     205.709E-03    -3.46962E-03    -249.359E-03    -56.1663E-03    -196.663E-03     205.709E-03     201.169E-03     331.056E-03    -164.948E-03    -166.107E-03    -166.104E-03     331.053E-03    -164.948E-03     2.58238E-03    -125.240E+06    -143.322E+06    -312.677E+06    -135.685E+06    -312.604E+06    -132.950E+06    -39.2509E+03         45.6685
             261     797.645E-09     94.2842E-03     131.584E-03     28.2464E-03    -215.265E-03    -17.4301E-03    -169.589E-03     131.584E-03     187.022E-03     327.992E-03    -162.504E-03    -165.498E-03    -163.447E-03     327.987E-03    -164.550E-03     3.14794E-03    -122.573E+06    -134.151E+06    -306.736E+06    -122.613E+06    -306.695E+06    -134.151E+06     976.730E+03         45.6855
             262    -4.44083E-06     92.8938E-03     96.9081E-03     39.8005E-03    -193.224E-03     32.1685E-03    -176.075E-03     87.3906E-03     107.625E-03     331.781E-03    -164.422E-03    -167.358E-03    -164.418E-03     331.776E-03    -167.358E-03     2.74598E-03    -123.993E+06    -129.077E+06    -309.232E+06    -125.215E+06    -309.225E+06    -127.862E+06    -755.230E+03         45.7111
             263     2.83442E-06     91.4924E-03     112.424E-03     13.8364E-03    -183.266E-03     106.754E-03    -177.595E-03     13.8364E-03     80.0842E-03     335.414E-03    -166.679E-03    -168.736E-03    -167.835E-03     335.404E-03    -167.569E-03     4.01795E-03    -124.556E+06    -132.473E+06    -314.022E+06    -132.477E+06    -314.018E+06    -124.556E+06    -595.594E+03         45.7256
             264    -930.921E-09     90.0912E-03     216.901E-03    -37.8686E-03    -250.842E-03     209.189E-03    -243.131E-03    -37.8686E-03     117.350E-03     331.183E-03    -164.876E-03    -166.310E-03    -166.299E-03     331.172E-03    -164.876E-03     4.01709E-03    -127.067E+06    -134.959E+06    -316.172E+06    -133.792E+06    -316.148E+06    -128.257E+06     687.040E+03         45.7034
             265     1.26683E-06     88.7100E-03     313.318E-03    -124.555E-03    -258.120E-03     308.199E-03    -249.923E-03    -127.633E-03     105.526E-03     327.127E-03    -163.149E-03    -163.979E-03    -163.978E-03     327.126E-03    -163.149E-03     1.75786E-03    -124.542E+06    -128.095E+06    -312.634E+06    -126.989E+06    -312.551E+06    -125.732E+06    -1.13883E+06         45.6681
             266    -383.500E-09     87.3357E-03     359.778E-03    -179.562E-03    -247.399E-03     356.363E-03    -176.148E-03    -247.399E-03     85.4231E-03     330.353E-03    -164.808E-03    -165.541E-03    -165.540E-03     330.352E-03    -164.808E-03     120.952E-06    -120.389E+06    -130.492E+06    -310.493E+06    -122.838E+06    -310.408E+06    -128.129E+06    -1.06207E+06         45.6531
             267     486.181E-09     85.9267E-03     425.348E-03    -162.299E-03    -339.076E-03     423.452E-03    -272.421E-03    -227.058E-03     39.6639E-03     332.441E-03    -165.993E-03    -166.437E-03    -166.163E-03     332.440E-03    -166.266E-03    -75.0540E-06    -118.334E+06    -132.770E+06    -306.021E+06    -125.240E+06    -305.812E+06    -126.074E+06     5.43223E+06         45.6483
             268    -952.703E-09     84.5407E-03     452.244E-03    -175.178E-03    -340.810E-03     451.727E-03    -340.293E-03    -175.178E-03    -31.9088E-03     331.676E-03    -165.549E-03    -166.131E-03    -165.547E-03     331.674E-03    -166.131E-03     1.95474E-03    -121.235E+06    -132.722E+06    -294.483E+06    -128.155E+06    -294.258E+06    -126.026E+06     2.35559E+06         45.6396
             269     262.563E-09     83.1454E-03     389.620E-03    -195.731E-03    -253.709E-03     378.870E-03    -238.595E-03    -200.094E-03    -131.738E-03     332.162E-03    -165.577E-03    -166.599E-03    -165.575E-03     332.160E-03    -166.599E-03     1.69101E-03    -128.164E+06    -137.366E+06    -294.227E+06    -132.623E+06    -294.179E+06    -132.955E+06    -2.72210E+06         45.6305
             270    -1.48810E-06     81.7519E-03     359.549E-03    -180.356E-03    -240.689E-03     342.826E-03    -219.601E-03    -184.720E-03    -194.598E-03     332.392E-03    -165.734E-03    -166.657E-03    -165.941E-03     332.388E-03    -166.447E-03     2.11130E-03    -125.434E+06    -133.745E+06    -298.600E+06    -129.865E+06    -298.581E+06    -129.334E+06    -310.055E+03         45.6317
             271     1.69893E-06     80.3571E-03     365.653E-03    -148.022E-03    -276.751E-03     343.831E-03    -254.929E-03    -148.022E-03    -227.609E-03     332.952E-03    -166.092E-03    -166.841E-03    -166.835E-03     332.946E-03    -166.092E-03     3.42517E-03    -125.317E+06    -130.886E+06    -294.152E+06    -126.995E+06    -294.142E+06    -129.217E+06     1.23455E+06         45.6395
             272    -886.476E-09     78.9614E-03     360.921E-03    -122.649E-03    -295.860E-03     328.573E-03    -263.512E-03    -122.649E-03    -284.183E-03     331.225E-03    -165.293E-03    -165.928E-03    -165.923E-03     331.220E-03    -165.293E-03     3.18467E-03    -124.727E+06    -127.545E+06    -293.861E+06    -127.582E+06    -293.824E+06    -124.727E+06    -1.20828E+06         45.6220
             273     997.324E-09     77.5697E-03     353.384E-03    -112.236E-03    -309.627E-03     304.472E-03    -260.715E-03    -112.236E-03    -341.768E-03     327.755E-03    -163.618E-03    -164.147E-03    -163.707E-03     327.749E-03    -164.051E-03     3.56524E-03    -126.754E+06    -132.697E+06    -297.685E+06    -127.972E+06    -297.616E+06    -131.549E+06      3.2235E+03         45.5610
             274     14.4280E-03     75.3375E-03     67.5237E-03     44.1597E-03    -179.182E-03     43.9108E-03    -178.933E-03     67.5237E-03    -8.44014E-03     326.276E-03    -161.656E-03    -164.713E-03    -159.654E-03     324.274E-03    -164.713E-03     61.4265E-03     134.591E+06     92.1727E+06     341.573E+03     400.285E+03      92.114E+06     134.591E+06     262.539E+03         68.5672
             275     13.5702E-03     75.2420E-03     68.7953E-03     42.9377E-03    -178.835E-03     42.7147E-03    -178.612E-03     68.7953E-03     834.366E-06     328.273E-03    -163.405E-03    -165.003E-03    -161.546E-03     326.296E-03    -164.886E-03     61.0684E-03     105.229E+06     71.5068E+06    -16.3001E+06    -16.1280E+06     71.3347E+06     105.229E+06    -732.843E+03         64.9550
             276     12.7298E-03     75.1778E-03     70.1239E-03     48.3199E-03    -185.964E-03     48.0395E-03    -185.684E-03     70.1239E-03     11.7295E-03     329.066E-03    -163.965E-03    -165.414E-03    -163.181E-03     327.883E-03    -165.015E-03     47.8940E-03     84.8352E+06     57.0168E+06    -31.3709E+06    -29.7700E+06     55.4159E+06     84.8352E+06     4.35109E+06         60.8379
             277     11.8798E-03     75.1224E-03     71.0803E-03     58.8713E-03    -197.004E-03     58.6422E-03    -196.775E-03     71.0803E-03     1.24798E-03     330.223E-03    -164.359E-03    -166.203E-03    -164.726E-03     329.362E-03    -164.974E-03     41.0397E-03     70.8091E+06     49.3401E+06    -33.1325E+06    -31.0380E+06     52.2884E+06     65.7663E+06     9.56710E+06         57.0148
             278     11.0310E-03     75.0669E-03     71.7719E-03     59.5459E-03    -199.203E-03     59.1987E-03    -198.856E-03     71.7719E-03     6.64452E-03     330.622E-03    -164.728E-03    -166.333E-03    -165.446E-03     329.951E-03    -164.945E-03     36.3788E-03     54.4988E+06     40.3554E+06    -40.6383E+06    -39.9651E+06     45.2643E+06     48.9166E+06     4.19199E+06         53.7191
             279     10.1828E-03     75.0130E-03     75.0754E-03     57.4955E-03    -199.845E-03     58.8576E-03    -198.723E-03     72.5913E-03     31.5764E-03     328.874E-03    -163.846E-03    -165.378E-03    -163.790E-03     328.377E-03    -164.938E-03     31.0826E-03     44.8612E+06     34.0925E+06    -51.9547E+06    -51.3017E+06     33.9789E+06     44.3218E+06    -2.86715E+06         50.9767
             280     9.33098E-03     74.9779E-03     79.3616E-03     66.0557E-03    -209.908E-03     68.6448E-03    -206.266E-03     73.1300E-03    -16.0046E-03     328.511E-03    -163.555E-03    -164.996E-03    -163.297E-03     328.166E-03    -164.909E-03     25.9151E-03     38.5847E+06     12.4095E+06    -56.6719E+06    -55.9713E+06     11.7090E+06     38.5847E+06    -1.87713E+06         48.8190
             281     8.48307E-03     74.9435E-03     84.1980E-03     69.7557E-03    -219.527E-03     75.4993E-03    -214.053E-03     72.9799E-03     3.09513E-03     329.875E-03    -164.446E-03    -165.240E-03    -164.643E-03     329.638E-03    -164.806E-03     21.3706E-03     23.5539E+06    -30.7571E+06    -65.8535E+06    -65.5149E+06    -31.0957E+06     23.5539E+06     365.341E+03         47.2888
             282     7.63689E-03     74.9138E-03     84.4915E-03     67.8101E-03    -219.717E-03     76.0740E-03    -215.967E-03     72.4772E-03     40.3381E-03     330.388E-03    -164.643E-03    -165.409E-03    -165.206E-03     330.209E-03    -164.667E-03     18.8257E-03     12.0572E+06    -60.1877E+06    -76.7176E+06    -69.8147E+06    -67.0906E+06     12.0572E+06     1.77141E+06         46.4342
             283     6.78901E-03     74.8843E-03     76.8304E-03     70.3680E-03    -214.973E-03     72.6900E-03    -212.600E-03     72.1353E-03    -26.9566E-03     329.463E-03    -164.425E-03    -165.080E-03    -164.736E-03     329.315E-03    -164.621E-03     17.0006E-03    -3.76210E+06    -75.6757E+06    -104.952E+06    -77.3461E+06    -103.282E+06    -3.76210E+06     3.54227E+06         46.1135
             284     5.94033E-03     74.8633E-03     75.9524E-03     66.4109E-03    -210.879E-03     66.3255E-03    -207.318E-03     72.4769E-03     5.23297E-03     328.491E-03    -164.147E-03    -164.751E-03    -164.127E-03     328.406E-03    -164.686E-03     12.7759E-03    -27.0998E+06    -90.3956E+06    -141.004E+06    -90.8772E+06    -140.522E+06    -27.0998E+06     1.64223E+06         45.9825
             285     5.09126E-03     74.8480E-03     80.4099E-03     63.9415E-03    -213.286E-03     68.3876E-03    -210.577E-03     73.2553E-03     24.8944E-03     328.496E-03    -163.965E-03    -164.730E-03    -163.913E-03     328.445E-03    -164.730E-03     9.94306E-03    -45.4472E+06    -99.1600E+06    -170.686E+06    -99.5243E+06    -170.321E+06    -45.4472E+06     667.465E+03         45.8743
             286     4.24065E-03     74.8338E-03     86.5410E-03     69.3501E-03    -224.775E-03     79.4634E-03    -221.269E-03     72.9223E-03    -3.74547E-03     329.179E-03    -164.260E-03    -164.906E-03    -164.426E-03     329.150E-03    -164.711E-03     7.10733E-03    -62.3307E+06    -104.975E+06    -194.596E+06    -105.279E+06    -194.292E+06    -62.3307E+06     1.08234E+06         45.7835
             287     3.39551E-03     74.8255E-03     90.2541E-03     70.5323E-03    -230.672E-03     83.7903E-03    -224.208E-03     70.5323E-03    -37.3346E-03     329.445E-03    -164.439E-03    -164.983E-03    -164.917E-03     329.432E-03    -164.493E-03     4.92404E-03    -83.5834E+06    -114.058E+06    -218.183E+06    -114.191E+06    -218.050E+06    -83.5834E+06     1.71492E+06         45.6913
             288     2.54481E-03     74.8148E-03     88.1915E-03     67.1156E-03    -226.936E-03     77.3386E-03    -216.083E-03     67.1156E-03     22.5749E-03     328.534E-03    -163.964E-03    -164.553E-03    -164.269E-03     328.525E-03    -164.239E-03     4.03602E-03    -102.936E+06    -121.528E+06    -241.326E+06    -121.770E+06    -241.084E+06    -102.936E+06     720.185E+03         45.6025
             289     1.69691E-03     74.8088E-03     79.4417E-03     63.7985E-03    -216.087E-03     70.2423E-03    -206.888E-03     63.7985E-03     94.9538E-03     328.106E-03    -163.841E-03    -164.297E-03    -163.849E-03     328.097E-03    -164.279E-03     4.02347E-03    -116.002E+06    -124.129E+06    -256.874E+06    -124.288E+06    -256.714E+06    -116.002E+06     581.116E+03         45.5278
             290     847.363E-06     74.8031E-03     204.531E-03    -41.3702E-03    -233.975E-03     165.900E-03    -195.345E-03    -41.3702E-03    -165.085E-03     328.904E-03    -164.183E-03    -164.737E-03    -164.565E-03     328.897E-03    -164.347E-03     3.17568E-03    -124.354E+06    -128.206E+06    -276.598E+06    -128.210E+06    -276.593E+06    -124.354E+06     185.297E+03         45.4806
             291     14.4253E-03     73.9458E-03     62.7758E-03     39.2950E-03    -169.829E-03     39.0445E-03    -169.579E-03     62.7758E-03    -7.49065E-03     328.359E-03    -162.887E-03    -165.679E-03    -162.135E-03     326.736E-03    -164.809E-03     56.2686E-03     133.984E+06     90.3640E+06    -4.04564E+06    -3.88368E+06     90.2021E+06     133.984E+06     3.57861E+06         68.6742
             292     13.5822E-03     73.8573E-03     65.3456E-03     46.4905E-03    -177.993E-03     47.8545E-03    -177.678E-03     63.6660E-03     6.00101E-03     328.443E-03    -163.628E-03    -164.957E-03    -162.232E-03     326.954E-03    -164.863E-03     53.6963E-03     104.174E+06     70.0164E+06    -21.0011E+06    -20.5973E+06     69.6125E+06     104.174E+06     5.14484E+06         65.0834
             293     12.7216E-03     73.7869E-03     65.7909E-03     54.3327E-03    -186.435E-03     55.5995E-03    -186.022E-03     64.1114E-03     19.3674E-03     329.104E-03    -163.755E-03    -165.432E-03    -163.227E-03     328.099E-03    -164.955E-03     44.0662E-03     82.0510E+06     54.2769E+06    -30.2631E+06    -29.7149E+06     53.7287E+06     82.0510E+06     173.277E+03         60.9472
             294     11.8757E-03     73.7274E-03     64.5339E-03     52.0408E-03    -183.283E-03     51.8433E-03    -183.086E-03     64.5339E-03     12.0962E-03     331.326E-03    -164.925E-03    -166.426E-03    -165.551E-03     330.527E-03    -165.001E-03     39.4052E-03     77.2692E+06     53.5731E+06    -31.4476E+06    -30.5101E+06     52.6356E+06     77.2692E+06     242.233E+03         57.0938
             295     11.0330E-03     73.6708E-03     65.2004E-03     52.6675E-03    -182.482E-03     52.5708E-03    -182.385E-03     65.2004E-03     8.60678E-03     330.045E-03    -164.518E-03    -165.884E-03    -164.812E-03     329.391E-03    -164.936E-03     35.8527E-03     65.7442E+06     54.0173E+06    -33.3135E+06    -32.5969E+06     53.8402E+06     65.2048E+06     4.32503E+06         53.7795
             296     10.1828E-03     73.6306E-03     68.0834E-03     60.1597E-03    -193.023E-03     62.2726E-03    -192.652E-03     65.5993E-03     10.8470E-03     328.502E-03    -163.793E-03    -165.152E-03    -163.531E-03     327.993E-03    -164.905E-03     31.5116E-03     45.8529E+06     39.2540E+06    -46.5571E+06    -45.3912E+06     38.6275E+06     45.3135E+06     1.51354E+06         51.0214
             297     9.33307E-03     73.5867E-03     71.4511E-03     63.7546E-03    -200.214E-03     64.9657E-03    -195.557E-03     65.5830E-03    -41.6107E-03     329.077E-03    -164.007E-03    -165.258E-03    -163.988E-03     328.726E-03    -164.924E-03     26.1097E-03     35.0534E+06     9.60275E+06    -59.9482E+06    -57.1095E+06     6.76412E+06     35.0534E+06    -3.00109E+06         48.8520
             298     8.48603E-03     73.5509E-03     69.4785E-03     56.2904E-03    -190.194E-03     53.7674E-03    -184.287E-03     66.0944E-03    -21.0077E-03     329.920E-03    -164.618E-03    -165.192E-03    -164.762E-03     329.674E-03    -164.802E-03     21.9313E-03     26.0286E+06    -30.0206E+06    -65.3225E+06    -63.0516E+06    -32.2915E+06     26.0286E+06    -2.70711E+06         47.3111
             299     7.63744E-03     73.5229E-03     67.6304E-03     51.7104E-03    -184.921E-03     49.5496E-03    -182.760E-03     67.6304E-03     11.7296E-03     330.022E-03    -164.568E-03    -165.092E-03    -164.832E-03     329.823E-03    -164.629E-03     19.7067E-03     13.9459E+06    -60.9779E+06    -76.2698E+06    -69.2189E+06    -68.0288E+06     13.9459E+06     1.77231E+06         46.4478
             300     6.78831E-03     73.4960E-03     71.1059E-03     61.4774E-03    -199.579E-03     61.4514E-03    -197.505E-03     69.0575E-03    -43.6363E-03     329.204E-03    -164.316E-03    -164.774E-03    -164.337E-03     329.064E-03    -164.613E-03     16.4351E-03    -2.34388E+06    -76.1746E+06    -104.572E+06    -77.4551E+06    -103.292E+06    -2.34388E+06     3.86075E+06         46.1217
             301     5.93898E-03     73.4745E-03     78.9807E-03     68.6459E-03    -215.323E-03     76.2924E-03    -212.959E-03     68.9703E-03    -5.57779E-03     328.654E-03    -164.270E-03    -164.687E-03    -164.208E-03     328.575E-03    -164.671E-03     12.2044E-03    -23.5992E+06    -86.7284E+06    -139.417E+06    -87.0479E+06    -139.097E+06    -23.5992E+06     1.89172E+06         45.9822
             302     5.09085E-03     73.4587E-03     79.7981E-03     67.4980E-03    -214.411E-03     78.4523E-03    -213.066E-03     67.4980E-03     9.08762E-03     328.985E-03    -164.349E-03    -164.772E-03    -164.463E-03     328.943E-03    -164.616E-03     8.95669E-03    -44.0260E+06    -96.5230E+06    -170.689E+06    -96.6697E+06    -170.542E+06    -44.0260E+06    -1.65051E+06         45.8644
             303     4.24434E-03     73.4455E-03     74.1542E-03     59.3868E-03    -200.971E-03     64.9400E-03    -199.113E-03     66.7429E-03    -32.7090E-03     329.183E-03    -164.317E-03    -164.852E-03    -164.627E-03     329.159E-03    -164.519E-03     6.76735E-03    -62.0644E+06    -106.717E+06    -195.935E+06    -106.913E+06    -195.739E+06    -62.0644E+06    -782.565E+03         45.7718
             304     3.39424E-03     73.4331E-03     74.4957E-03     53.3852E-03    -197.621E-03     51.9256E-03    -190.744E-03     69.0774E-03    -70.9360E-03     328.903E-03    -164.223E-03    -164.720E-03    -164.644E-03     328.890E-03    -164.286E-03     4.94588E-03    -81.0375E+06    -113.871E+06    -215.989E+06    -113.998E+06    -215.862E+06    -81.0375E+06     1.43351E+06         45.6784
             305     2.54868E-03     73.4294E-03     76.7332E-03     60.5727E-03    -210.435E-03     55.7442E-03    -203.251E-03     74.3783E-03    -23.5608E-03     328.361E-03    -163.672E-03    -164.650E-03    -164.368E-03     328.353E-03    -163.947E-03     3.72062E-03    -101.600E+06    -118.976E+06    -238.367E+06    -119.129E+06    -238.214E+06    -101.600E+06     280.202E+03         45.5826
             306     1.69710E-03     73.4216E-03     84.9068E-03     72.7225E-03    -230.385E-03     75.7127E-03    -226.660E-03     78.1919E-03     65.0812E-03     327.662E-03    -163.455E-03    -164.239E-03    -163.919E-03     327.657E-03    -163.769E-03     2.98358E-03    -117.351E+06    -124.959E+06    -257.741E+06    -125.060E+06    -257.640E+06    -117.351E+06    -1.10099E+06         45.5058
             307     849.368E-06     73.4127E-03     207.457E-03    -17.0190E-03    -260.120E-03     174.823E-03    -227.485E-03    -17.0190E-03    -141.571E-03     327.618E-03    -163.499E-03    -164.133E-03    -163.746E-03     327.613E-03    -163.881E-03     3.05109E-03    -127.382E+06    -131.480E+06    -276.146E+06    -131.393E+06    -276.124E+06    -127.490E+06    -140.372E+03         45.4625
             308     14.4339E-03     72.5523E-03     61.4494E-03     50.3433E-03    -179.016E-03     53.6905E-03    -178.786E-03     57.8728E-03    -5.23492E-03     331.166E-03    -164.812E-03    -166.521E-03    -164.807E-03     329.453E-03    -164.812E-03     58.0999E-03     130.614E+06     87.4540E+06    -13.1723E+06    -13.0152E+06     87.2969E+06     130.614E+06     1.15862E+06         68.8048
             309     13.5776E-03     72.4726E-03     61.9646E-03     48.6301E-03    -176.899E-03     52.2483E-03    -176.430E-03     57.8775E-03    -9.36856E-03     330.515E-03    -164.051E-03    -166.554E-03    -164.332E-03     328.938E-03    -164.696E-03     55.4697E-03     109.828E+06     72.1245E+06    -18.6383E+06    -18.2454E+06     71.7316E+06     109.828E+06     3.07289E+06         65.2315
             310     12.7348E-03     72.4003E-03     59.8213E-03     45.9016E-03    -172.862E-03     47.2654E-03    -172.546E-03     58.1418E-03     810.680E-06     330.119E-03    -164.072E-03    -166.001E-03    -164.319E-03     329.081E-03    -164.718E-03     44.7996E-03     87.6899E+06     57.6994E+06    -23.6634E+06    -22.6050E+06     56.6410E+06     87.6899E+06     3.04113E+06         61.0787
             311     11.8848E-03     72.3326E-03     62.3763E-03     45.3349E-03    -174.425E-03     47.9426E-03    -173.332E-03     58.6765E-03    -12.1140E-03     328.993E-03    -163.935E-03    -165.050E-03    -163.523E-03     328.288E-03    -164.758E-03     36.7315E-03     71.8285E+06     49.6555E+06    -30.8551E+06    -30.0237E+06     48.8241E+06     71.8285E+06    -233.695E+03         57.1902
             312     11.0295E-03     72.2851E-03     66.3970E-03     51.7915E-03    -182.705E-03     58.2260E-03    -181.637E-03     58.8944E-03    -13.5449E-03     328.388E-03    -163.684E-03    -164.780E-03    -163.152E-03     327.856E-03    -164.780E-03     32.2189E-03     62.8241E+06     48.6512E+06    -36.2886E+06    -36.2092E+06     48.5719E+06     62.8241E+06     378.673E+03         53.8465
             313     10.1803E-03     72.2381E-03     62.5767E-03     54.2526E-03    -182.556E-03     57.2557E-03    -181.756E-03     58.7739E-03     9.62717E-03     329.185E-03    -164.325E-03    -164.994E-03    -164.129E-03     328.742E-03    -164.747E-03     29.2095E-03     52.3665E+06     46.6234E+06    -42.7587E+06    -42.1592E+06     46.2113E+06     52.1792E+06     3.57311E+06         51.0692
             314     9.33466E-03     72.1955E-03     59.1371E-03     51.1500E-03    -177.135E-03     47.9845E-03    -173.970E-03     59.1371E-03    -21.1387E-03     328.966E-03    -164.106E-03    -164.950E-03    -164.025E-03     328.638E-03    -164.704E-03     25.1990E-03     39.3143E+06     15.0475E+06    -50.8171E+06    -47.9695E+06     12.3873E+06     39.1269E+06     306.421E+03         48.8852
             315     8.48420E-03     72.1631E-03     61.0750E-03     49.6040E-03    -176.547E-03     44.3484E-03    -170.471E-03     60.2549E-03     7.52354E-03     329.199E-03    -164.182E-03    -164.878E-03    -164.144E-03     328.950E-03    -164.667E-03     22.0619E-03     28.1584E+06    -31.1491E+06    -59.3984E+06    -56.4805E+06    -34.0670E+06     28.1584E+06    -1.83988E+06         47.3285
             316     7.63580E-03     72.1303E-03     62.6038E-03     48.6497E-03    -175.825E-03     45.4879E-03    -171.843E-03     61.7836E-03     28.0819E-03     329.819E-03    -164.523E-03    -164.985E-03    -164.777E-03     329.648E-03    -164.559E-03     18.0456E-03     13.1626E+06    -62.7957E+06    -78.3991E+06    -70.3992E+06    -70.7955E+06     13.1626E+06    -736.815E+03         46.4480
             317     6.78929E-03     72.1068E-03     65.1503E-03     53.8571E-03    -184.335E-03     53.8970E-03    -182.326E-03     63.1019E-03    -39.5796E-03     329.346E-03    -164.410E-03    -164.809E-03    -164.602E-03     329.240E-03    -164.511E-03     14.3273E-03    -6.83468E+06    -83.0326E+06    -108.548E+06    -83.4251E+06    -108.155E+06    -6.83468E+06     270.098E+03         46.1080
             318     5.94104E-03     72.0856E-03     71.5657E-03     61.7906E-03    -198.030E-03     66.1342E-03    -194.149E-03     63.3416E-03     2.56210E-03     328.710E-03    -164.375E-03    -164.648E-03    -164.407E-03     328.642E-03    -164.548E-03     11.4765E-03    -22.0606E+06    -89.2608E+06    -136.910E+06    -89.3431E+06    -136.828E+06    -22.0606E+06     1.47452E+06         45.9634
             319     5.09276E-03     72.0685E-03     71.3373E-03     62.5000E-03    -198.474E-03     69.0660E-03    -196.203E-03     62.5000E-03     33.8255E-03     328.670E-03    -164.192E-03    -164.631E-03    -164.306E-03     328.629E-03    -164.475E-03     9.01781E-03    -40.3063E+06    -96.1812E+06    -165.936E+06    -96.2549E+06    -165.863E+06    -40.3063E+06     1.83714E+06         45.8440
             320     4.24367E-03     72.0555E-03     67.5822E-03     54.7774E-03    -188.570E-03     59.6281E-03    -187.972E-03     62.1335E-03     14.3619E-03     328.619E-03    -164.046E-03    -164.508E-03    -164.156E-03     328.589E-03    -164.369E-03     7.59696E-03    -64.0660E+06    -105.619E+06    -194.639E+06    -105.696E+06    -194.562E+06    -64.0660E+06     1.08028E+06         45.7501
             321     3.39607E-03     72.0467E-03     67.2035E-03     48.0761E-03    -183.973E-03     47.5181E-03    -180.628E-03     64.4165E-03    -20.3447E-03     328.419E-03    -164.102E-03    -164.331E-03    -164.201E-03     328.401E-03    -164.213E-03     5.81445E-03    -85.3884E+06    -114.847E+06    -217.788E+06    -114.870E+06    -217.765E+06    -85.3884E+06    -1.01789E+06         45.6592
             322     2.54441E-03     72.0387E-03     70.3468E-03     55.5869E-03    -197.349E-03     46.7984E-03    -188.560E-03     70.3468E-03     12.0022E-03     328.615E-03    -163.894E-03    -164.689E-03    -164.678E-03     328.604E-03    -163.894E-03     4.65649E-03    -102.202E+06    -122.042E+06    -236.471E+06    -122.068E+06    -236.445E+06    -102.202E+06     332.033E+03         45.5652
             323     1.70085E-03     72.0337E-03     81.0074E-03     68.2141E-03    -221.146E-03     63.7899E-03    -213.344E-03     77.6303E-03     78.7718E-03     327.993E-03    -163.420E-03    -164.614E-03    -164.607E-03     327.986E-03    -163.420E-03     3.51867E-03    -118.912E+06    -128.425E+06    -257.648E+06    -128.506E+06    -257.567E+06    -118.912E+06     1.57119E+06         45.4876
             324     849.649E-06     72.0308E-03     183.081E-03    -6.58466E-03    -246.743E-03     164.991E-03    -232.294E-03    -2.94412E-03    -77.2191E-03     326.431E-03    -162.710E-03    -163.729E-03    -163.381E-03     326.425E-03    -163.052E-03     3.27433E-03    -129.942E+06    -133.035E+06    -277.696E+06    -132.252E+06    -277.627E+06    -130.794E+06     676.248E+03         45.4435
             325     14.4215E-03     71.1624E-03     56.3051E-03     49.0976E-03    -170.189E-03     52.4142E-03    -169.929E-03     52.7285E-03    -4.59104E-03     331.506E-03    -164.866E-03    -166.816E-03    -165.163E-03     329.853E-03    -164.866E-03     57.1148E-03     131.053E+06     87.6982E+06    -10.6446E+06    -10.6020E+06     87.6556E+06     131.053E+06    -649.527E+03         68.9045
             326     13.5821E-03     71.0772E-03     54.9884E-03     46.3757E-03    -167.724E-03     48.2257E-03    -167.167E-03     52.5807E-03    -3.01277E-03     332.435E-03    -164.721E-03    -167.872E-03    -166.363E-03     330.927E-03    -164.721E-03     54.4740E-03     112.204E+06     72.2716E+06    -16.5873E+06    -16.4706E+06     72.1549E+06     112.204E+06    -2.03398E+06         65.3339
             327     12.7319E-03     71.0062E-03     55.1269E-03     42.4790E-03    -165.015E-03     44.0000E-03    -164.140E-03     52.7311E-03     9.84898E-03     330.411E-03    -164.525E-03    -166.088E-03    -164.857E-03     329.317E-03    -164.662E-03     46.4108E-03     88.7984E+06     56.7908E+06    -24.1102E+06    -23.4662E+06     56.1468E+06     88.7984E+06     839.294E+03         61.1737
             328     11.8838E-03     70.9478E-03     59.4575E-03     47.4398E-03    -173.845E-03     52.4677E-03    -172.165E-03     52.7498E-03    -1.28292E-03     328.376E-03    -163.683E-03    -164.821E-03    -163.147E-03     327.585E-03    -164.566E-03     39.0522E-03     69.0436E+06     46.7384E+06    -32.6097E+06    -31.9585E+06     46.0872E+06     69.0436E+06     3.52758E+06         57.2675
             329     11.0365E-03     70.8988E-03     60.3629E-03     51.5059E-03    -177.520E-03     58.1877E-03    -176.087E-03     52.2482E-03    -4.88934E-03     328.398E-03    -163.701E-03    -164.731E-03    -163.270E-03     327.808E-03    -164.572E-03     33.8019E-03     61.6366E+06     46.4436E+06    -37.4752E+06    -37.3443E+06     46.3127E+06     61.6366E+06     2.61555E+06         53.9068
             330     10.1881E-03     70.8450E-03     57.1400E-03     48.8784E-03    -171.847E-03     53.1495E-03    -170.686E-03     51.7084E-03     23.9016E-03     328.404E-03    -163.868E-03    -164.581E-03    -163.403E-03     327.939E-03    -164.581E-03     29.7107E-03     56.7969E+06     48.0455E+06    -38.6135E+06    -38.5079E+06     48.1273E+06     56.6095E+06    -421.082E+03         51.1142
             331     9.33577E-03     70.8100E-03     56.6584E-03     45.4486E-03    -168.537E-03     47.6709E-03    -165.708E-03     51.6073E-03    -10.3890E-03     328.488E-03    -163.667E-03    -164.944E-03    -163.723E-03     328.155E-03    -164.555E-03     25.4078E-03     45.5132E+06     19.4875E+06    -46.5815E+06    -45.8575E+06     18.9509E+06     45.3259E+06     546.589E+03         48.9149
             332     8.48734E-03     70.7719E-03     59.4427E-03     47.6647E-03    -173.559E-03     48.3154E-03    -166.503E-03     51.7357E-03     20.1597E-03     329.217E-03    -164.094E-03    -165.063E-03    -164.458E-03     328.980E-03    -164.463E-03     21.3228E-03     28.7063E+06    -27.3942E+06    -63.1354E+06    -60.1669E+06    -30.3627E+06     28.7063E+06     5.01128E+06         47.3427
             333     7.64023E-03     70.7400E-03     56.1293E-03     49.9290E-03    -172.828E-03     48.8663E-03    -167.480E-03     51.8446E-03     41.9110E-03     329.002E-03    -164.202E-03    -164.597E-03    -164.317E-03     328.852E-03    -164.332E-03     17.0663E-03     5.07273E+06    -64.8705E+06    -85.6324E+06    -75.6769E+06    -74.8260E+06     5.07273E+06     996.873E+03         46.4406
             334     6.79030E-03     70.7177E-03     52.3292E-03     46.0285E-03    -164.555E-03     43.8631E-03    -162.389E-03     52.3292E-03    -33.8756E-03     328.773E-03    -164.294E-03    -164.510E-03    -164.337E-03     328.664E-03    -164.357E-03     14.4556E-03    -10.4835E+06    -82.8307E+06    -112.446E+06    -83.5784E+06    -111.698E+06    -10.4835E+06    -2.89778E+06         46.0826
             335     5.94171E-03     70.6961E-03     54.9058E-03     46.7055E-03    -165.629E-03     43.7824E-03    -161.168E-03     53.3679E-03     5.32364E-03     328.262E-03    -164.018E-03    -164.522E-03    -164.043E-03     328.187E-03    -164.423E-03     12.0820E-03    -23.0909E+06    -87.3562E+06    -137.613E+06    -87.9507E+06    -137.018E+06    -23.0909E+06     1.36732E+06         45.9423
             336     5.09262E-03     70.6808E-03     57.8586E-03     50.2020E-03    -171.294E-03     51.2162E-03    -168.616E-03     54.1667E-03     40.4271E-03     328.053E-03    -163.779E-03    -164.418E-03    -163.727E-03     328.002E-03    -164.418E-03     9.98030E-03    -40.5755E+06    -94.5274E+06    -165.567E+06    -94.9869E+06    -165.107E+06    -40.5755E+06     1.99164E+06         45.8328
             337     4.24355E-03     70.6679E-03     65.3291E-03     51.6722E-03    -181.761E-03     62.9800E-03    -181.099E-03     53.3595E-03     14.2888E-03     328.509E-03    -164.069E-03    -164.375E-03    -164.064E-03     328.481E-03    -164.353E-03     7.18578E-03    -62.3193E+06    -103.868E+06    -193.551E+06    -104.154E+06    -193.265E+06    -62.3193E+06     1.44177E+06         45.7338
             338     3.39359E-03     70.6582E-03     71.3094E-03     49.3466E-03    -187.769E-03     68.6239E-03    -185.732E-03     49.9947E-03    -19.7820E-03     328.508E-03    -164.185E-03    -164.302E-03    -164.241E-03     328.495E-03    -164.233E-03     4.94656E-03    -85.3103E+06    -113.452E+06    -215.939E+06    -113.613E+06    -215.779E+06    -85.3103E+06     2.45423E+06         45.6401
             339     2.54806E-03     70.6508E-03     65.8485E-03     44.6177E-03    -178.743E-03     57.5559E-03    -171.405E-03     45.5720E-03     15.5483E-03     328.176E-03    -163.892E-03    -164.301E-03    -164.144E-03     328.167E-03    -164.040E-03     4.25034E-03    -103.960E+06    -122.408E+06    -238.402E+06    -122.436E+06    -238.373E+06    -103.960E+06     575.088E+03         45.5552
             340     1.69548E-03     70.6442E-03     63.2099E-03     37.1971E-03    -167.320E-03     50.3658E-03    -158.423E-03     41.1438E-03     77.0219E-03     328.149E-03    -163.661E-03    -164.547E-03    -164.379E-03     328.143E-03    -163.823E-03     3.42064E-03    -117.387E+06    -128.051E+06    -256.795E+06    -128.122E+06    -256.723E+06    -117.387E+06     509.377E+03         45.4830
             341     851.045E-06     70.6440E-03     124.193E-03    -13.6762E-03    -175.535E-03     114.086E-03    -142.688E-03    -36.4161E-03    -3.68845E-03     327.524E-03    -163.187E-03    -164.347E-03    -164.329E-03     327.520E-03    -163.201E-03     2.79422E-03    -126.108E+06    -130.265E+06    -274.989E+06    -129.609E+06    -274.886E+06    -126.867E+06     1.18447E+06         45.4377
             342     14.4345E-03     69.7675E-03     47.7807E-03     39.1204E-03    -150.460E-03     39.7399E-03    -150.185E-03     46.8858E-03     791.524E-06     331.881E-03    -164.688E-03    -167.375E-03    -165.855E-03     330.361E-03    -164.688E-03     54.8806E-03     130.726E+06     86.1590E+06    -8.37288E+06    -8.28764E+06     86.0738E+06     130.726E+06     1.86920E+06         68.9664
             343     13.5822E-03     69.6821E-03     49.8587E-03     40.7686E-03    -156.562E-03     43.2614E-03    -156.048E-03     46.8517E-03     6.38896E-03     330.732E-03    -164.652E-03    -166.403E-03    -164.934E-03     329.262E-03    -164.652E-03     53.7398E-03     106.870E+06     70.3606E+06    -17.8333E+06    -17.6907E+06     70.2179E+06     106.870E+06    -2.38488E+06         65.3919
             344     12.7363E-03     69.6183E-03     57.0896E-03     45.6484E-03    -169.047E-03     55.4006E-03    -168.044E-03     46.3340E-03     5.26543E-03     329.498E-03    -164.491E-03    -165.235E-03    -164.073E-03     328.480E-03    -164.635E-03     44.5100E-03     89.3321E+06     57.8022E+06    -26.9035E+06    -26.6976E+06     57.5964E+06     89.3321E+06    -2.63115E+06         61.2243
             345     11.8850E-03     69.5599E-03     55.1007E-03     45.4385E-03    -166.648E-03     53.8000E-03    -165.348E-03     45.4385E-03     971.891E-06     328.588E-03    -163.934E-03    -164.665E-03    -163.319E-03     327.815E-03    -164.506E-03     38.9964E-03     71.0876E+06     49.5902E+06    -33.2653E+06    -32.5902E+06     48.9150E+06     71.0876E+06    -2.06578E+06         57.3124
             346     11.0353E-03     69.5064E-03     46.9481E-03     39.8987E-03    -151.676E-03     40.8571E-03    -150.720E-03     45.0345E-03     2.14696E-03     328.123E-03    -163.677E-03    -164.674E-03    -163.134E-03     327.421E-03    -164.515E-03     37.0390E-03     59.1035E+06     48.2861E+06    -36.8771E+06    -36.2261E+06     47.6351E+06     59.1035E+06    -1.86606E+06         53.9456
             347     10.1842E-03     69.4608E-03     46.8108E-03     38.9265E-03    -150.458E-03     40.1375E-03    -150.041E-03     45.1820E-03     10.8455E-03     328.420E-03    -163.691E-03    -164.988E-03    -163.595E-03     327.875E-03    -164.540E-03     32.5606E-03     53.0412E+06     42.7015E+06    -44.7001E+06    -44.3449E+06     42.3463E+06     53.0412E+06     2.06512E+06         51.1453
             348     9.33570E-03     69.4194E-03     54.0259E-03     43.8705E-03    -163.091E-03     49.9602E-03    -160.145E-03     44.9902E-03    -32.1509E-03     329.264E-03    -163.974E-03    -165.369E-03    -164.554E-03     328.888E-03    -164.413E-03     27.1099E-03     39.6894E+06     19.2542E+06    -56.4950E+06    -55.9512E+06     18.7105E+06     39.6894E+06     4.02752E+06         48.9385
             349     8.48976E-03     69.3786E-03     58.7202E-03     44.1402E-03    -169.766E-03     53.8303E-03    -164.876E-03     44.1402E-03    -11.1130E-03     328.994E-03    -164.037E-03    -164.774E-03    -164.302E-03     328.752E-03    -164.266E-03     21.6484E-03     24.9073E+06    -22.7214E+06    -68.3227E+06    -64.2313E+06    -26.8128E+06     24.9073E+06     3.62202E+06         47.3574
             350     7.63865E-03     69.3559E-03     54.2203E-03     43.0028E-03    -165.597E-03     51.9456E-03    -163.357E-03     43.0374E-03     19.7564E-03     328.271E-03    -163.863E-03    -164.215E-03    -163.696E-03     328.103E-03    -164.215E-03     18.0821E-03     9.85436E+06    -56.8702E+06    -83.2058E+06    -68.3524E+06    -71.7236E+06     9.85436E+06     4.00849E+06         46.4448
             351     6.79026E-03     69.3249E-03     48.3121E-03     39.5376E-03    -155.392E-03     42.6386E-03    -152.587E-03     42.4062E-03    -35.4939E-03     328.117E-03    -163.930E-03    -164.316E-03    -163.827E-03     328.000E-03    -164.301E-03     14.9657E-03    -10.2658E+06    -76.0700E+06    -113.517E+06    -78.1130E+06    -111.474E+06    -10.2658E+06     86.8286E+03         46.0798
             352     5.94202E-03     69.3110E-03     44.7967E-03     36.4260E-03    -146.209E-03     34.1084E-03    -141.996E-03     42.9007E-03    -7.24477E-03     327.958E-03    -163.784E-03    -164.452E-03    -163.799E-03     327.886E-03    -164.365E-03     11.8887E-03    -28.9201E+06    -89.1655E+06    -143.967E+06    -89.8644E+06    -143.268E+06    -28.9201E+06    -1.61878E+06         45.9400
             353     5.09198E-03     69.2915E-03     44.0136E-03     38.4507E-03    -146.821E-03     36.8191E-03    -145.189E-03     44.0136E-03     24.8476E-03     328.136E-03    -163.853E-03    -164.416E-03    -163.877E-03     328.088E-03    -164.345E-03     9.62045E-03    -42.5983E+06    -93.6987E+06    -167.156E+06    -94.2382E+06    -166.617E+06    -42.5983E+06    -348.153E+03         45.8332
             354     4.24410E-03     69.2796E-03     51.0951E-03     41.7224E-03    -156.847E-03     48.5589E-03    -156.655E-03     44.0666E-03    -6.62757E-03     328.411E-03    -164.051E-03    -164.342E-03    -164.049E-03     328.387E-03    -164.319E-03     6.77620E-03    -59.6289E+06    -102.602E+06    -193.325E+06    -102.881E+06    -193.046E+06    -59.6289E+06    -175.649E+03         45.7337
             355     3.39689E-03     69.2696E-03     60.3025E-03     39.2144E-03    -164.669E-03     56.0801E-03    -163.008E-03     41.7749E-03    -33.5330E-03     328.368E-03    -164.060E-03    -164.219E-03    -164.069E-03     328.354E-03    -164.197E-03     5.04601E-03    -78.7310E+06    -111.019E+06    -212.054E+06    -111.247E+06    -211.825E+06    -78.7310E+06     2.64029E+06         45.6360
             356     2.54500E-03     69.2638E-03     59.4494E-03     34.7380E-03    -160.085E-03     55.5187E-03    -158.293E-03     36.8766E-03    -15.2134E-03     327.907E-03    -163.815E-03    -164.033E-03    -163.807E-03     327.899E-03    -164.033E-03     3.87617E-03    -100.150E+06    -117.854E+06    -235.381E+06    -117.917E+06    -235.318E+06    -100.150E+06     1.57923E+06         45.5485
             357     1.69885E-03     69.2574E-03     56.2309E-03     27.3132E-03    -145.856E-03     53.3510E-03    -142.976E-03     27.3132E-03     19.6497E-03     327.677E-03    -163.572E-03    -164.160E-03    -163.567E-03     327.672E-03    -164.160E-03     2.89161E-03    -115.553E+06    -124.474E+06    -256.741E+06    -124.500E+06    -256.716E+06    -115.553E+06    -691.005E+03         45.4804
             358     846.062E-06     69.2538E-03     90.5909E-03    -19.3575E-03    -133.553E-03     87.6120E-03    -104.194E-03    -45.7380E-03     20.6189E-03     328.746E-03    -163.780E-03    -164.979E-03    -164.252E-03     328.743E-03    -164.504E-03     1.53521E-03    -125.537E+06    -129.002E+06    -275.104E+06    -128.807E+06    -274.977E+06    -125.858E+06    -1.06912E+06         45.4423
             359     14.4321E-03     68.3759E-03     44.7596E-03     36.8303E-03    -147.193E-03     40.1314E-03    -146.699E-03     40.9648E-03    -3.14867E-03     332.091E-03    -164.638E-03    -167.493E-03    -165.719E-03     330.317E-03    -164.638E-03     59.2076E-03     132.804E+06     86.7544E+06     -6.5779E+06    -6.47834E+06     86.6548E+06     132.804E+06     2.02307E+06         68.9856
             360     13.5839E-03     68.2971E-03     46.3431E-03     35.7086E-03    -147.558E-03     39.8089E-03    -146.021E-03     40.7052E-03    -12.9251E-03     330.218E-03    -164.566E-03    -166.066E-03    -164.376E-03     328.528E-03    -164.566E-03     57.4890E-03     110.153E+06     74.1968E+06    -13.5761E+06    -13.4707E+06     74.0915E+06     110.153E+06     295.273E+03         65.4040
             361     12.7329E-03     68.2218E-03     48.7310E-03     36.3464E-03    -149.674E-03     42.9994E-03    -147.967E-03     40.3713E-03    -19.6691E-03     328.946E-03    -164.308E-03    -164.847E-03    -163.441E-03     327.818E-03    -164.586E-03     46.8518E-03     83.3846E+06     57.7696E+06    -27.6867E+06    -26.9303E+06     57.0131E+06     83.3846E+06    -3.32856E+06         61.2367
             362     11.8865E-03     68.1759E-03     47.9827E-03     36.8009E-03    -148.864E-03     43.6878E-03    -147.732E-03     39.9636E-03    -16.1248E-03     328.420E-03    -163.850E-03    -164.590E-03    -162.970E-03     327.507E-03    -164.556E-03     42.2721E-03     65.6777E+06     50.7441E+06    -34.6901E+06    -32.9604E+06     49.0143E+06     65.6777E+06    -2.84899E+06         57.3291
             363     11.0343E-03     68.1178E-03     50.2191E-03     35.0838E-03    -149.388E-03     44.8517E-03    -148.414E-03     39.4772E-03    -10.8955E-03     328.557E-03    -163.834E-03    -164.960E-03    -163.454E-03     327.793E-03    -164.576E-03     38.5248E-03     54.6397E+06     45.4245E+06    -41.1798E+06    -40.0662E+06     44.3109E+06     54.6397E+06     378.983E+03         53.9645
             364     10.1855E-03     68.0735E-03     50.0982E-03     33.3479E-03    -147.294E-03     44.2776E-03    -146.987E-03     38.8610E-03     9.42286E-03     329.704E-03    -164.220E-03    -165.719E-03    -164.842E-03     329.141E-03    -164.534E-03     33.2634E-03     47.2035E+06     38.3509E+06    -51.3221E+06    -50.9275E+06     37.9564E+06     47.2035E+06     1.96983E+06         51.1652
             365     9.33906E-03     68.0231E-03     45.4189E-03     35.8967E-03    -145.728E-03     41.3705E-03    -144.056E-03     38.2727E-03    -20.1474E-03     329.653E-03    -164.271E-03    -165.291E-03    -164.840E-03     329.268E-03    -164.337E-03     27.2020E-03     38.9654E+06     20.1488E+06     -54.746E+06    -54.0403E+06     19.4431E+06     38.9654E+06     2.38403E+06         48.9564
             366     8.48845E-03     67.9958E-03     45.5421E-03     35.5592E-03    -147.871E-03     39.6513E-03    -144.270E-03     37.8489E-03    -2.66956E-03     328.602E-03    -163.914E-03    -164.344E-03    -163.793E-03     328.362E-03    -164.225E-03     21.7100E-03     24.6591E+06    -24.1624E+06    -62.5134E+06    -60.1312E+06    -26.5446E+06     24.6591E+06    -661.584E+03         47.3709
             367     7.64078E-03     67.9618E-03     45.1030E-03     36.2749E-03    -149.125E-03     41.7598E-03    -146.891E-03     37.3846E-03     13.3507E-03     328.285E-03    -163.793E-03    -164.205E-03    -163.610E-03     328.102E-03    -164.205E-03     18.8498E-03     12.8024E+06    -58.7696E+06    -81.4252E+06    -67.9678E+06     -72.227E+06     12.8024E+06     891.151E+03         46.4587
             368     6.79131E-03     67.9422E-03     50.0561E-03     36.3045E-03    -152.723E-03     47.2103E-03    -149.954E-03     36.3807E-03    -39.2975E-03     328.048E-03    -163.830E-03    -164.284E-03    -163.712E-03     327.931E-03    -164.284E-03     15.0628E-03    -5.99730E+06    -73.0557E+06    -108.385E+06    -75.6797E+06    -105.761E+06    -5.99730E+06     4.32585E+06         46.0911
             369     5.94106E-03     67.9188E-03     50.3459E-03     33.5861E-03    -149.118E-03     44.4786E-03    -144.613E-03     34.9493E-03    -5.74354E-03     328.181E-03    -164.045E-03    -164.429E-03    -164.068E-03     328.108E-03    -164.332E-03     11.9736E-03    -29.1297E+06    -86.1428E+06    -142.326E+06    -87.2675E+06    -141.201E+06    -29.1297E+06    -1.12515E+06         45.9367
             370     5.09436E-03     67.9053E-03     39.9826E-03     29.6981E-03    -134.600E-03     33.3839E-03    -132.555E-03     34.2515E-03     20.8266E-03     328.294E-03    -164.048E-03    -164.341E-03    -164.100E-03     328.249E-03    -164.245E-03     9.28855E-03    -46.2993E+06    -99.0370E+06    -171.645E+06    -99.3723E+06    -171.310E+06    -46.2993E+06    -2.18966E+06         45.8219
             371     4.24438E-03     67.8895E-03     35.2645E-03     26.1029E-03    -126.011E-03     25.0362E-03    -124.944E-03     35.2645E-03    -19.2013E-03     327.877E-03    -163.648E-03    -164.205E-03    -163.624E-03     327.854E-03    -164.205E-03     6.56207E-03    -61.1661E+06    -106.006E+06    -192.625E+06    -106.080E+06    -192.550E+06    -61.1661E+06     655.109E+03         45.7297
             372     3.39379E-03     67.8833E-03     38.0433E-03     27.1344E-03    -130.552E-03     23.6323E-03    -127.050E-03     38.0433E-03    -39.9541E-03     327.935E-03    -163.737E-03    -164.146E-03    -163.722E-03     327.920E-03    -164.146E-03     5.33240E-03    -80.0458E+06    -113.035E+06    -213.345E+06    -113.169E+06    -213.211E+06    -80.0458E+06    -493.356E+03         45.6365
             373     2.54785E-03     67.8740E-03     44.8331E-03     28.9327E-03    -139.639E-03     26.3274E-03    -134.737E-03     42.5368E-03    -4.58327E-03     328.082E-03    -163.921E-03    -164.086E-03    -163.987E-03     328.074E-03    -164.012E-03     3.65243E-03    -99.5297E+06    -118.749E+06    -233.650E+06    -118.928E+06    -233.472E+06    -99.5297E+06     1.46080E+06         45.5419
             374     1.69615E-03     67.8723E-03     54.5689E-03     34.8898E-03    -150.977E-03     37.9147E-03    -147.150E-03     47.7172E-03     26.0582E-03     327.794E-03    -163.559E-03    -164.250E-03    -163.821E-03     327.791E-03    -163.984E-03     2.25907E-03    -117.355E+06    -124.216E+06    -254.106E+06    -123.820E+06    -253.980E+06    -117.876E+06     944.787E+03         45.4713
             375     849.429E-06     67.8651E-03     113.188E-03    -2.31577E-03    -172.263E-03     98.4744E-03    -161.710E-03     1.84492E-03     73.6615E-03     328.286E-03    -163.662E-03    -164.629E-03    -163.851E-03     328.284E-03    -164.438E-03     1.24750E-03    -126.658E+06    -128.700E+06    -278.191E+06    -127.507E+06    -278.075E+06    -127.967E+06    -1.69428E+06         45.4392
             376     14.4262E-03     66.9861E-03     49.2668E-03     35.8965E-03    -150.221E-03     48.6443E-03    -149.598E-03     35.8965E-03    -10.6279E-03     329.833E-03    -163.760E-03    -166.081E-03    -163.331E-03     328.124E-03    -164.801E-03     57.2965E-03     133.074E+06     86.9930E+06    -9.59856E+06    -8.81493E+06     86.2094E+06     133.074E+06    -3.32446E+06         68.9811
             377     13.5802E-03     66.8982E-03     47.0524E-03     34.0700E-03    -145.950E-03     44.9225E-03    -144.682E-03     34.9321E-03    -7.89972E-03     329.546E-03    -164.201E-03    -165.894E-03    -163.587E-03     327.798E-03    -164.760E-03     58.3241E-03     115.937E+06     77.6845E+06    -9.92219E+06    -9.81609E+06     77.5784E+06     115.937E+06     2.81487E+06         65.3865
             378     12.7320E-03     66.8428E-03     38.0711E-03     30.3815E-03    -133.428E-03     31.9494E-03    -131.331E-03     34.4064E-03     4.56276E-03     329.090E-03    -164.360E-03    -165.158E-03    -163.436E-03     327.851E-03    -164.843E-03     49.3375E-03     82.3479E+06     59.9961E+06    -23.0965E+06    -20.6955E+06     57.5951E+06     82.3479E+06     3.77871E+06         61.2238
             379     11.8773E-03     66.7798E-03     37.0678E-03     31.0805E-03    -131.677E-03     32.7237E-03    -130.496E-03     34.2433E-03     7.38067E-03     330.081E-03    -164.569E-03    -165.697E-03    -164.459E-03     329.113E-03    -164.839E-03     43.4237E-03     61.1352E+06     46.2254E+06    -39.5737E+06    -36.6234E+06     43.2751E+06     61.1352E+06     3.99809E+06         57.3297
             380     11.0319E-03     66.7321E-03     43.8437E-03     33.6311E-03    -141.681E-03     42.9399E-03    -140.797E-03     33.6512E-03     5.72464E-03     330.798E-03    -164.740E-03    -166.365E-03    -165.589E-03     330.022E-03    -164.740E-03     39.0672E-03     58.4841E+06     45.5278E+06    -41.5140E+06    -40.8292E+06     44.8430E+06     58.4841E+06     3.53567E+06         53.9759
             381     10.1852E-03     66.6765E-03     49.4182E-03     32.3576E-03    -145.466E-03     48.4428E-03    -144.511E-03     32.3777E-03     12.7001E-03     330.340E-03    -164.510E-03    -166.044E-03    -165.370E-03     329.731E-03    -164.576E-03     34.4187E-03     50.0561E+06     43.6151E+06    -44.4553E+06    -44.2651E+06     43.4249E+06     50.0561E+06    -840.164E+03         51.1810
             382     9.33624E-03     66.6369E-03     45.6975E-03     29.7125E-03    -139.388E-03     42.9416E-03    -137.888E-03     30.9688E-03    -21.3601E-03     328.878E-03    -163.981E-03    -164.825E-03    -163.968E-03     328.479E-03    -164.438E-03     27.7875E-03     39.3217E+06     14.7866E+06    -53.8090E+06    -53.5300E+06     14.5075E+06     39.3217E+06    -3.90583E+06         48.9698
             383     8.48897E-03     66.6035E-03     38.3567E-03     27.8673E-03    -130.947E-03     32.0234E-03    -126.903E-03     30.1570E-03     9.80801E-03     328.816E-03    -163.905E-03    -164.621E-03    -163.859E-03     328.528E-03    -164.379E-03     23.7294E-03      25.658E+06    -27.3382E+06    -63.0828E+06    -62.0673E+06    -28.3537E+06      25.658E+06     1.33009E+06         47.3796
             384     7.63863E-03     66.5772E-03     32.4557E-03     28.1127E-03    -126.337E-03     27.5535E-03    -123.342E-03     30.0197E-03     31.5316E-03     329.118E-03    -164.079E-03    -164.706E-03    -164.317E-03     328.918E-03    -164.268E-03     19.7148E-03     7.13327E+06    -61.0320E+06    -84.2068E+06    -72.6335E+06    -72.6054E+06     7.13327E+06    -243.271E+03         46.4611
             385     6.79011E-03     66.5505E-03     37.6323E-03     26.1731E-03    -128.805E-03     31.9521E-03    -126.814E-03     29.8628E-03    -22.4518E-03     328.731E-03    -164.124E-03    -164.675E-03    -164.407E-03     328.609E-03    -164.270E-03     15.3733E-03    -5.15592E+06    -77.1851E+06    -106.346E+06    -79.0580E+06    -104.473E+06    -5.15592E+06    -1.18952E+06         46.0859
             386     5.94295E-03     66.5329E-03     42.7050E-03     26.2800E-03    -133.376E-03     36.4894E-03    -129.976E-03     29.0961E-03    -2.40582E-03     328.387E-03    -164.117E-03    -164.537E-03    -164.277E-03     328.314E-03    -164.303E-03     11.8700E-03    -20.7869E+06    -81.9890E+06    -133.350E+06    -83.9363E+06    -131.403E+06    -20.7869E+06     3.68879E+06         45.9272
             387     5.09275E-03     66.5136E-03     35.0731E-03     25.3836E-03    -125.598E-03     30.4786E-03    -123.959E-03     28.3387E-03     18.6569E-03     328.064E-03    -163.859E-03    -164.240E-03    -163.843E-03     328.023E-03    -164.215E-03     8.93083E-03    -48.2436E+06    -99.0425E+06    -173.364E+06    -100.180E+06    -172.227E+06    -48.2436E+06     1.39294E+06         45.8130
             388     4.24525E-03     66.5057E-03     30.1127E-03     19.1601E-03    -114.301E-03     18.3658E-03    -112.612E-03     29.2176E-03    -23.3633E-03     327.981E-03    -163.664E-03    -164.284E-03    -163.803E-03     327.958E-03    -164.122E-03     6.45727E-03    -68.0312E+06    -109.909E+06    -196.533E+06    -110.003E+06    -196.439E+06    -68.0312E+06    -629.135E+03         45.7239
             389     3.39642E-03     66.4947E-03     32.3893E-03     20.0807E-03    -118.183E-03     15.4256E-03    -113.528E-03     32.3893E-03    -48.8555E-03     327.848E-03    -163.695E-03    -164.176E-03    -163.844E-03     327.836E-03    -164.014E-03     4.70543E-03    -85.5702E+06    -115.176E+06    -215.748E+06    -115.315E+06    -215.609E+06    -85.5702E+06    -162.934E+03         45.6349
             390     2.54493E-03     66.4870E-03     40.9537E-03     23.6040E-03    -130.755E-03     19.4011E-03    -123.076E-03     37.4769E-03     8.80746E-03     327.781E-03    -163.799E-03    -163.949E-03    -163.876E-03     327.776E-03    -163.866E-03     2.95703E-03    -103.924E+06    -122.547E+06    -236.519E+06    -122.816E+06    -236.250E+06    -103.924E+06     224.601E+03         45.5447
             391     1.69944E-03     66.4826E-03     50.1450E-03     30.6560E-03    -143.552E-03     31.2354E-03    -137.470E-03     43.4834E-03     43.2088E-03     327.847E-03    -163.702E-03    -164.147E-03    -164.144E-03     327.845E-03    -163.702E-03     2.16843E-03    -118.016E+06    -127.219E+06    -251.516E+06    -127.092E+06    -251.122E+06    -118.538E+06     1.65181E+06         45.4750
             392     849.185E-06     66.4792E-03     113.878E-03     2.55146E-03    -175.577E-03     86.1568E-03    -152.017E-03     6.71214E-03     123.113E-03     327.398E-03    -163.338E-03    -164.066E-03    -163.997E-03     327.395E-03    -163.404E-03     2.02042E-03    -127.272E+06    -131.867E+06    -276.985E+06    -131.105E+06    -276.745E+06    -128.273E+06     2.57186E+06         45.4416
             393     14.4318E-03     65.6000E-03     49.8949E-03     30.8424E-03    -145.496E-03     49.4771E-03    -145.079E-03     30.8424E-03    -7.80395E-03     326.958E-03    -161.937E-03    -164.886E-03    -160.121E-03     325.142E-03    -164.886E-03     58.4490E-03     128.762E+06     85.4944E+06    -11.2132E+06    -9.73260E+06     84.0138E+06     128.762E+06    -2.24798E+06         68.9866
             394     13.5741E-03     65.5118E-03     49.3066E-03     29.3688E-03    -143.515E-03     49.1906E-03    -143.399E-03     29.3688E-03     7.80889E-03     328.530E-03    -163.604E-03    -165.153E-03    -161.921E-03     326.720E-03    -165.028E-03     58.7870E-03     104.214E+06     66.3395E+06    -20.8792E+06    -20.5619E+06     66.0222E+06     104.214E+06    -1.95692E+06         65.3803
             395     12.7222E-03     65.4499E-03     46.0338E-03     27.8792E-03    -138.218E-03     45.2987E-03    -137.483E-03     27.8792E-03     14.3752E-03     331.088E-03    -164.962E-03    -166.409E-03    -165.078E-03     329.970E-03    -165.175E-03     46.8096E-03     91.8760E+06     61.0886E+06    -23.5843E+06    -21.7233E+06     59.2276E+06     91.8760E+06     4.29271E+06         61.2237
             396     11.8801E-03     65.3883E-03     39.4802E-03     26.5762E-03    -130.285E-03     38.7620E-03    -129.567E-03     26.5762E-03     5.95310E-03     331.832E-03    -165.028E-03    -166.936E-03    -166.106E-03     331.001E-03    -165.028E-03     40.3322E-03     72.7531E+06     53.1318E+06    -29.4593E+06    -27.6233E+06     51.2958E+06     72.7531E+06     3.88931E+06         57.3424
             397     11.0316E-03     65.3371E-03     29.3774E-03     24.5167E-03    -117.764E-03     26.3673E-03    -116.057E-03     25.8190E-03     16.0605E-03     331.030E-03    -164.858E-03    -166.459E-03    -165.723E-03     330.295E-03    -164.858E-03     38.1694E-03     58.1039E+06     46.5680E+06    -37.4262E+06    -36.7669E+06     45.9087E+06     58.1039E+06    -3.49751E+06         53.9925
             398     10.1847E-03     65.2841E-03     31.3644E-03     20.9310E-03    -116.091E-03     24.7547E-03    -114.111E-03     25.5610E-03     10.0482E-03     329.559E-03    -164.194E-03    -165.587E-03    -164.382E-03     328.946E-03    -164.786E-03     34.4278E-03     53.3449E+06     45.6880E+06    -42.4291E+06    -41.6490E+06     44.9079E+06     53.3449E+06    -2.45320E+06         51.1952
             399     9.33610E-03     65.2502E-03     40.8389E-03     21.5533E-03    -126.013E-03     36.3084E-03    -124.810E-03     24.8811E-03    -24.4340E-03     328.821E-03    -163.770E-03    -165.018E-03    -163.663E-03     328.383E-03    -164.688E-03     29.2987E-03     38.4510E+06     14.3710E+06    -53.5571E+06    -52.9845E+06     13.7983E+06     38.4510E+06     1.96599E+06         48.9801
             400     8.48396E-03     65.2141E-03     41.0061E-03     23.4607E-03    -128.136E-03     38.7854E-03    -125.916E-03     23.4607E-03     5.60653E-03     329.932E-03    -164.259E-03    -165.450E-03    -164.804E-03     329.611E-03    -164.584E-03     24.7689E-03     24.4553E+06    -28.7149E+06    -65.5867E+06    -64.2817E+06    -30.0200E+06     24.4553E+06     2.47374E+06         47.3858
             401     7.63862E-03     65.1847E-03     31.6277E-03     21.3904E-03    -117.043E-03     29.2525E-03    -115.465E-03     22.1878E-03     19.5044E-03     330.024E-03    -164.465E-03    -165.289E-03    -165.099E-03     329.835E-03    -164.465E-03     19.2463E-03     9.09011E+06    -57.8978E+06    -82.3639E+06    -72.3331E+06    -67.9285E+06     9.09011E+06     787.981E+03         46.4573
             402     6.79133E-03     65.1630E-03     24.0459E-03     17.8630E-03    -105.122E-03     17.0101E-03    -102.220E-03     21.9969E-03    -24.8931E-03     329.260E-03    -164.373E-03    -164.983E-03    -164.838E-03     329.115E-03    -164.373E-03     16.7747E-03    -9.02941E+06    -79.9795E+06    -110.012E+06    -82.2601E+06    -107.731E+06    -9.02941E+06    -1.90790E+06         46.0783
             403     5.94224E-03     65.1408E-03     23.1070E-03     16.9097E-03    -104.113E-03     11.9407E-03    -99.0360E-03     22.9989E-03    -2.70245E-03     328.521E-03    -164.169E-03    -164.676E-03    -164.396E-03     328.426E-03    -164.354E-03     13.3581E-03    -25.6896E+06    -91.1887E+06    -139.137E+06    -92.3299E+06    -137.996E+06    -25.6896E+06     2.48476E+06         45.9366
             404     5.09468E-03     65.1295E-03     28.6274E-03     21.0141E-03    -114.703E-03     23.1341E-03    -111.962E-03     23.7666E-03     28.7079E-03     328.285E-03    -163.991E-03    -164.427E-03    -164.042E-03     328.229E-03    -164.321E-03     10.1999E-03    -45.5871E+06    -95.5734E+06    -167.399E+06    -96.5812E+06    -166.391E+06    -45.5871E+06     4.05209E+06         45.8345
             405     4.24381E-03     65.1148E-03     36.4212E-03     21.0860E-03    -123.682E-03     33.8242E-03    -122.638E-03     22.6388E-03    -3.76651E-03     328.709E-03    -164.038E-03    -164.640E-03    -164.464E-03     328.678E-03    -164.183E-03     7.42016E-03    -67.2169E+06    -103.856E+06    -194.650E+06    -103.948E+06    -194.558E+06    -67.2169E+06    -647.097E+03         45.7382
             406     3.39622E-03     65.1081E-03     30.5138E-03     17.0153E-03    -114.024E-03     24.7674E-03    -112.238E-03     20.9755E-03    -18.1311E-03     328.413E-03    -163.869E-03    -164.465E-03    -164.406E-03     328.400E-03    -163.915E-03     4.90334E-03    -85.3905E+06    -113.331E+06    -215.851E+06    -113.488E+06    -215.694E+06    -85.3905E+06    -482.016E+03         45.6447
             407     2.54908E-03     65.0999E-03     25.8686E-03     12.6160E-03    -103.843E-03     13.1163E-03    -100.358E-03     21.8833E-03     11.0662E-03     327.498E-03    -163.572E-03    -163.874E-03    -163.775E-03     327.492E-03    -163.665E-03     3.28600E-03    -103.751E+06    -121.300E+06    -237.566E+06    -121.520E+06    -237.346E+06    -103.751E+06    -880.902E+03         45.5604
             408     1.69673E-03     65.0957E-03     31.7255E-03     15.2031E-03    -111.204E-03     17.9622E-03    -107.302E-03     25.0640E-03    -1.62130E-03     327.187E-03    -163.395E-03    -163.819E-03    -163.570E-03     327.183E-03    -163.640E-03     2.49199E-03    -117.143E+06    -127.447E+06    -253.070E+06    -127.814E+06    -252.702E+06    -117.143E+06     245.968E+03         45.4935
             409     849.741E-06     65.0916E-03     82.2994E-03    -5.69700E-03    -138.034E-03     56.3850E-03    -115.120E-03    -2.69607E-03     82.5752E-03     327.465E-03    -163.400E-03    -164.078E-03    -163.876E-03     327.462E-03    -163.599E-03     2.29062E-03    -124.068E+06    -131.199E+06    -272.442E+06    -129.934E+06    -272.126E+06    -125.649E+06     2.71310E+06         45.4579
             410     14.4228E-03     64.2159E-03     41.9721E-03     25.2151E-03    -133.616E-03     40.9333E-03    -132.577E-03     25.2151E-03    -2.52593E-03     327.950E-03    -162.225E-03    -165.518E-03    -160.890E-03     326.104E-03    -165.006E-03     59.4252E-03     133.316E+06     89.5026E+06    -5.41075E+06    -4.44677E+06     88.5386E+06     133.316E+06     3.55758E+06         69.0188
             411     13.5726E-03     64.1281E-03     41.8663E-03     23.8802E-03    -130.272E-03     41.3715E-03    -129.778E-03     23.8802E-03     10.4469E-03     330.644E-03    -164.202E-03    -166.340E-03    -163.727E-03     328.896E-03    -165.067E-03     57.9391E-03     107.485E+06     69.8098E+06    -18.2533E+06    -17.7442E+06     69.3006E+06     107.485E+06    -400.671E+03         65.4218
             412     12.7289E-03     64.0501E-03     45.6800E-03     22.2911E-03    -131.254E-03     45.2976E-03    -130.872E-03     22.2911E-03     5.97543E-03     331.396E-03    -164.892E-03    -166.635E-03    -165.491E-03     330.441E-03    -165.080E-03     43.2059E-03     83.8145E+06     53.0659E+06    -32.5879E+06    -31.5328E+06     52.0108E+06     83.8145E+06    -6.10526E+06         61.2661
             413     11.8784E-03     63.9983E-03     40.5647E-03     20.6430E-03    -125.454E-03     39.8566E-03    -124.746E-03     20.6430E-03    -3.13301E-03     330.319E-03    -164.362E-03    -166.068E-03    -164.695E-03     329.569E-03    -164.985E-03     38.5279E-03     74.3361E+06     53.2494E+06    -30.0441E+06    -28.9952E+06     52.2005E+06     74.3361E+06    -5.93831E+06         57.3765
             414     11.0313E-03     63.9435E-03     34.3709E-03     18.0422E-03    -117.086E-03     31.3711E-03    -115.369E-03     19.3243E-03     6.27241E-03     328.990E-03    -163.883E-03    -165.339E-03    -163.478E-03     328.226E-03    -164.980E-03     38.7862E-03     59.5979E+06     47.9909E+06    -34.7030E+06    -33.7115E+06     48.1303E+06     58.4670E+06    -1.26210E+06         54.0160
             415     10.1803E-03     63.8975E-03     27.4123E-03     13.9592E-03    -106.295E-03     21.0428E-03    -104.536E-03     18.5691E-03     6.10890E-03     328.903E-03    -163.834E-03    -165.351E-03    -163.547E-03     328.289E-03    -165.024E-03     34.5963E-03     44.7100E+06     35.6366E+06    -49.5188E+06    -48.4792E+06     35.7279E+06     43.5791E+06     1.41402E+06         51.2105
             416     9.32839E-03     63.8606E-03     23.7402E-03     10.6076E-03    -99.3023E-03     13.0936E-03    -96.5632E-03     18.5151E-03    -23.7290E-03     330.264E-03    -164.461E-03    -165.864E-03    -164.897E-03     329.824E-03    -164.988E-03     29.3528E-03     38.0679E+06     15.9927E+06    -57.3280E+06    -56.8416E+06     15.5063E+06     38.0679E+06     4.35895E+06         48.9921
             417     8.48590E-03     63.8192E-03     27.9405E-03     12.4922E-03    -104.623E-03     18.8696E-03    -101.655E-03     18.5948E-03    -1.01286E-03     330.446E-03    -164.586E-03    -165.732E-03    -165.200E-03     330.150E-03    -164.821E-03     23.8442E-03     24.6052E+06    -26.9774E+06    -65.6391E+06    -64.1023E+06    -28.5142E+06     24.6052E+06     1.95708E+06         47.3960
             418     7.63635E-03     63.7963E-03     28.8940E-03     16.5067E-03    -109.437E-03     26.5509E-03    -108.616E-03     18.0297E-03     8.47046E-03     329.866E-03    -164.461E-03    -165.158E-03    -164.723E-03     329.666E-03    -164.697E-03     19.8625E-03     9.80318E+06    -61.0306E+06    -80.0415E+06    -70.7769E+06    -70.2952E+06     9.80318E+06    -343.180E+03         46.4665
             419     6.78730E-03     63.7718E-03     30.9203E-03     16.2919E-03    -109.628E-03     28.0048E-03    -107.233E-03     16.8124E-03    -28.0117E-03     329.581E-03    -164.630E-03    -164.969E-03    -164.751E-03     329.421E-03    -164.688E-03     17.6078E-03    -8.15226E+06    -75.7582E+06    -108.609E+06    -79.4353E+06    -104.932E+06    -8.15226E+06     2.50238E+06         46.0916
             420     5.93954E-03     63.7538E-03     30.9228E-03     12.2377E-03    -106.360E-03     23.0127E-03    -101.722E-03     15.5107E-03    -2.03235E-03     329.256E-03    -164.567E-03    -164.918E-03    -164.723E-03     329.155E-03    -164.662E-03     13.9203E-03    -30.9086E+06    -89.3349E+06    -143.847E+06    -91.1758E+06    -142.006E+06    -30.9086E+06     727.042E+03         45.9576
             421     5.09013E-03     63.7388E-03     28.1022E-03     11.4189E-03    -104.660E-03     22.6017E-03    -101.912E-03     14.1714E-03     30.1971E-03     329.538E-03    -164.523E-03    -165.102E-03    -165.003E-03     329.476E-03    -164.560E-03     10.8861E-03    -44.2274E+06    -95.5649E+06    -166.690E+06    -96.0032E+06    -166.252E+06    -44.2274E+06    -809.744E+03         45.8590
             422     4.24464E-03     63.7269E-03     27.6854E-03     11.8218E-03    -106.799E-03     27.2498E-03    -106.364E-03     11.8218E-03     5.22011E-03     329.243E-03    -164.265E-03    -164.953E-03    -164.820E-03     329.211E-03    -164.366E-03     7.48955E-03    -60.4868E+06    -102.131E+06    -188.383E+06    -102.200E+06    -188.314E+06    -60.4868E+06     2.28886E+06         45.7623
             423     3.39614E-03     63.7184E-03     18.8178E-03     8.60287E-03    -96.0483E-03     17.5650E-03    -95.3558E-03     9.16311E-03     6.30326E-03     328.520E-03    -163.925E-03    -164.518E-03    -164.295E-03     328.503E-03    -164.130E-03     5.74445E-03    -82.7141E+06    -112.516E+06    -214.271E+06    -112.637E+06    -214.150E+06    -82.7141E+06     350.275E+03         45.6684
             424     2.54631E-03     63.7140E-03     10.3982E-03     1.24977E-03    -79.3401E-03    -960.864E-06    -76.6210E-03     9.88977E-03    -4.37044E-03     328.067E-03    -163.745E-03    -164.280E-03    -164.115E-03     328.053E-03    -163.896E-03     5.12155E-03    -102.009E+06    -120.876E+06    -236.469E+06    -120.979E+06    -236.366E+06    -102.009E+06    -656.815E+03         45.5793
             425     1.69983E-03     63.7093E-03     16.0060E-03     2.14547E-03    -82.9859E-03    -1.31075E-03    -79.5297E-03     16.0060E-03    -30.5097E-03     327.624E-03    -163.550E-03    -164.102E-03    -163.851E-03     327.618E-03    -163.796E-03     3.21469E-03    -118.757E+06    -128.139E+06    -253.950E+06    -127.384E+06    -253.848E+06    -119.615E+06    -1.16444E+06         45.5083
             426     847.473E-06     63.7059E-03     58.3234E-03    -2.90673E-03    -118.138E-03     37.6878E-03    -103.283E-03     2.87407E-03     60.0051E-03     327.784E-03    -163.658E-03    -164.134E-03    -163.786E-03     327.781E-03    -164.003E-03     2.35380E-03    -126.048E+06    -132.216E+06    -272.972E+06    -130.040E+06    -272.708E+06    -128.487E+06    -2.48142E+06         45.4730
             427     14.4259E-03     62.8297E-03     40.0729E-03     20.3302E-03    -124.458E-03     39.0251E-03    -123.410E-03     20.3302E-03    -8.75876E-03     330.382E-03    -164.005E-03    -166.492E-03    -164.189E-03     328.952E-03    -164.878E-03     52.5940E-03     132.165E+06     86.2802E+06    -11.4925E+06    -11.0872E+06     85.8749E+06     132.165E+06    -813.987E+03         69.0846
             428     13.5794E-03     62.7302E-03     36.2581E-03     19.0174E-03    -118.122E-03     35.6927E-03    -117.556E-03     19.0174E-03    -2.17121E-03     330.015E-03    -163.651E-03    -166.631E-03    -164.012E-03     328.524E-03    -164.779E-03     53.8684E-03     112.866E+06     74.3873E+06    -14.8164E+06    -14.4295E+06     74.0004E+06     112.866E+06     1.10075E+06         65.5004
             429     12.7291E-03     62.6606E-03     31.9492E-03     17.8225E-03    -112.075E-03     31.4510E-03    -111.577E-03     17.8225E-03     3.63966E-03     327.622E-03    -162.420E-03    -165.509E-03    -162.067E-03     326.633E-03    -164.874E-03     43.7731E-03     85.9973E+06     61.2154E+06    -20.6352E+06    -19.3723E+06     59.9526E+06     85.9973E+06    -1.06715E+06         61.3299
             430     11.8810E-03     62.6088E-03     29.7866E-03     16.7784E-03    -109.774E-03     28.7911E-03    -108.779E-03     16.7784E-03    -3.56169E-03     327.881E-03    -163.012E-03    -165.047E-03    -162.144E-03     327.013E-03    -165.047E-03     41.0962E-03     60.3763E+06     45.9285E+06    -36.6451E+06    -35.2885E+06     44.6628E+06     60.2854E+06    -3.81040E+06         57.4163
             431     11.0274E-03     62.5567E-03     33.4395E-03     15.5685E-03    -114.522E-03     32.7304E-03    -113.812E-03     15.5685E-03    -9.13975E-03     329.316E-03    -163.777E-03    -165.829E-03    -163.701E-03     328.561E-03    -165.150E-03     38.2814E-03     52.1444E+06     40.6956E+06    -43.2603E+06    -42.7772E+06     41.4343E+06     50.9226E+06     989.732E+03         54.0439
             432     10.1761E-03     62.5107E-03     33.9232E-03     14.0057E-03    -114.135E-03     33.4208E-03    -113.633E-03     14.0057E-03    -5.48464E-03     330.204E-03    -164.421E-03    -166.040E-03    -164.884E-03     329.710E-03    -165.084E-03     30.9154E-03     47.4773E+06     37.9232E+06    -47.7153E+06    -47.3074E+06     38.6463E+06     46.3464E+06     4.23508E+06         51.2340
             433     9.33313E-03     62.4618E-03     26.0758E-03     8.24629E-03    -100.247E-03     18.8096E-03    -97.5604E-03     12.8260E-03    -21.6872E-03     329.766E-03    -164.210E-03    -165.588E-03    -164.427E-03     329.418E-03    -165.023E-03     26.1417E-03     37.9358E+06     14.1196E+06    -54.1765E+06    -53.8695E+06     13.8126E+06     37.9358E+06     306.363E+03         49.0107
             434     8.48195E-03     62.4316E-03     16.5915E-03     5.85511E-03    -88.3137E-03     5.19894E-03    -83.8641E-03     12.7981E-03     4.98280E-03     329.449E-03    -163.951E-03    -165.321E-03    -164.005E-03     329.181E-03    -164.999E-03     22.8892E-03     25.1964E+06    -27.9964E+06    -61.0183E+06    -59.3188E+06    -29.6959E+06     25.1964E+06     1.74803E+06         47.4086
             435     7.63326E-03     62.4053E-03     19.1845E-03     10.5818E-03    -93.8185E-03     14.4430E-03    -91.4403E-03     12.9451E-03     21.2657E-03     330.037E-03    -164.656E-03    -165.180E-03    -164.758E-03     329.851E-03    -164.891E-03     19.0738E-03     6.34710E+06    -62.4165E+06    -81.3922E+06    -70.8426E+06    -72.9661E+06     6.34710E+06     1.98311E+06         46.4790
             436     6.78615E-03     62.3812E-03     30.8747E-03     11.6011E-03    -105.834E-03     29.7925E-03    -104.752E-03     11.6011E-03    -11.7895E-03     330.018E-03    -164.822E-03    -165.181E-03    -164.958E-03     329.900E-03    -164.927E-03     14.9617E-03    -7.04200E+06    -74.4509E+06    -107.488E+06    -78.0475E+06    -103.891E+06    -7.04200E+06     217.356E+03         46.1038
             437     5.93724E-03     62.3646E-03     35.5443E-03     8.58369E-03    -108.534E-03     33.6762E-03    -106.666E-03     8.58369E-03     244.182E-06     329.845E-03    -164.832E-03    -165.096E-03    -164.900E-03     329.769E-03    -164.953E-03     12.2179E-03    -21.9961E+06    -80.6023E+06    -135.386E+06    -83.2671E+06    -132.721E+06    -21.9961E+06    -81.7221E+03         45.9591
             438     5.09161E-03     62.3470E-03     23.2171E-03     5.32496E-03    -93.3215E-03     22.1800E-03    -92.2843E-03     5.32496E-03     17.1103E-03     329.756E-03    -164.498E-03    -165.266E-03    -164.879E-03     329.700E-03    -164.829E-03     10.3044E-03    -45.4258E+06    -97.1183E+06    -167.791E+06    -97.6916E+06    -167.217E+06    -45.4258E+06    -413.566E+03         45.8561
             439     4.24254E-03     62.3366E-03     8.17419E-03     1.94027E-03    -76.7108E-03     1.99601E-03    -72.6843E-03     4.09194E-03    -15.1212E-03     329.308E-03    -164.273E-03    -164.986E-03    -164.535E-03     329.277E-03    -164.694E-03     7.77070E-03    -64.1437E+06    -109.250E+06    -192.631E+06    -109.313E+06    -192.567E+06    -64.1437E+06     649.612E+03         45.7739
             440     3.39329E-03     62.3326E-03     9.53690E-03     1.84611E-03    -80.7289E-03     2.40086E-03    -76.3048E-03     4.55802E-03    -9.80870E-03     329.025E-03    -164.377E-03    -164.606E-03    -164.377E-03     329.005E-03    -164.586E-03     6.16970E-03    -82.2922E+06    -115.375E+06    -213.756E+06    -115.437E+06    -213.694E+06    -82.2922E+06     639.751E+03         45.6937
             441     2.54516E-03     62.3244E-03     25.1191E-03    -32.6679E-06    -93.6198E-03     20.1186E-03    -90.3993E-03     1.74739E-03     5.50449E-03     328.781E-03    -164.011E-03    -164.727E-03    -164.201E-03     328.767E-03    -164.522E-03     5.08195E-03    -100.611E+06    -120.866E+06    -234.649E+06    -120.948E+06    -234.567E+06    -100.611E+06     1.48475E+06         45.6048
             442     1.69554E-03     62.3213E-03     28.0860E-03    -9.63438E-03    -85.3546E-03     11.3668E-03    -72.6350E-03    -5.63469E-03     15.5465E-03     328.965E-03    -164.127E-03    -164.860E-03    -164.422E-03     328.954E-03    -164.554E-03     4.58167E-03    -116.293E+06    -127.395E+06    -251.135E+06    -126.618E+06    -251.054E+06    -117.150E+06     1.43442E+06         45.5320
             443     850.703E-06     62.3190E-03     48.7259E-03    -25.7484E-03    -82.4986E-03     6.80638E-03    -39.4706E-03    -26.8569E-03     70.2021E-03     329.327E-03    -164.402E-03    -164.919E-03    -164.743E-03     329.316E-03    -164.568E-03     4.30228E-03    -128.506E+06    -135.582E+06    -275.390E+06    -133.551E+06    -275.183E+06    -130.744E+06    -371.427E+03         45.4970
             444     14.4352E-03     61.4315E-03     36.0806E-03     16.8163E-03    -114.620E-03     35.9338E-03    -114.473E-03     16.8163E-03    -8.83532E-03     330.547E-03    -164.683E-03    -166.053E-03    -164.350E-03     328.844E-03    -164.683E-03     57.1530E-03     134.045E+06     87.8306E+06    -8.41547E+06    -8.24935E+06     87.6645E+06     134.045E+06    -3.08697E+06         69.1605
             445     13.5868E-03     61.3455E-03     29.9989E-03     15.6522E-03    -107.756E-03     29.8041E-03    -107.561E-03     15.6522E-03    -9.61972E-03     327.750E-03    -162.810E-03    -165.364E-03    -161.825E-03     326.049E-03    -164.648E-03     56.9736E-03     108.009E+06     70.2586E+06    -16.0481E+06    -15.7762E+06     69.9867E+06     108.009E+06    -391.333E+03         65.5722
             446     12.7299E-03     61.2798E-03     29.3699E-03     14.6027E-03    -105.656E-03     28.9690E-03    -105.255E-03     14.6027E-03    -8.47035E-03     325.465E-03    -161.095E-03    -164.852E-03    -160.028E-03     324.398E-03    -164.852E-03     45.1742E-03     85.4512E+06     60.4699E+06    -20.0785E+06    -19.4370E+06     59.8284E+06     85.4512E+06     6.09084E+06         61.3882
             447     11.8720E-03     61.2216E-03     31.2610E-03     13.3814E-03    -107.268E-03     30.6925E-03    -106.700E-03     13.3814E-03    -6.39061E-03     328.052E-03    -162.837E-03    -165.466E-03    -162.473E-03     327.254E-03    -165.032E-03     39.1160E-03     63.7805E+06     50.6731E+06    -29.8578E+06    -29.1761E+06     50.0822E+06     63.6896E+06     5.21425E+06         57.4624
             448     11.0260E-03     61.1658E-03     25.3204E-03     12.1296E-03    -102.033E-03     24.7923E-03    -101.505E-03     12.1296E-03     2.10109E-03     330.952E-03    -164.775E-03    -166.512E-03    -165.627E-03     330.343E-03    -165.051E-03     34.2527E-03     47.4237E+06     37.1564E+06    -47.5308E+06    -47.1321E+06     36.8487E+06     47.3328E+06    -994.752E+03         54.0843
             449     10.1849E-03     61.1113E-03     28.5710E-03     10.7765E-03    -104.593E-03     28.2215E-03    -104.244E-03     10.7765E-03    -188.345E-06     330.035E-03    -164.255E-03    -165.956E-03    -164.908E-03     329.640E-03    -164.909E-03     27.7338E-03     51.2126E+06     42.8660E+06    -43.1030E+06    -42.3997E+06     42.1627E+06     51.2126E+06    -3.91333E+06         51.2676
             450     9.33163E-03     61.0787E-03     35.0827E-03     8.75879E-03    -109.296E-03     34.7517E-03    -108.965E-03     8.75879E-03     529.577E-06     328.019E-03    -163.046E-03    -164.892E-03    -162.772E-03     327.725E-03    -164.872E-03     24.0096E-03     40.3761E+06     16.0388E+06    -46.1275E+06    -45.3005E+06     15.2118E+06     40.3761E+06    -2.20811E+06         49.0327
             451     8.48093E-03     61.0414E-03     27.7705E-03     5.72444E-03    -98.1254E-03     24.6441E-03    -95.8393E-03     6.56475E-03     15.0428E-03     328.539E-03    -163.331E-03    -164.989E-03    -163.137E-03     328.309E-03    -164.954E-03     20.9837E-03     21.4919E+06    -34.7715E+06    -64.6620E+06    -63.6251E+06    -35.8085E+06     21.4919E+06     757.533E+03         47.4184
             452     7.63386E-03     61.0120E-03     16.0703E-03     4.25427E-03    -84.2805E-03     12.9043E-03    -81.9548E-03     5.09458E-03     11.2988E-03     329.358E-03    -164.038E-03    -165.162E-03    -164.100E-03     329.207E-03    -164.949E-03     17.1717E-03     9.22293E+06    -61.4204E+06    -78.3052E+06    -72.5496E+06    -67.1760E+06     9.22293E+06     3.21977E+06         46.4764
             453     6.78585E-03     60.9904E-03     12.8476E-03     4.13268E-03    -80.1574E-03     10.4784E-03    -77.7883E-03     4.13268E-03    -13.8978E-03     329.901E-03    -164.513E-03    -165.424E-03    -164.803E-03     329.786E-03    -165.019E-03     14.9078E-03    -7.64814E+06    -78.1684E+06    -106.173E+06    -80.9799E+06    -103.361E+06    -7.64814E+06    -148.723E+03         46.0900
             454     5.93856E-03     60.9732E-03     15.4667E-03     897.966E-06    -80.1737E-03     9.24649E-03    -76.2708E-03     3.21529E-03     202.570E-06     329.911E-03    -164.742E-03    -165.329E-03    -164.890E-03     329.832E-03    -165.102E-03     12.3102E-03    -21.6782E+06    -88.1961E+06    -136.044E+06    -89.2988E+06    -134.942E+06    -21.6782E+06    -1.98519E+06         45.9414
             455     5.08829E-03     60.9565E-03     10.4326E-03     95.5332E-06    -75.9050E-03     4.22977E-03    -72.2204E-03     2.61378E-03     26.7302E-03     329.091E-03    -164.053E-03    -165.101E-03    -164.005E-03     329.042E-03    -165.101E-03     9.49588E-03    -44.9728E+06    -100.589E+06    -165.905E+06    -100.969E+06    -165.525E+06    -44.9728E+06     1.86819E+06         45.8453
             456     4.23924E-03     60.9493E-03     7.85309E-03     528.310E-06    -74.0624E-03    -1.18109E-03    -67.3808E-03     2.88090E-03    -12.7028E-03     329.331E-03    -164.181E-03    -165.116E-03    -164.154E-03     329.303E-03    -165.116E-03     7.26096E-03    -70.5973E+06    -110.791E+06    -196.350E+06    -110.890E+06    -196.251E+06    -70.5973E+06     731.907E+03         45.7760
             457     3.39214E-03     60.9393E-03     16.6758E-03     791.443E-06    -83.8260E-03     5.66740E-03    -74.9693E-03     2.94311E-03    -42.3342E-03     329.924E-03    -164.793E-03    -165.113E-03    -164.796E-03     329.906E-03    -165.092E-03     5.79250E-03    -88.3390E+06    -116.775E+06    -216.145E+06    -116.856E+06    -216.064E+06    -88.3390E+06    -1.81980E+06         45.7089
             458     2.54406E-03     60.9373E-03     29.0120E-03    -1.23288E-03    -94.4870E-03     21.7361E-03    -87.2110E-03    -1.23288E-03    -21.3088E-03     329.720E-03    -164.541E-03    -165.135E-03    -164.551E-03     329.709E-03    -165.115E-03     4.52445E-03    -103.699E+06    -122.865E+06    -235.222E+06    -123.033E+06    -235.053E+06    -103.699E+06    -768.715E+03         45.6361
             459     1.69495E-03     60.9308E-03     26.9926E-03    -11.0175E-03    -82.0957E-03     12.9917E-03    -68.0947E-03    -11.0175E-03     29.5433E-03     329.921E-03    -164.537E-03    -165.406E-03    -164.527E-03     329.911E-03    -165.406E-03     4.26666E-03    -114.599E+06    -125.300E+06    -249.885E+06    -125.447E+06    -249.708E+06    -114.629E+06     2.27855E+06         45.5755
             460     844.452E-06     60.9259E-03     40.2452E-03    -31.0138E-03    -70.2723E-03    -23.4545E-03    -27.4271E-03    -10.1593E-03     43.4271E-03     331.398E-03    -165.282E-03    -166.110E-03    -165.500E-03     331.389E-03    -165.882E-03     4.04452E-03    -122.600E+06    -128.573E+06    -270.784E+06    -127.289E+06    -270.659E+06    -124.009E+06     3.06823E+06         45.5422
             461     14.4299E-03     60.0427E-03     34.3826E-03     14.3208E-03    -111.089E-03     34.1176E-03    -110.824E-03     14.3208E-03    -6.58986E-03     329.205E-03    -164.102E-03    -165.206E-03    -162.555E-03     327.200E-03    -164.747E-03     62.5451E-03     131.849E+06     86.3927E+06    -6.31793E+06    -5.83320E+06     85.9080E+06     131.849E+06     2.10056E+06         69.2217
             462     13.5759E-03     59.9587E-03     30.3459E-03     13.0735E-03    -105.691E-03     30.2497E-03    -105.594E-03     13.0735E-03    -2.92843E-03     329.955E-03    -164.078E-03    -165.915E-03    -163.450E-03     328.199E-03    -164.787E-03     57.8609E-03     106.744E+06     68.5590E+06    -17.3435E+06    -16.7487E+06     67.9641E+06     106.744E+06     4.61511E+06         65.6328
             463     12.7280E-03     59.8953E-03     34.4319E-03     11.6447E-03    -108.629E-03     33.9366E-03    -108.133E-03     11.6447E-03    -4.77688E-03     330.370E-03    -163.321E-03    -167.172E-03    -164.742E-03     329.432E-03    -164.813E-03     42.3923E-03     86.9211E+06     55.7815E+06    -27.8388E+06    -27.4979E+06     55.4406E+06     86.9211E+06     2.46630E+06         61.4537
             464     11.8837E-03     59.8325E-03     33.6574E-03     9.92209E-03    -104.946E-03     33.0131E-03    -104.302E-03     9.92209E-03     6.25156E-03     330.319E-03    -163.866E-03    -166.559E-03    -165.179E-03     329.721E-03    -164.648E-03     34.2835E-03     75.7241E+06     54.0361E+06    -30.0184E+06    -29.4417E+06     53.4595E+06     75.7241E+06     309.606E+03         57.5294
             465     11.0365E-03     59.7689E-03     25.9326E-03     8.29710E-03    -97.7030E-03     25.3138E-03    -97.0841E-03     8.29710E-03     7.55013E-03     328.246E-03    -163.129E-03    -165.426E-03    -163.491E-03     327.782E-03    -164.600E-03     30.0485E-03     61.4683E+06     49.8755E+06    -30.5913E+06    -29.9874E+06     49.2716E+06     61.4683E+06    -3.22986E+06         54.1392
             466     10.1825E-03     59.7247E-03     20.4089E-03     6.99729E-03    -91.2941E-03     19.5098E-03    -90.3950E-03     6.99729E-03    -7.74042E-03     326.815E-03    -162.095E-03    -165.001E-03    -162.079E-03     326.450E-03    -164.653E-03     26.5837E-03     44.4216E+06     32.6593E+06    -44.8900E+06    -44.1982E+06     31.9675E+06     44.4216E+06    -5.20351E+06         51.3031
             467     9.33473E-03     59.6913E-03     22.4764E-03     5.71653E-03    -91.4685E-03     20.5536E-03    -89.5457E-03     5.71653E-03    -12.6374E-03     328.061E-03    -163.270E-03    -164.771E-03    -163.032E-03     327.767E-03    -164.715E-03     23.9704E-03     35.6307E+06     12.0143E+06    -61.1799E+06    -60.1720E+06     11.0063E+06     35.6307E+06     1.59106E+06         49.0532
             468     8.48658E-03     59.6515E-03     32.8887E-03     3.61674E-03    -100.268E-03     31.3268E-03    -98.7063E-03     3.61674E-03    -5.19569E-03     328.034E-03    -163.062E-03    -164.766E-03    -162.915E-03     327.832E-03    -164.711E-03     19.7670E-03     23.1708E+06    -24.3426E+06    -67.8728E+06    -66.2281E+06    -25.9873E+06     23.1708E+06     1.08497E+06         47.4259
             469     7.63445E-03     59.6254E-03     28.3351E-03     686.454E-06    -92.3407E-03     28.1235E-03    -92.1291E-03     686.454E-06    -2.01857E-03     327.554E-03    -162.428E-03    -164.820E-03    -162.287E-03     327.414E-03    -164.820E-03     16.5615E-03     10.1299E+06    -61.2028E+06    -77.5398E+06    -71.5673E+06    -67.1752E+06     10.1299E+06    -3.29427E+06         46.4640
             470     6.78331E-03     59.5996E-03     8.99139E-03    -3.50981E-03    -68.7142E-03     4.46017E-03    -66.4671E-03    -1.22565E-03    -14.9096E-03     328.772E-03    -163.463E-03    -165.292E-03    -163.575E-03     328.657E-03    -165.065E-03     14.8516E-03    -7.10081E+06    -82.0609E+06    -105.796E+06    -84.0923E+06    -103.765E+06    -7.10081E+06     1.34406E+06         46.0659
             471     5.93579E-03     59.5790E-03    -54.8015E-06    -9.25826E-03    -53.7326E-03    -12.8412E-03    -49.4467E-03    -757.667E-06    -1.97758E-03     329.401E-03    -164.200E-03    -165.468E-03    -164.357E-03     329.331E-03    -165.241E-03     11.4508E-03    -29.5489E+06    -95.2357E+06    -142.259E+06    -95.6254E+06    -141.869E+06    -29.5489E+06    -279.341E+03         45.9302
             472     5.08878E-03     59.5708E-03     1.44085E-03    -5.51840E-03    -60.3933E-03    -8.97055E-03    -56.3992E-03     898.954E-06     23.9139E-03     329.288E-03    -163.997E-03    -165.339E-03    -163.957E-03     329.248E-03    -165.339E-03     8.76472E-03    -44.5345E+06    -98.7812E+06    -167.244E+06    -99.0006E+06    -167.024E+06    -44.5345E+06    -389.305E+03         45.8513
             473     4.23956E-03     59.5575E-03     8.40319E-03     1.18348E-03    -74.9603E-03     4.52702E-03    -71.2851E-03     1.38440E-03    -5.95418E-03     329.550E-03    -164.047E-03    -165.467E-03    -164.019E-03     329.521E-03    -165.467E-03     7.25966E-03    -63.8596E+06    -104.362E+06    -189.468E+06    -104.447E+06    -189.382E+06    -63.8596E+06     1.88202E+06         45.7857
             474     3.38985E-03     59.5515E-03     12.9288E-03    -6.00240E-03    -70.2262E-03    -1.71108E-03    -63.0367E-03     1.44804E-03    -36.3972E-03     330.289E-03    -164.714E-03    -165.543E-03    -164.699E-03     330.273E-03    -165.543E-03     5.46021E-03    -85.8261E+06    -112.894E+06    -214.638E+06    -113.047E+06    -214.485E+06    -85.8261E+06     655.435E+03         45.7205
             475     2.54160E-03     59.5439E-03     12.7956E-03    -12.4457E-03    -62.9794E-03    -18.5288E-03    -50.0232E-03     5.92253E-03    -38.8624E-03     331.129E-03    -165.222E-03    -165.849E-03    -165.564E-03     331.121E-03    -165.499E-03     3.88581E-03    -105.704E+06    -121.239E+06    -237.043E+06    -121.267E+06    -236.850E+06    -105.870E+06    -1.12270E+06         45.6585
             476     1.69504E-03     59.5420E-03     21.2142E-03     4.72722E-03    -87.9056E-03    -10.5139E-03    -68.3750E-03     16.9248E-03     29.0981E-03     331.120E-03    -164.934E-03    -166.195E-03    -165.749E-03     331.115E-03    -165.376E-03     2.82712E-03    -118.907E+06    -125.439E+06    -253.366E+06    -125.574E+06    -253.036E+06    -119.102E+06    -2.60948E+06         45.6069
             477     848.504E-06     59.5317E-03     62.0310E-03     6.32899E-03    -132.286E-03    -11.6286E-03    -111.909E-03     59.6108E-03     8.80560E-03     330.713E-03    -164.707E-03    -166.012E-03    -165.173E-03     330.710E-03    -165.542E-03     2.51413E-03    -121.040E+06    -127.500E+06    -268.721E+06    -124.261E+06    -268.429E+06    -124.571E+06    -1.22191E+06         45.5750
             478     14.4253E-03     58.6558E-03     43.8991E-03     12.6361E-03    -120.880E-03     43.4552E-03    -120.436E-03     12.6361E-03     840.794E-06     331.169E-03    -164.168E-03    -167.187E-03    -164.816E-03     329.443E-03    -164.814E-03     58.3926E-03     128.595E+06     84.3458E+06    -12.5680E+06    -11.1453E+06     82.9231E+06     128.595E+06     1.22677E+06         69.2758
             479     13.5794E-03     58.5669E-03     44.9811E-03     10.5550E-03    -117.947E-03     44.8724E-03    -117.838E-03     10.5550E-03    -4.01955E-03     332.627E-03    -164.697E-03    -168.024E-03    -166.592E-03     331.195E-03    -164.697E-03     52.8788E-03     111.028E+06     71.9791E+06    -18.6502E+06    -17.4941E+06     70.8229E+06     111.028E+06    -1.51890E+06         65.7033
             480     12.7359E-03     58.4950E-03     36.3563E-03     8.43914E-03    -107.194E-03     35.9867E-03    -106.824E-03     8.43914E-03     3.59209E-03     332.997E-03    -164.538E-03    -168.458E-03    -167.546E-03     332.085E-03    -164.538E-03     42.4083E-03     88.9912E+06     57.0431E+06    -24.9121E+06    -24.5764E+06     56.7073E+06     88.9912E+06    -3.86917E+06         61.5241
             481     11.8921E-03     58.4385E-03     23.2414E-03     6.83533E-03    -92.3608E-03     22.7665E-03    -91.8859E-03     6.83533E-03     13.7920E-03     330.467E-03    -164.095E-03    -166.333E-03    -165.301E-03     329.657E-03    -164.318E-03     39.6827E-03     72.6837E+06     51.8553E+06    -27.3787E+06    -26.8152E+06     51.2919E+06     72.6837E+06    -4.72757E+06         57.5871
             482     11.0414E-03     58.3855E-03     18.7036E-03     5.70789E-03    -87.0777E-03     18.0134E-03    -86.3875E-03     5.70789E-03    -4.55780E-03     326.677E-03    -162.530E-03    -164.336E-03    -161.932E-03     326.035E-03    -164.292E-03     34.6353E-03     62.6925E+06     50.3282E+06    -28.5173E+06    -27.7937E+06     49.6046E+06     62.6925E+06     1.01655E+06         54.1821
             483     10.1874E-03     58.3462E-03     17.4690E-03     4.69160E-03    -85.1815E-03     16.5062E-03    -84.2188E-03     4.69160E-03    -15.4863E-03     326.203E-03    -162.070E-03    -164.384E-03    -161.644E-03     325.776E-03    -164.384E-03     28.6821E-03     42.0847E+06     30.4135E+06    -50.0426E+06    -49.0915E+06     29.9792E+06     41.5678E+06     6.25540E+06         51.3334
             484     9.33530E-03     58.2950E-03     16.4487E-03     3.66251E-03    -82.3144E-03     14.5459E-03    -80.4116E-03     3.66251E-03    -20.8325E-03     327.265E-03    -162.774E-03    -164.556E-03    -162.509E-03     326.945E-03    -164.501E-03     24.7081E-03     36.8899E+06     13.7037E+06    -60.4394E+06    -56.6321E+06     10.4133E+06     36.3731E+06     1.30638E+06         49.0731
             485     8.48708E-03     58.2665E-03     19.4011E-03     985.035E-06    -83.3970E-03     16.3522E-03    -81.7863E-03     2.42328E-03    -10.2178E-03     327.214E-03    -162.473E-03    -164.653E-03    -162.319E-03     327.005E-03    -164.597E-03     20.1512E-03     32.4005E+06    -14.6875E+06    -63.4361E+06    -56.7102E+06    -21.4133E+06     32.4005E+06    -196.143E+03         47.4343
             486     7.63651E-03     58.2395E-03     22.1124E-03    -824.676E-06    -84.1887E-03     20.2540E-03    -83.7685E-03     613.569E-06     10.8611E-03     327.499E-03    -162.623E-03    -164.677E-03    -162.462E-03     327.337E-03    -164.677E-03     17.6778E-03     9.86983E+06    -56.3717E+06    -81.9795E+06    -70.9465E+06    -67.4047E+06     9.86983E+06     3.07788E+06         46.4597
             487     6.78718E-03     58.2105E-03     17.1450E-03    -3.67347E-03    -76.9731E-03     13.5385E-03    -75.6507E-03    -1.38930E-03    -6.86986E-03     327.572E-03    -162.676E-03    -164.930E-03    -162.576E-03     327.472E-03    -164.930E-03     13.8101E-03    -10.3918E+06    -78.7253E+06    -108.439E+06    -80.6939E+06    -106.471E+06    -10.3918E+06     881.970E+03         46.0531
             488     5.93552E-03     58.1907E-03     12.4177E-03    -8.97621E-03    -68.1807E-03     4.03147E-03    -65.9778E-03    -2.79294E-03    -3.66708E-03     327.871E-03    -162.861E-03    -165.233E-03    -162.807E-03     327.817E-03    -165.233E-03     10.1776E-03    -29.3152E+06    -87.2571E+06    -141.630E+06    -87.9068E+06    -140.980E+06    -29.3152E+06    -2.78305E+06         45.9224
             489     5.08587E-03     58.1778E-03     9.16724E-03    -7.71114E-03    -65.2212E-03     2.21334E-03    -62.1664E-03    -3.81204E-03     20.8645E-03     329.380E-03    -163.971E-03    -165.439E-03    -163.935E-03     329.344E-03    -165.439E-03     8.15999E-03    -45.7737E+06    -97.4479E+06    -170.244E+06    -97.7406E+06    -169.952E+06    -45.7737E+06    -3.03761E+06         45.8569
             490     4.23761E-03     58.1690E-03     3.78941E-03    -4.67079E-03    -61.6608E-03    -1.68646E-03    -56.1849E-03    -4.67079E-03     11.0396E-03     330.132E-03    -164.492E-03    -165.556E-03    -164.469E-03     330.110E-03    -165.556E-03     6.12776E-03    -59.2644E+06    -103.670E+06    -187.530E+06    -103.704E+06    -187.496E+06    -59.2644E+06     375.144E+03         45.7987
             491     3.38964E-03     58.1574E-03     4.35183E-03    -11.3119E-03    -53.9428E-03    -13.1999E-03    -43.8415E-03    -3.86148E-03     17.3705E-03     330.478E-03    -164.760E-03    -165.606E-03    -164.749E-03     330.468E-03    -165.606E-03     4.32770E-03    -80.5629E+06    -111.980E+06    -211.368E+06    -112.081E+06    -211.266E+06    -80.5629E+06     2.18550E+06         45.7309
             492     2.54227E-03     58.1527E-03     11.2347E-03    -17.5334E-03    -54.3442E-03    -20.7725E-03    -40.7052E-03     834.806E-06    -368.653E-06     331.316E-03    -165.285E-03    -165.948E-03    -165.629E-03     331.310E-03    -165.598E-03     3.51751E-03    -99.9994E+06    -118.866E+06    -233.885E+06    -118.816E+06    -233.770E+06    -100.165E+06     1.90871E+06         45.6622
             493     1.69599E-03     58.1444E-03     35.7278E-03    -2.67992E-03    -93.4829E-03    -11.2902E-03    -58.6625E-03     9.51761E-03     63.3218E-03     331.501E-03    -165.225E-03    -166.279E-03    -166.212E-03     331.494E-03    -165.286E-03     3.35669E-03    -117.434E+06    -125.724E+06    -253.327E+06    -125.074E+06    -253.058E+06    -118.354E+06    -1.42933E+06         45.6046
             494     849.414E-06     58.1458E-03     75.6258E-03     25.0298E-03    -161.082E-03    -24.5575E-03    -89.4376E-03     53.5688E-03     1.96288E-03     330.181E-03    -164.282E-03    -165.910E-03    -165.648E-03     330.174E-03    -164.537E-03     3.45158E-03    -125.305E+06    -134.873E+06    -274.283E+06    -130.884E+06    -274.018E+06    -129.559E+06    -2.41975E+06         45.5689
             495     14.4319E-03     57.2588E-03     48.2280E-03     11.2070E-03    -124.129E-03     48.0036E-03    -123.904E-03     11.2070E-03     5.55472E-03     333.156E-03    -164.705E-03    -168.942E-03    -167.467E-03     331.681E-03    -164.705E-03     54.0509E-03     135.818E+06     90.4480E+06    -10.5200E+06    -8.79702E+06     88.7251E+06     135.818E+06    -1.99194E+06         69.3139
             496     13.5859E-03     57.1737E-03     43.5340E-03     8.98582E-03    -115.884E-03     43.4755E-03    -115.826E-03     8.98582E-03    -5.34339E-03     330.829E-03    -163.826E-03    -167.447E-03    -165.319E-03     329.321E-03    -164.447E-03     54.5371E-03     110.670E+06     74.2543E+06    -16.5188E+06    -15.5003E+06     73.2357E+06     110.670E+06    -2.29315E+06         65.7439
             497     12.7367E-03     57.1014E-03     34.4324E-03     6.97324E-03    -104.434E-03     34.2975E-03    -104.299E-03     6.97324E-03     35.9856E-06     328.973E-03    -163.228E-03    -165.953E-03    -163.583E-03     327.767E-03    -164.393E-03     48.6060E-03     79.8669E+06     58.2835E+06    -18.7432E+06    -18.4444E+06     57.9847E+06     79.8669E+06    -3.31110E+06         61.5518
             498     11.8842E-03     57.0508E-03     27.8690E-03     5.25583E-03    -96.7525E-03     27.5239E-03    -96.4074E-03     5.25583E-03     10.5778E-03     329.085E-03    -163.695E-03    -165.388E-03    -163.603E-03     328.067E-03    -164.462E-03     44.6218E-03     61.7415E+06     47.9250E+06    -28.1182E+06    -27.7118E+06     47.5186E+06     61.7415E+06    -35.7619E+03         57.6018
             499     11.0337E-03     56.9998E-03     20.5950E-03     3.80403E-03    -89.1059E-03     19.6853E-03    -88.1961E-03     3.80403E-03     7.39131E-03     329.417E-03    -164.177E-03    -165.480E-03    -164.418E-03     328.645E-03    -164.468E-03     38.7410E-03     51.1458E+06     37.4807E+06    -46.1224E+06    -45.4556E+06     36.8138E+06     51.1458E+06     6.56627E+06         54.1967
             500     10.1890E-03     56.9558E-03     20.2718E-03     2.38573E-03    -87.7292E-03     19.6083E-03    -87.0657E-03     2.38573E-03    -132.041E-06     328.926E-03    -163.942E-03    -165.205E-03    -164.231E-03     328.363E-03    -164.353E-03     33.2669E-03     48.5107E+06     40.5652E+06    -48.7867E+06    -46.9825E+06     39.2778E+06     47.9939E+06     3.29761E+06         51.3526
             501     9.34067E-03     56.9119E-03     23.0418E-03     684.426E-06    -86.7301E-03     19.9263E-03    -83.6146E-03     684.426E-06     10.4617E-03     327.008E-03    -162.405E-03    -164.594E-03    -162.257E-03     326.632E-03    -164.366E-03     26.5923E-03     40.3490E+06     18.5177E+06    -53.7165E+06    -48.9476E+06     14.2657E+06     39.8322E+06    -3.53405E+06         49.0911
             502     8.48551E-03     56.8810E-03     10.5982E-03    -6.93422E-03    -66.6412E-03     703.990E-06    -63.3421E-03    -339.157E-06     14.8640E-03     327.019E-03    -162.394E-03    -164.543E-03    -162.165E-03     326.790E-03    -164.543E-03     21.1167E-03     28.2497E+06    -26.1840E+06    -66.2162E+06    -59.9297E+06    -32.4705E+06     28.2497E+06     921.083E+03         47.4470
             503     7.63736E-03     56.8483E-03     2.41300E-03    -8.23388E-03    -58.8717E-03    -7.60481E-03    -57.0539E-03    -33.9161E-06     16.3286E-03     328.193E-03    -163.533E-03    -164.539E-03    -163.364E-03     328.024E-03    -164.539E-03     17.9711E-03     15.1113E+06    -53.9780E+06    -76.0591E+06    -66.2128E+06    -63.8244E+06     15.1113E+06     5.06147E+06         46.4690
             504     6.78798E-03     56.8249E-03     12.0823E-03    -1.75407E-03    -76.5996E-03     8.06330E-03    -74.1855E-03    -149.159E-06     702.565E-06     327.481E-03    -162.944E-03    -164.670E-03    -162.851E-03     327.389E-03    -164.670E-03     13.2941E-03    -5.16935E+06    -71.8030E+06    -102.418E+06    -73.3844E+06    -100.837E+06    -5.16935E+06     1.24329E+06         46.0558
             505     5.93763E-03     56.8058E-03     20.0847E-03    -2.17366E-03    -84.8846E-03     19.1041E-03    -83.9040E-03    -2.17366E-03    -8.73852E-03     327.356E-03    -162.627E-03    -164.976E-03    -162.578E-03     327.307E-03    -164.976E-03     9.52009E-03    -25.5228E+06    -85.0787E+06    -137.766E+06    -85.7503E+06    -137.094E+06    -25.5228E+06    -749.993E+03         45.9133
             506     5.08694E-03     56.7886E-03     16.1928E-03    -5.14711E-03    -76.5001E-03     12.6336E-03    -72.9410E-03    -5.14711E-03     3.38120E-03     328.584E-03    -163.464E-03    -165.187E-03    -163.444E-03     328.564E-03    -165.187E-03     5.93347E-03    -46.2244E+06    -96.2649E+06    -168.216E+06    -96.7908E+06    -167.691E+06    -46.2244E+06    -2.13442E+06         45.8433
             507     4.23994E-03     56.7758E-03     8.41378E-03    -7.26834E-03    -65.0467E-03    -545.207E-06    -56.0877E-03    -7.26834E-03    -7.87639E-03     329.711E-03    -164.267E-03    -165.270E-03    -164.258E-03     329.703E-03    -165.270E-03     4.04490E-03    -66.3842E+06    -108.254E+06    -195.929E+06    -108.406E+06    -195.776E+06    -66.3842E+06    -2.59140E+06         45.7902
             508     3.39157E-03     56.7704E-03     10.4156E-03    -8.90254E-03    -63.8275E-03    -1.08136E-03    -52.3305E-03    -8.90254E-03     1.32734E-03     330.143E-03    -164.652E-03    -165.336E-03    -164.642E-03     330.134E-03    -165.336E-03     4.26278E-03    -82.5915E+06    -114.845E+06    -213.331E+06    -114.972E+06    -213.204E+06    -82.5915E+06     417.935E+03         45.7242
             509     2.54288E-03     56.7582E-03     22.1970E-03    -13.3167E-03    -70.6052E-03     7.20115E-03    -55.6094E-03    -13.3167E-03    -29.2005E-03     330.225E-03    -164.747E-03    -165.437E-03    -164.739E-03     330.218E-03    -165.437E-03     3.71744E-03    -100.094E+06    -119.768E+06    -232.569E+06    -119.858E+06    -232.479E+06    -100.094E+06     1.51304E+06         45.6478
             510     1.69382E-03     56.7560E-03     45.5011E-03    -23.0507E-03    -83.4061E-03     2.03987E-03    -39.9449E-03    -23.0507E-03     37.5101E-03     330.541E-03    -164.775E-03    -165.775E-03    -164.942E-03     330.534E-03    -165.602E-03     3.38741E-03    -113.957E+06    -125.206E+06    -250.985E+06    -124.525E+06    -250.912E+06    -114.711E+06     2.05573E+06         45.5831
             511     846.301E-06     56.7484E-03     68.7533E-03     2.51668E-03    -128.044E-03    -61.2626E-03     1.97242E-03     2.51668E-03    -17.4240E-03     331.624E-03    -164.970E-03    -166.659E-03    -165.867E-03     331.618E-03    -165.755E-03     3.11604E-03    -121.804E+06    -132.776E+06    -274.324E+06    -128.926E+06    -274.251E+06    -125.728E+06     1.48708E+06         45.5464
             512     14.4347E-03     55.8663E-03     39.4550E-03     10.4219E-03    -113.852E-03     39.3521E-03    -113.749E-03     10.4219E-03     4.33342E-03     329.632E-03    -163.498E-03    -166.662E-03    -163.775E-03     327.856E-03    -164.609E-03     58.2778E-03     131.487E+06     87.1481E+06    -8.49687E+06    -7.09881E+06     85.7501E+06     131.487E+06    -2.30800E+06         69.3192
             513     13.5848E-03     55.7829E-03     32.0243E-03     8.86750E-03    -104.542E-03     31.6867E-03    -104.205E-03     8.86750E-03    -3.96913E-03     328.398E-03    -163.256E-03    -165.360E-03    -162.163E-03     326.516E-03    -164.571E-03     60.2865E-03     104.891E+06     71.0207E+06    -14.9568E+06    -14.1028E+06     70.1667E+06     104.891E+06    -406.311E+03         65.7245
             514     12.7295E-03     55.7223E-03     34.8950E-03     7.26821E-03    -105.017E-03     34.5934E-03    -104.716E-03     7.26821E-03    -3.39039E-03     328.320E-03    -163.102E-03    -165.186E-03    -162.307E-03     326.973E-03    -164.633E-03     51.3028E-03     80.0350E+06     58.2059E+06    -23.1834E+06    -22.3925E+06     57.4151E+06     80.0350E+06     4.03066E+06         61.5349
             515     11.8785E-03     55.6567E-03     40.3983E-03     5.12701E-03    -108.156E-03     40.0911E-03    -107.849E-03     5.12701E-03     9.23664E-03     329.933E-03    -164.146E-03    -165.810E-03    -164.363E-03     329.030E-03    -164.690E-03     41.5228E-03     61.1982E+06     44.9654E+06    -38.2215E+06    -37.3238E+06     44.0677E+06     61.1982E+06     5.76880E+06         57.6011
             516     11.0328E-03     55.6095E-03     35.8794E-03     2.62784E-03    -103.538E-03     35.2574E-03    -102.916E-03     2.62784E-03     8.59132E-03     330.158E-03    -164.604E-03    -165.898E-03    -165.143E-03     329.506E-03    -164.707E-03     35.7765E-03     53.5126E+06     41.6098E+06    -44.9216E+06    -43.9693E+06     40.6575E+06     53.5126E+06    -1.09003E+06         54.2045
             517     10.1841E-03     55.5605E-03     26.3598E-03     450.033E-06    -93.6546E-03     22.4362E-03    -89.7310E-03     450.033E-06    -16.5777E-03     329.846E-03    -164.526E-03    -165.605E-03    -164.924E-03     329.268E-03    -164.629E-03     33.5737E-03     50.0769E+06     40.9158E+06     -44.839E+06    -43.1557E+06     39.2325E+06     50.0769E+06    -6.24071E+06         51.3637
             518     9.33560E-03     55.5270E-03     17.6624E-03    -1.01195E-03    -81.4832E-03     11.0249E-03    -74.8457E-03    -1.01195E-03     849.128E-06     329.331E-03    -163.849E-03    -165.457E-03    -164.414E-03     328.954E-03    -164.515E-03     26.9751E-03      38.478E+06     13.8306E+06    -55.4516E+06    -53.8695E+06     12.2484E+06      38.478E+06    -1.71061E+06         49.1049
             519     8.48906E-03     55.4939E-03     8.15724E-03    -6.74613E-03    -66.6508E-03    -610.841E-06    -63.0395E-03    -1.58931E-03     15.2337E-03     328.694E-03    -163.450E-03    -165.002E-03    -163.785E-03     328.438E-03    -164.411E-03     22.4259E-03     25.6937E+06    -27.4081E+06    -63.1507E+06    -62.1525E+06    -28.4063E+06     25.6937E+06     583.336E+03         47.4634
             520     7.63919E-03     55.4584E-03     4.48053E-03    -8.18320E-03    -61.9663E-03    -5.17219E-03    -59.0753E-03    -1.42148E-03    -5.80691E-03     328.061E-03    -163.377E-03    -164.348E-03    -163.215E-03     327.899E-03    -164.348E-03     17.4346E-03     12.8972E+06    -60.4553E+06    -73.0599E+06    -68.4001E+06    -65.1151E+06     12.8972E+06    -1.75751E+06         46.4858
             521     6.78964E-03     55.4379E-03     4.30670E-03    -3.37485E-03    -68.3711E-03    -2.24526E-03    -64.0293E-03    -1.16472E-03    -13.2541E-03     327.877E-03    -163.363E-03    -164.546E-03    -163.401E-03     327.787E-03    -164.418E-03     13.2455E-03    -5.12281E+06    -80.4539E+06    -101.506E+06    -80.7970E+06    -101.163E+06    -5.12281E+06     940.346E+03         46.0716
             522     5.94069E-03     55.4172E-03     6.47018E-03    -1.64854E-03    -73.9555E-03    -2.01364E-03    -66.0769E-03    -1.04331E-03     3.80257E-03     328.046E-03    -163.662E-03    -164.717E-03    -163.731E-03     327.987E-03    -164.590E-03     10.3395E-03    -24.0227E+06    -88.0073E+06    -135.435E+06    -88.3786E+06    -135.063E+06    -24.0227E+06     3.74683E+06         45.9185
             523     5.09307E-03     55.3995E-03     9.52851E-03    -1.01003E-03    -74.2553E-03    -329.800E-06    -64.3970E-03    -1.01003E-03     18.1411E-03     327.609E-03    -163.017E-03    -164.736E-03    -162.991E-03     327.583E-03    -164.736E-03     6.75915E-03    -44.5413E+06    -95.4171E+06    -165.520E+06    -95.7949E+06    -165.142E+06    -44.5413E+06     2.20984E+06         45.8263
             524     4.24076E-03     55.3894E-03     12.5671E-03    -1.75001E-03    -76.6769E-03     5.53810E-03    -69.6479E-03    -1.75001E-03    -17.6317E-03     328.317E-03    -163.322E-03    -164.863E-03    -163.307E-03     328.301E-03    -164.863E-03     5.24667E-03    -67.9416E+06    -105.966E+06    -194.207E+06    -106.201E+06    -193.971E+06    -67.9416E+06    -486.898E+03         45.7605
             525     3.39200E-03     55.3770E-03     18.2634E-03    -4.83054E-03    -78.8797E-03     14.3739E-03    -74.9902E-03    -4.83054E-03    -23.7005E-03     329.497E-03    -164.429E-03    -164.965E-03    -164.420E-03     329.487E-03    -164.964E-03     4.23436E-03    -87.1452E+06    -114.308E+06    -217.685E+06    -114.611E+06    -217.382E+06    -87.1452E+06    -1.48988E+06         45.6983
             526     2.54401E-03     55.3714E-03     23.0439E-03    -11.2178E-03    -72.0929E-03     13.0087E-03    -62.0577E-03    -11.2178E-03    -40.9232E-03     329.450E-03    -164.440E-03    -165.003E-03    -164.436E-03     329.445E-03    -165.002E-03     2.67964E-03    -102.676E+06    -118.674E+06    -234.224E+06    -118.942E+06    -233.956E+06    -102.676E+06    -446.256E+03         45.6267
             527     1.69556E-03     55.3631E-03     36.7240E-03    -19.2378E-03    -79.5194E-03    -3.03317E-03    -39.7622E-03    -19.2378E-03     31.9392E-03     329.573E-03    -164.364E-03    -165.219E-03    -164.376E-03     329.571E-03    -165.205E-03     1.87047E-03    -115.641E+06    -124.725E+06    -250.809E+06    -123.658E+06    -250.713E+06    -116.804E+06     290.988E+03         45.5609
             528     846.187E-06     55.3589E-03     60.0101E-03    -18.3028E-03    -103.039E-03    -51.0655E-03    -15.0181E-03     4.75214E-03     29.5390E-03     330.958E-03    -164.986E-03    -165.965E-03    -164.999E-03     330.956E-03    -165.951E-03     1.68648E-03    -119.202E+06    -129.681E+06    -271.221E+06    -125.422E+06    -271.148E+06    -123.534E+06    -46.9943E+03         45.5240
             529     14.4279E-03     54.4811E-03     33.1816E-03     10.9059E-03    -108.691E-03     32.8691E-03    -108.379E-03     10.9059E-03     5.20632E-03     327.028E-03    -162.224E-03    -164.789E-03    -160.244E-03     325.049E-03    -164.789E-03     61.7709E-03     128.803E+06     86.7543E+06    -3.08127E+06    -2.14550E+06     85.8185E+06     128.803E+06     1.93698E+06         69.3210
             530     13.5721E-03     54.3969E-03     34.9512E-03     9.52760E-03    -108.901E-03     34.5662E-03    -108.516E-03     9.52760E-03    -5.47600E-03     329.652E-03    -163.833E-03    -165.679E-03    -162.842E-03     327.847E-03    -164.866E-03     58.8640E-03     98.5298E+06     65.3468E+06    -23.2582E+06    -22.0084E+06     64.0970E+06     98.5298E+06    -3.71555E+06         65.7189
             531     12.7261E-03     54.3317E-03     36.1641E-03     7.84591E-03    -107.754E-03     35.8709E-03    -107.461E-03     7.84591E-03    -2.45927E-03     331.455E-03    -164.509E-03    -166.853E-03    -165.316E-03     330.285E-03    -164.876E-03     47.9209E-03     81.1721E+06     50.3973E+06    -37.9631E+06    -36.6882E+06     49.1224E+06     81.1721E+06     594.234E+03         61.5405
             532     11.8828E-03     54.2624E-03     33.3844E-03     5.97252E-03    -103.338E-03     33.3226E-03    -103.276E-03     5.97252E-03     2.38774E-03     330.477E-03    -164.394E-03    -166.143E-03    -164.966E-03     329.706E-03    -164.800E-03     38.6056E-03      72.041E+06     49.0844E+06    -36.5975E+06    -35.6993E+06     48.1863E+06      72.041E+06     2.20258E+06         57.6174
             533     11.0326E-03     54.2212E-03     29.1195E-03     4.11530E-03    -98.0109E-03     29.0066E-03    -97.8980E-03     4.11530E-03    -2.25191E-03     329.229E-03    -164.279E-03    -165.195E-03    -164.089E-03     328.632E-03    -164.787E-03     34.2044E-03     62.7721E+06     52.5451E+06    -33.5036E+06    -32.4396E+06     51.4811E+06     62.7721E+06    -3.30830E+06         54.2205
             534     10.1822E-03     54.1714E-03     20.7439E-03     2.70690E-03    -89.3517E-03     16.5310E-03    -85.1388E-03     2.70690E-03    -26.6478E-03     329.500E-03    -164.594E-03    -165.138E-03    -164.451E-03     329.004E-03    -164.785E-03     30.9716E-03     47.2142E+06     39.9368E+06    -44.3755E+06    -43.3686E+06     38.9300E+06     47.2142E+06    -1.01190E+06         51.3771
             535     9.33484E-03     54.1334E-03     13.7363E-03     1.92873E-03    -82.7421E-03     9.39903E-03    -78.4048E-03     1.92873E-03    -21.1493E-03     330.221E-03    -164.565E-03    -165.653E-03    -165.242E-03     329.899E-03    -164.654E-03     25.2287E-03     35.5728E+06     11.6888E+06    -53.4416E+06    -52.7564E+06     11.0035E+06     35.5728E+06    -2.53604E+06         49.1186
             536     8.48859E-03     54.1018E-03     16.4791E-03     959.482E-06    -85.1060E-03     15.7788E-03    -84.4057E-03     959.482E-06    -233.830E-06     329.737E-03    -164.268E-03    -165.302E-03    -164.885E-03     329.478E-03    -164.426E-03     22.6042E-03     24.7902E+06    -28.6910E+06    -63.3824E+06    -62.5800E+06    -29.4934E+06     24.7902E+06    -4.60357E+06         47.4791
             537     7.64043E-03     54.0738E-03     17.1677E-03    -616.704E-06    -82.8972E-03     15.6707E-03    -81.4002E-03    -616.704E-06    -11.4566E-03     328.371E-03    -163.733E-03    -164.343E-03    -163.555E-03     328.180E-03    -164.330E-03     19.1361E-03     10.6392E+06    -60.4639E+06    -77.7662E+06    -72.5629E+06    -65.6672E+06     10.6392E+06     1.97913E+06         46.5039
             538     6.78991E-03     54.0508E-03     5.54042E-03    -3.42754E-03    -67.9912E-03     700.169E-06    -64.9427E-03    -1.63578E-03    -19.1326E-03     328.429E-03    -163.857E-03    -164.457E-03    -163.868E-03     328.300E-03    -164.316E-03     15.8066E-03    -8.21395E+06    -78.2101E+06    -105.013E+06    -81.3479E+06    -101.875E+06    -8.21395E+06     1.46372E+06         46.0906
             539     5.94230E-03     54.0259E-03     1.62202E-03    -3.08253E-03    -65.0497E-03    -8.07508E-03    -57.1443E-03    -1.29077E-03     5.54657E-03     328.059E-03    -163.827E-03    -164.526E-03    -163.876E-03     327.981E-03    -164.398E-03     12.1219E-03    -26.0834E+06    -88.7942E+06    -136.906E+06    -89.4798E+06    -136.221E+06    -26.0834E+06     250.323E+03         45.9276
             540     5.09163E-03     54.0154E-03     6.98542E-03    -695.008E-06    -72.6262E-03    -2.25647E-03    -63.3843E-03    -695.008E-06     39.3015E-03     327.810E-03    -163.296E-03    -164.741E-03    -163.516E-03     327.771E-03    -164.481E-03     8.83266E-03    -44.1908E+06    -97.2248E+06    -166.083E+06    -97.4837E+06    -165.824E+06    -44.1908E+06     2.96107E+06         45.8166
             541     4.24354E-03     54.0009E-03     6.59032E-03    -1.48800E-03    -70.9591E-03     2.48150E-03    -67.3885E-03    -949.776E-06     16.1511E-03     328.385E-03    -163.657E-03    -164.738E-03    -163.894E-03     328.362E-03    -164.479E-03     6.41273E-03    -65.2512E+06    -103.707E+06    -191.661E+06    -103.857E+06    -191.512E+06    -65.2512E+06     806.385E+03         45.7364
             542     3.39445E-03     53.9882E-03     7.42949E-03    -2.85997E-03    -68.1150E-03     2.99353E-03    -64.5899E-03    -1.94906E-03     8.92691E-03     328.550E-03    -164.032E-03    -164.466E-03    -164.025E-03     328.542E-03    -164.465E-03     3.90006E-03    -85.1338E+06    -109.660E+06    -215.467E+06    -109.933E+06    -215.194E+06    -85.1338E+06    -1.34016E+06         45.6687
             543     2.54595E-03     53.9812E-03     6.49491E-03    -5.82541E-03    -63.1853E-03    -2.15988E-03    -57.7029E-03    -2.65301E-03     3.10368E-03     328.758E-03    -164.088E-03    -164.615E-03    -164.290E-03     328.753E-03    -164.408E-03     2.97094E-03    -101.436E+06    -118.100E+06    -236.942E+06    -118.410E+06    -236.632E+06    -101.436E+06    -1.47500E+06         45.6013
             544     1.69729E-03     53.9751E-03     18.6942E-03    -4.62453E-03    -80.3084E-03    -5.33844E-03    -59.0755E-03    -1.82481E-03     48.8326E-03     328.960E-03    -164.144E-03    -164.809E-03    -164.729E-03     328.956E-03    -164.220E-03     2.61788E-03    -115.211E+06    -124.923E+06    -251.881E+06    -123.926E+06    -251.716E+06    -116.373E+06    -438.940E+03         45.5360
             545     850.166E-06     53.9674E-03     41.1590E-03    -5.24814E-03    -101.826E-03    -25.0169E-03    -64.0798E-03     23.1818E-03     104.579E-03     328.325E-03    -163.538E-03    -164.785E-03    -164.602E-03     328.322E-03    -163.717E-03     2.25689E-03    -120.380E+06    -129.664E+06    -270.832E+06    -125.205E+06    -270.747E+06    -124.923E+06    -927.806E+03         45.4900
             546     14.4241E-03     53.0912E-03     41.6731E-03     12.1023E-03    -119.273E-03     40.7241E-03    -118.324E-03     12.1023E-03     6.48459E-03     329.161E-03    -163.637E-03    -165.615E-03    -162.302E-03     327.303E-03    -165.091E-03     60.4422E-03     133.381E+06     89.0399E+06    -5.37483E+06    -4.80252E+06     88.4676E+06     133.381E+06     6.02069E+06         69.3477
             547     13.5779E-03     53.0100E-03     40.1723E-03     10.4019E-03    -116.846E-03     39.9129E-03    -116.586E-03     10.4019E-03    -6.30005E-03     331.373E-03    -164.651E-03    -166.832E-03    -164.774E-03     329.653E-03    -164.989E-03     58.0866E-03     107.017E+06     74.2263E+06    -18.8833E+06    -16.8257E+06     72.1687E+06     107.017E+06     6.37251E+06         65.7642
             548     12.7316E-03     52.9273E-03     34.3953E-03     8.68675E-03    -108.464E-03     34.1426E-03    -108.212E-03     8.68675E-03     8.07131E-03     331.653E-03    -164.922E-03    -166.931E-03    -165.683E-03     330.404E-03    -164.922E-03     49.0129E-03     78.2392E+06     54.8588E+06    -29.2400E+06    -25.8114E+06     51.4302E+06     78.2392E+06    -4.46100E+06         61.5788
             549     11.8806E-03     52.8792E-03     25.4782E-03     7.26379E-03    -97.5034E-03     24.7419E-03    -96.7670E-03     7.26379E-03     12.7481E-03     330.395E-03    -164.491E-03    -165.962E-03    -164.734E-03     329.572E-03    -164.896E-03     40.2934E-03     69.2978E+06     51.5992E+06    -27.5939E+06    -25.4697E+06     49.4750E+06     69.2978E+06    -9.12563E+06         57.6390
             550     11.0308E-03     52.8271E-03     19.0352E-03     6.29574E-03    -91.7613E-03     16.3634E-03    -89.0895E-03     6.29574E-03     23.7664E-03     330.198E-03    -164.429E-03    -165.849E-03    -164.790E-03     329.545E-03    -164.835E-03     35.8163E-03     60.7018E+06     48.4488E+06    -35.3907E+06    -34.8857E+06     47.9438E+06     60.7018E+06    -2.17180E+06         54.2360
             551     10.1850E-03     52.7821E-03     17.4892E-03     5.56583E-03    -90.5568E-03     14.6708E-03    -87.7384E-03     5.56583E-03     13.2788E-03     329.880E-03    -164.680E-03    -165.402E-03    -164.838E-03     329.405E-03    -164.768E-03     30.5389E-03     49.2716E+06     42.2625E+06    -45.1534E+06    -44.7825E+06     41.8916E+06     49.2716E+06     2.67934E+06         51.3919
             552     9.33490E-03     52.7421E-03     17.7377E-03     4.69479E-03    -91.5162E-03     15.9797E-03    -89.7583E-03     4.69479E-03     7.07159E-03     329.072E-03    -164.159E-03    -164.990E-03    -164.141E-03     328.733E-03    -164.670E-03     25.7243E-03     34.3116E+06     14.6314E+06    -54.6378E+06    -53.9145E+06     13.9082E+06     34.3116E+06     292.276E+03         49.1323
             553     8.48632E-03     52.7104E-03     18.1764E-03     1.84476E-03    -90.1229E-03     15.2859E-03    -89.0039E-03     3.61629E-03     12.7827E-03     329.252E-03    -164.115E-03    -165.080E-03    -164.352E-03     329.006E-03    -164.597E-03     21.9634E-03     17.9801E+06    -34.6575E+06    -67.6324E+06    -65.7667E+06    -36.5231E+06     17.9801E+06    -3.44787E+06         47.4919
             554     7.63723E-03     52.6874E-03     17.3393E-03     596.540E-06    -85.7274E-03     15.1428E-03    -85.3025E-03     2.36807E-03    -2.39117E-03     329.629E-03    -164.399E-03    -165.006E-03    -164.758E-03     329.442E-03    -164.459E-03     19.1753E-03     7.84740E+06    -62.9149E+06    -83.2458E+06    -73.5033E+06    -72.6575E+06     7.84740E+06    -1.35681E+06         46.5179
             555     6.79039E-03     52.6582E-03     13.0235E-03    -72.7095E-06    -79.7223E-03     10.9171E-03    -78.8024E-03     1.11382E-03    -13.5104E-03     328.923E-03    -164.001E-03    -164.701E-03    -164.222E-03     328.795E-03    -164.352E-03     15.6220E-03    -6.25924E+06    -73.3264E+06    -106.769E+06    -78.5577E+06    -101.538E+06    -6.25924E+06     661.371E+03         46.1036
             556     5.94047E-03     52.6412E-03     9.31442E-03    -1.16843E-03    -73.6804E-03     7.56339E-03    -73.1159E-03     18.0987E-06    -10.9647E-03     328.074E-03    -163.700E-03    -164.583E-03    -163.816E-03     328.002E-03    -164.396E-03     11.7021E-03    -24.8817E+06    -85.9742E+06    -135.680E+06    -87.3193E+06    -134.334E+06    -24.8817E+06    -359.411E+03         45.9359
             557     5.09208E-03     52.6254E-03     10.5733E-03    -1.41057E-03    -74.1420E-03     9.66034E-03    -73.2291E-03    -1.41057E-03     6.87767E-03     328.628E-03    -164.004E-03    -164.817E-03    -164.430E-03     328.585E-03    -164.349E-03     9.13781E-03    -44.3928E+06    -96.0035E+06    -163.807E+06    -96.3182E+06    -163.492E+06    -44.3928E+06    -406.433E+03         45.8201
             558     4.24500E-03     52.6099E-03     4.62152E-03    -3.45681E-03    -67.5900E-03     3.14170E-03    -66.6484E-03    -2.91859E-03     6.91370E-03     328.656E-03    -164.142E-03    -164.497E-03    -164.395E-03     328.628E-03    -164.216E-03     7.16063E-03    -64.6656E+06    -105.790E+06    -191.408E+06    -105.831E+06    -191.367E+06    -64.6656E+06    -905.087E+03         45.7304
             559     3.39668E-03     52.6034E-03    -2.02061E-03    -9.51251E-03    -53.7150E-03    -12.8807E-03    -50.1964E-03    -2.17102E-03     11.2040E-03     328.197E-03    -163.792E-03    -164.341E-03    -164.005E-03     328.180E-03    -164.111E-03     5.51489E-03    -83.3352E+06    -114.257E+06    -215.352E+06    -114.348E+06    -215.261E+06    -83.3352E+06     184.870E+03         45.6489
             560     2.54612E-03     52.5927E-03     2.48021E-03    -7.36285E-03    -62.0616E-03    -16.0919E-03    -53.0925E-03     2.24012E-03    -8.82352E-03     328.197E-03    -163.662E-03    -164.444E-03    -164.191E-03     328.189E-03    -163.906E-03     3.85028E-03    -102.120E+06    -120.051E+06    -238.194E+06    -120.167E+06    -238.078E+06    -102.120E+06    -35.9348E+03         45.5730
             561     1.69852E-03     52.5857E-03     16.7258E-03     4.00679E-03    -90.4445E-03     855.081E-06    -77.3735E-03     6.80650E-03     18.0171E-03     327.801E-03    -163.485E-03    -164.303E-03    -164.156E-03     327.796E-03    -163.627E-03     3.18147E-03    -116.086E+06    -124.641E+06    -253.189E+06    -124.775E+06    -253.054E+06    -116.086E+06    -914.867E+03         45.5029
             562     849.556E-06     52.5809E-03     49.0899E-03     11.2193E-03    -128.898E-03    -26.4108E-06    -85.1569E-03     16.5942E-03     139.310E-03     327.113E-03    -162.746E-03    -164.360E-03    -163.794E-03     327.107E-03    -163.306E-03     3.43453E-03    -121.823E+06    -131.020E+06    -271.672E+06    -127.751E+06    -271.560E+06    -125.204E+06     795.144E+03         45.4498
             563     14.4247E-03     51.7001E-03     46.5314E-03     14.2288E-03    -127.953E-03     45.4216E-03    -126.844E-03     14.2288E-03    -3.96514E-03     331.215E-03    -165.081E-03    -166.402E-03    -164.713E-03     329.526E-03    -165.081E-03     57.7618E-03     131.741E+06     83.9809E+06    -14.5768E+06    -14.1265E+06     83.5306E+06     131.741E+06    -24.8026E+03         69.3752
             564     13.5748E-03     51.6160E-03     40.7625E-03     12.6596E-03    -120.387E-03     39.5354E-03    -119.160E-03     12.6596E-03    -21.2752E-03     330.893E-03    -164.691E-03    -166.319E-03    -164.328E-03     329.257E-03    -165.046E-03     56.5749E-03     122.858E+06     83.0371E+06    -6.37514E+06    -4.77145E+06     81.4334E+06     122.858E+06     6.21073E+06         65.8032
             565     12.7239E-03     51.5379E-03     36.9583E-03     11.1818E-03    -114.072E-03     36.0616E-03    -113.176E-03     11.1818E-03    -3.05139E-03     329.610E-03    -164.310E-03    -165.531E-03    -163.731E-03     328.446E-03    -164.947E-03     46.5204E-03     88.9497E+06     67.2409E+06    -11.1793E+06    -7.81448E+06     63.8761E+06     88.9497E+06     3.26311E+06         61.6047
             566     11.8767E-03     51.4876E-03     32.0473E-03     9.74793E-03    -107.413E-03     31.1665E-03    -106.532E-03     9.74793E-03     7.71911E-03     329.781E-03    -164.574E-03    -165.313E-03    -164.288E-03     329.038E-03    -164.856E-03     38.0583E-03     59.3987E+06     49.4782E+06    -29.0742E+06    -26.7074E+06     47.1114E+06     59.3987E+06    -3.95011E+06         57.6492
             567     11.0314E-03     51.4338E-03     26.9646E-03     8.50872E-03    -102.663E-03     24.1475E-03    -99.8463E-03     8.50872E-03     15.7396E-03     330.412E-03    -164.796E-03    -165.682E-03    -164.908E-03     329.736E-03    -164.894E-03     36.5074E-03     52.3709E+06     42.2561E+06    -40.8018E+06    -40.5756E+06     42.0299E+06     52.3709E+06    -1.78609E+06         54.2421
             568     10.1822E-03     51.3913E-03     28.2242E-03     7.33988E-03    -104.111E-03     23.2480E-03    -99.1351E-03     7.33988E-03    -3.19322E-03     329.710E-03    -164.658E-03    -165.251E-03    -164.529E-03     329.177E-03    -164.847E-03     32.3992E-03     45.2635E+06     35.7622E+06    -51.8348E+06    -51.5675E+06     35.4950E+06     45.2635E+06    -292.763E+03         51.3976
             569     9.33523E-03     51.3525E-03     25.0390E-03     6.07401E-03    -100.275E-03     20.8343E-03    -96.0703E-03     6.07401E-03     361.201E-06     329.001E-03    -164.325E-03    -164.905E-03    -163.991E-03     328.600E-03    -164.837E-03     27.9716E-03     35.7164E+06     15.4268E+06    -59.0348E+06    -58.5954E+06     14.9874E+06     35.7164E+06     2.79825E+06         49.1392
             570     8.48425E-03     51.3226E-03     12.2978E-03     2.90164E-03    -85.7090E-03     8.10359E-03    -83.9300E-03     5.31691E-03     22.4616E-03     329.718E-03    -164.367E-03    -165.306E-03    -164.603E-03     329.437E-03    -164.788E-03     23.4225E-03     20.6709E+06    -28.0968E+06    -64.6786E+06    -63.3035E+06    -29.4720E+06     20.6709E+06     1.04686E+06         47.5015
             571     7.63832E-03     51.2910E-03     8.38650E-03     1.91381E-03    -79.6374E-03     3.94478E-03    -78.5795E-03     5.29767E-03     4.66607E-03     330.393E-03    -164.576E-03    -165.447E-03    -165.248E-03     330.194E-03    -164.576E-03     19.6936E-03     2.35065E+06    -67.5857E+06    -86.7762E+06    -75.5154E+06    -78.8464E+06     2.35065E+06    -5.42451E+06         46.5293
             572     6.79055E-03     51.2716E-03     15.2895E-03     3.92632E-03    -87.3530E-03     13.2741E-03    -86.3063E-03     4.89491E-03    -7.67940E-03     329.862E-03    -164.144E-03    -165.401E-03    -164.938E-03     329.731E-03    -164.475E-03     15.8718E-03    -8.02188E+06    -79.5447E+06    -108.839E+06    -82.3506E+06    -106.033E+06    -8.02188E+06    -3.02963E+06         46.1165
             573     5.94110E-03     51.2524E-03     13.4086E-03     3.80315E-03    -86.0541E-03     12.4665E-03    -85.1120E-03     3.80315E-03    -1.68385E-03     329.347E-03    -164.064E-03    -165.364E-03    -164.958E-03     329.273E-03    -164.395E-03     11.9320E-03    -24.3566E+06    -85.8933E+06    -134.982E+06    -86.8820E+06    -133.993E+06    -24.3566E+06    -411.872E+03         45.9529
             574     5.09385E-03     51.2341E-03     9.27040E-03     296.591E-06    -78.5033E-03     3.93586E-03    -76.0506E-03     3.17841E-03    -6.88108E-03     328.593E-03    -164.046E-03    -164.688E-03    -164.457E-03     328.554E-03    -164.238E-03     8.54482E-03    -42.9630E+06    -94.2545E+06    -163.473E+06    -94.4587E+06    -163.269E+06    -42.9630E+06    -1.99758E+06         45.8355
             575     4.24394E-03     51.2249E-03     9.22289E-03     177.288E-06    -78.6625E-03     4.31969E-03    -76.6411E-03     3.05911E-03    -7.62942E-03     328.265E-03    -163.887E-03    -164.303E-03    -164.036E-03     328.241E-03    -164.130E-03     6.80079E-03    -63.2478E+06    -106.221E+06    -188.945E+06    -106.259E+06    -188.907E+06    -63.2478E+06    -207.108E+03         45.7364
             576     3.39474E-03     51.2130E-03     14.6127E-03    -4.09515E-03    -80.6723E-03     7.65931E-03    -80.1495E-03     2.33542E-03     10.9103E-03     328.397E-03    -163.891E-03    -164.459E-03    -164.392E-03     328.380E-03    -163.942E-03     5.63789E-03    -86.1295E+06    -117.652E+06    -217.525E+06    -117.740E+06    -217.437E+06    -86.1295E+06    -1.16324E+06         45.6449
             577     2.54910E-03     51.2052E-03     16.1849E-03    -5.04467E-03    -84.0025E-03     3.21755E-03    -77.4657E-03     1.38590E-03    -5.36900E-03     327.741E-03    -163.612E-03    -164.120E-03    -164.068E-03     327.729E-03    -163.652E-03     4.42208E-03    -103.301E+06    -123.042E+06    -237.411E+06    -123.126E+06    -237.327E+06    -103.301E+06    -1.33470E+06         45.5576
             578     1.69890E-03     51.2001E-03     17.0257E-03     242.375E-06    -90.9325E-03     3.44578E-03    -77.3526E-03     242.375E-06     23.5604E-03     326.950E-03    -163.321E-03    -163.627E-03    -163.416E-03     326.943E-03    -163.524E-03     3.31841E-03    -118.610E+06    -127.898E+06    -253.328E+06    -127.946E+06    -253.280E+06    -118.610E+06     64.5086E+03         45.4811
             579     848.338E-06     51.1962E-03     102.946E-03    -28.5611E-03    -146.646E-03     27.1063E-03    -70.8066E-03    -28.5611E-03     217.567E-03     327.207E-03    -163.004E-03    -164.196E-03    -162.998E-03     327.201E-03    -164.196E-03     3.27788E-03    -127.879E+06    -135.405E+06    -273.451E+06    -133.154E+06    -273.323E+06    -130.258E+06    -440.173E+03         45.4305
             580     14.4289E-03     50.3068E-03     41.7907E-03     17.3101E-03    -127.788E-03     40.7226E-03    -126.720E-03     17.3101E-03     5.46183E-03     330.810E-03    -164.883E-03    -165.992E-03    -164.355E-03     329.174E-03    -164.883E-03     56.6868E-03     132.123E+06     83.3231E+06    -8.41844E+06    -8.11736E+06     83.0221E+06     132.123E+06    -4.30517E+06         69.3686
             581     13.5819E-03     50.2278E-03     38.9406E-03     16.1387E-03    -121.813E-03     37.6610E-03    -120.534E-03     16.1387E-03    -9.10758E-03     330.182E-03    -164.593E-03    -165.606E-03    -163.601E-03     328.532E-03    -164.948E-03     56.6911E-03     113.366E+06     71.8768E+06    -14.2933E+06    -13.7031E+06     71.2866E+06     113.366E+06    -4.69806E+06         65.7932
             582     12.7322E-03     50.1517E-03     34.3225E-03     15.0622E-03    -117.119E-03     32.7451E-03    -115.542E-03     15.0622E-03     4.14455E-03     328.900E-03    -163.894E-03    -165.295E-03    -163.175E-03     327.798E-03    -164.911E-03     45.4613E-03     93.7559E+06     64.6015E+06    -19.3433E+06    -18.3905E+06     63.6486E+06     93.7559E+06     4.02005E+06         61.5960
             583     11.8808E-03     50.0957E-03     32.4553E-03     14.0308E-03    -113.049E-03     31.4134E-03    -112.007E-03     14.0308E-03     8.59416E-03     328.268E-03    -163.709E-03    -164.818E-03    -163.016E-03     327.571E-03    -164.815E-03     36.7716E-03     66.9801E+06     52.3344E+06    -31.0708E+06    -29.6969E+06     50.9605E+06     66.9801E+06     9.37294E+06         57.6438
             584     11.0288E-03     50.0459E-03     31.0144E-03     12.9182E-03    -110.920E-03     30.5472E-03    -110.453E-03     12.9182E-03     1.75580E-03     328.818E-03    -163.947E-03    -164.985E-03    -163.326E-03     328.193E-03    -164.982E-03     35.0076E-03     48.7577E+06     40.8469E+06    -43.2332E+06    -42.4404E+06     40.0542E+06     48.7577E+06     5.82927E+06         54.2375
             585     10.1792E-03     49.9989E-03     28.9272E-03     11.8649E-03    -108.871E-03     25.4253E-03    -105.369E-03     11.8649E-03    -24.9187E-03     328.892E-03    -164.004E-03    -165.038E-03    -163.515E-03     328.404E-03    -165.038E-03     30.7541E-03     43.6904E+06     36.8697E+06    -50.3403E+06    -50.1600E+06     36.6894E+06     43.6904E+06     1.07513E+06         51.3943
             586     9.32864E-03     49.9646E-03     26.7735E-03     10.9324E-03    -104.295E-03     23.1169E-03    -100.639E-03     10.9324E-03    -25.1407E-03     329.459E-03    -164.515E-03    -165.100E-03    -164.177E-03     329.089E-03    -165.068E-03     26.8732E-03     36.0463E+06     15.5575E+06    -58.3275E+06    -57.8713E+06     15.1014E+06     36.0463E+06    -508.228E+03         49.1398
             587     8.48330E-03     49.9277E-03     25.9777E-03     9.17778E-03    -103.432E-03     24.4017E-03    -102.500E-03     9.82152E-03     2.85830E-03     330.217E-03    -164.854E-03    -165.296E-03    -164.893E-03     329.922E-03    -164.962E-03     24.0577E-03     22.7518E+06    -27.6088E+06    -65.3121E+06    -64.9249E+06    -27.9961E+06     22.7518E+06    -155.438E+03         47.5078
             588     7.63433E-03     49.9022E-03     24.2618E-03     6.88369E-03    -100.274E-03     21.4395E-03    -99.0640E-03     8.49602E-03    -2.09570E-03     330.888E-03    -164.765E-03    -165.733E-03    -165.531E-03     330.687E-03    -164.765E-03     19.7341E-03     7.09282E+06    -62.1382E+06    -79.9473E+06    -70.8589E+06    -71.2266E+06     7.09282E+06    -2.54779E+06         46.5435
             589     6.78563E-03     49.8792E-03     16.8929E-03     3.16230E-03    -88.4100E-03     11.8285E-03    -87.7567E-03     7.57341E-03    -2.57955E-03     331.190E-03    -164.639E-03    -166.235E-03    -166.112E-03     331.066E-03    -164.639E-03     15.3507E-03    -8.13916E+06    -78.5629E+06    -107.678E+06    -79.4828E+06    -106.758E+06    -8.13916E+06    -4.18828E+06         46.1382
             590     5.94198E-03     49.8596E-03     10.2908E-03     3.19767E-03    -83.3036E-03     4.85577E-03    -82.2056E-03     7.53472E-03     13.7310E-03     330.071E-03    -164.440E-03    -165.648E-03    -165.532E-03     329.992E-03    -164.478E-03     12.2584E-03    -26.0833E+06    -89.7341E+06    -136.777E+06    -90.1022E+06    -136.409E+06    -26.0833E+06    -2.55510E+06         45.9748
             591     5.09387E-03     49.8477E-03     8.51577E-03     4.56556E-03    -85.3504E-03     1.35622E-03    -81.9672E-03     8.34192E-03     8.69207E-03     328.805E-03    -164.064E-03    -164.862E-03    -164.584E-03     328.757E-03    -164.295E-03     9.48500E-03    -47.4993E+06    -101.128E+06    -167.208E+06    -101.270E+06    -167.066E+06    -47.4993E+06    -1.12354E+06         45.8538
             592     4.24508E-03     49.8364E-03     11.8850E-03     3.00987E-03    -87.6399E-03     2.75829E-03    -85.1459E-03     9.64260E-03     1.05389E-03     328.649E-03    -163.946E-03    -164.629E-03    -164.406E-03     328.619E-03    -164.138E-03     7.50355E-03    -66.6873E+06    -108.235E+06    -193.395E+06    -108.298E+06    -193.333E+06    -66.6873E+06    -691.331E+03         45.7493
             593     3.39785E-03     49.8241E-03     21.7451E-03     5.63052E-03    -99.7163E-03     15.6116E-03    -97.5705E-03     9.61823E-03    -2.84619E-03     328.243E-03    -163.913E-03    -164.261E-03    -164.194E-03     328.225E-03    -163.961E-03     5.81148E-03    -84.1124E+06    -112.148E+06    -215.298E+06    -112.278E+06    -215.168E+06    -84.1124E+06    -907.118E+03         45.6494
             594     2.54621E-03     49.8194E-03     27.7550E-03     6.37407E-03    -107.060E-03     20.4793E-03    -100.021E-03     6.61088E-03    -26.6006E-03     327.601E-03    -163.644E-03    -163.966E-03    -163.866E-03     327.590E-03    -163.733E-03     4.24338E-03    -103.314E+06    -121.259E+06    -238.652E+06    -121.377E+06    -238.534E+06    -103.314E+06    -1.27649E+06         45.5603
             595     1.69791E-03     49.8127E-03     28.1553E-03     2.51019E-03    -104.834E-03     9.97800E-03    -86.6566E-03     2.51019E-03    -27.4143E-03     327.378E-03    -163.524E-03    -163.862E-03    -163.793E-03     327.371E-03    -163.586E-03     3.17420E-03    -117.815E+06    -128.554E+06    -254.806E+06    -128.601E+06    -254.758E+06    -117.815E+06    -751.810E+03         45.4878
             596     849.819E-06     49.8102E-03     156.567E-03    -61.6393E-03    -167.192E-03     63.1435E-03    -73.7684E-03    -61.6393E-03     223.661E-03     327.264E-03    -162.933E-03    -164.339E-03    -163.701E-03     327.259E-03    -163.565E-03     3.04937E-03    -125.306E+06    -131.516E+06    -273.308E+06    -129.247E+06    -273.197E+06    -127.685E+06    -347.385E+03         45.4392
             597     14.4296E-03     48.9237E-03     83.6231E-03    -13.3576E-03    -134.569E-03     39.5911E-03    -124.392E-03     20.4972E-03     6.67933E-03     329.951E-03    -163.978E-03    -166.035E-03    -163.072E-03     327.950E-03    -164.938E-03     61.8967E-03     134.189E+06     86.0798E+06    -2.88848E+06    -2.36127E+06     85.5525E+06     134.189E+06    -610.128E+03         69.3171
             598     13.5755E-03     48.8337E-03     81.5170E-03    -14.6369E-03    -126.023E-03     44.9749E-03    -123.441E-03     19.3225E-03     6.14423E-03     331.334E-03    -164.977E-03    -166.513E-03    -164.488E-03     329.309E-03    -164.977E-03     62.1831E-03     105.071E+06     69.2967E+06    -21.9729E+06    -20.5477E+06     67.8715E+06     105.071E+06    -5.00615E+06         65.7315
             599     12.7285E-03     48.7619E-03     54.1540E-03    -15.2240E-03    -118.673E-03     17.0235E-03    -115.502E-03     18.7354E-03     18.5940E-03     329.475E-03    -163.958E-03    -165.715E-03    -163.475E-03     328.272E-03    -164.995E-03     48.2190E-03     83.1353E+06     50.8775E+06    -34.7965E+06    -33.4775E+06     49.5585E+06     83.1353E+06    -3.92202E+06         61.5500
             600     11.8789E-03     48.7080E-03     53.6046E-03     2.07738E-03    -112.864E-03     36.2004E-03    -111.674E-03     18.2918E-03     19.2482E-03     328.151E-03    -163.276E-03    -165.027E-03    -162.383E-03     327.257E-03    -165.027E-03     41.7232E-03     74.4984E+06     48.4595E+06    -33.4364E+06    -32.3989E+06     47.4220E+06     74.4984E+06     7.05617E+06         57.6181
             601     11.0305E-03     48.6569E-03     34.3509E-03     1.58922E-03    -112.842E-03     17.5579E-03    -112.263E-03     17.8036E-03     13.4772E-03     328.850E-03    -163.851E-03    -165.188E-03    -163.129E-03     328.129E-03    -165.188E-03     37.4720E-03     63.2394E+06     51.2688E+06    -34.6388E+06    -32.9905E+06     49.6205E+06     63.2394E+06     9.77615E+06         54.2227
             602     10.1796E-03     48.6109E-03     33.1198E-03     17.3291E-03    -114.044E-03     32.3603E-03    -113.285E-03     17.3291E-03    -4.45834E-03     329.109E-03    -164.091E-03    -165.234E-03    -163.560E-03     328.578E-03    -165.234E-03     31.9046E-03     50.8869E+06     46.8022E+06    -39.7635E+06    -38.8051E+06     45.8438E+06     50.8869E+06     5.38650E+06         51.3877
             603     9.33197E-03     48.5710E-03     27.7971E-03     16.4151E-03    -114.166E-03     25.3154E-03    -111.684E-03     16.4151E-03     3.75380E-03     329.725E-03    -164.544E-03    -165.259E-03    -164.172E-03     329.353E-03    -165.259E-03     26.9094E-03     40.7525E+06     18.7383E+06    -46.8987E+06      -46.64E+06     18.4795E+06     40.7525E+06    -877.161E+03         49.1388
             604     8.48073E-03     48.5392E-03     32.8619E-03     12.4937E-03    -112.133E-03     27.1218E-03    -109.425E-03     15.5255E-03     15.7769E-03     330.496E-03    -164.971E-03    -165.488E-03    -165.024E-03     330.226E-03    -165.165E-03     22.9051E-03     27.5269E+06    -28.6771E+06    -59.7061E+06    -57.9321E+06    -30.4511E+06     27.5269E+06    -3.12570E+06         47.5112
             605     7.63335E-03     48.5087E-03     32.4596E-03     11.2583E-03    -110.747E-03     28.1432E-03    -109.462E-03     14.2900E-03    -9.06243E-03     331.048E-03    -164.911E-03    -165.885E-03    -165.679E-03     330.875E-03    -164.944E-03     18.3923E-03     11.1971E+06    -59.4566E+06    -76.1379E+06    -66.7568E+06    -68.8376E+06     11.1971E+06    -2.28100E+06         46.5524
             606     6.78953E-03     48.4848E-03     26.8715E-03     9.58775E-03    -103.993E-03     22.9192E-03    -103.483E-03     13.0303E-03    -13.7572E-03     330.648E-03    -164.612E-03    -165.821E-03    -165.498E-03     330.527E-03    -164.814E-03     15.2112E-03    -8.03037E+06    -77.0720E+06    -108.078E+06    -77.9024E+06    -107.248E+06    -8.03037E+06    -2.24800E+06         46.1525
             607     5.93897E-03     48.4704E-03     20.1693E-03     7.98160E-03    -97.1813E-03     14.9868E-03    -96.3359E-03     12.3187E-03    -755.543E-06     329.856E-03    -164.580E-03    -165.407E-03    -165.110E-03     329.767E-03    -164.788E-03     13.1241E-03    -25.9679E+06    -89.5903E+06    -140.588E+06    -90.1787E+06    -139.999E+06    -25.9679E+06    -1.26391E+06         45.9930
             608     5.09049E-03     48.4573E-03     15.3955E-03     11.1911E-03    -95.8538E-03     13.2241E-03    -94.5769E-03     12.0857E-03     10.5832E-03     329.752E-03    -164.612E-03    -165.314E-03    -165.215E-03     329.692E-03    -164.650E-03     10.7995E-03    -47.4897E+06    -99.2004E+06    -166.534E+06    -99.5422E+06    -166.192E+06    -47.4897E+06     1.00504E+06         45.8762
             609     4.24446E-03     48.4461E-03     12.9145E-03     6.92261E-03    -91.0141E-03     5.55955E-03    -89.4703E-03     12.7337E-03     1.68020E-03     329.591E-03    -164.438E-03    -165.066E-03    -165.027E-03     329.551E-03    -164.438E-03     8.86223E-03    -68.0773E+06    -105.989E+06    -194.024E+06    -106.035E+06    -193.979E+06    -68.0773E+06    -1.14975E+06         45.7724
             610     3.39436E-03     48.4391E-03     15.5838E-03     2.80913E-03    -91.1580E-03    -1.34288E-03    -87.0060E-03     15.5838E-03    -11.4408E-03     329.071E-03    -164.171E-03    -164.778E-03    -164.705E-03     329.047E-03    -164.219E-03     6.65440E-03    -84.4803E+06    -112.745E+06    -217.382E+06    -112.809E+06    -217.319E+06    -84.4803E+06    -344.687E+03         45.6689
             611     2.54782E-03     48.4303E-03     26.9883E-03     7.19963E-03    -105.057E-03     4.37194E-03    -95.6441E-03     20.4032E-03    -15.2487E-03     328.429E-03    -163.830E-03    -164.545E-03    -164.490E-03     328.422E-03    -163.879E-03     3.31448E-03    -101.862E+06    -118.486E+06    -238.197E+06    -118.535E+06    -238.148E+06    -101.862E+06     887.988E+03         45.5786
             612     1.69843E-03     48.4276E-03     37.9047E-03     18.6639E-03    -125.754E-03     14.5111E-03    -109.719E-03     26.0224E-03    -22.2868E-03     327.660E-03    -163.531E-03    -164.124E-03    -164.121E-03     327.657E-03    -163.531E-03     2.30729E-03    -116.213E+06    -123.535E+06    -254.993E+06    -123.579E+06    -254.950E+06    -116.213E+06    -1.16840E+06         45.5065
             613     848.974E-06     48.4205E-03     191.382E-03    -62.7599E-03    -193.994E-03     119.746E-03    -123.476E-03    -61.6413E-03     227.816E-03     326.964E-03    -163.014E-03    -163.955E-03    -163.951E-03     326.961E-03    -163.014E-03     2.52023E-03    -123.519E+06    -127.746E+06    -276.240E+06    -127.870E+06    -276.117E+06    -123.519E+06    -1.68212E+06         45.4548
             614     14.4205E-03     47.5437E-03     213.370E-03    -40.7129E-03    -238.562E-03     52.7899E-03    -143.431E-03     24.7366E-03     23.8766E-03     329.722E-03    -163.690E-03    -166.045E-03    -162.951E-03     327.906E-03    -164.969E-03     58.2227E-03     129.974E+06     84.5025E+06    -10.8209E+06    -10.0461E+06     83.7278E+06     129.974E+06     1.64677E+06         69.2654
             615     13.5770E-03     47.4298E-03     173.530E-03    -41.0362E-03    -217.955E-03     16.0985E-03    -126.077E-03     24.5179E-03    -45.7935E-03     330.546E-03    -164.180E-03    -166.473E-03    -163.805E-03     328.759E-03    -165.061E-03     57.8323E-03     105.361E+06     65.9340E+06    -21.0216E+06    -19.7337E+06     64.6461E+06     105.361E+06    -3.86112E+06         65.6739
             616     12.7283E-03     47.3808E-03     149.587E-03    -29.6178E-03    -163.379E-03     67.9753E-03    -134.995E-03     23.6098E-03    -824.223E-06     328.913E-03    -163.439E-03    -165.545E-03    -162.776E-03     327.913E-03    -165.209E-03     44.3072E-03     88.9739E+06     50.7636E+06    -25.5639E+06    -24.6825E+06     49.8822E+06     88.9739E+06    -3.62688E+06         61.5061
             617     11.8746E-03     47.3173E-03     74.1848E-03    -12.8056E-03    -151.476E-03     13.4067E-03    -126.181E-03     22.6771E-03     23.2883E-03     328.307E-03    -163.135E-03    -165.273E-03    -162.267E-03     327.438E-03    -165.273E-03     41.1009E-03     76.4264E+06     46.5249E+06    -32.0352E+06    -31.8595E+06     46.3492E+06     76.4264E+06     610.613E+03         57.5937
             618     11.0236E-03     47.2692E-03     60.4546E-03     6.34287E-03    -129.091E-03     39.1785E-03    -124.029E-03     22.5572E-03    -7.61622E-03     328.652E-03    -163.488E-03    -165.403E-03    -162.740E-03     327.904E-03    -165.403E-03     38.2416E-03     65.7228E+06     50.5173E+06    -36.3729E+06    -34.4986E+06     48.6429E+06     65.7228E+06    -949.987E+03         54.2097
             619     10.1766E-03     47.2192E-03     39.4742E-03     21.3848E-03    -129.072E-03     37.7954E-03    -127.393E-03     21.3848E-03     7.69230E-03     329.692E-03    -164.536E-03    -165.476E-03    -163.912E-03     329.069E-03    -165.476E-03     34.9328E-03     57.8595E+06     50.5471E+06    -38.6244E+06    -36.7711E+06     48.6938E+06     57.8595E+06     123.415E+03         51.3807
             620     9.32677E-03     47.1847E-03     30.1169E-03     20.4776E-03    -121.759E-03     27.9157E-03    -119.558E-03     20.4776E-03     9.91275E-03     330.848E-03    -165.092E-03    -165.891E-03    -165.079E-03     330.397E-03    -165.453E-03     29.8328E-03     47.0105E+06     25.3646E+06    -39.9399E+06    -39.5787E+06     25.0034E+06     47.0105E+06     2.85017E+06         49.1359
             621     8.48158E-03     47.1459E-03     27.8960E-03     15.2540E-03    -109.943E-03     20.4064E-03    -107.448E-03     20.2491E-03     24.7976E-03     331.292E-03    -165.088E-03    -166.085E-03    -165.516E-03     330.972E-03    -165.337E-03     24.9170E-03     29.5016E+06    -24.6947E+06    -53.7758E+06    -49.8333E+06    -28.6373E+06     29.5016E+06    -688.532E+03         47.5099
             622     7.63532E-03     47.1172E-03     23.1435E-03     12.5613E-03    -104.607E-03     13.6713E-03    -103.313E-03     20.7396E-03    -5.56587E-03     330.268E-03    -164.491E-03    -165.490E-03    -164.583E-03     330.050E-03    -165.180E-03     20.5575E-03     11.0950E+06    -62.6034E+06    -77.1605E+06    -66.4639E+06    -73.3000E+06     11.0950E+06    -2.37471E+06         46.5483
             623     6.78225E-03     47.0954E-03     29.2490E-03     17.7755E-03    -116.243E-03     25.2865E-03    -115.463E-03     20.9587E-03    -9.75050E-03     329.828E-03    -164.483E-03    -165.242E-03    -164.394E-03     329.676E-03    -165.179E-03     17.1999E-03    -7.20178E+06    -76.1141E+06    -107.336E+06    -77.4987E+06    -105.951E+06    -7.20178E+06     2.35348E+06         46.1477
             624     5.93533E-03     47.0805E-03     33.3984E-03     19.8417E-03    -121.492E-03     33.0130E-03    -121.106E-03     19.8417E-03    -2.04557E-03     330.576E-03    -165.071E-03    -165.769E-03    -165.501E-03     330.477E-03    -165.241E-03     13.8361E-03    -28.9767E+06    -85.2218E+06    -144.003E+06    -87.2044E+06    -142.020E+06    -28.9767E+06     379.115E+03         45.9988
             625     5.08954E-03     47.0638E-03     29.7492E-03     18.0525E-03    -113.988E-03     29.2211E-03    -113.460E-03     18.0525E-03     4.34322E-03     330.827E-03    -165.113E-03    -165.902E-03    -165.847E-03     330.772E-03    -165.113E-03     10.1472E-03    -44.4745E+06    -92.5824E+06    -168.503E+06    -93.4411E+06    -167.645E+06    -44.4745E+06    -607.325E+03         45.8963
             626     4.24012E-03     47.0570E-03     26.7526E-03     14.4369E-03    -110.207E-03     23.2860E-03    -108.800E-03     16.4971E-03     3.24285E-03     330.729E-03    -164.856E-03    -165.840E-03    -165.811E-03     330.700E-03    -164.856E-03     7.45456E-03    -62.4707E+06    -101.621E+06    -190.783E+06    -101.758E+06    -190.646E+06    -62.4707E+06     1.39027E+06         45.8034
             627     3.39486E-03     47.0458E-03     26.2485E-03     7.22046E-03    -104.479E-03     14.6099E-03    -101.627E-03     16.0075E-03     12.3774E-03     330.134E-03    -164.508E-03    -165.578E-03    -165.562E-03     330.118E-03    -164.508E-03     5.25050E-03    -84.1309E+06    -113.323E+06    -217.159E+06    -113.427E+06    -217.055E+06    -84.1309E+06     213.202E+03         45.7036
             628     2.54647E-03     47.0425E-03     28.4305E-03     4.56432E-03    -102.342E-03     9.26956E-03    -96.1476E-03     17.5310E-03     13.8501E-03     328.972E-03    -164.108E-03    -164.813E-03    -164.807E-03     328.966E-03    -164.108E-03     3.37151E-03    -100.400E+06    -117.724E+06    -237.409E+06    -117.745E+06    -237.388E+06    -100.400E+06    -75.4519E+03         45.6026
             629     1.69898E-03     47.0392E-03     28.4621E-03     11.3246E-03    -108.407E-03     10.6476E-03    -100.843E-03     21.5747E-03     23.4010E-03     328.012E-03    -163.742E-03    -164.237E-03    -164.231E-03     328.007E-03    -163.742E-03     3.20549E-03    -115.308E+06    -121.261E+06    -251.878E+06    -120.431E+06    -251.866E+06    -116.150E+06     131.116E+03         45.5179
             630     850.093E-06     47.0379E-03     167.378E-03    -69.4963E-03    -161.820E-03     117.960E-03    -112.356E-03    -69.5424E-03     217.658E-03     327.479E-03    -163.586E-03    -163.889E-03    -163.885E-03     327.474E-03    -163.586E-03     2.81589E-03    -124.671E+06    -127.169E+06    -279.961E+06    -126.402E+06    -279.885E+06    -125.513E+06    -2.23358E+06         45.4630
             631     14.4348E-03     46.1407E-03     594.610E-03    -61.9203E-03    -577.688E-03     82.6831E-03    -157.655E-03     29.9729E-03     74.3410E-03     329.937E-03    -163.729E-03    -166.206E-03    -163.453E-03     328.242E-03    -164.786E-03     56.9815E-03     129.822E+06     84.5991E+06    -10.3984E+06    -10.0428E+06     84.2434E+06     129.822E+06     284.604E+03         69.2680
             632     13.5797E-03     46.0552E-03     451.682E-03    -60.0546E-03    -569.718E-03    -63.3554E-03    -146.573E-03     31.8386E-03    -40.7593E-03     327.664E-03    -162.606E-03    -165.221E-03    -161.176E-03     325.941E-03    -164.930E-03     57.4756E-03     105.598E+06     68.2967E+06    -15.8415E+06    -15.6490E+06     68.1041E+06     105.598E+06    -2.38887E+06         65.6765
             633     12.7241E-03     45.9854E-03     449.600E-03    -28.3148E-03    -341.365E-03     189.768E-03    -139.604E-03     29.7563E-03    -554.981E-06     328.434E-03    -163.312E-03    -165.294E-03    -162.451E-03     327.406E-03    -165.127E-03     44.2772E-03     84.0092E+06     53.5601E+06    -25.7273E+06    -24.4998E+06     52.3325E+06     84.0092E+06    -4.05529E+06         61.5120
             634     11.8782E-03     45.9339E-03     170.938E-03    -29.2856E-03    -350.271E-03    -88.0670E-03    -149.337E-03     28.7855E-03     9.00614E-03     328.662E-03    -163.406E-03    -165.373E-03    -162.884E-03     327.972E-03    -165.206E-03     36.7025E-03     74.4313E+06     46.9690E+06    -32.4371E+06    -31.1384E+06     45.6703E+06     74.4313E+06    -4.52094E+06         57.6062
             635     11.0261E-03     45.8785E-03     177.597E-03    -7.13527E-03    -154.888E-03     134.975E-03    -148.540E-03     29.1384E-03    -23.3180E-03     327.634E-03    -162.485E-03    -165.363E-03    -161.894E-03     327.043E-03    -165.363E-03     33.9098E-03     64.3584E+06     46.6664E+06    -36.0212E+06    -34.9956E+06     45.6409E+06     64.3584E+06    -5.96213E+06         54.2224
             636     10.1726E-03     45.8307E-03     36.8385E-03    -9.73088E-03    -135.961E-03    -2.92950E-03    -132.466E-03     26.5428E-03     3.27128E-03     328.690E-03    -163.468E-03    -165.483E-03    -162.990E-03     328.212E-03    -165.483E-03     30.3533E-03     50.4080E+06     43.7301E+06    -44.7492E+06    -43.7438E+06     42.7247E+06     50.4080E+06    -3.48642E+06         51.3888
             637     9.32568E-03     45.7864E-03     34.2629E-03     26.7813E-03    -123.398E-03     32.2847E-03    -122.458E-03     27.8196E-03    -16.0971E-03     329.860E-03    -164.078E-03    -165.920E-03    -164.140E-03     329.484E-03    -165.482E-03     27.0995E-03     34.7097E+06     17.9733E+06    -54.7562E+06    -54.4289E+06     17.6459E+06     34.7097E+06     3.92492E+06         49.1384
             638     8.47792E-03     45.7528E-03     33.2296E-03     24.7543E-03    -126.267E-03     30.1230E-03    -126.162E-03     27.7560E-03    -4.00881E-03     330.303E-03    -164.257E-03    -165.971E-03    -164.397E-03     330.004E-03    -165.534E-03     24.0834E-03     20.2770E+06    -25.7207E+06    -64.8474E+06    -62.0129E+06    -28.5552E+06     20.2770E+06     3.45257E+06         47.5058
             639     7.62733E-03     45.7269E-03     36.8529E-03     22.5289E-03    -132.488E-03     30.4425E-03    -131.224E-03     27.6754E-03    -24.6365E-03     330.552E-03    -164.467E-03    -165.841E-03    -164.571E-03     330.352E-03    -165.537E-03     19.4682E-03      8.8368E+06    -61.3980E+06    -79.9361E+06    -69.5049E+06    -71.8293E+06      8.8368E+06     925.300E+03         46.5375
             640     6.78184E-03     45.7077E-03     34.9548E-03     21.8592E-03    -127.148E-03     27.8237E-03    -125.790E-03     27.6323E-03    -12.4827E-03     330.788E-03    -164.820E-03    -165.883E-03    -165.065E-03     330.667E-03    -165.517E-03     15.2998E-03    -5.20984E+06    -75.9123E+06    -104.370E+06    -76.9571E+06    -103.325E+06    -5.20984E+06     2.29727E+06         46.1342
             641     5.93385E-03     45.6839E-03     33.3983E-03     22.3737E-03    -123.374E-03     27.8903E-03    -123.185E-03     27.6923E-03     8.08438E-03     330.817E-03    -165.173E-03    -165.879E-03    -165.390E-03     330.738E-03    -165.582E-03     12.4689E-03    -24.7071E+06    -80.4351E+06    -136.717E+06    -82.9006E+06    -134.251E+06    -24.7071E+06     3.06950E+06         45.9903
             642     5.08585E-03     45.6748E-03     39.5180E-03     24.2766E-03    -130.746E-03     36.0641E-03    -130.021E-03     27.0051E-03    -3.13637E-03     331.454E-03    -165.307E-03    -166.313E-03    -166.055E-03     331.403E-03    -165.514E-03     9.87392E-03    -48.0899E+06    -95.7085E+06    -172.651E+06    -97.5629E+06    -170.797E+06    -48.0899E+06    -1.30903E+06         45.9005
             643     4.24140E-03     45.6620E-03     41.7340E-03     24.8209E-03    -134.719E-03     39.8771E-03    -132.862E-03     24.8209E-03    -12.9361E-03     331.607E-03    -165.264E-03    -166.372E-03    -166.342E-03     331.577E-03    -165.264E-03     7.59341E-03    -64.9775E+06    -107.241E+06    -195.539E+06    -107.714E+06    -195.066E+06    -64.9775E+06    -884.758E+03         45.8194
             644     3.39348E-03     45.6572E-03     35.1011E-03     20.6750E-03    -123.959E-03     31.9188E-03    -122.249E-03     22.1477E-03    -5.07327E-03     330.433E-03    -164.899E-03    -165.545E-03    -165.474E-03     330.417E-03    -164.953E-03     5.37394E-03    -81.7692E+06    -110.826E+06    -213.344E+06    -110.918E+06    -213.252E+06    -81.7692E+06     339.284E+03         45.7215
             645     2.54550E-03     45.6542E-03     38.8222E-03     18.4190E-03    -124.149E-03     26.3285E-03    -113.128E-03     19.8918E-03    -53.4957E-03     329.479E-03    -164.576E-03    -164.882E-03    -164.702E-03     329.469E-03    -164.746E-03     4.34115E-03    -99.7940E+06    -118.330E+06    -238.431E+06    -118.348E+06    -238.413E+06    -99.7940E+06    -1.18579E+06         45.6193
             646     1.69611E-03     45.6517E-03     37.7348E-03     14.8117E-03    -119.818E-03     22.3555E-03    -107.330E-03     17.7033E-03    -34.8927E-03     329.473E-03    -164.449E-03    -165.005E-03    -164.881E-03     329.464E-03    -164.564E-03     3.88019E-03    -114.275E+06    -125.127E+06    -253.119E+06    -124.331E+06    -253.073E+06    -115.117E+06     489.075E+03         45.5363
             647     847.628E-06     45.6493E-03     131.744E-03    -67.1084E-03    -133.333E-03     101.603E-03    -102.027E-03    -68.2732E-03     152.937E-03     329.255E-03    -164.374E-03    -164.878E-03    -164.873E-03     329.250E-03    -164.374E-03     1.93222E-03    -122.793E+06    -129.394E+06    -277.741E+06    -125.342E+06    -277.646E+06    -126.939E+06     2.34056E+06         45.4840
             648     14.4278E-03     44.7534E-03     648.385E-03    -23.6352E-03    -666.902E-03     12.0643E-03    -90.8794E-03     36.6633E-03    -147.543E-03     330.570E-03    -163.931E-03    -166.858E-03    -164.320E-03     328.892E-03    -164.789E-03     57.3041E-03     134.038E+06     87.5010E+06    -7.55673E+06    -7.39077E+06      87.335E+06     134.038E+06    -1.77770E+06         69.3344
             649     13.5763E-03     44.6747E-03     569.897E-03    -24.7027E-03    -581.255E-03     106.401E-03    -178.057E-03     35.5957E-03     90.4319E-03     328.451E-03    -162.846E-03    -165.742E-03    -162.215E-03     326.880E-03    -164.801E-03     54.9735E-03     111.640E+06     77.2302E+06    -12.9856E+06    -12.9492E+06     77.1938E+06     111.640E+06     1.22504E+06         65.7561
             650     12.7283E-03     44.5931E-03     425.558E-03    -15.6404E-03    -500.252E-03     13.2388E-03    -137.704E-03     34.1306E-03     48.0766E-03     327.133E-03    -162.131E-03    -165.094E-03    -161.296E-03     326.130E-03    -164.926E-03     43.5755E-03     74.3863E+06     54.8434E+06    -31.4642E+06    -30.2509E+06     53.6300E+06     74.3863E+06    -2.79194E+06         61.5808
             651     11.8784E-03     44.5417E-03     326.469E-03    -12.3510E-03    -456.372E-03    -29.6292E-03    -150.045E-03     37.4200E-03    -69.1392E-03     328.504E-03    -162.882E-03    -165.738E-03    -162.813E-03     327.748E-03    -165.051E-03     38.3760E-03     56.9221E+06     41.4276E+06    -39.8889E+06    -37.8287E+06     39.9981E+06     56.2915E+06    -7.49388E+06         57.6544
             652     11.0294E-03     44.4948E-03     324.161E-03    -41.5883E-03    -234.136E-03     164.728E-03    -151.403E-03     35.1123E-03     55.8920E-03     329.599E-03    -163.781E-03    -165.985E-03    -163.973E-03     328.950E-03    -165.145E-03     35.4038E-03     59.2719E+06     45.0606E+06    -35.9723E+06    -35.0133E+06     44.7322E+06     58.6413E+06    -3.03012E+06         54.2601
             653     10.1811E-03     44.4412E-03     81.8632E-03    -41.8582E-03    -214.727E-03    -73.2393E-03    -136.326E-03     34.8425E-03    -16.5069E-03     328.453E-03    -163.066E-03    -165.540E-03    -162.956E-03     328.022E-03    -165.219E-03     28.9488E-03     46.8846E+06     39.1053E+06    -46.5035E+06    -46.1587E+06     38.7605E+06     46.8846E+06     3.38211E+06         51.4176
             654     9.32849E-03     44.3989E-03     86.3940E-03     36.4795E-03    -147.983E-03     84.0509E-03    -146.678E-03     37.5178E-03    -14.0867E-03     327.712E-03    -162.524E-03    -165.289E-03    -162.225E-03     327.413E-03    -165.289E-03     23.8348E-03     26.5115E+06     10.4666E+06    -63.4818E+06    -63.1233E+06     10.1080E+06     26.5115E+06     2.12164E+06         49.1534
             655     8.47580E-03     44.3630E-03     40.4548E-03     32.0366E-03    -152.452E-03     35.9950E-03    -151.535E-03     35.5794E-03     13.9550E-03     328.601E-03    -163.153E-03    -165.442E-03    -162.968E-03     328.416E-03    -165.442E-03     18.7517E-03     17.1335E+06    -27.5805E+06    -69.4283E+06    -68.8055E+06    -28.2034E+06     17.1335E+06     846.825E+03         47.5065
             656     7.62893E-03     44.3346E-03     45.1160E-03     32.8585E-03    -152.485E-03     41.1174E-03    -150.991E-03     35.3629E-03    -12.8324E-03     330.243E-03    -164.152E-03    -165.843E-03    -164.340E-03     330.126E-03    -165.540E-03     14.9788E-03     9.04038E+06    -59.1156E+06    -77.8339E+06    -70.3229E+06    -66.6266E+06     9.04038E+06     1.47754E+06         46.5257
             657     6.78161E-03     44.3105E-03     44.3663E-03     32.2325E-03    -146.180E-03     40.2757E-03    -144.679E-03     34.8226E-03    -5.40870E-03     330.826E-03    -164.792E-03    -165.885E-03    -165.013E-03     330.744E-03    -165.581E-03     12.7065E-03    -8.19792E+06    -80.8574E+06    -107.506E+06    -80.9668E+06    -107.396E+06    -8.19792E+06    -1.44147E+06         46.1152
             658     5.93316E-03     44.2981E-03     37.7079E-03     28.5507E-03    -137.861E-03     30.5399E-03    -137.039E-03     34.8972E-03     6.23254E-03     330.462E-03    -164.992E-03    -165.695E-03    -164.934E-03     330.403E-03    -165.695E-03     10.5738E-03    -22.8511E+06    -89.4643E+06    -137.625E+06    -90.5451E+06    -136.544E+06    -22.8511E+06     3.31036E+06         45.9702
             659     5.08478E-03     44.2776E-03     39.7157E-03     28.7964E-03    -140.166E-03     31.7188E-03    -138.984E-03     35.6110E-03    -8.52307E-03     330.730E-03    -164.812E-03    -166.083E-03    -165.122E-03     330.693E-03    -165.736E-03     8.31976E-03    -42.9887E+06    -94.5671E+06    -165.169E+06    -96.1256E+06    -163.611E+06    -42.9887E+06     4.23551E+06         45.8801
             660     4.23707E-03     44.2715E-03     43.4207E-03     32.7452E-03    -146.395E-03     37.7314E-03    -143.764E-03     35.8032E-03    -3.16168E-03     331.122E-03    -165.008E-03    -166.095E-03    -165.398E-03     331.098E-03    -165.681E-03     6.45643E-03    -66.9648E+06    -105.285E+06    -195.315E+06    -105.942E+06    -194.657E+06    -66.9648E+06    -2.16687E+06         45.8023
             661     3.39006E-03     44.2651E-03     47.3652E-03     33.2887E-03    -150.612E-03     41.8919E-03    -146.611E-03     34.7615E-03     17.6597E-03     330.956E-03    -165.267E-03    -165.674E-03    -165.322E-03     330.943E-03    -165.606E-03     4.50165E-03    -85.0184E+06    -113.422E+06    -216.521E+06    -113.494E+06    -216.450E+06    -85.0184E+06    -1.51074E+06         45.7151
             662     2.54176E-03     44.2653E-03     55.3298E-03     30.4674E-03    -155.203E-03     43.6079E-03    -144.954E-03     31.9402E-03    -16.5580E-03     331.034E-03    -165.240E-03    -165.771E-03    -165.455E-03     331.026E-03    -165.548E-03     3.63736E-03    -103.014E+06    -121.233E+06    -240.312E+06    -121.241E+06    -240.304E+06    -103.014E+06    -228.611E+03         45.6310
             663     1.69474E-03     44.2606E-03     56.3681E-03     26.9799E-03    -152.623E-03     39.0500E-03    -135.305E-03     26.9799E-03     18.6648E-03     331.073E-03    -165.145E-03    -165.922E-03    -165.625E-03     331.067E-03    -165.436E-03     2.96969E-03    -115.786E+06    -127.867E+06    -255.848E+06    -127.917E+06    -255.798E+06    -115.786E+06     293.056E+03         45.5679
             664     849.028E-06     44.2572E-03     126.871E-03    -45.9535E-03    -151.818E-03     93.8477E-03    -118.795E-03    -45.9535E-03     175.125E-03     330.859E-03    -164.955E-03    -165.902E-03    -165.320E-03     330.857E-03    -165.535E-03     975.565E-06    -121.674E+06    -132.222E+06    -274.133E+06    -129.045E+06    -274.005E+06    -124.978E+06     3.27642E+06         45.5263
             665     14.4274E-03     43.3580E-03         1.14156    -99.7092E-03        -1.25697    -115.506E-03    -146.282E-03     46.6696E-03    -288.348E-03     330.781E-03    -164.696E-03    -166.116E-03    -164.417E-03     329.200E-03    -164.815E-03     55.5076E-03     132.426E+06     86.2292E+06    -10.0182E+06    -9.83191E+06     86.0429E+06     132.426E+06    -1.83636E+06         69.4382
             666     13.5862E-03     43.2783E-03         1.16034     2.08321E-03    -753.576E-03     490.216E-03    -119.070E-03     37.6980E-03     51.4563E-03     330.809E-03    -164.309E-03    -166.417E-03    -164.319E-03     329.223E-03    -164.821E-03     55.4851E-03     109.077E+06     69.0384E+06    -22.1319E+06    -22.0880E+06     68.9945E+06     109.077E+06     629.490E+03         65.8699
             667     12.7324E-03     43.2148E-03     340.684E-03    -6.12566E-03    -928.854E-03    -459.341E-03    -175.412E-03     40.4573E-03    -37.8817E-03     328.061E-03    -162.786E-03    -165.401E-03    -162.294E-03     327.045E-03    -164.878E-03     43.9592E-03     88.7880E+06     63.6485E+06    -19.7548E+06    -19.6458E+06     63.5395E+06     88.7880E+06     2.69478E+06         61.6805
             668     11.8742E-03     43.1585E-03     511.880E-03     35.6774E-03    -312.015E-03     350.492E-03    -161.595E-03     46.6456E-03    -22.2817E-03     327.840E-03    -162.573E-03    -165.467E-03    -162.496E-03     327.144E-03    -164.848E-03     36.4746E-03     57.8437E+06     49.7914E+06    -30.4684E+06    -29.4298E+06     50.2585E+06     56.3380E+06    -949.833E+03         57.7281
             669     11.0280E-03     43.0929E-03     270.646E-03    -44.0761E-03    -325.689E-03    -8.50770E-03    -128.396E-03     37.7849E-03     100.123E-03     329.425E-03    -163.743E-03    -165.698E-03    -164.001E-03     328.843E-03    -164.858E-03     33.3210E-03     37.2248E+06     29.2164E+06    -53.7790E+06    -52.1856E+06     29.1287E+06     35.7192E+06    -5.05012E+06         54.3130
             670     10.1814E-03     43.0562E-03     182.948E-03    -37.2335E-03    -332.413E-03    -73.2050E-03    -158.121E-03     44.6274E-03    -60.1134E-03     329.095E-03    -163.789E-03    -165.456E-03    -163.801E-03     328.641E-03    -164.991E-03     29.8562E-03     43.0263E+06     29.7745E+06    -57.3962E+06    -56.4140E+06     28.7923E+06     43.0263E+06    -1.41722E+06         51.4537
             671     9.33213E-03     43.0090E-03     184.540E-03     26.8452E-03    -179.626E-03     163.202E-03    -175.807E-03     44.3642E-03     18.0295E-03     328.249E-03    -163.294E-03    -165.217E-03    -163.118E-03     327.928E-03    -165.073E-03     24.6610E-03     40.3340E+06     21.9721E+06    -56.3696E+06    -55.4974E+06     21.0999E+06     40.3340E+06     2.63381E+06         49.1746
             672     8.48458E-03     42.9770E-03     42.1558E-03     17.8462E-03    -167.398E-03     15.7574E-03    -163.454E-03     40.3004E-03     39.9867E-03     328.006E-03    -162.893E-03    -165.065E-03    -162.708E-03     327.822E-03    -165.065E-03     18.7507E-03     20.9528E+06    -20.5002E+06    -65.1369E+06    -64.3151E+06    -21.3220E+06     20.9528E+06     108.590E+03         47.5114
             673     7.63267E-03     42.9424E-03     45.0103E-03     36.8524E-03    -155.973E-03     38.8829E-03    -154.781E-03     41.7876E-03    -5.95270E-03     328.510E-03    -162.961E-03    -165.198E-03    -162.841E-03     328.390E-03    -165.198E-03     15.1080E-03     5.67079E+06    -63.9850E+06    -82.5594E+06    -74.5225E+06    -72.0219E+06     5.67079E+06    -3.69190E+06         46.5122
             674     6.78205E-03     42.9250E-03     50.5513E-03     41.6608E-03    -161.126E-03     47.8188E-03    -158.394E-03     41.6608E-03     12.1813E-03     329.709E-03    -164.122E-03    -165.390E-03    -164.053E-03     329.640E-03    -165.390E-03     11.4837E-03    -4.88185E+06    -79.1373E+06    -106.594E+06    -80.2875E+06    -105.443E+06    -4.88185E+06    -892.848E+03         46.0878
             675     5.93486E-03     42.9015E-03     46.9735E-03     38.5878E-03    -159.811E-03     41.9062E-03    -157.462E-03     41.3057E-03     25.3572E-03     330.101E-03    -164.807E-03    -165.485E-03    -164.768E-03     330.063E-03    -165.485E-03     8.57084E-03    -25.2133E+06    -90.2816E+06    -140.428E+06    -91.0223E+06    -139.688E+06    -25.2133E+06     578.788E+03         45.9348
             676     5.08724E-03     42.8908E-03     42.0118E-03     34.9607E-03    -152.013E-03     33.7213E-03    -150.774E-03     42.0118E-03    -4.89866E-03     329.593E-03    -164.150E-03    -165.585E-03    -164.130E-03     329.572E-03    -165.585E-03     6.29241E-03    -41.3378E+06    -95.3049E+06    -164.107E+06    -95.7747E+06    -163.638E+06    -41.3378E+06     2.28032E+06         45.8381
             677     4.23710E-03     42.8772E-03     48.0345E-03     38.5353E-03    -157.816E-03     41.6214E-03    -155.736E-03     42.8686E-03    -381.825E-06     329.797E-03    -164.003E-03    -165.746E-03    -163.995E-03     329.789E-03    -165.746E-03     3.33012E-03    -61.7688E+06    -100.966E+06    -187.863E+06    -101.348E+06    -187.481E+06    -61.7688E+06     2.77064E+06         45.7659
             678     3.38873E-03     42.8737E-03     57.8833E-03     41.3693E-03    -169.970E-03     54.5507E-03    -166.638E-03     41.3693E-03     25.1737E-03     330.827E-03    -164.928E-03    -165.882E-03    -164.926E-03     330.825E-03    -165.882E-03     1.79251E-03    -87.1936E+06    -115.726E+06    -220.048E+06    -115.848E+06    -219.926E+06    -87.1936E+06     107.600E+03         45.7012
             679     2.54156E-03     42.8699E-03     62.1360E-03     36.4896E-03    -171.044E-03     55.9708E-03    -164.878E-03     36.4896E-03    -3.28765E-03     331.702E-03    -165.538E-03    -166.138E-03    -165.758E-03     331.699E-03    -165.915E-03     2.20965E-03    -105.010E+06    -122.251E+06    -240.754E+06    -122.252E+06    -240.752E+06    -105.010E+06     353.648E+03         45.6404
             680     1.69548E-03     42.8669E-03     57.6442E-03     30.3084E-03    -160.487E-03     42.0779E-03    -144.921E-03     30.3084E-03     36.9473E-03     331.530E-03    -165.306E-03    -166.215E-03    -165.525E-03     331.528E-03    -165.992E-03     2.23226E-03    -117.052E+06    -124.814E+06    -255.634E+06    -124.078E+06    -255.592E+06    -117.830E+06    -1.34647E+06         45.5925
             681     845.053E-06     42.8674E-03     96.1227E-03    -3.31653E-03    -165.887E-03     57.8191E-03    -127.584E-03    -3.31653E-03     182.662E-03     332.275E-03    -165.637E-03    -166.642E-03    -165.751E-03     332.272E-03    -166.524E-03     2.39606E-03    -123.653E+06    -132.305E+06    -274.899E+06    -131.625E+06    -274.801E+06    -124.431E+06    -1.45665E+06         45.5610
             682     14.4307E-03     41.9728E-03         1.96263    -151.975E-03        -2.13428    -119.304E-03    -256.629E-03     52.3160E-03     139.149E-03     330.040E-03    -164.698E-03    -165.212E-03    -163.464E-03     328.384E-03    -164.791E-03     56.7948E-03     131.961E+06     86.4437E+06    -9.45614E+06    -9.18300E+06     86.1706E+06     131.961E+06     1.12672E+06         69.5446
             683     13.5717E-03     41.8845E-03         1.95493    -43.2471E-03        -1.55534     455.182E-03    -143.451E-03     44.6091E-03    -61.8695E-03     330.583E-03    -164.756E-03    -165.808E-03    -164.245E-03     329.020E-03    -164.756E-03     54.8189E-03     102.447E+06     69.5828E+06    -17.1957E+06    -17.1154E+06     69.5026E+06     102.447E+06    -1.97138E+06         65.9716
             684     12.7286E-03     41.8225E-03     911.711E-03    -34.1193E-03        -1.56852    -588.220E-03    -156.450E-03     53.7369E-03    -168.156E-03     331.237E-03    -164.732E-03    -166.599E-03    -165.575E-03     330.212E-03    -164.732E-03     44.4640E-03     82.7612E+06     58.1874E+06    -26.3029E+06    -26.1602E+06     58.0447E+06     82.7612E+06    -989.427E+03         61.7742
             685     11.8909E-03     41.7645E-03     973.828E-03    -3.32431E-03    -349.773E-03     724.433E-03    -155.391E-03     51.6889E-03     112.279E-03     329.580E-03    -163.768E-03    -165.781E-03    -164.123E-03     328.827E-03    -164.672E-03     37.9523E-03     74.7029E+06     53.3047E+06    -30.2453E+06    -29.7416E+06     53.6761E+06     73.8278E+06     3.04945E+06         57.8088
             686     11.0349E-03     41.7138E-03     106.401E-03    -75.3344E-03    -489.843E-03    -329.522E-03    -171.490E-03     42.2363E-03     5.66116E-03     327.786E-03    -163.179E-03    -164.682E-03    -162.561E-03     327.168E-03    -164.682E-03     34.2287E-03     53.2301E+06     40.1721E+06    -40.2299E+06    -38.8392E+06     39.6565E+06     52.3550E+06     3.16369E+06         54.3719
             687     10.1816E-03     41.6611E-03     274.424E-03    -6.89139E-03    -318.095E-03     85.7687E-03    -191.997E-03     55.6660E-03    -113.241E-03     328.653E-03    -164.035E-03    -164.902E-03    -163.729E-03     328.202E-03    -164.758E-03     29.3819E-03     39.0267E+06     26.0157E+06    -55.2559E+06    -53.4513E+06     24.2110E+06     39.0267E+06    -5.44358E+06         51.4907
             688     9.33504E-03     41.6236E-03     266.883E-03    -13.4473E-03    -191.655E-03     192.865E-03    -179.209E-03     48.1250E-03     54.1084E-03     328.535E-03    -163.982E-03    -164.975E-03    -163.805E-03     328.213E-03    -164.831E-03     25.0875E-03     40.1307E+06     16.5650E+06    -61.3629E+06    -59.0795E+06     14.2816E+06     40.1307E+06    -6.21827E+06         49.1942
             689     8.48432E-03     41.5840E-03     45.9675E-03    -18.5530E-03    -181.834E-03    -30.2252E-03    -169.645E-03     45.4501E-03     35.3778E-03     327.990E-03    -163.270E-03    -164.811E-03    -163.042E-03     327.763E-03    -164.811E-03     20.7846E-03     28.1875E+06    -14.6369E+06    -66.8613E+06    -63.0631E+06    -18.4352E+06     28.1875E+06     924.347E+03         47.5135
             690     7.63482E-03     41.5604E-03     57.8855E-03     46.6619E-03    -173.019E-03     54.5609E-03    -172.125E-03     49.0926E-03    -22.5388E-03     328.365E-03    -163.313E-03    -164.816E-03    -163.178E-03     328.231E-03    -164.816E-03     16.1513E-03     6.50025E+06    -58.3599E+06    -84.4297E+06    -71.5525E+06    -71.2371E+06     6.50025E+06     656.512E+03         46.4943
             691     6.78631E-03     41.5272E-03     59.6206E-03     47.0595E-03    -173.203E-03     55.7919E-03    -170.802E-03     48.4879E-03    -4.23740E-03     328.881E-03    -163.845E-03    -164.930E-03    -163.770E-03     328.806E-03    -164.930E-03     11.7598E-03    -7.60218E+06    -77.7131E+06    -110.237E+06    -79.2862E+06    -108.664E+06    -7.60218E+06    -2.19898E+06         46.0504
             692     5.93745E-03     41.5144E-03     51.3320E-03     45.1487E-03    -170.852E-03     46.5748E-03    -169.213E-03     48.2671E-03     20.4595E-03     328.963E-03    -164.065E-03    -165.064E-03    -164.037E-03     328.935E-03    -165.064E-03     7.36011E-03    -23.1488E+06    -82.7370E+06    -137.478E+06    -83.7792E+06    -136.436E+06    -23.1488E+06    -1.98495E+06         45.8878
             693     5.08780E-03     41.4976E-03     50.9844E-03     45.6089E-03    -170.880E-03     47.3035E-03    -170.164E-03     48.5741E-03    -11.1844E-03     328.541E-03    -163.454E-03    -165.233E-03    -163.439E-03     328.525E-03    -165.233E-03     5.46784E-03    -43.7641E+06    -94.5222E+06    -167.592E+06    -94.9044E+06    -167.209E+06    -43.7641E+06    -3.06332E+06         45.7953
             694     4.24026E-03     41.4909E-03     55.2934E-03     43.7897E-03    -170.422E-03     48.8163E-03    -168.880E-03     48.7253E-03    -17.2904E-03     328.802E-03    -163.260E-03    -165.483E-03    -163.251E-03     328.792E-03    -165.483E-03     3.81172E-03    -61.1699E+06    -105.511E+06    -190.603E+06    -105.918E+06    -190.196E+06    -61.1699E+06     911.017E+03         45.7358
             695     3.38980E-03     41.4814E-03     56.4936E-03     35.6148E-03    -161.517E-03     40.9884E-03    -160.268E-03     49.8710E-03     6.94649E-03     329.905E-03    -164.151E-03    -165.701E-03    -164.146E-03     329.900E-03    -165.701E-03     2.51063E-03    -81.8857E+06    -112.926E+06    -214.512E+06    -113.078E+06    -214.361E+06    -81.8857E+06     2.46997E+06         45.6883
             696     2.54206E-03     41.4783E-03     63.2515E-03     38.4747E-03    -172.339E-03     41.4135E-03    -164.990E-03     52.9637E-03    -49.5610E-03     330.763E-03    -164.810E-03    -165.947E-03    -164.807E-03     330.760E-03    -165.947E-03     2.30723E-03    -103.278E+06    -121.496E+06    -240.866E+06    -121.505E+06    -240.857E+06    -103.278E+06    -490.617E+03         45.6429
             697     1.69255E-03     41.4754E-03     76.4983E-03     51.1232E-03    -201.056E-03     54.7837E-03    -183.234E-03     55.0164E-03     19.0711E-03     331.728E-03    -165.335E-03    -166.396E-03    -165.454E-03     331.725E-03    -166.275E-03     2.17103E-03    -117.907E+06    -128.066E+06    -257.444E+06    -127.373E+06    -257.359E+06    -118.685E+06    -368.795E+03         45.6026
             698     847.171E-06     41.4728E-03     103.212E-03     36.8197E-03    -215.450E-03     73.4773E-03    -185.716E-03     36.8197E-03     175.397E-03     333.088E-03    -166.141E-03    -166.958E-03    -166.644E-03     333.082E-03    -166.448E-03     3.35956E-03    -125.150E+06    -135.475E+06    -277.370E+06    -130.841E+06    -277.263E+06    -129.892E+06    -592.720E+03         45.5744
             699     14.4259E-03     40.5764E-03         2.70274    -1.95029E-03        -3.04881    -315.330E-03    -88.6570E-03     55.9618E-03    -187.429E-03     331.109E-03    -164.739E-03    -166.443E-03    -164.675E-03     329.434E-03    -164.832E-03     57.5870E-03     133.917E+06     88.8196E+06    -7.11168E+06    -6.78896E+06     88.4968E+06     133.917E+06     2.66233E+06         69.6395
             700     13.5854E-03     40.5028E-03         2.56820    -114.453E-03        -2.22513     525.135E-03    -349.515E-03     52.9944E-03    -27.3077E-03     331.196E-03    -164.736E-03    -166.616E-03    -165.232E-03     329.812E-03    -164.736E-03     51.8826E-03     106.149E+06     79.0976E+06    -19.0316E+06    -16.8696E+06     76.9355E+06     106.149E+06     7.19559E+06         66.0726
             701     12.7324E-03     40.4256E-03         1.46472    -108.155E-03        -2.08443    -563.790E-03    -223.368E-03     59.2924E-03     233.472E-03     329.780E-03    -163.705E-03    -166.134E-03    -164.093E-03     328.766E-03    -164.731E-03     44.6624E-03     77.2541E+06     61.0337E+06    -30.6807E+06    -26.6768E+06     57.0299E+06     77.2541E+06    -531.745E+03         61.8564
             702     11.8779E-03     40.3747E-03         1.45921    -42.2415E-03    -717.747E-03     783.197E-03    -137.756E-03     53.7818E-03     56.0847E-03     330.478E-03    -163.468E-03    -166.949E-03    -164.831E-03     329.596E-03    -164.703E-03     41.5613E-03     72.0363E+06     49.3477E+06    -32.3752E+06    -28.8266E+06     45.7991E+06     72.0363E+06    -9.64188E+06         57.8652
             703     11.0335E-03     40.3280E-03     134.931E-03    -64.5311E-03    -803.622E-03    -591.713E-03    -194.126E-03     52.6155E-03    -105.489E-03     330.647E-03    -164.259E-03    -166.515E-03    -165.430E-03     329.950E-03    -164.647E-03     36.9389E-03     68.9295E+06     43.7070E+06    -30.7228E+06    -28.6720E+06     41.6562E+06     68.9295E+06     1.26292E+06         54.4158
             704     10.1870E-03     40.2707E-03     382.307E-03     45.7290E-03    -227.497E-03     329.244E-03    -195.558E-03     66.8523E-03    -63.4536E-03     328.737E-03    -163.809E-03    -165.160E-03    -163.979E-03     328.277E-03    -164.530E-03     29.6297E-03     57.0717E+06     41.4291E+06    -32.1405E+06    -30.9589E+06     40.2475E+06     57.0717E+06     679.770E+03         51.5232
             705     9.33563E-03     40.2325E-03     284.560E-03    -51.8387E-03    -202.967E-03     155.584E-03    -177.251E-03     51.4203E-03     70.5696E-03     327.872E-03    -163.558E-03    -164.647E-03    -163.404E-03     327.586E-03    -164.514E-03     23.6596E-03     41.2872E+06     9.68002E+06    -47.8407E+06    -45.7368E+06     7.57609E+06     41.2872E+06    -7.89863E+06         49.2108
             706     8.48669E-03     40.1975E-03     53.9125E-03    -50.1188E-03    -204.553E-03    -73.2641E-03    -180.636E-03     53.1403E-03     10.9794E-03     328.328E-03    -163.841E-03    -164.683E-03    -163.776E-03     328.130E-03    -164.550E-03     19.3461E-03     30.9989E+06    -28.0149E+06    -61.7332E+06    -57.8511E+06    -31.8971E+06     30.9989E+06    -2.96746E+06         47.5136
             707     7.63868E-03     40.1669E-03     68.7574E-03     59.2314E-03    -185.322E-03     67.1815E-03    -183.747E-03     59.2314E-03    -36.2914E-03     328.255E-03    -163.745E-03    -164.438E-03    -163.623E-03     328.134E-03    -164.438E-03     15.4752E-03     14.2454E+06    -52.0955E+06    -75.4736E+06    -63.1645E+06    -64.4047E+06     14.2454E+06     2.65690E+06         46.4752
             708     6.78948E-03     40.1440E-03     67.4102E-03     56.9058E-03    -186.101E-03     64.1455E-03    -184.586E-03     58.6564E-03    -22.6965E-03     327.846E-03    -163.325E-03    -164.482E-03    -163.234E-03     327.755E-03    -164.482E-03     13.0922E-03    -12.0709E+06    -77.1542E+06    -113.512E+06    -77.6820E+06    -112.985E+06    -12.0709E+06    -962.987E+03         46.0130
             709     5.94021E-03     40.1207E-03     59.1836E-03     56.8312E-03    -188.557E-03     57.1752E-03    -188.299E-03     58.5817E-03     361.950E-06     327.609E-03    -163.071E-03    -164.754E-03    -163.025E-03     327.562E-03    -164.754E-03     9.11500E-03    -27.2462E+06    -88.7750E+06    -144.749E+06    -89.6035E+06    -143.921E+06    -27.2462E+06    -3.68644E+06         45.8487
             710     5.09153E-03     40.1127E-03     64.4149E-03     58.4429E-03    -193.022E-03     62.7267E-03    -191.334E-03     58.4429E-03    -29.0300E-03     327.669E-03    -162.858E-03    -164.985E-03    -162.834E-03     327.645E-03    -164.985E-03     6.59911E-03    -44.5773E+06    -96.1478E+06    -167.349E+06    -97.4698E+06    -166.027E+06    -44.5773E+06    -708.166E+03         45.7707
             711     4.23864E-03     40.1012E-03     64.2142E-03     54.4833E-03    -186.587E-03     58.4855E-03    -184.518E-03     58.1437E-03    -13.5506E-03     328.494E-03    -163.169E-03    -165.229E-03    -163.153E-03     328.479E-03    -165.229E-03     5.36270E-03    -62.9994E+06    -105.032E+06    -192.415E+06    -106.167E+06    -191.280E+06    -62.9994E+06     1.51075E+06         45.7228
             712     3.39130E-03     40.0918E-03     63.6668E-03     45.4019E-03    -176.517E-03     47.8215E-03    -174.928E-03     59.6581E-03     34.7929E-03     329.352E-03    -163.710E-03    -165.504E-03    -163.703E-03     329.345E-03    -165.504E-03     3.51949E-03    -79.5003E+06    -112.728E+06    -211.444E+06    -112.961E+06    -211.212E+06    -79.5003E+06     1.31417E+06         45.6787
             713     2.54108E-03     40.0886E-03     69.7959E-03     49.0915E-03    -186.916E-03     49.0113E-03    -180.620E-03     63.5805E-03    -28.6135E-03     330.191E-03    -164.252E-03    -165.863E-03    -164.248E-03     330.187E-03    -165.863E-03     2.59801E-03    -100.796E+06    -120.025E+06    -236.625E+06    -120.185E+06    -236.465E+06    -100.796E+06     2.30923E+06         45.6363
             714     1.69394E-03     40.0826E-03     86.1343E-03     63.3493E-03    -224.399E-03     62.1112E-03    -204.269E-03     67.2425E-03     46.7302E-03     331.888E-03    -165.457E-03    -166.437E-03    -165.758E-03     331.883E-03    -166.131E-03     2.92162E-03    -119.672E+06    -129.184E+06    -257.397E+06    -128.765E+06    -257.263E+06    -120.224E+06     1.81726E+06         45.6026
             715     846.605E-06     40.0762E-03     118.860E-03     54.8263E-03    -259.359E-03     82.2480E-03    -222.747E-03     54.8263E-03     215.183E-03     332.583E-03    -165.953E-03    -166.634E-03    -166.627E-03     332.577E-03    -165.953E-03     2.27621E-03    -124.648E+06    -132.154E+06    -276.934E+06    -127.696E+06    -276.876E+06    -129.164E+06     525.694E+03         45.5800
             716     14.4283E-03     39.1886E-03         9.53955     112.547E-03        -12.5126        -4.14319         1.17012     112.547E-03        -3.15413     331.672E-03    -164.980E-03    -166.765E-03    -164.950E-03     329.857E-03    -164.980E-03     59.8203E-03     132.387E+06     88.0847E+06    -8.31698E+06    -8.08622E+06     87.8540E+06     132.387E+06     4.18226E+06         69.6975
             717     13.5778E-03     39.0983E-03         8.50001    -18.2857E-03        -3.71706         4.82054    -152.796E-03     96.9203E-03        -1.54917     331.863E-03    -164.936E-03    -167.020E-03    -165.426E-03     330.269E-03    -164.936E-03     55.5250E-03     117.555E+06     91.2194E+06    -17.4129E+06    -8.13829E+06     81.9448E+06     117.555E+06    -1.74569E+06         66.1306
             718     12.7317E-03     39.0507E-03         1.45139    -98.8368E-03        -3.67690        -1.94233    -398.397E-03     16.3692E-03         1.47462     330.371E-03    -163.855E-03    -166.587E-03    -164.519E-03     329.330E-03    -164.881E-03     45.3306E-03     106.619E+06     81.9304E+06    -5.22622E+06     8.71626E+06     67.9880E+06     106.619E+06    -5.05155E+06         61.9033
             719     11.8806E-03     38.9815E-03         1.48042    -71.1054E-03    -966.591E-03     601.845E-03    -219.722E-03     60.6029E-03    -88.6606E-03     331.012E-03    -163.699E-03    -167.380E-03    -165.549E-03     330.208E-03    -164.725E-03     39.6803E-03     75.2228E+06     47.5426E+06    -15.2504E+06    -8.85991E+06     41.1521E+06     75.2228E+06    -3.33816E+06         57.8993
             720     11.0354E-03     38.9277E-03     311.947E-03    -65.7592E-03    -957.910E-03    -569.231E-03    -208.440E-03     65.9490E-03    -111.358E-03     331.622E-03    -164.557E-03    -167.106E-03    -166.543E-03     331.059E-03    -164.557E-03     33.4355E-03     56.7553E+06     30.6426E+06    -36.3947E+06    -34.1929E+06     28.4407E+06     56.7553E+06    -5.56214E+06         54.4417
             721     10.1885E-03     38.8855E-03     489.428E-03     73.5013E-03    -178.408E-03     484.830E-03    -173.809E-03     73.5013E-03     36.0087E-03     329.453E-03    -163.977E-03    -165.591E-03    -164.730E-03     329.010E-03    -164.395E-03     29.4777E-03     57.1222E+06     40.8863E+06    -36.4919E+06    -35.7827E+06     40.1772E+06     57.1222E+06    -980.142E+03         51.5422
             722     9.33917E-03     38.8437E-03     225.424E-03    -67.2001E-03    -202.769E-03     77.2768E-03    -177.317E-03     55.4953E-03     37.1600E-03     328.212E-03    -163.767E-03    -164.657E-03    -163.793E-03     327.879E-03    -164.298E-03     25.4148E-03     44.5827E+06     16.6616E+06    -41.8152E+06    -40.8670E+06     15.7134E+06     44.5827E+06     3.79109E+06         49.2217
             723     8.49142E-03     38.8086E-03     66.2322E-03    -60.8993E-03    -219.229E-03    -81.1488E-03    -194.543E-03     61.7960E-03     7.00385E-03     328.308E-03    -163.939E-03    -164.377E-03    -163.840E-03     328.076E-03    -164.245E-03     21.0392E-03     27.2696E+06    -31.1326E+06    -58.4430E+06    -53.7184E+06    -35.8572E+06     27.2696E+06    -754.034E+03         47.5147
             724     7.64117E-03     38.7809E-03     81.7321E-03     68.4896E-03    -198.978E-03     79.6124E-03    -196.858E-03     68.4896E-03    -13.6654E-03     327.577E-03    -163.228E-03    -164.158E-03    -163.080E-03     327.429E-03    -164.158E-03     16.8810E-03     9.17958E+06    -60.5620E+06    -82.5701E+06    -70.7460E+06    -72.3861E+06     9.17958E+06     630.222E+03         46.4638
             725     6.79083E-03     38.7568E-03     78.7352E-03     67.1374E-03    -204.037E-03     75.8518E-03    -201.476E-03     67.4595E-03     2.70027E-03     326.638E-03    -162.284E-03    -164.307E-03    -162.177E-03     326.532E-03    -164.307E-03     14.3873E-03    -6.72335E+06    -72.6658E+06    -107.636E+06    -77.4557E+06    -102.847E+06    -6.72335E+06     5.27329E+06         45.9907
             726     5.94008E-03     38.7374E-03     70.0855E-03     63.6549E-03    -202.347E-03     64.2297E-03    -200.059E-03     67.2220E-03     34.8159E-03     326.696E-03    -162.290E-03    -164.635E-03    -162.222E-03     326.628E-03    -164.635E-03     11.2966E-03    -30.3857E+06    -88.7827E+06    -144.492E+06    -89.2954E+06    -143.979E+06    -30.3857E+06    -782.328E+03         45.8277
             727     5.08818E-03     38.7242E-03     71.6089E-03     60.2016E-03    -200.607E-03     61.3807E-03    -198.225E-03     68.0473E-03    -15.8703E-03     327.946E-03    -163.214E-03    -164.879E-03    -163.182E-03     327.914E-03    -164.879E-03     7.81656E-03    -48.7707E+06    -100.223E+06    -170.964E+06    -101.497E+06    -169.689E+06    -48.7707E+06    -746.866E+03         45.7591
             728     4.24222E-03     38.7136E-03     78.2198E-03     63.8032E-03    -209.618E-03     71.0123E-03    -207.011E-03     68.4039E-03    -3.33555E-03     328.664E-03    -163.511E-03    -165.015E-03    -163.496E-03     328.648E-03    -165.015E-03     5.45645E-03    -65.8629E+06    -106.296E+06    -191.732E+06    -107.502E+06    -190.526E+06    -65.8629E+06     2.83275E+06         45.7166
             729     3.39088E-03     38.7026E-03     80.5526E-03     66.7045E-03    -213.254E-03     78.7249E-03    -211.426E-03     66.7045E-03     37.0144E-03     329.007E-03    -163.576E-03    -165.251E-03    -163.568E-03     328.999E-03    -165.251E-03     3.79571E-03    -84.9344E+06    -113.723E+06    -214.121E+06    -114.120E+06    -213.724E+06    -84.9344E+06     1.21355E+06         45.6754
             730     2.54298E-03     38.6988E-03     76.8760E-03     64.9280E-03    -213.427E-03     66.9067E-03    -203.458E-03     64.9280E-03    -52.7275E-03     330.241E-03    -164.524E-03    -165.647E-03    -164.617E-03     330.234E-03    -165.547E-03     3.44585E-03    -100.197E+06    -119.765E+06    -233.609E+06    -119.969E+06    -233.404E+06    -100.197E+06     2.45597E+06         45.6351
             731     1.69412E-03     38.6889E-03     78.5533E-03     60.7583E-03    -219.556E-03     54.0525E-03    -202.507E-03     68.2104E-03    -27.9402E-03     331.289E-03    -165.363E-03    -165.925E-03    -165.641E-03     331.282E-03    -165.641E-03     3.54371E-03    -115.451E+06    -123.696E+06    -251.891E+06    -123.252E+06    -251.783E+06    -116.003E+06     2.38774E+06         45.6036
             732     848.257E-06     38.6815E-03     115.248E-03     56.1821E-03    -262.471E-03     79.9888E-03    -234.663E-03     63.6342E-03     150.635E-03     331.356E-03    -165.423E-03    -165.921E-03    -165.707E-03     331.352E-03    -165.633E-03     659.055E-06    -125.836E+06    -127.965E+06    -274.801E+06    -127.443E+06    -274.771E+06    -126.388E+06     84.7598E+03         45.5835
             733     14.4270E-03     37.8003E-03         36.8187        -1.10106        -84.0360        -46.8776        -1.68106     240.303E-03        -1.61722     330.912E-03    -165.001E-03    -165.878E-03    -164.072E-03     329.133E-03    -165.028E-03     58.9474E-03     134.333E+06     103.905E+06    -9.14439E+06    -1.99680E+06     96.7570E+06     134.333E+06    -16.4614E+06         69.7043
             734     13.5763E-03     37.7111E-03         36.9309     745.016E-03        -6.15136         30.6890     90.5461E-03     745.016E-03        -13.0510     331.777E-03    -165.018E-03    -166.758E-03    -165.257E-03     330.276E-03    -165.018E-03     52.9801E-03     123.377E+06     96.4705E+06    -2.53782E+06     13.4897E+06     80.4429E+06     123.377E+06    -15.8380E+06         66.1329
             735     12.7274E-03     37.6522E-03         1.46861    -33.2715E-03        -4.90060        -3.52375     91.7626E-03    -33.2715E-03     489.936E-03     332.778E-03    -164.863E-03    -167.900E-03    -167.005E-03     331.883E-03    -164.863E-03     42.1624E-03     96.8843E+06     56.0280E+06    -20.1078E+06    -6.07290E+06     41.9931E+06     96.8843E+06     2.62255E+06         61.9091
             736     11.8866E-03     37.5907E-03         1.05844    -83.4342E-03    -797.453E-03     389.770E-03    -283.828E-03     71.6151E-03    -51.5643E-03     331.882E-03    -164.693E-03    -167.312E-03    -166.476E-03     331.047E-03    -164.693E-03     40.6450E-03     77.6726E+06     44.9023E+06    -25.5571E+06    -21.3986E+06     40.7439E+06     77.6726E+06     13.5458E+06         57.9093
             737     11.0357E-03     37.5355E-03     350.112E-03    -78.9063E-03    -745.362E-03    -325.723E-03    -224.576E-03     76.1430E-03     30.1268E-03     329.625E-03    -164.295E-03    -165.530E-03    -164.743E-03     329.058E-03    -164.513E-03     33.2923E-03     61.1811E+06     48.1062E+06    -30.6418E+06    -28.6226E+06     46.0870E+06     61.1811E+06     5.63715E+06         54.4474
             738     10.1872E-03     37.4951E-03     443.297E-03     77.0087E-03    -200.704E-03     431.813E-03    -189.219E-03     77.0087E-03     64.2277E-03     329.111E-03    -164.149E-03    -165.194E-03    -164.520E-03     328.656E-03    -164.367E-03     29.9659E-03     44.3622E+06     35.2562E+06    -47.3387E+06    -46.1019E+06     34.0194E+06     44.3622E+06     2.23883E+06         51.5433
             739     9.33978E-03     37.4551E-03     155.559E-03    -32.3795E-03    -214.054E-03     45.5928E-03    -199.706E-03     63.2390E-03    -56.3063E-03     328.729E-03    -164.111E-03    -164.748E-03    -164.216E-03     328.346E-03    -164.260E-03     27.2516E-03     30.8690E+06     10.4354E+06    -59.2624E+06    -58.5894E+06      9.7624E+06     30.8690E+06     5.64578E+06         49.2228
             740     8.48910E-03     37.4212E-03     80.6209E-03    -26.5357E-03    -229.822E-03    -27.3016E-03    -217.518E-03     69.0828E-03     13.7818E-03     327.682E-03    -163.392E-03    -164.146E-03    -163.127E-03     327.416E-03    -164.146E-03     22.7208E-03     17.2680E+06    -27.7388E+06    -71.7546E+06    -66.9088E+06    -32.5847E+06     17.2680E+06     4.92944E+06         47.5165
             741     7.64106E-03     37.3923E-03     90.4379E-03     72.2877E-03    -217.076E-03     87.1699E-03    -214.739E-03     73.2189E-03     19.9353E-03     327.309E-03    -162.926E-03    -164.194E-03    -162.738E-03     327.120E-03    -164.194E-03     19.0978E-03     7.54592E+06    -59.2127E+06    -83.8191E+06    -74.0050E+06    -69.0268E+06     7.54592E+06     4.67104E+06         46.4664
             742     6.79086E-03     37.3723E-03     80.6298E-03     66.3330E-03    -211.559E-03     72.7356E-03    -209.811E-03     72.4795E-03     1.50716E-03     327.075E-03    -162.755E-03    -164.351E-03    -162.636E-03     326.956E-03    -164.351E-03     15.1433E-03    -10.4068E+06    -79.2436E+06    -107.169E+06    -83.9737E+06    -102.439E+06    -10.4068E+06     4.02677E+06         45.9953
             743     5.93901E-03     37.3509E-03     77.7825E-03     64.4914E-03    -214.678E-03     67.1553E-03    -212.511E-03     72.9516E-03     34.6262E-03     327.051E-03    -162.670E-03    -164.539E-03    -162.603E-03     326.984E-03    -164.539E-03     11.2029E-03    -29.6423E+06    -89.4822E+06    -136.874E+06    -90.3154E+06    -136.041E+06    -29.6423E+06     3.33915E+06         45.8349
             744     5.09163E-03     37.3334E-03     77.3477E-03     66.2112E-03    -215.538E-03     66.6176E-03    -212.653E-03     74.0568E-03    -11.3738E-03     327.841E-03    -163.116E-03    -164.758E-03    -163.082E-03     327.807E-03    -164.758E-03     8.07886E-03    -51.6841E+06    -99.0980E+06    -170.344E+06    -100.015E+06    -169.427E+06    -51.6841E+06     1.00708E+06         45.7647
             745     4.24100E-03     37.3243E-03     82.2942E-03     64.7476E-03    -218.775E-03     68.4652E-03    -215.615E-03     75.4167E-03    -6.49876E-03     328.654E-03    -163.647E-03    -164.874E-03    -163.626E-03     328.633E-03    -164.874E-03     6.25725E-03    -71.6111E+06    -109.212E+06    -196.030E+06    -109.749E+06    -195.493E+06    -71.6111E+06    -868.749E+03         45.7198
             746     3.39288E-03     37.3167E-03     87.7437E-03     69.4754E-03    -225.917E-03     80.4364E-03    -224.679E-03     75.5438E-03     30.4784E-03     329.380E-03    -164.136E-03    -165.160E-03    -164.316E-03     329.367E-03    -164.967E-03     5.09596E-03    -87.4680E+06    -114.009E+06    -213.533E+06    -114.436E+06    -213.106E+06    -87.4680E+06     468.523E+03         45.6823
             747     2.54313E-03     37.3044E-03     93.5988E-03     72.7609E-03    -239.298E-03     86.1152E-03    -231.814E-03     72.7609E-03    -46.4405E-03     329.949E-03    -164.662E-03    -165.320E-03    -164.945E-03     329.940E-03    -165.027E-03     4.22969E-03    -103.646E+06    -120.932E+06    -236.326E+06    -121.080E+06    -236.178E+06    -103.646E+06    -835.802E+03         45.6396
             748     1.69742E-03     37.2972E-03     104.476E-03     60.3555E-03    -246.966E-03     78.7432E-03    -228.685E-03     67.8075E-03     2.01625E-03     329.848E-03    -164.648E-03    -165.195E-03    -164.738E-03     329.839E-03    -165.096E-03     3.98785E-03    -113.772E+06    -124.988E+06    -249.177E+06    -125.075E+06    -249.091E+06    -113.772E+06     239.287E+03         45.5962
             749     847.252E-06     37.2890E-03     146.047E-03     12.3721E-03    -245.846E-03     109.731E-03    -216.983E-03     19.8241E-03     158.785E-03     330.391E-03    -164.684E-03    -165.703E-03    -164.677E-03     330.385E-03    -165.703E-03     2.38945E-03    -125.628E+06    -131.331E+06    -273.103E+06    -131.355E+06    -273.079E+06    -125.628E+06     1.70178E+06         45.5660
             750     14.4263E-03     36.4111E-03         53.5329        -1.17251        -99.3047        -44.1253        -2.98792     168.855E-03         6.38713     332.019E-03    -164.843E-03    -167.318E-03    -165.684E-03     330.411E-03    -164.869E-03     56.2230E-03     127.998E+06     109.097E+06    -34.7585E+06    -27.6615E+06     104.506E+06     125.492E+06    -22.2340E+06         69.6670
             751     13.5799E-03     36.3163E-03         43.2055     718.085E-03        -20.2349         23.2859    -315.228E-03     718.085E-03         14.4102     331.751E-03    -164.792E-03    -167.224E-03    -165.834E-03     330.361E-03    -164.792E-03     51.3697E-03     86.4347E+06     54.6516E+06    -64.7322E+06    -55.4693E+06     45.3887E+06     86.4347E+06    -10.1455E+06         66.1016
             752     12.7343E-03     36.2585E-03         1.92241     25.6473E-03        -3.31162        -1.53652     147.305E-03     25.6473E-03        -2.33576     331.014E-03    -164.679E-03    -166.590E-03    -165.719E-03     330.143E-03    -164.679E-03     41.4837E-03     59.5407E+06     25.5896E+06    -65.3599E+06    -61.0096E+06     21.2393E+06     59.5407E+06     6.13777E+06         61.8799
             753     11.8827E-03     36.1946E-03     484.391E-03     12.6782E-03    -464.649E-03     182.277E-03    -226.886E-03     77.0292E-03     139.574E-03     329.970E-03    -164.086E-03    -166.066E-03    -164.770E-03     329.164E-03    -164.577E-03     39.8521E-03     61.5415E+06     47.1055E+06    -51.1684E+06    -49.3908E+06     45.3279E+06     61.5415E+06     1.91828E+06         57.8811
             754     11.0374E-03     36.1480E-03     247.589E-03    -6.71654E-03    -412.698E-03    -47.9008E-03    -202.000E-03     78.0758E-03     143.092E-03     328.493E-03    -163.835E-03    -164.988E-03    -163.664E-03     327.878E-03    -164.544E-03     34.6053E-03     59.6712E+06     56.4343E+06    -43.7569E+06    -41.1674E+06     54.1725E+06     59.3435E+06     6.38935E+06         54.4240
             755     10.1867E-03     36.1070E-03     222.197E-03     55.7851E-03    -271.484E-03     149.120E-03    -222.638E-03     80.0164E-03     66.8833E-03     328.666E-03    -164.175E-03    -164.813E-03    -164.038E-03     328.159E-03    -164.444E-03     31.5065E-03     43.2551E+06     38.7183E+06    -51.6161E+06    -50.1251E+06     39.3194E+06     41.1630E+06     11.1233E+06         51.5269
             756     9.33738E-03     36.0611E-03     125.230E-03     41.5174E-03    -247.847E-03     76.2721E-03    -234.808E-03     77.4363E-03    -124.194E-03     328.432E-03    -163.941E-03    -164.633E-03    -163.810E-03     328.040E-03    -164.372E-03     27.5393E-03     29.6822E+06     9.66362E+06    -61.5546E+06    -61.1481E+06     11.0215E+06     27.9177E+06     4.83634E+06         49.2152
             757     8.49082E-03     36.0373E-03     101.933E-03     43.1545E-03    -238.234E-03     62.1694E-03    -233.994E-03     78.6778E-03    -29.9096E-03     327.635E-03    -163.178E-03    -164.362E-03    -162.899E-03     327.356E-03    -164.362E-03     23.3383E-03     18.0668E+06    -25.4400E+06    -70.1304E+06    -69.2077E+06    -26.3628E+06     18.0668E+06     4.20037E+06         47.5194
             758     7.63736E-03     36.0047E-03     88.2987E-03     75.2941E-03    -234.957E-03     81.6977E-03    -232.682E-03     79.6197E-03    -13.3928E-03     327.701E-03    -163.147E-03    -164.422E-03    -162.936E-03     327.491E-03    -164.422E-03     20.1409E-03     3.81984E+06    -60.9354E+06    -83.3451E+06    -76.2085E+06    -68.0720E+06     3.81984E+06     1.78661E+06         46.4833
             759     6.78868E-03     35.9822E-03     81.4670E-03     73.8861E-03    -231.198E-03     74.4542E-03    -230.332E-03     80.0326E-03    -26.3886E-03     328.280E-03    -163.893E-03    -164.512E-03    -163.762E-03     328.149E-03    -164.512E-03     15.9702E-03    -16.6212E+06    -88.1221E+06    -109.653E+06    -88.9482E+06    -108.827E+06    -16.6212E+06    -218.525E+03         46.0262
             760     5.94261E-03     35.9643E-03     83.2658E-03     74.9357E-03    -234.417E-03     77.0475E-03    -234.055E-03     80.7922E-03     9.66334E-03     328.096E-03    -163.714E-03    -164.578E-03    -163.628E-03     328.009E-03    -164.578E-03     12.8365E-03    -34.3319E+06    -95.9921E+06    -138.761E+06    -97.0819E+06    -137.671E+06    -34.3319E+06     2.58066E+06         45.8727
             761     5.09037E-03     35.9476E-03     86.1248E-03     80.3695E-03    -241.944E-03     82.8767E-03    -239.338E-03     81.0108E-03    -21.1806E-03     327.891E-03    -163.200E-03    -164.690E-03    -163.153E-03     327.844E-03    -164.690E-03     9.19999E-03    -50.7428E+06    -98.7575E+06    -165.784E+06    -99.6346E+06    -164.907E+06    -50.7428E+06     2.46513E+06         45.8021
             762     4.24065E-03     35.9359E-03     86.3728E-03     75.2746E-03    -236.776E-03     77.1938E-03    -233.665E-03     81.3430E-03    -14.1807E-03     328.861E-03    -163.906E-03    -164.859E-03    -163.997E-03     328.841E-03    -164.747E-03     6.23889E-03    -70.0094E+06    -106.661E+06    -191.486E+06    -106.860E+06    -191.286E+06    -70.0094E+06     241.089E+03         45.7505
             763     3.39226E-03     35.9248E-03     94.2581E-03     74.9747E-03    -242.428E-03     87.0453E-03    -241.284E-03     81.0431E-03     19.4706E-03     329.685E-03    -164.609E-03    -165.074E-03    -164.993E-03     329.673E-03    -164.678E-03     4.78172E-03    -89.2786E+06    -116.719E+06    -214.949E+06    -117.022E+06    -214.646E+06    -89.2786E+06    -1.47905E+06         45.6971
             764     2.54685E-03     35.9170E-03     105.542E-03     75.5799E-03    -256.336E-03     103.881E-03    -254.675E-03     75.5799E-03    -30.1308E-03     329.002E-03    -164.188E-03    -164.825E-03    -164.463E-03     328.992E-03    -164.541E-03     4.22632E-03    -104.866E+06    -121.996E+06    -235.765E+06    -122.261E+06    -235.500E+06    -104.866E+06    -591.202E+03         45.6330
             765     1.69565E-03     35.9088E-03     104.960E-03     63.5828E-03    -245.358E-03     92.7469E-03    -233.145E-03     63.5828E-03     29.3823E-03     328.484E-03    -163.761E-03    -164.713E-03    -163.751E-03     328.474E-03    -164.713E-03     4.42194E-03    -118.353E+06    -127.130E+06    -251.406E+06    -127.293E+06    -251.243E+06    -118.353E+06    -612.949E+03         45.5711
             766     847.347E-06     35.9032E-03     165.881E-03    -23.0282E-03    -214.695E-03     136.133E-03    -184.947E-03    -23.0282E-03     167.655E-03     330.033E-03    -164.354E-03    -165.680E-03    -164.620E-03     330.019E-03    -165.400E-03     5.00942E-03    -125.298E+06    -132.236E+06    -272.062E+06    -130.259E+06    -272.022E+06    -127.314E+06    -498.853E+03         45.5317
             767     14.4315E-03     35.0119E-03         96.4843         1.15352        -52.7853         42.4492         2.47907    -75.7762E-03         4.51018     331.821E-03    -164.757E-03    -167.395E-03    -165.741E-03     330.167E-03    -164.757E-03     57.1286E-03     134.696E+06     115.981E+06    -28.4302E+06    -22.8607E+06     112.917E+06     132.191E+06     14.3324E+06         69.5822
             768     13.5834E-03     34.9302E-03         17.2375    -559.638E-03        -44.4822        -26.9251    -319.563E-03    -559.638E-03         14.6546     330.713E-03    -164.677E-03    -166.357E-03    -164.863E-03     329.218E-03    -164.677E-03     53.9300E-03     88.5079E+06     52.3659E+06    -57.5283E+06    -49.8077E+06     44.6453E+06     88.5079E+06     531.114E+03         66.0119
             769     12.7317E-03     34.8635E-03         3.58146     121.850E-03        -1.77528         2.38789    -606.218E-03     146.348E-03        -1.79530     329.421E-03    -164.505E-03    -165.182E-03    -164.024E-03     328.385E-03    -164.627E-03     45.1481E-03     63.6476E+06     33.1673E+06    -55.6544E+06    -48.5641E+06     26.0771E+06     63.6476E+06    -15.9184E+06         61.8003
             770     11.8870E-03     34.8097E-03     481.528E-03     54.0550E-03    -650.949E-03    -48.0415E-03    -145.877E-03     78.5528E-03     72.6803E-03     328.300E-03    -163.558E-03    -164.852E-03    -162.998E-03     327.452E-03    -164.564E-03     40.6922E-03     48.8595E+06     43.8896E+06    -52.9411E+06    -48.8767E+06     39.8252E+06     48.8595E+06    -12.2596E+06         57.8181
             771     11.0313E-03     34.7606E-03     477.525E-03    -13.8013E-03    -344.349E-03     263.070E-03    -219.543E-03     75.8478E-03     87.0744E-03     328.233E-03    -163.705E-03    -164.782E-03    -163.117E-03     327.537E-03    -164.674E-03     36.9496E-03     38.7889E+06     35.4516E+06    -61.3416E+06    -58.7902E+06     33.2277E+06     38.4613E+06    -5.19083E+06         54.3760
             772     10.1849E-03     34.7155E-03     80.2605E-03    -67.3934E-03    -370.110E-03    -200.438E-03    -237.066E-03     80.2605E-03     78.5260E-03     328.862E-03    -164.345E-03    -164.767E-03    -163.887E-03     328.295E-03    -164.659E-03     33.2946E-03     41.4780E+06     34.3277E+06    -62.2116E+06    -60.1826E+06     34.3908E+06     39.3859E+06     2.42773E+06         51.4954
             773     9.33595E-03     34.6779E-03     158.233E-03     34.2081E-03    -245.274E-03     88.7976E-03    -233.843E-03     92.2129E-03    -82.5778E-03     328.098E-03    -163.582E-03    -164.612E-03    -163.167E-03     327.684E-03    -164.612E-03     28.4476E-03     36.3487E+06     20.0197E+06    -59.0389E+06    -58.6429E+06     21.3882E+06     34.5842E+06     4.88457E+06         49.2004
             774     8.48342E-03     34.6452E-03     155.917E-03     80.6246E-03    -238.636E-03     144.174E-03    -236.165E-03     89.8972E-03    -14.4585E-03     328.713E-03    -163.593E-03    -164.920E-03    -163.587E-03     328.408E-03    -164.619E-03     24.4268E-03     19.1040E+06    -22.8906E+06    -66.8449E+06    -66.7332E+06    -23.0023E+06     19.1040E+06     2.11156E+06         47.5234
             775     7.63801E-03     34.6195E-03     89.2837E-03     77.0632E-03    -253.603E-03     76.8168E-03    -252.035E-03     87.9615E-03    -8.55053E-03     329.048E-03    -163.969E-03    -164.888E-03    -164.060E-03     328.838E-03    -164.587E-03     20.1611E-03     307.919E+03    -64.7704E+06    -83.5641E+06    -78.2950E+06    -70.0394E+06     307.919E+03     1.39425E+06         46.5088
             776     6.78795E-03     34.5932E-03     96.0411E-03     86.7490E-03    -264.960E-03     93.4553E-03    -264.000E-03     88.3747E-03    -1.49162E-03     328.351E-03    -163.843E-03    -164.694E-03    -163.703E-03     328.212E-03    -164.694E-03     16.5124E-03    -14.5013E+06    -80.7982E+06    -108.191E+06    -83.9389E+06    -105.050E+06    -14.5013E+06    -880.182E+03         46.0684
             777     5.93705E-03     34.5756E-03     95.5375E-03     87.0418E-03    -260.220E-03     94.0188E-03    -259.343E-03     87.6831E-03     29.7825E-03     328.828E-03    -164.103E-03    -164.982E-03    -164.191E-03     328.731E-03    -164.799E-03     13.7005E-03    -33.8079E+06    -91.5310E+06    -139.626E+06    -92.8832E+06    -138.274E+06    -33.8079E+06    -934.885E+03         45.9216
             778     5.09143E-03     34.5597E-03     90.7179E-03     83.8855E-03    -255.525E-03     86.1017E-03    -254.408E-03     87.3846E-03    -928.031E-06     329.576E-03    -164.293E-03    -165.310E-03    -164.809E-03     329.522E-03    -164.739E-03     9.97219E-03    -49.8585E+06    -101.043E+06    -166.095E+06    -101.559E+06    -165.580E+06    -49.8585E+06     660.944E+03         45.8509
             779     4.24344E-03     34.5476E-03     91.8739E-03     84.6542E-03    -258.437E-03     87.6770E-03    -257.098E-03     87.5120E-03    -3.12684E-03     329.504E-03    -164.364E-03    -165.082E-03    -164.846E-03     329.478E-03    -164.574E-03     6.90566E-03    -67.1345E+06    -107.865E+06    -190.255E+06    -107.948E+06    -190.172E+06    -67.1345E+06     599.063E+03         45.7884
             780     3.39599E-03     34.5341E-03     97.9819E-03     84.0890E-03    -259.654E-03     92.2981E-03    -256.747E-03     86.8659E-03    -16.4977E-03     328.941E-03    -164.322E-03    -164.611E-03    -164.520E-03     328.926E-03    -164.398E-03     5.16822E-03    -88.4423E+06    -114.322E+06    -214.497E+06    -114.550E+06    -214.269E+06    -88.4423E+06     492.601E+03         45.7122
             781     2.54511E-03     34.5289E-03     102.096E-03     69.9387E-03    -247.839E-03     81.4480E-03    -244.492E-03     87.2396E-03    -57.5285E-03     328.464E-03    -163.836E-03    -164.603E-03    -164.220E-03     328.456E-03    -164.211E-03     3.89836E-03    -106.248E+06    -121.575E+06    -236.485E+06    -121.956E+06    -236.104E+06    -106.248E+06    -552.551E+03         45.6289
             782     1.69737E-03     34.5222E-03     101.225E-03     67.2674E-03    -241.391E-03     69.4633E-03    -237.037E-03     94.6749E-03     5.81416E-03     328.380E-03    -163.555E-03    -164.828E-03    -164.286E-03     328.373E-03    -164.090E-03     3.59557E-03    -118.921E+06    -125.605E+06    -252.200E+06    -125.834E+06    -251.971E+06    -118.921E+06    -1.07414E+06         45.5604
             783     847.836E-06     34.5125E-03     217.629E-03    -2.93442E-03    -278.377E-03     193.017E-03    -266.649E-03     9.94908E-03     133.597E-03     328.343E-03    -163.635E-03    -164.713E-03    -164.463E-03     328.331E-03    -163.873E-03     4.51276E-03    -123.735E+06    -128.921E+06    -273.779E+06    -126.953E+06    -273.731E+06    -125.751E+06    -1.16511E+06         45.5208
             784     14.4318E-03     33.6239E-03         82.3699         1.15824        -33.8366         48.3223         1.44025    -71.0474E-03        -2.78908     329.729E-03    -164.260E-03    -165.508E-03    -163.282E-03     327.946E-03    -164.704E-03     59.0916E-03     146.398E+06     117.739E+06     1.97999E+06     7.70379E+06     112.015E+06     146.398E+06     14.0195E+06         69.4660
             785     13.5808E-03     33.5400E-03         6.10492    -603.089E-03        -33.9860        -27.6670    -214.104E-03    -603.089E-03        -12.8173     328.634E-03    -163.679E-03    -165.102E-03    -162.443E-03     327.009E-03    -164.714E-03     56.0118E-03     123.331E+06     96.0272E+06     5.87193E+06     16.7291E+06     85.1700E+06     123.331E+06     12.0272E+06         65.8842
             786     12.7328E-03     33.4751E-03         4.59505     59.3484E-03        -1.63857         3.28523    -445.915E-03     176.518E-03     904.668E-03     328.159E-03    -163.426E-03    -164.884E-03    -162.263E-03     326.963E-03    -164.850E-03     48.3914E-03     80.9883E+06     46.7707E+06    -21.5610E+06    -7.16768E+06     32.3774E+06     80.9883E+06     731.029E+03         61.6857
             787     11.8783E-03     33.4197E-03     897.489E-03    -31.7822E-03        -1.24878    -292.049E-03    -176.409E-03     85.3873E-03    -99.5374E-03     329.350E-03    -163.902E-03    -165.546E-03    -163.585E-03     328.378E-03    -164.891E-03     43.4405E-03     55.9165E+06      33.789E+06    -39.2628E+06    -31.5843E+06     26.1105E+06     55.9165E+06    -4.17665E+06         57.7316
             788     11.0327E-03     33.3743E-03     891.854E-03    -63.6000E-03    -377.487E-03     588.866E-03    -217.851E-03     79.7516E-03    -74.9958E-03     329.414E-03    -164.090E-03    -165.607E-03    -164.038E-03     328.707E-03    -164.952E-03     37.3238E-03     46.4137E+06     31.7780E+06    -46.1841E+06    -44.7246E+06     30.3185E+06     46.4137E+06    -5.50964E+06         54.3155
             789     10.1804E-03     33.3197E-03     78.9078E-03    -200.568E-03    -418.782E-03    -365.912E-03    -253.438E-03     78.9078E-03     57.3586E-03     328.313E-03    -163.635E-03    -164.953E-03    -163.086E-03     327.765E-03    -164.953E-03     32.6456E-03     42.1039E+06     30.2300E+06    -54.7110E+06    -52.5705E+06     28.0894E+06     42.1039E+06    -7.38623E+06         51.4563
             790     9.33094E-03     33.2906E-03     219.311E-03    -37.4778E-03    -260.605E-03     72.7628E-03    -250.181E-03     98.6466E-03     14.6093E-03     328.636E-03    -163.658E-03    -165.049E-03    -163.340E-03     328.233E-03    -164.963E-03     28.1402E-03     31.7382E+06     15.0836E+06    -62.1394E+06    -60.9723E+06     13.9166E+06     31.7382E+06    -1.03923E+06         49.1816
             791     8.48359E-03     33.2538E-03     215.119E-03     82.3418E-03    -244.674E-03     202.190E-03    -243.858E-03     94.4543E-03     31.2509E-03     329.580E-03    -164.045E-03    -165.280E-03    -164.122E-03     329.270E-03    -164.893E-03     24.5938E-03     16.0788E+06    -23.2107E+06    -71.1117E+06    -70.3681E+06    -23.9543E+06     16.0788E+06     4.65448E+06         47.5277
             792     7.63411E-03     33.2244E-03     90.6010E-03     63.6306E-03    -250.054E-03     62.7633E-03    -249.187E-03     90.6010E-03     12.1952E-03     329.954E-03    -164.295E-03    -165.414E-03    -164.674E-03     329.740E-03    -164.821E-03     20.4813E-03     5.34707E+06    -56.1810E+06    -78.8272E+06    -71.1485E+06    -63.8598E+06     5.34707E+06     2.27114E+06         46.5399
             793     6.78646E-03     33.2076E-03     99.2927E-03     72.9628E-03    -257.834E-03     78.5578E-03    -257.197E-03     93.0608E-03     1.54477E-03     329.709E-03    -164.337E-03    -165.443E-03    -164.746E-03     329.570E-03    -164.896E-03     16.3937E-03    -8.75635E+06    -74.0558E+06    -103.510E+06    -77.4218E+06    -100.144E+06    -8.75635E+06    -1.53562E+06         46.1200
             794     5.93820E-03     33.1836E-03     106.085E-03     88.3219E-03    -270.098E-03     100.143E-03    -269.396E-03     93.5620E-03     19.3884E-03     329.391E-03    -164.208E-03    -165.394E-03    -164.561E-03     329.306E-03    -164.955E-03     12.9486E-03    -29.7749E+06    -90.5201E+06    -136.889E+06    -91.7632E+06    -135.646E+06    -29.7749E+06     174.123E+03         45.9731
             795     5.08929E-03     33.1684E-03     102.548E-03     89.7960E-03    -270.339E-03     98.9439E-03    -269.593E-03     92.6538E-03    -5.42609E-03     329.948E-03    -164.562E-03    -165.462E-03    -165.080E-03     329.886E-03    -164.883E-03     10.9618E-03    -52.4123E+06    -101.714E+06    -167.978E+06    -102.087E+06    -167.605E+06    -52.4123E+06     1.03729E+06         45.8905
             796     4.24358E-03     33.1552E-03     96.6135E-03     85.1078E-03    -260.456E-03     87.1603E-03    -258.645E-03     92.7496E-03     3.34086E-03     330.153E-03    -164.671E-03    -165.418E-03    -165.378E-03     330.112E-03    -164.671E-03     8.88109E-03    -70.0893E+06    -108.987E+06    -195.523E+06    -109.057E+06    -195.453E+06    -70.0893E+06    -2.08148E+06         45.8174
             797     3.39392E-03     33.1495E-03     96.0235E-03     79.5963E-03    -252.464E-03     76.4796E-03    -249.086E-03     95.7620E-03    -85.3227E-06     329.385E-03    -164.332E-03    -165.010E-03    -164.912E-03     329.364E-03    -164.408E-03     6.33614E-03    -84.8149E+06    -113.561E+06    -213.802E+06    -113.704E+06    -213.658E+06    -84.8149E+06    -13.1729E+03         45.7341
             798     2.54665E-03     33.1388E-03     104.754E-03     76.5982E-03    -254.855E-03     76.7282E-03    -252.735E-03     102.504E-03    -24.6637E-03     328.943E-03    -163.981E-03    -164.938E-03    -164.852E-03     328.933E-03    -164.058E-03     4.28560E-03    -104.123E+06    -118.524E+06    -234.995E+06    -118.741E+06    -234.778E+06    -104.123E+06    -109.501E+03         45.6477
             799     1.69871E-03     33.1342E-03     121.897E-03     84.9716E-03    -277.254E-03     89.9369E-03    -272.702E-03     112.379E-03     54.2268E-03     328.473E-03    -163.538E-03    -164.941E-03    -164.931E-03     328.464E-03    -163.538E-03     4.16969E-03    -119.777E+06    -125.657E+06    -254.945E+06    -125.822E+06    -254.781E+06    -119.777E+06    -2.02609E+06         45.5808
             800     852.314E-06     33.1245E-03     266.226E-03    -20.2564E-03    -312.643E-03     242.903E-03    -302.203E-03    -7.37290E-03     126.617E-03     326.686E-03    -162.808E-03    -163.879E-03    -163.869E-03     326.676E-03    -162.808E-03     4.24540E-03    -125.081E+06    -129.989E+06    -276.867E+06    -129.095E+06    -276.821E+06    -126.021E+06    -835.125E+03         45.5432
             801     14.4318E-03     32.2399E-03         12.2678     26.4928E-03        -8.61715         5.15943        -1.54124     58.9735E-03        -2.24969     328.413E-03    -163.643E-03    -164.796E-03    -161.835E-03     326.605E-03    -164.796E-03     59.2108E-03     140.854E+06     96.8732E+06     1.51317E+06     1.95541E+06     96.4310E+06     140.854E+06    -3.00686E+06         69.3509
             802     13.5801E-03     32.1499E-03         3.24064     8.60324E-03        -7.44526        -3.98880    -248.309E-03     41.0840E-03        -1.72582     327.007E-03    -162.362E-03    -164.842E-03    -160.677E-03     325.322E-03    -164.842E-03     56.7157E-03     107.608E+06     85.5792E+06    -14.6885E+06    -11.0047E+06     81.8953E+06     107.608E+06     7.50397E+06         65.7663
             803     12.7234E-03     32.0948E-03         3.25338    -53.0304E-03        -1.52843         1.62398    -71.0837E-03     119.025E-03         1.23671     327.983E-03    -163.012E-03    -165.090E-03    -161.835E-03     326.806E-03    -165.090E-03     47.9353E-03      79.619E+06     53.8342E+06    -26.8636E+06    -18.8691E+06     45.8397E+06      79.619E+06     15.3755E+06         61.5797
             804     11.8757E-03     32.0252E-03     917.098E-03    -80.8072E-03        -1.58681    -586.872E-03    -254.899E-03     91.2485E-03     5.74513E-03     329.827E-03    -164.051E-03    -165.853E-03    -163.741E-03     328.861E-03    -165.198E-03     43.3383E-03     69.1567E+06     37.0833E+06    -26.9269E+06    -22.0282E+06     32.1846E+06     69.1567E+06     7.50370E+06         57.6469
             805     11.0283E-03     31.9779E-03     915.833E-03     9.52514E-03    -305.848E-03     759.634E-03    -230.108E-03     89.9830E-03    -133.002E-03     329.746E-03    -164.202E-03    -165.921E-03    -164.171E-03     329.041E-03    -165.247E-03     37.2465E-03     60.2259E+06     38.5638E+06    -29.5551E+06    -29.0362E+06     38.0449E+06     60.2259E+06     992.588E+03         54.2520
             806     10.1801E-03     31.9400E-03     79.3914E-03    -163.060E-03    -365.255E-03    -278.586E-03    -249.730E-03     79.3914E-03    -8.11122E-03     329.055E-03    -164.134E-03    -165.268E-03    -163.584E-03     328.487E-03    -165.249E-03     33.3610E-03     44.7948E+06     31.9876E+06    -44.3675E+06    -41.9721E+06     29.5921E+06     44.7948E+06     2.70806E+06         51.4141
             807     9.32868E-03     31.8958E-03     224.683E-03    -64.0862E-03    -303.521E-03     19.4379E-03    -260.269E-03     97.9073E-03     68.4136E-03     329.418E-03    -164.168E-03    -165.362E-03    -163.825E-03     328.989E-03    -165.276E-03     28.9432E-03     31.7438E+06     11.9874E+06    -58.4034E+06    -55.3708E+06     8.95486E+06     31.7438E+06    -252.948E+03         49.1616
             808     8.48079E-03     31.8644E-03     222.712E-03     81.4640E-03    -247.715E-03     206.831E-03    -246.306E-03     95.9364E-03     12.5809E-03     330.043E-03    -164.462E-03    -165.424E-03    -164.346E-03     329.734E-03    -165.232E-03     24.6234E-03     24.0964E+06    -19.1699E+06    -62.8986E+06    -61.5828E+06    -20.4856E+06     24.0964E+06     31.1489E+03         47.5309
             809     7.63093E-03     31.8379E-03     92.5141E-03     56.9619E-03    -244.859E-03     55.7216E-03    -243.619E-03     92.5141E-03    -27.2858E-03     330.443E-03    -164.547E-03    -165.549E-03    -164.732E-03     330.229E-03    -165.150E-03     20.4673E-03     7.44735E+06    -58.3984E+06    -80.5853E+06    -72.1825E+06    -66.8011E+06     7.44735E+06    -273.459E+03         46.5687
             810     6.78459E-03     31.8102E-03     96.6231E-03     65.2711E-03    -248.528E-03     64.7738E-03    -248.030E-03     96.6231E-03    -17.5824E-03     330.894E-03    -164.977E-03    -165.845E-03    -165.490E-03     330.749E-03    -165.187E-03     16.8494E-03    -8.21495E+06    -78.6943E+06    -103.500E+06    -79.8795E+06    -102.315E+06    -8.21495E+06     589.929E+03         46.1712
             811     5.93821E-03     31.7981E-03     104.422E-03     81.4298E-03    -260.609E-03     86.0696E-03    -260.468E-03     99.6411E-03     3.41399E-03     330.480E-03    -164.829E-03    -165.892E-03    -165.463E-03     330.373E-03    -165.150E-03     14.4787E-03    -27.3538E+06    -87.2522E+06    -134.399E+06    -87.5975E+06    -134.053E+06    -27.3538E+06     2.26201E+06         46.0296
             812     5.08918E-03     31.7765E-03     109.174E-03     91.7902E-03    -278.485E-03     99.5670E-03    -277.879E-03     100.791E-03    -15.1226E-03     329.839E-03    -164.537E-03    -165.478E-03    -164.854E-03     329.772E-03    -165.093E-03     11.3143E-03    -48.8731E+06    -97.2673E+06    -167.271E+06    -97.2910E+06    -167.247E+06    -48.8731E+06    -267.064E+03         45.9384
             813     4.23895E-03     31.7640E-03     108.219E-03     95.2112E-03    -279.531E-03     100.405E-03    -277.561E-03     101.056E-03     4.89771E-03     330.076E-03    -164.767E-03    -165.364E-03    -165.082E-03     330.041E-03    -165.014E-03     8.22072E-03    -67.4200E+06    -105.635E+06    -193.105E+06    -105.693E+06    -193.046E+06    -67.4200E+06    -1.82977E+06         45.8576
             814     3.39437E-03     31.7553E-03     112.024E-03     88.5359E-03    -273.950E-03     96.0384E-03    -271.354E-03     101.925E-03     7.42962E-03     330.463E-03    -164.725E-03    -165.678E-03    -165.644E-03     330.440E-03    -164.737E-03     6.62514E-03    -86.2597E+06    -116.182E+06    -217.111E+06    -116.304E+06    -216.989E+06    -86.2597E+06    -2.98619E+06         45.7732
             815     2.54624E-03     31.7511E-03     111.729E-03     93.9247E-03    -278.536E-03     101.280E-03    -277.102E-03     102.940E-03    -25.8630E-03     329.822E-03    -164.297E-03    -165.403E-03    -165.386E-03     329.805E-03    -164.297E-03     5.67860E-03    -102.171E+06    -122.473E+06    -236.149E+06    -122.548E+06    -236.074E+06    -102.171E+06    -1.27394E+06         45.6927
             816     1.69824E-03     31.7426E-03     112.148E-03     97.0690E-03    -284.048E-03     104.866E-03    -282.327E-03     102.631E-03     22.9939E-03     328.581E-03    -163.822E-03    -164.746E-03    -164.651E-03     328.568E-03    -163.904E-03     4.70207E-03    -117.511E+06    -127.725E+06    -256.194E+06    -127.777E+06    -256.142E+06    -117.511E+06     42.9087E+03         45.6319
             817     847.772E-06     31.7422E-03     244.684E-03    -37.5926E-03    -277.065E-03     236.730E-03    -274.262E-03    -32.4418E-03     59.1785E-03     327.598E-03    -163.282E-03    -164.310E-03    -164.219E-03     327.589E-03    -163.365E-03     3.72967E-03    -127.910E+06    -135.234E+06    -278.486E+06    -131.335E+06    -278.428E+06    -131.867E+06    -662.908E+03         45.5971
             818     14.4286E-03     30.8479E-03         2.88103    -27.4801E-03        -2.76232     423.606E-03    -416.744E-03     84.3661E-03     7.97392E-03     328.237E-03    -163.220E-03    -165.089E-03    -161.349E-03     326.297E-03    -165.019E-03     61.3705E-03     136.190E+06     89.7878E+06    -3.02174E+06    -2.56291E+06     89.3290E+06     136.190E+06     3.51147E+06         69.2484
             819     13.5732E-03     30.7725E-03         2.05763    -21.5616E-03        -2.48218    -403.137E-03    -133.260E-03     90.2846E-03    -156.753E-03     329.134E-03    -163.741E-03    -165.518E-03    -162.298E-03     327.359E-03    -165.186E-03     58.3912E-03     102.631E+06      67.402E+06    -25.6996E+06    -24.2061E+06     65.9085E+06     102.631E+06     7.70175E+06         65.6745
             820     12.7268E-03     30.7003E-03         2.05055    -81.8422E-03        -1.28831     770.804E-03    -173.615E-03     83.2126E-03     80.0003E-03     329.632E-03    -164.064E-03    -165.612E-03    -163.156E-03     328.462E-03    -165.351E-03     47.9554E-03     83.8145E+06     57.9157E+06    -28.5120E+06    -26.6793E+06     56.0829E+06     83.8145E+06     3.10709E+06         61.5004
             821     11.8762E-03     30.6426E-03     545.928E-03    -75.5718E-03        -1.38379    -731.397E-03    -271.521E-03     89.4831E-03     94.9937E-03     328.571E-03    -163.309E-03    -165.340E-03    -162.365E-03     327.627E-03    -165.340E-03     42.9043E-03     65.1163E+06     46.2965E+06    -29.8794E+06    -28.8009E+06     45.2181E+06     65.1163E+06     3.11776E+06         57.5765
             822     11.0217E-03     30.5894E-03     651.114E-03     92.1558E-03    -263.901E-03     625.691E-03    -244.791E-03     98.4699E-03    -45.5448E-03     328.695E-03    -163.614E-03    -165.508E-03    -162.935E-03     327.998E-03    -165.489E-03     36.9183E-03     44.0653E+06     29.1062E+06    -43.8344E+06    -43.4343E+06     28.7061E+06     44.0653E+06     4.66282E+06         54.1919
             823     10.1731E-03     30.5485E-03     180.832E-03    -78.9483E-03    -312.126E-03    -66.4684E-03    -228.406E-03     84.6330E-03    -104.107E-03     330.298E-03    -165.070E-03    -165.608E-03    -164.534E-03     329.743E-03    -165.589E-03     33.0645E-03     45.0375E+06     31.0648E+06    -48.8556E+06    -47.3775E+06     29.5867E+06     45.0375E+06     4.77036E+06         51.3712
             824     9.32737E-03     30.5080E-03     184.066E-03    -59.7292E-03    -317.045E-03    -44.5278E-03    -245.718E-03     97.5381E-03     41.7202E-03     330.366E-03    -164.931E-03    -165.581E-03    -164.485E-03     329.919E-03    -165.581E-03     29.5673E-03     41.2988E+06     21.8818E+06    -53.0388E+06    -50.8195E+06     19.6625E+06     41.2988E+06     2.84043E+06         49.1400
             825     8.47705E-03     30.4741E-03     189.339E-03     91.9148E-03    -257.558E-03     178.334E-03    -254.791E-03     100.153E-03     9.02321E-03     330.517E-03    -164.828E-03    -165.602E-03    -164.618E-03     330.200E-03    -165.495E-03     24.9141E-03     21.8670E+06    -25.1221E+06    -66.8163E+06    -65.5113E+06    -26.4271E+06     21.8670E+06    -2.31860E+06         47.5316
             826     7.63188E-03     30.4435E-03     99.9380E-03     79.3473E-03    -264.867E-03     80.3834E-03    -263.245E-03     97.2797E-03    -44.0168E-03     330.783E-03    -164.894E-03    -165.551E-03    -164.775E-03     330.558E-03    -165.444E-03     21.0258E-03     10.2614E+06    -60.1867E+06    -75.3737E+06    -69.9771E+06    -65.5834E+06     10.2614E+06     540.726E+03         46.5917
             827     6.78141E-03     30.4233E-03     101.359E-03     84.3646E-03    -269.585E-03     86.0544E-03    -269.007E-03     99.0910E-03    -2.21850E-03     331.081E-03    -165.147E-03    -165.808E-03    -165.264E-03     330.919E-03    -165.529E-03     17.7423E-03    -4.83977E+06    -73.5981E+06    -99.8990E+06    -75.5275E+06    -97.9697E+06    -4.83977E+06     702.723E+03         46.2143
             828     5.93265E-03     30.3993E-03     103.481E-03     81.1826E-03    -260.442E-03     82.9403E-03    -259.932E-03     101.213E-03     23.6003E-03     331.641E-03    -165.497E-03    -166.295E-03    -166.191E-03     331.537E-03    -165.497E-03     14.1446E-03    -25.6141E+06    -86.2552E+06    -137.949E+06    -86.8159E+06    -137.388E+06    -25.6141E+06    -1.44167E+06         46.0844
             829     5.08848E-03     30.3899E-03     104.972E-03     75.9865E-03    -260.894E-03     75.3552E-03    -260.263E-03     104.972E-03     394.780E-06     330.891E-03    -165.152E-03    -165.992E-03    -165.692E-03     330.827E-03    -165.388E-03     11.0342E-03    -43.3099E+06    -94.7568E+06    -166.289E+06    -94.8588E+06    -166.187E+06    -43.3099E+06    -1.59489E+06         45.9911
             830     4.24149E-03     30.3755E-03     112.290E-03     93.9157E-03    -284.846E-03     95.9153E-03    -283.285E-03     108.730E-03     15.5254E-03     330.078E-03    -164.845E-03    -165.399E-03    -164.891E-03     330.040E-03    -165.314E-03     8.55295E-03    -65.4065E+06    -106.484E+06    -192.746E+06    -106.567E+06    -192.664E+06    -65.4065E+06    -2.19338E+06         45.9040
             831     3.39029E-03     30.3653E-03     123.495E-03     107.784E-03    -305.655E-03     120.090E-03    -303.077E-03     108.611E-03    -6.46959E-03     330.428E-03    -164.842E-03    -165.491E-03    -165.168E-03     330.405E-03    -165.142E-03     6.65967E-03    -86.2264E+06    -115.047E+06    -217.602E+06    -115.127E+06    -217.523E+06    -86.2264E+06    -2.09258E+06         45.8250
             832     2.54421E-03     30.3593E-03     119.164E-03     104.824E-03    -298.644E-03     117.113E-03    -297.004E-03     105.235E-03    -41.2253E-03     330.514E-03    -164.863E-03    -165.491E-03    -165.409E-03     330.498E-03    -164.929E-03     5.51894E-03    -102.516E+06    -121.991E+06    -240.125E+06    -122.073E+06    -240.044E+06    -102.516E+06    -2.15184E+06         45.7608
             833     1.69643E-03     30.3575E-03     107.658E-03     96.7653E-03    -282.531E-03     97.9623E-03    -281.123E-03     105.053E-03     18.1627E-03     329.900E-03    -164.698E-03    -165.188E-03    -165.096E-03     329.890E-03    -164.780E-03     4.18645E-03    -116.054E+06    -128.109E+06    -256.128E+06    -128.178E+06    -256.059E+06    -116.054E+06    -1.12958E+06         45.7144
             834     849.147E-06     30.3520E-03     222.102E-03    -5.80273E-03    -289.224E-03     211.725E-03    -286.724E-03     2.07412E-03     58.5233E-03     329.607E-03    -164.423E-03    -165.183E-03    -165.048E-03     329.603E-03    -164.554E-03     2.56626E-03    -124.014E+06    -131.897E+06    -279.918E+06    -128.946E+06    -279.852E+06    -127.030E+06    -1.08494E+06         45.6907
             835     14.4177E-03     29.4670E-03         2.12425    -65.5106E-03        -1.82559     259.196E-03    -106.890E-03     80.8479E-03     73.0232E-03     329.223E-03    -163.591E-03    -165.752E-03    -162.407E-03     327.480E-03    -165.192E-03     58.2624E-03     130.040E+06     83.5425E+06    -12.4483E+06    -11.8584E+06     82.9526E+06     130.040E+06     7.02038E+06         69.1536
             836     13.5723E-03     29.3740E-03         1.36544    -73.8776E-03        -1.95146    -491.484E-03    -261.887E-03     93.4703E-03     81.5606E-03     330.380E-03    -164.289E-03    -166.129E-03    -163.544E-03     328.813E-03    -165.307E-03     54.9858E-03     109.724E+06     73.9596E+06    -18.1536E+06    -16.1404E+06     71.9464E+06     109.724E+06     5.54048E+06         65.5934
             837     12.7226E-03     29.3133E-03         1.36047    -23.3750E-03    -696.612E-03     790.939E-03    -238.959E-03     88.5076E-03    -156.155E-03     328.683E-03    -163.055E-03    -165.741E-03    -162.159E-03     327.525E-03    -165.479E-03     47.6281E-03     90.9841E+06     67.2670E+06    -16.7766E+06    -13.4642E+06     63.9545E+06     90.9841E+06     2.97232E+06         61.4252
             838     11.8713E-03     29.2526E-03     186.708E-03    -88.0315E-03    -752.161E-03    -502.261E-03    -237.683E-03     86.4606E-03     38.4087E-03     328.590E-03    -163.181E-03    -165.546E-03    -162.185E-03     327.594E-03    -165.546E-03     44.0414E-03     64.7640E+06     45.7671E+06    -33.4547E+06    -30.7886E+06     43.1011E+06     64.7640E+06     7.68996E+06         57.5069
             839     11.0235E-03     29.2042E-03     412.113E-03     37.8040E-03    -313.521E-03     283.712E-03    -247.729E-03     100.413E-03     70.1284E-03     329.297E-03    -163.984E-03    -165.714E-03    -163.264E-03     328.577E-03    -165.714E-03     37.5204E-03     46.7341E+06     31.2664E+06    -47.9073E+06    -46.9725E+06     30.3316E+06     46.7341E+06     6.23745E+06         54.1361
             840     10.1731E-03     29.1520E-03     303.547E-03    -49.2920E-03    -276.418E-03     122.745E-03    -237.003E-03     92.0954E-03    -94.7487E-03     329.998E-03    -164.575E-03    -165.849E-03    -164.044E-03     329.467E-03    -165.849E-03     32.2605E-03     46.4119E+06     32.6474E+06    -49.5177E+06    -49.0624E+06     32.1921E+06     46.4119E+06    -3.49346E+06         51.3314
             841     9.32256E-03     29.1184E-03     138.769E-03    -44.2466E-03    -285.904E-03    -40.2560E-03    -248.266E-03     97.1408E-03     28.0403E-03     330.655E-03    -164.997E-03    -165.896E-03    -164.577E-03     330.235E-03    -165.896E-03     28.8402E-03     40.3120E+06     16.4216E+06    -56.5361E+06    -55.9125E+06     15.7980E+06     40.3120E+06    -2.00180E+06         49.1175
             842     8.47700E-03     29.0783E-03     151.898E-03     100.982E-03    -275.439E-03     147.829E-03    -271.370E-03     100.982E-03     47.8096E-03     330.739E-03    -164.789E-03    -165.798E-03    -164.464E-03     330.414E-03    -165.798E-03     25.2040E-03     24.5165E+06    -23.5660E+06    -62.4557E+06    -60.4385E+06    -25.5832E+06     24.5165E+06    -1.06747E+06         47.5285
             843     7.62559E-03     29.0567E-03     107.842E-03     90.4741E-03    -275.095E-03     98.9498E-03    -274.283E-03     98.5546E-03    -10.0225E-03     331.282E-03    -164.975E-03    -165.882E-03    -164.859E-03     331.045E-03    -165.761E-03     21.6682E-03     12.2325E+06    -58.3873E+06    -70.5086E+06    -65.6142E+06    -63.2817E+06     12.2325E+06    -2.25836E+06         46.6124
             844     6.77942E-03     29.0275E-03     101.424E-03     86.9052E-03    -269.744E-03     88.6653E-03    -269.236E-03     99.1561E-03     11.9902E-03     332.008E-03    -165.698E-03    -166.181E-03    -165.816E-03     331.837E-03    -165.892E-03     18.2328E-03    -3.43076E+06    -76.2629E+06    -100.984E+06    -79.0217E+06    -98.2248E+06    -3.43076E+06     897.975E+03         46.2552
             845     5.93475E-03     29.0087E-03     102.774E-03     89.1051E-03    -267.357E-03     90.6602E-03    -266.644E-03     100.507E-03     31.4981E-03     331.584E-03    -165.465E-03    -166.234E-03    -165.673E-03     331.480E-03    -165.923E-03     14.1313E-03    -23.7391E+06    -88.2255E+06    -137.058E+06    -89.2850E+06    -135.998E+06    -23.7391E+06    -1.32658E+06         46.1319
             846     5.08492E-03     28.9928E-03     103.733E-03     82.7967E-03    -264.262E-03     81.9292E-03    -262.615E-03     102.953E-03    -5.87904E-03     331.252E-03    -165.328E-03    -166.115E-03    -165.479E-03     331.175E-03    -165.888E-03     12.2058E-03    -46.6644E+06    -98.9291E+06    -167.222E+06    -99.1041E+06    -167.047E+06    -46.6644E+06    -1.49266E+06         46.0402
             847     4.23745E-03     28.9854E-03     107.425E-03     88.8045E-03    -272.089E-03     86.8333E-03    -269.338E-03     106.646E-03     10.9512E-03     331.475E-03    -165.426E-03    -166.096E-03    -165.694E-03     331.419E-03    -165.773E-03     10.3683E-03    -68.9125E+06    -107.637E+06    -194.658E+06    -107.756E+06    -194.539E+06    -68.9125E+06    -777.370E+03         45.9610
             848     3.39179E-03     28.9735E-03     113.862E-03     102.150E-03    -288.411E-03     105.017E-03    -286.492E-03     109.077E-03     12.1517E-03     331.085E-03    -165.161E-03    -165.868E-03    -165.368E-03     331.055E-03    -165.630E-03     7.56166E-03    -85.9508E+06    -112.753E+06    -216.610E+06    -112.764E+06    -216.598E+06    -85.9508E+06    -321.835E+03         45.8976
             849     2.54180E-03     28.9674E-03     123.591E-03     105.289E-03    -302.546E-03     120.767E-03    -301.732E-03     107.299E-03    -6.62112E-03     331.074E-03    -165.356E-03    -165.667E-03    -165.377E-03     331.059E-03    -165.631E-03     5.20978E-03    -104.846E+06    -119.806E+06    -240.569E+06    -119.833E+06    -240.543E+06    -104.846E+06    -946.390E+03         45.8468
             850     1.69443E-03     28.9641E-03     125.570E-03     98.0269E-03    -300.494E-03     117.846E-03    -295.496E-03     100.753E-03     72.1601E-03     331.520E-03    -165.618E-03    -165.886E-03    -165.841E-03     331.512E-03    -165.655E-03     3.61092E-03    -117.628E+06    -124.402E+06    -258.793E+06    -124.466E+06    -258.729E+06    -117.628E+06    -2.60073E+06         45.8140
             851     847.211E-06     28.9624E-03     188.816E-03     9.75642E-03    -271.878E-03     180.325E-03    -266.113E-03     12.4824E-03     82.2505E-03     331.563E-03    -165.523E-03    -166.038E-03    -165.715E-03     331.559E-03    -165.844E-03     2.35076E-03    -123.752E+06    -128.376E+06    -283.634E+06    -128.459E+06    -283.550E+06    -123.752E+06    -2.77614E+06         45.8076
             852     14.4262E-03     28.0681E-03         1.31771     15.8039E-03        -1.01969     439.351E-03    -208.317E-03     82.7969E-03    -333.165E-03     328.778E-03    -163.374E-03    -165.667E-03    -162.199E-03     327.112E-03    -165.177E-03     56.7559E-03     128.081E+06     81.8130E+06    -11.6299E+06    -11.2322E+06     81.4153E+06     128.081E+06     2.38089E+06         69.0560
             853     13.5751E-03     27.9862E-03     522.227E-03    -16.8845E-03        -1.13507    -464.908E-03    -254.505E-03     89.6865E-03     62.0732E-03     328.348E-03    -162.512E-03    -165.880E-03    -161.372E-03     326.718E-03    -165.389E-03     55.8674E-03     110.259E+06      75.791E+06    -12.3587E+06    -11.0430E+06     74.4754E+06     110.259E+06     97.3178E+03         65.4924
             854     12.7216E-03     27.9258E-03     670.978E-03     49.4353E-03    -391.912E-03     474.021E-03    -239.755E-03     94.2356E-03     36.5310E-03     328.681E-03    -163.094E-03    -165.660E-03    -161.936E-03     327.501E-03    -165.638E-03     47.9529E-03     84.1409E+06     55.7227E+06    -28.6322E+06    -26.0369E+06     53.1274E+06     84.1409E+06     6.72609E+06         61.3338
             855     11.8686E-03     27.8644E-03     258.980E-03    -79.9411E-03    -398.635E-03    -81.7009E-03    -225.615E-03     87.7203E-03    -66.9776E-03     329.702E-03    -164.016E-03    -165.787E-03    -163.087E-03     328.751E-03    -165.764E-03     43.1458E-03     72.5128E+06     45.2444E+06    -37.4917E+06    -35.1834E+06     42.9360E+06     72.5128E+06     11.8535E+06         57.4351
             856     11.0193E-03     27.8066E-03     282.629E-03    -44.7266E-03    -375.057E-03     21.2549E-03    -255.132E-03     96.7230E-03     87.0761E-03     329.641E-03    -164.009E-03    -165.927E-03    -163.306E-03     328.938E-03    -165.927E-03     37.0843E-03     69.1373E+06     48.8356E+06    -30.2154E+06    -29.0057E+06     47.6259E+06     69.1373E+06     2.00548E+06         54.0817
             857     10.1707E-03     27.7667E-03     281.186E-03     12.6468E-03    -261.772E-03     197.004E-03    -260.223E-03     95.2794E-03    -29.4964E-03     329.607E-03    -163.915E-03    -166.017E-03    -163.347E-03     329.039E-03    -166.017E-03     33.3859E-03     49.1776E+06     38.6646E+06    -41.9793E+06    -40.6207E+06     37.3060E+06     49.1776E+06    -1.91424E+06         51.2924
             858     9.32263E-03     27.7199E-03     105.926E-03     8.35775E-03    -258.736E-03     15.8225E-03    -254.868E-03     94.5929E-03     4.07909E-03     330.110E-03    -164.182E-03    -166.141E-03    -163.723E-03     329.652E-03    -166.141E-03     29.9539E-03     37.5628E+06     11.9061E+06    -52.8382E+06    -51.5034E+06     10.5713E+06     37.5628E+06    -1.26115E+06         49.0941
             859     8.47191E-03     27.6923E-03     115.715E-03     89.8484E-03    -261.454E-03     105.004E-03    -258.648E-03     97.7532E-03     27.5116E-03     331.104E-03    -164.688E-03    -166.138E-03    -164.359E-03     330.775E-03    -166.138E-03     25.4089E-03     33.5009E+06    -15.5112E+06    -56.7274E+06    -54.2251E+06    -18.0135E+06     33.5009E+06    -1.39958E+06         47.5224
             860     7.62523E-03     27.6602E-03     104.581E-03     81.8105E-03    -258.863E-03     87.3437E-03    -257.767E-03     97.9514E-03    -12.2583E-03     331.808E-03    -165.145E-03    -166.251E-03    -165.012E-03     331.554E-03    -166.130E-03     22.4080E-03     6.45242E+06    -58.6498E+06    -84.2678E+06    -74.2649E+06    -68.6527E+06     6.45242E+06    -17.3216E+03         46.6241
             861     6.77787E-03     27.6349E-03     99.8225E-03     80.8237E-03    -261.290E-03     79.7523E-03    -260.219E-03     99.8225E-03    -14.7128E-03     331.693E-03    -165.234E-03    -166.462E-03    -165.152E-03     331.490E-03    -166.342E-03     19.9372E-03    -12.1948E+06    -83.6243E+06    -110.243E+06    -84.6733E+06    -109.194E+06    -12.1948E+06     668.258E+03         46.2813
             862     5.92816E-03     27.6150E-03     103.475E-03     94.2091E-03    -276.245E-03     95.4751E-03    -275.577E-03     101.541E-03     15.1573E-03     331.720E-03    -165.377E-03    -166.527E-03    -165.239E-03     331.583E-03    -166.527E-03     16.3452E-03    -23.6558E+06    -85.7207E+06    -133.610E+06    -86.3919E+06    -132.939E+06    -23.6558E+06     793.944E+03         46.1768
             863     5.08128E-03     27.6047E-03     109.207E-03     101.353E-03    -288.590E-03     107.067E-03    -286.622E-03     101.525E-03    -17.3224E-03     332.264E-03    -165.807E-03    -166.602E-03    -165.719E-03     332.176E-03    -166.602E-03     13.1457E-03    -44.9400E+06    -95.7909E+06    -164.599E+06    -95.9577E+06    -164.432E+06    -44.9400E+06     1.61263E+06         46.1113
             864     4.23398E-03     27.5874E-03     110.828E-03     96.7142E-03    -282.105E-03     103.297E-03    -278.663E-03     100.803E-03     1.19465E-03     332.907E-03    -166.070E-03    -166.742E-03    -166.252E-03     332.851E-03    -166.504E-03     10.4672E-03    -64.6371E+06    -103.004E+06    -190.659E+06    -103.153E+06    -190.510E+06    -64.6371E+06     2.74473E+06         46.0550
             865     3.38671E-03     27.5826E-03     105.689E-03     94.0418E-03    -269.326E-03     94.2733E-03    -265.281E-03     101.412E-03    -215.041E-06     332.973E-03    -166.008E-03    -166.898E-03    -166.546E-03     332.941E-03    -166.327E-03     7.96013E-03    -85.9767E+06    -111.900E+06    -216.950E+06    -111.940E+06    -216.910E+06    -85.9767E+06     1.29990E+06         46.0056
             866     2.54090E-03     27.5743E-03     113.003E-03     87.3035E-03    -274.122E-03     93.1448E-03    -271.061E-03     104.100E-03    -35.3849E-03     332.534E-03    -165.931E-03    -166.618E-03    -166.247E-03     332.517E-03    -166.285E-03     5.73576E-03    -104.682E+06    -117.909E+06    -239.104E+06    -117.937E+06    -239.076E+06    -104.682E+06    -448.283E+03         45.9584
             867     1.69384E-03     27.5699E-03     130.053E-03     82.5319E-03    -294.701E-03     100.267E-03    -290.224E-03     107.841E-03     37.2048E-03     332.553E-03    -166.150E-03    -166.401E-03    -166.143E-03     332.546E-03    -166.401E-03     3.54146E-03    -115.758E+06    -121.578E+06    -260.305E+06    -121.602E+06    -260.281E+06    -115.758E+06    -1.67583E+06         45.9286
             868     846.643E-06     27.5683E-03     187.243E-03     37.0407E-03    -305.655E-03     170.708E-03    -300.914E-03     48.8347E-03     55.4200E-03     333.214E-03    -166.398E-03    -166.837E-03    -166.396E-03     333.211E-03    -166.837E-03     1.84073E-03    -120.940E+06    -127.183E+06    -289.036E+06    -125.251E+06    -288.979E+06    -122.930E+06    -1.15698E+06         45.9280
             869     14.4241E-03     26.6881E-03     646.824E-03    -3.81534E-03    -699.351E-03     170.185E-03    -313.924E-03     87.3966E-03    -118.011E-03     326.733E-03    -161.637E-03    -165.183E-03    -159.760E-03     324.856E-03    -165.183E-03     60.0859E-03     128.403E+06     82.4017E+06    -5.37492E+06    -5.15107E+06     82.1779E+06     128.403E+06     856.898E+03         68.9534
             870     13.5659E-03     26.6024E-03     449.581E-03    -5.44584E-03    -549.800E-03     11.0892E-03    -204.287E-03     87.5331E-03    -24.1528E-03     328.367E-03    -162.817E-03    -165.531E-03    -161.082E-03     326.632E-03    -165.531E-03     57.5306E-03     105.318E+06     67.6695E+06    -17.5316E+06    -16.7579E+06     66.8958E+06     105.318E+06     2.61867E+06         65.3867
             871     12.7163E-03     26.5358E-03     399.203E-03    -699.300E-06    -521.175E-03     21.1307E-03    -236.081E-03     92.2797E-03     80.9429E-03     330.704E-03    -164.857E-03    -165.788E-03    -163.759E-03     329.583E-03    -165.765E-03     46.8202E-03     81.4271E+06     44.4257E+06    -35.6345E+06    -34.5931E+06     43.3843E+06     81.4271E+06     2.84861E+06         61.2446
             872     11.8725E-03     26.4727E-03     398.416E-03    -50.1083E-03    -322.905E-03     180.736E-03    -246.826E-03     91.4922E-03    -67.6173E-03     329.667E-03    -163.816E-03    -165.851E-03    -162.956E-03     328.785E-03    -165.829E-03     41.6027E-03     78.4469E+06     49.7432E+06    -31.7727E+06    -31.0243E+06     48.9949E+06     78.4469E+06    -769.053E+03         57.3679
             873     11.0201E-03     26.4201E-03     178.397E-03    -48.3750E-03    -316.566E-03    -31.9901E-03    -247.780E-03     93.2254E-03     13.0560E-03     328.130E-03    -162.381E-03    -166.047E-03    -161.642E-03     327.391E-03    -166.047E-03     37.8884E-03     70.2687E+06     54.6392E+06    -28.1627E+06    -26.0514E+06     52.5279E+06     70.2687E+06     1.54029E+06         54.0283
             874     10.1691E-03     26.3725E-03     180.635E-03     73.6678E-03    -262.949E-03     157.045E-03    -261.154E-03     95.4635E-03    -18.8017E-03     329.045E-03    -163.098E-03    -166.229E-03    -162.463E-03     328.410E-03    -166.229E-03     35.1562E-03     47.6001E+06     40.1179E+06    -43.1108E+06    -40.7076E+06     37.7147E+06     47.6001E+06     5.51384E+06         51.2520
             875     9.31760E-03     26.3326E-03     94.3710E-03     64.6332E-03    -259.289E-03     62.5735E-03    -257.230E-03     94.3710E-03    -24.3478E-03     329.972E-03    -163.663E-03    -166.422E-03    -163.156E-03     329.465E-03    -166.422E-03     31.5207E-03     37.1720E+06     18.0524E+06    -54.3476E+06    -52.9618E+06     16.6667E+06     37.1720E+06     3.32411E+06         49.0697
             876     8.46975E-03     26.2945E-03     96.6571E-03     81.5295E-03    -250.873E-03     80.8266E-03    -250.170E-03     96.6571E-03     4.18845E-03     331.273E-03    -164.485E-03    -166.489E-03    -164.105E-03     330.893E-03    -166.489E-03     27.3203E-03     27.3024E+06    -22.3485E+06    -66.7077E+06    -63.8633E+06    -25.1929E+06     27.3024E+06     2.39153E+06         47.5156
             877     7.62183E-03     26.2678E-03     98.3757E-03     82.9168E-03    -255.891E-03     81.9192E-03    -254.894E-03     98.3757E-03    -15.3608E-03     331.851E-03    -164.904E-03    -166.621E-03    -164.611E-03     331.559E-03    -166.621E-03     24.0545E-03     7.47069E+06    -57.8551E+06    -81.5326E+06    -71.6220E+06    -67.7658E+06     7.47069E+06     3.49459E+06         46.6340
             878     6.77177E-03     26.2415E-03     100.092E-03     88.1371E-03    -269.611E-03     87.0915E-03    -268.565E-03     100.092E-03    -14.8417E-03     331.748E-03    -164.849E-03    -166.945E-03    -164.628E-03     331.528E-03    -166.945E-03     20.8134E-03    -11.0009E+06    -73.9146E+06    -106.351E+06    -75.7912E+06    -104.474E+06    -11.0009E+06     275.615E+03         46.3072
             879     5.92371E-03     26.2212E-03     103.430E-03     97.3251E-03    -278.782E-03     99.1566E-03    -278.190E-03     101.007E-03     13.0764E-03     332.810E-03    -165.759E-03    -167.204E-03    -165.618E-03     332.669E-03    -167.204E-03     16.5596E-03    -25.2751E+06    -82.8443E+06    -137.344E+06    -83.1122E+06    -137.076E+06    -25.2751E+06    -2.54675E+06         46.2277
             880     5.07765E-03     26.2043E-03     108.487E-03     100.553E-03    -283.626E-03     107.221E-03    -282.360E-03     100.553E-03    -11.8776E-03     333.849E-03    -166.627E-03    -167.336E-03    -166.542E-03     333.765E-03    -167.336E-03     12.9139E-03    -39.3399E+06    -91.6644E+06    -164.474E+06    -91.9158E+06    -164.222E+06    -39.3399E+06    -250.129E+03         46.1962
             881     4.23116E-03     26.1966E-03     112.131E-03     98.9792E-03    -282.538E-03     109.026E-03    -279.433E-03     98.9792E-03     13.2939E-03     334.192E-03    -166.813E-03    -167.283E-03    -166.761E-03     334.139E-03    -167.283E-03     10.1237E-03    -56.3272E+06    -99.7035E+06    -188.929E+06    -99.8866E+06    -188.746E+06    -56.3272E+06     3.36314E+06         46.1630
             882     3.38437E-03     26.1841E-03     105.718E-03     96.4643E-03    -273.461E-03     99.6476E-03    -268.662E-03     97.7357E-03    -1.59645E-03     334.420E-03    -166.885E-03    -167.480E-03    -167.190E-03     334.393E-03    -167.147E-03     7.33693E-03    -79.3553E+06    -108.275E+06    -213.603E+06    -108.392E+06    -213.486E+06    -79.3553E+06     2.72386E+06         46.1198
             883     2.53897E-03     26.1805E-03     101.078E-03     84.2155E-03    -262.877E-03     81.2793E-03    -259.601E-03     100.738E-03    -47.7289E-03     334.390E-03    -166.834E-03    -167.594E-03    -167.356E-03     334.377E-03    -167.058E-03     5.20121E-03    -99.2588E+06    -114.921E+06    -237.546E+06    -115.024E+06    -237.442E+06    -99.2588E+06     1.61764E+06         46.0764
             884     1.69187E-03     26.1760E-03     113.899E-03     84.5679E-03    -282.570E-03     80.9987E-03    -276.715E-03     111.613E-03     37.3132E-03     334.045E-03    -166.814E-03    -167.240E-03    -167.010E-03     334.039E-03    -167.036E-03     3.41067E-03    -114.095E+06    -121.770E+06    -259.945E+06    -121.707E+06    -259.836E+06    -114.266E+06     1.40527E+06         46.0470
             885     845.841E-06     26.1721E-03     186.481E-03     58.3153E-03    -332.168E-03     168.199E-03    -325.680E-03     70.1092E-03     66.0935E-03     334.342E-03    -167.038E-03    -167.318E-03    -167.139E-03     334.339E-03    -167.214E-03     1.86193E-03    -122.368E+06    -128.008E+06    -290.114E+06    -125.870E+06    -290.091E+06    -124.528E+06     1.26515E+06         46.0381
             886     14.4171E-03     25.3014E-03     506.842E-03    -53.8302E-03    -620.886E-03    -39.0705E-03    -215.948E-03     87.1436E-03     85.9570E-03     327.847E-03    -162.652E-03    -165.367E-03    -161.195E-03     326.240E-03    -165.217E-03     55.7468E-03     128.130E+06     77.6461E+06    -9.75377E+06    -9.60229E+06     77.4947E+06     128.130E+06     2.70251E+06         68.8637
             887     13.5714E-03     25.2156E-03     507.066E-03    -33.2085E-03    -415.051E-03     196.999E-03    -225.560E-03     87.3677E-03    -24.6113E-03     329.013E-03    -163.439E-03    -165.607E-03    -162.198E-03     327.622E-03    -165.458E-03     51.7386E-03     107.969E+06     67.9278E+06    -17.8174E+06    -17.6712E+06     67.7815E+06     107.969E+06     2.30012E+06         65.3079
             888     12.7225E-03     25.1416E-03     241.208E-03    -31.4023E-03    -423.878E-03    -70.1790E-03    -233.068E-03     89.1740E-03     9.52959E-03     327.874E-03    -162.166E-03    -165.689E-03    -161.112E-03     326.820E-03    -165.689E-03     45.2841E-03     84.0350E+06     54.7780E+06    -18.4756E+06    -17.6665E+06     55.5851E+06     82.4188E+06    -4.77191E+06         61.1729
             889     11.8692E-03     25.0834E-03     243.796E-03     20.9030E-03    -248.488E-03     165.427E-03    -240.978E-03     91.7623E-03     11.4341E-03     327.510E-03    -161.635E-03    -165.884E-03    -160.634E-03     326.509E-03    -165.884E-03     44.0655E-03     64.4195E+06     43.3974E+06    -28.2208E+06    -26.7900E+06     43.5829E+06     62.8033E+06    -4.43006E+06         57.3015
             890     11.0166E-03     25.0377E-03     106.195E-03     14.4367E-03    -251.154E-03     23.3922E-03    -245.592E-03     91.6770E-03    -15.9672E-03     328.350E-03    -162.336E-03    -166.283E-03    -161.466E-03     327.480E-03    -166.283E-03     41.2021E-03     57.9146E+06     42.7862E+06    -41.0312E+06    -38.8608E+06     40.6157E+06     57.9146E+06     7.77833E+06         53.9742
             891     10.1639E-03     24.9830E-03     108.772E-03     80.4697E-03    -249.904E-03     93.9296E-03    -248.845E-03     94.2537E-03     3.56656E-03     329.111E-03    -162.870E-03    -166.525E-03    -162.191E-03     328.432E-03    -166.525E-03     36.3561E-03     51.6623E+06     42.5600E+06    -45.8229E+06    -44.2376E+06     40.9747E+06     51.6623E+06     7.89690E+06         51.2134
             892     9.31576E-03     24.9420E-03     95.1095E-03     76.2083E-03    -252.142E-03     75.2268E-03    -251.160E-03     95.1095E-03    -2.34186E-03     330.064E-03    -163.378E-03    -166.762E-03    -162.861E-03     329.547E-03    -166.762E-03     31.8959E-03     37.8691E+06     18.8592E+06    -51.2029E+06    -50.6968E+06     18.3531E+06     37.8691E+06     4.00547E+06         49.0468
             893     8.46506E-03     24.9016E-03     99.4561E-03     82.2254E-03    -262.369E-03     84.3947E-03    -261.689E-03     96.6069E-03     7.99682E-03     331.217E-03    -163.929E-03    -166.950E-03    -163.532E-03     330.820E-03    -166.950E-03     27.8892E-03     25.2178E+06    -27.0591E+06    -60.3169E+06    -57.0858E+06    -30.2902E+06     25.2178E+06     127.334E+03         47.5106
             894     7.61578E-03     24.8738E-03     104.284E-03     91.6242E-03    -273.495E-03     97.4180E-03    -272.182E-03     97.1761E-03    -21.4643E-03     332.243E-03    -164.598E-03    -167.199E-03    -164.321E-03     331.966E-03    -167.199E-03     23.3749E-03     18.0350E+06    -56.2182E+06    -70.1643E+06    -62.3846E+06    -63.9979E+06     18.0350E+06    -940.265E+03         46.6533
             895     6.76875E-03     24.8465E-03     102.730E-03     93.6702E-03    -275.770E-03     98.2251E-03    -274.626E-03     97.0307E-03    -9.00322E-03     333.094E-03    -165.472E-03    -167.538E-03    -165.269E-03     332.891E-03    -167.538E-03     20.0075E-03    -993.986E+03    -70.8703E+06    -98.1145E+06    -73.8511E+06    -95.1337E+06    -993.986E+03     4.27622E+06         46.3495
             896     5.92169E-03     24.8251E-03     98.9691E-03     93.7072E-03    -267.939E-03     94.8678E-03    -267.169E-03     97.0385E-03     27.1844E-03     333.864E-03    -166.161E-03    -167.735E-03    -166.024E-03     333.728E-03    -167.735E-03     16.4026E-03    -26.1523E+06    -85.6331E+06    -137.934E+06    -86.9199E+06    -136.648E+06    -26.1523E+06     1.65602E+06         46.2804
             897     5.07358E-03     24.8082E-03     98.6283E-03     92.7568E-03    -263.839E-03     92.0509E-03    -262.102E-03     97.5973E-03    -8.69108E-03     334.805E-03    -166.869E-03    -167.890E-03    -166.792E-03     334.728E-03    -167.890E-03     12.1400E-03    -42.6536E+06    -95.1060E+06    -167.813E+06    -95.4488E+06    -167.470E+06    -42.6536E+06    -1.64782E+06         46.2570
             898     4.22809E-03     24.7957E-03     105.784E-03     95.5842E-03    -274.490E-03     100.211E-03    -271.118E-03     97.7853E-03     13.6090E-03     335.320E-03    -167.343E-03    -167.877E-03    -167.300E-03     335.277E-03    -167.877E-03     9.27801E-03    -59.3978E+06    -102.496E+06    -191.433E+06    -102.674E+06    -191.256E+06    -59.3978E+06    -546.002E+03         46.2316
             899     3.38278E-03     24.7882E-03     110.117E-03     96.1561E-03    -281.534E-03     107.103E-03    -278.520E-03     96.1561E-03     20.5521E-03     335.387E-03    -167.547E-03    -167.827E-03    -167.530E-03     335.359E-03    -167.817E-03     7.23809E-03    -78.6693E+06    -110.165E+06    -213.178E+06    -110.300E+06    -213.044E+06    -78.6693E+06     1.70848E+06         46.1908
             900     2.53577E-03     24.7811E-03     111.546E-03     90.3443E-03    -278.191E-03     108.169E-03    -276.550E-03     92.0800E-03    -32.5459E-03     335.767E-03    -167.677E-03    -168.101E-03    -168.011E-03     335.756E-03    -167.756E-03     4.52074E-03    -98.5030E+06    -118.330E+06    -237.108E+06    -118.455E+06    -236.983E+06    -98.5030E+06     3.06054E+06         46.1545
             901     1.69244E-03     24.7780E-03     109.715E-03     83.4338E-03    -271.027E-03     101.827E-03    -264.875E-03     85.1695E-03     35.5561E-03     335.605E-03    -167.556E-03    -168.035E-03    -168.023E-03     335.602E-03    -167.565E-03     2.41323E-03    -111.779E+06    -122.414E+06    -255.964E+06    -122.361E+06    -255.845E+06    -111.951E+06     3.37980E+06         46.1347
             902     846.138E-06     24.7759E-03     164.408E-03     6.28251E-03    -249.620E-03     155.498E-03    -240.711E-03     6.28251E-03     43.3651E-03     335.140E-03    -167.410E-03    -167.716E-03    -167.704E-03     335.137E-03    -167.418E-03     2.15346E-03    -123.551E+06    -128.420E+06    -283.709E+06    -128.226E+06    -283.592E+06    -123.862E+06     3.59667E+06         46.1247
             903     14.4296E-03     23.9117E-03     209.216E-03    -9.72939E-03    -289.678E-03     26.7684E-03    -201.464E-03     84.5046E-03     23.3642E-03     328.726E-03    -163.797E-03    -165.237E-03    -162.290E-03     327.069E-03    -165.087E-03     56.3177E-03     131.305E+06     78.7473E+06    -12.3053E+06    -12.2530E+06     78.6950E+06     131.305E+06    -707.934E+03         68.7929
             904     13.5778E-03     23.8232E-03     193.398E-03    -4.77893E-03    -242.965E-03     91.4847E-03    -231.710E-03     85.8790E-03     305.614E-06     327.244E-03    -161.806E-03    -165.547E-03    -160.273E-03     325.561E-03    -165.397E-03     56.5162E-03     116.950E+06     74.8076E+06    -8.42581E+06    -8.25028E+06     74.6320E+06     116.950E+06     1.78904E+06         65.2346
             905     12.7209E-03     23.7637E-03     126.052E-03     21.6306E-03    -243.327E-03     48.4408E-03    -230.956E-03     86.8708E-03    -1.64581E-03     325.685E-03    -159.941E-03    -165.769E-03    -158.712E-03     324.456E-03    -165.769E-03     48.5668E-03     84.3977E+06     58.8468E+06    -16.3709E+06    -13.5761E+06     57.6682E+06     82.7815E+06     5.49677E+06         61.1053
             906     11.8621E-03     23.7025E-03     110.607E-03     61.1898E-03    -240.796E-03     79.4893E-03    -236.832E-03     88.3431E-03     5.67695E-03     326.666E-03    -160.709E-03    -166.023E-03    -159.723E-03     325.680E-03    -166.023E-03     43.5760E-03     57.3448E+06     41.3917E+06    -37.4026E+06    -34.1268E+06     39.7322E+06     55.7286E+06     4.15478E+06         57.2466
             907     11.0122E-03     23.6424E-03     95.1797E-03     64.7785E-03    -240.265E-03     69.2395E-03    -238.832E-03     89.2857E-03    -2.43335E-03     328.618E-03    -162.438E-03    -166.467E-03    -161.669E-03     327.850E-03    -166.467E-03     38.6071E-03     50.6886E+06     35.1436E+06    -50.1566E+06    -48.1109E+06     33.0978E+06     50.6886E+06    -2.71305E+06         53.9323
             908     10.1644E-03     23.5957E-03     90.9133E-03     67.7598E-03    -238.086E-03     67.3939E-03    -237.720E-03     90.9133E-03     8.64238E-03     329.166E-03    -162.745E-03    -166.764E-03    -162.124E-03     328.545E-03    -166.764E-03     34.8831E-03     53.8123E+06     41.6573E+06    -46.9994E+06    -45.3662E+06     40.0241E+06     53.8123E+06    -585.929E+03         51.1836
             909     9.31160E-03     23.5493E-03     92.6031E-03     74.3899E-03    -244.103E-03     74.2683E-03    -243.981E-03     92.6031E-03     8.48670E-03     329.932E-03    -163.061E-03    -167.001E-03    -162.561E-03     329.432E-03    -167.001E-03     31.2737E-03     41.2620E+06     19.6463E+06    -50.1842E+06    -49.7329E+06     19.1950E+06     41.2620E+06     1.69756E+06         49.0275
             910     8.46301E-03     23.5129E-03     96.8416E-03     78.2195E-03    -255.805E-03     80.5965E-03    -255.333E-03     93.9925E-03     4.19582E-03     331.386E-03    -163.727E-03    -167.247E-03    -163.375E-03     331.034E-03    -167.247E-03     26.2084E-03     30.4775E+06    -21.4156E+06    -56.7503E+06    -54.5488E+06    -23.6171E+06     30.4775E+06    -2.10931E+06         47.5040
             911     7.61409E-03     23.4800E-03     101.836E-03     86.3594E-03    -265.216E-03     92.0158E-03    -263.765E-03     94.7290E-03    -25.6326E-03     332.571E-03    -164.562E-03    -167.533E-03    -164.312E-03     332.322E-03    -167.533E-03     22.2303E-03     18.9924E+06    -56.8137E+06    -72.6949E+06    -65.1060E+06    -64.4026E+06     18.9924E+06    -995.297E+03         46.6661
             912     6.76582E-03     23.4536E-03     100.754E-03     87.3731E-03    -265.457E-03     91.7886E-03    -264.174E-03     95.0550E-03    -30.3901E-03     333.738E-03    -165.869E-03    -167.907E-03    -165.684E-03     333.553E-03    -167.907E-03     19.0567E-03    -453.763E+03    -77.9943E+06    -100.662E+06    -79.6185E+06    -99.0380E+06    -453.763E+03     2.34973E+06         46.3788
             913     5.91826E-03     23.4302E-03     97.4338E-03     89.4010E-03    -262.482E-03     90.3412E-03    -261.646E-03     95.6578E-03     10.6713E-03     334.516E-03    -166.484E-03    -168.118E-03    -166.367E-03     334.400E-03    -168.118E-03     15.0530E-03    -19.7293E+06    -84.2508E+06    -131.367E+06    -86.0199E+06    -129.598E+06    -19.7293E+06     6.62452E+06         46.3085
             914     5.07337E-03     23.4104E-03     99.3739E-03     91.8505E-03    -264.567E-03     89.2304E-03    -259.264E-03     96.6910E-03    -34.8414E-03     335.185E-03    -166.862E-03    -168.226E-03    -166.796E-03     335.119E-03    -168.226E-03     11.3443E-03    -43.6365E+06    -93.7071E+06    -166.612E+06    -94.5924E+06    -165.727E+06    -43.6365E+06     1.92666E+06         46.2785
             915     4.22685E-03     23.4006E-03     103.990E-03     95.3074E-03    -274.290E-03     95.4103E-03    -267.954E-03     97.5510E-03    -25.6246E-03     335.926E-03    -167.572E-03    -168.259E-03    -167.553E-03     335.891E-03    -168.243E-03     8.20050E-03    -64.3768E+06    -105.217E+06    -194.448E+06    -105.426E+06    -194.238E+06    -64.3768E+06    -1.82038E+06         46.2536
             916     3.38016E-03     23.3896E-03     111.225E-03     96.2739E-03    -283.936E-03     108.067E-03    -280.820E-03     96.3164E-03    -2.59049E-03     336.118E-03    -167.919E-03    -168.212E-03    -167.926E-03     336.100E-03    -168.187E-03     5.91266E-03    -81.3084E+06    -112.420E+06    -214.311E+06    -112.535E+06    -214.196E+06    -81.3084E+06     1.21395E+06         46.2141
             917     2.53653E-03     23.3822E-03     115.628E-03     88.4966E-03    -277.141E-03     110.000E-03    -274.866E-03     91.8494E-03    -48.5490E-03     336.109E-03    -167.772E-03    -168.354E-03    -167.905E-03     336.099E-03    -168.213E-03     4.14030E-03    -99.9865E+06    -118.757E+06    -236.889E+06    -118.795E+06    -236.851E+06    -99.9865E+06     1.21422E+06         46.1827
             918     1.68985E-03     23.3791E-03     108.278E-03     76.6569E-03    -257.187E-03     97.3892E-03    -255.659E-03     86.0189E-03    -1.86957E-03     336.451E-03    -167.924E-03    -168.519E-03    -168.196E-03     336.446E-03    -168.243E-03     2.85203E-03    -113.251E+06    -123.299E+06    -253.973E+06    -123.321E+06    -253.950E+06    -113.251E+06     1.13389E+06         46.1757
             919     845.678E-06     23.3803E-03     187.566E-03    -16.2232E-03    -240.888E-03     176.835E-03    -236.166E-03    -10.2140E-03     19.4873E-03     336.663E-03    -168.104E-03    -168.555E-03    -168.552E-03     336.660E-03    -168.104E-03     2.51763E-03    -119.679E+06    -125.995E+06    -276.593E+06    -126.015E+06    -276.433E+06    -119.819E+06     1.18305E+06         46.1772
             920     14.4237E-03     22.5239E-03     121.882E-03     29.2712E-03    -220.259E-03     67.3733E-03    -218.357E-03     81.8790E-03    -29.5466E-03     325.688E-03    -160.679E-03    -165.069E-03    -158.764E-03     323.773E-03    -165.069E-03     60.4351E-03     124.499E+06     77.1108E+06    -4.53206E+06    -4.38044E+06     76.9592E+06     124.499E+06    -2.60231E+06         68.7477
             921     13.5670E-03     22.4446E-03     106.018E-03     30.3307E-03    -224.641E-03     50.4697E-03    -221.969E-03     83.2073E-03    -5.78511E-03     326.596E-03    -161.194E-03    -165.500E-03    -159.329E-03     324.732E-03    -165.500E-03     59.4443E-03     102.604E+06     67.8590E+06    -15.9509E+06    -15.5104E+06     67.4185E+06     102.604E+06     3.08665E+06         65.1786
             922     12.7153E-03     22.3771E-03     107.119E-03     57.0136E-03    -230.679E-03     78.0166E-03    -228.871E-03     84.3078E-03     332.764E-06     328.666E-03    -162.732E-03    -165.870E-03    -161.579E-03     327.512E-03    -165.870E-03     47.2354E-03     82.5894E+06     51.8586E+06    -36.1861E+06    -33.5168E+06     49.1893E+06     82.5894E+06     8.77023E+06         61.0644
             923     11.8699E-03     22.3156E-03     91.0829E-03     58.3074E-03    -231.067E-03     63.0693E-03    -229.935E-03     85.1890E-03    -13.7672E-03     328.458E-03    -162.425E-03    -166.031E-03    -161.583E-03     327.616E-03    -166.031E-03     40.5361E-03     77.5610E+06     53.0434E+06    -33.8596E+06    -30.7669E+06     49.9507E+06     77.5610E+06     6.18161E+06         57.2276
             924     11.0159E-03     22.2544E-03     92.1499E-03     70.6958E-03    -229.375E-03     76.2977E-03    -229.083E-03     86.2559E-03    -607.175E-06     327.242E-03    -161.239E-03    -166.360E-03    -160.564E-03     326.566E-03    -166.360E-03     36.2608E-03     61.7504E+06     46.7602E+06    -31.9384E+06    -29.6802E+06     44.5020E+06     61.7504E+06    -2.38284E+06         53.9193
             925     10.1618E-03     22.2045E-03     89.9814E-03     72.2325E-03    -239.730E-03     74.7851E-03    -239.335E-03     87.0330E-03    -13.8204E-03     328.393E-03    -162.077E-03    -166.731E-03    -161.523E-03     327.839E-03    -166.731E-03     32.8408E-03     44.7157E+06     32.1879E+06    -48.8941E+06    -46.8632E+06     30.1570E+06     44.7157E+06    -5.23882E+06         51.1692
             926     9.31291E-03     22.1593E-03     95.2819E-03     80.3651E-03    -253.321E-03     87.4619E-03    -252.519E-03     87.3837E-03     11.1841E-03     329.511E-03    -162.690E-03    -167.005E-03    -162.256E-03     329.077E-03    -167.005E-03     29.0913E-03     44.3318E+06     21.6299E+06    -55.4192E+06    -54.4142E+06     20.6249E+06     44.3318E+06    -1.48508E+06         49.0122
             927     8.46236E-03     22.1167E-03     92.4686E-03     76.4038E-03    -248.989E-03     80.6343E-03    -248.269E-03     87.5186E-03     28.7746E-03     330.918E-03    -163.361E-03    -167.231E-03    -163.048E-03     330.605E-03    -167.231E-03     24.7117E-03     28.7198E+06    -19.6009E+06    -62.7371E+06    -61.7393E+06    -20.5987E+06     28.7198E+06     497.129E+03         47.4876
             928     7.61337E-03     22.0869E-03     88.7172E-03     70.0938E-03    -236.994E-03     69.4587E-03    -236.359E-03     88.7172E-03     16.9309E-03     332.715E-03    -164.827E-03    -167.562E-03    -164.606E-03     332.494E-03    -167.562E-03     20.8466E-03     11.5382E+06    -61.0872E+06    -76.8586E+06    -71.1496E+06    -66.7962E+06     11.5382E+06    -606.295E+03         46.6488
             929     6.76523E-03     22.0548E-03     91.1442E-03     67.5167E-03    -234.774E-03     66.4815E-03    -233.739E-03     91.1442E-03     7.84532E-03     333.617E-03    -165.938E-03    -167.916E-03    -165.787E-03     333.466E-03    -167.916E-03     17.1862E-03    -3.49403E+06    -78.8969E+06    -103.790E+06    -79.4754E+06    -103.212E+06    -3.49403E+06    -2.19140E+06         46.3590
             930     5.92031E-03     22.0308E-03     94.0326E-03     80.7043E-03    -248.800E-03     77.7591E-03    -245.520E-03     93.6976E-03     34.6178E-03     334.183E-03    -166.293E-03    -168.112E-03    -166.205E-03     334.095E-03    -168.112E-03     13.1019E-03    -19.1193E+06    -84.3160E+06    -133.054E+06    -85.1295E+06    -132.240E+06    -19.1193E+06     1.23689E+06         46.2864
             931     5.07142E-03     22.0141E-03     99.8060E-03     93.8668E-03    -267.441E-03     91.5131E-03    -260.332E-03     95.0503E-03    -15.7143E-03     334.984E-03    -166.670E-03    -168.275E-03    -166.616E-03     334.931E-03    -168.275E-03     10.1801E-03    -40.8404E+06    -91.2749E+06    -164.027E+06    -92.1598E+06    -163.142E+06    -40.8404E+06     2.75338E+06         46.2598
             932     4.22569E-03     21.9987E-03     104.611E-03     94.8966E-03    -275.766E-03     98.3009E-03    -269.499E-03     94.9391E-03    -20.8240E-03     336.042E-03    -167.596E-03    -168.362E-03    -167.582E-03     336.013E-03    -168.346E-03     7.36428E-03    -61.1158E+06    -101.500E+06    -192.361E+06    -101.760E+06    -192.102E+06    -61.1158E+06     1.07761E+06         46.2373
             933     3.38211E-03     21.9893E-03     103.969E-03     92.7320E-03    -275.263E-03     97.9134E-03    -270.540E-03     94.0655E-03     26.1849E-03     336.185E-03    -167.894E-03    -168.268E-03    -167.898E-03     336.173E-03    -168.253E-03     4.85309E-03    -77.5687E+06    -108.588E+06    -212.631E+06    -108.694E+06    -212.524E+06    -77.5687E+06     1.30106E+06         46.1978
             934     2.53443E-03     21.9837E-03     99.2172E-03     89.4203E-03    -263.101E-03     91.0168E-03    -259.545E-03     94.0641E-03     12.4745E-03     335.942E-03    -167.655E-03    -168.352E-03    -167.649E-03     335.936E-03    -168.352E-03     3.14336E-03    -96.2187E+06    -115.421E+06    -235.321E+06    -115.452E+06    -235.289E+06    -96.2187E+06     897.817E+03         46.1688
             935     1.68893E-03     21.9794E-03     99.1044E-03     87.8023E-03    -257.517E-03     86.7014E-03    -254.476E-03     97.1643E-03     53.5462E-03     336.637E-03    -168.043E-03    -168.619E-03    -168.049E-03     336.634E-03    -168.609E-03     1.93608E-03    -114.481E+06    -123.370E+06    -253.435E+06    -123.376E+06    -253.429E+06    -114.481E+06    -349.922E+03         46.1629
             936     843.636E-06     21.9755E-03     190.653E-03     12.9404E-03    -272.342E-03     180.618E-03    -268.316E-03     18.9495E-03     65.7501E-03     337.685E-03    -168.578E-03    -169.110E-03    -168.984E-03     337.683E-03    -168.702E-03     877.232E-06    -124.093E+06    -130.088E+06    -279.035E+06    -127.971E+06    -278.963E+06    -126.283E+06    -2.73158E+06         46.1688
             937     14.4206E-03     21.1474E-03     78.3974E-03     58.6782E-03    -212.714E-03     57.2679E-03    -211.304E-03     78.3974E-03    -10.3835E-03     326.205E-03    -160.602E-03    -165.589E-03    -159.203E-03     324.388E-03    -165.171E-03     59.2934E-03     121.134E+06     74.7887E+06    -7.05380E+06    -6.47888E+06     74.2138E+06     121.134E+06     2.39395E+06         68.7609
             938     13.5684E-03     21.0539E-03     79.2894E-03     63.7088E-03    -219.085E-03     61.8074E-03    -217.183E-03     79.2894E-03     4.54331E-03     328.502E-03    -162.806E-03    -165.917E-03    -161.722E-03     326.999E-03    -165.498E-03     53.4788E-03     93.8754E+06     58.7150E+06    -27.1998E+06    -26.4693E+06     57.9845E+06     93.8754E+06     101.048E+03         65.2040
             939     12.7200E-03     20.9849E-03     80.0614E-03     66.6960E-03    -220.250E-03     65.1716E-03    -218.725E-03     80.0614E-03     23.1060E-03     328.545E-03    -162.816E-03    -165.752E-03    -161.805E-03     327.534E-03    -165.752E-03     44.4842E-03     77.1493E+06     52.0423E+06    -34.0122E+06    -32.1181E+06     50.1481E+06     77.1493E+06    -6.38615E+06         61.0909
             940     11.8688E-03     20.9218E-03     80.8385E-03     66.9855E-03    -220.053E-03     65.7198E-03    -218.787E-03     80.8385E-03     16.9601E-03     328.694E-03    -162.818E-03    -165.947E-03    -161.903E-03     327.779E-03    -165.947E-03     42.2976E-03     73.6936E+06     52.8845E+06    -30.6283E+06    -28.4710E+06     50.7272E+06     73.6936E+06    -5.18416E+06         57.2453
             941     11.0178E-03     20.8733E-03     83.2838E-03     73.2836E-03    -228.046E-03     74.1288E-03    -227.003E-03     81.3956E-03     19.0532E-03     328.744E-03    -162.838E-03    -166.212E-03    -162.122E-03     328.028E-03    -166.212E-03     37.3866E-03     72.2176E+06     52.8603E+06    -26.5239E+06    -24.0055E+06     50.3419E+06     72.2176E+06     7.59532E+06         53.9304
             942     10.1667E-03     20.8142E-03     86.3356E-03     75.4509E-03    -237.375E-03     79.3884E-03    -236.475E-03     81.4991E-03    -7.66280E-03     328.586E-03    -162.336E-03    -166.431E-03    -161.830E-03     328.079E-03    -166.431E-03     31.3405E-03     54.7286E+06     41.0245E+06    -34.9535E+06    -32.9074E+06     38.9783E+06     54.7286E+06     4.51172E+06         51.1721
             943     9.31574E-03     20.7673E-03     89.2945E-03     73.5731E-03    -241.638E-03     80.6334E-03    -240.800E-03     81.3962E-03    -440.992E-06     328.931E-03    -162.200E-03    -166.651E-03    -161.836E-03     328.568E-03    -166.651E-03     26.6264E-03     45.1689E+06     18.5953E+06    -46.8671E+06    -46.1097E+06     17.8379E+06     45.1689E+06    -1.32697E+06         49.0020
             944     8.46431E-03     20.7265E-03     87.6088E-03     74.9697E-03    -240.415E-03     80.7706E-03    -239.916E-03     81.3091E-03     17.3951E-03     330.577E-03    -163.417E-03    -166.864E-03    -163.151E-03     330.311E-03    -166.864E-03     22.7331E-03     29.3824E+06    -21.2209E+06    -59.4290E+06    -58.7139E+06    -21.9360E+06     29.3824E+06     1.59105E+06         47.4607
             945     7.61598E-03     20.6856E-03     83.4524E-03     71.4828E-03    -231.475E-03     72.6685E-03    -230.945E-03     81.7366E-03     6.01774E-03     332.395E-03    -164.977E-03    -167.167E-03    -164.811E-03     332.229E-03    -167.167E-03     17.9414E-03     11.5157E+06    -56.5025E+06    -78.1857E+06    -67.8771E+06    -66.8111E+06     11.5157E+06    -783.838E+03         46.5990
             946     6.76978E-03     20.6576E-03     86.7130E-03     67.0398E-03    -228.845E-03     69.1090E-03    -227.186E-03     82.9854E-03    -1.70514E-03     332.564E-03    -165.291E-03    -167.466E-03    -165.186E-03     332.459E-03    -167.466E-03     14.3018E-03    -5.12050E+06    -75.5356E+06    -104.921E+06    -75.8960E+06    -104.561E+06    -5.12050E+06    -1.68242E+06         46.2871
             947     5.91955E-03     20.6333E-03     92.1381E-03     74.6942E-03    -240.250E-03     78.6764E-03    -236.164E-03     84.0701E-03     33.3689E-03     333.067E-03    -165.625E-03    -167.651E-03    -165.560E-03     333.002E-03    -167.651E-03     11.0982E-03    -25.6752E+06    -87.1654E+06    -140.007E+06    -87.6826E+06    -139.490E+06    -25.6752E+06    -3.45834E+06         46.2087
             948     5.07480E-03     20.6152E-03     93.4819E-03     82.7014E-03    -249.623E-03     88.3644E-03    -245.689E-03     83.8850E-03     14.2158E-03     334.341E-03    -166.415E-03    -167.857E-03    -166.383E-03     334.309E-03    -167.857E-03     7.81292E-03    -40.1872E+06    -93.6182E+06    -164.833E+06    -94.4653E+06    -163.986E+06    -40.1872E+06     988.795E+03         46.1808
             949     4.22778E-03     20.5989E-03     93.4955E-03     75.9429E-03    -246.819E-03     83.1379E-03    -243.872E-03     83.3538E-03     6.86829E-03     334.813E-03    -166.751E-03    -167.914E-03    -166.736E-03     334.797E-03    -167.914E-03     5.23040E-03    -59.0961E+06    -99.6039E+06    -186.888E+06    -100.112E+06    -186.380E+06    -59.0961E+06     3.64442E+06         46.1512
             950     3.38023E-03     20.5878E-03     90.4770E-03     68.1759E-03    -238.983E-03     69.5708E-03    -235.126E-03     85.2257E-03     43.3457E-03     335.290E-03    -167.264E-03    -167.936E-03    -167.258E-03     335.284E-03    -167.936E-03     3.06235E-03    -79.3194E+06    -110.566E+06    -214.193E+06    -110.630E+06    -214.129E+06    -79.3194E+06    -254.975E+03         46.1136
             951     2.53641E-03     20.5845E-03     91.2148E-03     73.9036E-03    -243.286E-03     69.3416E-03    -238.224E-03     90.7144E-03    -495.560E-06     335.854E-03    -167.740E-03    -168.141E-03    -167.829E-03     335.852E-03    -168.050E-03     1.71363E-03    -94.3217E+06    -117.404E+06    -234.040E+06    -117.479E+06    -233.965E+06    -94.3217E+06     1.18157E+06         46.0855
             952     1.69091E-03     20.5795E-03     101.025E-03     82.9328E-03    -262.088E-03     79.9078E-03    -257.123E-03     99.0847E-03     4.39997E-03     336.100E-03    -167.853E-03    -168.244E-03    -167.996E-03     336.100E-03    -168.101E-03     942.738E-06    -111.891E+06    -122.163E+06    -250.494E+06    -122.204E+06    -250.453E+06    -111.891E+06     1.10635E+06         46.0675
             953     845.607E-06     20.5760E-03     182.724E-03     28.2535E-03    -284.496E-03     170.600E-03    -281.352E-03     37.2335E-03    -16.6976E-03     336.525E-03    -168.076E-03    -168.444E-03    -168.279E-03     336.524E-03    -168.241E-03     222.586E-06    -124.445E+06    -131.326E+06    -280.758E+06    -129.185E+06    -280.710E+06    -126.634E+06     304.778E+03         46.0620
             954     14.4212E-03     19.7540E-03     72.7489E-03     52.0660E-03    -201.072E-03     51.5107E-03    -200.516E-03     72.7489E-03     2.02968E-03     329.770E-03    -163.672E-03    -166.263E-03    -163.144E-03     328.080E-03    -165.102E-03     57.5037E-03     128.662E+06     77.1653E+06    -12.6908E+06    -12.1151E+06     76.5896E+06     128.662E+06     5.40402E+06         68.8385
             955     13.5774E-03     19.6641E-03     73.6034E-03     55.3397E-03    -203.325E-03     54.2295E-03    -202.215E-03     73.6034E-03     10.3974E-03     328.767E-03    -163.151E-03    -165.756E-03    -162.119E-03     327.317E-03    -165.337E-03     52.7934E-03     108.963E+06     66.5627E+06    -15.2548E+06    -14.7016E+06     66.0096E+06     108.963E+06    -1.08662E+06         65.2977
             956     12.7228E-03     19.6008E-03     75.9735E-03     62.7455E-03    -211.775E-03     62.6406E-03    -209.980E-03     74.2841E-03     14.9760E-03     326.900E-03    -161.489E-03    -165.593E-03    -160.466E-03     325.877E-03    -165.593E-03     44.6145E-03     81.5449E+06     57.4584E+06    -15.5766E+06    -14.0637E+06     55.9455E+06     81.5449E+06    -6.73752E+06         61.1681
             957     11.8663E-03     19.5379E-03     79.8419E-03     68.4512E-03    -223.795E-03     72.2374E-03    -222.217E-03     74.4768E-03     10.1876E-03     328.329E-03    -162.881E-03    -165.740E-03    -162.018E-03     327.466E-03    -165.740E-03     40.8452E-03     62.4104E+06     48.3229E+06    -31.2166E+06    -29.7541E+06     46.8604E+06     62.4104E+06    -6.99063E+06         57.2969
             958     11.0188E-03     19.4753E-03     79.8279E-03     70.0837E-03    -226.078E-03     74.4863E-03    -224.917E-03     74.2640E-03     14.8681E-03     329.959E-03    -164.490E-03    -165.927E-03    -163.868E-03     329.337E-03    -165.927E-03     34.8229E-03     56.8585E+06     43.0851E+06    -49.3642E+06    -44.0650E+06     37.7859E+06     56.8585E+06    -7.25405E+06         53.9654
             959     10.1724E-03     19.4285E-03     76.3800E-03     61.2766E-03    -213.744E-03     62.4404E-03    -213.019E-03     74.4918E-03    -572.321E-06     329.526E-03    -163.701E-03    -166.006E-03    -163.238E-03     329.063E-03    -166.006E-03     30.0929E-03     58.8591E+06     47.4972E+06    -42.1725E+06    -36.6605E+06     41.9851E+06     58.8591E+06     707.956E+03         51.1903
             960     9.31996E-03     19.3800E-03     75.9748E-03     50.1298E-03    -202.142E-03     49.8680E-03    -201.880E-03     75.9748E-03    -8.37225E-03     329.720E-03    -163.438E-03    -165.983E-03    -163.122E-03     329.403E-03    -165.983E-03     24.7313E-03     46.7634E+06     23.0146E+06    -42.2632E+06    -41.5151E+06     22.2665E+06     46.7634E+06     4.84211E+06         48.9985
             961     8.47208E-03     19.3366E-03     79.3506E-03     57.4827E-03    -212.176E-03     58.6887E-03    -212.032E-03     78.0009E-03    -4.25124E-03     330.494E-03    -163.930E-03    -166.092E-03    -163.731E-03     330.295E-03    -166.092E-03     19.6843E-03     30.1270E+06    -20.2409E+06    -56.0325E+06    -55.2176E+06    -21.0558E+06     30.1270E+06     3.06468E+06         47.4294
             962     7.62324E-03     19.2966E-03     83.3557E-03     72.7529E-03    -232.434E-03     76.7402E-03    -232.106E-03     79.0401E-03    -16.5144E-03     330.832E-03    -164.181E-03    -166.350E-03    -164.059E-03     330.710E-03    -166.350E-03     15.2842E-03     12.0683E+06    -55.1062E+06    -75.8676E+06    -66.2526E+06    -64.7212E+06     12.0683E+06     3.02017E+06         46.5330
             963     6.77376E-03     19.2673E-03     91.3317E-03     78.4391E-03    -245.593E-03     89.7400E-03    -244.001E-03     78.4391E-03    -43.6936E-03     331.315E-03    -164.867E-03    -166.604E-03    -164.803E-03     331.250E-03    -166.604E-03     11.0400E-03    -4.63168E+06    -73.7163E+06    -104.752E+06    -75.0237E+06    -103.445E+06    -4.63168E+06    -171.614E+03         46.1886
             964     5.92699E-03     19.2416E-03     93.0719E-03     76.6517E-03    -243.095E-03     91.4118E-03    -241.435E-03     76.6517E-03    -13.8390E-03     331.752E-03    -165.183E-03    -166.760E-03    -165.151E-03     331.720E-03    -166.760E-03     7.48509E-03    -24.2746E+06      -84.96E+06    -137.938E+06    -86.1570E+06    -136.741E+06    -24.2746E+06    -72.8651E+03         46.0813
             965     5.07818E-03     19.2163E-03     84.9091E-03     71.4517E-03    -229.349E-03     75.3734E-03    -223.959E-03     75.5980E-03    -33.2449E-03     332.232E-03    -165.278E-03    -166.868E-03    -165.265E-03     332.219E-03    -166.868E-03     4.70694E-03    -43.6967E+06    -95.8788E+06    -169.318E+06    -97.5704E+06    -167.627E+06    -43.6967E+06     232.213E+03         46.0242
             966     4.23198E-03     19.2040E-03     80.7077E-03     57.6512E-03    -213.286E-03     55.3670E-03    -208.185E-03     77.8900E-03    -43.5768E-03     332.839E-03    -165.765E-03    -166.931E-03    -165.760E-03     332.834E-03    -166.931E-03     2.63656E-03    -60.0067E+06    -103.917E+06    -190.782E+06    -104.823E+06    -189.877E+06    -60.0067E+06     1.79372E+06         45.9762
             967     3.38506E-03     19.1927E-03     83.3942E-03     58.8834E-03    -219.082E-03     58.2111E-03    -218.339E-03     83.3238E-03    -13.8924E-03     333.468E-03    -166.408E-03    -166.975E-03    -166.407E-03     333.467E-03    -166.975E-03     633.941E-06    -82.3266E+06    -112.373E+06    -211.562E+06    -112.601E+06    -211.334E+06    -82.3266E+06     2.00554E+06         45.9247
             968     2.53749E-03     19.1864E-03     92.4882E-03     73.7739E-03    -245.528E-03     72.3684E-03    -240.929E-03     89.2937E-03    -23.2451E-03     333.997E-03    -166.878E-03    -167.107E-03    -166.968E-03     333.996E-03    -167.016E-03    -265.032E-06    -101.018E+06    -120.371E+06    -234.790E+06    -120.550E+06    -234.611E+06    -101.018E+06    -1.12330E+06         45.8838
             969     1.69223E-03     19.1828E-03     104.220E-03     78.8696E-03    -263.313E-03     83.3359E-03    -258.580E-03     95.0214E-03     3.08509E-03     334.096E-03    -166.976E-03    -167.126E-03    -167.122E-03     334.095E-03    -166.978E-03    -125.599E-06    -111.768E+06    -123.653E+06    -251.569E+06    -123.856E+06    -251.365E+06    -111.768E+06     783.776E+03         45.8587
             970     846.023E-06     19.1785E-03     162.416E-03     38.0211E-03    -275.960E-03     148.829E-03    -271.353E-03     47.0011E-03     9.95019E-03     334.030E-03    -166.867E-03    -167.166E-03    -166.923E-03     334.029E-03    -167.110E-03     410.359E-06    -119.037E+06    -128.464E+06    -276.505E+06    -125.256E+06    -276.419E+06    -122.332E+06     2.03047E+06         45.8433
             971     14.4315E-03     18.3644E-03     67.1330E-03     51.2551E-03    -194.451E-03     50.8355E-03    -194.031E-03     67.1330E-03    -17.9265E-03     328.939E-03    -163.571E-03    -165.705E-03    -162.600E-03     327.224E-03    -164.962E-03     57.5276E-03     124.993E+06     74.4898E+06    -13.0738E+06    -12.6334E+06     74.0494E+06     124.993E+06    -2.17556E+06         68.9515
             972     13.5737E-03     18.2783E-03     67.8870E-03     50.7823E-03    -194.692E-03     50.4288E-03    -194.339E-03     67.8870E-03    -7.64681E-03     328.090E-03    -162.890E-03    -165.327E-03    -161.441E-03     326.474E-03    -165.160E-03     55.4331E-03     113.930E+06     75.2397E+06    -5.87197E+06    -5.60989E+06     74.9777E+06     113.930E+06    -896.795E+03         65.4069
             973     12.7224E-03     18.2205E-03     70.1972E-03     56.8868E-03    -203.455E-03     58.0681E-03    -202.947E-03     68.5078E-03    -9.44246E-03     329.958E-03    -163.572E-03    -166.627E-03    -163.919E-03     328.973E-03    -165.295E-03     43.9937E-03     90.3539E+06     60.4214E+06    -18.0618E+06    -16.9404E+06     59.2999E+06     90.3539E+06     4.60904E+06         61.2710
             974     11.8777E-03     18.1478E-03     74.0462E-03     61.6360E-03    -211.772E-03     66.5229E-03    -211.294E-03     68.6811E-03    -15.2310E-03     329.936E-03    -163.822E-03    -166.435E-03    -164.284E-03     329.233E-03    -165.270E-03     36.9992E-03     70.9111E+06     53.8409E+06    -27.4795E+06    -26.3094E+06     52.6709E+06     70.9111E+06     3.86372E+06         57.3883
             975     11.0262E-03     18.0884E-03     72.3843E-03     61.5373E-03    -210.447E-03     64.9660E-03    -210.200E-03     68.7087E-03    -4.74765E-03     328.531E-03    -163.730E-03    -165.313E-03    -163.260E-03     328.061E-03    -165.313E-03     30.2797E-03     50.3643E+06     40.6122E+06    -40.7236E+06    -37.0856E+06     36.9742E+06     50.3643E+06    -10.0243E+06         54.0322
             976     10.1739E-03     18.0370E-03     69.2218E-03     57.1255E-03    -202.787E-03     56.9018E-03    -202.563E-03     69.2218E-03    -635.584E-06     329.738E-03    -164.397E-03    -165.745E-03    -164.439E-03     329.382E-03    -165.348E-03     26.2563E-03     41.1160E+06     29.1630E+06    -58.0857E+06    -53.2341E+06     24.3115E+06     41.1160E+06    -8.82903E+06         51.2273
             977     9.33005E-03     17.9893E-03     71.0874E-03     51.0350E-03    -198.020E-03     51.5444E-03    -197.872E-03     70.4307E-03    -623.875E-06     330.517E-03    -164.834E-03    -165.707E-03    -165.096E-03     330.274E-03    -165.203E-03     21.6270E-03     41.5143E+06     22.6128E+06    -57.6515E+06    -56.2445E+06     21.2058E+06     41.5143E+06     1.06961E+06         49.0048
             978     8.48172E-03     17.9426E-03     72.5538E-03     55.0060E-03    -202.482E-03     55.1622E-03    -201.982E-03     71.8971E-03     7.26743E-03     329.778E-03    -164.282E-03    -165.236E-03    -164.282E-03     329.635E-03    -165.093E-03     16.5616E-03     29.7048E+06    -13.1830E+06    -62.1496E+06    -61.1075E+06    -14.2251E+06     29.7048E+06     5.16435E+06         47.3983
             979     7.63153E-03     17.9069E-03     76.0542E-03     66.1888E-03    -217.014E-03     68.3954E-03    -215.854E-03     72.6879E-03     13.7145E-03     329.497E-03    -163.990E-03    -165.250E-03    -164.010E-03     329.422E-03    -165.155E-03     11.6393E-03     11.1591E+06    -56.7963E+06    -75.2864E+06    -71.8312E+06    -60.2515E+06     11.1591E+06     4.98363E+06         46.4576
             980     6.78337E-03     17.8712E-03     82.4342E-03     66.9276E-03    -224.455E-03     74.9708E-03    -222.566E-03     72.5027E-03     2.93650E-03     329.493E-03    -164.393E-03    -165.259E-03    -164.423E-03     329.462E-03    -165.200E-03     7.07365E-03    -8.16760E+06    -79.3773E+06    -105.980E+06    -80.8048E+06    -104.553E+06    -8.16760E+06     827.602E+03         46.0658
             981     5.93588E-03     17.8469E-03     80.9359E-03     61.4423E-03    -216.700E-03     66.8408E-03    -213.747E-03     72.5837E-03     24.8959E-03     329.376E-03    -164.420E-03    -165.227E-03    -164.410E-03     329.366E-03    -165.227E-03     3.69237E-03    -24.6931E+06    -87.4971E+06    -137.686E+06    -88.4607E+06    -136.722E+06    -24.6931E+06     1.28912E+06         45.9088
             982     5.08769E-03     17.8268E-03     75.8946E-03     64.1230E-03    -214.132E-03     59.8184E-03    -208.040E-03     74.1077E-03    -1.85655E-03     329.449E-03    -164.278E-03    -165.217E-03    -164.275E-03     329.445E-03    -165.217E-03     930.198E-06    -44.5064E+06    -96.0773E+06    -166.892E+06    -97.4746E+06    -165.495E+06    -44.5064E+06     1.44757E+06         45.8059
             983     4.23768E-03     17.8109E-03     84.0395E-03     63.1411E-03    -223.071E-03     66.2614E-03    -218.393E-03     76.2411E-03    -15.4889E-03     329.902E-03    -164.670E-03    -165.145E-03    -164.681E-03     329.896E-03    -165.128E-03    -1.38091E-03    -65.9065E+06    -107.527E+06    -196.797E+06    -108.615E+06    -195.709E+06    -65.9065E+06    -912.629E+03         45.7188
             984     3.39051E-03     17.7997E-03     92.8852E-03     67.5701E-03    -236.016E-03     83.3889E-03    -235.201E-03     76.2518E-03     11.5813E-03     330.121E-03    -164.932E-03    -165.121E-03    -164.942E-03     330.113E-03    -165.103E-03    -2.70279E-03    -81.0903E+06    -111.843E+06    -209.263E+06    -112.297E+06    -208.808E+06    -81.0903E+06     54.5964E+03         45.6298
             985     2.54351E-03     17.7924E-03     90.9342E-03     72.4624E-03    -240.164E-03     89.0834E-03    -238.314E-03     72.4624E-03     22.4644E-03     329.985E-03    -164.890E-03    -165.124E-03    -164.885E-03     329.980E-03    -165.124E-03    -2.86707E-03    -100.558E+06    -117.547E+06    -231.015E+06    -117.715E+06    -230.847E+06    -100.558E+06    -318.540E+03         45.5631
             986     1.69515E-03     17.7858E-03     85.2466E-03     65.3718E-03    -227.544E-03     82.1835E-03    -224.481E-03     65.3718E-03     23.3821E-03     330.198E-03    -165.004E-03    -165.212E-03    -165.096E-03     330.195E-03    -165.117E-03    -2.25627E-03    -116.339E+06    -126.382E+06    -255.114E+06    -126.762E+06    -254.735E+06    -116.339E+06    -2.03884E+06         45.5292
             987     847.670E-06     17.7881E-03     98.7443E-03     28.0309E-03    -203.137E-03     70.3074E-03    -198.533E-03     51.8633E-03     38.0197E-03     330.320E-03    -164.982E-03    -165.329E-03    -165.076E-03     330.319E-03    -165.234E-03    -1.14588E-03    -122.604E+06    -131.396E+06    -276.593E+06    -128.436E+06    -276.258E+06    -125.898E+06     104.961E+03         45.5085
             988     14.4241E-03     16.9854E-03     62.7082E-03     54.3332E-03    -193.893E-03     54.7834E-03    -193.671E-03     62.0360E-03    -5.46309E-03     329.541E-03    -163.587E-03    -166.147E-03    -163.085E-03     327.827E-03    -164.935E-03     57.7515E-03     123.230E+06     75.5560E+06    -9.67573E+06    -8.97933E+06     74.8596E+06     123.230E+06    -4.92610E+06         69.0940
             989     13.5746E-03     16.8962E-03     62.7507E-03     56.0072E-03    -195.631E-03     56.5792E-03    -195.531E-03     62.0785E-03     95.0852E-06     330.851E-03    -163.930E-03    -167.090E-03    -164.734E-03     329.393E-03    -164.829E-03     52.6562E-03     104.265E+06     69.3940E+06    -19.3868E+06    -18.7956E+06     68.8028E+06     104.265E+06    -2.78646E+06         65.5570
             990     12.7293E-03     16.8188E-03     62.2051E-03     53.0582E-03    -191.166E-03     52.9606E-03    -191.069E-03     62.2051E-03     520.210E-06     331.837E-03    -164.735E-03    -167.195E-03    -166.345E-03     330.986E-03    -164.735E-03     41.0577E-03     82.6545E+06     57.5613E+06    -32.7624E+06    -30.1744E+06     54.9733E+06     82.6545E+06     626.365E+03         61.4147
             991     11.8843E-03     16.7568E-03     62.8006E-03     45.8272E-03    -183.851E-03     45.7839E-03    -183.807E-03     62.8006E-03    -4.21699E-03     330.790E-03    -164.213E-03    -166.853E-03    -165.752E-03     330.137E-03    -164.662E-03     35.8772E-03     74.8856E+06     58.7443E+06    -29.1307E+06    -26.5608E+06     56.1744E+06     74.8856E+06     273.387E+03         57.5086
             992     11.0352E-03     16.7009E-03     63.7518E-03     47.9663E-03    -186.367E-03     47.6496E-03    -186.050E-03     63.7518E-03     10.9776E-03     329.790E-03    -163.745E-03    -166.385E-03    -165.194E-03     329.345E-03    -164.491E-03     29.4626E-03     61.7190E+06     49.1109E+06    -30.1724E+06    -28.6809E+06     47.6194E+06     61.7190E+06     7.00332E+06         54.1243
             993     10.1889E-03     16.6432E-03     66.5083E-03     57.3202E-03    -199.338E-03     59.0377E-03    -198.904E-03     64.3570E-03     7.73446E-03     329.993E-03    -164.019E-03    -166.169E-03    -165.595E-03     329.716E-03    -164.315E-03     23.3317E-03     37.6776E+06     24.6107E+06    -51.2329E+06    -49.1000E+06     22.4778E+06     37.6776E+06     885.721E+03         51.2871
             994     9.33953E-03     16.5934E-03     73.1117E-03     62.6402E-03    -213.288E-03     71.5843E-03    -213.134E-03     64.0140E-03    -1.44007E-03     329.798E-03    -164.086E-03    -165.819E-03    -165.651E-03     329.630E-03    -164.086E-03     17.8863E-03     34.7898E+06     10.5805E+06    -61.7938E+06    -60.4683E+06     9.25510E+06     34.7898E+06    -7.39366E+06         49.0250
             995     8.49229E-03     16.5557E-03     76.3680E-03     62.5911E-03    -215.589E-03     75.4999E-03    -214.933E-03     62.8029E-03     3.35784E-03     329.582E-03    -163.736E-03    -165.813E-03    -165.730E-03     329.500E-03    -163.736E-03     12.1403E-03     31.7763E+06    -13.6447E+06    -65.6129E+06    -64.4798E+06    -14.7778E+06     31.7763E+06    -190.285E+03         47.3723
             996     7.64606E-03     16.5145E-03     69.0508E-03     60.4716E-03    -204.714E-03     66.1598E-03    -203.017E-03     61.6656E-03     3.08519E-03     328.486E-03    -163.432E-03    -165.026E-03    -164.996E-03     328.456E-03    -163.432E-03     6.73096E-03     13.8846E+06    -52.7419E+06    -75.2002E+06    -70.6879E+06    -57.2542E+06     13.8846E+06     2.83419E+06         46.3743
             997     6.79825E-03     16.4838E-03     62.8259E-03     48.8625E-03    -187.243E-03     47.9195E-03    -185.534E-03     62.0594E-03     16.9187E-03     326.859E-03    -162.956E-03    -164.087E-03    -163.833E-03     326.852E-03    -163.203E-03     2.49666E-03    -7.07537E+06    -79.3243E+06    -101.922E+06    -79.8689E+06    -101.378E+06    -7.07537E+06     1.59996E+06         45.9145
             998     5.94699E-03     16.4571E-03     65.9681E-03     46.2674E-03    -188.855E-03     45.7980E-03    -186.466E-03     64.0484E-03     33.9555E-03     326.405E-03    -162.767E-03    -163.788E-03    -163.531E-03     326.396E-03    -163.015E-03    -1.26842E-03    -27.2108E+06    -89.1674E+06    -136.928E+06    -89.3090E+06    -136.786E+06    -27.2108E+06     38.3444E+03         45.6947
             999     5.09867E-03     16.4368E-03     73.9781E-03     59.2369E-03    -210.452E-03     66.2953E-03    -208.607E-03     65.0752E-03     20.3426E-03     326.396E-03    -162.755E-03    -163.662E-03    -163.643E-03     326.379E-03    -162.758E-03    -4.42117E-03    -45.7160E+06    -96.9724E+06    -167.237E+06    -97.4116E+06    -166.797E+06    -45.7160E+06     630.493E+03         45.5325
            1000     4.25139E-03     16.4234E-03     80.3346E-03     62.9671E-03    -219.518E-03     78.9021E-03    -218.357E-03     63.2392E-03     1.29271E-03     325.474E-03    -162.369E-03    -163.064E-03    -163.040E-03     325.452E-03    -162.371E-03    -6.17323E-03    -64.3075E+06    -102.331E+06    -190.039E+06    -102.949E+06    -189.421E+06    -64.3075E+06    -327.408E+03         45.3828
            1001     3.40082E-03     16.4110E-03     78.2659E-03     58.9759E-03    -210.072E-03     76.5708E-03    -208.790E-03     59.3891E-03     3.79184E-03     324.726E-03    -162.164E-03    -162.481E-03    -162.418E-03     324.701E-03    -162.203E-03    -6.69192E-03    -84.7044E+06    -113.419E+06    -211.378E+06    -113.759E+06    -211.038E+06    -84.7044E+06    -3.13346E+06         45.2454
            1002     2.55014E-03     16.4042E-03     71.2680E-03     48.3438E-03    -191.885E-03     63.0879E-03    -191.352E-03     55.9907E-03    -3.54385E-03     324.401E-03    -162.027E-03    -162.398E-03    -162.227E-03     324.380E-03    -162.176E-03    -6.07168E-03    -101.190E+06    -120.929E+06    -232.149E+06    -121.034E+06    -232.045E+06    -101.190E+06    -204.198E+03         45.1444
            1003     1.70011E-03     16.3984E-03     66.9005E-03     41.2884E-03    -180.483E-03     50.5160E-03    -179.035E-03     56.2247E-03    -16.2865E-03     324.265E-03    -161.957E-03    -162.335E-03    -162.165E-03     324.252E-03    -162.113E-03    -4.64759E-03    -116.019E+06    -124.375E+06    -253.462E+06    -124.627E+06    -253.210E+06    -116.019E+06    -42.9666E+03         45.0801
            1004     850.280E-06     16.3949E-03     89.3224E-03     27.6661E-03    -187.301E-03     30.2133E-03    -185.685E-03     85.1592E-03     2.66990E-03     324.353E-03    -162.029E-03    -162.315E-03    -162.215E-03     324.348E-03    -162.125E-03    -2.56550E-03    -127.279E+06    -132.460E+06    -279.868E+06    -132.898E+06    -279.431E+06    -127.279E+06    -1.45998E+06         45.0390
            1005     14.4269E-03     15.5901E-03     58.3138E-03     55.2798E-03    -188.449E-03     56.6159E-03    -187.859E-03     56.3876E-03    -12.6763E-03     334.523E-03    -164.666E-03    -169.938E-03    -168.198E-03     333.012E-03    -164.895E-03     54.8931E-03     126.903E+06     77.5957E+06    -9.33202E+06    -8.86727E+06     77.1310E+06     126.903E+06    -389.950E+03         69.2677
            1006     13.5865E-03     15.4988E-03     57.9530E-03     55.5542E-03    -188.730E-03     57.0076E-03    -188.257E-03     56.0269E-03    -5.52567E-03     333.558E-03    -164.542E-03    -169.201E-03    -167.889E-03     332.246E-03    -164.542E-03     50.7101E-03     105.879E+06     66.8457E+06    -20.9442E+06    -20.0023E+06     65.9038E+06     105.879E+06    -2.19108E+06         65.7495
            1007     12.7394E-03     15.4289E-03     55.8521E-03     51.3842E-03    -180.777E-03     51.2146E-03    -180.607E-03     55.8521E-03     5.14381E-03     330.800E-03    -164.322E-03    -166.522E-03    -165.608E-03     329.886E-03    -164.322E-03     42.4465E-03     81.0966E+06     59.2714E+06    -23.8369E+06    -21.8414E+06     57.2759E+06     81.0966E+06    -5.27047E+06         61.5856
            1008     11.8875E-03     15.3668E-03     56.1529E-03     44.1136E-03    -172.967E-03     44.0025E-03    -172.856E-03     56.1529E-03     1.88316E-03     331.781E-03    -164.100E-03    -167.860E-03    -167.113E-03     331.033E-03    -164.100E-03     38.2876E-03     59.9865E+06     46.9502E+06    -36.6245E+06    -35.0648E+06     45.3906E+06     59.9865E+06    -2.17097E+06         57.6419
            1009     11.0446E-03     15.3054E-03     56.8537E-03     42.3658E-03    -172.564E-03     42.0749E-03    -172.273E-03     56.8537E-03     9.93874E-03     333.287E-03    -163.723E-03    -169.834E-03    -169.370E-03     332.823E-03    -163.723E-03     30.2324E-03     56.6698E+06     43.3194E+06    -45.0891E+06    -43.6103E+06     41.8405E+06     56.6698E+06     6.24796E+06         54.2310
            1010     10.2001E-03     15.2578E-03     59.6784E-03     50.8807E-03    -185.891E-03     52.4523E-03    -185.109E-03     57.3246E-03    -7.53410E-03     332.004E-03    -163.184E-03    -168.883E-03    -168.632E-03     331.753E-03    -163.184E-03     22.0822E-03     54.5010E+06     43.3409E+06    -40.9602E+06    -39.5456E+06     41.9262E+06     54.5010E+06     3.53138E+06         51.3643
            1011     9.35395E-03     15.2067E-03     65.6217E-03     55.1359E-03    -198.249E-03     63.1710E-03    -197.640E-03     56.9781E-03    -12.1685E-03     330.246E-03    -162.454E-03    -167.593E-03    -167.479E-03     330.132E-03    -162.454E-03     14.4008E-03     39.2283E+06     14.4037E+06    -50.0089E+06    -49.3463E+06     13.7410E+06     39.2283E+06    -2.21184E+06         49.0621
            1012     8.50877E-03     15.1628E-03     69.2391E-03     47.4863E-03    -194.111E-03     60.0269E-03    -193.743E-03     56.3306E-03    -8.00362E-03     328.972E-03    -161.835E-03    -166.944E-03    -166.910E-03     328.938E-03    -161.835E-03     7.49116E-03     24.5734E+06    -26.1728E+06    -66.5240E+06    -62.4369E+06    -30.2599E+06     24.5734E+06    -5.12484E+06         47.3590
            1013     7.66286E-03     15.1309E-03     63.0689E-03     44.2133E-03    -183.426E-03     49.7247E-03    -182.319E-03     56.4502E-03    -30.4354E-03     327.216E-03    -161.331E-03    -165.894E-03    -165.887E-03     327.208E-03    -161.331E-03     2.18169E-03     14.9005E+06    -52.9108E+06    -76.7807E+06    -68.5101E+06    -61.1814E+06     14.9005E+06    -608.861E+03         46.3003
            1014     6.81331E-03     15.0998E-03     63.5631E-03     45.3970E-03    -184.823E-03     50.0659E-03    -183.201E-03     57.2716E-03    -31.0572E-03     325.248E-03    -160.755E-03    -164.733E-03    -164.720E-03     325.235E-03    -160.755E-03    -2.77755E-03    -627.921E+03    -70.6621E+06    -98.0946E+06    -75.4214E+06    -93.3354E+06    -627.921E+03     4.13776E+06         45.7669
            1015     5.96659E-03     15.0751E-03     72.2619E-03     50.6052E-03    -199.808E-03     63.7542E-03    -197.940E-03     57.2448E-03    -30.9026E-03     323.395E-03    -160.147E-03    -163.305E-03    -163.270E-03     323.360E-03    -160.147E-03    -7.37842E-03    -26.7432E+06    -87.2559E+06    -133.134E+06    -87.3874E+06    -133.003E+06    -26.7432E+06     1.75197E+06         45.4572
            1016     5.11679E-03     15.0543E-03     71.3215E-03     54.5778E-03    -202.420E-03     69.1075E-03    -201.241E-03     55.6127E-03    -26.4709E-03     321.619E-03    -159.479E-03    -161.973E-03    -161.915E-03     321.561E-03    -159.479E-03    -10.2045E-03    -49.3090E+06    -97.7822E+06    -166.647E+06    -97.8401E+06    -166.590E+06    -49.3090E+06    -393.201E+03         45.2039
            1017     4.26509E-03     15.0425E-03     63.2418E-03     51.2722E-03    -189.388E-03     59.0514E-03    -187.870E-03     53.9448E-03    -33.1469E-03     319.896E-03    -158.853E-03    -160.969E-03    -160.897E-03     319.823E-03    -158.853E-03    -11.3428E-03    -65.0400E+06    -106.022E+06    -188.926E+06    -106.104E+06    -188.844E+06    -65.0400E+06    -559.815E+03         44.9831
            1018     3.41341E-03     15.0334E-03     56.3861E-03     51.4614E-03    -181.904E-03     52.8711E-03    -180.440E-03     53.5124E-03    -27.1497E-03     318.242E-03    -158.388E-03    -159.764E-03    -159.692E-03     318.170E-03    -158.388E-03    -11.2548E-03    -85.5990E+06    -113.840E+06    -207.804E+06    -114.056E+06    -207.588E+06    -85.5990E+06     665.551E+03         44.7849
            1019     2.56115E-03     15.0236E-03     60.7539E-03     46.5242E-03    -178.944E-03     50.7788E-03    -176.616E-03     54.1711E-03     13.2196E-03     316.811E-03    -158.056E-03    -158.739E-03    -158.685E-03     316.758E-03    -158.056E-03    -9.85020E-03    -105.434E+06    -121.899E+06    -234.600E+06    -122.175E+06    -234.324E+06    -105.434E+06    -1.26352E+06         44.6231
            1020     1.70817E-03     15.0201E-03     66.4131E-03     41.7131E-03    -175.778E-03     49.0094E-03    -173.310E-03     56.6493E-03     17.7656E-03     316.011E-03    -157.874E-03    -158.180E-03    -158.106E-03     315.983E-03    -157.920E-03    -7.04661E-03    -117.704E+06    -128.179E+06    -253.723E+06    -128.316E+06    -253.586E+06    -117.704E+06    -9.92366E+03         44.5075
            1021     853.523E-06     15.0188E-03     105.882E-03     11.6224E-03    -184.480E-03     14.9886E-03    -184.105E-03     102.141E-03     9.63768E-03     315.928E-03    -157.690E-03    -158.244E-03    -157.836E-03     315.920E-03    -158.089E-03    -3.42365E-03    -125.284E+06    -133.698E+06    -280.161E+06    -130.600E+06    -279.987E+06    -128.556E+06     83.8264E+03         44.4342
            1022     14.4334E-03     14.1907E-03     52.5605E-03     49.2502E-03    -175.533E-03     49.6413E-03    -174.561E-03     51.1972E-03    -29.1708E-03     334.504E-03    -164.652E-03    -169.889E-03    -168.247E-03     332.862E-03    -164.652E-03     56.6182E-03     128.341E+06     77.9665E+06    -9.15320E+06    -8.95192E+06     77.7652E+06     128.341E+06    -849.778E+03         69.4503
            1023     13.5879E-03     14.0983E-03     52.2933E-03     48.8025E-03    -174.588E-03     49.3818E-03    -173.914E-03     51.0393E-03    -13.4473E-03     333.911E-03    -164.416E-03    -169.556E-03    -167.895E-03     332.251E-03    -164.416E-03     56.9156E-03     109.347E+06     68.9982E+06    -12.4337E+06    -11.8298E+06     68.3943E+06     109.347E+06    -394.674E+03         65.9230
            1024     12.7387E-03     14.0465E-03     53.2254E-03     50.2382E-03    -175.375E-03     52.2173E-03    -174.951E-03     50.8223E-03    -3.15184E-03     334.548E-03    -164.209E-03    -170.559E-03    -169.499E-03     333.489E-03    -164.209E-03     46.0311E-03     87.8195E+06     57.0398E+06    -18.4266E+06    -17.3459E+06     55.9591E+06     87.8195E+06     2.66221E+06         61.7490
            1025     11.8940E-03     13.9676E-03     58.7606E-03     48.2416E-03    -178.197E-03     56.1746E-03    -177.722E-03     50.3526E-03    -8.34034E-03     335.293E-03    -163.626E-03    -171.908E-03    -171.176E-03     334.561E-03    -163.626E-03     37.9150E-03     67.5671E+06     46.8784E+06    -30.9843E+06    -30.3679E+06     46.2620E+06     67.5671E+06     3.53658E+06         57.7925
            1026     11.0521E-03     13.9102E-03     60.3407E-03     45.3955E-03    -178.472E-03     55.8173E-03    -178.221E-03     49.6681E-03     204.894E-06     335.179E-03    -162.936E-03    -172.576E-03    -172.189E-03     334.793E-03    -162.936E-03     27.4738E-03     56.0251E+06     42.8560E+06    -43.2637E+06    -42.7222E+06     42.3146E+06     56.0251E+06    -4.86897E+06         54.3568
            1027     10.2114E-03     13.8598E-03     54.0454E-03     45.0431E-03    -172.901E-03     48.9568E-03    -171.944E-03     49.1752E-03    -15.8112E-03     334.300E-03    -161.936E-03    -172.593E-03    -172.403E-03     334.110E-03    -161.936E-03     19.1784E-03     52.3673E+06     43.8585E+06    -46.7310E+06    -46.2327E+06     43.3602E+06     52.3673E+06    -3.69811E+06         51.4575
            1028     9.37197E-03     13.8132E-03     49.6466E-03     39.3851E-03    -162.380E-03     37.8606E-03    -160.653E-03     49.4440E-03    -5.03233E-03     331.675E-03    -160.724E-03    -170.857E-03    -170.779E-03     331.597E-03    -160.724E-03     12.0189E-03     39.4170E+06     18.8013E+06    -52.7640E+06    -52.6762E+06     18.7136E+06     39.4170E+06     1.40391E+06         49.1156
            1029     8.52695E-03     13.7747E-03     50.6438E-03     33.6029E-03    -157.002E-03     32.6905E-03    -156.090E-03     50.6438E-03     15.7175E-03     328.541E-03    -159.749E-03    -168.739E-03    -168.719E-03     328.521E-03    -159.749E-03     4.36428E-03     21.3114E+06    -27.3450E+06    -65.0961E+06    -61.3773E+06    -31.0637E+06     21.3114E+06    -1.41688E+06         47.3627
            1030     7.67964E-03     13.7429E-03     58.4536E-03     38.6997E-03    -169.348E-03     43.9819E-03    -167.971E-03     51.7940E-03     8.41846E-03     326.351E-03    -158.854E-03    -167.592E-03    -167.580E-03     326.340E-03    -158.854E-03    -2.72153E-03     8.47985E+06    -57.8616E+06    -82.2311E+06    -71.1997E+06    -68.8930E+06     8.47985E+06     -2.7566E+06         46.2455
            1031     6.83635E-03     13.7169E-03     69.8657E-03     47.1500E-03    -188.635E-03     61.9699E-03    -184.992E-03     51.4029E-03     11.5891E-03     323.420E-03    -157.782E-03    -166.011E-03    -165.970E-03     323.379E-03    -157.782E-03    -8.19398E-03    -3.66335E+06    -73.1902E+06    -102.352E+06    -78.9026E+06    -96.6397E+06    -3.66335E+06     1.73806E+06         45.6365
            1032     5.98762E-03     13.6969E-03     68.3189E-03     49.6631E-03    -191.955E-03     62.7315E-03    -186.368E-03     49.6631E-03     7.30570E-03     319.640E-03    -156.657E-03    -163.246E-03    -163.162E-03     319.557E-03    -156.657E-03    -12.3546E-03    -22.8649E+06    -84.5338E+06    -129.102E+06    -85.3645E+06    -128.271E+06    -22.8649E+06     5.17592E+06         45.2225
            1033     5.13678E-03     13.6814E-03     56.6809E-03     47.3380E-03    -179.765E-03     51.3964E-03    -175.515E-03     48.3729E-03     12.7251E-03     316.172E-03    -155.598E-03    -160.525E-03    -160.398E-03     316.045E-03    -155.598E-03    -15.2133E-03    -45.5506E+06    -93.7049E+06    -160.169E+06    -94.1963E+06    -159.678E+06    -45.5506E+06     3.23819E+06         44.8596
            1034     4.28434E-03     13.6701E-03     53.6308E-03     45.3237E-03    -173.955E-03     48.6720E-03    -171.669E-03     47.9964E-03     7.12034E-03     313.292E-03    -154.584E-03    -158.548E-03    -158.399E-03     313.144E-03    -154.584E-03    -16.5971E-03    -67.4242E+06    -106.558E+06    -188.755E+06    -106.577E+06    -188.736E+06    -67.4242E+06     325.775E+03         44.5500
            1035     3.43072E-03     13.6650E-03     53.2231E-03     46.0208E-03    -175.092E-03     49.5783E-03    -173.085E-03     47.6585E-03     11.4269E-03     310.534E-03    -153.769E-03    -156.656E-03    -156.519E-03     310.397E-03    -153.769E-03    -15.9253E-03    -84.5581E+06    -116.304E+06    -208.751E+06    -116.467E+06    -208.589E+06    -84.5581E+06     902.298E+03         44.2738
            1036     2.57421E-03     13.6604E-03     54.5227E-03     46.6243E-03    -175.944E-03     51.2227E-03    -172.644E-03     46.6243E-03     47.6052E-03     307.752E-03    -153.153E-03    -154.620E-03    -154.519E-03     307.652E-03    -153.153E-03    -13.3593E-03    -103.373E+06    -121.295E+06    -231.576E+06    -121.848E+06    -231.023E+06    -103.373E+06     2.13767E+06         44.0341
            1037     1.71569E-03     13.6591E-03     55.6905E-03     39.9282E-03    -167.579E-03     47.0146E-03    -164.412E-03     45.4369E-03     20.7522E-03     306.133E-03    -152.780E-03    -153.347E-03    -153.293E-03     306.078E-03    -152.780E-03    -9.58685E-03    -122.097E+06    -129.839E+06    -255.396E+06    -130.331E+06    -254.904E+06    -122.097E+06     47.4057E+03         43.8543
            1038     858.686E-06     13.6573E-03     114.274E-03    -9.34749E-03    -179.860E-03    -20.4005E-03    -165.066E-03     110.533E-03    -58.2735E-03     305.464E-03    -152.448E-03    -152.995E-03    -152.623E-03     305.446E-03    -152.802E-03    -4.90894E-03    -128.595E+06    -137.542E+06    -279.346E+06    -134.412E+06    -279.204E+06    -131.867E+06     761.876E+03         43.7437
            1039     14.4323E-03     12.7964E-03     46.9239E-03     40.9865E-03    -159.236E-03     40.6755E-03    -157.944E-03     45.9423E-03    -9.07899E-03     332.475E-03    -164.480E-03    -168.028E-03    -166.291E-03     330.738E-03    -164.480E-03     58.3039E-03     128.587E+06     79.6301E+06    -6.10611E+06    -5.75947E+06     79.2834E+06     128.587E+06    -2.23493E+06         69.6469
            1040     13.5786E-03     12.7129E-03     46.0102E-03     39.0071E-03    -155.259E-03     38.0605E-03    -154.312E-03     46.0102E-03    -5.94040E-03     336.265E-03    -164.265E-03    -171.929E-03    -170.335E-03     334.671E-03    -164.265E-03     55.5663E-03     101.571E+06     64.5482E+06    -16.3109E+06    -16.0097E+06     64.2471E+06     101.571E+06    -42.3987E+03         66.1146
            1041     12.7412E-03     12.6343E-03     49.9278E-03     43.8684E-03    -163.131E-03     47.0169E-03    -162.267E-03     45.9158E-03    -5.30930E-03     339.858E-03    -163.868E-03    -176.156E-03    -175.277E-03     338.979E-03    -163.868E-03     42.0818E-03     80.8322E+06     47.5928E+06    -33.2473E+06    -31.7051E+06     46.0505E+06     80.8322E+06     614.179E+03         61.9383
            1042     11.9077E-03     12.5738E-03     59.9228E-03     45.1166E-03    -174.549E-03     59.4431E-03    -174.069E-03     45.1166E-03    -17.4169E-03     338.621E-03    -162.999E-03    -175.928E-03    -175.341E-03     338.035E-03    -162.999E-03     34.4759E-03     84.7568E+06     55.0056E+06    -27.0666E+06    -25.4648E+06     53.4037E+06     84.7568E+06    -686.253E+03         57.9704
            1043     11.0653E-03     12.5076E-03     63.5687E-03     43.6356E-03    -177.203E-03     63.3593E-03    -176.994E-03     43.6356E-03    -3.60156E-03     336.098E-03    -161.935E-03    -174.432E-03    -174.086E-03     335.752E-03    -161.935E-03     26.1401E-03     71.3792E+06     56.4921E+06    -26.1412E+06    -24.9193E+06     55.2702E+06     71.3792E+06     1.00332E+06         54.5065
            1044     10.2260E-03     12.4590E-03     52.1313E-03     40.5307E-03    -163.275E-03     49.7381E-03    -162.742E-03     42.3902E-03    -8.15246E-03     334.912E-03    -160.601E-03    -174.464E-03    -174.302E-03     334.749E-03    -160.601E-03     17.7961E-03     43.7843E+06     36.7376E+06    -44.4177E+06    -42.9010E+06     35.2209E+06     43.7843E+06    -2.45220E+06         51.5686
            1045     9.38440E-03     12.4170E-03     45.0688E-03     33.9921E-03    -150.356E-03     35.5986E-03    -149.102E-03     42.2088E-03    -1.71123E-03     333.056E-03    -159.228E-03    -173.824E-03    -173.766E-03     332.998E-03    -159.228E-03     9.83743E-03     37.5814E+06     12.2666E+06    -50.9886E+06    -50.3776E+06     11.6556E+06     37.5814E+06    -3.96046E+06         49.1834
            1046     8.54432E-03     12.3848E-03     55.9537E-03     33.8839E-03    -160.286E-03     46.8808E-03    -159.410E-03     42.0804E-03     8.81577E-03     330.024E-03    -157.722E-03    -172.168E-03    -172.157E-03     330.013E-03    -157.722E-03     1.67150E-03     27.7381E+06    -23.3478E+06    -58.4617E+06    -57.1522E+06    -24.6573E+06     27.7381E+06     1.84446E+06         47.3824
            1047     7.70438E-03     12.3570E-03     67.9301E-03     38.4324E-03    -174.623E-03     65.0185E-03    -173.551E-03     40.2719E-03     16.7413E-03     325.846E-03    -156.211E-03    -169.731E-03    -169.711E-03     325.826E-03    -156.211E-03    -5.50856E-03     5.97728E+06    -55.3013E+06    -77.7312E+06    -66.2461E+06    -66.7864E+06     5.97728E+06     1.66539E+06         46.2043
            1048     6.85692E-03     12.3384E-03     60.1723E-03     37.4481E-03    -165.804E-03     57.6076E-03    -163.240E-03     37.4481E-03     37.4941E-03     320.879E-03    -154.670E-03    -166.720E-03    -166.644E-03     320.804E-03    -154.670E-03    -11.6424E-03    -12.5998E+06    -77.7952E+06    -107.121E+06    -79.4050E+06    -105.511E+06    -12.5998E+06    -1.70466E+06         45.5173
            1049     6.00937E-03     12.3222E-03     42.6378E-03     34.4366E-03    -147.711E-03     37.3496E-03    -143.896E-03     35.9099E-03     39.0772E-03     315.973E-03    -153.041E-03    -163.342E-03    -163.196E-03     315.827E-03    -153.041E-03    -16.4457E-03    -22.4938E+06    -87.1516E+06    -130.971E+06    -88.0247E+06    -130.098E+06    -22.4938E+06     2.93647E+06         45.0161
            1050     5.15936E-03     12.3107E-03     37.6751E-03     31.8795E-03    -143.510E-03     30.1418E-03    -140.270E-03     36.1729E-03     28.8939E-03     311.159E-03    -151.575E-03    -159.704E-03    -159.504E-03     310.959E-03    -151.575E-03    -19.2809E-03    -38.0004E+06    -90.3767E+06    -154.396E+06    -91.2338E+06    -153.539E+06    -38.0004E+06     6.01025E+06         44.5538
            1051     4.30526E-03     12.3068E-03     42.7491E-03     29.3600E-03    -147.367E-03     31.8657E-03    -144.239E-03     37.1147E-03     6.55950E-03     306.323E-03    -150.078E-03    -156.032E-03    -155.820E-03     306.110E-03    -150.078E-03    -19.7562E-03    -61.6364E+06    -99.1268E+06    -180.561E+06    -99.5280E+06    -180.160E+06    -61.6364E+06     4.16453E+06         44.1348
            1052     3.44731E-03     12.3055E-03     44.2622E-03     26.1236E-03    -146.302E-03     25.8296E-03    -141.003E-03     39.2576E-03    -9.67533E-03     302.074E-03    -148.812E-03    -153.076E-03    -152.887E-03     301.885E-03    -148.812E-03    -18.4871E-03    -86.7981E+06    -114.340E+06    -209.894E+06    -114.428E+06    -209.806E+06    -86.7981E+06     793.870E+03         43.7653
            1053     2.58824E-03     12.3067E-03     45.4682E-03     27.7984E-03    -149.247E-03     24.4746E-03    -144.608E-03     44.1526E-03    -6.41077E-03     298.477E-03    -147.864E-03    -150.697E-03    -150.554E-03     298.334E-03    -147.864E-03    -15.8690E-03    -104.095E+06    -124.014E+06    -232.375E+06    -124.521E+06    -231.868E+06    -104.095E+06     349.892E+03         43.4600
            1054     1.72779E-03     12.3077E-03     53.3880E-03     36.9402E-03    -164.475E-03     37.7118E-03    -162.462E-03     50.6036E-03    -11.4207E-03     295.598E-03    -147.099E-03    -148.510E-03    -148.430E-03     295.518E-03    -147.099E-03    -11.7116E-03    -114.316E+06    -125.909E+06    -250.953E+06    -126.727E+06    -250.135E+06    -114.316E+06     2.31684E+06         43.2287
            1055     863.574E-06     12.3077E-03     120.483E-03     10.4694E-03    -203.590E-03    -10.5666E-03    -180.259E-03     118.189E-03    -96.8391E-03     293.648E-03    -146.551E-03    -147.079E-03    -147.052E-03     293.621E-03    -146.551E-03    -6.22797E-03    -128.732E+06    -134.834E+06    -279.200E+06    -135.305E+06    -278.729E+06    -128.732E+06     908.657E+03         43.0781
            1056     14.4294E-03     11.4063E-03     47.5964E-03     36.9756E-03    -152.187E-03     43.2875E-03    -151.070E-03     40.1678E-03    -4.98702E-03     336.970E-03    -164.421E-03    -172.794E-03    -171.320E-03     335.496E-03    -164.421E-03     54.2335E-03     128.383E+06     78.4732E+06    -9.53617E+06    -9.16438E+06     78.1014E+06     128.383E+06     478.745E+03         69.8772
            1057     13.5943E-03     11.3062E-03     52.8146E-03     34.2973E-03    -155.191E-03     46.2495E-03    -153.811E-03     39.4821E-03     4.88077E-03     339.373E-03    -163.933E-03    -175.489E-03    -174.170E-03     338.054E-03    -163.933E-03     51.2358E-03     102.593E+06     64.4405E+06    -22.7701E+06    -22.4481E+06     64.1185E+06     102.593E+06    -248.971E+03         66.3683
            1058     12.7540E-03     11.2278E-03     50.0610E-03     36.5552E-03    -154.415E-03     46.9625E-03    -153.309E-03     38.5477E-03     20.0248E-03     339.113E-03    -163.110E-03    -175.964E-03    -175.159E-03     338.308E-03    -163.110E-03     40.5443E-03     78.1230E+06     51.1321E+06    -25.9179E+06    -24.2802E+06     54.2617E+06     73.3557E+06    -7.74089E+06         62.1734
            1059     11.9127E-03     11.1629E-03     47.1394E-03     33.9111E-03    -148.265E-03     42.1472E-03    -147.033E-03     37.6722E-03     13.2487E-03     339.341E-03    -162.101E-03    -177.342E-03    -176.697E-03     338.696E-03    -162.101E-03     36.2853E-03     63.0619E+06     40.2352E+06    -33.9111E+06    -31.3203E+06     42.4118E+06     58.2946E+06    -10.0338E+06         58.1663
            1060     11.0777E-03     11.1102E-03     46.4006E-03     29.4709E-03    -144.183E-03     37.5926E-03    -143.044E-03     37.1401E-03     15.6330E-03     338.482E-03    -160.954E-03    -177.749E-03    -177.355E-03     338.087E-03    -160.954E-03     27.8958E-03     67.3215E+06     49.4306E+06    -32.0940E+06    -30.4851E+06     47.8217E+06     67.3215E+06     467.590E+03         54.6707
            1061     10.2369E-03     11.0609E-03     47.6742E-03     32.6905E-03    -149.748E-03     43.5487E-03    -149.531E-03     36.5986E-03     6.95280E-03     335.808E-03    -159.437E-03    -176.481E-03    -176.322E-03     335.649E-03    -159.437E-03     17.4349E-03     56.0666E+06     44.5116E+06    -33.5289E+06    -31.7428E+06     44.0783E+06     54.7138E+06     3.86851E+06         51.6971
            1062     9.40044E-03     11.0238E-03     52.1167E-03     35.3968E-03    -157.304E-03     52.0067E-03    -157.194E-03     35.3968E-03     1.17833E-03     333.742E-03    -157.706E-03    -175.976E-03    -175.930E-03     333.695E-03    -157.706E-03     8.74068E-03     34.0094E+06     10.1765E+06    -47.7522E+06    -46.0332E+06     9.81024E+06     32.6567E+06     2.01956E+06         49.2668
            1063     8.56278E-03     10.9935E-03     55.3119E-03     32.2087E-03    -156.956E-03     52.3714E-03    -155.388E-03     33.5809E-03    -20.5381E-03     330.743E-03    -155.780E-03    -174.722E-03    -174.714E-03     330.735E-03    -155.780E-03     777.006E-06     26.3893E+06    -26.9256E+06    -56.1801E+06    -53.2803E+06    -29.8254E+06     26.3893E+06     1.81911E+06         47.4122
            1064     7.72044E-03     10.9734E-03     52.8830E-03     27.4741E-03    -149.374E-03     44.1669E-03    -145.068E-03     31.8844E-03    -36.1767E-03     325.473E-03    -153.835E-03    -171.449E-03    -171.422E-03     325.446E-03    -153.835E-03    -6.44614E-03     13.3899E+06    -53.1534E+06    -71.0695E+06    -61.9565E+06    -62.2664E+06     13.3899E+06     4.67353E+06         46.1703
            1065     6.87835E-03     10.9610E-03     43.4939E-03     27.7932E-03    -141.659E-03     36.3780E-03    -137.581E-03     30.8313E-03    -31.9035E-03     318.960E-03    -151.896E-03    -167.346E-03    -167.260E-03     318.873E-03    -151.896E-03    -12.5954E-03    -11.4559E+06    -74.1644E+06    -104.924E+06    -78.0996E+06    -100.989E+06    -11.4559E+06     5.09872E+06         45.4174
            1066     6.03118E-03     10.9513E-03     37.8862E-03     28.7297E-03    -137.192E-03     34.0575E-03    -134.836E-03     30.2030E-03    -30.1293E-03     312.455E-03    -149.879E-03    -162.866E-03    -162.716E-03     312.306E-03    -149.879E-03    -16.7110E-03    -28.5916E+06    -89.5243E+06    -135.171E+06    -90.6921E+06    -134.004E+06    -28.5916E+06     793.940E+03         44.8518
            1067     5.17927E-03     10.9542E-03     34.6591E-03     23.7936E-03    -129.907E-03     26.0907E-03    -127.801E-03     30.2551E-03    -31.7253E-03     306.298E-03    -148.024E-03    -158.281E-03    -158.090E-03     306.107E-03    -148.024E-03    -18.7634E-03    -44.1386E+06    -100.620E+06    -158.671E+06    -101.239E+06    -158.053E+06    -44.1386E+06     3.69088E+06         44.3190
            1068     4.32333E-03     10.9567E-03     32.4467E-03     16.3890E-03    -122.737E-03     13.7042E-03    -120.052E-03     32.4467E-03    -30.2786E-03     300.418E-03    -146.222E-03    -154.052E-03    -153.843E-03     300.210E-03    -146.222E-03    -19.4214E-03    -61.5682E+06    -106.246E+06    -178.907E+06    -107.121E+06    -178.032E+06    -61.5682E+06     7.50909E+06         43.8227
            1069     3.46391E-03     10.9618E-03     39.2798E-03     17.7082E-03    -131.467E-03     15.7244E-03    -127.181E-03     36.9771E-03    -26.0310E-03     294.792E-03    -144.575E-03    -150.172E-03    -149.980E-03     294.600E-03    -144.575E-03    -18.4444E-03    -82.5400E+06    -111.384E+06    -200.396E+06    -112.092E+06    -199.688E+06    -82.5400E+06     6.31502E+06         43.3754
            1070     2.60138E-03     10.9646E-03     52.9001E-03     25.4999E-03    -152.399E-03     28.9613E-03    -144.815E-03     41.8541E-03     7.51530E-03     289.884E-03    -143.275E-03    -146.699E-03    -146.561E-03     289.746E-03    -143.275E-03    -15.3922E-03    -106.434E+06    -123.568E+06    -229.988E+06    -124.095E+06    -229.462E+06    -106.434E+06     1.32303E+06         43.0137
            1071     1.73607E-03     10.9728E-03     56.0226E-03     36.3702E-03    -163.945E-03     42.9528E-03    -159.030E-03     44.5249E-03     17.2173E-03     286.356E-03    -142.322E-03    -144.066E-03    -143.996E-03     286.287E-03    -142.322E-03    -10.4723E-03    -118.824E+06    -133.225E+06    -251.879E+06    -133.796E+06    -251.307E+06    -118.824E+06    -656.066E+03         42.7523
            1072     869.679E-06     10.9762E-03     109.066E-03    -1.43049E-03    -174.226E-03    -16.2845E-03    -156.617E-03     106.312E-03    -57.4475E-03     283.958E-03    -141.514E-03    -142.452E-03    -142.157E-03     283.938E-03    -141.789E-03    -5.21938E-03    -129.259E+06    -139.021E+06    -275.564E+06    -137.416E+06    -274.933E+06    -131.495E+06     1.57465E+06         42.5816
            1073     14.4425E-03     9.99969E-03     52.8727E-03     34.0198E-03    -157.546E-03     52.4751E-03    -157.149E-03     34.0198E-03    -2.59214E-03     340.687E-03    -164.228E-03    -176.726E-03    -175.145E-03     339.107E-03    -164.228E-03     55.5176E-03     131.954E+06     80.4201E+06    -9.19563E+06    -9.05917E+06     80.2836E+06     131.954E+06     1.25622E+06         70.1121
            1074     13.6017E-03     9.89718E-03     54.2736E-03     32.4246E-03    -157.427E-03     53.5767E-03    -156.731E-03     32.4246E-03     2.59737E-03     340.110E-03    -163.421E-03    -176.820E-03    -175.135E-03     338.426E-03    -163.421E-03     57.7794E-03     112.108E+06     73.7151E+06    -14.3232E+06    -14.0204E+06     73.4124E+06     112.108E+06    -983.110E+03         66.6139
            1075     12.7604E-03     9.83348E-03     46.6588E-03     30.9269E-03    -148.848E-03     45.6896E-03    -147.879E-03     30.9269E-03     4.05282E-03     338.933E-03    -162.432E-03    -176.550E-03    -175.546E-03     337.929E-03    -162.432E-03     45.3176E-03     84.5322E+06     58.4714E+06    -16.5130E+06    -15.1427E+06     61.8685E+06     79.7649E+06    -2.60107E+06         62.4058
            1076     11.9194E-03     9.76118E-03     39.3527E-03     26.2634E-03    -135.597E-03     33.8664E-03    -133.872E-03     30.0244E-03     2.80401E-03     339.873E-03    -161.356E-03    -178.468E-03    -177.763E-03     339.168E-03    -161.356E-03     37.8260E-03     52.9078E+06     36.4618E+06    -32.2243E+06    -30.1440E+06     41.6785E+06     45.6108E+06    -5.03542E+06         58.3738
            1077     11.0832E-03     9.69999E-03     35.5142E-03     22.0900E-03    -127.546E-03     26.5025E-03    -126.204E-03     29.7592E-03     7.38909E-03     339.831E-03    -160.082E-03    -180.032E-03    -179.660E-03     339.459E-03    -160.082E-03     27.1577E-03     43.8897E+06     30.1665E+06    -49.5577E+06    -46.6608E+06     29.7992E+06     41.3600E+06    -11.8443E+06         54.8529
            1078     10.2518E-03     9.66347E-03     39.1097E-03     25.5298E-03    -134.903E-03     34.5711E-03    -134.272E-03     29.4379E-03    -2.09060E-03     337.232E-03    -158.334E-03    -179.119E-03    -178.962E-03     337.075E-03    -158.334E-03     17.5748E-03     49.0090E+06     35.7585E+06    -50.7528E+06    -48.0692E+06     34.4277E+06     47.6562E+06    -2.91490E+06         51.8479
            1079     9.41276E-03     9.62404E-03     45.2477E-03     28.2990E-03    -143.170E-03     44.7618E-03    -142.684E-03     28.2990E-03    -1.25795E-03     333.231E-03    -156.275E-03    -176.934E-03    -176.881E-03     333.178E-03    -156.275E-03     9.47222E-03     38.1358E+06     18.0662E+06    -50.7605E+06    -49.2933E+06     17.9518E+06     36.7830E+06     8.33303E+06         49.3720
            1080     8.57446E-03     9.59840E-03     36.3699E-03     24.8990E-03    -132.924E-03     31.7785E-03    -130.657E-03     27.2235E-03    -2.59924E-03     329.112E-03    -154.225E-03    -174.588E-03    -174.579E-03     329.103E-03    -154.225E-03     1.79891E-03     20.7003E+06    -27.4364E+06    -64.8306E+06    -61.4937E+06    -30.7732E+06     20.7003E+06     6.15916E+06         47.4533
            1081     7.73718E-03     9.58974E-03     27.6435E-03     22.2038E-03    -121.426E-03     15.1914E-03    -114.413E-03     27.6435E-03    -7.06466E-03     323.703E-03    -152.102E-03    -171.231E-03    -171.214E-03     323.686E-03    -152.102E-03    -4.02434E-03     9.55342E+06    -59.4309E+06    -81.8583E+06    -74.6214E+06    -66.6677E+06     9.55342E+06     6.98426E+06         46.1358
            1082     6.89246E-03     9.58344E-03     31.1424E-03     24.4852E-03    -125.928E-03     17.9325E-03    -117.265E-03     29.0326E-03     418.295E-06     316.382E-03    -150.051E-03    -166.558E-03    -166.515E-03     316.338E-03    -150.051E-03    -7.87350E-03    -7.24477E+06    -73.1060E+06    -99.8522E+06    -81.7580E+06    -91.2001E+06    -7.24477E+06     11.0131E+06         45.3195
            1083     6.04384E-03     9.59099E-03     36.4199E-03     27.6477E-03    -134.666E-03     28.1203E-03    -128.625E-03     29.9062E-03     2.06826E-03     309.295E-03    -147.978E-03    -161.603E-03    -161.530E-03     309.222E-03    -147.978E-03    -10.8445E-03    -30.7567E+06    -88.5052E+06    -130.206E+06    -91.5833E+06    -127.128E+06    -30.7567E+06     6.89831E+06         44.7216
            1084     5.19069E-03     9.59942E-03     41.1755E-03     26.6928E-03    -139.386E-03     34.7430E-03    -135.948E-03     29.6872E-03    -4.82575E-03     302.874E-03    -145.954E-03    -156.864E-03    -156.765E-03     302.775E-03    -145.954E-03    -12.8875E-03    -50.4670E+06    -105.798E+06    -162.667E+06    -106.454E+06    -162.011E+06    -50.4670E+06     2.53192E+06         44.1804
            1085     4.33413E-03     9.60975E-03     48.4641E-03     20.0412E-03    -142.108E-03     38.6324E-03    -140.580E-03     28.3442E-03     3.61378E-03     296.651E-03    -144.048E-03    -152.443E-03    -152.332E-03     296.540E-03    -144.048E-03    -13.3545E-03    -66.0961E+06    -117.503E+06    -182.302E+06    -117.990E+06    -181.816E+06    -66.0961E+06     3.94724E+06         43.6768
            1086     3.47428E-03     9.62418E-03     50.4250E-03     19.0365E-03    -142.337E-03     43.7920E-03    -141.839E-03     25.1715E-03     11.3093E-03     290.551E-03    -142.335E-03    -148.194E-03    -148.092E-03     290.449E-03    -142.335E-03    -12.4724E-03    -78.6238E+06    -120.126E+06    -194.835E+06    -120.878E+06    -194.082E+06    -78.6238E+06     6.58840E+06         43.2091
            1087     2.60855E-03     9.63890E-03     46.0113E-03     19.6656E-03    -138.030E-03     40.2003E-03    -132.218E-03     19.6656E-03     46.9059E-03     285.193E-03    -140.976E-03    -144.249E-03    -144.175E-03     285.119E-03    -140.976E-03    -10.6154E-03    -102.106E+06    -125.295E+06    -219.062E+06    -125.889E+06    -218.468E+06    -102.106E+06     6.25658E+06         42.8215
            1088     1.73994E-03     9.64720E-03     29.2614E-03     12.9288E-03    -110.549E-03     21.8288E-03    -104.862E-03     14.6737E-03     44.7477E-03     281.544E-03    -140.049E-03    -141.500E-03    -141.461E-03     281.505E-03    -140.049E-03    -7.73061E-03    -124.869E+06    -135.595E+06    -251.226E+06    -134.959E+06    -250.938E+06    -125.792E+06    -61.7965E+03         42.5440
            1089     869.760E-06     9.65327E-03     76.8090E-03    -23.6396E-03    -116.867E-03    -50.1893E-03    -89.8574E-03     76.3490E-03    -42.1707E-03     279.573E-03    -139.182E-03    -140.392E-03    -139.572E-03     279.561E-03    -139.991E-03    -3.99871E-03    -131.458E+06    -141.504E+06    -276.846E+06    -138.846E+06    -276.345E+06    -134.617E+06    -2.69271E+06         42.3701
            1090     14.4401E-03     8.59714E-03     47.9650E-03     27.9667E-03    -151.175E-03     47.4450E-03    -150.656E-03     27.9667E-03    -2.80549E-03     339.916E-03    -164.014E-03    -176.109E-03    -174.326E-03     338.134E-03    -164.014E-03     59.0226E-03     135.302E+06     84.4581E+06    -5.06988E+06    -4.86035E+06     84.2486E+06     135.302E+06    -2.80332E+06         70.3272
            1091     13.5988E-03     8.50034E-03     36.8234E-03     25.3659E-03    -137.089E-03     34.8821E-03    -136.633E-03     26.8514E-03    -8.75286E-03     341.080E-03    -163.061E-03    -178.202E-03    -176.352E-03     339.230E-03    -163.061E-03     60.6118E-03     115.882E+06     79.1936E+06    -7.03642E+06    -6.71240E+06     78.8696E+06     115.882E+06    -2.46123E+06         66.8269
            1092     12.7625E-03     8.42614E-03     32.3134E-03     24.7589E-03    -132.450E-03     30.3635E-03    -131.986E-03     26.2443E-03    -12.7641E-03     342.269E-03    -162.051E-03    -180.442E-03    -179.405E-03     341.232E-03    -162.051E-03     46.3953E-03     83.4206E+06     55.2290E+06    -27.7901E+06    -26.9998E+06     54.4387E+06     83.4206E+06     1.26093E+06         62.6291
            1093     11.9308E-03     8.35547E-03     38.0575E-03     25.5398E-03    -137.360E-03     37.4840E-03    -136.786E-03     25.5398E-03    -14.3633E-03     341.838E-03    -160.842E-03    -181.021E-03    -180.302E-03     341.118E-03    -160.842E-03     38.3263E-03     63.0887E+06     42.9426E+06    -35.5620E+06    -34.7736E+06     44.6838E+06     60.5591E+06     3.02368E+06         58.6047
            1094     11.0945E-03     8.30143E-03     45.3452E-03     24.2075E-03    -139.763E-03     44.9882E-03    -139.406E-03     24.2075E-03    -13.8040E-03     339.015E-03    -159.396E-03    -179.899E-03    -179.527E-03     338.643E-03    -159.396E-03     27.2252E-03     45.0308E+06     34.6073E+06    -40.6974E+06    -38.2935E+06     34.7330E+06     42.5011E+06    -3.55581E+06         55.0718
            1095     10.2567E-03     8.25911E-03     38.1830E-03     22.6963E-03    -130.308E-03     37.3806E-03    -129.505E-03     22.6963E-03    -21.9623E-03     335.898E-03    -157.507E-03    -178.537E-03    -178.357E-03     335.719E-03    -157.507E-03     18.9814E-03     37.4114E+06     21.1881E+06    -53.9923E+06    -51.6601E+06     18.8559E+06     37.4114E+06    -5.78425E+06         52.0375
            1096     9.42465E-03     8.23169E-03     27.3487E-03     21.7622E-03    -119.581E-03     26.6817E-03    -118.914E-03     21.7622E-03    -8.89560E-03     331.174E-03    -155.432E-03    -175.462E-03    -175.349E-03     331.062E-03    -155.432E-03     13.9251E-03     35.4641E+06     11.5304E+06    -63.3402E+06    -61.9357E+06     10.1259E+06     35.4641E+06     5.47803E+06         49.5148
            1097     8.58428E-03     8.21133E-03     26.9369E-03     20.3266E-03    -119.909E-03     25.1027E-03    -119.027E-03     21.2790E-03     18.0881E-03     325.595E-03    -153.517E-03    -171.548E-03    -171.478E-03     325.525E-03    -153.517E-03     9.23120E-03     17.0244E+06    -20.8399E+06    -76.3162E+06    -72.3036E+06    -24.8525E+06     17.0244E+06     13.0540E+06         47.5262
            1098     7.73909E-03     8.20720E-03     29.9973E-03     19.8028E-03    -122.354E-03     24.9196E-03    -118.306E-03     20.8322E-03     16.3302E-03     320.110E-03    -151.699E-03    -168.021E-03    -167.989E-03     320.077E-03    -151.699E-03     5.10275E-03     3.19821E+06    -60.7818E+06    -84.7382E+06    -79.0392E+06    -66.4808E+06     3.19821E+06     8.09219E+06         46.1131
            1099     6.89335E-03     8.21323E-03     26.6657E-03     19.1935E-03    -116.909E-03     19.3215E-03    -111.074E-03     20.7028E-03     19.1767E-03     313.930E-03    -149.996E-03    -164.212E-03    -164.193E-03     313.911E-03    -149.996E-03     2.04467E-03    -2.88242E+06    -77.1417E+06    -94.8771E+06    -84.0086E+06    -88.0102E+06    -2.88242E+06     6.57659E+06         45.2269
            1100     6.04314E-03     8.22642E-03     22.3686E-03     18.5943E-03    -110.695E-03     15.9185E-03    -106.898E-03     21.2480E-03     31.5721E-03     307.773E-03    -148.182E-03    -159.992E-03    -159.971E-03     307.752E-03    -148.182E-03    -514.215E-06    -21.9349E+06    -91.2150E+06    -121.403E+06    -95.0987E+06    -117.519E+06    -21.9349E+06     8.74282E+06         44.6419
            1101     5.19002E-03     8.24560E-03     29.1963E-03     20.1754E-03    -117.556E-03     25.9843E-03    -115.566E-03     21.3968E-03     15.6980E-03     302.050E-03    -146.431E-03    -155.708E-03    -155.681E-03     302.023E-03    -146.431E-03    -2.16016E-03    -41.9626E+06    -100.471E+06    -154.426E+06    -101.347E+06    -153.550E+06    -41.9626E+06     3.65802E+06         44.1512
            1102     4.33214E-03     8.26705E-03     47.4862E-03     18.5943E-03    -135.907E-03     44.5485E-03    -132.969E-03     18.5943E-03    -9.23871E-03     296.381E-03    -144.806E-03    -151.490E-03    -151.466E-03     296.357E-03    -144.806E-03    -3.02678E-03    -60.1053E+06    -109.878E+06    -180.911E+06    -110.005E+06    -180.785E+06    -60.1053E+06    -1.84616E+06         43.6980
            1103     3.46902E-03     8.28886E-03     47.0064E-03     12.0855E-03    -130.666E-03     44.4296E-03    -128.089E-03     12.0855E-03    -5.59117E-03     291.363E-03    -143.324E-03    -147.955E-03    -147.938E-03     291.346E-03    -143.324E-03    -3.30304E-03    -76.9639E+06    -119.784E+06    -199.586E+06    -120.314E+06    -199.056E+06    -76.9639E+06    -2.90370E+06         43.2883
            1104     2.60562E-03     8.30961E-03     24.8013E-03     3.68383E-03    -99.5811E-03     20.5345E-03    -97.2189E-03     5.58845E-03     22.5508E-03     287.287E-03    -142.107E-03    -145.205E-03    -145.190E-03     287.273E-03    -142.107E-03    -3.19700E-03    -90.9511E+06    -121.033E+06    -216.871E+06    -121.578E+06    -216.327E+06    -90.9511E+06     492.180E+03         42.9464
            1105     1.73953E-03     8.32386E-03     16.5314E-03    -3.13276E-03    -82.3988E-03     10.7107E-03    -80.2277E-03     516.798E-06     24.7577E-03     283.840E-03    -141.120E-03    -142.764E-03    -142.751E-03     283.827E-03    -141.120E-03    -3.11938E-03    -108.924E+06    -125.202E+06    -243.215E+06    -124.485E+06    -243.008E+06    -109.847E+06     3.06261E+06         42.6922
            1106     870.498E-06     8.33556E-03     37.5960E-03    -11.9057E-03    -92.2612E-03    -29.0391E-03    -62.5692E-03     25.0374E-03    -35.8866E-03     281.510E-03    -140.021E-03    -141.486E-03    -140.946E-03     281.504E-03    -140.555E-03    -2.33082E-03    -126.329E+06    -136.797E+06    -280.747E+06    -134.021E+06    -280.425E+06    -129.427E+06    -283.652E+03         42.5308
            1107     14.4422E-03     7.19397E-03     39.1937E-03     23.4502E-03    -135.360E-03     38.2056E-03    -134.372E-03     23.4502E-03    -6.90401E-03     341.828E-03    -163.771E-03    -178.100E-03    -176.463E-03     340.191E-03    -163.771E-03     57.0661E-03     134.575E+06     83.8268E+06    -6.39699E+06    -6.17301E+06     83.6028E+06     134.575E+06    -3.74494E+06         70.5414
            1108     13.6046E-03     7.08923E-03     34.1866E-03     21.0136E-03    -130.005E-03     31.8262E-03    -129.130E-03     22.4990E-03     2.31413E-03     343.072E-03    -162.722E-03    -180.545E-03    -178.911E-03     341.438E-03    -162.722E-03     57.1659E-03     107.902E+06     68.8312E+06    -19.1727E+06    -18.9879E+06     68.6465E+06     107.902E+06    -647.311E+03         67.0615
            1109     12.7695E-03     7.01255E-03     31.8340E-03     20.1747E-03    -127.202E-03     30.0717E-03    -126.926E-03     21.6601E-03     6.74708E-03     342.812E-03    -161.661E-03    -181.426E-03    -180.499E-03     341.885E-03    -161.661E-03     44.0086E-03     80.7374E+06     51.1087E+06    -29.8359E+06    -29.3601E+06     50.6329E+06     80.7374E+06    -2.02259E+06         62.8855
            1110     11.9339E-03     6.94755E-03     35.2860E-03     20.5933E-03    -128.449E-03     35.0441E-03    -128.207E-03     20.5933E-03     7.91337E-03     341.220E-03    -160.364E-03    -180.984E-03    -180.285E-03     340.521E-03    -160.364E-03     37.8806E-03     65.9424E+06     46.1715E+06    -31.5673E+06    -30.9317E+06     45.5358E+06     65.9424E+06    -2.66370E+06         58.8749
            1111     11.1007E-03     6.89673E-03     41.2239E-03     19.0614E-03    -129.147E-03     40.0391E-03    -127.962E-03     19.0614E-03     8.92306E-03     336.613E-03    -158.935E-03    -177.888E-03    -177.459E-03     336.185E-03    -158.935E-03     29.3318E-03     54.5200E+06     43.4449E+06    -34.6255E+06    -33.1398E+06     41.9591E+06     54.5200E+06     7.41836E+06         55.3444
            1112     10.2649E-03     6.86039E-03     36.9816E-03     17.3822E-03    -121.840E-03     35.5676E-03    -120.426E-03     17.3822E-03     2.99530E-03     331.015E-03    -157.291E-03    -173.824E-03    -173.540E-03     330.731E-03    -157.291E-03     23.5005E-03     37.4408E+06     23.5529E+06    -52.4628E+06    -48.7654E+06     20.2799E+06     37.0163E+06     12.0885E+06         52.2931
            1113     9.41962E-03     6.84034E-03     24.0082E-03     16.2247E-03    -109.211E-03     23.6659E-03    -108.868E-03     16.2247E-03    -2.27162E-03     325.946E-03    -155.654E-03    -170.097E-03    -169.865E-03     325.714E-03    -155.654E-03     21.1478E-03     27.2677E+06     530.039E+03    -69.0966E+06    -64.7542E+06    -3.38792E+06     26.8432E+06     7.22306E+06         49.7305
            1114     8.57582E-03     6.83171E-03     20.9567E-03     11.9489E-03    -104.863E-03     16.9786E-03    -104.729E-03     15.7929E-03     3.96743E-03     321.140E-03    -154.287E-03    -166.557E-03    -166.360E-03     320.943E-03    -154.287E-03     19.2049E-03     25.4038E+06    -19.8051E+06    -71.2464E+06    -67.8134E+06    -23.2381E+06     25.4038E+06     4.42621E+06         47.6775
            1115     7.72900E-03     6.83378E-03     24.7317E-03     10.7270E-03    -108.308E-03     18.6056E-03    -107.022E-03     15.5667E-03    -10.2821E-03     316.778E-03    -153.146E-03    -163.415E-03    -163.266E-03     316.629E-03    -153.146E-03     16.0209E-03     16.4515E+06    -51.6559E+06    -78.6421E+06    -74.3984E+06    -55.8996E+06     16.4515E+06     4.81211E+06         46.1634
            1116     6.87876E-03     6.84468E-03     24.7048E-03     13.9720E-03    -109.350E-03     22.2167E-03    -107.857E-03     14.9677E-03    -21.3698E-03     312.691E-03    -151.994E-03    -160.680E-03    -160.563E-03     312.575E-03    -151.994E-03     13.5121E-03     5.38820E+06    -75.1616E+06    -96.3408E+06    -82.6801E+06    -88.8223E+06     5.38820E+06     637.362E+03         45.1990
            1117     6.02730E-03     6.86989E-03     25.1063E-03     13.4342E-03    -106.199E-03     23.7862E-03    -105.274E-03     13.8294E-03    -15.3022E-03     308.451E-03    -150.810E-03    -157.874E-03    -157.774E-03     308.351E-03    -150.810E-03     12.0301E-03    -6.70823E+06    -83.1709E+06    -118.940E+06    -86.1371E+06    -115.973E+06    -6.70823E+06    -1.07426E+06         44.6412
            1118     5.17134E-03     6.89451E-03     22.6945E-03     12.1042E-03    -99.4248E-03     20.5683E-03    -97.6937E-03     12.4993E-03    -23.0489E-03     304.564E-03    -149.784E-03    -155.028E-03    -154.950E-03     304.486E-03    -149.784E-03     10.4324E-03    -27.7950E+06    -91.2738E+06    -148.200E+06    -92.0371E+06    -147.437E+06    -27.7950E+06    -1.25838E+06         44.2411
            1119     4.31392E-03     6.92282E-03     23.6830E-03     4.00895E-03    -91.4459E-03     12.7822E-03    -88.3492E-03     11.8130E-03    -34.9693E-03     301.323E-03    -148.785E-03    -152.626E-03    -152.569E-03     301.267E-03    -148.785E-03     8.36736E-03    -50.6690E+06    -96.8611E+06    -176.589E+06    -97.2435E+06    -176.207E+06    -50.6690E+06    -5.03983E+06         43.8996
            1120     3.45525E-03     6.94851E-03     24.5301E-03    -2.99294E-03    -89.1223E-03     5.89470E-03    -86.0398E-03     12.5600E-03    -5.85143E-03     298.443E-03    -147.761E-03    -150.672E-03    -150.636E-03     298.406E-03    -147.761E-03     6.18297E-03    -73.2167E+06    -104.146E+06    -203.056E+06    -104.780E+06    -202.422E+06    -73.2167E+06    -7.43976E+06         43.6245
            1121     2.59260E-03     6.97338E-03     18.8254E-03     4.74259E-03    -94.8597E-03     7.48432E-03    -93.1721E-03     14.3961E-03     14.4608E-03     295.704E-03    -146.895E-03    -148.815E-03    -148.798E-03     295.687E-03    -146.895E-03     4.11432E-03    -89.9788E+06    -112.740E+06    -227.068E+06    -113.233E+06    -226.575E+06    -89.9788E+06    -5.84438E+06         43.4033
            1122     1.72968E-03     6.99207E-03     25.6717E-03     8.79715E-03    -108.018E-03     17.6031E-03    -105.678E-03     14.5253E-03    -9.23276E-03     293.410E-03    -146.192E-03    -147.267E-03    -147.260E-03     293.402E-03    -146.192E-03     2.61089E-03    -100.734E+06    -118.039E+06    -244.562E+06    -118.227E+06    -244.373E+06    -100.734E+06    -254.981E+03         43.2361
            1123     865.989E-06     7.00518E-03     32.0869E-03     12.0996E-03    -115.032E-03     11.0125E-03    -97.7807E-03     15.9231E-03     1.76936E-03     291.802E-03    -145.252E-03    -146.543E-03    -146.537E-03     291.797E-03    -145.252E-03     1.76302E-03    -112.833E+06    -124.377E+06    -276.667E+06    -122.310E+06    -276.561E+06    -115.008E+06     2.88798E+06         43.1309
            1124     14.4465E-03     5.78612E-03     48.4867E-03     20.2353E-03    -136.247E-03     46.9003E-03    -134.661E-03     20.2353E-03    -12.6875E-03     347.882E-03    -163.578E-03    -184.495E-03    -182.997E-03     346.384E-03    -163.578E-03     55.3283E-03     135.052E+06     83.3922E+06    -7.94138E+06     -7.7536E+06     83.2044E+06     135.052E+06     1.97589E+06         70.7557
            1125     13.6128E-03     5.67891E-03     46.2043E-03     18.4249E-03    -135.816E-03     45.6440E-03    -135.256E-03     18.4249E-03     6.66356E-03     345.241E-03    -162.332E-03    -183.093E-03    -181.642E-03     343.789E-03    -162.332E-03     53.9996E-03     107.034E+06     67.2782E+06    -20.3974E+06    -19.9061E+06     66.7868E+06     107.034E+06    -856.688E+03         67.3167
            1126     12.7779E-03     5.60851E-03     39.3470E-03     16.6395E-03    -128.583E-03     38.8845E-03    -128.120E-03     16.6395E-03     836.100E-06     340.877E-03    -161.119E-03    -179.952E-03    -179.165E-03     340.091E-03    -161.119E-03     40.3544E-03     81.6514E+06     54.0363E+06    -24.9362E+06    -23.6063E+06     52.7064E+06     81.6514E+06    -858.235E+03         63.1823
            1127     11.9418E-03     5.53920E-03     32.9677E-03     15.1400E-03    -118.577E-03     31.7032E-03    -117.312E-03     15.1400E-03    -7.10762E-03     336.376E-03    -159.808E-03    -176.668E-03    -176.101E-03     335.810E-03    -159.808E-03     33.6887E-03     62.3634E+06     45.3823E+06    -32.0367E+06    -30.3076E+06     43.6532E+06     62.3634E+06     3.83912E+06         59.2112
            1128     11.1015E-03     5.49473E-03     26.6403E-03     14.0255E-03    -109.262E-03     24.3831E-03    -107.005E-03     14.0255E-03    -2.74629E-03     330.196E-03    -158.600E-03    -171.646E-03    -171.281E-03     329.831E-03    -158.600E-03     26.8322E-03     46.0732E+06     34.1427E+06    -47.6726E+06    -45.7398E+06     32.2099E+06     46.0732E+06     9.02958E+06         55.7079
            1129     10.2553E-03     5.47307E-03     25.4589E-03     13.1555E-03    -106.356E-03     22.6959E-03    -103.593E-03     13.1555E-03    -4.83674E-03     323.907E-03    -157.687E-03    -166.305E-03    -165.979E-03     323.581E-03    -157.687E-03     25.1291E-03     40.0048E+06     27.4432E+06    -62.3593E+06    -57.6937E+06     23.2020E+06     39.5803E+06     8.07084E+06         52.6635
            1130     9.40982E-03     5.45809E-03     23.0191E-03     12.3123E-03    -104.119E-03     21.3728E-03    -102.473E-03     12.3123E-03    -6.95448E-03     319.447E-03    -156.852E-03    -162.652E-03    -162.107E-03     319.108E-03    -157.057E-03     25.4456E-03     42.1625E+06     10.6960E+06    -61.1673E+06    -56.6760E+06     6.62914E+06     41.7380E+06    -1.33151E+06         50.0860
            1131     8.55790E-03     5.45258E-03     17.1744E-03     7.98592E-03    -95.0720E-03     13.0819E-03    -94.8235E-03     11.8299E-03     470.568E-06     316.479E-03    -155.679E-03    -160.816E-03    -159.635E-03     316.144E-03    -156.525E-03     25.0541E-03     37.0458E+06    -24.3277E+06    -64.0126E+06    -62.8339E+06    -25.5064E+06     37.0458E+06    -4.28355E+06         47.9893
            1132     7.70519E-03     5.46142E-03     14.3364E-03     7.09041E-03    -92.3359E-03     9.36526E-03    -92.2044E-03     11.9301E-03    -5.31819E-03     314.024E-03    -154.544E-03    -159.486E-03    -157.544E-03     313.717E-03    -156.177E-03     23.8986E-03     27.0157E+06    -46.0701E+06    -75.6972E+06    -69.5351E+06    -52.2322E+06     27.0157E+06    -2.48361E+06         46.3934
            1133     6.85121E-03     5.48141E-03     16.4022E-03     10.2135E-03    -97.4394E-03     13.6988E-03    -96.5475E-03     12.0250E-03    -1.42969E-03     312.491E-03    -153.928E-03    -158.331E-03    -156.141E-03     312.203E-03    -155.829E-03     22.9905E-03     9.83561E+06    -61.0484E+06    -94.7181E+06    -71.2036E+06    -84.5629E+06     9.83561E+06    -6.81550E+06         45.3304
            1134     5.99472E-03     5.50524E-03     21.7620E-03     8.30877E-03    -98.8587E-03     16.9569E-03    -97.3506E-03     11.6058E-03    -5.61043E-03     311.665E-03    -153.952E-03    -157.579E-03    -155.678E-03     311.404E-03    -155.592E-03     21.8393E-03    -7.81242E+06    -71.5891E+06    -122.343E+06    -74.1634E+06    -119.769E+06    -7.81242E+06    -10.3925E+06         44.7583
            1135     5.14003E-03     5.53770E-03     23.5073E-03     8.20487E-03    -97.3689E-03     17.4498E-03    -93.7925E-03     10.6861E-03    -31.2896E-03     310.857E-03    -154.247E-03    -156.886E-03    -155.440E-03     310.639E-03    -155.476E-03     19.8383E-03    -27.3152E+06    -79.8464E+06    -150.958E+06    -80.9686E+06    -149.836E+06    -27.3152E+06    -8.27431E+06         44.4903
            1136     4.28409E-03     5.56771E-03     18.0636E-03     2.63580E-03    -85.8000E-03     7.07156E-03    -82.6120E-03     10.4399E-03    -31.0392E-03     310.526E-03    -154.349E-03    -156.381E-03    -155.335E-03     310.359E-03    -155.229E-03     17.2944E-03    -51.0405E+06    -87.6035E+06    -178.302E+06    -88.0597E+06    -177.846E+06    -51.0405E+06    -5.95884E+06         44.3502
            1137     3.42801E-03     5.59489E-03     14.2293E-03    -4.30340E-03    -78.1584E-03    -4.96406E-03    -76.3132E-03     13.0448E-03     8.64172E-03     310.331E-03    -154.350E-03    -155.956E-03    -155.270E-03     310.217E-03    -154.922E-03     14.2096E-03     -71.713E+06    -92.1476E+06    -205.652E+06    -92.3721E+06    -205.427E+06     -71.713E+06    -4.37480E+06         44.2670
            1138     2.57305E-03     5.62416E-03     20.7300E-03     7.91764E-03    -96.1012E-03     5.12207E-03    -90.0373E-03     17.4617E-03     31.9140E-03     309.682E-03    -154.472E-03    -155.177E-03    -154.921E-03     309.616E-03    -154.662E-03     10.6139E-03    -90.0951E+06    -101.019E+06    -233.790E+06    -101.041E+06    -233.597E+06    -90.2658E+06    -4.30269E+06         44.2050
            1139     1.71475E-03     5.64520E-03     25.6549E-03     17.6339E-03    -110.362E-03     11.4916E-03    -100.952E-03     22.3867E-03     20.8075E-03     309.042E-03    -154.428E-03    -154.614E-03    -154.586E-03     309.014E-03    -154.428E-03     6.61487E-03    -101.510E+06    -108.918E+06    -252.678E+06    -108.942E+06    -252.484E+06    -101.680E+06    -3.89803E+06         44.1554
            1140     856.559E-06     5.65916E-03     39.8663E-03     20.4352E-03    -132.508E-03     25.2836E-03    -122.678E-03     25.1880E-03     19.1087E-03     308.751E-03    -153.824E-03    -154.901E-03    -154.364E-03     308.743E-03    -154.353E-03     3.02924E-03    -104.345E+06    -112.692E+06    -275.919E+06    -109.887E+06    -275.814E+06    -107.255E+06    -2.81334E+06         44.1291
            1141     14.4506E-03     4.36457E-03     51.1218E-03     17.8074E-03    -134.788E-03     49.4596E-03    -133.126E-03     17.8074E-03    -24.5234E-03     352.843E-03    -163.683E-03    -189.353E-03    -187.398E-03     350.889E-03    -163.683E-03     63.4519E-03     136.363E+06     85.8104E+06    -5.98667E+06    -5.56764E+06     85.3914E+06     136.363E+06    -118.117E+03         70.9411
            1142     13.6227E-03     4.27134E-03     45.4955E-03     15.9202E-03    -128.572E-03     45.0574E-03    -128.134E-03     15.9202E-03    -10.6370E-03     349.447E-03    -162.266E-03    -187.407E-03    -185.496E-03     347.536E-03    -162.266E-03     62.0711E-03      106.11E+06     69.8367E+06    -18.7523E+06    -17.1243E+06     68.2087E+06      106.11E+06     1.66128E+06         67.5349
            1143     12.7877E-03     4.20473E-03     39.3692E-03     14.1734E-03    -122.046E-03     38.7986E-03    -121.475E-03     14.1734E-03    -17.4963E-03     341.642E-03    -160.708E-03    -181.078E-03    -180.093E-03     340.658E-03    -160.708E-03     44.5567E-03     79.1730E+06     53.3214E+06    -30.4115E+06    -27.7978E+06     50.7077E+06     79.1730E+06     9.51470E+06         63.5050
            1144     11.9480E-03     4.14576E-03     33.8487E-03     12.6319E-03    -115.471E-03     32.7793E-03    -114.401E-03     12.6319E-03    -19.2029E-03     332.224E-03    -159.277E-03    -172.889E-03    -172.358E-03     331.693E-03    -159.277E-03     31.9256E-03     59.4679E+06     37.8030E+06    -44.9149E+06    -42.8512E+06     35.7393E+06     59.4679E+06     10.4052E+06         59.6474
            1145     11.1014E-03     4.11327E-03     30.4764E-03     11.2508E-03    -110.130E-03     28.2940E-03    -107.948E-03     11.2508E-03    -6.66851E-03     322.268E-03    -157.306E-03    -164.740E-03    -163.129E-03     321.997E-03    -158.647E-03     22.8981E-03     51.9205E+06     33.7019E+06    -48.4699E+06    -47.5927E+06     32.8246E+06     51.9205E+06     5.50412E+06         56.2251
            1146     10.2499E-03     4.09572E-03     26.1748E-03     10.0247E-03    -104.267E-03     23.2364E-03    -101.328E-03     10.0247E-03    -1.50992E-03     315.509E-03    -154.941E-03    -160.535E-03    -156.530E-03     315.173E-03    -158.609E-03     24.7911E-03     51.7924E+06     37.4679E+06    -45.3833E+06    -44.0287E+06     36.1133E+06     51.7924E+06    -2.98812E+06         53.2342
            1147     9.39033E-03     4.08513E-03     21.7194E-03     9.00522E-03    -99.4567E-03     18.7419E-03    -96.4792E-03     9.00522E-03     8.57142E-03     313.243E-03    -153.937E-03    -159.271E-03    -153.919E-03     312.807E-03    -158.852E-03     28.4289E-03     41.8011E+06     16.1769E+06    -53.2680E+06    -50.4739E+06     13.3829E+06     41.8011E+06    -9.79893E+06         50.6788
            1148     8.53310E-03     4.08430E-03     19.7265E-03     8.04429E-03    -96.4203E-03     18.2789E-03    -94.9728E-03     8.04429E-03     16.4885E-03     312.188E-03    -152.990E-03    -159.189E-03    -152.575E-03     311.772E-03    -159.189E-03     27.7865E-03     27.4385E+06    -18.8129E+06    -59.2074E+06    -54.8175E+06    -23.2029E+06     27.4385E+06    -9.07595E+06         48.5698
            1149     7.67403E-03     4.09532E-03     16.8542E-03     7.03374E-03    -93.6181E-03     16.4709E-03    -93.2348E-03     7.03374E-03    -6.65620E-03     311.834E-03    -152.125E-03    -159.811E-03    -151.748E-03     311.456E-03    -159.811E-03     26.4560E-03     12.5305E+06    -37.6708E+06    -71.3693E+06    -54.1882E+06    -54.8519E+06     12.5305E+06    -14.1326E+06         46.9232
            1150     6.81444E-03     4.11291E-03     14.5171E-03     5.39858E-03    -90.5078E-03     11.9467E-03    -88.7532E-03     6.21441E-03     9.79886E-03     313.475E-03    -152.822E-03    -160.600E-03    -152.460E-03     313.113E-03    -160.600E-03     25.9828E-03    -3.41640E+06    -49.7104E+06    -94.4050E+06    -57.7019E+06    -86.4135E+06    -3.41640E+06    -15.0743E+06         45.7645
            1151     5.95738E-03     4.13612E-03     10.0800E-03     2.33649E-03    -82.6866E-03     3.58122E-03    -80.0092E-03     6.15784E-03     28.4604E-03     316.214E-03    -154.701E-03    -161.426E-03    -154.373E-03     315.885E-03    -161.426E-03     24.8411E-03    -22.9328E+06    -61.5864E+06    -126.588E+06    -64.0528E+06    -124.122E+06    -22.9328E+06    -11.8194E+06         45.1242
            1152     5.10131E-03     4.16578E-03     10.4150E-03     1.67637E-03    -81.2267E-03     155.077E-06    -76.3642E-03     7.07379E-03     4.23848E-03     319.033E-03    -156.942E-03    -162.279E-03    -156.663E-03     318.754E-03    -162.279E-03     23.0212E-03    -40.1102E+06    -67.4995E+06    -160.364E+06    -68.9222E+06    -158.941E+06    -40.1102E+06    -10.8211E+06         44.9475
            1153     4.24861E-03     4.19285E-03     13.9648E-03     5.58416E-03    -87.6484E-03     6.04268E-03    -82.1182E-03     7.97608E-03     123.560E-06     321.772E-03    -158.999E-03    -162.978E-03    -158.772E-03     321.545E-03    -162.978E-03     20.7987E-03    -53.1973E+06    -72.6684E+06    -185.980E+06    -73.1211E+06    -185.527E+06    -53.1973E+06    -5.90625E+06         45.0233
            1154     3.39700E-03     4.22118E-03     14.3408E-03     6.36946E-03    -90.3151E-03     9.03949E-03    -86.8090E-03     8.16468E-03     6.38127E-03     324.447E-03    -160.884E-03    -163.568E-03    -160.727E-03     324.291E-03    -163.568E-03     17.2990E-03    -66.1743E+06    -79.5575E+06    -212.487E+06    -79.5940E+06    -212.450E+06    -66.1743E+06    -1.88538E+06         45.1435
            1155     2.54534E-03     4.24930E-03     18.9422E-03     5.83501E-03    -93.5601E-03     11.0267E-03    -87.4399E-03     7.63024E-03     17.4051E-03     326.723E-03    -162.612E-03    -164.116E-03    -162.534E-03     326.629E-03    -164.099E-03     13.4509E-03    -75.3370E+06    -82.3594E+06    -235.595E+06    -82.2464E+06    -235.537E+06    -75.5077E+06     147.990E+03         45.2340
            1156     1.69785E-03     4.26794E-03     24.9050E-03     3.63324E-03    -93.1258E-03     15.5024E-03    -84.6526E-03     4.56252E-03     45.8394E-03     328.226E-03    -163.750E-03    -164.483E-03    -163.778E-03     328.178E-03    -164.407E-03     9.33125E-03    -83.8610E+06    -86.4132E+06    -255.092E+06    -86.1458E+06    -254.945E+06    -84.2749E+06     480.829E+03         45.2985
            1157     850.020E-06     4.28369E-03     37.6475E-03     7.69511E-03    -111.451E-03     30.4463E-03    -70.4958E-03    -26.0587E-03     18.7436E-03     329.104E-03    -164.126E-03    -164.962E-03    -164.226E-03     329.086E-03    -164.844E-03     4.65164E-03    -90.1073E+06    -94.0901E+06    -278.553E+06    -90.9986E+06    -278.407E+06    -93.3449E+06    -1.03055E+06         45.3468
            1158     14.4344E-03     2.93631E-03     37.3901E-03     15.6832E-03    -119.111E-03     35.9312E-03    -117.652E-03     15.6832E-03    -11.4929E-03     359.379E-03    -164.120E-03    -195.189E-03    -193.081E-03     357.271E-03    -164.120E-03     66.7177E-03     131.710E+06     82.1393E+06    -4.81983E+06    -3.32435E+06     80.6438E+06     131.710E+06     4.14772E+06         71.1861
            1159     13.6053E-03     2.84735E-03     35.2040E-03     14.3853E-03    -115.280E-03     34.5313E-03    -114.607E-03     14.3853E-03    -1.53263E-03     353.189E-03    -162.450E-03    -191.064E-03    -189.483E-03     351.607E-03    -162.450E-03     54.4450E-03     101.065E+06     66.5173E+06    -24.7749E+06    -22.7824E+06     64.5249E+06     101.065E+06     6.34656E+06         67.7774
            1160     12.7802E-03     2.79175E-03     41.1401E-03     12.7939E-03    -119.581E-03     40.5469E-03    -118.988E-03     12.7939E-03    -5.69052E-03     341.377E-03    -160.714E-03    -180.813E-03    -180.023E-03     340.588E-03    -160.714E-03     38.1639E-03     82.7632E+06     55.2539E+06    -34.3447E+06    -32.6865E+06     53.5957E+06     82.7632E+06     7.69999E+06         63.8858
            1161     11.9453E-03     2.75311E-03     42.1795E-03     10.7455E-03    -119.859E-03     41.6687E-03    -119.348E-03     10.7455E-03     8.88387E-03     328.025E-03    -158.999E-03    -168.868E-03    -168.006E-03     327.595E-03    -159.431E-03     28.2380E-03     65.4031E+06     45.5036E+06    -37.8623E+06    -37.1080E+06     44.7493E+06     65.4031E+06     2.32840E+06         60.2501
            1162     11.0965E-03     2.73959E-03     35.0387E-03     8.65436E-03    -111.539E-03     33.6485E-03    -110.149E-03     8.65436E-03     21.4881E-03     316.311E-03    -155.222E-03    -161.051E-03    -156.682E-03     316.045E-03    -159.324E-03     22.4517E-03     54.4430E+06     36.8085E+06    -39.0387E+06    -37.6942E+06     41.2670E+06     48.6401E+06    -5.09607E+06         57.0063
            1163     10.2326E-03     2.73518E-03     25.3343E-03     6.98682E-03    -100.368E-03     23.1373E-03    -98.1709E-03     6.98682E-03     12.6091E-03     310.377E-03    -150.560E-03    -159.820E-03    -150.206E-03     310.022E-03    -159.820E-03     25.2854E-03     49.0190E+06     30.7032E+06    -34.1084E+06    -32.7784E+06     42.3627E+06     36.0294E+06    -4.73484E+06         54.1278
            1164     9.36983E-03     2.71904E-03     20.9254E-03     5.71082E-03    -95.2793E-03     18.2976E-03    -92.6514E-03     5.71082E-03     731.267E-06     308.885E-03    -148.296E-03    -160.563E-03    -147.920E-03     308.510E-03    -160.563E-03     25.7621E-03     28.4433E+06     4.36667E+06    -39.7125E+06    -36.9981E+06     17.9229E+06     12.1727E+06    -8.14509E+06         51.6340
            1165     8.50640E-03     2.72294E-03     21.2928E-03     4.35386E-03    -94.9065E-03     19.6784E-03    -93.2921E-03     4.35386E-03     7.76193E-03     309.182E-03    -147.437E-03    -161.743E-03    -147.140E-03     308.885E-03    -161.743E-03     22.7528E-03     4.23266E+06    -21.1913E+06    -51.3351E+06    -41.8769E+06    -19.6317E+06    -6.78513E+06    -15.9253E+06         49.5417
            1166     7.64290E-03     2.73188E-03     18.7855E-03     2.72642E-03    -89.9418E-03     18.1663E-03    -89.3226E-03     2.72642E-03    -6.99078E-03     311.601E-03    -148.157E-03    -163.335E-03    -147.891E-03     311.335E-03    -163.335E-03     21.6020E-03    -17.1065E+06    -34.1168E+06    -72.1049E+06    -46.8201E+06    -57.4678E+06    -19.0403E+06    -16.6129E+06         47.8712
            1167     6.78173E-03     2.74647E-03     16.3819E-03     1.03742E-03    -85.2856E-03     14.5297E-03    -83.4333E-03     1.03742E-03     5.44929E-03     315.640E-03    -150.532E-03    -165.062E-03    -150.282E-03     315.391E-03    -165.062E-03     21.1011E-03    -30.5754E+06    -46.4436E+06    -102.910E+06    -51.9440E+06    -97.4098E+06    -30.5754E+06    -15.5150E+06         46.6494
            1168     5.92193E-03     2.76322E-03     14.0506E-03    -1.13009E-03    -82.2868E-03     11.1185E-03    -79.8790E-03    -605.764E-06     25.6817E-03     320.554E-03    -153.731E-03    -166.862E-03    -153.501E-03     320.323E-03    -166.862E-03     20.4855E-03    -39.2670E+06    -53.2793E+06    -135.504E+06    -55.3670E+06    -133.416E+06    -39.2670E+06    -11.5713E+06         45.9143
            1169     5.06697E-03     2.78583E-03     10.2631E-03    -4.77670E-03    -75.0538E-03     4.32088E-03    -72.0278E-03    -1.86045E-03     12.5613E-03     326.380E-03    -157.704E-03    -168.766E-03    -157.499E-03     326.175E-03    -168.766E-03     19.6889E-03    -48.4135E+06    -59.4346E+06    -168.100E+06    -60.1263E+06    -167.408E+06    -48.4135E+06    -7.67593E+06         45.6819
            1170     4.21454E-03     2.80620E-03     6.02094E-03    -4.26170E-03    -69.8272E-03    -5.08601E-03    -61.1122E-03    -1.86978E-03     27.2450E-03     332.394E-03    -162.054E-03    -170.610E-03    -161.879E-03     332.218E-03    -170.610E-03     18.3443E-03    -55.5228E+06    -64.2153E+06    -196.813E+06    -64.5067E+06    -196.522E+06    -55.5228E+06    -4.76413E+06         45.8194
            1171     3.36637E-03     2.82925E-03     6.56990E-03    -2.47048E-03    -72.8976E-03    -14.7381E-03    -54.6309E-03     570.826E-06     19.8457E-03     338.138E-03    -166.121E-03    -172.200E-03    -165.995E-03     338.012E-03    -172.200E-03     15.6857E-03    -60.7835E+06    -67.3114E+06    -218.428E+06    -67.3459E+06    -218.393E+06    -60.7835E+06    -815.209E+03         46.0787
            1172     2.52294E-03     2.85181E-03     13.9835E-03    -3.50120E-03    -78.8699E-03    -11.6986E-03    -62.1126E-03     5.42358E-03    -22.7094E-03     343.189E-03    -169.630E-03    -173.549E-03    -169.550E-03     343.109E-03    -173.549E-03     12.7236E-03    -63.3875E+06    -69.8761E+06    -237.777E+06    -69.9315E+06    -237.722E+06    -63.3875E+06     2.30184E+06         46.3135
            1173     1.67888E-03     2.86809E-03     26.4710E-03    -1.24482E-03    -92.4484E-03     5.98261E-03    -82.0855E-03     8.88062E-03    -32.4816E-03     347.133E-03    -172.455E-03    -174.637E-03    -172.410E-03     347.088E-03    -174.637E-03     9.36324E-03    -63.2824E+06    -71.6643E+06    -253.900E+06    -71.5082E+06    -253.813E+06    -63.5256E+06     3.67177E+06         46.5001
            1174     837.399E-06     2.88253E-03     62.0646E-03    -2.08240E-03    -128.829E-03     51.2339E-03    -87.5570E-03    -32.5236E-03    -17.0005E-03     350.158E-03    -174.554E-03    -175.600E-03    -174.882E-03     350.139E-03    -175.253E-03     5.80565E-03    -70.7520E+06    -78.6534E+06    -275.817E+06    -78.4092E+06    -275.734E+06    -71.0794E+06     3.84452E+06         46.6294
            1175     14.4329E-03     1.49122E-03     40.2673E-03     13.4447E-03    -122.746E-03     39.3430E-03    -121.822E-03     13.4447E-03     2.24651E-03     381.842E-03    -164.800E-03    -216.988E-03    -215.729E-03     380.583E-03    -164.800E-03     50.7544E-03     123.417E+06     72.9288E+06    -16.5640E+06    -14.1499E+06     70.5147E+06     123.417E+06     11.1625E+06         71.8275
            1176     13.6199E-03     1.42275E-03     36.6884E-03     11.9035E-03    -115.832E-03     36.2070E-03    -115.350E-03     11.9035E-03     10.7912E-03     354.998E-03    -162.402E-03    -192.915E-03    -192.545E-03     354.627E-03    -162.402E-03     24.3740E-03     114.479E+06     75.8655E+06    -16.2095E+06    -14.2039E+06     73.8599E+06     114.479E+06     10.1811E+06         68.4219
            1177     12.7835E-03     1.38532E-03     34.9337E-03     10.2920E-03    -110.471E-03     34.5895E-03    -110.127E-03     10.2920E-03     2.91331E-03     333.326E-03    -159.852E-03    -173.505E-03    -172.417E-03     333.157E-03    -160.770E-03     16.4001E-03     91.1668E+06     66.5009E+06    -18.1049E+06    -17.4679E+06     66.6378E+06     90.3930E+06    -2.91972E+06         64.6632
            1178     11.9347E-03     1.36758E-03     30.6271E-03     8.70121E-03    -105.198E-03     29.7221E-03    -104.293E-03     8.70121E-03     3.81564E-03     319.777E-03    -156.676E-03    -163.061E-03    -159.504E-03     319.616E-03    -160.071E-03     15.7168E-03     63.0469E+06     48.7478E+06    -22.8177E+06    -22.1154E+06     55.5309E+06     55.5615E+06    -5.47540E+06         61.2899
            1179     11.0760E-03     1.37278E-03     25.6608E-03     7.25826E-03    -100.212E-03     24.8493E-03    -99.4001E-03     7.25826E-03     3.40266E-03     313.380E-03    -153.501E-03    -160.237E-03    -153.344E-03     313.224E-03    -160.237E-03     15.5172E-03     47.2362E+06     23.2573E+06    -28.4287E+06    -26.9909E+06     45.7296E+06     23.3260E+06    -7.55026E+06         58.2641
            1180     10.2192E-03     1.37074E-03     23.0772E-03     5.89829E-03    -97.0750E-03     22.0620E-03    -96.0597E-03     5.89829E-03    -6.20213E-03     310.668E-03    -149.998E-03    -160.857E-03    -149.803E-03     310.473E-03    -160.857E-03     17.9327E-03     37.5850E+06    -1.49774E+06    -35.3140E+06    -33.3125E+06     35.5835E+06    -1.49774E+06    -9.46029E+06         55.5134
            1181     9.35588E-03     1.35806E-03     22.1339E-03     4.46356E-03    -94.3843E-03     20.9013E-03    -93.1517E-03     4.46356E-03    -14.7943E-03     308.064E-03    -146.163E-03    -161.962E-03    -146.002E-03     307.904E-03    -161.962E-03     15.8442E-03     25.7933E+06    -20.4177E+06    -36.8170E+06    -34.6655E+06     23.9383E+06    -20.7142E+06    -6.06702E+06         53.0913
            1182     8.48871E-03     1.36009E-03     19.9346E-03     2.86104E-03    -89.4419E-03     19.4601E-03    -88.9673E-03     2.86104E-03    -8.34774E-03     308.029E-03    -144.381E-03    -163.697E-03    -144.284E-03     307.932E-03    -163.697E-03     11.8432E-03    -8.12052E+06    -36.9896E+06    -49.1393E+06    -40.4706E+06    -14.1930E+06    -39.5857E+06    -8.06826E+06         51.0268
            1183     7.62261E-03     1.36492E-03     15.7393E-03     1.26136E-03    -83.4609E-03     14.5797E-03    -82.3013E-03     1.26136E-03    -16.1449E-03     311.788E-03    -145.768E-03    -165.857E-03    -145.682E-03     311.703E-03    -165.857E-03     11.0442E-03    -37.7184E+06    -46.4493E+06    -74.0239E+06    -47.5458E+06    -63.3095E+06    -47.3364E+06    -11.3275E+06         49.3509
            1184     6.75925E-03     1.37128E-03     10.8004E-03    -47.6304E-06    -78.3051E-03     8.67860E-03    -76.1833E-03    -47.6304E-06    -14.9125E-03     317.201E-03    -148.923E-03    -168.171E-03    -148.839E-03     317.117E-03    -168.171E-03     11.2735E-03    -47.7678E+06    -52.5463E+06    -107.554E+06    -52.0908E+06    -104.932E+06    -50.8455E+06    -9.43356E+06         48.0924
            1185     5.89938E-03     1.38134E-03     11.7618E-03    -1.36591E-03    -79.0731E-03     9.08790E-03    -76.3993E-03    -1.36591E-03    -11.1546E-03     323.810E-03    -153.089E-03    -170.741E-03    -153.007E-03     323.728E-03    -170.741E-03     11.3747E-03    -54.0582E+06    -57.0338E+06    -144.148E+06    -57.8821E+06    -142.998E+06    -54.3598E+06    -6.82432E+06         47.2701
            1186     5.04151E-03     1.39358E-03     12.9068E-03    -3.07730E-03    -79.1171E-03     7.98744E-03    -74.1978E-03    -3.07730E-03    -31.5189E-03     331.423E-03    -158.156E-03    -173.525E-03    -158.077E-03     331.344E-03    -173.525E-03     11.1147E-03    -55.7450E+06    -61.3031E+06    -174.705E+06    -61.5072E+06    -174.501E+06    -55.7450E+06    -4.07832E+06         46.8961
            1187     4.19089E-03     1.40452E-03     9.66244E-03    -4.42352E-03    -75.6130E-03    -584.449E-06    -65.3661E-03    -4.42352E-03    -22.7823E-03     339.605E-03    -163.774E-03    -176.233E-03    -163.705E-03     339.536E-03    -176.233E-03     10.6237E-03    -57.3754E+06    -64.3588E+06    -203.014E+06    -64.4045E+06    -202.969E+06    -57.3754E+06    -1.41378E+06         46.9195
            1188     3.34482E-03     1.41798E-03     12.8746E-03    -7.38085E-03    -74.9658E-03    -7.98362E-03    -57.1489E-03    -4.33955E-03    -1.38073E-03     347.958E-03    -169.498E-03    -178.542E-03    -169.444E-03     347.904E-03    -178.542E-03     9.59819E-03    -59.7312E+06    -66.7190E+06    -222.986E+06    -66.7584E+06    -222.946E+06    -59.7312E+06    -250.029E+03         47.1821
            1189     2.50212E-03     1.43040E-03     20.4617E-03    -11.7472E-03    -73.7884E-03    -8.72915E-03    -53.5224E-03    -2.82241E-03     4.57485E-03     355.569E-03    -175.013E-03    -180.415E-03    -174.974E-03     355.530E-03    -180.415E-03     7.79822E-03    -60.3455E+06    -68.9128E+06    -239.860E+06    -68.9434E+06    -239.829E+06    -60.3455E+06     1.24881E+06         47.5116
            1190     1.66567E-03     1.43934E-03     40.7389E-03    -9.47679E-03    -98.3946E-03    -9.06574E-03    -58.7154E-03     648.650E-06     31.7283E-03     361.333E-03    -179.405E-03    -181.844E-03    -179.385E-03     361.313E-03    -181.844E-03     5.34093E-03    -60.6308E+06    -73.1604E+06    -252.224E+06    -73.1908E+06    -252.194E+06    -60.6308E+06     1.18861E+06         47.8005
            1191     832.393E-06     1.44598E-03     97.2061E-03    -19.8773E-03    -149.562E-03     52.0320E-03    -78.3575E-03    -45.9080E-03     57.1088E-03     365.011E-03    -181.887E-03    -183.115E-03    -182.491E-03     365.006E-03    -182.506E-03     3.06943E-03    -68.9428E+06    -80.6853E+06    -271.559E+06    -79.5041E+06    -271.510E+06    -70.1731E+06     1.31259E+06         47.9978
            1192     849.841E-06     77.5802E-03     224.736E-03    -11.9451E-03    -279.788E-03     194.704E-03    -251.811E-03    -9.88978E-03    -123.595E-03     328.487E-03    -163.879E-03    -164.615E-03    -164.391E-03     328.479E-03    -164.095E-03     3.72990E-03    -124.878E+06    -129.852E+06    -278.745E+06    -127.185E+06    -278.679E+06    -127.610E+06     689.301E+03         45.5694
            1193     1.69762E-03     77.5855E-03     97.2663E-03     87.6218E-03    -250.069E-03     88.2569E-03    -245.086E-03     91.6485E-03     77.2837E-03     329.291E-03    -164.220E-03    -165.084E-03    -164.978E-03     329.282E-03    -164.317E-03     4.12733E-03    -120.562E+06    -128.103E+06    -257.187E+06    -127.812E+06    -257.143E+06    -120.897E+06     98.7953E+03         45.5963
            1194     2.54346E-03     77.5964E-03     98.8813E-03     79.6649E-03    -243.815E-03     85.2287E-03    -240.549E-03     90.0519E-03    -1.94940E-03     329.123E-03    -164.219E-03    -164.834E-03    -164.503E-03     329.112E-03    -164.538E-03     4.74575E-03    -106.932E+06    -122.845E+06    -241.128E+06    -122.892E+06    -241.081E+06    -106.932E+06     117.102E+03         45.6519
            1195     3.39511E-03     77.6007E-03     92.5204E-03     70.8099E-03    -228.942E-03     73.4076E-03    -226.512E-03     87.4929E-03    -35.0064E-03     328.744E-03    -164.077E-03    -164.650E-03    -164.060E-03     328.727E-03    -164.650E-03     5.87726E-03    -85.6098E+06    -115.489E+06    -218.942E+06    -115.561E+06    -218.871E+06    -85.6098E+06     1.28088E+06         45.7343
            1196     4.24141E-03     77.6134E-03     88.3188E-03     73.4036E-03    -227.682E-03     75.6270E-03    -226.382E-03     84.7957E-03    -23.4633E-03     328.955E-03    -164.176E-03    -164.756E-03    -164.216E-03     328.928E-03    -164.690E-03     7.17926E-03    -65.1880E+06    -108.255E+06    -198.571E+06    -108.491E+06    -198.335E+06    -65.1880E+06     1.37009E+06         45.8187
            1197     5.09153E-03     77.6233E-03     94.1115E-03     81.0950E-03    -242.594E-03     88.3404E-03    -239.948E-03     84.2198E-03     13.5603E-03     329.465E-03    -164.489E-03    -165.045E-03    -164.747E-03     329.421E-03    -164.744E-03     9.07356E-03    -46.0408E+06    -97.1488E+06    -170.294E+06    -97.3850E+06    -170.058E+06    -46.0408E+06     1.83679E+06         45.8924
            1198     5.93962E-03     77.6434E-03     92.8459E-03     84.8414E-03    -244.769E-03     88.1896E-03    -240.113E-03     84.8414E-03    -7.46254E-03     329.556E-03    -164.299E-03    -165.514E-03    -164.844E-03     329.470E-03    -164.883E-03     12.7486E-03    -27.3356E+06    -89.1370E+06    -139.900E+06    -89.5901E+06    -139.447E+06    -27.3356E+06     2.82075E+06         45.9763
            1199     6.78548E-03     77.6686E-03     86.4498E-03     80.5822E-03    -232.626E-03     79.4379E-03    -229.846E-03     84.8139E-03    -34.1778E-03     328.731E-03    -163.503E-03    -165.197E-03    -163.742E-03     328.574E-03    -164.801E-03     17.4109E-03    -9.80555E+06    -82.1320E+06    -111.009E+06    -83.2576E+06    -109.884E+06    -9.80555E+06     1.36675E+06         46.0882
            1200     7.63673E-03     77.6919E-03     84.0111E-03     75.4099E-03    -224.990E-03     74.3273E-03    -223.907E-03     84.0111E-03     13.7740E-03     327.716E-03    -162.789E-03    -164.567E-03    -162.558E-03     327.484E-03    -164.567E-03     21.2620E-03     5.89508E+06    -64.2930E+06    -84.6658E+06    -75.2188E+06    -73.7401E+06     5.89508E+06     1.63547E+06         46.3987
            1201     8.48754E-03     77.7221E-03     83.1036E-03     72.7478E-03    -221.509E-03     70.4956E-03    -219.064E-03     82.9105E-03    -14.0092E-03     328.263E-03    -163.252E-03    -164.702E-03    -163.116E-03     327.961E-03    -164.535E-03     24.3348E-03     22.6953E+06    -27.8830E+06    -65.7739E+06    -64.2569E+06    -29.4000E+06     22.6953E+06     4.05637E+06         47.2475
            1202     9.33512E-03     77.7541E-03     81.9758E-03     71.1917E-03    -219.470E-03     69.6531E-03    -217.738E-03     81.7827E-03    -29.3625E-03     329.365E-03    -164.113E-03    -165.210E-03    -164.307E-03     328.920E-03    -164.571E-03     29.4189E-03     35.8766E+06     14.0047E+06    -57.1252E+06    -56.2212E+06     13.1007E+06     35.8766E+06     7.43212E+06         48.7719
            1203     10.1827E-03     77.8013E-03     80.7370E-03     68.3005E-03    -217.742E-03     67.9430E-03    -217.385E-03     80.7370E-03    -12.1784E-03     328.386E-03    -163.557E-03    -165.120E-03    -163.409E-03     327.766E-03    -164.648E-03     34.8142E-03     46.4499E+06     40.4814E+06    -48.9811E+06    -48.1062E+06     39.6065E+06     46.4499E+06     6.38249E+06         50.9234
            1204     11.0359E-03     77.8407E-03     79.5521E-03     61.5769E-03    -209.753E-03     61.2416E-03    -209.418E-03     79.5521E-03    -8.14237E-03     327.058E-03    -162.703E-03    -164.641E-03    -161.835E-03     326.191E-03    -164.641E-03     40.7703E-03      56.362E+06     44.0947E+06    -43.1876E+06    -42.0091E+06     42.9162E+06      56.362E+06     1.96266E+06         53.6688
            1205     11.8897E-03     77.8980E-03     78.2552E-03     59.2884E-03    -204.350E-03     59.0302E-03    -204.092E-03     78.2552E-03    -3.22083E-03     327.622E-03    -163.247E-03    -164.482E-03    -162.195E-03     326.569E-03    -164.482E-03     44.5607E-03     65.1678E+06     46.7480E+06    -31.3368E+06    -29.9265E+06     46.8266E+06     63.6789E+06    -2.57648E+06         56.9796
            1206     12.7414E-03     77.9524E-03     77.1817E-03     61.3980E-03    -205.743E-03     61.1315E-03    -205.477E-03     77.1817E-03     11.8641E-03     328.721E-03    -163.289E-03    -165.407E-03    -163.273E-03     327.608E-03    -164.310E-03     45.5954E-03     80.9547E+06     62.8001E+06    -20.2351E+06    -17.8347E+06     61.8886E+06     79.4658E+06    -6.80757E+06         60.8322
            1207     13.5894E-03     78.0159E-03     76.2629E-03     59.0796E-03    -202.616E-03     58.3312E-03    -201.867E-03     76.2629E-03    -4.27922E-03     331.186E-03    -163.595E-03    -167.551E-03    -165.329E-03     329.746E-03    -164.377E-03     52.7345E-03     111.669E+06     81.1809E+06    -17.1323E+06    -14.8599E+06     78.9085E+06     111.669E+06    -3.55021E+06         64.9599
            1208     14.4303E-03     78.1147E-03     75.1458E-03     51.8615E-03    -195.544E-03     50.9270E-03    -194.609E-03     75.1458E-03    -29.1560E-03     333.080E-03    -164.697E-03    -168.610E-03    -167.150E-03     331.621E-03    -164.697E-03     53.7899E-03     136.271E+06     92.3866E+06    -12.3432E+06    -12.0147E+06     92.0581E+06     136.271E+06     797.755E+03         68.5362
            1209     847.363E-06     78.9671E-03     230.125E-03    -13.8398E-03    -278.197E-03     210.392E-03    -260.644E-03    -11.6603E-03    -112.268E-03     330.554E-03    -164.802E-03    -165.744E-03    -165.302E-03     330.548E-03    -165.238E-03     3.32842E-03    -122.020E+06    -125.602E+06    -280.631E+06    -125.339E+06    -280.558E+06    -122.355E+06    -596.681E+03         45.6224
            1210     1.69507E-03     78.9783E-03     97.1321E-03     91.2135E-03    -253.565E-03     88.3952E-03    -250.746E-03     97.1321E-03     59.0005E-03     329.431E-03    -164.253E-03    -165.216E-03    -164.434E-03     329.425E-03    -165.028E-03     3.35969E-03    -113.214E+06    -121.440E+06    -258.851E+06    -121.207E+06    -258.749E+06    -113.549E+06     1.34286E+06         45.6384
            1211     2.54625E-03     78.9821E-03     92.9803E-03     80.4668E-03    -238.027E-03     78.7591E-03    -235.960E-03     92.6216E-03     9.72972E-03     329.100E-03    -164.248E-03    -164.795E-03    -164.240E-03     329.093E-03    -164.795E-03     3.57051E-03    -100.910E+06    -119.361E+06    -241.724E+06    -119.442E+06    -241.643E+06    -100.910E+06     2.03782E+06         45.6842
            1212     3.39215E-03     78.9920E-03     91.1656E-03     76.5584E-03    -232.491E-03     77.9153E-03    -231.629E-03     88.9463E-03    -9.35805E-03     328.989E-03    -164.158E-03    -164.797E-03    -164.148E-03     328.978E-03    -164.797E-03     4.35701E-03    -83.8512E+06    -113.986E+06    -219.359E+06    -114.056E+06    -219.290E+06    -83.8512E+06     1.88204E+06         45.7501
            1213     4.24335E-03     79.0001E-03     92.9622E-03     82.5316E-03    -242.197E-03     87.0987E-03    -241.380E-03     87.5784E-03    -9.74065E-03     329.270E-03    -164.401E-03    -164.917E-03    -164.438E-03     329.240E-03    -164.851E-03     7.14472E-03    -64.2238E+06    -105.231E+06    -197.179E+06    -105.340E+06    -197.070E+06    -64.2238E+06     1.02254E+06         45.8215
            1214     5.08909E-03     79.0167E-03     97.7395E-03     86.1011E-03    -252.371E-03     92.4429E-03    -248.953E-03     87.9795E-03     20.0010E-03     329.909E-03    -164.744E-03    -165.180E-03    -164.989E-03     329.853E-03    -164.879E-03     10.3276E-03    -48.2569E+06    -97.4520E+06    -175.955E+06    -97.5414E+06    -175.866E+06    -48.2569E+06     17.0788E+03         45.8873
            1215     5.93532E-03     79.0334E-03     96.7394E-03     87.7815E-03    -252.339E-03     91.0900E-03    -247.494E-03     88.5853E-03     4.99608E-03     328.837E-03    -163.797E-03    -165.152E-03    -163.942E-03     328.748E-03    -164.917E-03     12.9869E-03    -29.7428E+06    -88.3015E+06    -144.041E+06    -89.0484E+06    -143.294E+06    -29.7428E+06     3.96852E+06         45.9575
            1216     6.78891E-03     79.0543E-03     90.5191E-03     85.5471E-03    -242.811E-03     85.2762E-03    -240.623E-03     88.6019E-03    -25.1045E-03     327.489E-03    -162.548E-03    -164.779E-03    -162.412E-03     327.352E-03    -164.779E-03     16.2230E-03    -4.79655E+06    -76.7026E+06    -105.735E+06    -78.7512E+06    -103.687E+06    -4.79655E+06     6.54977E+06         46.0605
            1217     7.63888E-03     79.0790E-03     87.8022E-03     77.0549E-03    -231.471E-03     75.9476E-03    -230.364E-03     87.8022E-03     31.4836E-03     327.340E-03    -162.391E-03    -164.481E-03    -162.199E-03     327.147E-03    -164.481E-03     19.2427E-03     12.4673E+06    -62.0325E+06    -78.4847E+06    -70.9281E+06    -69.5891E+06     12.4673E+06     3.24533E+06         46.3769
            1218     8.48866E-03     79.1086E-03     86.3498E-03     69.8636E-03    -224.239E-03     68.5041E-03    -222.879E-03     86.3498E-03     10.7547E-03     327.922E-03    -163.062E-03    -164.532E-03    -162.920E-03     327.612E-03    -164.365E-03     24.3487E-03     21.3084E+06    -34.4909E+06    -66.8643E+06    -66.2815E+06    -35.0737E+06     21.3084E+06     2.08380E+06         47.2316
            1219     9.33723E-03     79.1482E-03     84.8612E-03     69.5032E-03    -221.861E-03     69.0083E-03    -221.366E-03     84.8612E-03    -6.78622E-03     328.007E-03    -163.333E-03    -164.559E-03    -163.049E-03     327.556E-03    -164.392E-03     29.6158E-03     35.8856E+06     8.91929E+06    -57.0443E+06    -55.6654E+06     7.54037E+06     35.8856E+06     1.31524E+06         48.7588
            1220     10.1884E-03     79.1852E-03     83.5376E-03     66.4622E-03    -219.242E-03     65.9204E-03    -218.700E-03     83.5376E-03     16.9061E-03     327.736E-03    -163.114E-03    -164.821E-03    -162.990E-03     327.197E-03    -164.406E-03     32.4166E-03     50.8731E+06     40.7322E+06    -42.4163E+06    -40.9425E+06     39.2584E+06     50.8731E+06     964.895E+03         50.9147
            1221     11.0382E-03     79.2279E-03     82.2949E-03     66.1736E-03    -218.075E-03     65.6653E-03    -217.567E-03     82.2949E-03     13.7636E-03     328.725E-03    -163.457E-03    -165.493E-03    -163.851E-03     328.087E-03    -164.461E-03     35.3631E-03     70.1284E+06     58.1611E+06    -25.9166E+06    -24.9707E+06     57.2152E+06     70.1284E+06     4.03363E+06         53.6621
            1222     11.8852E-03     79.2849E-03     81.3303E-03     68.7477E-03    -217.857E-03     68.6376E-03    -217.747E-03     81.3303E-03    -1.83992E-03     330.164E-03    -164.107E-03    -166.125E-03    -165.044E-03     329.475E-03    -164.499E-03     36.8375E-03     77.6880E+06     54.8187E+06    -31.8855E+06    -30.7076E+06     53.6408E+06     77.6880E+06    -1.51682E+06         56.9718
            1223     12.7327E-03     79.3421E-03     80.3458E-03     61.2347E-03    -210.135E-03     60.8784E-03    -209.779E-03     80.3458E-03     8.10872E-03     332.309E-03    -164.607E-03    -167.606E-03    -166.759E-03     331.521E-03    -164.666E-03     39.3829E-03     88.7798E+06     58.9070E+06    -33.1362E+06    -30.8364E+06     56.6072E+06     88.7798E+06    -8.19148E+06         60.8217
            1224     13.5746E-03     79.4169E-03     78.9590E-03     52.3007E-03    -199.862E-03     51.5914E-03    -199.153E-03     78.9590E-03    -1.36784E-03     332.971E-03    -164.851E-03    -167.886E-03    -166.573E-03     331.658E-03    -164.851E-03     50.4209E-03     111.344E+06     75.6017E+06    -20.4298E+06    -18.4136E+06     73.5856E+06     111.344E+06    -3.43868E+06         64.9475
            1225     14.4267E-03     79.5015E-03     77.3163E-03     47.1082E-03    -193.319E-03     46.4423E-03    -192.653E-03     77.3163E-03    -20.1923E-03     329.502E-03    -163.172E-03    -166.402E-03    -163.099E-03     327.958E-03    -164.932E-03     55.0328E-03     132.064E+06     88.6302E+06    -11.4593E+06    -11.1087E+06     88.2795E+06     132.064E+06     3.67185E+06         68.5292
            1226     845.759E-06     80.3619E-03     228.992E-03    -31.5310E-03    -258.260E-03     212.626E-03    -245.579E-03    -27.8461E-03    -82.8361E-03     331.971E-03    -165.563E-03    -166.395E-03    -165.932E-03     331.966E-03    -166.020E-03     3.19775E-03    -123.348E+06    -129.591E+06    -282.027E+06    -127.715E+06    -281.952E+06    -125.298E+06     854.420E+03         45.6397
            1227     1.69556E-03     80.3649E-03     96.0085E-03     85.8521E-03    -243.915E-03     87.2583E-03    -240.617E-03     91.3049E-03     61.8867E-03     330.246E-03    -164.613E-03    -165.673E-03    -164.609E-03     330.242E-03    -165.673E-03     2.66283E-03    -114.150E+06    -124.257E+06    -262.872E+06    -124.384E+06    -262.746E+06    -114.150E+06     1.00035E+06         45.6542
            1228     2.54196E-03     80.3736E-03     102.406E-03     89.7031E-03    -255.153E-03     98.5954E-03    -253.110E-03     91.4709E-03     12.2913E-03     329.514E-03    -164.249E-03    -165.233E-03    -164.244E-03     329.508E-03    -165.233E-03     3.02977E-03    -99.6533E+06    -117.196E+06    -244.811E+06    -117.348E+06    -244.658E+06    -99.6533E+06     3.12740E+06         45.6947
            1229     3.39273E-03     80.3803E-03     105.285E-03     94.0219E-03    -264.912E-03     104.746E-03    -264.373E-03     94.0219E-03    -18.3824E-03     329.390E-03    -164.307E-03    -165.085E-03    -164.299E-03     329.381E-03    -165.085E-03     3.95766E-03    -84.0915E+06    -111.443E+06    -221.152E+06    -111.570E+06    -221.025E+06    -84.0915E+06     3.48967E+06         45.7478
            1230     4.23954E-03     80.3891E-03     100.740E-03     93.9531E-03    -261.872E-03     98.6047E-03    -261.492E-03     95.7091E-03    -13.3798E-03     329.056E-03    -164.062E-03    -165.084E-03    -164.027E-03     329.021E-03    -165.084E-03     7.55751E-03    -66.2053E+06    -105.786E+06    -199.214E+06    -105.857E+06    -199.143E+06    -66.2053E+06     2.37694E+06         45.8054
            1231     5.08988E-03     80.4083E-03     95.2494E-03     89.1633E-03    -253.087E-03     85.2511E-03    -249.175E-03     95.2494E-03     33.6382E-03     328.452E-03    -163.629E-03    -164.984E-03    -163.561E-03     328.383E-03    -164.984E-03     11.5290E-03    -44.9247E+06    -97.8301E+06    -176.737E+06    -98.0344E+06    -176.533E+06    -44.9247E+06     2.61690E+06         45.8673
            1232     5.94026E-03     80.4225E-03     95.1429E-03     83.0001E-03    -247.993E-03     79.9127E-03    -243.291E-03     93.5282E-03     20.2781E-03     328.379E-03    -163.598E-03    -165.045E-03    -163.712E-03     328.287E-03    -164.839E-03     13.3721E-03    -25.6007E+06    -87.3810E+06    -146.844E+06     -87.886E+06    -146.339E+06    -25.6007E+06     2.64394E+06         45.9397
            1233     6.78695E-03     80.4401E-03     93.3182E-03     76.9932E-03    -239.787E-03     77.1001E-03    -238.279E-03     91.7035E-03    -12.1673E-03     328.665E-03    -163.660E-03    -164.984E-03    -163.801E-03     328.550E-03    -164.727E-03     15.0708E-03    -6.03528E+06    -75.2685E+06    -109.517E+06    -77.2945E+06    -107.491E+06    -6.03528E+06     4.88063E+06         46.0431
            1234     7.63722E-03     80.4667E-03     89.9236E-03     74.5166E-03    -234.168E-03     73.9369E-03    -233.588E-03     89.9236E-03     17.5536E-03     328.095E-03    -163.135E-03    -164.603E-03    -163.044E-03     327.953E-03    -164.552E-03     16.6443E-03     14.2866E+06    -60.1974E+06    -76.4071E+06    -67.4941E+06    -69.1105E+06     14.2866E+06     4.74399E+06         46.3602
            1235     8.48764E-03     80.4947E-03     89.8339E-03     78.6452E-03    -237.777E-03     78.7506E-03    -236.589E-03     88.5406E-03    -22.3008E-03     327.062E-03    -162.379E-03    -164.404E-03    -162.129E-03     326.812E-03    -164.404E-03     21.6425E-03     28.7297E+06    -30.7994E+06    -60.8214E+06    -60.2862E+06    -31.3346E+06     28.7297E+06     2.73797E+06         47.2183
            1236     9.33948E-03     80.5355E-03     89.3078E-03     79.4392E-03    -236.438E-03     79.8642E-03    -235.254E-03     87.6994E-03    -27.8460E-03     327.010E-03    -162.524E-03    -164.374E-03    -162.185E-03     326.672E-03    -164.374E-03     25.5402E-03     44.3884E+06     17.2567E+06    -51.6182E+06    -50.6184E+06     16.2569E+06     44.3884E+06     63.5249E+03         48.7475
            1237     10.1890E-03     80.5712E-03     87.0969E-03     72.7485E-03    -227.404E-03     72.2560E-03    -226.596E-03     86.7818E-03     14.6700E-03     328.974E-03    -163.745E-03    -165.199E-03    -164.080E-03     328.543E-03    -164.432E-03     28.9223E-03     55.9318E+06     44.1659E+06    -44.2747E+06    -42.3550E+06     42.2462E+06     55.9318E+06    -4.15008E+06         50.9016
            1238     11.0349E-03     80.6246E-03     85.5154E-03     66.7857E-03    -219.098E-03     66.0623E-03    -218.374E-03     85.5154E-03     10.2883E-03     331.132E-03    -164.535E-03    -166.584E-03    -166.005E-03     330.552E-03    -164.535E-03     33.9166E-03     61.7806E+06     48.4273E+06    -38.1190E+06    -37.0212E+06     47.3295E+06     61.7806E+06    -2.77721E+06         53.6432
            1239     11.8816E-03     80.6742E-03     84.0000E-03     60.4308E-03    -211.550E-03     59.7333E-03    -210.852E-03     84.0000E-03    -554.126E-06     331.864E-03    -164.726E-03    -167.138E-03    -166.332E-03     331.058E-03    -164.726E-03     39.7176E-03     77.0024E+06     56.3420E+06    -28.9462E+06    -28.0501E+06     55.4459E+06     77.0024E+06     1.42703E+06         56.9461
            1240     12.7253E-03     80.7432E-03     82.3117E-03     55.8317E-03    -206.851E-03     55.2184E-03    -206.237E-03     82.3117E-03     10.9677E-03     331.541E-03    -164.587E-03    -166.977E-03    -165.342E-03     330.334E-03    -165.015E-03     48.4171E-03     91.1800E+06     60.2369E+06    -24.9650E+06    -23.8794E+06     59.1513E+06     91.1800E+06     4.25634E+06         60.7936
            1241     13.5754E-03     80.8059E-03     80.6971E-03     55.7358E-03    -204.708E-03     55.6583E-03    -204.630E-03     80.6971E-03     400.875E-06     330.543E-03    -164.539E-03    -165.938E-03    -163.528E-03     328.561E-03    -164.968E-03     61.4113E-03     110.162E+06     71.1138E+06    -18.7545E+06    -17.9624E+06     70.3218E+06     110.162E+06     4.91792E+06         64.9271
            1242     14.4226E-03     80.8928E-03     79.1665E-03     51.5837E-03    -199.523E-03     51.1159E-03    -199.056E-03     79.1665E-03    -14.7437E-03     328.716E-03    -163.075E-03    -165.591E-03    -161.807E-03     326.692E-03    -164.835E-03     62.2127E-03     136.256E+06     91.9582E+06    -7.28710E+06    -6.31392E+06     90.9850E+06     136.256E+06     973.168E+03         68.5199
            1243     848.402E-06     81.7548E-03     229.793E-03    -52.3762E-03    -238.178E-03     216.397E-03    -226.161E-03    -50.9974E-03    -77.3884E-03     331.986E-03    -165.694E-03    -166.292E-03    -165.796E-03     331.984E-03    -166.187E-03     2.03088E-03    -124.825E+06    -130.624E+06    -285.633E+06    -128.730E+06    -285.577E+06    -126.775E+06     1.32164E+06         45.6331
            1244     1.69280E-03     81.7583E-03     106.107E-03     82.7328E-03    -248.087E-03     100.544E-03    -246.086E-03     86.2936E-03     39.2102E-03     331.051E-03    -165.277E-03    -165.804E-03    -165.273E-03     331.047E-03    -165.804E-03     2.67975E-03    -117.181E+06    -125.450E+06    -264.067E+06    -125.552E+06    -263.965E+06    -117.181E+06     2.20071E+06         45.6444
            1245     2.54334E-03     81.7617E-03     114.071E-03     93.1060E-03    -268.200E-03     112.492E-03    -266.620E-03     93.1060E-03    -6.74689E-03     329.997E-03    -164.448E-03    -165.511E-03    -164.442E-03     329.991E-03    -165.511E-03     3.34419E-03    -102.845E+06    -119.696E+06    -247.373E+06    -119.862E+06    -247.207E+06    -102.845E+06     989.201E+03         45.6825
            1246     3.39069E-03     81.7704E-03     112.102E-03     97.9853E-03    -274.232E-03     111.006E-03    -273.136E-03     97.9853E-03    -31.6095E-03     329.419E-03    -164.121E-03    -165.297E-03    -164.109E-03     329.407E-03    -165.297E-03     4.66173E-03    -85.6367E+06    -111.796E+06    -224.533E+06    -112.047E+06    -224.282E+06    -85.6367E+06     2.81138E+06         45.7420
            1247     4.24053E-03     81.7791E-03     103.843E-03     94.5391E-03    -264.199E-03     98.6865E-03    -264.037E-03     99.5349E-03    -14.1089E-03     329.022E-03    -163.829E-03    -165.193E-03    -163.797E-03     328.991E-03    -165.193E-03     7.46319E-03    -64.5149E+06    -105.249E+06    -199.101E+06    -105.627E+06    -198.722E+06    -64.5149E+06     5.11633E+06         45.8030
            1248     5.08978E-03     81.7928E-03     98.4909E-03     88.3677E-03    -253.911E-03     87.1052E-03    -252.648E-03     98.4909E-03     15.4867E-03     328.281E-03    -163.376E-03    -165.066E-03    -163.331E-03     328.236E-03    -165.066E-03     9.13773E-03    -41.8718E+06    -97.9431E+06    -174.228E+06    -98.3440E+06    -173.827E+06    -41.8718E+06     4.44885E+06         45.8667
            1249     5.94002E-03     81.8109E-03     96.2391E-03     80.4073E-03    -245.273E-03     78.2431E-03    -243.109E-03     96.2391E-03    -426.027E-06     328.517E-03    -163.629E-03    -165.155E-03    -163.777E-03     328.459E-03    -164.949E-03     10.4148E-03    -22.6699E+06    -88.2264E+06    -146.741E+06    -88.4132E+06    -146.554E+06    -22.6699E+06     1.24865E+06         45.9465
            1250     6.78873E-03     81.8336E-03     93.3927E-03     69.9783E-03    -233.759E-03     68.4755E-03    -232.256E-03     93.3927E-03    -7.59494E-03     329.077E-03    -164.030E-03    -165.079E-03    -164.189E-03     328.978E-03    -164.822E-03     13.5967E-03    -7.09453E+06    -76.9402E+06    -115.621E+06    -77.5605E+06    -115.001E+06    -7.09453E+06     1.00463E+06         46.0553
            1251     7.63487E-03     81.8541E-03     90.8178E-03     72.8097E-03    -232.785E-03     72.1155E-03    -232.091E-03     90.8178E-03     19.5366E-03     329.232E-03    -163.930E-03    -165.053E-03    -164.150E-03     329.080E-03    -164.681E-03     17.2045E-03     11.4352E+06    -59.3101E+06    -81.5110E+06    -67.2899E+06    -73.5312E+06     11.4352E+06     3.93081E+06         46.3686
            1252     8.48420E-03     81.8828E-03     90.5635E-03     77.8044E-03    -235.252E-03     78.3442E-03    -234.499E-03     89.2702E-03    -9.67458E-03     328.687E-03    -163.468E-03    -165.016E-03    -163.585E-03     328.482E-03    -164.695E-03     19.9729E-03     30.7017E+06    -26.3660E+06    -59.7237E+06    -58.5343E+06    -27.5554E+06     30.7017E+06     3.55703E+06         47.2161
            1253     9.33445E-03     81.9189E-03     89.9076E-03     77.5585E-03    -232.504E-03     78.4244E-03    -231.762E-03     88.2991E-03    -23.1378E-03     327.810E-03    -163.176E-03    -164.738E-03    -162.905E-03     327.539E-03    -164.738E-03     22.9766E-03     47.8512E+06     23.3664E+06    -49.6534E+06    -49.3722E+06     23.0852E+06     47.8512E+06     2.82129E+06         48.7345
            1254     10.1833E-03     81.9654E-03     87.7392E-03     77.6192E-03    -230.151E-03     77.5008E-03    -229.717E-03     87.4241E-03     1.18943E-03     328.664E-03    -163.672E-03    -165.106E-03    -163.601E-03     328.241E-03    -164.754E-03     28.5754E-03     57.7018E+06     47.9615E+06    -48.2895E+06    -46.4576E+06     46.1295E+06     57.7018E+06     1.27826E+06         50.8808
            1255     11.0321E-03     82.0133E-03     86.4172E-03     72.6266E-03    -223.656E-03     71.8969E-03    -222.926E-03     86.4172E-03    -4.37296E-03     330.183E-03    -164.436E-03    -165.796E-03    -164.809E-03     329.538E-03    -164.778E-03     35.5554E-03     57.4913E+06     42.1892E+06    -48.6709E+06    -46.9292E+06     40.4475E+06     57.4913E+06    -927.787E+03         53.6182
            1256     11.8793E-03     82.0720E-03     85.0795E-03     64.7696E-03    -214.992E-03     63.7567E-03    -213.979E-03     85.0795E-03    -7.80325E-03     329.187E-03    -163.711E-03    -165.646E-03    -163.625E-03     328.315E-03    -164.860E-03     41.2329E-03     70.7091E+06     51.6159E+06    -30.4017E+06    -29.5287E+06     50.7429E+06     70.7091E+06     4.20071E+06         56.9219
            1257     12.7333E-03     82.1269E-03     83.4650E-03     57.7954E-03    -209.005E-03     57.2724E-03    -208.481E-03     83.4650E-03     9.28573E-03     327.496E-03    -162.708E-03    -165.016E-03    -161.528E-03     326.196E-03    -164.897E-03     49.9255E-03     88.6047E+06     59.9727E+06    -21.0061E+06    -19.9257E+06     58.8924E+06     88.6047E+06     7.75002E+06         60.7771
            1258     13.5863E-03     82.1959E-03     81.8273E-03     56.0414E-03    -204.580E-03     56.0185E-03    -204.557E-03     81.8273E-03     866.187E-06     328.756E-03    -163.564E-03    -165.217E-03    -162.210E-03     326.835E-03    -164.651E-03     60.3381E-03     113.092E+06     74.5741E+06    -17.4642E+06    -16.1181E+06     73.2280E+06     113.092E+06     2.53454E+06         64.9161
            1259     14.4431E-03     82.2771E-03     80.2528E-03     53.1390E-03    -199.020E-03     52.6860E-03    -198.567E-03     80.2528E-03    -10.5851E-03     332.386E-03    -164.661E-03    -167.731E-03    -165.946E-03     330.601E-03    -164.661E-03     58.1433E-03     140.263E+06     97.2777E+06    -8.30459E+06    -6.91544E+06     95.8886E+06     140.263E+06    -2.18139E+06         68.5002
            1260     845.738E-06     83.1482E-03     251.411E-03    -52.1766E-03    -259.295E-03     243.700E-03    -251.658E-03    -52.1014E-03    -61.2090E-03     331.636E-03    -165.479E-03    -166.168E-03    -165.478E-03     331.634E-03    -166.168E-03     1.36889E-03    -127.448E+06    -132.773E+06    -285.465E+06    -130.456E+06    -285.387E+06    -129.844E+06    -2.46156E+06         45.6316
            1261     1.69673E-03     83.1491E-03     113.377E-03     94.8625E-03    -269.338E-03     107.669E-03    -267.035E-03     98.2676E-03     40.2654E-03     330.864E-03    -165.277E-03    -165.634E-03    -165.274E-03     330.860E-03    -165.634E-03     2.12585E-03    -120.786E+06    -125.776E+06    -268.465E+06    -125.878E+06    -268.363E+06    -120.786E+06     330.758E+03         45.6405
            1262     2.54117E-03     83.1553E-03     110.901E-03     92.9292E-03    -266.249E-03     99.6290E-03    -262.560E-03     100.512E-03     3.62664E-03     330.522E-03    -164.956E-03    -165.506E-03    -164.952E-03     330.517E-03    -165.506E-03     2.95936E-03    -104.439E+06    -122.248E+06    -247.616E+06    -122.384E+06    -247.480E+06    -104.439E+06     1.34237E+06         45.6771
            1263     3.39128E-03     83.1572E-03     104.297E-03     86.4465E-03    -255.218E-03     90.0188E-03    -253.717E-03     99.2236E-03    -35.2880E-03     330.080E-03    -164.545E-03    -165.509E-03    -164.535E-03     330.070E-03    -165.509E-03     4.21268E-03    -83.9373E+06    -115.769E+06    -225.799E+06    -116.072E+06    -225.496E+06    -83.9373E+06    -16.6573E+03         45.7421
            1264     4.23966E-03     83.1703E-03     98.0668E-03     84.7879E-03    -248.392E-03     85.7890E-03    -248.256E-03     96.9289E-03    -10.7476E-03     329.783E-03    -164.373E-03    -165.438E-03    -164.355E-03     329.765E-03    -165.438E-03     5.90972E-03    -63.5690E+06    -104.115E+06    -202.224E+06    -104.591E+06    -201.747E+06    -63.5690E+06     1.29462E+06         45.8133
            1265     5.08757E-03     83.1813E-03     94.9392E-03     85.3932E-03    -245.931E-03     85.1090E-03    -245.647E-03     94.9392E-03     3.55329E-03     329.523E-03    -164.274E-03    -165.326E-03    -164.239E-03     329.488E-03    -165.326E-03     8.02148E-03    -45.8238E+06    -96.3924E+06    -177.876E+06    -96.7044E+06    -177.564E+06    -45.8238E+06     2.42276E+06         45.8845
            1266     5.93435E-03     83.2021E-03     97.5418E-03     85.4437E-03    -249.203E-03     88.6322E-03    -248.547E-03     93.6974E-03    -6.80561E-03     328.791E-03    -163.624E-03    -165.250E-03    -163.568E-03     328.734E-03    -165.250E-03     10.3095E-03    -20.7201E+06    -84.2887E+06    -143.614E+06    -85.1634E+06    -142.739E+06    -20.7201E+06     4.02820E+06         45.9683
            1267     6.78494E-03     83.2187E-03     100.530E-03     83.9928E-03    -251.205E-03     90.5980E-03    -250.423E-03     93.1439E-03    -5.39243E-03     328.681E-03    -163.436E-03    -165.065E-03    -163.348E-03     328.593E-03    -165.065E-03     12.8768E-03    -4.80254E+06    -78.3274E+06    -114.562E+06    -79.2009E+06    -113.689E+06    -4.80254E+06     2.14007E+06         46.0807
            1268     7.63728E-03     83.2459E-03     96.2029E-03     83.5314E-03    -245.135E-03     86.5605E-03    -244.622E-03     92.6607E-03     23.5588E-03     329.741E-03    -164.185E-03    -165.207E-03    -164.360E-03     329.595E-03    -164.885E-03     16.8686E-03     5.88743E+06    -67.3306E+06    -87.9571E+06    -73.0743E+06    -82.2133E+06     5.88743E+06     2.29133E+06         46.3903
            1269     8.48271E-03     83.2751E-03     91.6275E-03     76.9124E-03    -231.664E-03     76.6997E-03    -231.452E-03     91.6275E-03     11.3708E-03     330.295E-03    -164.810E-03    -165.350E-03    -164.963E-03     330.076E-03    -164.979E-03     20.6174E-03     30.7012E+06    -23.8537E+06    -60.1767E+06    -58.1292E+06    -25.9012E+06     30.7012E+06     6.08847E+06         47.2220
            1270     9.32830E-03     83.3086E-03     89.8636E-03     66.1452E-03    -218.666E-03     65.9736E-03    -218.494E-03     89.8636E-03     1.99595E-03     329.317E-03    -164.363E-03    -165.144E-03    -164.088E-03     328.993E-03    -165.094E-03     25.1180E-03     45.2119E+06     23.3005E+06    -54.5708E+06    -53.9052E+06     22.6349E+06     45.2119E+06     4.47863E+06         48.7236
            1271     10.1801E-03     83.3505E-03     87.7706E-03     62.9835E-03    -214.419E-03     62.1792E-03    -213.615E-03     87.7706E-03     19.1907E-03     328.269E-03    -163.587E-03    -165.084E-03    -163.109E-03     327.790E-03    -165.084E-03     30.5236E-03     53.5353E+06     45.1081E+06    -47.6693E+06    -46.6926E+06     44.1314E+06     53.5353E+06     6.28698E+06         50.8593
            1272     11.0306E-03     83.4053E-03     86.0290E-03     68.8727E-03    -218.918E-03     67.8542E-03    -217.900E-03     86.0290E-03     8.02849E-03     327.497E-03    -162.797E-03    -164.998E-03    -162.136E-03     326.837E-03    -164.998E-03     35.8249E-03     69.4463E+06     50.5711E+06    -34.2344E+06    -33.0592E+06     49.3959E+06     69.4463E+06     5.77679E+06         53.5923
            1273     11.8819E-03     83.4591E-03     84.8182E-03     71.3877E-03    -221.592E-03     70.7621E-03    -220.967E-03     84.8182E-03    -3.93498E-03     326.977E-03    -162.206E-03    -164.846E-03    -161.439E-03     326.210E-03    -164.846E-03     38.6607E-03     71.7474E+06     47.0014E+06    -35.1533E+06    -34.3718E+06     46.2199E+06     71.7474E+06    -414.108E+03         56.8951
            1274     12.7336E-03     83.5069E-03     83.6743E-03     65.3531E-03    -215.464E-03     65.0026E-03    -215.114E-03     83.6743E-03     10.5065E-03     327.542E-03    -162.726E-03    -164.954E-03    -162.048E-03     326.549E-03    -164.638E-03     43.7309E-03     83.7504E+06     60.2172E+06    -25.6292E+06    -24.8702E+06     59.4582E+06     83.7504E+06     545.395E+03         60.7446
            1275     13.5858E-03     83.5840E-03     82.2736E-03     57.8410E-03    -203.869E-03     57.7109E-03    -203.738E-03     82.2736E-03     4.58934E-03     330.822E-03    -163.922E-03    -166.932E-03    -164.808E-03     329.356E-03    -164.580E-03     53.3502E-03     113.668E+06     83.5861E+06    -13.6313E+06    -12.5678E+06     82.5225E+06     113.668E+06     238.829E+03         64.8714
            1276     14.4235E-03     83.6713E-03     80.5425E-03     47.8632E-03    -190.125E-03     47.8255E-03    -190.087E-03     80.5425E-03     597.225E-06     333.334E-03    -164.715E-03    -168.755E-03    -167.158E-03     331.858E-03    -164.836E-03     53.8534E-03     133.601E+06     92.6558E+06    -14.7385E+06    -13.9465E+06     91.8638E+06     133.601E+06     533.698E+03         68.4481
            1277     848.723E-06     84.5403E-03     288.068E-03    -39.1967E-03    -311.961E-03     273.416E-03    -310.862E-03    -25.6431E-03    -27.2259E-03     331.834E-03    -165.631E-03    -166.211E-03    -165.857E-03     331.833E-03    -165.984E-03     1.09422E-03    -121.435E+06    -130.770E+06    -282.985E+06    -128.574E+06    -282.785E+06    -123.831E+06     950.616E+03         45.6417
            1278     1.69274E-03     84.5422E-03     117.847E-03     97.0929E-03    -275.937E-03     93.6005E-03    -272.445E-03     117.847E-03     30.8104E-03     331.207E-03    -165.262E-03    -165.998E-03    -165.488E-03     331.206E-03    -165.771E-03     523.726E-06    -116.870E+06    -126.795E+06    -268.407E+06    -126.951E+06    -268.251E+06    -116.870E+06    -1.57339E+06         45.6555
            1279     2.54441E-03     84.5451E-03     107.775E-03     86.9760E-03    -256.469E-03     83.5794E-03    -253.073E-03     107.775E-03     20.9581E-03     330.389E-03    -164.736E-03    -165.610E-03    -164.732E-03     330.385E-03    -165.610E-03     2.05472E-03    -104.268E+06    -120.832E+06    -251.775E+06    -120.950E+06    -251.657E+06    -104.268E+06    -740.380E+03         45.6918
            1280     3.38936E-03     84.5514E-03     100.130E-03     72.0111E-03    -237.130E-03     71.1575E-03    -236.276E-03     100.130E-03    -15.2223E-03     330.824E-03    -164.975E-03    -165.836E-03    -165.168E-03     330.806E-03    -165.624E-03     5.34314E-03    -83.5988E+06    -113.358E+06    -225.001E+06    -113.682E+06    -224.677E+06    -83.5988E+06     992.007E+03         45.7504
            1281     4.23681E-03     84.5592E-03     94.3385E-03     72.7497E-03    -232.795E-03     72.6105E-03    -232.656E-03     94.3385E-03     6.14861E-03     331.123E-03    -165.272E-03    -165.939E-03    -165.455E-03     331.094E-03    -165.727E-03     7.22399E-03    -63.3504E+06    -105.491E+06    -203.070E+06    -105.821E+06    -202.740E+06    -63.3504E+06    -1.21979E+06         45.8236
            1282     5.08539E-03     84.5741E-03     91.3543E-03     81.9910E-03    -238.756E-03     81.7315E-03    -238.496E-03     91.3543E-03     12.5049E-03     330.174E-03    -164.574E-03    -165.676E-03    -164.537E-03     330.138E-03    -165.676E-03     8.27322E-03    -45.7947E+06    -95.2665E+06    -180.763E+06    -95.3888E+06    -180.640E+06    -45.7947E+06    -24.6371E+03         45.9015
            1283     5.93603E-03     84.5886E-03     95.4864E-03     88.3425E-03    -248.520E-03     92.1231E-03    -247.452E-03     90.6371E-03    -10.8531E-03     329.006E-03    -163.554E-03    -165.504E-03    -163.500E-03     328.952E-03    -165.504E-03     10.0890E-03    -25.4921E+06    -85.9230E+06    -147.943E+06    -86.8140E+06    -147.052E+06    -25.4921E+06     4.51378E+06         45.9849
            1284     6.78476E-03     84.6084E-03     99.4989E-03     90.1215E-03    -253.155E-03     97.5931E-03    -252.236E-03     91.1074E-03    -15.8080E-03     328.976E-03    -163.516E-03    -165.299E-03    -163.404E-03     328.864E-03    -165.299E-03     14.1460E-03    -3.71371E+06    -76.9479E+06    -112.264E+06    -78.7227E+06    -110.489E+06    -3.71371E+06     4.64739E+06         46.0897
            1285     7.62998E-03     84.6355E-03     94.9042E-03     86.6320E-03    -243.174E-03     90.0249E-03    -243.025E-03     91.3620E-03     9.43856E-03     329.296E-03    -163.874E-03    -165.122E-03    -163.681E-03     329.103E-03    -165.122E-03     19.1188E-03     12.8778E+06     -65.065E+06    -81.9903E+06      -70.08E+06    -76.9753E+06     12.8778E+06     1.75340E+06         46.3935
            1286     8.48157E-03     84.6668E-03     93.0607E-03     83.0415E-03    -235.560E-03     84.0318E-03    -234.338E-03     90.8483E-03    -18.5214E-03     329.345E-03    -164.086E-03    -165.107E-03    -163.856E-03     329.065E-03    -165.057E-03     23.1666E-03     25.6861E+06    -33.1986E+06    -62.1002E+06    -60.7708E+06    -34.5280E+06     25.6861E+06     3.92368E+06         47.2228
            1287     9.33169E-03     84.7007E-03     92.8122E-03     76.9277E-03    -230.373E-03     78.5626E-03    -229.101E-03     89.9055E-03    -16.0427E-03     330.210E-03    -164.587E-03    -165.760E-03    -164.819E-03     329.803E-03    -165.122E-03     28.2441E-03     42.5964E+06     19.2870E+06    -53.3882E+06    -52.1345E+06     18.0333E+06     42.5964E+06     9.05126E+06         48.7186
            1288     10.1767E-03     84.7404E-03     89.1067E-03     65.8226E-03    -218.786E-03     65.8716E-03    -218.140E-03     88.4123E-03     15.9571E-03     329.989E-03    -164.489E-03    -165.790E-03    -164.550E-03     329.462E-03    -165.201E-03     32.2421E-03     57.3934E+06     48.7435E+06    -44.3137E+06    -43.6923E+06     48.1221E+06     57.3934E+06     6.04997E+06         50.8438
            1289     11.0271E-03     84.7908E-03     86.4847E-03     61.2507E-03    -212.208E-03     60.5463E-03    -211.504E-03     86.4847E-03     5.91317E-03     327.289E-03    -162.250E-03    -165.102E-03    -161.665E-03     326.705E-03    -165.102E-03     33.7967E-03     65.8804E+06     49.6676E+06    -36.1241E+06    -35.6945E+06     49.2379E+06     65.8804E+06     1.53857E+06         53.5659
            1290     11.8819E-03     84.8397E-03     84.5706E-03     59.2175E-03    -208.107E-03     58.7962E-03    -207.686E-03     84.5706E-03     4.67303E-03     327.259E-03    -162.176E-03    -164.966E-03    -161.464E-03     326.547E-03    -164.966E-03     37.1588E-03     76.4759E+06     50.5301E+06    -32.4150E+06    -31.1561E+06     49.2713E+06     76.4759E+06     1.30877E+06         56.8582
            1291     12.7294E-03     84.9033E-03     82.6966E-03     56.0152E-03    -202.301E-03     55.5636E-03    -201.850E-03     82.6966E-03     10.6083E-03     330.391E-03    -164.325E-03    -166.041E-03    -164.496E-03     329.389E-03    -164.867E-03     44.2871E-03     89.0556E+06     61.2235E+06    -26.0674E+06    -25.1835E+06     60.3395E+06     89.0556E+06     99.6163E+03         60.6895
            1292     13.5744E-03     84.9693E-03     80.8506E-03     55.2333E-03    -196.260E-03     54.8679E-03    -195.895E-03     80.8506E-03    -7.38619E-03     332.493E-03    -164.848E-03    -167.647E-03    -165.873E-03     330.719E-03    -164.848E-03     58.4772E-03     113.644E+06     82.8065E+06    -15.2403E+06    -15.0128E+06     82.5789E+06     113.644E+06     2.38378E+06         64.8025
            1293     14.4270E-03     85.0782E-03     78.9851E-03     49.4976E-03    -187.805E-03     49.2551E-03    -187.562E-03     78.9851E-03    -10.7273E-03     330.731E-03    -164.204E-03    -166.629E-03    -164.017E-03     328.919E-03    -165.003E-03     59.1023E-03     133.973E+06     95.7725E+06    -12.0155E+06    -11.7591E+06     95.5162E+06     133.973E+06     4.69122E+06         68.3887
            1294     846.339E-06     85.9353E-03     273.107E-03    -43.8578E-03    -297.508E-03     259.246E-03    -262.563E-03    -64.9408E-03    -13.8126E-03     331.880E-03    -165.499E-03    -166.377E-03    -165.810E-03     331.879E-03    -166.065E-03     696.662E-06    -117.030E+06    -127.398E+06    -288.558E+06    -123.692E+06    -288.395E+06    -120.900E+06     4.79341E+06         45.6510
            1295     1.69502E-03     85.9360E-03     115.894E-03     79.6419E-03    -255.050E-03     96.3069E-03    -252.812E-03     96.9910E-03    -22.9665E-03     331.258E-03    -165.084E-03    -166.194E-03    -165.465E-03     331.256E-03    -165.810E-03     1.14228E-03    -110.089E+06    -121.042E+06    -264.521E+06    -121.369E+06    -264.195E+06    -110.089E+06     3.15936E+06         45.6724
            1296     2.53982E-03     85.9345E-03     109.489E-03     83.3058E-03    -252.102E-03     94.9801E-03    -250.809E-03     96.5219E-03    -10.4089E-03     330.980E-03    -164.993E-03    -165.946E-03    -165.229E-03     330.976E-03    -165.707E-03     2.07504E-03    -99.5756E+06    -117.135E+06    -251.514E+06    -117.425E+06    -251.224E+06    -99.5756E+06    -84.8924E+03         45.7187
            1297     3.39263E-03     85.9409E-03     103.174E-03     79.8141E-03    -244.651E-03     86.7575E-03    -243.576E-03     95.1556E-03    -25.6690E-03     330.963E-03    -164.964E-03    -165.986E-03    -165.241E-03     330.945E-03    -165.692E-03     5.16639E-03    -87.3496E+06    -112.203E+06    -230.669E+06    -112.424E+06    -230.449E+06    -87.3496E+06     1.72272E+06         45.7770
            1298     4.23875E-03     85.9556E-03     94.9316E-03     78.7438E-03    -236.765E-03     80.4322E-03    -236.344E-03     92.8221E-03    -2.73751E-03     331.145E-03    -165.216E-03    -165.974E-03    -165.398E-03     331.115E-03    -165.763E-03     7.40018E-03    -65.4595E+06    -107.809E+06    -203.982E+06    -108.403E+06    -203.388E+06    -65.4595E+06     5.00283E+06         45.8446
            1299     5.08459E-03     85.9638E-03     90.9160E-03     83.1691E-03    -237.242E-03     83.0051E-03    -237.078E-03     90.9160E-03     10.8565E-03     330.731E-03    -165.049E-03    -165.816E-03    -165.008E-03     330.690E-03    -165.816E-03     8.79469E-03    -41.5341E+06    -100.591E+06    -177.074E+06    -101.021E+06    -176.644E+06    -41.5341E+06     3.17453E+06         45.9214
            1300     5.93196E-03     85.9796E-03     90.8558E-03     83.9072E-03    -237.342E-03     84.1097E-03    -236.539E-03     89.8510E-03    -5.60611E-03     329.768E-03    -164.258E-03    -165.690E-03    -164.204E-03     329.714E-03    -165.690E-03     10.0921E-03    -27.4781E+06    -92.4845E+06    -151.230E+06    -92.5491E+06    -151.165E+06    -27.4781E+06     451.355E+03         46.0055
            1301     6.78170E-03     85.9969E-03     89.7263E-03     77.8714E-03    -228.143E-03     77.4933E-03    -226.760E-03     88.7214E-03     3.02464E-03     329.008E-03    -163.468E-03    -165.445E-03    -163.350E-03     328.890E-03    -165.445E-03     14.5256E-03    -6.53210E+06    -78.1471E+06    -115.947E+06    -79.0862E+06    -115.008E+06    -6.53210E+06     1.72693E+06         46.1026
            1302     7.63529E-03     86.0267E-03     87.3063E-03     76.5205E-03    -223.065E-03     75.4920E-03    -222.036E-03     87.3063E-03     24.7253E-03     328.843E-03    -163.324E-03    -165.246E-03    -163.132E-03     328.651E-03    -165.246E-03     19.0114E-03     11.7113E+06    -64.6427E+06    -83.8659E+06    -71.4748E+06    -77.0338E+06     11.7113E+06     3.06902E+06         46.3978
            1303     8.48310E-03     86.0534E-03     88.5136E-03     80.9132E-03    -227.860E-03     81.2439E-03    -225.978E-03     86.3013E-03    -23.8670E-03     329.059E-03    -163.750E-03    -165.157E-03    -163.499E-03     328.808E-03    -165.157E-03     21.7129E-03     22.3608E+06    -36.8329E+06    -69.7097E+06    -68.5914E+06    -37.9512E+06     22.3608E+06     1.80485E+06         47.2251
            1304     9.33197E-03     86.0920E-03     89.2780E-03     84.5773E-03    -233.382E-03     86.3312E-03    -231.791E-03     85.9324E-03    -33.5581E-03     329.220E-03    -163.646E-03    -165.706E-03    -163.854E-03     328.840E-03    -165.118E-03     27.1057E-03     39.7245E+06     15.7634E+06    -58.0499E+06    -57.3014E+06     15.0148E+06     39.7245E+06     2.68362E+06         48.7179
            1305     10.1799E-03     86.1384E-03     86.7341E-03     79.9138E-03    -230.201E-03     81.0292E-03    -230.183E-03     85.6009E-03    -1.46366E-03     329.178E-03    -163.688E-03    -165.700E-03    -163.733E-03     328.635E-03    -165.111E-03     32.5814E-03     55.7453E+06     50.4463E+06    -43.9845E+06    -42.9845E+06     49.5535E+06     55.6382E+06     4.98274E+06         50.8376
            1306     11.0271E-03     86.1757E-03     84.4553E-03     64.6238E-03    -214.032E-03     63.9003E-03    -213.308E-03     84.4553E-03    -17.3053E-03     329.906E-03    -163.688E-03    -166.263E-03    -164.160E-03     329.223E-03    -165.109E-03     36.5266E-03     62.9652E+06     54.8576E+06    -38.4642E+06    -37.2403E+06     53.7408E+06     62.8581E+06     5.62485E+06         53.5488
            1307     11.8749E-03     86.2263E-03     82.3389E-03     50.8055E-03    -196.267E-03     50.0664E-03    -195.528E-03     82.3389E-03    -17.1927E-03     330.512E-03    -163.880E-03    -166.726E-03    -164.653E-03     329.737E-03    -165.178E-03     38.9575E-03     73.7864E+06     52.2135E+06    -37.0057E+06    -35.7044E+06     50.9122E+06     73.7864E+06     5.22895E+06         56.8213
            1308     12.7286E-03     86.2929E-03     79.8813E-03     46.5578E-03    -187.051E-03     46.4235E-03    -186.917E-03     79.8813E-03    -4.96997E-03     330.812E-03    -164.309E-03    -166.597E-03    -164.530E-03     329.782E-03    -165.345E-03     44.8573E-03     93.0293E+06     58.8399E+06    -27.3085E+06    -26.3730E+06     57.9044E+06     93.0293E+06     6.07912E+06         60.6326
            1309     13.5764E-03     86.3688E-03     77.6480E-03     48.8065E-03    -185.947E-03     48.5526E-03    -185.693E-03     77.6480E-03    -11.7743E-03     330.371E-03    -164.224E-03    -166.191E-03    -163.464E-03     328.615E-03    -165.194E-03     58.1753E-03     111.974E+06     74.8669E+06    -19.8682E+06    -19.2695E+06     74.2682E+06     111.974E+06     6.02456E+06         64.7430
            1310     14.4244E-03     86.4570E-03     75.8485E-03     52.7987E-03    -188.580E-03     52.5446E-03    -188.326E-03     75.8485E-03    -6.78719E-03     327.381E-03    -162.352E-03    -165.167E-03    -160.745E-03     325.636E-03    -165.028E-03     57.6481E-03     135.629E+06     98.9960E+06    -8.12880E+06    -7.81629E+06     98.6835E+06     135.629E+06     2.19457E+06         68.3456
            1311     846.907E-06     87.3230E-03     223.498E-03    -59.0832E-03    -230.058E-03     219.044E-03    -192.752E-03    -91.9352E-03     40.3449E-03     330.117E-03    -164.449E-03    -165.664E-03    -165.231E-03     330.113E-03    -164.878E-03     1.85766E-03    -121.242E+06    -127.817E+06    -294.545E+06    -122.748E+06    -294.479E+06    -126.378E+06     492.105E+03         45.6590
            1312     1.69586E-03     87.3273E-03     92.6495E-03     67.5374E-03    -222.508E-03     88.8336E-03    -219.758E-03     68.6038E-03     11.6731E-03     330.674E-03    -164.686E-03    -165.990E-03    -165.556E-03     330.669E-03    -165.116E-03     2.66775E-03    -116.690E+06    -122.553E+06    -270.515E+06    -121.512E+06    -270.291E+06    -117.956E+06     3.78897E+06         45.6898
            1313     2.54502E-03     87.3278E-03     99.9344E-03     77.1930E-03    -237.093E-03     98.3572E-03    -235.516E-03     77.1930E-03     3.91877E-03     332.206E-03    -165.506E-03    -166.630E-03    -166.624E-03     332.200E-03    -165.506E-03     3.09683E-03    -97.9603E+06    -116.493E+06    -249.622E+06    -117.082E+06    -249.034E+06    -97.9603E+06     5.40683E+06         45.7516
            1314     3.38621E-03     87.3337E-03     104.036E-03     83.1601E-03    -246.225E-03     103.109E-03    -245.298E-03     83.1601E-03    -27.0084E-03     332.069E-03    -165.409E-03    -166.531E-03    -166.065E-03     332.055E-03    -165.862E-03     4.97362E-03    -77.9588E+06    -110.712E+06    -228.946E+06    -111.129E+06    -228.529E+06    -77.9588E+06     3.14567E+06         45.8240
            1315     4.23690E-03     87.3445E-03     101.417E-03     86.6324E-03    -248.660E-03     100.662E-03    -248.221E-03     86.9484E-03    -14.6985E-03     330.633E-03    -164.654E-03    -165.915E-03    -164.632E-03     330.612E-03    -165.915E-03     6.29198E-03    -60.4533E+06    -101.748E+06    -206.684E+06    -102.199E+06    -206.233E+06    -60.4533E+06     2.18526E+06         45.8878
            1316     5.08692E-03     87.3579E-03     92.5016E-03     85.9401E-03    -240.708E-03     89.6861E-03    -240.321E-03     88.3682E-03    -5.65541E-03     330.216E-03    -164.531E-03    -165.820E-03    -164.493E-03     330.178E-03    -165.820E-03     8.29772E-03    -40.0476E+06    -94.4117E+06    -176.760E+06    -95.7806E+06    -175.391E+06    -40.0476E+06     6.26184E+06         45.9520
            1317     5.93433E-03     87.3708E-03     87.7865E-03     79.2165E-03    -227.939E-03     78.8142E-03    -227.536E-03     87.7865E-03    -10.7628E-03     330.555E-03    -164.887E-03    -165.866E-03    -164.951E-03     330.495E-03    -165.742E-03     10.6553E-03    -20.2718E+06    -88.2565E+06    -146.628E+06    -89.3198E+06    -145.565E+06    -20.2718E+06     4.91591E+06         46.0393
            1318     6.78214E-03     87.3859E-03     86.2454E-03     73.3418E-03    -219.048E-03     72.6361E-03    -218.342E-03     86.2454E-03     10.7757E-03     330.275E-03    -164.486E-03    -165.735E-03    -164.507E-03     330.172E-03    -165.611E-03     14.0739E-03    -7.60300E+06    -81.5353E+06    -119.588E+06    -81.8205E+06    -119.303E+06    -7.60300E+06     1.54987E+06         46.1457
            1319     7.62829E-03     87.4136E-03     84.7548E-03     75.0542E-03    -218.937E-03     73.9387E-03    -217.821E-03     84.7548E-03     29.7482E-03     329.680E-03    -163.982E-03    -165.496E-03    -163.823E-03     329.521E-03    -165.496E-03     17.4095E-03     7.23200E+06    -66.6776E+06    -89.2777E+06    -72.9373E+06    -83.0181E+06     7.23200E+06     5.28667E+06         46.4328
            1320     8.47891E-03     87.4450E-03     83.7587E-03     77.1981E-03    -220.231E-03     76.2621E-03    -219.295E-03     83.7587E-03     514.569E-06     329.138E-03    -163.627E-03    -165.405E-03    -163.403E-03     328.914E-03    -165.405E-03     20.6561E-03     24.9519E+06    -29.2958E+06    -68.0874E+06    -64.5813E+06    -32.8020E+06     24.9519E+06     6.09885E+06         47.2408
            1321     9.32639E-03     87.4823E-03     83.2788E-03     72.1835E-03    -215.674E-03     71.3464E-03    -214.398E-03     82.8399E-03    -3.52324E-03     327.553E-03    -162.387E-03    -165.256E-03    -162.031E-03     327.197E-03    -165.256E-03     26.1328E-03     39.2036E+06     18.9887E+06    -59.6040E+06    -58.3662E+06     17.7509E+06     39.2036E+06     4.59888E+06         48.7211
            1322     10.1810E-03     87.5202E-03     81.9927E-03     65.7942E-03    -209.997E-03     64.7079E-03    -208.472E-03     81.5538E-03     26.4833E-03     327.693E-03    -162.777E-03    -165.102E-03    -162.289E-03     327.204E-03    -165.102E-03     30.7435E-03     46.3327E+06     41.7231E+06    -55.5008E+06    -53.6170E+06     39.9465E+06     46.2256E+06     1.87379E+06         50.8360
            1323     11.0344E-03     87.5700E-03     79.9639E-03     61.4667E-03    -205.486E-03     60.0099E-03    -204.030E-03     79.9639E-03     9.43739E-03     330.595E-03    -164.518E-03    -166.235E-03    -165.019E-03     329.942E-03    -165.081E-03     35.5941E-03     58.7546E+06     49.0268E+06    -44.8614E+06    -42.7382E+06     47.0108E+06     58.6474E+06     6.11970E+06         53.5415
            1324     11.8767E-03     87.6269E-03     78.1585E-03     54.7225E-03    -196.756E-03     53.3662E-03    -195.399E-03     78.1585E-03     6.61481E-03     332.328E-03    -165.143E-03    -167.393E-03    -166.439E-03     331.466E-03    -165.235E-03     41.1293E-03     77.3316E+06     57.8213E+06    -33.4348E+06    -31.4669E+06     55.8534E+06     77.3316E+06     11.0602E+06         56.8033
            1325     12.7177E-03     87.6786E-03     76.2512E-03     50.8601E-03    -188.983E-03     50.2073E-03    -188.330E-03     76.2512E-03     9.22483E-03     330.688E-03    -164.623E-03    -166.316E-03    -164.391E-03     329.452E-03    -165.312E-03     48.7035E-03     83.3458E+06     59.9145E+06    -31.7960E+06    -30.4174E+06     58.5359E+06     83.3458E+06     5.82977E+06         60.6023
            1326     13.5719E-03     87.7570E-03     74.4748E-03     50.6093E-03    -188.116E-03     50.5049E-03    -188.012E-03     74.4748E-03    -6.85235E-03     328.276E-03    -163.260E-03    -165.127E-03    -161.360E-03     326.377E-03    -165.127E-03     60.3701E-03     104.236E+06     75.0621E+06    -21.1782E+06    -20.5156E+06     74.3995E+06     104.236E+06     4.45821E+06         64.7109
            1327     14.4264E-03     87.8431E-03     72.8227E-03     47.8492E-03    -185.279E-03     47.7046E-03    -185.134E-03     72.8227E-03     362.165E-06     326.877E-03    -162.112E-03    -165.003E-03    -160.371E-03     325.136E-03    -165.003E-03     57.4047E-03     140.254E+06     102.897E+06    -4.31398E+06    -3.96165E+06     102.545E+06     140.254E+06     -21.833E+03         68.3238
            1328     851.605E-06     88.7154E-03     197.307E-03    -29.4816E-03    -236.351E-03     186.060E-03    -231.418E-03    -23.1688E-03     65.5465E-03     328.969E-03    -163.767E-03    -165.205E-03    -165.201E-03     328.965E-03    -163.767E-03     1.85346E-03    -123.709E+06    -129.694E+06    -295.351E+06    -127.876E+06    -295.310E+06    -125.570E+06    -485.420E+03         45.6797
            1329     1.69712E-03     88.7164E-03     83.6417E-03     63.9565E-03    -212.743E-03     67.2088E-03    -210.852E-03     78.4991E-03     32.7711E-03     331.486E-03    -164.863E-03    -166.619E-03    -166.616E-03     331.482E-03    -164.863E-03     1.45102E-03    -116.169E+06    -125.523E+06    -271.940E+06    -124.261E+06    -271.936E+06    -117.435E+06    -103.089E+03         45.7167
            1330     2.54196E-03     88.7222E-03     86.0751E-03     69.3935E-03    -216.946E-03     78.2990E-03    -215.861E-03     76.0844E-03     23.1575E-03     332.186E-03    -165.259E-03    -166.858E-03    -166.574E-03     332.181E-03    -165.539E-03     2.23399E-03    -100.213E+06    -117.096E+06    -253.894E+06    -117.472E+06    -253.518E+06    -100.213E+06     3.13931E+06         45.7779
            1331     3.39169E-03     88.7303E-03     91.0277E-03     76.9817E-03    -226.406E-03     89.8502E-03    -226.201E-03     77.9542E-03    -7.32099E-03     332.069E-03    -165.457E-03    -166.479E-03    -166.043E-03     332.055E-03    -165.878E-03     4.82206E-03    -77.0923E+06    -108.523E+06    -228.243E+06    -109.054E+06    -227.712E+06    -77.0923E+06     5.06926E+06         45.8530
            1332     4.23581E-03     88.7344E-03     92.7413E-03     77.9943E-03    -229.024E-03     89.9747E-03    -228.646E-03     80.3825E-03    -766.012E-06     331.327E-03    -165.257E-03    -166.043E-03    -165.286E-03     331.302E-03    -165.990E-03     6.89883E-03    -59.3729E+06    -102.158E+06    -208.461E+06    -102.711E+06    -207.908E+06    -59.3729E+06     3.43108E+06         45.9224
            1333     5.08395E-03     88.7479E-03     89.1231E-03     79.8746E-03    -229.278E-03     86.7055E-03    -228.690E-03     81.7043E-03    -4.16753E-03     330.181E-03    -164.408E-03    -165.915E-03    -164.418E-03     330.151E-03    -165.875E-03     7.63494E-03    -41.9396E+06    -91.4556E+06    -183.198E+06    -92.8313E+06    -181.822E+06    -41.9396E+06     4.79177E+06         45.9863
            1334     5.93433E-03     88.7615E-03     88.4375E-03     79.4592E-03    -228.009E-03     84.7943E-03    -227.140E-03     82.2339E-03    -5.07368E-03     330.150E-03    -164.433E-03    -165.863E-03    -164.503E-03     330.096E-03    -165.739E-03     9.95390E-03    -19.1909E+06    -78.7196E+06    -147.448E+06    -81.1519E+06    -145.016E+06    -19.1909E+06     8.55591E+06         46.0723
            1335     6.78046E-03     88.7819E-03     87.4756E-03     79.4060E-03    -226.416E-03     83.9510E-03    -225.931E-03     82.4455E-03     9.64781E-03     330.884E-03    -165.015E-03    -165.818E-03    -165.026E-03     330.772E-03    -165.694E-03     14.6926E-03    -1.37280E+06    -73.8308E+06    -116.083E+06    -76.4168E+06    -113.497E+06    -1.37280E+06     9.07090E+06         46.1791
            1336     7.62974E-03     88.8022E-03     84.6982E-03     81.5389E-03    -225.784E-03     82.9483E-03    -225.001E-03     82.5053E-03     21.5509E-03     330.341E-03    -164.465E-03    -165.610E-03    -164.245E-03     330.121E-03    -165.610E-03     20.5287E-03     11.9034E+06    -63.6928E+06    -88.8586E+06    -68.0749E+06    -84.4765E+06     11.9034E+06     4.67518E+06         46.4606
            1337     8.47688E-03     88.8382E-03     82.1208E-03     75.7942E-03    -218.080E-03     73.5418E-03    -215.747E-03     82.0398E-03    -3.26694E-03     328.688E-03    -163.097E-03    -165.451E-03    -162.799E-03     328.391E-03    -165.451E-03     24.1662E-03     23.7702E+06    -32.1189E+06    -66.3380E+06    -57.6936E+06    -40.7633E+06     23.7702E+06     6.63668E+06         47.2569
            1338     9.33089E-03     88.8646E-03     80.5150E-03     60.8824E-03    -202.367E-03     58.3543E-03    -199.839E-03     80.5150E-03    -3.25227E-03     327.981E-03    -162.856E-03    -165.301E-03    -162.484E-03     327.608E-03    -165.301E-03     26.8903E-03     41.0115E+06     18.4790E+06    -54.2291E+06    -51.6227E+06     16.8912E+06     39.9929E+06     12.2417E+06         48.7279
            1339     10.1791E-03     88.9109E-03     78.1244E-03     50.0314E-03    -190.082E-03     47.9824E-03    -188.033E-03     78.1244E-03     25.0074E-03     329.154E-03    -164.076E-03    -165.262E-03    -163.548E-03     328.626E-03    -165.262E-03     31.8290E-03     58.4643E+06     48.5942E+06    -51.5393E+06    -48.1594E+06     46.2330E+06     57.4457E+06     9.31723E+06         50.8359
            1340     11.0227E-03     88.9604E-03     75.8090E-03     53.5104E-03    -191.933E-03     52.1162E-03    -190.539E-03     75.8090E-03     4.93515E-03     329.318E-03    -164.165E-03    -165.199E-03    -163.478E-03     328.632E-03    -165.199E-03     36.3295E-03     61.9400E+06     46.3404E+06    -50.1226E+06    -47.2939E+06     43.5117E+06     61.9400E+06     5.25186E+06         53.5391
            1341     11.8778E-03     89.0166E-03     74.1452E-03     58.5982E-03    -196.225E-03     57.5838E-03    -195.210E-03     74.1452E-03     16.9421E-03     329.028E-03    -163.479E-03    -165.694E-03    -163.127E-03     328.067E-03    -165.084E-03     43.1639E-03     65.2717E+06     51.5273E+06    -34.8718E+06    -33.3522E+06     51.2827E+06     63.9968E+06     5.21483E+06         56.8089
            1342     12.7311E-03     89.0778E-03     72.8026E-03     56.0647E-03    -190.780E-03     55.3510E-03    -190.066E-03     72.8026E-03     13.2183E-03     329.815E-03    -164.213E-03    -165.836E-03    -163.683E-03     328.475E-03    -165.026E-03     51.0795E-03     81.6846E+06     64.8106E+06    -23.2087E+06    -21.6752E+06     64.5521E+06     80.4097E+06     4.13817E+06         60.6207
            1343     13.5773E-03     89.1371E-03     71.2364E-03     45.9935E-03    -180.178E-03     45.8735E-03    -180.058E-03     71.2364E-03    -8.90250E-03     329.920E-03    -164.044E-03    -165.882E-03    -163.031E-03     327.966E-03    -164.940E-03     61.3975E-03     109.577E+06     80.6167E+06    -20.4802E+06    -19.5565E+06     79.6930E+06     109.577E+06    -1.41451E+06         64.7321
            1344     14.4301E-03     89.2303E-03     69.3781E-03     40.8432E-03    -175.049E-03     40.6614E-03    -174.867E-03     69.3781E-03    -8.03136E-03     329.432E-03    -163.901E-03    -165.645E-03    -162.891E-03     327.680E-03    -164.904E-03     57.6513E-03     139.766E+06     104.355E+06    -9.38855E+06    -8.58732E+06     103.554E+06     139.766E+06    -1.64731E+06         68.3350
            1345     847.093E-06     90.1038E-03     158.489E-03     17.1713E-03    -244.555E-03     147.759E-03    -240.611E-03     23.9566E-03     62.1653E-03     331.621E-03    -164.991E-03    -166.633E-03    -166.306E-03     331.615E-03    -165.312E-03     2.25409E-03    -122.748E+06    -130.281E+06    -295.469E+06    -129.710E+06    -295.445E+06    -123.343E+06     1.05342E+06         45.7124
            1346     1.69430E-03     90.1125E-03     96.9996E-03     71.8114E-03    -234.411E-03     83.3171E-03    -234.204E-03     85.2876E-03     11.7456E-03     331.847E-03    -164.984E-03    -166.843E-03    -166.021E-03     331.846E-03    -165.805E-03     766.209E-06    -112.439E+06    -123.609E+06    -268.500E+06    -123.638E+06    -268.471E+06    -112.439E+06    -312.135E+03         45.7419
            1347     2.54157E-03     90.1157E-03     88.3161E-03     71.5035E-03    -222.769E-03     75.9156E-03    -222.401E-03     83.5356E-03     16.6167E-03     331.458E-03    -165.081E-03    -166.308E-03    -165.522E-03     331.452E-03    -165.861E-03     2.44558E-03    -102.111E+06    -118.323E+06    -258.039E+06    -118.388E+06    -257.974E+06    -102.111E+06    -2.35434E+06         45.7891
            1348     3.38836E-03     90.1187E-03     80.8088E-03     67.1506E-03    -207.179E-03     67.0626E-03    -206.875E-03     80.5926E-03     3.64239E-03     331.334E-03    -165.393E-03    -165.890E-03    -165.409E-03     331.323E-03    -165.863E-03     4.24762E-03    -87.2425E+06    -110.282E+06    -238.714E+06    -110.499E+06    -238.497E+06    -87.2425E+06     1.40499E+06         45.8500
            1349     4.23887E-03     90.1311E-03     77.6327E-03     65.4504E-03    -200.204E-03     64.9397E-03    -199.693E-03     77.6327E-03     10.8506E-03     331.099E-03    -165.250E-03    -165.931E-03    -165.284E-03     331.079E-03    -165.877E-03     6.05102E-03    -63.9294E+06    -102.753E+06    -211.280E+06    -103.318E+06    -210.716E+06    -63.9294E+06     6.71183E+06         45.9213
            1350     5.08473E-03     90.1379E-03     83.1186E-03     72.3604E-03    -211.621E-03     77.6028E-03    -210.187E-03     76.4419E-03    -4.64611E-03     330.491E-03    -164.901E-03    -165.871E-03    -164.895E-03     330.446E-03    -165.831E-03     9.15614E-03    -41.9971E+06    -92.6447E+06    -184.146E+06    -93.0935E+06    -183.698E+06    -41.9971E+06     3.22805E+06         45.9975
            1351     5.93167E-03     90.1526E-03     91.8600E-03     77.3723E-03    -224.551E-03     89.4682E-03    -222.159E-03     77.3723E-03     9.23142E-03     329.894E-03    -164.556E-03    -165.697E-03    -164.480E-03     329.818E-03    -165.697E-03     12.0753E-03    -27.5901E+06    -83.0035E+06    -158.302E+06    -84.4645E+06    -156.841E+06    -27.5901E+06     4.59578E+06         46.0831
            1352     6.78361E-03     90.1711E-03     88.3804E-03     74.5299E-03    -218.403E-03     82.7709E-03    -216.721E-03     78.4575E-03     21.7828E-03     329.969E-03    -164.413E-03    -165.586E-03    -164.293E-03     329.849E-03    -165.586E-03     15.2831E-03    -4.28567E+06    -69.5398E+06    -121.628E+06    -74.5550E+06    -116.613E+06    -4.28567E+06     12.6327E+06         46.1792
            1353     7.63039E-03     90.1971E-03     80.2628E-03     66.9309E-03    -205.480E-03     67.8338E-03    -204.190E-03     78.0700E-03     15.4848E-03     329.880E-03    -164.180E-03    -165.483E-03    -163.994E-03     329.694E-03    -165.483E-03     18.8078E-03     17.5236E+06    -57.5475E+06    -87.5534E+06    -65.8341E+06    -79.2668E+06     17.5236E+06     8.62040E+06         46.4578
            1354     8.48257E-03     90.2206E-03     76.4941E-03     61.5429E-03    -197.596E-03     57.6844E-03    -193.656E-03     76.4131E-03    -14.9104E-03     329.541E-03    -164.065E-03    -165.464E-03    -163.860E-03     329.294E-03    -165.422E-03     21.7305E-03     25.2813E+06    -40.0406E+06    -68.6097E+06    -59.9956E+06    -48.6547E+06     25.2813E+06     1.98496E+06         47.2599
            1355     9.32849E-03     90.2590E-03     74.3410E-03     57.5868E-03    -191.765E-03     54.0354E-03    -188.213E-03     74.3410E-03    -20.7885E-03     329.618E-03    -164.359E-03    -165.445E-03    -164.089E-03     329.306E-03    -165.402E-03     24.7413E-03     40.8065E+06     13.3703E+06    -52.6466E+06    -48.4865E+06     10.2288E+06     39.7879E+06     9.64790E+06         48.7324
            1356     10.1766E-03     90.2997E-03     72.3803E-03     54.2570E-03    -187.601E-03     53.2848E-03    -186.629E-03     72.3803E-03     8.23519E-03     329.072E-03    -163.910E-03    -165.403E-03    -163.395E-03     328.557E-03    -165.403E-03     31.3249E-03     59.9478E+06     53.9425E+06    -43.8546E+06    -39.6070E+06     50.7136E+06     58.9292E+06     18.4560E+06         50.8382
            1357     11.0315E-03     90.3532E-03     70.6154E-03     52.2064E-03    -183.650E-03     51.6588E-03    -183.102E-03     70.6154E-03    -18.7042E-03     328.212E-03    -163.075E-03    -165.308E-03    -162.395E-03     327.532E-03    -165.308E-03     36.1497E-03     73.9673E+06     60.1336E+06    -35.7242E+06    -33.1584E+06     57.5679E+06     73.9673E+06     12.1134E+06         53.5434
            1358     11.8786E-03     90.3982E-03     69.1396E-03     55.2430E-03    -184.957E-03     54.9708E-03    -184.685E-03     69.1396E-03    -4.60760E-03     327.638E-03    -162.638E-03    -165.093E-03    -161.798E-03     326.798E-03    -165.093E-03     40.0411E-03     70.6441E+06     51.6046E+06    -36.7202E+06    -36.1321E+06     52.2914E+06     69.3692E+06     936.064E+03         56.8207
            1359     12.7299E-03     90.4657E-03     68.0629E-03     58.8305E-03    -186.016E-03     58.7453E-03    -185.931E-03     68.0629E-03     4.36076E-03     328.461E-03    -163.302E-03    -165.243E-03    -162.444E-03     327.402E-03    -165.043E-03     45.5245E-03     88.5112E+06     62.7782E+06    -24.6704E+06    -24.0007E+06     63.3834E+06     87.2363E+06    -579.743E+03         60.6482
            1360     13.5810E-03     90.5309E-03     66.8862E-03     48.1350E-03    -173.743E-03     47.9410E-03    -173.550E-03     66.8862E-03     4.18785E-03     330.744E-03    -164.432E-03    -166.188E-03    -164.023E-03     329.071E-03    -164.924E-03     56.7403E-03     117.405E+06     86.2884E+06    -15.5204E+06    -13.5157E+06     84.2838E+06     117.405E+06     2.64674E+06         64.7690
            1361     14.4235E-03     90.6216E-03     65.2496E-03     39.1890E-03    -162.401E-03     38.4521E-03    -161.664E-03     65.2496E-03    -8.36087E-03     330.460E-03    -164.451E-03    -165.892E-03    -163.749E-03     328.695E-03    -164.829E-03     58.5302E-03     136.202E+06     103.551E+06    -12.1708E+06    -10.3039E+06     101.684E+06     136.202E+06     2.44142E+06         68.3630
            1362     844.546E-06     91.4993E-03     100.158E-03     41.5134E-03    -202.516E-03     96.9231E-03    -199.281E-03     41.5134E-03     35.9520E-03     333.492E-03    -165.813E-03    -167.680E-03    -166.388E-03     333.484E-03    -167.097E-03     3.67421E-03    -122.331E+06    -127.623E+06    -296.821E+06    -126.965E+06    -296.790E+06    -123.021E+06    -413.279E+03         45.7291
            1363     1.69242E-03     91.5046E-03     88.9027E-03     72.9935E-03    -225.919E-03     88.2881E-03    -225.305E-03     72.9935E-03    -3.97693E-03     331.114E-03    -164.818E-03    -166.287E-03    -164.813E-03     331.109E-03    -166.287E-03     2.75488E-03    -116.796E+06    -122.734E+06    -271.235E+06    -122.142E+06    -271.137E+06    -117.485E+06     602.616E+03         45.7510
            1364     2.54285E-03     91.5052E-03     85.2207E-03     71.7941E-03    -219.980E-03     79.3729E-03    -219.473E-03     77.1353E-03     4.98214E-03     331.144E-03    -165.148E-03    -165.919E-03    -165.153E-03     331.136E-03    -165.906E-03     3.45509E-03    -103.362E+06    -119.902E+06    -256.422E+06    -120.024E+06    -256.300E+06    -103.362E+06    -192.898E+03         45.7939
            1365     3.39056E-03     91.5151E-03     80.8184E-03     63.8969E-03    -202.840E-03     67.7073E-03    -202.199E-03     76.3664E-03    -6.03865E-03     331.129E-03    -165.222E-03    -165.859E-03    -165.223E-03     331.117E-03    -165.846E-03     4.68755E-03    -88.3666E+06    -114.651E+06    -241.939E+06    -114.758E+06    -241.832E+06    -88.3666E+06    -1.36304E+06         45.8493
            1366     4.23595E-03     91.5188E-03     77.4153E-03     64.6270E-03    -197.197E-03     66.9276E-03    -196.572E-03     74.4902E-03    -3.12179E-03     330.120E-03    -164.414E-03    -165.762E-03    -164.394E-03     330.100E-03    -165.762E-03     5.97761E-03    -69.4537E+06    -102.406E+06    -217.257E+06    -102.537E+06    -217.126E+06    -69.4537E+06     1.57332E+06         45.9138
            1367     5.08754E-03     91.5309E-03     76.5982E-03     65.5430E-03    -196.496E-03     67.2455E-03    -194.807E-03     73.2070E-03    -19.2675E-03     329.716E-03    -164.374E-03    -165.636E-03    -164.328E-03     329.670E-03    -165.636E-03     9.25399E-03    -46.4484E+06    -93.2750E+06    -184.473E+06    -93.4593E+06    -184.289E+06    -46.4484E+06     3.63402E+06         45.9871
            1368     5.93605E-03     91.5432E-03     80.4326E-03     59.2968E-03    -190.602E-03     65.1881E-03    -188.210E-03     72.1486E-03    -8.02821E-03     330.273E-03    -164.904E-03    -165.722E-03    -165.014E-03     330.192E-03    -165.531E-03     12.5097E-03    -27.4002E+06    -87.7847E+06    -158.030E+06    -87.9373E+06    -157.878E+06    -27.4002E+06     2.24528E+06         46.0789
            1369     6.78091E-03     91.5613E-03     75.8119E-03     58.5593E-03    -186.073E-03     61.3767E-03    -183.998E-03     70.9192E-03    -3.18954E-03     330.482E-03    -164.828E-03    -165.629E-03    -164.901E-03     330.364E-03    -165.438E-03     15.2314E-03    -8.15571E+06    -73.5665E+06    -127.747E+06    -77.0813E+06    -124.233E+06    -8.15571E+06     8.14635E+06         46.1822
            1370     7.63228E-03     91.5862E-03     70.3892E-03     57.7823E-03    -183.752E-03     56.8752E-03    -181.887E-03     69.4309E-03    -3.16215E-03     330.451E-03    -164.803E-03    -165.458E-03    -164.685E-03     330.296E-03    -165.422E-03     17.4095E-03     14.7561E+06    -56.5031E+06    -87.7810E+06    -65.4153E+06    -78.8688E+06     14.7561E+06     12.2230E+06         46.4617
            1371     8.47673E-03     91.6136E-03     68.9060E-03     57.0484E-03    -182.147E-03     55.5379E-03    -179.641E-03     67.9112E-03    -7.94211E-03     330.569E-03    -164.996E-03    -165.604E-03    -164.839E-03     330.333E-03    -165.526E-03     21.2341E-03     30.2994E+06    -33.4122E+06    -68.0368E+06    -60.0774E+06    -41.3717E+06     30.2994E+06     8.02407E+06         47.2634
            1372     9.32593E-03     91.6511E-03     66.6195E-03     57.5416E-03    -181.017E-03     55.2439E-03    -178.683E-03     66.5830E-03    -10.6487E-03     330.060E-03    -164.643E-03    -165.623E-03    -164.338E-03     329.712E-03    -165.580E-03     26.0198E-03     39.2931E+06     7.66095E+06    -59.9989E+06    -54.8426E+06     2.50469E+06     39.2931E+06     10.9918E+06         48.7355
            1373     10.1756E-03     91.6884E-03     65.4548E-03     56.1166E-03    -180.829E-03     55.5103E-03    -180.223E-03     65.4548E-03     14.7453E-03     329.216E-03    -163.925E-03    -165.481E-03    -163.453E-03     328.744E-03    -165.481E-03     30.3224E-03     48.7076E+06     40.6159E+06    -45.4035E+06    -43.0176E+06     40.2785E+06     46.6592E+06     12.1707E+06         50.8406
            1374     11.0233E-03     91.7367E-03     64.4513E-03     54.7511E-03    -178.697E-03     54.6481E-03    -178.594E-03     64.4513E-03    -8.09755E-03     328.678E-03    -163.507E-03    -165.399E-03    -162.941E-03     328.112E-03    -165.399E-03     33.2449E-03     66.4964E+06     55.1373E+06    -33.4798E+06    -32.1943E+06     55.9002E+06     64.4479E+06     10.4976E+06         53.5450
            1375     11.8760E-03     91.7912E-03     63.3438E-03     49.2883E-03    -171.661E-03     49.1402E-03    -171.513E-03     63.3438E-03    -2.22521E-03     328.234E-03    -163.038E-03    -165.348E-03    -162.362E-03     327.558E-03    -165.348E-03     36.1970E-03     91.4268E+06     65.4399E+06    -26.5034E+06    -25.3167E+06     64.2533E+06     91.4268E+06     9.11467E+06         56.8220
            1376     12.7257E-03     91.8483E-03     62.0642E-03     47.0255E-03    -168.233E-03     46.8753E-03    -168.083E-03     62.0642E-03     1.45722E-03     327.854E-03    -162.632E-03    -165.243E-03    -161.563E-03     326.785E-03    -165.243E-03     45.1508E-03     97.8609E+06     67.0329E+06    -27.5309E+06    -26.5369E+06     66.0388E+06     97.8609E+06     4.88046E+06         60.6510
            1377     13.5763E-03     91.9233E-03     62.4976E-03     50.9051E-03    -172.286E-03     51.9982E-03    -171.805E-03     60.9234E-03    -4.12177E-03     329.037E-03    -163.584E-03    -165.303E-03    -162.207E-03     327.338E-03    -164.981E-03     57.3493E-03     112.724E+06     83.8194E+06    -19.7135E+06    -17.8807E+06     81.9866E+06     112.724E+06     4.77194E+06         64.7771
            1378     14.4334E-03     92.0094E-03     61.4976E-03     47.7649E-03    -165.962E-03     48.4491E-03    -165.072E-03     59.9234E-03    -11.9356E-03     329.401E-03    -164.037E-03    -165.152E-03    -162.754E-03     327.797E-03    -164.831E-03     55.4847E-03     143.401E+06     110.299E+06    -5.96273E+06    -4.60617E+06     108.943E+06     143.401E+06     2.28820E+06         68.3778
            1379     847.122E-06     92.8953E-03     79.1248E-03     48.2426E-03    -183.719E-03     41.7634E-03    -170.278E-03     72.1631E-03     15.8125E-03     331.229E-03    -164.442E-03    -166.794E-03    -164.802E-03     331.224E-03    -166.428E-03     3.17349E-03    -124.494E+06    -128.869E+06    -296.369E+06    -126.272E+06    -296.343E+06    -127.117E+06    -691.451E+03         45.7181
            1380     1.69636E-03     92.8927E-03     62.4171E-03     56.6575E-03    -176.856E-03     56.2572E-03    -170.821E-03     56.7830E-03    -29.2346E-03     331.153E-03    -164.911E-03    -166.246E-03    -165.591E-03     331.146E-03    -165.559E-03     3.63403E-03    -119.540E+06    -125.589E+06    -275.471E+06    -124.978E+06    -275.393E+06    -120.229E+06     1.10975E+06         45.7456
            1381     2.54144E-03     92.9001E-03     71.8156E-03     58.5798E-03    -189.931E-03     70.4980E-03    -188.614E-03     58.5798E-03    -123.969E-06     331.048E-03    -165.059E-03    -165.953E-03    -165.373E-03     331.041E-03    -165.631E-03     3.81910E-03    -103.168E+06    -119.984E+06    -255.495E+06    -120.168E+06    -255.310E+06    -103.168E+06     3.84391E+06         45.7933
            1382     3.38919E-03     92.9040E-03     84.8199E-03     63.1280E-03    -206.490E-03     84.1653E-03    -205.835E-03     63.1280E-03    -11.7964E-03     330.263E-03    -164.609E-03    -165.611E-03    -164.597E-03     330.250E-03    -165.611E-03     4.87240E-03    -85.0225E+06    -115.840E+06    -236.065E+06    -116.024E+06    -235.880E+06    -85.0225E+06     690.798E+03         45.8535
            1383     4.24052E-03     92.9109E-03     78.6765E-03     66.3061E-03    -200.988E-03     77.6813E-03    -200.476E-03     66.7893E-03    -2.46033E-03     330.237E-03    -164.591E-03    -165.677E-03    -164.683E-03     330.217E-03    -165.565E-03     6.15714E-03    -71.4753E+06    -108.974E+06    -220.609E+06    -109.149E+06    -220.434E+06    -71.4753E+06    -2.42962E+06         45.9161
            1384     5.08656E-03     92.9187E-03     67.0026E-03     57.9114E-03    -179.038E-03     57.2829E-03    -178.410E-03     67.0026E-03    -15.4063E-03     329.978E-03    -164.552E-03    -165.625E-03    -164.632E-03     329.946E-03    -165.513E-03     7.79572E-03    -53.9198E+06    -98.4649E+06    -192.680E+06    -98.7708E+06    -192.374E+06    -53.9198E+06     1.98862E+06         45.9839
            1385     5.93567E-03     92.9361E-03     64.5670E-03     46.3363E-03    -163.126E-03     42.9958E-03    -159.786E-03     64.5670E-03     9.34028E-03     329.981E-03    -164.538E-03    -165.621E-03    -164.665E-03     329.917E-03    -165.429E-03     11.0647E-03    -28.3158E+06    -87.9637E+06    -155.630E+06    -88.4232E+06    -155.171E+06    -28.3158E+06     4.25279E+06         46.0806
            1386     6.78509E-03     92.9545E-03     61.7950E-03     47.2275E-03    -159.818E-03     43.6566E-03    -156.247E-03     61.7950E-03     13.1778E-03     330.606E-03    -164.935E-03    -165.521E-03    -165.012E-03     330.492E-03    -165.330E-03     14.9161E-03    -7.71157E+06    -78.1513E+06    -126.417E+06    -79.3910E+06    -125.177E+06    -7.71157E+06     3.11619E+06         46.1958
            1387     7.62935E-03     92.9767E-03     61.0905E-03     53.9158E-03    -168.234E-03     52.8351E-03    -166.195E-03     60.1321E-03     10.7222E-03     330.713E-03    -164.999E-03    -165.338E-03    -164.834E-03     330.512E-03    -165.302E-03     19.7027E-03     5.04745E+06    -65.1699E+06    -98.0195E+06    -71.2071E+06    -91.9822E+06     5.04745E+06     7.63276E+06         46.4783
            1388     8.47988E-03     93.0089E-03     61.0405E-03     58.1666E-03    -174.589E-03     56.9851E-03    -171.805E-03     59.4382E-03    -2.84931E-03     330.568E-03    -164.869E-03    -165.598E-03    -164.747E-03     330.274E-03    -165.425E-03     24.0561E-03     25.9906E+06    -32.8784E+06    -72.4308E+06    -60.6852E+06    -44.6240E+06     25.9906E+06     15.9714E+06         47.2732
            1389     9.32839E-03     93.0384E-03     60.1449E-03     56.3477E-03    -173.689E-03     55.7641E-03    -171.927E-03     58.9662E-03    -19.8869E-03     330.337E-03    -164.911E-03    -165.643E-03    -164.658E-03     329.948E-03    -165.507E-03     27.6362E-03     42.2724E+06     7.66217E+06    -54.7329E+06    -50.3215E+06     3.25075E+06     42.2724E+06     11.5324E+06         48.7407
            1390     10.1756E-03     93.0836E-03     59.5457E-03     54.0386E-03    -172.841E-03     54.9525E-03    -172.659E-03     58.4492E-03     2.87723E-03     329.908E-03    -164.521E-03    -165.460E-03    -163.989E-03     329.376E-03    -165.460E-03     32.3065E-03     50.5092E+06     37.2143E+06    -45.2354E+06    -44.3686E+06     38.3960E+06     48.4608E+06     7.44636E+06         50.8449
            1391     11.0243E-03     93.1268E-03     58.4533E-03     52.9930E-03    -169.468E-03     53.5003E-03    -169.414E-03     57.8914E-03    -6.21968E-03     329.258E-03    -163.895E-03    -165.372E-03    -163.125E-03     328.488E-03    -165.372E-03     38.5869E-03     63.6481E+06     54.0394E+06    -41.8319E+06    -39.5122E+06     55.5488E+06     59.8190E+06     14.3194E+06         53.5488
            1392     11.8724E-03     93.1809E-03     57.1172E-03     47.5518E-03    -161.048E-03     47.4509E-03    -160.947E-03     57.1172E-03     1.48225E-03     328.711E-03    -163.526E-03    -165.306E-03    -162.631E-03     327.816E-03    -165.306E-03     41.6848E-03     80.5211E+06     63.9862E+06    -31.0271E+06    -28.3680E+06     63.1078E+06     78.7405E+06     15.5236E+06         56.8247
            1393     12.7255E-03     93.2326E-03     56.0147E-03     41.6399E-03    -155.158E-03     41.3787E-03    -154.897E-03     56.0147E-03     5.41765E-03     328.841E-03    -163.602E-03    -165.346E-03    -162.424E-03     327.647E-03    -165.330E-03     47.8504E-03     98.8064E+06     72.4947E+06    -22.4187E+06    -20.7838E+06     70.8598E+06     98.8064E+06     9.61472E+06         60.6489
            1394     13.5787E-03     93.3097E-03     56.3751E-03     40.6708E-03    -155.225E-03     41.0271E-03    -154.007E-03     54.8009E-03     4.37067E-03     329.542E-03    -164.276E-03    -165.423E-03    -162.749E-03     327.773E-03    -165.181E-03     58.8095E-03     123.014E+06     90.0676E+06    -17.0261E+06    -16.1583E+06     89.1999E+06     123.014E+06     2.70449E+06         64.7710
            1395     14.4221E-03     93.3995E-03     55.4104E-03     45.8128E-03    -159.325E-03     46.3503E-03    -158.288E-03     53.8362E-03     3.81697E-03     328.776E-03    -163.558E-03    -165.201E-03    -162.281E-03     327.275E-03    -164.976E-03     53.4441E-03     146.353E+06     112.530E+06    -9.41627E+06    -8.95577E+06     112.069E+06     146.353E+06    -480.015E+03         68.3758
            1396     850.577E-06     94.2809E-03     96.0631E-03     41.5126E-03    -191.013E-03     16.6741E-03    -163.418E-03     93.3068E-03     57.4930E-03     329.379E-03    -163.551E-03    -165.841E-03    -164.814E-03     329.375E-03    -164.574E-03     2.69388E-03    -124.148E+06    -133.239E+06    -295.682E+06    -127.485E+06    -295.647E+06    -129.937E+06     1.56108E+06         45.6955
            1397     1.69540E-03     94.2876E-03     59.7541E-03     54.4198E-03    -167.216E-03     52.5263E-03    -160.114E-03     54.5453E-03    -3.74981E-03     330.678E-03    -164.698E-03    -165.987E-03    -165.809E-03     330.673E-03    -164.871E-03     2.96636E-03    -119.271E+06    -128.879E+06    -276.087E+06    -128.895E+06    -276.071E+06    -119.271E+06     880.934E+03         45.7265
            1398     2.54341E-03     94.2906E-03     65.2100E-03     48.6332E-03    -170.727E-03     56.9047E-03    -168.269E-03     54.4798E-03     27.7537E-03     330.307E-03    -164.683E-03    -165.617E-03    -165.122E-03     330.299E-03    -165.172E-03     3.67246E-03    -105.788E+06    -121.624E+06    -259.417E+06    -121.755E+06    -259.287E+06    -105.788E+06     1.41582E+06         45.7776
            1399     3.39322E-03     94.2924E-03     72.8535E-03     44.6060E-03    -173.841E-03     61.3858E-03    -173.381E-03     55.6136E-03     8.04064E-03     330.163E-03    -164.668E-03    -165.460E-03    -164.878E-03     330.150E-03    -165.236E-03     4.87852E-03    -86.0395E+06    -114.136E+06    -236.240E+06    -114.540E+06    -235.837E+06    -86.0395E+06     3.68224E+06         45.8428
            1400     4.23890E-03     94.3020E-03     65.3330E-03     48.7385E-03    -169.059E-03     57.1562E-03    -168.515E-03     56.3708E-03     19.6927E-03     330.523E-03    -164.995E-03    -165.556E-03    -165.185E-03     330.500E-03    -165.343E-03     6.50415E-03    -65.0077E+06    -109.902E+06    -212.680E+06    -110.283E+06    -212.300E+06    -65.0077E+06     1.02380E+06         45.9128
            1401     5.08677E-03     94.3121E-03     58.4401E-03     49.8138E-03    -163.032E-03     51.2657E-03    -162.008E-03     55.9643E-03    -10.5702E-03     330.760E-03    -165.148E-03    -165.825E-03    -165.485E-03     330.721E-03    -165.448E-03     8.53327E-03    -53.5807E+06    -104.305E+06    -196.921E+06    -104.808E+06    -196.417E+06    -53.5807E+06    -2.34603E+06         45.9889
            1402     5.93412E-03     94.3237E-03     62.0219E-03     49.9177E-03    -164.556E-03     53.0704E-03    -160.983E-03     55.2967E-03     9.01094E-03     330.170E-03    -164.683E-03    -165.710E-03    -164.882E-03     330.104E-03    -165.446E-03     11.2844E-03    -39.4398E+06    -92.9967E+06    -168.001E+06    -93.8078E+06    -167.190E+06    -39.4398E+06     2.08156E+06         46.0861
            1403     6.78242E-03     94.3460E-03     58.8835E-03     48.0707E-03    -160.013E-03     48.4088E-03    -156.102E-03     54.6340E-03     13.4383E-03     329.550E-03    -164.153E-03    -165.322E-03    -164.048E-03     329.444E-03    -165.322E-03     14.2780E-03    -15.7402E+06    -83.2473E+06    -131.385E+06    -85.2766E+06    -129.356E+06    -15.7402E+06     5.26028E+06         46.1970
            1404     7.63412E-03     94.3687E-03     53.5331E-03     45.1885E-03    -152.502E-03     42.7696E-03    -150.083E-03     53.5331E-03     8.70298E-03     329.587E-03    -164.056E-03    -165.222E-03    -163.870E-03     329.402E-03    -165.222E-03     18.8296E-03     3.85885E+06    -72.2897E+06    -103.590E+06    -77.8557E+06    -98.0237E+06     3.85885E+06     5.31326E+06         46.4779
            1405     8.48121E-03     94.3976E-03     53.3609E-03     49.0686E-03    -157.732E-03     47.3174E-03    -155.170E-03     52.5498E-03     2.96089E-03     330.110E-03    -164.574E-03    -165.377E-03    -164.406E-03     329.806E-03    -165.240E-03     24.1845E-03     19.7839E+06    -44.4320E+06    -74.3967E+06    -62.9346E+06    -55.8941E+06     19.7839E+06     9.28165E+06         47.2750
            1406     9.32780E-03     94.4357E-03     53.3287E-03     50.3488E-03    -161.508E-03     48.3411E-03    -158.155E-03     51.9830E-03    -151.877E-06     330.197E-03    -164.871E-03    -165.405E-03    -164.615E-03     329.805E-03    -165.269E-03     27.7912E-03     32.7327E+06     919.119E+03    -60.1845E+06    -56.5749E+06    -2.69047E+06     32.7327E+06     11.7400E+06         48.7451
            1407     10.1773E-03     94.4698E-03     52.3855E-03     43.9720E-03    -153.783E-03     42.9086E-03    -151.623E-03     51.2890E-03     13.4474E-03     329.164E-03    -164.027E-03    -165.292E-03    -163.509E-03     328.647E-03    -165.292E-03     31.7670E-03     50.4591E+06     42.2191E+06    -56.7591E+06    -54.0637E+06     41.0213E+06     48.9615E+06     15.0530E+06         50.8512
            1408     11.0295E-03     94.5161E-03     51.6074E-03     42.2448E-03    -149.885E-03     43.1906E-03    -149.641E-03     50.4178E-03    -10.9208E-03     328.303E-03    -163.150E-03    -165.174E-03    -162.405E-03     327.558E-03    -165.174E-03     37.8476E-03     65.9483E+06     60.7089E+06    -46.3110E+06    -43.6245E+06     61.3006E+06       62.67E+06     14.1126E+06         53.5576
            1409     11.8817E-03     94.5689E-03     54.3302E-03     47.0632E-03    -156.357E-03     51.3367E-03    -156.204E-03     49.9036E-03    -4.91458E-03     328.680E-03    -163.713E-03    -165.005E-03    -162.781E-03     327.747E-03    -165.005E-03     42.5543E-03     71.0392E+06     65.0702E+06    -35.8297E+06    -33.8879E+06     66.1260E+06     68.0416E+06     7.75574E+06         56.8341
            1410     12.7275E-03     94.6237E-03     55.5430E-03     47.3474E-03    -158.118E-03     52.9980E-03    -157.986E-03     49.7603E-03     5.10339E-03     330.307E-03    -164.828E-03    -165.709E-03    -164.165E-03     329.010E-03    -165.076E-03     50.2483E-03     93.8092E+06     77.8799E+06    -25.7312E+06    -22.7533E+06     76.1190E+06     92.5922E+06     9.84115E+06         60.6544
            1411     13.5723E-03     94.6991E-03     51.2484E-03     39.1630E-03    -145.940E-03     40.2390E-03    -145.032E-03     49.2645E-03     15.3402E-03     330.218E-03    -164.633E-03    -165.947E-03    -163.501E-03     328.228E-03    -165.089E-03     62.3149E-03     127.006E+06     98.1896E+06    -16.2666E+06    -13.8624E+06     95.7854E+06     127.006E+06     8.19703E+06         64.7723
            1412     14.4284E-03     94.7907E-03     48.1588E-03     33.8062E-03    -138.248E-03     30.9899E-03    -135.432E-03     48.1588E-03    -4.47513E-03     328.955E-03    -163.655E-03    -165.447E-03    -162.284E-03     327.142E-03    -165.005E-03     58.8649E-03     147.333E+06     114.257E+06    -9.44815E+06    -9.09971E+06     113.908E+06     147.333E+06     806.483E+03         68.3769
            1413     847.400E-06     95.6753E-03     140.205E-03     24.6201E-03    -216.203E-03     815.575E-06    -189.642E-03     137.449E-03     92.8226E-03     330.114E-03    -164.163E-03    -165.957E-03    -165.168E-03     330.112E-03    -164.950E-03     1.62232E-03    -124.929E+06    -138.324E+06    -297.788E+06    -132.336E+06    -297.724E+06    -130.981E+06    -317.961E+03         45.6757
            1414     1.69646E-03     95.6770E-03     69.2523E-03     48.6718E-03    -172.771E-03     50.6639E-03    -170.991E-03     65.4804E-03     3.20296E-03     329.103E-03    -163.840E-03    -165.264E-03    -164.265E-03     329.100E-03    -164.836E-03     1.93216E-03    -121.557E+06    -131.241E+06    -275.859E+06    -129.104E+06    -275.800E+06    -123.755E+06     520.902E+03         45.7043
            1415     2.54584E-03     95.6800E-03     58.8323E-03     34.8761E-03    -148.969E-03     34.1770E-03    -147.254E-03     57.8168E-03     7.60399E-03     329.789E-03    -164.594E-03    -165.180E-03    -164.966E-03     329.784E-03    -164.804E-03     3.09668E-03    -108.817E+06    -125.824E+06    -259.856E+06    -125.862E+06    -259.818E+06    -108.817E+06     623.606E+03         45.7568
            1416     3.39147E-03     95.6852E-03     50.2669E-03     22.0821E-03    -125.081E-03     21.7114E-03    -124.711E-03     50.2669E-03     4.05472E-03     330.471E-03    -164.973E-03    -165.481E-03    -165.440E-03     330.461E-03    -165.004E-03     4.25020E-03    -90.3815E+06    -117.670E+06    -240.989E+06    -117.961E+06    -240.699E+06    -90.3815E+06     1.63114E+06         45.8250
            1417     4.24084E-03     95.6928E-03     44.9471E-03     28.6084E-03    -123.338E-03     28.1028E-03    -122.833E-03     44.9471E-03     9.74093E-03     330.207E-03    -164.917E-03    -165.278E-03    -164.994E-03     330.183E-03    -165.178E-03     6.65338E-03    -67.1066E+06    -108.036E+06    -213.361E+06    -108.784E+06    -212.614E+06    -67.1066E+06     5.69891E+06         45.9007
            1418     5.08906E-03     95.7030E-03     48.9683E-03     40.7798E-03    -142.770E-03     44.9636E-03    -141.291E-03     43.3052E-03    -19.8582E-03     330.325E-03    -165.011E-03    -165.548E-03    -165.225E-03     330.274E-03    -165.284E-03     9.76787E-03    -45.5949E+06    -102.460E+06    -188.421E+06    -103.291E+06    -187.590E+06    -45.5949E+06     2.17841E+06         45.9868
            1419     5.93499E-03     95.7192E-03     57.5504E-03     44.0846E-03    -156.378E-03     54.7747E-03    -153.602E-03     44.0846E-03    -1.75774E-03     330.548E-03    -165.065E-03    -165.738E-03    -165.403E-03     330.468E-03    -165.321E-03     12.5209E-03    -36.8452E+06    -97.1682E+06    -172.467E+06    -97.9089E+06    -171.726E+06    -36.8452E+06    -2.11694E+06         46.0917
            1420     6.78364E-03     95.7325E-03     59.1201E-03     44.9330E-03    -158.280E-03     55.9693E-03    -155.557E-03     45.3612E-03     5.15949E-03     330.135E-03    -164.460E-03    -165.542E-03    -164.627E-03     330.017E-03    -165.257E-03     15.1743E-03    -19.6904E+06    -84.0446E+06    -138.597E+06    -86.2183E+06    -136.423E+06    -19.6904E+06     4.51356E+06         46.1969
            1421     7.63120E-03     95.7580E-03     56.4598E-03     43.5548E-03    -155.382E-03     52.1835E-03    -153.743E-03     46.1927E-03    -2.75421E-03     329.775E-03    -164.180E-03    -165.386E-03    -164.148E-03     329.611E-03    -165.253E-03     17.9768E-03     5.58202E+06    -72.3006E+06    -99.0890E+06    -75.2372E+06    -96.1524E+06     5.58202E+06     5.66434E+06         46.4706
            1422     8.48153E-03     95.7873E-03     50.8367E-03     42.9527E-03    -149.245E-03     45.4852E-03    -147.263E-03     46.3220E-03    -5.21531E-03     329.177E-03    -163.876E-03    -165.259E-03    -163.609E-03     328.910E-03    -165.259E-03     22.5284E-03     17.1895E+06    -56.6752E+06    -75.3935E+06    -68.1803E+06    -63.8884E+06     17.1895E+06     2.05695E+06         47.2710
            1423     9.33241E-03     95.8263E-03     45.8760E-03     39.4056E-03    -140.596E-03     36.0577E-03    -137.045E-03     45.6724E-03     3.26570E-03     328.477E-03    -163.424E-03    -165.165E-03    -163.061E-03     328.114E-03    -165.165E-03     26.5896E-03     25.7404E+06    -15.5355E+06    -64.7173E+06    -62.3885E+06    -17.8643E+06     25.7404E+06     9.32304E+06         48.7467
            1424     10.1804E-03     95.8589E-03     44.4690E-03     33.0203E-03    -132.466E-03     30.7391E-03    -130.184E-03     44.4690E-03     21.3003E-03     329.162E-03    -163.883E-03    -165.542E-03    -163.827E-03     328.679E-03    -165.116E-03     30.6444E-03     48.6653E+06     34.1378E+06    -52.3751E+06    -48.8432E+06     35.4167E+06     43.8546E+06     17.5204E+06         50.8546
            1425     11.0283E-03     95.9052E-03     44.0353E-03     35.9868E-03    -133.639E-03     36.1444E-03    -133.169E-03     43.4075E-03    -9.22743E-03     328.980E-03    -163.683E-03    -165.463E-03    -163.512E-03     328.383E-03    -165.037E-03     34.2968E-03     71.4365E+06     63.6421E+06    -37.6070E+06    -35.0303E+06     68.2421E+06     64.2598E+06     13.7217E+06         53.5588
            1426     11.8774E-03     95.9541E-03     47.3448E-03     39.5432E-03    -141.210E-03     43.6563E-03    -140.896E-03     42.9182E-03    -7.99021E-03     328.070E-03    -163.240E-03    -164.923E-03    -162.463E-03     327.293E-03    -164.923E-03     38.7893E-03     82.7759E+06     75.5957E+06    -31.7406E+06    -30.5901E+06     78.0280E+06     79.1929E+06     5.78203E+06         56.8329
            1427     12.7306E-03     96.0181E-03     48.4453E-03     37.9425E-03    -140.931E-03     43.6227E-03    -140.829E-03     42.6627E-03     3.92782E-03     328.282E-03    -163.127E-03    -165.423E-03    -162.542E-03     327.081E-03    -164.805E-03     48.1544E-03     92.8308E+06     83.7583E+06    -30.4237E+06    -27.9164E+06     82.4679E+06     91.6138E+06     9.01786E+06         60.6556
            1428     13.5811E-03     96.0905E-03     46.3228E-03     38.0117E-03    -137.645E-03     41.8472E-03    -137.418E-03     42.2607E-03     7.79900E-03     328.791E-03    -163.329E-03    -165.545E-03    -162.238E-03     326.907E-03    -164.750E-03     60.2419E-03     116.036E+06     96.9530E+06    -22.9288E+06    -20.5499E+06     94.5741E+06     116.036E+06     8.59747E+06         64.7778
            1429     14.4305E-03     96.1705E-03     47.2301E-03     34.4099E-03    -131.971E-03     37.7581E-03    -129.779E-03     41.6895E-03    -11.2735E-03     329.590E-03    -164.267E-03    -165.227E-03    -162.821E-03     327.749E-03    -164.832E-03     59.6436E-03     146.089E+06     114.776E+06    -9.97324E+06    -9.69715E+06     114.500E+06     146.089E+06     2.94767E+06         68.3832
            1430     845.155E-06     97.0636E-03     162.312E-03     6.20890E-03    -217.906E-03    -59.0205E-03    -141.636E-03     151.272E-03     77.1141E-03     329.950E-03    -164.196E-03    -165.752E-03    -164.589E-03     329.946E-03    -165.354E-03     2.28449E-03    -124.853E+06    -139.526E+06    -298.996E+06    -133.530E+06    -298.942E+06    -130.902E+06    -636.806E+03         45.6708
            1431     1.69710E-03     97.0634E-03     61.1951E-03     26.6627E-03    -137.440E-03     33.2498E-03    -126.303E-03     43.4713E-03    -46.6125E-03     329.284E-03    -164.003E-03    -165.276E-03    -164.449E-03     329.280E-03    -164.826E-03     2.35264E-03    -122.903E+06    -133.358E+06    -278.275E+06    -131.231E+06    -278.205E+06    -125.100E+06    -67.2261E+03         45.7010
            1432     2.54461E-03     97.0706E-03     48.7670E-03     22.3050E-03    -122.067E-03     31.1101E-03    -121.504E-03     39.3990E-03    -9.13005E-03     330.022E-03    -164.743E-03    -165.274E-03    -165.149E-03     330.018E-03    -164.863E-03     2.60851E-03    -109.140E+06    -125.663E+06    -260.088E+06    -125.714E+06    -260.036E+06    -109.140E+06     965.848E+03         45.7536
            1433     3.39370E-03     97.0756E-03     47.6687E-03     19.8803E-03    -119.491E-03     30.0950E-03    -119.095E-03     37.0574E-03     6.46157E-03     330.296E-03    -164.933E-03    -165.309E-03    -165.187E-03     330.289E-03    -165.048E-03     3.00592E-03    -90.1020E+06    -120.021E+06    -240.726E+06    -120.061E+06    -240.685E+06    -90.1020E+06     208.696E+03         45.8218
            1434     4.24033E-03     97.0826E-03     44.5812E-03     26.8646E-03    -124.581E-03     34.4300E-03    -123.550E-03     35.9849E-03     14.5955E-03     330.200E-03    -164.905E-03    -165.174E-03    -164.899E-03     330.186E-03    -165.166E-03     5.07506E-03    -72.1219E+06    -111.310E+06    -221.526E+06    -111.847E+06    -220.990E+06    -72.1219E+06     1.71025E+06         45.8963
            1435     5.08846E-03     97.0945E-03     39.4745E-03     31.1009E-03    -125.839E-03     33.5072E-03    -124.389E-03     35.6176E-03    -4.15879E-03     329.326E-03    -164.331E-03    -165.197E-03    -164.296E-03     329.292E-03    -165.197E-03     7.85153E-03    -46.5392E+06    -98.3572E+06    -187.545E+06    -99.6029E+06    -186.300E+06    -46.5392E+06     6.71788E+06         45.9805
            1436     5.93872E-03     97.1095E-03     44.6971E-03     31.5295E-03    -131.519E-03     38.2282E-03    -129.099E-03     35.5783E-03     12.5109E-03     329.586E-03    -164.479E-03    -165.292E-03    -164.559E-03     329.514E-03    -165.139E-03     11.6467E-03    -26.6767E+06    -95.0352E+06    -161.733E+06    -96.0634E+06    -160.705E+06    -26.6767E+06     3.40042E+06         46.0915
            1437     6.78515E-03     97.1256E-03     48.7826E-03     36.3319E-03    -139.900E-03     46.7432E-03    -137.860E-03     36.3319E-03     19.3900E-03     331.049E-03    -165.060E-03    -165.738E-03    -165.591E-03     330.926E-03    -165.084E-03     15.4865E-03    -18.5760E+06    -88.0910E+06    -144.755E+06    -89.1169E+06    -143.729E+06    -18.5760E+06    -1.80764E+06         46.2038
            1438     7.63281E-03     97.1488E-03     48.1083E-03     34.7449E-03    -136.840E-03     45.1026E-03    -136.367E-03     37.2781E-03     3.63044E-03     330.835E-03    -164.880E-03    -165.646E-03    -165.202E-03     330.656E-03    -165.145E-03     18.7956E-03    -2.82904E+06    -71.0046E+06    -107.609E+06    -75.2108E+06    -103.402E+06    -2.82904E+06     4.13042E+06         46.4773
            1439     8.47937E-03     97.1776E-03     41.6191E-03     31.2774E-03    -126.264E-03     33.4949E-03    -124.171E-03     37.3081E-03    -13.1639E-03     328.862E-03    -163.610E-03    -165.253E-03    -163.361E-03     328.614E-03    -165.253E-03     22.0103E-03     15.6741E+06    -54.1095E+06    -78.4315E+06    -70.2000E+06    -62.3410E+06     15.6741E+06     7.95215E+06         47.2733
            1440     9.32941E-03     97.2101E-03     41.0763E-03     29.6680E-03    -124.045E-03     32.1492E-03    -122.089E-03     36.6385E-03    -25.3697E-03     327.736E-03    -162.834E-03    -165.219E-03    -162.485E-03     327.387E-03    -165.219E-03     26.0227E-03     33.0599E+06    -18.0860E+06    -58.5214E+06    -56.1481E+06    -20.4593E+06     33.0599E+06     6.96226E+06         48.7460
            1441     10.1818E-03     97.2518E-03     48.7904E-03     32.3469E-03    -133.445E-03     44.3675E-03    -133.153E-03     36.4785E-03    -1.05411E-03     328.939E-03    -163.844E-03    -165.500E-03    -163.789E-03     328.458E-03    -165.073E-03     30.6636E-03     47.0561E+06     24.0351E+06    -49.2002E+06    -47.5458E+06     27.8672E+06     41.5696E+06     9.50549E+06         50.8529
            1442     11.0283E-03     97.2985E-03     44.5702E-03     33.2776E-03    -129.678E-03     40.5321E-03    -129.059E-03     36.6962E-03    -9.39567E-03     329.985E-03    -164.490E-03    -165.673E-03    -164.619E-03     329.403E-03    -164.961E-03     33.9250E-03     67.2584E+06     53.7369E+06    -44.5644E+06    -42.8300E+06     65.5240E+06     53.7369E+06     10.7637E+06         53.5543
            1443     11.8778E-03     97.3421E-03     36.2837E-03     28.4340E-03    -116.019E-03     27.7565E-03    -115.342E-03     36.2837E-03    -12.8254E-03     328.461E-03    -163.363E-03    -165.205E-03    -162.883E-03     327.696E-03    -164.920E-03     38.5470E-03     84.3650E+06     72.7138E+06    -36.6690E+06    -34.5140E+06     79.2304E+06     75.6934E+06     13.4385E+06         56.8244
            1444     12.7262E-03     97.4060E-03     37.4062E-03     27.9697E-03    -116.479E-03     29.4496E-03    -116.037E-03     35.4838E-03     7.06012E-03     326.721E-03    -162.199E-03    -164.896E-03    -161.057E-03     325.579E-03    -164.896E-03     46.8814E-03     98.0180E+06     87.7630E+06    -29.1690E+06    -27.6181E+06     86.8487E+06     97.3814E+06     10.3068E+06         60.6459
            1445     13.5809E-03     97.4711E-03     42.4508E-03     32.6499E-03    -124.880E-03     39.1813E-03    -124.035E-03     35.0744E-03     22.3242E-03     328.753E-03    -163.435E-03    -165.406E-03    -162.344E-03     327.080E-03    -164.824E-03     56.9869E-03     118.260E+06     98.2550E+06    -22.2760E+06    -21.9086E+06     97.8877E+06     118.260E+06     4.33525E+06         64.7698
            1446     14.4311E-03     97.5682E-03     46.6831E-03     35.1890E-03    -129.504E-03     46.0884E-03    -128.910E-03     35.1890E-03     14.4859E-03     328.664E-03    -163.286E-03    -165.369E-03    -162.302E-03     327.100E-03    -164.787E-03     54.9014E-03     145.346E+06     116.299E+06    -12.8808E+06    -12.6294E+06     116.048E+06     145.346E+06     4.48658E+06         68.3800
            1447     852.794E-06     98.4525E-03     134.702E-03     19.9159E-03    -198.751E-03    -106.814E-03    -48.7384E-03     111.421E-03     79.3824E-03     329.860E-03    -164.222E-03    -165.640E-03    -165.258E-03     329.849E-03    -164.594E-03    -782.736E-06    -128.164E+06    -138.283E+06    -298.767E+06    -133.988E+06    -298.723E+06    -132.503E+06     1.65804E+06         45.6780
            1448     1.69583E-03     98.4541E-03     45.1031E-03     8.20640E-03    -100.133E-03     31.5324E-03    -86.5620E-03     8.20640E-03    -23.0524E-03     330.298E-03    -164.711E-03    -165.587E-03    -165.277E-03     330.292E-03    -165.015E-03     1.27149E-03    -121.972E+06    -133.082E+06    -278.581E+06    -132.660E+06    -278.516E+06    -122.459E+06     1.57736E+06         45.7103
            1449     2.54335E-03     98.4618E-03     43.2007E-03     17.7517E-03    -107.369E-03     40.3550E-03    -104.523E-03     17.7517E-03     20.0527E-03     330.122E-03    -164.774E-03    -165.362E-03    -164.965E-03     330.114E-03    -165.162E-03     3.22067E-03    -110.167E+06    -127.990E+06    -263.315E+06    -128.032E+06    -263.273E+06    -110.167E+06     428.381E+03         45.7638
            1450     3.39086E-03     98.4647E-03     49.8836E-03     24.5813E-03    -122.651E-03     49.4574E-03    -122.225E-03     24.5813E-03     3.59261E-03     330.467E-03    -165.129E-03    -165.276E-03    -165.183E-03     330.458E-03    -165.212E-03     3.39863E-03    -92.6334E+06    -121.441E+06    -242.755E+06    -121.545E+06    -242.651E+06    -92.6334E+06     2.35203E+06         45.8316
            1451     4.23955E-03     98.4754E-03     44.6979E-03     29.0862E-03    -124.527E-03     43.4634E-03    -123.293E-03     29.0862E-03     14.5559E-03     330.164E-03    -164.768E-03    -165.332E-03    -164.776E-03     330.150E-03    -165.310E-03     4.92243E-03    -72.6355E+06    -115.276E+06    -221.236E+06    -115.454E+06    -221.058E+06    -72.6355E+06     1.63953E+06         45.9048
            1452     5.08725E-03     98.4827E-03     34.6605E-03     26.1195E-03    -113.750E-03     26.5616E-03    -109.700E-03     30.1682E-03    -7.13860E-03     329.219E-03    -164.147E-03    -165.290E-03    -164.127E-03     329.191E-03    -165.283E-03     7.25574E-03    -55.6111E+06    -106.176E+06    -197.681E+06    -106.959E+06    -196.898E+06    -55.6111E+06     2.61554E+06         45.9786
            1453     5.93669E-03     98.4960E-03     33.9750E-03     21.1494E-03    -108.489E-03     21.6972E-03    -104.310E-03     29.2480E-03    -7.28301E-03     329.232E-03    -164.245E-03    -165.175E-03    -164.193E-03     329.173E-03    -165.167E-03     10.4900E-03    -29.5842E+06    -90.2986E+06    -160.000E+06    -91.8840E+06    -158.415E+06    -29.5842E+06     7.39281E+06         46.0787
            1454     6.78657E-03     98.5203E-03     31.0989E-03     20.0452E-03    -104.500E-03     21.3245E-03    -102.838E-03     28.1577E-03     4.39767E-03     330.075E-03    -164.375E-03    -165.441E-03    -164.639E-03     329.970E-03    -165.073E-03     14.3223E-03    -12.5256E+06    -84.9608E+06    -138.089E+06    -86.2719E+06    -136.778E+06    -12.5256E+06     2.16233E+06         46.1986
            1455     7.63240E-03     98.5407E-03     30.1574E-03     20.6980E-03    -102.668E-03     22.5034E-03    -101.610E-03     27.2938E-03    -418.757E-06     330.127E-03    -164.316E-03    -165.362E-03    -164.513E-03     329.955E-03    -164.993E-03     18.2241E-03    -7.83237E+06    -80.4427E+06    -118.050E+06    -83.3977E+06    -115.095E+06    -7.83237E+06     1.62992E+06         46.4827
            1456     8.48269E-03     98.5673E-03     37.2350E-03     22.1877E-03    -109.693E-03     31.5286E-03    -108.858E-03     27.0588E-03     1.24430E-03     329.527E-03    -164.184E-03    -165.230E-03    -164.079E-03     329.280E-03    -165.088E-03     21.9997E-03      13.586E+06    -51.5921E+06    -81.9382E+06    -69.6685E+06    -63.8618E+06      13.586E+06     9.62643E+06         47.2759
            1457     9.33228E-03     98.5969E-03     43.0482E-03     25.3213E-03    -118.828E-03     40.0347E-03    -118.152E-03     27.6592E-03    -9.73042E-03     329.202E-03    -164.103E-03    -165.369E-03    -163.896E-03     328.852E-03    -165.227E-03     26.0483E-03     32.8288E+06    -17.5653E+06    -64.8187E+06    -62.3158E+06    -20.0682E+06     32.8288E+06     8.46123E+06         48.7417
            1458     10.1788E-03     98.6422E-03     43.9562E-03     27.3723E-03    -121.002E-03     41.6162E-03    -119.858E-03     28.5688E-03     7.20974E-03     328.195E-03    -163.510E-03    -165.135E-03    -163.033E-03     327.718E-03    -165.135E-03     30.5354E-03     43.1831E+06     19.3893E+06    -60.3893E+06    -60.0145E+06     22.7969E+06     39.4006E+06     5.28516E+06         50.8463
            1459     11.0302E-03     98.6861E-03     39.1060E-03     26.2016E-03    -114.682E-03     34.5695E-03    -113.023E-03     29.0788E-03     8.19190E-03     328.014E-03    -163.060E-03    -165.196E-03    -162.667E-03     327.336E-03    -164.911E-03     36.1027E-03     58.4852E+06     46.5009E+06    -53.1794E+06    -52.4065E+06     57.7122E+06     46.5009E+06     7.05668E+06         53.5517
            1460     11.8768E-03     98.7395E-03     32.6613E-03     24.4664E-03    -106.053E-03     26.9615E-03    -104.828E-03     28.9410E-03    -9.42926E-03     327.942E-03    -163.028E-03    -165.080E-03    -162.438E-03     327.067E-03    -164.795E-03     41.2434E-03     76.3492E+06     66.4787E+06    -40.1871E+06    -38.3693E+06     74.5314E+06     66.4787E+06     11.6966E+06         56.8271
            1461     12.7309E-03     98.7831E-03     32.0348E-03     25.2298E-03    -104.047E-03     28.0617E-03    -103.389E-03     28.5454E-03    -6.25027E-03     328.389E-03    -163.388E-03    -165.496E-03    -162.636E-03     326.966E-03    -164.825E-03     51.9332E-03     96.9127E+06     87.7854E+06    -28.9698E+06    -27.6010E+06     88.0853E+06     95.2440E+06     10.0747E+06         60.6470
            1462     13.5783E-03     98.8686E-03     37.4739E-03     27.8050E-03    -112.758E-03     34.1928E-03    -109.998E-03     28.3265E-03    -5.47014E-03     329.903E-03    -164.226E-03    -165.895E-03    -163.187E-03     327.788E-03    -164.820E-03     64.2353E-03     128.263E+06     107.596E+06    -16.5587E+06    -15.9517E+06     106.989E+06     128.263E+06     6.63731E+06         64.7682
            1463     14.4250E-03     98.9521E-03     41.6066E-03     28.3952E-03    -118.445E-03     38.9572E-03    -115.795E-03     28.3952E-03    -13.1427E-03     328.085E-03    -163.036E-03    -165.151E-03    -161.636E-03     326.282E-03    -164.747E-03     58.5323E-03     155.420E+06     127.894E+06    -7.21508E+06    -6.70438E+06     127.384E+06     155.420E+06     4.33426E+06         68.3832
            1464     842.912E-06     99.8428E-03     149.626E-03    -19.6522E-03    -167.009E-03    -103.139E-03    -71.2807E-03     137.384E-03     68.6425E-03     330.795E-03    -164.744E-03    -166.059E-03    -165.774E-03     330.780E-03    -165.014E-03     160.953E-06    -131.734E+06    -137.500E+06    -299.512E+06    -137.101E+06    -299.423E+06    -132.222E+06    -1.43091E+06         45.6737
            1465     1.69439E-03     99.8475E-03     35.5687E-03    -2.99179E-03    -75.8539E-03     12.8891E-03    -72.5619E-03     16.3958E-03     18.0908E-03     330.252E-03    -164.731E-03    -165.523E-03    -164.940E-03     330.242E-03    -165.304E-03     1.91028E-03    -124.451E+06    -131.012E+06    -282.211E+06    -130.649E+06    -282.087E+06    -124.938E+06     1.27229E+06         45.7073
            1466     2.54440E-03     99.8483E-03     32.0060E-03     5.12969E-03    -82.7493E-03     18.1265E-03    -79.6650E-03     15.9249E-03     23.8555E-03     330.157E-03    -164.786E-03    -165.410E-03    -164.917E-03     330.149E-03    -165.271E-03     3.61145E-03    -110.597E+06    -128.552E+06    -265.526E+06    -128.706E+06    -265.373E+06    -110.597E+06     3.51279E+06         45.7647
            1467     3.39232E-03     99.8610E-03     31.6577E-03     8.10296E-03    -86.3077E-03     22.4381E-03    -85.9518E-03     16.9666E-03    -6.97312E-03     330.186E-03    -164.822E-03    -165.305E-03    -164.866E-03     330.175E-03    -165.250E-03     4.50663E-03    -93.6932E+06    -122.641E+06    -244.974E+06    -122.841E+06    -244.774E+06    -93.6932E+06     3.18020E+06         45.8372
            1468     4.23891E-03     99.8622E-03     26.6053E-03     13.5549E-03    -88.5363E-03     21.3072E-03    -87.6115E-03     17.9282E-03     2.39945E-03     330.052E-03    -164.635E-03    -165.356E-03    -164.645E-03     330.035E-03    -165.329E-03     5.49227E-03    -72.8303E+06    -113.771E+06    -219.369E+06    -114.078E+06    -219.062E+06    -72.8303E+06     4.40259E+06         45.9110
            1469     5.08923E-03     99.8739E-03     30.9839E-03     18.6504E-03    -97.9408E-03     24.5633E-03    -91.5202E-03     18.6504E-03    -28.3173E-03     329.970E-03    -164.833E-03    -165.388E-03    -164.821E-03     329.937E-03    -165.368E-03     7.97125E-03    -53.5259E+06    -106.652E+06    -196.438E+06    -106.892E+06    -196.198E+06    -53.5259E+06     1.92546E+06         45.9780
            1470     5.93499E-03     99.8871E-03     29.5017E-03     14.8601E-03    -92.7146E-03     17.7107E-03    -84.9734E-03     18.9099E-03    -20.6767E-03     329.927E-03    -164.899E-03    -165.330E-03    -164.840E-03     329.861E-03    -165.322E-03     11.2107E-03    -38.3485E+06    -96.7877E+06    -173.338E+06    -97.6817E+06    -172.444E+06    -38.3485E+06     3.40054E+06         46.0664
            1471     6.78318E-03     99.9079E-03     23.0413E-03     10.1450E-03    -81.0257E-03     11.7437E-03    -77.8406E-03     18.2575E-03     2.79987E-03     329.159E-03    -163.859E-03    -165.175E-03    -163.763E-03     329.063E-03    -165.175E-03     13.7108E-03    -14.4771E+06    -83.8636E+06    -138.383E+06    -86.4921E+06    -135.755E+06    -14.4771E+06     8.65814E+06         46.1819
            1472     7.63573E-03     99.9307E-03     30.1730E-03     13.9877E-03    -92.0515E-03     24.2011E-03    -90.1424E-03     18.0503E-03    -2.63589E-03     328.847E-03    -163.499E-03    -165.034E-03    -163.361E-03     328.708E-03    -165.034E-03     16.2623E-03     4.15641E+06    -78.0339E+06    -108.709E+06    -79.8931E+06    -106.850E+06     4.15641E+06     4.35914E+06         46.4690
            1473     8.48343E-03     99.9559E-03     39.6842E-03     19.2102E-03    -107.470E-03     38.2769E-03    -106.062E-03     19.2102E-03     186.041E-06     329.809E-03    -164.508E-03    -165.205E-03    -164.420E-03     329.578E-03    -165.062E-03     21.0875E-03     12.5692E+06    -62.4215E+06    -84.6056E+06    -72.1702E+06    -74.8568E+06     12.5692E+06     4.10884E+06         47.2642
            1474     9.32873E-03     99.9928E-03     36.8812E-03     20.6940E-03    -105.380E-03     35.9441E-03    -104.443E-03     20.6940E-03    -8.52305E-03     329.907E-03    -164.677E-03    -165.301E-03    -164.484E-03     329.571E-03    -165.157E-03     25.6426E-03     22.8491E+06    -27.7401E+06    -70.7995E+06    -67.6703E+06    -30.8693E+06     22.8491E+06     9.11733E+06         48.7303
            1475     10.1793E-03     100.028E-03     25.8018E-03     20.0872E-03    -91.1962E-03     23.6185E-03    -90.2094E-03     21.2838E-03     13.4977E-03     327.389E-03    -162.605E-03    -165.122E-03    -162.149E-03     326.934E-03    -165.122E-03     29.7709E-03     43.2889E+06     22.3824E+06    -60.2910E+06    -58.4289E+06     22.1293E+06     41.6799E+06     11.1277E+06         50.8371
            1476     11.0311E-03     100.073E-03     24.1107E-03     19.9301E-03    -88.9368E-03     20.8742E-03    -86.8968E-03     21.1267E-03     8.44029E-03     324.934E-03    -160.491E-03    -164.816E-03    -159.783E-03     324.226E-03    -164.816E-03     36.6689E-03     63.0133E+06     53.7156E+06    -48.8041E+06    -47.2713E+06     60.4533E+06     54.7428E+06     11.0661E+06         53.5507
            1477     11.8888E-03     100.124E-03     31.2681E-03     21.1303E-03    -96.9451E-03     29.5473E-03    -95.2242E-03     21.1303E-03    -12.5464E-03     326.637E-03    -162.046E-03    -164.887E-03    -161.422E-03     325.719E-03    -164.593E-03     42.2721E-03     78.5293E+06     70.0462E+06    -35.8559E+06    -35.0703E+06     77.7436E+06     70.0462E+06     6.12146E+06         56.8373
            1478     12.7345E-03     100.177E-03     31.8248E-03     20.8817E-03    -97.2812E-03     30.2723E-03    -96.2502E-03     21.4033E-03    -5.59807E-03     329.397E-03    -164.237E-03    -165.534E-03    -163.872E-03     327.994E-03    -164.496E-03     51.7435E-03     95.4796E+06     90.5491E+06    -24.4375E+06    -24.1710E+06     92.1041E+06     93.6580E+06     3.59318E+06         60.6657
            1479     13.5851E-03     100.258E-03     28.3744E-03     17.7207E-03    -93.7789E-03     21.1643E-03    -90.1779E-03     21.3297E-03    -3.33183E-03     328.568E-03    -163.435E-03    -165.184E-03    -162.117E-03     326.506E-03    -164.440E-03     63.1816E-03     123.848E+06     108.251E+06    -18.0828E+06    -17.3897E+06     107.558E+06     123.848E+06     4.16131E+06         64.7922
            1480     14.4418E-03     100.338E-03     28.2255E-03     17.7488E-03    -93.1393E-03     21.7427E-03    -89.8753E-03     20.9676E-03    -11.3881E-03     329.505E-03    -163.351E-03    -166.108E-03    -163.088E-03     327.639E-03    -164.505E-03     60.0071E-03     157.302E+06     131.197E+06    -7.80878E+06    -7.04378E+06     130.432E+06     157.302E+06     3.25074E+06         68.4035
            1481     851.393E-06     101.237E-03     157.410E-03    -22.3287E-03    -176.161E-03    -99.2531E-03    -94.3364E-03     152.510E-03     79.2645E-03     329.065E-03    -162.926E-03    -166.162E-03    -164.219E-03     329.055E-03    -164.860E-03     3.55647E-03    -128.429E+06    -137.018E+06    -300.361E+06    -133.613E+06    -300.253E+06    -131.941E+06    -241.509E+03         45.6525
            1482     1.69705E-03     101.234E-03     30.5689E-03     668.914E-06    -73.7238E-03    -5.08310E-03    -57.4594E-03     20.0565E-03    -48.1057E-03     331.052E-03    -164.563E-03    -166.452E-03    -166.174E-03     331.043E-03    -164.832E-03     3.59242E-03    -123.844E+06    -131.760E+06    -289.275E+06    -131.888E+06    -289.147E+06    -123.844E+06     1.23432E+06         45.6906
            1483     2.54208E-03     101.242E-03     17.0547E-03     64.6073E-06    -64.0049E-03    -2.18549E-03    -56.1424E-03     11.4422E-03    -23.9735E-03     330.607E-03    -164.682E-03    -165.885E-03    -165.288E-03     330.603E-03    -165.276E-03     2.64550E-03    -110.071E+06    -125.580E+06    -269.036E+06    -125.724E+06    -268.892E+06    -110.071E+06     3.74562E+06         45.7519
            1484     3.39110E-03     101.246E-03     10.6640E-03    -1.47481E-03    -57.2355E-03    -1.31022E-03    -54.7072E-03     7.97120E-03    -17.6622E-03     329.455E-03    -164.164E-03    -165.280E-03    -164.155E-03     329.446E-03    -165.280E-03     4.17219E-03    -91.1131E+06    -119.672E+06    -243.950E+06    -119.902E+06    -243.719E+06    -91.1131E+06     4.01247E+06         45.8285
            1485     4.24168E-03     101.256E-03     14.5778E-03     2.43198E-03    -66.4611E-03     7.20786E-03    -63.4645E-03     6.80528E-03     7.50803E-03     330.164E-03    -164.717E-03    -165.330E-03    -164.789E-03     330.145E-03    -165.239E-03     5.97023E-03    -72.1228E+06    -112.238E+06    -221.198E+06    -112.564E+06    -220.872E+06    -72.1228E+06     3.02685E+06         45.9048
            1486     5.08650E-03     101.263E-03     19.2391E-03     6.49936E-03    -73.5605E-03     13.5742E-03    -68.7065E-03     7.31022E-03     1.02495E-03     330.650E-03    -165.248E-03    -165.507E-03    -165.385E-03     330.615E-03    -165.335E-03     8.16429E-03    -51.6625E+06    -104.285E+06    -195.468E+06    -105.255E+06    -194.498E+06    -51.6625E+06     4.69360E+06         45.9744
            1487     5.93669E-03     101.280E-03     26.0736E-03     7.70808E-03    -77.5351E-03     19.2388E-03    -71.5111E-03     8.51895E-03     9.47616E-03     329.983E-03    -164.900E-03    -165.502E-03    -164.918E-03     329.922E-03    -165.422E-03     10.8654E-03    -35.0887E+06    -100.199E+06    -175.909E+06    -101.164E+06    -174.943E+06    -35.0887E+06     2.52966E+06         46.0592
            1488     6.78424E-03     101.298E-03     29.6056E-03     10.1599E-03    -84.6830E-03     25.5374E-03    -80.6149E-03     10.1599E-03     16.5127E-03     329.068E-03    -163.989E-03    -165.259E-03    -163.893E-03     328.972E-03    -165.259E-03     13.5276E-03    -18.2483E+06    -87.1894E+06    -147.701E+06    -89.2360E+06    -145.655E+06    -18.2483E+06     2.02253E+06         46.1601
            1489     7.63180E-03     101.318E-03     26.8103E-03     8.64735E-03    -82.5028E-03     22.5444E-03    -81.2276E-03     11.6381E-03    -2.75997E-03     328.861E-03    -163.596E-03    -165.099E-03    -163.438E-03     328.703E-03    -165.099E-03     17.2801E-03     4.52423E+06    -70.8120E+06    -109.275E+06    -75.6764E+06    -104.411E+06     4.52423E+06     6.64580E+06         46.4365
            1490     8.48175E-03     101.348E-03     22.5210E-03     6.91879E-03    -76.6571E-03     14.5607E-03    -74.0012E-03     12.2232E-03    -10.8327E-03     328.808E-03    -163.605E-03    -165.037E-03    -163.342E-03     328.544E-03    -165.036E-03     22.5012E-03     16.1925E+06    -63.7041E+06    -82.6083E+06    -70.2343E+06    -76.0781E+06     16.1925E+06     6.04869E+06         47.2364
            1491     9.33274E-03     101.382E-03     19.0437E-03     9.91416E-03    -74.9141E-03     14.4206E-03    -72.6047E-03     12.2279E-03    -20.7096E-03     328.107E-03    -163.134E-03    -164.935E-03    -162.749E-03     327.720E-03    -164.934E-03     27.4357E-03     25.0687E+06    -33.0701E+06    -66.8911E+06    -63.4524E+06    -36.5088E+06     25.0687E+06     9.15352E+06         48.7138
            1492     10.1806E-03     101.417E-03     23.8194E-03     12.5271E-03    -80.3066E-03     23.3175E-03    -79.8047E-03     12.5271E-03     4.36926E-03     327.181E-03    -162.610E-03    -164.896E-03    -162.141E-03     326.711E-03    -164.896E-03     30.2820E-03     46.1178E+06     20.8524E+06    -53.4634E+06    -50.5407E+06     17.9297E+06     46.1178E+06     13.8765E+06         50.8286
            1493     11.0338E-03     101.451E-03     29.4458E-03     13.2934E-03    -86.0182E-03     28.0940E-03    -84.6664E-03     13.2934E-03     3.24042E-03     326.461E-03    -161.979E-03    -164.981E-03    -161.608E-03     325.874E-03    -164.764E-03     33.7241E-03     70.4697E+06     53.4898E+06    -43.2910E+06    -41.5544E+06     62.5644E+06     59.6586E+06     12.2086E+06         53.5441
            1494     11.8849E-03     101.506E-03     31.0170E-03     14.1724E-03    -88.4421E-03     29.8446E-03    -87.2697E-03     14.1724E-03    -8.38001E-03     327.511E-03    -162.749E-03    -165.119E-03    -162.504E-03     326.755E-03    -164.609E-03     38.3844E-03     89.0101E+06     75.1941E+06    -32.1379E+06    -31.3308E+06     88.2030E+06     75.1941E+06     6.80305E+06         56.8297
            1495     12.7360E-03     101.573E-03     31.3638E-03     14.9774E-03    -91.5115E-03     29.9768E-03    -90.1245E-03     14.9774E-03     12.1685E-03     328.108E-03    -163.610E-03    -164.828E-03    -163.003E-03     327.134E-03    -164.460E-03     43.2956E-03     99.5614E+06     95.6539E+06    -22.7428E+06    -22.3546E+06     98.2705E+06     96.5566E+06     2.02022E+06         60.6639
            1496     13.5860E-03     101.636E-03     26.2941E-03     12.2898E-03    -84.4880E-03     21.0256E-03    -82.3071E-03     15.3773E-03     27.4985E-03     327.843E-03    -163.080E-03    -164.817E-03    -162.019E-03     326.406E-03    -164.441E-03     52.4340E-03     118.599E+06     106.117E+06    -23.4110E+06    -23.0469E+06     105.753E+06     118.599E+06    -915.420E+03         64.7970
            1497     14.4348E-03     101.723E-03     21.4582E-03     12.0925E-03    -79.3477E-03     16.5204E-03    -77.6287E-03     15.3112E-03     5.38989E-03     328.778E-03    -162.364E-03    -166.406E-03    -162.638E-03     327.146E-03    -164.502E-03     56.5122E-03     153.240E+06     128.496E+06    -11.0968E+06    -10.7421E+06     128.142E+06     153.240E+06     2.06288E+06         68.4076
            1498     850.248E-06     102.619E-03     102.870E-03     25.4617E-03    -180.151E-03    -88.3049E-03    -38.1757E-03     74.6607E-03     106.063E-03     329.348E-03    -162.351E-03    -167.018E-03    -164.805E-03     329.344E-03    -164.560E-03     2.09166E-03    -132.082E+06    -139.009E+06    -302.934E+06    -134.902E+06    -302.886E+06    -136.237E+06     1.95712E+06         45.6379
            1499     1.69590E-03     102.634E-03     32.3935E-03    -3.56113E-03    -80.0615E-03     10.2720E-03    -57.9401E-03    -3.56113E-03    -33.8931E-03     329.940E-03    -163.640E-03    -166.257E-03    -165.160E-03     329.938E-03    -164.734E-03     1.96119E-03    -124.720E+06    -134.707E+06    -291.047E+06    -134.770E+06    -290.984E+06    -124.720E+06     2.67324E+06         45.6734
            1500     2.54334E-03     102.631E-03     18.9931E-03    -293.564E-06    -66.5604E-03     2.81068E-03    -50.9603E-03     288.774E-06     4.82886E-03     329.953E-03    -163.966E-03    -165.947E-03    -164.976E-03     329.944E-03    -164.929E-03     3.64674E-03    -110.968E+06    -129.070E+06    -272.134E+06    -129.111E+06    -272.093E+06    -110.968E+06     2.35004E+06         45.7353
            1501     3.39256E-03     102.635E-03     12.4324E-03     868.815E-06    -57.7193E-03     7.43429E-03    -53.3035E-03     1.45115E-03    -2.61773E-03     330.347E-03    -164.388E-03    -165.924E-03    -165.222E-03     330.332E-03    -165.075E-03     5.22064E-03    -93.3390E+06    -121.482E+06    -247.727E+06    -121.647E+06    -247.561E+06    -93.3390E+06     3.95796E+06         45.8122
            1502     4.23957E-03     102.645E-03     15.8216E-03     2.72850E-03    -62.6707E-03     8.04054E-03    -54.8897E-03     2.72850E-03     22.8950E-03     330.451E-03    -164.657E-03    -165.650E-03    -165.059E-03     330.433E-03    -165.229E-03     6.02638E-03    -72.6668E+06    -114.563E+06    -224.000E+06    -114.818E+06    -223.745E+06    -72.6668E+06     3.42865E+06         45.8896
            1503     5.08964E-03     102.658E-03     12.1132E-03     2.51050E-03    -59.1845E-03     4.12773E-03    -52.0099E-03     3.32137E-03     27.9276E-03     330.085E-03    -164.670E-03    -165.522E-03    -164.792E-03     330.048E-03    -165.363E-03     8.31012E-03    -51.9166E+06    -105.921E+06    -198.368E+06    -106.784E+06    -197.505E+06    -51.9166E+06     4.28884E+06         45.9585
            1504     5.93395E-03     102.671E-03     14.6233E-03     2.89026E-03    -60.7064E-03     11.3161E-03    -58.4149E-03     3.90599E-03     15.5063E-03     329.292E-03    -164.221E-03    -165.451E-03    -164.235E-03     329.226E-03    -165.371E-03     11.1930E-03    -28.4095E+06    -93.1333E+06    -168.626E+06    -94.5695E+06    -167.190E+06    -28.4095E+06     4.78669E+06         46.0348
            1505     6.78441E-03     102.685E-03     19.6849E-03     2.50153E-03    -64.6973E-03     15.0936E-03    -62.6275E-03     5.02300E-03     16.9387E-03     328.889E-03    -163.953E-03    -165.179E-03    -163.839E-03     328.776E-03    -165.179E-03     14.6429E-03    -14.8356E+06    -86.6316E+06    -146.534E+06    -87.4566E+06    -145.709E+06    -14.8356E+06    -701.942E+03         46.1248
            1506     7.63488E-03     102.708E-03     10.8214E-03    -1.00104E-03    -54.3657E-03     3.99642E-03    -54.0130E-03     5.47117E-03     2.62984E-03     328.796E-03    -163.635E-03    -164.967E-03    -163.446E-03     328.606E-03    -164.967E-03     19.1451E-03    -1.97820E+06    -76.3816E+06    -117.594E+06    -79.6688E+06    -114.307E+06    -1.97820E+06     3.37245E+06         46.3977
            1507     8.48338E-03     102.736E-03     6.76868E-03    -1.55366E-03    -49.6874E-03    -1.70156E-03    -47.6865E-03     4.91565E-03    -2.35499E-03     327.651E-03    -162.483E-03    -164.838E-03    -162.204E-03     327.373E-03    -164.838E-03     23.2677E-03     18.0287E+06    -61.9554E+06    -83.9887E+06    -68.9402E+06    -77.0039E+06     18.0287E+06     8.46045E+06         47.2062
            1508     9.33416E-03     102.767E-03     8.79082E-03     2.13619E-03    -55.0785E-03     4.71512E-03    -53.3165E-03     4.44990E-03    -6.04583E-03     326.621E-03    -161.825E-03    -164.623E-03    -161.449E-03     326.245E-03    -164.623E-03     26.9742E-03     33.4948E+06    -35.3237E+06    -60.7278E+06    -56.4404E+06    -39.6111E+06     33.4948E+06     5.61935E+06         48.6967
            1509     10.1885E-03     102.804E-03     19.9340E-03     4.91310E-03    -69.0545E-03     19.2632E-03    -68.3837E-03     4.91310E-03     9.98303E-03     328.005E-03    -163.217E-03    -164.971E-03    -163.127E-03     327.553E-03    -164.610E-03     29.7507E-03     45.9667E+06     10.2534E+06    -46.8433E+06    -44.9661E+06     8.37624E+06     45.9667E+06     7.93769E+06         50.8192
            1510     11.0337E-03     102.843E-03     32.8997E-03     6.31219E-03    -82.0613E-03     31.8960E-03    -81.0575E-03     6.31219E-03     9.88304E-03     330.707E-03    -164.715E-03    -166.455E-03    -165.783E-03     330.124E-03    -164.804E-03     33.8700E-03     73.1543E+06     50.7977E+06    -38.6470E+06    -36.9899E+06     62.5872E+06     59.7077E+06     12.6367E+06         53.5317
            1511     11.8785E-03     102.897E-03     29.2500E-03     7.75665E-03    -80.0695E-03     27.5120E-03    -78.3316E-03     7.75665E-03    -9.83303E-03     330.430E-03    -164.560E-03    -166.218E-03    -165.121E-03     329.658E-03    -164.884E-03     39.0008E-03     95.5724E+06     76.5501E+06    -33.3086E+06    -31.8762E+06     94.1400E+06     76.5501E+06     13.0568E+06         56.8064
            1512     12.7271E-03     102.959E-03     21.8478E-03     8.54039E-03    -73.4784E-03     19.8446E-03    -71.4752E-03     8.54039E-03    -2.39495E-03     327.596E-03    -163.248E-03    -164.831E-03    -162.397E-03     326.700E-03    -164.786E-03     41.7646E-03     100.414E+06     93.6074E+06    -29.9168E+06    -29.1557E+06     99.0998E+06     94.1609E+06     6.16635E+06         60.6305
            1513     13.5798E-03     103.022E-03     28.3070E-03     9.13103E-03    -81.3049E-03     27.4056E-03    -80.4035E-03     9.13103E-03     5.08762E-03     327.529E-03    -162.723E-03    -164.989E-03    -161.469E-03     325.973E-03    -164.687E-03     53.7548E-03     123.449E+06     113.581E+06    -20.1023E+06    -19.6011E+06     113.757E+06     122.771E+06     4.16078E+06         64.7631
            1514     14.4282E-03     103.116E-03     39.7814E-03     10.1722E-03    -93.3012E-03     38.5857E-03    -92.1055E-03     10.1722E-03    -17.4371E-03     325.613E-03    -160.762E-03    -164.901E-03    -159.188E-03     323.736E-03    -164.599E-03     59.9736E-03     155.655E+06     133.236E+06    -8.13332E+06    -7.46222E+06     132.565E+06     155.655E+06     1.32755E+06         68.3907
            1515     842.603E-06     104.017E-03     83.2799E-03     14.4593E-03    -159.339E-03    -77.4034E-03    -44.1667E-03     59.9707E-03     106.567E-03     330.911E-03    -164.269E-03    -166.648E-03    -165.862E-03     330.900E-03    -165.044E-03     4.14854E-03    -139.058E+06    -141.645E+06    -305.873E+06    -141.010E+06    -305.865E+06      -139.7E+06     768.809E+03         45.6371
            1516     1.69534E-03     104.016E-03     20.7192E-03    -10.2913E-03    -65.0818E-03     2.39676E-03    -50.6753E-03    -6.37528E-03     6.36893E-03     328.552E-03    -163.553E-03    -165.021E-03    -163.548E-03     328.547E-03    -165.021E-03     1.60344E-03    -129.383E+06    -137.244E+06    -291.239E+06    -137.265E+06    -291.218E+06    -129.383E+06     370.254E+03         45.6611
            1517     2.54835E-03     104.021E-03     15.1655E-03    -3.63817E-03    -59.9356E-03    -277.013E-06    -44.4931E-03    -3.63817E-03     22.1524E-03     329.050E-03    -163.920E-03    -165.155E-03    -164.420E-03     329.043E-03    -164.648E-03     2.49346E-03    -113.687E+06    -132.161E+06    -273.704E+06    -132.198E+06    -273.666E+06    -113.687E+06     1.10844E+06         45.7145
            1518     3.39268E-03     104.029E-03     17.3853E-03    -3.21911E-03    -58.7452E-03    -3.91662E-03    -37.4433E-03    -3.21911E-03    -24.3658E-03     330.652E-03    -164.808E-03    -165.795E-03    -165.748E-03     330.639E-03    -164.842E-03     4.83627E-03    -96.0168E+06    -126.007E+06    -252.731E+06    -126.062E+06    -252.676E+06    -96.0168E+06     2.39665E+06         45.7868
            1519     4.23947E-03     104.035E-03     17.7600E-03    -3.25596E-03    -58.0304E-03    -2.15174E-03    -38.1186E-03    -3.25596E-03    -12.9788E-03     330.183E-03    -164.506E-03    -165.571E-03    -164.924E-03     330.155E-03    -165.124E-03     6.94363E-03    -73.6866E+06    -115.508E+06    -225.287E+06    -115.722E+06    -225.072E+06    -73.6866E+06     4.41529E+06         45.8610
            1520     5.08624E-03     104.046E-03     17.8557E-03    -2.63357E-03    -58.2558E-03     4.42524E-03    -44.8254E-03    -2.63357E-03    -15.8579E-03     328.771E-03    -163.697E-03    -165.189E-03    -163.642E-03     328.717E-03    -165.189E-03     10.0127E-03    -51.1499E+06    -104.813E+06    -197.928E+06    -105.205E+06    -197.537E+06    -51.1499E+06     4.90454E+06         45.9280
            1521     5.93966E-03     104.060E-03     10.2738E-03    -1.91588E-03    -50.6935E-03     4.28627E-03    -44.9109E-03    -1.71100E-03    -22.0647E-03     328.581E-03    -163.734E-03    -165.108E-03    -163.656E-03     328.503E-03    -165.108E-03     12.2387E-03    -31.8226E+06    -95.3639E+06    -171.091E+06    -96.1613E+06    -170.294E+06    -31.8226E+06     5.79792E+06         45.9975
            1522     6.78726E-03     104.076E-03     1.60235E-03    -3.91923E-03    -39.3784E-03    -1.52627E-03    -38.7713E-03    -1.39776E-03     6.03576E-03     328.741E-03    -164.053E-03    -164.967E-03    -163.937E-03     328.624E-03    -164.967E-03     14.9660E-03    -12.7888E+06    -87.7588E+06    -143.117E+06    -88.8842E+06    -141.992E+06    -12.7888E+06     5.32446E+06         46.0821
            1523     7.63473E-03     104.098E-03     2.97919E-03    -5.00133E-03    -40.1482E-03    -1.53081E-03    -39.1196E-03    -1.51985E-03     10.3760E-03     328.051E-03    -163.172E-03    -164.791E-03    -162.998E-03     327.876E-03    -164.791E-03     18.4261E-03     1.69043E+06    -80.8238E+06    -116.031E+06    -81.5609E+06    -115.294E+06     1.69043E+06     2.02541E+06         46.3633
            1524     8.48628E-03     104.122E-03     7.29545E-03    -2.50872E-03    -47.8679E-03     4.40733E-03    -46.1446E-03    -1.34384E-03     332.261E-06     327.115E-03    -162.042E-03    -164.618E-03    -161.780E-03     326.852E-03    -164.618E-03     22.5034E-03     16.3397E+06    -66.7971E+06    -86.8139E+06    -70.2058E+06    -83.4052E+06     16.3397E+06     4.27375E+06         47.1835
            1525     9.33738E-03     104.152E-03     9.79027E-03    -763.069E-06    -52.1799E-03     8.18348E-03    -50.5731E-03    -763.069E-06    -8.26170E-03     327.537E-03    -162.400E-03    -164.726E-03    -162.397E-03     327.162E-03    -164.353E-03     26.9897E-03     33.4744E+06    -37.5768E+06    -60.1252E+06    -55.2654E+06    -42.4366E+06     33.4744E+06     4.77206E+06         48.6814
            1526     10.1850E-03     104.189E-03     9.79295E-03    -93.0189E-06    -52.3636E-03     9.32367E-03    -51.8943E-03    -93.0189E-06     152.569E-06     329.404E-03    -163.876E-03    -165.480E-03    -164.414E-03     328.922E-03    -164.460E-03     30.7358E-03     42.9885E+06     3.92146E+06    -51.8179E+06    -50.4715E+06     2.57507E+06     42.9885E+06     6.70728E+06         50.8080
            1527     11.0348E-03     104.240E-03     15.5092E-03     558.081E-06    -57.4816E-03     11.6067E-03    -53.5790E-03     558.081E-06     8.98962E-03     330.812E-03    -164.677E-03    -166.501E-03    -165.732E-03     330.148E-03    -164.781E-03     36.1133E-03     67.7394E+06     44.5195E+06    -48.3838E+06    -47.2058E+06     57.1922E+06     53.8887E+06     10.5001E+06         53.5228
            1528     11.8806E-03     104.291E-03     18.4396E-03     1.18588E-03    -60.4803E-03     13.1468E-03    -55.1875E-03     1.18588E-03    -48.8912E-06     330.176E-03    -164.607E-03    -165.955E-03    -164.788E-03     329.240E-03    -164.837E-03     42.8850E-03     93.2317E+06     70.4332E+06    -38.2567E+06    -37.1441E+06     92.1191E+06     70.4332E+06     11.7723E+06         56.7988
            1529     12.7286E-03     104.346E-03     22.1558E-03     1.97547E-03    -67.5208E-03     20.4737E-03    -65.8386E-03     1.97547E-03    -4.55766E-03     327.791E-03    -163.588E-03    -164.810E-03    -162.395E-03     326.553E-03    -164.765E-03     48.9830E-03     101.456E+06     90.1576E+06    -30.0746E+06    -29.1897E+06     100.571E+06     90.1576E+06     9.89267E+06         60.6171
            1530     13.5787E-03     104.409E-03     33.7067E-03     3.27525E-03    -82.8894E-03     32.9393E-03    -82.1220E-03     3.27525E-03     4.93977E-03     326.688E-03    -162.353E-03    -164.607E-03    -160.365E-03     324.699E-03    -164.607E-03     61.3943E-03     129.113E+06     119.468E+06    -15.5365E+06    -15.0658E+06     121.348E+06     126.762E+06     5.37386E+06         64.7482
            1531     14.4382E-03     104.497E-03     38.2789E-03     4.91450E-03    -89.5101E-03     37.2003E-03    -88.4314E-03     4.91450E-03    -7.30915E-03     324.887E-03    -160.623E-03    -164.455E-03    -158.676E-03     322.940E-03    -164.455E-03     60.5070E-03     161.956E+06     141.448E+06    -4.34620E+06    -3.67943E+06     140.782E+06     161.956E+06    -504.580E+03         68.3891
            1532     852.220E-06     105.406E-03     97.5166E-03     14.1600E-03    -168.239E-03    -91.9593E-03    -38.6006E-03     73.9975E-03     82.6303E-03     329.515E-03    -164.069E-03    -165.451E-03    -164.248E-03     329.506E-03    -165.262E-03     2.19659E-03    -138.045E+06    -142.571E+06    -306.852E+06    -142.579E+06    -306.844E+06    -138.045E+06     847.664E+03         45.6274
            1533     1.69657E-03     105.406E-03     23.7569E-03    -14.6441E-03    -59.0738E-03    -17.2062E-03    -22.0267E-03    -10.7281E-03    -35.7748E-03     329.673E-03    -164.391E-03    -165.310E-03    -164.926E-03     329.662E-03    -164.765E-03     2.02009E-03    -129.548E+06    -138.130E+06    -292.995E+06    -138.158E+06    -292.968E+06    -129.548E+06     468.788E+03         45.6443
            1534     2.54080E-03     105.409E-03     11.2472E-03    -11.9164E-03    -42.6578E-03    -9.00123E-03    -22.4094E-03    -11.9164E-03     12.8980E-03     329.636E-03    -164.302E-03    -165.357E-03    -164.806E-03     329.626E-03    -164.843E-03     3.12862E-03    -114.467E+06    -132.518E+06    -274.942E+06    -132.549E+06    -274.910E+06    -114.467E+06     838.996E+03         45.6837
            1535     3.39296E-03     105.420E-03     15.9487E-03    -11.6680E-03    -45.3730E-03    -13.0837E-03    -16.3407E-03    -11.6680E-03    -14.7001E-03     328.532E-03    -163.684E-03    -164.941E-03    -163.775E-03     328.518E-03    -164.836E-03     4.93133E-03    -96.4407E+06    -126.313E+06    -254.397E+06    -126.331E+06    -254.380E+06    -96.4407E+06     1.40045E+06         45.7430
            1536     4.24172E-03     105.427E-03     18.5717E-03    -11.7898E-03    -46.7260E-03    -10.8978E-03    -17.2565E-03    -11.7898E-03    -4.39476E-03     328.401E-03    -163.543E-03    -164.812E-03    -163.616E-03     328.369E-03    -164.707E-03     7.48274E-03    -78.3007E+06    -119.581E+06    -230.655E+06    -119.720E+06    -230.517E+06    -78.3007E+06     3.36275E+06         45.8180
            1537     5.09334E-03     105.434E-03     17.6345E-03    -11.3985E-03    -47.2870E-03    -7.29429E-03    -22.3582E-03    -11.3985E-03    -7.50116E-03     328.660E-03    -163.800E-03    -164.748E-03    -163.804E-03     328.604E-03    -164.689E-03     10.1939E-03    -54.8551E+06    -108.727E+06    -201.686E+06    -109.092E+06    -201.322E+06    -54.8551E+06     5.31051E+06         45.8946
            1538     5.93895E-03     105.447E-03     7.30433E-03    -10.8343E-03    -39.3975E-03    -6.66097E-03    -25.4322E-03    -10.8343E-03    -17.5476E-03     328.366E-03    -163.698E-03    -164.839E-03    -163.683E-03     328.292E-03    -164.780E-03     12.0342E-03    -31.2300E+06    -97.9803E+06    -171.725E+06     -98.422E+06    -171.283E+06    -31.2300E+06     5.30219E+06         45.9591
            1539     6.78839E-03     105.465E-03     3.26831E-03    -9.93061E-03    -36.1998E-03     1.40056E-03    -34.3320E-03    -9.93061E-03    -2.10816E-03     327.784E-03    -163.454E-03    -164.725E-03    -163.340E-03     327.669E-03    -164.725E-03     14.7595E-03    -12.9336E+06    -89.3037E+06    -143.458E+06    -90.0409E+06    -142.721E+06    -12.9336E+06     5.38652E+06         46.0356
            1540     7.63867E-03     105.484E-03     12.1800E-03    -8.25126E-03    -46.4940E-03     11.1030E-03    -45.4169E-03    -8.25126E-03    -224.020E-06     327.595E-03    -163.184E-03    -164.562E-03    -163.030E-03     327.420E-03    -164.541E-03     18.4825E-03     4.21022E+06    -79.2356E+06    -114.674E+06    -80.0239E+06    -113.885E+06     4.21022E+06     3.69827E+06         46.3298
            1541     8.48830E-03     105.506E-03     15.9235E-03    -6.31177E-03    -52.8402E-03     12.8093E-03    -49.7260E-03    -6.31177E-03     63.5609E-06     327.975E-03    -163.065E-03    -164.591E-03    -163.024E-03     327.736E-03    -164.393E-03     21.5665E-03     17.7602E+06    -68.8049E+06    -86.3353E+06    -70.2720E+06    -84.8682E+06     17.7602E+06     2.69266E+06         47.1655
            1542     9.33898E-03     105.540E-03     11.4526E-03    -4.90082E-03    -49.7895E-03     7.08920E-03    -45.4261E-03    -4.90082E-03     4.54420E-03     328.833E-03    -163.608E-03    -164.809E-03    -163.808E-03     328.471E-03    -164.247E-03     26.4853E-03     29.2296E+06    -42.9256E+06    -66.7458E+06    -62.8393E+06    -46.8321E+06     29.2296E+06     5.73596E+06         48.6693
            1543     10.1875E-03     105.583E-03     3.56380E-03    -4.27703E-03    -40.8333E-03     222.337E-06    -37.4918E-03    -4.27703E-03     8.20068E-03     329.143E-03    -163.935E-03    -164.988E-03    -164.080E-03     328.618E-03    -164.317E-03     32.0650E-03     41.8847E+06    -92.8525E+03    -56.0018E+06    -54.6636E+06    -1.43099E+06     41.8847E+06     8.24238E+06         50.8017
            1544     11.0330E-03     105.628E-03     4.40283E-03    -4.09621E-03    -39.7111E-03    -874.104E-06    -34.4342E-03    -4.09621E-03     15.7445E-03     327.784E-03    -163.162E-03    -164.784E-03    -162.686E-03     327.022E-03    -164.498E-03     38.4064E-03     66.9878E+06     40.0721E+06    -48.1724E+06    -47.1100E+06     52.7239E+06     53.2737E+06     10.0030E+06         53.5277
            1545     11.8863E-03     105.681E-03     12.5853E-03    -3.69217E-03    -51.4884E-03     7.86600E-03    -46.7691E-03    -3.69217E-03     5.05221E-03     326.875E-03    -162.868E-03    -164.442E-03    -161.812E-03     325.820E-03    -164.442E-03     45.2984E-03     94.6241E+06     69.3784E+06    -36.3227E+06    -35.4570E+06     93.7584E+06     69.3784E+06     9.82574E+06         56.8207
            1546     12.7382E-03     105.735E-03     25.4825E-03    -2.54000E-03    -68.5415E-03     23.4906E-03    -66.5496E-03    -2.54000E-03    -8.95711E-03     327.149E-03    -163.240E-03    -164.418E-03    -162.128E-03     325.842E-03    -164.224E-03     50.4022E-03     107.705E+06     92.5618E+06    -24.9762E+06    -24.5865E+06     107.315E+06     92.5618E+06     5.55850E+06         60.6535
            1547     13.5906E-03     105.795E-03     30.3249E-03    -907.961E-06    -74.4218E-03     28.9831E-03    -73.0801E-03    -907.961E-06     1.80093E-03     327.883E-03    -163.376E-03    -164.691E-03    -161.952E-03     325.959E-03    -164.191E-03     60.7223E-03     130.854E+06     120.287E+06    -16.9354E+06    -16.8692E+06     123.832E+06     127.242E+06     838.586E+03         64.7881
            1548     14.4366E-03     105.882E-03     21.3009E-03     394.086E-06    -68.2550E-03     20.5175E-03    -67.4717E-03     394.086E-06    -459.763E-06     327.118E-03    -162.759E-03    -164.565E-03    -161.238E-03     325.291E-03    -164.260E-03     58.8993E-03     161.588E+06     143.124E+06    -7.96005E+06    -7.92632E+06     143.090E+06     161.588E+06     328.325E+03         68.4221
            1549     845.087E-06     106.793E-03     78.1802E-03     33.8079E-03    -158.234E-03    -106.000E-03     17.2098E-03     42.5444E-03     71.6117E-03     328.924E-03    -163.351E-03    -165.575E-03    -164.452E-03     328.920E-03    -164.471E-03     230.247E-06    -139.482E+06    -146.327E+06    -309.483E+06    -144.283E+06    -309.467E+06    -141.542E+06     1.19354E+06         45.5918
            1550     1.69756E-03     106.795E-03     23.8649E-03    -21.2622E-03    -48.1682E-03    -6.63271E-03    -12.0810E-03    -26.8517E-03    -22.0944E-03     329.162E-03    -164.136E-03    -165.042E-03    -164.669E-03     329.150E-03    -164.496E-03     3.39189E-03    -130.979E+06    -140.634E+06    -294.227E+06    -140.677E+06    -294.184E+06    -130.979E+06     2.28811E+06         45.6075
            1551     2.54599E-03     106.804E-03     11.2120E-03    -19.1326E-03    -32.4378E-03    -3.22622E-03    -17.9996E-03    -19.1326E-03     34.0216E-03     329.149E-03    -164.005E-03    -165.166E-03    -164.585E-03     329.136E-03    -164.572E-03     4.80492E-03    -115.683E+06    -135.515E+06    -276.416E+06    -135.565E+06    -276.366E+06    -115.683E+06     2.50374E+06         45.6418
            1552     3.39202E-03     106.802E-03     12.9114E-03    -14.4109E-03    -35.8371E-03     2.02577E-03    -24.9515E-03    -14.4109E-03     18.7987E-03     327.756E-03    -163.278E-03    -164.598E-03    -163.342E-03     327.741E-03    -164.519E-03     5.24731E-03    -95.6520E+06    -127.520E+06    -254.499E+06    -127.556E+06    -254.464E+06    -95.6520E+06     1.97286E+06         45.6964
            1553     4.24511E-03     106.813E-03     16.0773E-03    -11.8780E-03    -41.0746E-03    -7.38164E-03    -17.6156E-03    -11.8780E-03     34.2908E-03     327.650E-03    -163.326E-03    -164.371E-03    -163.303E-03     327.627E-03    -164.371E-03     6.63215E-03    -75.6361E+06    -120.170E+06    -230.441E+06    -120.222E+06    -230.389E+06    -75.6361E+06     1.97787E+06         45.7770
            1554     5.09134E-03     106.822E-03     12.1132E-03    -12.3143E-03    -38.3819E-03    -23.2936E-03    -2.97510E-03    -12.3143E-03     41.3049E-03     328.282E-03    -163.687E-03    -164.384E-03    -163.707E-03     328.242E-03    -164.325E-03     8.59997E-03    -55.9748E+06    -111.654E+06    -205.516E+06    -111.723E+06    -205.448E+06    -55.9748E+06     1.53607E+06         45.8566
            1555     5.94185E-03     106.838E-03     4.80328E-03    -13.9319E-03    -32.6159E-03    -24.1317E-03    -3.68091E-03    -13.9319E-03     16.2457E-03     327.356E-03    -162.905E-03    -164.419E-03    -162.890E-03     327.281E-03    -164.360E-03     12.0150E-03    -33.7606E+06    -99.5224E+06    -174.807E+06    -99.7797E+06    -174.550E+06    -33.7606E+06     3.09177E+06         45.9104
            1556     6.79163E-03     106.851E-03     10.4522E-03    -14.4029E-03    -37.4423E-03    -10.4569E-03    -16.5332E-03    -14.4029E-03     16.9493E-03     327.034E-03    -162.911E-03    -164.440E-03    -162.833E-03     326.914E-03    -164.397E-03     15.2402E-03    -13.5630E+06    -89.4659E+06    -143.946E+06    -89.9044E+06    -143.508E+06    -13.5630E+06     4.69261E+06         45.9851
            1557     7.64209E-03     106.871E-03     17.1992E-03    -13.2806E-03    -43.8999E-03     3.00705E-03    -29.7078E-03    -13.2806E-03    -3.01583E-03     327.966E-03    -163.786E-03    -164.540E-03    -163.879E-03     327.806E-03    -164.287E-03     17.6860E-03     3.79903E+06    -79.8646E+06    -116.072E+06    -80.7726E+06    -115.164E+06     3.79903E+06     5.01195E+06         46.2981
            1558     8.48998E-03     106.896E-03     17.3758E-03    -11.3974E-03    -47.0389E-03     10.0065E-03    -39.6697E-03    -11.3974E-03    -13.2194E-03     329.294E-03    -164.210E-03    -165.115E-03    -164.879E-03     329.058E-03    -164.210E-03     21.3534E-03     19.2558E+06    -68.3514E+06    -87.3729E+06    -71.4649E+06    -84.2595E+06     19.2558E+06     5.29169E+06         47.1503
            1559     9.33577E-03     106.930E-03     11.4447E-03    -9.75763E-03    -43.9665E-03     5.89560E-03    -38.4174E-03    -9.75763E-03     1.34250E-03     329.061E-03    -163.817E-03    -164.939E-03    -164.150E-03     328.686E-03    -164.232E-03     26.9845E-03     30.9267E+06    -45.6095E+06    -67.0350E+06    -63.4594E+06    -49.1851E+06     30.9267E+06     5.66639E+06         48.6619
            1560     10.1852E-03     106.972E-03     2.77812E-03    -8.88768E-03    -36.3487E-03    -1.41748E-03    -32.1531E-03    -8.88768E-03     7.25571E-03     326.934E-03    -162.359E-03    -164.163E-03    -161.830E-03     326.392E-03    -164.151E-03     32.3798E-03     40.2100E+06    -7.67449E+06    -56.0027E+06    -54.8412E+06    -8.83593E+06     40.2100E+06     6.85448E+06         50.8056
            1561     11.0406E-03     107.013E-03     8.15095E-03    -8.17498E-03    -40.6276E-03     5.95919E-03    -38.4359E-03    -8.17498E-03     610.040E-06     325.774E-03    -161.480E-03    -164.089E-03    -160.751E-03     325.045E-03    -164.089E-03     37.4489E-03     67.7927E+06     39.3962E+06    -45.1234E+06    -44.3131E+06     51.3539E+06     55.0246E+06     8.05305E+06         53.5473
            1562     11.8926E-03     107.062E-03     16.5457E-03    -6.97433E-03    -52.6624E-03     14.9883E-03    -51.1049E-03    -6.97433E-03    -19.4328E-03     325.562E-03    -161.768E-03    -164.101E-03    -160.839E-03     324.633E-03    -164.101E-03     42.2410E-03     99.3864E+06     73.8741E+06    -33.7513E+06    -33.2808E+06     98.9159E+06     73.8741E+06     6.32378E+06         56.8574
            1563     12.7442E-03     107.123E-03     14.2132E-03    -5.75300E-03    -52.1695E-03     11.2850E-03    -49.2413E-03    -5.75300E-03    -15.1165E-03     326.365E-03    -162.692E-03    -164.066E-03    -161.750E-03     325.229E-03    -163.871E-03     46.9685E-03     112.849E+06     94.9558E+06    -24.9959E+06    -24.7970E+06     112.650E+06     94.9558E+06     4.21832E+06         60.7105
            1564     13.5905E-03     107.183E-03     12.1373E-03    -4.89715E-03    -46.2750E-03     10.1771E-03    -44.3148E-03    -4.89715E-03    -1.92935E-03     328.562E-03    -163.795E-03    -164.872E-03    -163.072E-03     326.841E-03    -163.872E-03     57.5953E-03     131.572E+06     120.893E+06    -19.4830E+06    -19.3256E+06     125.884E+06     126.423E+06     3.18054E+06         64.8560
            1565     14.4442E-03     107.269E-03     20.2791E-03    -3.95985E-03    -55.3103E-03     19.6736E-03    -54.7048E-03    -3.95985E-03    -8.18860E-03     329.127E-03    -163.908E-03    -165.367E-03    -163.442E-03     327.404E-03    -164.111E-03     57.6558E-03     159.577E+06     143.881E+06    -10.8510E+06    -10.8419E+06     143.871E+06     159.577E+06     1.00362E+06         68.4799
            1566     851.235E-06     108.180E-03     111.062E-03     9.08844E-03    -162.948E-03    -136.174E-03     15.1178E-03     78.2587E-03     28.5956E-03     327.616E-03    -162.525E-03    -165.097E-03    -164.377E-03     327.609E-03    -163.237E-03     2.72102E-03    -143.946E+06    -149.716E+06    -312.201E+06    -147.675E+06    -312.180E+06    -146.006E+06     1.50443E+06         45.5410
            1567     1.69650E-03     108.184E-03     19.8000E-03    -20.7183E-03    -41.7976E-03    -15.5675E-03    -840.649E-06    -26.3078E-03    -20.6750E-03     328.302E-03    -163.575E-03    -164.745E-03    -164.373E-03     328.290E-03    -163.935E-03     4.81646E-03    -133.586E+06    -143.913E+06    -297.227E+06    -143.944E+06    -297.196E+06    -133.586E+06     2.03493E+06         45.5554
            1568     2.54646E-03     108.190E-03     6.73229E-03    -21.6366E-03    -27.6224E-03    -9.73486E-03    -11.1552E-03    -21.6366E-03     9.51301E-03     327.750E-03    -163.638E-03    -164.120E-03    -163.734E-03     327.743E-03    -164.018E-03     3.54074E-03    -116.320E+06    -137.691E+06    -277.501E+06    -137.732E+06    -277.460E+06    -116.320E+06     2.30343E+06         45.5898
            1569     3.39705E-03     108.193E-03     15.4415E-03    -18.6699E-03    -38.7638E-03    -10.5373E-03    -12.7850E-03    -18.6699E-03    -23.5650E-03     328.140E-03    -163.733E-03    -164.439E-03    -164.130E-03     328.129E-03    -164.031E-03     4.40253E-03    -95.5897E+06    -129.693E+06    -255.265E+06    -129.763E+06    -255.195E+06    -95.5897E+06     2.76048E+06         45.6490
            1570     4.24193E-03     108.197E-03     15.2972E-03    -15.3003E-03    -40.0867E-03    -12.0573E-03    -10.8223E-03    -17.2103E-03    -13.5925E-03     327.848E-03    -163.540E-03    -164.445E-03    -163.840E-03     327.819E-03    -164.116E-03     7.33529E-03    -73.4033E+06    -119.716E+06    -229.928E+06    -119.764E+06    -229.879E+06    -73.4033E+06     1.91851E+06         45.7311
            1571     5.09361E-03     108.212E-03     17.8133E-03    -14.4003E-03    -40.8251E-03    -10.5709E-03    -10.5309E-03    -16.3103E-03    -11.7376E-03     326.917E-03    -162.690E-03    -164.025E-03    -162.645E-03     326.872E-03    -164.025E-03     9.36529E-03    -54.1025E+06    -110.765E+06    -204.882E+06    -110.816E+06    -204.830E+06    -54.1025E+06     1.02498E+06         45.8087
            1572     5.94374E-03     108.219E-03     21.5918E-03    -15.7760E-03    -44.5115E-03    -13.9266E-03    -8.99320E-03    -15.7760E-03    -26.1897E-03     326.563E-03    -162.452E-03    -163.942E-03    -162.383E-03     326.494E-03    -163.942E-03     11.4709E-03    -36.4809E+06    -102.700E+06    -179.486E+06    -102.834E+06    -179.352E+06    -36.4809E+06     1.93125E+06         45.8645
            1573     6.79510E-03     108.239E-03     15.4853E-03    -15.9148E-03    -40.9946E-03    -19.4188E-03    -6.09059E-03    -15.9148E-03    -4.55850E-03     327.296E-03    -163.421E-03    -164.169E-03    -163.347E-03     327.180E-03    -164.126E-03     14.9614E-03    -14.0556E+06    -90.0944E+06    -146.245E+06    -90.5264E+06    -145.813E+06    -14.0556E+06     4.04445E+06         45.9481
            1574     7.64158E-03     108.261E-03     11.4588E-03    -16.3169E-03    -36.5569E-03    -18.7404E-03    -6.35781E-03    -16.3169E-03    -10.6894E-03     328.298E-03    -164.062E-03    -164.740E-03    -164.478E-03     328.132E-03    -164.157E-03     18.0276E-03     5.32580E+06    -79.3115E+06    -116.419E+06    -80.1284E+06    -115.602E+06     5.32580E+06     4.62774E+06         46.2740
            1575     8.49022E-03     108.286E-03     11.0259E-03    -16.3707E-03    -34.1431E-03    -13.2364E-03    -9.88075E-03    -16.3707E-03    -15.6968E-03     328.633E-03    -163.710E-03    -165.092E-03    -164.496E-03     328.360E-03    -164.034E-03     22.8258E-03     19.5137E+06    -68.2047E+06    -88.9911E+06    -71.2004E+06    -85.9954E+06     19.5137E+06     4.48919E+06         47.1381
            1576     9.33935E-03     108.322E-03     13.6156E-03    -15.6397E-03    -35.9875E-03    -303.055E-06    -22.0689E-03    -15.6397E-03    -4.33987E-03     328.205E-03    -163.274E-03    -164.544E-03    -163.388E-03     327.800E-03    -164.026E-03     28.1220E-03     33.1900E+06    -46.3155E+06    -64.2784E+06    -60.1369E+06    -50.4570E+06     33.1900E+06     4.68015E+06         48.6616
            1577     10.1910E-03     108.351E-03     16.2938E-03    -13.9084E-03    -43.9516E-03     14.2032E-03    -41.8610E-03    -13.9084E-03    -1.78215E-03     326.930E-03    -162.546E-03    -164.000E-03    -162.039E-03     326.423E-03    -164.000E-03     31.3314E-03     43.3095E+06    -12.3965E+06     -52.087E+06    -51.1160E+06    -13.3675E+06     43.3095E+06     5.59801E+06         50.8176
            1578     11.0411E-03     108.397E-03     22.2325E-03    -11.6025E-03    -52.1076E-03     20.7079E-03    -50.5830E-03    -11.6025E-03     2.39267E-03     326.615E-03    -162.504E-03    -163.919E-03    -161.884E-03     325.995E-03    -163.919E-03     34.7105E-03     71.8356E+06     38.0261E+06    -43.6629E+06    -43.0560E+06     51.3119E+06     57.9429E+06     6.27466E+06         53.5691
            1579     11.8910E-03     108.448E-03     15.7080E-03    -9.68136E-03    -45.2254E-03     11.7159E-03    -41.2334E-03    -9.68136E-03    -7.21460E-03     326.332E-03    -162.547E-03    -164.013E-03    -161.842E-03     325.627E-03    -164.013E-03     37.0107E-03     101.502E+06     76.5662E+06    -36.3696E+06    -36.1906E+06     101.323E+06     76.5662E+06     4.75274E+06         56.8872
            1580     12.7425E-03     108.505E-03     7.33267E-03    -8.62549E-03    -38.9561E-03     2.96370E-03    -34.5872E-03    -8.62549E-03     1.12792E-03     325.673E-03    -162.199E-03    -163.906E-03    -161.252E-03     324.726E-03    -163.906E-03     42.5369E-03     113.363E+06     94.7838E+06    -28.4283E+06    -28.2144E+06     113.149E+06     94.7838E+06     4.41765E+06         60.7521
            1581     13.5976E-03     108.574E-03     11.8119E-03    -7.78274E-03    -40.8466E-03     9.87138E-03    -38.9061E-03    -7.78274E-03     14.1956E-03     327.573E-03    -163.216E-03    -164.593E-03    -162.478E-03     326.087E-03    -163.845E-03     53.5121E-03     133.091E+06     122.272E+06    -18.3343E+06    -18.1351E+06     129.608E+06     125.556E+06     4.05677E+06         64.9092
            1582     14.4423E-03     108.658E-03     19.9011E-03    -6.53921E-03    -49.5882E-03     19.2685E-03    -48.9556E-03    -6.53921E-03     1.02591E-03     328.931E-03    -163.814E-03    -165.270E-03    -163.499E-03     327.416E-03    -164.070E-03     54.2677E-03     159.964E+06     147.395E+06    -9.29940E+06    -9.24691E+06     147.342E+06     159.964E+06     2.01688E+06         68.5353
            1583     851.159E-06     109.567E-03     149.257E-03    -18.8808E-03    -171.896E-03    -142.894E-03    -27.1956E-03     128.570E-03     39.0621E-03     327.197E-03    -162.497E-03    -164.705E-03    -163.778E-03     327.189E-03    -163.417E-03     2.28305E-03    -145.423E+06    -150.968E+06    -314.099E+06    -149.360E+06    -314.086E+06    -147.044E+06     917.713E+03         45.4979
            1584     1.70011E-03     109.575E-03     28.1657E-03    -14.7007E-03    -56.2825E-03    -36.3588E-03     6.41396E-03    -12.8726E-03    -2.59916E-03     327.562E-03    -163.072E-03    -164.501E-03    -163.875E-03     327.554E-03    -163.691E-03     2.05429E-03    -135.692E+06    -145.767E+06    -299.898E+06    -145.782E+06    -299.883E+06    -135.692E+06     1.26535E+06         45.5050
            1585     2.54764E-03     109.575E-03     22.9522E-03    -21.6100E-03    -43.6082E-03    -38.9496E-03     18.2936E-03    -21.6100E-03     24.3201E-03     327.028E-03    -163.281E-03    -163.837E-03    -163.398E-03     327.020E-03    -163.711E-03     3.13416E-03    -118.163E+06    -139.095E+06    -279.755E+06    -139.138E+06    -279.713E+06    -118.163E+06     1.96151E+06         45.5360
            1586     3.39595E-03     109.580E-03     28.6639E-03    -26.0349E-03    -45.6895E-03    -38.3123E-03     21.2867E-03    -26.0349E-03     4.62344E-03     327.311E-03    -163.246E-03    -164.089E-03    -163.663E-03     327.297E-03    -163.658E-03     5.05316E-03    -97.3993E+06    -131.239E+06    -256.948E+06    -131.313E+06    -256.873E+06    -97.3993E+06     2.74948E+06         45.5981
            1587     4.24647E-03     109.589E-03     24.3329E-03    -25.6274E-03    -40.2670E-03    -26.9928E-03     12.9687E-03    -27.5374E-03     5.33129E-03     326.930E-03    -163.044E-03    -164.035E-03    -163.348E-03     326.906E-03    -163.706E-03     6.71828E-03    -75.7744E+06    -122.215E+06    -232.615E+06    -122.266E+06    -232.564E+06    -75.7744E+06     2.07603E+06         45.6818
            1588     5.09565E-03     109.593E-03     21.4472E-03    -21.1013E-03    -37.0960E-03    -2.13164E-03    -9.04664E-03    -25.5719E-03    -10.3356E-03     326.491E-03    -162.684E-03    -163.679E-03    -162.641E-03     326.448E-03    -163.679E-03     8.97627E-03    -53.0887E+06    -111.709E+06    -205.011E+06    -111.765E+06    -204.955E+06    -53.0887E+06     1.81147E+06         45.7711
            1589     5.94634E-03     109.610E-03     24.6411E-03    -19.3540E-03    -43.2687E-03     2.66845E-03    -18.7354E-03    -21.9146E-03    -19.2254E-03     327.039E-03    -163.054E-03    -163.803E-03    -163.083E-03     326.967E-03    -163.702E-03     11.7784E-03    -31.8774E+06    -101.191E+06    -177.147E+06    -101.258E+06    -177.080E+06    -31.8774E+06     1.78888E+06         45.8425
            1590     6.79346E-03     109.623E-03     17.0799E-03    -19.3702E-03    -37.2590E-03    -5.84309E-03    -14.3360E-03    -19.3702E-03    -5.61037E-03     327.183E-03    -163.420E-03    -164.052E-03    -163.396E-03     327.059E-03    -163.951E-03     15.4415E-03    -12.7944E+06    -90.4632E+06    -148.339E+06    -90.6639E+06    -148.139E+06    -12.7944E+06     1.92134E+06         45.9272
            1591     7.64494E-03     109.652E-03     10.3756E-03    -18.1949E-03    -30.6617E-03    -11.5790E-03    -8.70711E-03    -18.1949E-03     2.23713E-03     327.109E-03    -163.275E-03    -164.307E-03    -163.420E-03     326.904E-03    -163.956E-03     19.9416E-03     5.95578E+06    -78.8830E+06    -117.351E+06    -79.1570E+06    -117.077E+06     5.95578E+06     2.10559E+06         46.2512
            1592     8.49237E-03     109.675E-03     8.88125E-03    -17.6964E-03    -27.8110E-03    -15.2913E-03    -3.63842E-03    -17.6964E-03     19.5579E-03     327.585E-03    -163.223E-03    -164.403E-03    -163.554E-03     327.290E-03    -163.776E-03     23.9805E-03     21.2393E+06    -68.2207E+06    -87.5755E+06    -68.9550E+06    -86.8412E+06     21.2393E+06     2.03023E+06         47.1266
            1593     9.34388E-03     109.706E-03     8.09225E-03    -17.1208E-03    -26.5234E-03    -8.27504E-03    -10.1561E-03    -17.1208E-03     22.7356E-03     327.909E-03    -163.416E-03    -164.030E-03    -163.306E-03     327.522E-03    -163.753E-03     27.4692E-03     33.4678E+06    -48.5535E+06    -64.7131E+06    -59.8067E+06    -53.4599E+06     33.4678E+06     2.97383E+06         48.6667
            1594     10.1912E-03     109.745E-03     12.4539E-03    -15.5015E-03    -33.6880E-03     5.67692E-03    -26.6337E-03    -15.7788E-03     7.99321E-03     328.458E-03    -163.759E-03    -164.348E-03    -163.807E-03     327.962E-03    -163.804E-03     31.0955E-03     46.5445E+06    -12.6411E+06    -50.1855E+06    -49.4377E+06    -13.3889E+06     46.5445E+06     3.25537E+06         50.8338
            1595     11.0395E-03     109.784E-03     16.6244E-03    -13.6257E-03    -39.9206E-03     12.2662E-03    -35.2850E-03    -13.9030E-03     8.87496E-03     328.711E-03    -163.822E-03    -164.648E-03    -163.932E-03     328.034E-03    -163.861E-03     36.2992E-03     71.2842E+06     37.6201E+06    -40.0918E+06    -39.5050E+06     48.2032E+06     60.1143E+06     5.21134E+06         53.5913
            1596     11.8892E-03     109.843E-03     11.3621E-03    -12.2881E-03    -38.8365E-03     7.32981E-03    -34.8042E-03    -12.2881E-03     421.625E-06     327.590E-03    -163.373E-03    -164.296E-03    -162.864E-03     326.836E-03    -164.051E-03     38.3624E-03     101.161E+06     78.8317E+06    -32.2860E+06    -31.7208E+06     100.595E+06     78.8317E+06     8.22913E+06         56.9138
            1597     12.7386E-03     109.887E-03     12.1620E-03    -11.0365E-03    -42.0367E-03     8.65169E-03    -38.5264E-03    -11.0365E-03    -7.33315E-03     326.719E-03    -162.783E-03    -164.346E-03    -162.085E-03     325.680E-03    -164.005E-03     44.2098E-03     118.094E+06     97.7567E+06    -26.3401E+06    -25.9954E+06     117.749E+06     97.7567E+06     5.40631E+06         60.7814
            1598     13.5867E-03     109.963E-03     23.6618E-03    -9.48769E-03    -52.7473E-03     22.1605E-03    -51.2460E-03    -9.48769E-03    -3.92284E-03     327.156E-03    -163.064E-03    -164.512E-03    -162.037E-03     325.540E-03    -163.923E-03     55.7058E-03     131.890E+06     121.324E+06    -19.7613E+06    -19.6789E+06     130.420E+06     122.712E+06     3.07017E+06         64.9431
            1599     14.4413E-03     110.047E-03     29.6241E-03    -7.50964E-03    -58.3045E-03     28.6360E-03    -57.3164E-03    -7.50964E-03    -7.66214E-03     327.281E-03    -163.206E-03    -164.335E-03    -161.864E-03     325.691E-03    -164.086E-03     55.4206E-03     158.498E+06     148.983E+06    -10.0246E+06    -9.95312E+06     148.911E+06     158.498E+06     2.96849E+06         68.5803
            1600     845.436E-06     110.954E-03     127.371E-03    -14.8299E-03    -152.675E-03    -132.150E-03    -29.5969E-03     121.612E-03     65.5165E-03     329.154E-03    -163.806E-03    -165.347E-03    -164.542E-03     329.149E-03    -164.605E-03     2.17886E-03    -146.664E+06    -152.044E+06    -316.641E+06    -150.434E+06    -316.630E+06    -148.285E+06     521.730E+03         45.4622
            1601     1.69655E-03     110.958E-03     14.4772E-03    -12.2633E-03    -44.9314E-03    -31.4849E-03    -797.473E-06    -10.4352E-03     15.1068E-03     326.910E-03    -162.673E-03    -164.227E-03    -162.671E-03     326.908E-03    -164.227E-03     433.472E-06    -137.692E+06    -146.896E+06    -301.115E+06    -146.915E+06    -301.096E+06    -137.692E+06     1.05726E+06         45.4660
            1602     2.54887E-03     110.961E-03     23.6450E-03    -19.1708E-03    -47.4155E-03    -40.0376E-03     16.2671E-03    -19.1708E-03     22.5525E-03     326.254E-03    -162.586E-03    -163.818E-03    -162.682E-03     326.249E-03    -163.717E-03     2.30159E-03    -120.453E+06    -140.980E+06    -281.869E+06    -141.022E+06    -281.827E+06    -120.453E+06     1.66875E+06         45.4947
            1603     3.39815E-03     110.967E-03     20.4887E-03    -23.9558E-03    -41.2065E-03    -34.5526E-03     13.8348E-03    -23.9558E-03     27.2557E-03     325.943E-03    -162.563E-03    -163.547E-03    -162.654E-03     325.932E-03    -163.445E-03     4.49670E-03    -98.4218E+06    -132.369E+06    -257.522E+06    -132.405E+06    -257.486E+06    -98.4218E+06     1.57358E+06         45.5587
            1604     4.24748E-03     110.972E-03     16.9142E-03    -25.0095E-03    -33.7416E-03    -22.7002E-03     5.87276E-03    -25.0095E-03     28.1507E-03     326.016E-03    -162.831E-03    -163.474E-03    -162.900E-03     325.999E-03    -163.388E-03     5.52510E-03    -74.8592E+06    -122.518E+06    -231.868E+06    -122.533E+06    -231.853E+06    -74.8592E+06     1.15647E+06         45.6489
            1605     5.09747E-03     110.981E-03     14.9867E-03    -21.4388E-03    -30.2494E-03    -15.3350E-03     2.63288E-03    -23.9994E-03     26.7662E-03     326.761E-03    -163.223E-03    -163.521E-03    -163.278E-03     326.727E-03    -163.432E-03     7.94556E-03    -52.2119E+06    -112.185E+06    -205.392E+06    -112.195E+06    -205.382E+06    -52.2119E+06     702.268E+03         45.7546
            1606     5.94638E-03     110.992E-03     13.5938E-03    -19.4140E-03    -31.1346E-03    -12.4956E-03    -1.95252E-03    -22.5067E-03     20.3285E-03     326.757E-03    -163.018E-03    -163.583E-03    -163.040E-03     326.675E-03    -163.479E-03     12.2645E-03    -30.5483E+06    -101.286E+06    -176.981E+06    -101.309E+06    -176.958E+06    -30.5483E+06     661.560E+03         45.8356
            1607     6.79689E-03     111.013E-03     10.3252E-03    -18.9982E-03    -26.3048E-03    -4.07887E-03    -10.1803E-03    -20.7187E-03     19.9530E-03     326.463E-03    -162.934E-03    -163.806E-03    -162.902E-03     326.329E-03    -163.705E-03     16.1216E-03    -11.1912E+06    -90.3577E+06    -148.306E+06    -90.3854E+06    -148.278E+06    -11.1912E+06     489.985E+03         45.9125
            1608     7.64527E-03     111.030E-03     5.56584E-03    -16.6572E-03    -22.5604E-03    -3.98299E-03    -10.8240E-03    -18.8449E-03     15.2671E-03     326.205E-03    -162.895E-03    -163.694E-03    -162.689E-03     325.999E-03    -163.694E-03     19.8339E-03     5.79932E+06    -80.0453E+06    -118.142E+06    -80.1636E+06    -118.024E+06     5.79932E+06     435.124E+03         46.2329
            1609     8.49855E-03     111.064E-03     10.1701E-03    -16.3943E-03    -28.2871E-03    -4.60192E-03    -12.5157E-03    -17.3936E-03     431.156E-06     326.917E-03    -163.171E-03    -163.791E-03    -163.179E-03     326.638E-03    -163.504E-03     23.3750E-03     21.2989E+06    -69.9880E+06    -87.3320E+06    -70.3265E+06    -86.9936E+06     21.2989E+06     914.336E+03         47.1204
            1610     9.34404E-03     111.093E-03     9.07570E-03    -16.2413E-03    -28.1864E-03    -4.44390E-03    -14.6668E-03    -16.2413E-03    -12.7115E-03     327.848E-03    -163.509E-03    -163.987E-03    -163.620E-03     327.481E-03    -163.509E-03     26.7341E-03     33.6157E+06    -51.1541E+06    -64.4677E+06    -60.5545E+06    -55.0673E+06     33.6157E+06     1.16497E+06         48.6763
            1611     10.1959E-03     111.131E-03     2.35003E-03    -15.4072E-03    -23.3290E-03    -14.6392E-03    -6.06246E-03    -15.6845E-03    -7.30278E-03     328.332E-03    -163.556E-03    -164.312E-03    -163.755E-03     327.776E-03    -163.556E-03     32.8840E-03     45.5833E+06    -12.6101E+06    -52.6305E+06    -52.0906E+06    -13.1500E+06     45.5833E+06     1.70511E+06         50.8557
            1612     11.0430E-03     111.176E-03     3.11547E-03    -14.8621E-03    -22.6004E-03    -9.46156E-03    -9.43894E-03    -15.4465E-03    -4.34279E-03     328.589E-03    -163.632E-03    -164.519E-03    -163.745E-03     327.814E-03    -163.632E-03     38.9720E-03     62.0188E+06     37.1352E+06    -44.9841E+06    -44.6621E+06     41.5685E+06     57.2634E+06     3.34934E+06         53.6243
            1613     11.8919E-03     111.226E-03     12.4227E-03    -14.0480E-03    -32.8845E-03     11.0335E-03    -31.1883E-03    -14.3551E-03    -1.10265E-03     328.363E-03    -163.639E-03    -164.601E-03    -163.470E-03     327.432E-03    -163.839E-03     42.6951E-03     93.6330E+06     72.0538E+06    -36.2527E+06    -35.6538E+06     93.0341E+06     72.0538E+06     7.95158E+06         56.9555
            1614     12.7423E-03     111.278E-03     20.9820E-03    -12.3940E-03    -45.1178E-03     20.0607E-03    -44.1965E-03    -12.3940E-03     1.27136E-03     328.447E-03    -163.621E-03    -164.957E-03    -163.511E-03     327.201E-03    -163.821E-03     49.0909E-03     121.297E+06     93.0917E+06    -27.7955E+06    -27.2174E+06     120.719E+06     93.0917E+06     8.60541E+06         60.8269
            1615     13.5933E-03     111.350E-03     24.9984E-03    -10.2461E-03    -50.6137E-03     23.8385E-03    -49.4538E-03    -10.2461E-03    -3.78321E-03     328.032E-03    -163.561E-03    -164.772E-03    -162.666E-03     326.233E-03    -163.868E-03     59.1045E-03     136.608E+06     124.149E+06    -19.9392E+06    -19.7583E+06     136.006E+06     124.571E+06     4.81466E+06         64.9901
            1616     14.4430E-03     111.431E-03     29.9545E-03    -8.12508E-03    -57.2644E-03     27.6135E-03    -54.9234E-03    -8.12508E-03     522.743E-06     327.016E-03    -163.112E-03    -164.281E-03    -161.608E-03     325.304E-03    -164.073E-03     57.4650E-03     161.493E+06     153.737E+06    -10.8655E+06    -10.8182E+06     154.345E+06     160.837E+06     2.17719E+06         68.6318
            1617     849.454E-06     112.344E-03     108.194E-03     11.7574E-03    -153.313E-03    -143.978E-03     38.1509E-03     72.4653E-03     58.0991E-03     328.102E-03    -163.391E-03    -164.720E-03    -163.754E-03     328.098E-03    -164.354E-03     2.21232E-03    -148.389E+06    -154.151E+06    -318.074E+06    -152.432E+06    -318.068E+06    -150.115E+06     170.927E+03         45.4179
            1618     1.69783E-03     112.344E-03     22.0324E-03    -22.4289E-03    -39.2266E-03    -21.9018E-03     15.3737E-03    -33.0950E-03    -10.4540E-03     327.356E-03    -163.030E-03    -164.315E-03    -163.374E-03     327.351E-03    -163.966E-03     2.77789E-03    -138.817E+06    -148.611E+06    -302.325E+06    -148.626E+06    -302.310E+06    -138.817E+06     540.808E+03         45.4335
            1619     2.54641E-03     112.344E-03     9.73483E-03    -14.8916E-03    -34.9413E-03    -10.8972E-03    -1.63710E-03    -27.5638E-03    -6.63517E-03     326.293E-03    -162.471E-03    -163.959E-03    -162.688E-03     326.287E-03    -163.736E-03     2.95999E-03    -120.807E+06    -141.954E+06    -282.010E+06    -141.968E+06    -281.997E+06    -120.807E+06     465.993E+03         45.4690
            1620     3.39794E-03     112.352E-03     9.82362E-03    -18.5505E-03    -34.2044E-03    -13.9082E-03    -5.42297E-03    -23.6001E-03    -14.2393E-03     325.245E-03    -162.064E-03    -163.422E-03    -162.058E-03     325.238E-03    -163.422E-03     3.48050E-03    -98.9391E+06    -133.296E+06    -257.529E+06    -133.300E+06    -257.525E+06    -98.9391E+06     138.318E+03         45.5367
            1621     4.24907E-03     112.356E-03     7.19887E-03    -19.7018E-03    -29.5571E-03    -12.5589E-03    -7.98639E-03    -21.5147E-03    -18.8393E-03     325.801E-03    -162.684E-03    -163.451E-03    -162.844E-03     325.786E-03    -163.277E-03     5.20752E-03    -75.1931E+06    -123.326E+06    -231.535E+06    -123.331E+06    -231.530E+06    -75.1931E+06     37.3516E+03         45.6303
            1622     5.09790E-03     112.368E-03     5.55450E-03    -17.2685E-03    -25.4563E-03    -16.5076E-03    -342.174E-06    -20.3204E-03     1.32170E-03     326.771E-03    -163.313E-03    -163.514E-03    -163.465E-03     326.747E-03    -163.337E-03     6.82060E-03    -52.0188E+06    -112.686E+06    -205.071E+06    -112.691E+06    -205.066E+06    -52.0188E+06    -339.066E+03         45.7423
            1623     5.94780E-03     112.378E-03     11.2855E-03    -18.6642E-03    -29.1672E-03    -26.3293E-03     10.2187E-03    -20.4354E-03    -6.14853E-03     326.316E-03    -162.870E-03    -163.387E-03    -162.813E-03     326.257E-03    -163.384E-03     10.0699E-03    -30.8829E+06    -102.174E+06    -177.304E+06    -102.178E+06    -177.300E+06    -30.8829E+06    -422.590E+03         45.8287
            1624     6.79834E-03     112.398E-03     10.8546E-03    -19.1312E-03    -25.8930E-03    -20.4985E-03     7.18062E-03    -20.8517E-03    -10.5349E-03     325.647E-03    -162.417E-03    -163.534E-03    -162.313E-03     325.543E-03    -163.534E-03     14.0053E-03    -11.4157E+06    -91.5536E+06    -148.328E+06    -91.5881E+06    -148.294E+06    -11.4157E+06    -621.353E+03         45.9076
            1625     7.64879E-03     112.420E-03     5.62049E-03    -17.9369E-03    -20.4152E-03    -8.68649E-03    -3.82019E-03    -20.2249E-03    -2.50454E-03     325.866E-03    -162.770E-03    -163.536E-03    -162.600E-03     325.696E-03    -163.536E-03     17.9406E-03     5.96085E+06    -80.8118E+06    -118.204E+06    -80.8674E+06    -118.149E+06     5.96085E+06    -610.603E+03         46.2312
            1626     8.49542E-03     112.447E-03     8.33120E-03    -17.1793E-03    -25.2543E-03    -6.26247E-03    -8.84546E-03    -18.9945E-03    -13.3832E-03     326.132E-03    -162.967E-03    -163.386E-03    -162.714E-03     325.867E-03    -163.374E-03     22.6566E-03     20.8624E+06    -70.5810E+06    -87.8222E+06    -70.8465E+06    -87.5567E+06     20.8624E+06     200.785E+03         47.1261
            1627     9.34906E-03     112.481E-03     8.06744E-03    -17.0975E-03    -26.6239E-03    -4.69702E-03    -13.1440E-03    -17.8130E-03    -25.5546E-03     326.803E-03    -163.051E-03    -163.560E-03    -162.946E-03     326.456E-03    -163.319E-03     26.0110E-03     33.0012E+06    -51.6836E+06    -65.8100E+06    -62.1674E+06    -55.3263E+06     33.0012E+06     574.257E+03         48.6928
            1628     10.1954E-03     112.517E-03     12.4851E-03    -16.5430E-03    -33.3115E-03     526.646E-06    -21.3531E-03    -16.5430E-03    -2.13952E-03     327.374E-03    -163.322E-03    -163.705E-03    -163.172E-03     326.841E-03    -163.322E-03     32.0323E-03     43.7286E+06    -15.9345E+06    -54.5520E+06    -54.2595E+06    -16.2271E+06     43.7286E+06     2.22145E+06         50.8835
            1629     11.0481E-03     112.567E-03     15.3232E-03    -14.7401E-03    -36.0239E-03     4.68048E-03    -25.0741E-03    -15.0472E-03     6.65395E-03     327.368E-03    -163.396E-03    -163.713E-03    -163.024E-03     326.680E-03    -163.396E-03     36.6071E-03     58.4654E+06     33.8771E+06    -48.0126E+06    -47.4456E+06     36.2465E+06     55.5289E+06     5.59348E+06         53.6633
            1630     11.8989E-03     112.611E-03     13.1859E-03    -12.9873E-03    -33.3588E-03     11.8165E-03    -31.6823E-03    -13.2944E-03     6.54869E-03     327.852E-03    -163.547E-03    -164.163E-03    -163.315E-03     327.004E-03    -163.547E-03     40.4545E-03     89.9794E+06     68.9896E+06    -41.6147E+06    -41.0469E+06     89.4116E+06     68.9896E+06     5.59908E+06         57.0048
            1631     12.7461E-03     112.672E-03     21.5523E-03    -11.2360E-03    -44.9751E-03     20.0511E-03    -43.4739E-03    -11.2360E-03     17.7639E-03     328.383E-03    -163.512E-03    -164.693E-03    -163.516E-03     327.205E-03    -163.512E-03     47.9083E-03     122.063E+06     88.9794E+06    -31.0107E+06    -30.6414E+06     121.694E+06     88.9794E+06     5.97107E+06         60.8863
            1632     13.5933E-03     112.734E-03     18.4809E-03    -9.27308E-03    -44.6417E-03     16.9061E-03    -43.0668E-03    -9.27308E-03     12.5010E-03     328.962E-03    -163.687E-03    -165.454E-03    -163.730E-03     327.238E-03    -163.687E-03     57.9394E-03     141.042E+06     123.843E+06    -19.4687E+06    -19.2412E+06     140.814E+06     123.843E+06     5.19773E+06         65.0546
            1633     14.4435E-03     112.821E-03     13.8426E-03    -7.80551E-03    -39.4697E-03     11.9456E-03    -37.5727E-03    -7.80551E-03     7.21847E-03     327.972E-03    -163.387E-03    -165.044E-03    -162.770E-03     326.317E-03    -164.006E-03     56.4905E-03     164.851E+06     156.120E+06    -9.38150E+06    -9.34065E+06     158.248E+06     162.682E+06     1.90758E+06         68.6928
            1634     850.387E-06     113.727E-03     93.1817E-03     23.9822E-03    -142.876E-03    -110.087E-03     63.4358E-03     20.9388E-03     95.0358E-03     325.424E-03    -161.717E-03    -163.695E-03    -162.389E-03     325.422E-03    -163.021E-03     1.65745E-03    -149.867E+06    -156.465E+06    -318.026E+06    -154.742E+06    -318.023E+06    -151.593E+06    -161.044E+03         45.3716
            1635     1.70060E-03     113.729E-03     41.2751E-03    -29.1061E-03    -47.5037E-03    -26.8539E-03     32.6004E-03    -41.0812E-03    -19.4211E-03     327.079E-03    -163.050E-03    -163.983E-03    -163.979E-03     327.075E-03    -163.050E-03     2.47185E-03    -139.374E+06    -150.348E+06    -302.352E+06    -150.351E+06    -302.349E+06    -139.374E+06    -253.949E+03         45.4046
            1636     2.54882E-03     113.733E-03     17.5090E-03    -19.0779E-03    -34.3330E-03    -6.33219E-03     3.48939E-03    -33.0592E-03     14.0991E-03     326.718E-03    -163.041E-03    -163.804E-03    -163.409E-03     326.713E-03    -163.431E-03     2.82602E-03    -121.617E+06    -143.373E+06    -281.484E+06    -143.381E+06    -281.475E+06    -121.617E+06    -818.973E+03         45.4633
            1637     3.39805E-03     113.732E-03     17.9236E-03    -21.5317E-03    -34.2807E-03    -10.4026E-03    -904.939E-06    -26.5813E-03     836.200E-06     326.049E-03    -162.708E-03    -163.582E-03    -162.861E-03     326.041E-03    -163.421E-03     3.70608E-03    -99.7670E+06    -134.509E+06    -257.073E+06    -134.521E+06    -257.062E+06    -99.7670E+06    -950.660E+03         45.5429
            1638     4.24770E-03     113.743E-03     15.1069E-03    -22.3529E-03    -32.2530E-03    -20.1362E-03     4.80294E-03    -24.1658E-03    -14.2191E-03     326.124E-03    -162.860E-03    -163.471E-03    -162.981E-03     326.109E-03    -163.336E-03     5.32426E-03    -76.1308E+06    -124.660E+06    -230.700E+06    -124.676E+06    -230.684E+06    -76.1308E+06    -1.15692E+06         45.6300
            1639     5.09723E-03     113.753E-03     4.59946E-03    -16.2299E-03    -24.8250E-03    -15.6605E-03     2.36839E-03    -23.1633E-03    -2.15014E-03     326.522E-03    -163.190E-03    -163.489E-03    -163.290E-03     326.501E-03    -163.368E-03     6.35340E-03    -53.1214E+06    -114.127E+06    -204.659E+06    -114.150E+06    -204.636E+06    -53.1214E+06    -1.35748E+06         45.7371
            1640     5.94623E-03     113.766E-03     6.88096E-03    -14.5341E-03    -26.8656E-03    -14.2999E-03     1.79568E-03    -22.0145E-03    -1.64585E-03     326.793E-03    -163.267E-03    -163.631E-03    -163.379E-03     326.752E-03    -163.478E-03     8.77610E-03    -31.4376E+06    -102.960E+06    -176.811E+06    -103.012E+06    -176.759E+06    -31.4376E+06    -1.58669E+06         45.8290
            1641     6.79543E-03     113.782E-03     10.8483E-03    -18.8315E-03    -26.6380E-03    -16.8062E-03     3.37640E-03    -21.1914E-03    -8.93179E-03     325.864E-03    -162.407E-03    -163.682E-03    -162.455E-03     325.791E-03    -163.562E-03     11.7946E-03    -11.5243E+06    -92.0288E+06    -147.429E+06    -92.1050E+06    -147.352E+06    -11.5243E+06    -1.75794E+06         45.9134
            1642     7.64650E-03     113.806E-03     6.74508E-03    -20.1096E-03    -23.6960E-03    -8.08440E-03    -8.76614E-03    -20.2099E-03     1.90038E-03     325.206E-03    -162.099E-03    -163.541E-03    -161.961E-03     325.068E-03    -163.541E-03     16.0917E-03     5.59074E+06    -81.5873E+06    -118.892E+06    -81.7285E+06    -118.750E+06     5.59074E+06    -1.54383E+06         46.2400
            1643     8.49921E-03     113.834E-03     8.42063E-03    -17.7643E-03    -28.3180E-03    -657.094E-06    -18.4244E-03    -18.5801E-03     19.3119E-03     325.388E-03    -162.352E-03    -163.454E-03    -162.139E-03     325.174E-03    -163.454E-03     20.1887E-03     20.1241E+06    -71.2793E+06    -89.3685E+06    -71.4192E+06    -89.2286E+06     20.1241E+06    -810.607E+03         47.1399
            1644     9.34687E-03     113.865E-03     6.88347E-03    -16.0756E-03    -26.3451E-03     811.772E-06    -19.5579E-03    -16.7911E-03     9.85287E-03     325.678E-03    -162.399E-03    -163.370E-03    -162.127E-03     325.367E-03    -163.330E-03     24.3341E-03     33.0484E+06    -52.2247E+06    -65.8051E+06    -61.7056E+06    -56.3242E+06     33.0484E+06     542.818E+03         48.7143
            1645     10.1999E-03     113.905E-03     11.9296E-03    -14.8852E-03    -31.0159E-03     8.70813E-03    -27.7945E-03    -14.8852E-03     17.5325E-03     326.578E-03    -162.911E-03    -163.421E-03    -162.613E-03     326.110E-03    -163.251E-03     30.0813E-03     43.7396E+06    -20.2108E+06    -52.7801E+06    -52.6439E+06    -20.3470E+06     43.7396E+06     1.75958E+06         50.9139
            1646     11.0466E-03     113.950E-03     16.2931E-03    -12.8960E-03    -38.4246E-03     10.6452E-03    -32.7767E-03    -12.8960E-03     11.7469E-03     327.501E-03    -163.285E-03    -163.909E-03    -163.219E-03     326.847E-03    -163.321E-03     35.4498E-03     57.6575E+06     28.6492E+06    -42.7072E+06    -42.2576E+06     29.7984E+06     56.0587E+06     4.36171E+06         53.7013
            1647     11.8948E-03     114.003E-03     18.1200E-03    -11.3379E-03    -43.1028E-03     5.59662E-03    -30.5794E-03    -11.3379E-03    -26.5209E-03     327.546E-03    -163.357E-03    -163.925E-03    -163.057E-03     326.777E-03    -163.455E-03     38.6377E-03     94.8192E+06     73.2720E+06    -33.5831E+06    -32.8154E+06     91.8857E+06     75.4379E+06     6.58688E+06         57.0495
            1648     12.7479E-03     114.056E-03     20.7702E-03    -10.1327E-03    -44.7889E-03     7.89113E-03    -31.9098E-03    -10.1327E-03    -22.6616E-03     327.653E-03    -163.340E-03    -164.059E-03    -162.855E-03     326.546E-03    -163.437E-03     46.0862E-03     126.513E+06     93.7314E+06    -27.6436E+06    -27.1909E+06     126.061E+06     93.7314E+06     5.33182E+06         60.9387
            1649     13.5992E-03     114.129E-03     14.2543E-03    -8.99294E-03    -40.3786E-03     9.77214E-03    -35.8964E-03    -8.99294E-03    -11.1551E-03     328.617E-03    -163.594E-03    -165.298E-03    -163.614E-03     326.933E-03    -163.594E-03     57.3568E-03     139.781E+06     120.988E+06    -20.2873E+06    -20.1563E+06     139.650E+06     120.988E+06     3.65957E+06         65.1134
            1650     14.4457E-03     114.208E-03     18.1094E-03    -7.75334E-03    -46.4626E-03     16.3060E-03    -44.6593E-03    -7.75334E-03    -18.2113E-03     328.369E-03    -163.594E-03    -165.176E-03    -163.308E-03     326.784E-03    -163.877E-03     55.4099E-03     165.419E+06     156.283E+06    -10.7318E+06    -10.6689E+06     160.013E+06     161.625E+06     2.48729E+06         68.7534
            1651     852.056E-06     115.112E-03     88.3031E-03    -606.335E-06    -119.715E-03    -35.2497E-03     3.83823E-03    -606.335E-06     89.4766E-03     324.843E-03    -161.517E-03    -163.321E-03    -162.457E-03     324.838E-03    -162.376E-03     2.75504E-03    -150.899E+06    -157.437E+06    -316.529E+06    -155.783E+06    -316.518E+06    -152.564E+06    -435.686E+03         45.3456
            1652     1.69901E-03     115.115E-03     34.5280E-03    -16.0025E-03    -48.7975E-03    -14.5096E-03     1.45636E-03    -17.2187E-03    -35.4181E-03     326.033E-03    -162.576E-03    -163.337E-03    -163.252E-03     326.032E-03    -162.659E-03     1.69888E-03    -140.234E+06    -150.962E+06    -301.208E+06    -150.975E+06    -301.195E+06    -140.234E+06    -1.20980E+06         45.3935
            1653     2.54983E-03     115.116E-03     22.5662E-03    -16.2414E-03    -39.7568E-03    -23.3388E-03     7.36439E-03    -17.4577E-03     45.5993E-03     326.602E-03    -163.103E-03    -163.541E-03    -163.537E-03     326.598E-03    -163.103E-03     2.48600E-03    -121.859E+06    -143.907E+06    -280.494E+06    -143.924E+06    -280.477E+06    -121.859E+06    -1.42634E+06         45.4791
            1654     3.39831E-03     115.121E-03     26.4931E-03    -19.5849E-03    -40.5024E-03    -29.2339E-03     15.2246E-03    -19.5849E-03     42.6290E-03     327.203E-03    -163.382E-03    -163.993E-03    -163.984E-03     327.194E-03    -163.382E-03     4.02440E-03    -100.075E+06    -135.579E+06    -256.236E+06    -135.606E+06    -256.209E+06    -100.075E+06    -1.76109E+06         45.5717
            1655     4.24684E-03     115.128E-03     19.6091E-03    -21.4641E-03    -31.0317E-03    -28.7069E-03     17.2843E-03    -21.4641E-03     19.8885E-03     326.631E-03    -162.988E-03    -163.708E-03    -163.276E-03     326.616E-03    -163.405E-03     5.38877E-03    -77.0290E+06    -126.034E+06    -229.482E+06    -126.073E+06    -229.443E+06    -77.0290E+06    -1.94044E+06         45.6513
            1656     5.09688E-03     115.139E-03     11.6783E-03    -18.1091E-03    -26.4389E-03    -20.2483E-03     9.36919E-03    -21.9905E-03     15.9037E-03     326.241E-03    -162.999E-03    -163.456E-03    -163.006E-03     326.209E-03    -163.417E-03     7.69686E-03    -53.7461E+06    -115.299E+06    -203.168E+06    -115.399E+06    -203.068E+06    -53.7461E+06    -2.65866E+06         45.7511
            1657     5.94611E-03     115.152E-03     7.56218E-03    -14.4132E-03    -26.2961E-03    -4.80485E-03    -7.68768E-03    -20.6546E-03     20.6155E-03     327.148E-03    -163.531E-03    -163.738E-03    -163.683E-03     327.093E-03    -163.531E-03     10.3042E-03    -32.0077E+06    -103.958E+06    -176.024E+06    -104.119E+06    -175.863E+06    -32.0077E+06    -3.23103E+06         45.8408
            1658     6.79456E-03     115.170E-03     6.21633E-03    -16.0450E-03    -26.4844E-03    -1.45915E-03    -16.4490E-03    -18.4049E-03     5.99696E-03     326.973E-03    -163.170E-03    -163.908E-03    -163.376E-03     326.893E-03    -163.623E-03     12.4307E-03    -12.1223E+06    -92.7285E+06    -147.320E+06    -92.9238E+06    -147.125E+06    -12.1223E+06    -2.98469E+06         45.9216
            1659     7.64447E-03     115.187E-03     2.13247E-03    -16.9193E-03    -24.9401E-03    -10.4142E-03    -12.3934E-03    -16.9193E-03    -1.70304E-03     326.130E-03    -162.702E-03    -163.821E-03    -162.682E-03     325.991E-03    -163.703E-03     16.2466E-03     5.43909E+06    -81.9367E+06    -118.979E+06    -82.1756E+06    -118.740E+06     5.43909E+06    -2.63550E+06         46.2496
            1660     8.49313E-03     115.220E-03     13.1723E-03    -15.9691E-03    -35.9981E-03    -5.38841E-03    -17.4374E-03    -15.9691E-03     301.363E-06     325.471E-03    -162.230E-03    -163.718E-03    -162.060E-03     325.301E-03    -163.718E-03     18.1592E-03     19.6987E+06    -71.3700E+06    -91.1734E+06    -71.9548E+06    -90.5886E+06     19.6987E+06    -2.31279E+06         47.1563
            1661     9.34681E-03     115.248E-03     21.1440E-03    -14.3898E-03    -41.7446E-03     8.01672E-03    -28.6173E-03    -14.3898E-03    -22.0917E-03     325.003E-03    -161.842E-03    -163.572E-03    -161.581E-03     324.742E-03    -163.572E-03     22.0994E-03     31.8796E+06    -54.0945E+06    -66.8388E+06    -61.7801E+06    -59.1532E+06     31.8796E+06    -1.07667E+06         48.7379
            1662     10.1956E-03     115.291E-03     12.3670E-03    -12.5755E-03    -30.0848E-03     6.15468E-03    -23.8725E-03    -12.5755E-03    -9.59794E-03     325.617E-03    -162.282E-03    -163.412E-03    -161.871E-03     325.206E-03    -163.412E-03     28.2552E-03     43.4059E+06    -21.5673E+06    -52.1464E+06    -52.0936E+06    -21.6201E+06     43.4059E+06    -21.7388E+03         50.9454
            1663     11.0488E-03     115.335E-03     2.19290E-03    -12.6590E-03    -26.0465E-03    -6.49591E-03    -18.4278E-03    -11.5889E-03    -4.98404E-03     326.313E-03    -162.407E-03    -163.751E-03    -162.157E-03     325.692E-03    -163.381E-03     34.3919E-03     54.0058E+06     23.7069E+06    -44.3732E+06    -44.1982E+06     23.5319E+06     54.0058E+06     1.68158E+06         53.7416
            1664     11.8992E-03     115.392E-03     18.3900E-03    -11.9882E-03    -36.9640E-03     2.14074E-03    -21.7849E-03    -10.9181E-03    -32.1549E-03     326.866E-03    -162.696E-03    -163.883E-03    -162.359E-03     326.073E-03    -163.427E-03     39.2262E-03     91.2587E+06     64.3709E+06    -37.1860E+06    -36.6785E+06     85.4527E+06     69.6694E+06     6.22852E+06         57.0979
            1665     12.7466E-03     115.439E-03     19.0105E-03    -14.2373E-03    -42.1401E-03    -1.08649E-03    -26.1459E-03    -10.1345E-03    -22.3698E-03     327.482E-03    -163.315E-03    -163.905E-03    -162.649E-03     326.323E-03    -163.413E-03     47.0486E-03     128.805E+06     91.0725E+06    -28.7272E+06    -28.2085E+06     128.286E+06     91.0725E+06     7.14968E+06         60.9906
            1666     13.5956E-03     115.518E-03     29.8618E-03    -13.0338E-03    -46.7190E-03     18.3803E-03    -39.3404E-03    -8.93099E-03    -6.56238E-03     327.310E-03    -163.358E-03    -164.171E-03    -162.274E-03     325.554E-03    -163.499E-03     58.3718E-03     143.972E+06     121.963E+06    -20.4553E+06    -20.2667E+06     143.783E+06     121.963E+06     4.47505E+06         65.1699
            1667     14.4489E-03     115.594E-03     37.5205E-03    -16.3169E-03    -63.9310E-03     18.3370E-03    -53.8301E-03    -7.23427E-03    -9.85345E-03     328.503E-03    -163.566E-03    -165.280E-03    -163.437E-03     326.800E-03    -163.707E-03     57.5136E-03     168.580E+06     158.297E+06    -10.7681E+06    -10.7124E+06     164.107E+06     162.714E+06     2.29844E+06         68.8185
            1668     847.663E-06     116.494E-03     83.8219E-03    -4.82840E-03    -117.743E-03     10.6896E-03    -44.6103E-03    -4.82840E-03     92.4141E-03     324.822E-03    -161.864E-03    -162.994E-03    -162.761E-03     324.813E-03    -162.089E-03     3.83534E-03    -152.155E+06    -157.780E+06    -313.879E+06    -156.140E+06    -313.854E+06    -153.820E+06    -1.23621E+06         45.3372
            1669     1.70120E-03     116.498E-03     20.2179E-03     685.936E-06    -49.7211E-03    -7.84455E-03    -21.7514E-03     778.751E-06    -43.8771E-03     325.384E-03    -162.297E-03    -163.021E-03    -162.792E-03     325.380E-03    -162.522E-03     2.79215E-03    -140.989E+06    -151.652E+06    -298.935E+06    -151.678E+06    -298.909E+06    -140.989E+06    -1.76458E+06         45.3980
            1670     2.54994E-03     116.502E-03     15.6785E-03    -5.66323E-03    -39.1500E-03    -30.6332E-03     7.06894E-03    -5.57042E-03     27.3106E-03     326.772E-03    -162.989E-03    -163.853E-03    -163.847E-03     326.766E-03    -162.989E-03     3.27118E-03    -122.487E+06    -145.017E+06    -279.478E+06    -145.050E+06    -279.444E+06    -122.487E+06    -2.05206E+06         45.4966
            1671     3.39875E-03     116.509E-03     26.4692E-03    -12.2882E-03    -42.0574E-03    -32.6117E-03     17.0235E-03    -12.2882E-03     14.2464E-03     327.081E-03    -163.180E-03    -164.017E-03    -163.790E-03     327.071E-03    -163.396E-03     4.40475E-03    -100.345E+06    -136.482E+06    -255.105E+06    -136.520E+06    -255.068E+06    -100.345E+06    -2.08421E+06         45.5889
            1672     4.24678E-03     116.516E-03     15.7909E-03    -15.1072E-03    -28.0901E-03    -20.4987E-03     8.41773E-03    -15.3255E-03     102.898E-06     327.013E-03    -162.955E-03    -164.068E-03    -163.570E-03     326.995E-03    -163.436E-03     5.82109E-03    -76.7838E+06    -126.656E+06    -227.620E+06    -126.734E+06    -227.543E+06    -76.7838E+06    -2.63335E+06         45.6684
            1673     5.09688E-03     116.520E-03     8.72266E-03    -15.6781E-03    -24.7337E-03    -17.0316E-03     1.23885E-03    -15.8964E-03     1.27595E-03     326.733E-03    -163.126E-03    -163.899E-03    -163.475E-03     326.699E-03    -163.515E-03     8.01881E-03    -53.4203E+06    -115.952E+06    -200.240E+06    -116.118E+06    -200.075E+06    -53.4203E+06    -3.59149E+06         45.7699
            1674     5.94637E-03     116.541E-03     14.0650E-03    -15.8249E-03    -31.9204E-03    -14.2278E-03    -3.62755E-03    -15.8249E-03    -4.61940E-03     326.578E-03    -163.119E-03    -163.625E-03    -163.118E-03     326.523E-03    -163.571E-03     10.2821E-03    -32.4468E+06    -105.225E+06    -174.873E+06    -105.520E+06    -174.578E+06    -32.4468E+06    -4.35797E+06         45.8527
            1675     6.79587E-03     116.553E-03     13.6753E-03    -15.1695E-03    -33.7660E-03    -7.04787E-03    -13.0428E-03    -15.1695E-03    -15.6836E-03     327.062E-03    -163.275E-03    -163.904E-03    -163.472E-03     326.957E-03    -163.602E-03     13.9617E-03    -13.2366E+06    -94.1926E+06    -147.584E+06    -94.5998E+06    -147.177E+06    -13.2366E+06    -4.51914E+06         45.9269
            1676     7.64286E-03     116.579E-03     10.0992E-03    -14.2229E-03    -33.0809E-03    -6.70024E-03    -16.2815E-03    -14.2229E-03    -5.94731E-03     327.045E-03    -163.432E-03    -164.019E-03    -163.506E-03     326.864E-03    -163.764E-03     18.6830E-03     4.32794E+06    -82.8827E+06    -119.178E+06    -83.5104E+06    -118.550E+06     4.32794E+06    -4.25522E+06         46.2606
            1677     8.49293E-03     116.602E-03     11.4163E-03    -13.6475E-03    -33.5306E-03    -11.3015E-03    -10.8128E-03    -13.6475E-03    -5.98967E-03     326.466E-03    -162.950E-03    -163.946E-03    -162.783E-03     326.216E-03    -163.862E-03     21.7879E-03     18.7571E+06    -71.7698E+06    -91.8677E+06    -72.8700E+06    -90.7675E+06     18.7571E+06    -3.93217E+06         47.1784
            1678     9.34144E-03     116.635E-03     15.6736E-03    -13.3197E-03    -38.1997E-03    -9.72081E-03    -12.8053E-03    -13.3197E-03    -29.4182E-03     326.457E-03    -162.703E-03    -164.174E-03    -162.790E-03     326.139E-03    -163.769E-03     24.6266E-03     29.8721E+06    -56.2605E+06    -68.6272E+06    -63.0934E+06    -61.7943E+06     29.8721E+06    -3.11788E+06         48.7677
            1679     10.1948E-03     116.673E-03     19.4603E-03    -12.3488E-03    -38.5177E-03     6.56998E-03    -25.6274E-03    -12.3488E-03    -12.2174E-03     326.291E-03    -162.697E-03    -163.971E-03    -162.613E-03     325.886E-03    -163.650E-03     28.0464E-03     40.8628E+06    -23.8288E+06    -55.1016E+06    -54.5666E+06    -24.3639E+06     40.8628E+06    -716.736E+03         50.9807
            1680     11.0435E-03     116.723E-03     17.2144E-03    -11.7340E-03    -35.6640E-03     11.8386E-03    -31.3584E-03    -10.6639E-03     6.20973E-03     325.600E-03    -162.092E-03    -163.606E-03    -161.608E-03     325.116E-03    -163.606E-03     30.6466E-03     51.0997E+06     18.2185E+06    -47.6426E+06    -47.3911E+06     17.9670E+06     51.0997E+06     2.68142E+06         53.7830
            1681     11.8975E-03     116.770E-03     19.7620E-03    -10.2518E-03    -47.8114E-03     5.45306E-03    -34.5726E-03    -9.18163E-03    -14.9046E-03     325.272E-03    -161.398E-03    -163.648E-03    -160.847E-03     324.634E-03    -163.562E-03     34.9358E-03     88.8232E+06     56.5606E+06    -39.8396E+06    -39.6074E+06     79.9786E+06     65.1730E+06     4.73707E+06         57.1480
            1682     12.7497E-03     116.836E-03     44.6443E-03    -11.5423E-03    -59.1651E-03     23.6635E-03    -42.2871E-03    -7.43948E-03     11.5196E-03     325.597E-03    -161.708E-03    -163.682E-03    -160.940E-03     324.573E-03    -163.426E-03     44.0462E-03     129.826E+06     86.8770E+06    -31.0287E+06    -30.7945E+06     129.592E+06     86.8770E+06     5.35838E+06         61.0528
            1683     13.6019E-03     116.896E-03     55.5792E-03    -11.1753E-03    -93.7085E-03    -1.62863E-03    -41.6506E-03    -6.02531E-03     13.1518E-03     326.654E-03    -162.663E-03    -164.185E-03    -161.806E-03     325.017E-03    -163.406E-03     55.8981E-03     147.603E+06     119.854E+06    -20.9637E+06    -20.8134E+06     147.453E+06     119.854E+06     3.77256E+06         65.2424
            1684     14.4528E-03     116.986E-03     91.8366E-03    -14.8134E-03    -105.996E-03     28.8784E-03    -53.1673E-03    -4.68352E-03    -24.0917E-03     328.287E-03    -163.375E-03    -165.337E-03    -163.431E-03     326.631E-03    -163.625E-03     56.5936E-03     171.128E+06     158.997E+06    -10.1714E+06    -10.1570E+06     167.432E+06     162.678E+06     1.48909E+06         68.8962
            1685     852.294E-06     117.876E-03     117.095E-03    -28.7741E-03    -120.225E-03    -1.70834E-03    -1.42143E-03    -28.7741E-03     87.3313E-03     324.731E-03    -161.982E-03    -162.765E-03    -162.602E-03     324.725E-03    -162.140E-03     2.40900E-03    -152.716E+06    -157.704E+06    -311.105E+06    -156.935E+06    -311.073E+06    -153.517E+06    -774.867E+03         45.3342
            1686     1.70026E-03     117.879E-03     36.6988E-03    -8.98917E-03    -55.7424E-03    -20.0830E-03     8.38675E-03    -16.3365E-03    -70.3896E-03     325.295E-03    -162.345E-03    -163.031E-03    -162.881E-03     325.287E-03    -162.486E-03     3.32099E-03    -141.453E+06    -153.004E+06    -296.509E+06    -153.025E+06    -296.489E+06    -141.453E+06    -1.44971E+06         45.4030
            1687     2.54936E-03     117.889E-03     10.6987E-03    -9.76659E-03    -30.0928E-03    -15.4433E-03     3.39659E-03    -17.1140E-03     11.0387E-03     326.115E-03    -162.812E-03    -163.476E-03    -163.399E-03     326.102E-03    -162.877E-03     4.72191E-03    -122.510E+06    -146.447E+06    -277.469E+06    -146.490E+06    -277.426E+06    -122.510E+06    -2.15515E+06         45.5013
            1688     3.39812E-03     117.893E-03     21.1040E-03    -16.0169E-03    -34.0950E-03    -8.95751E-03    -4.03344E-03    -16.0169E-03    -17.7145E-03     326.644E-03    -162.960E-03    -163.736E-03    -163.439E-03     326.628E-03    -163.241E-03     5.32778E-03    -100.079E+06    -137.469E+06    -253.624E+06    -137.548E+06    -253.545E+06    -100.079E+06    -2.89850E+06         45.5857
            1689     4.24991E-03     117.899E-03     13.8870E-03    -13.9500E-03    -30.5316E-03    -4.23793E-03    -12.1884E-03    -14.1683E-03    -36.6650E-03     327.423E-03    -163.174E-03    -164.275E-03    -164.035E-03     327.399E-03    -163.390E-03     6.72098E-03    -76.6856E+06    -127.178E+06    -225.593E+06    -127.291E+06    -225.480E+06    -76.6856E+06    -3.22392E+06         45.6665
            1690     5.09538E-03     117.913E-03     3.94941E-03    -12.4856E-03    -27.2032E-03    -6.93235E-03    -16.1032E-03    -12.7039E-03    -20.4918E-03     327.106E-03    -163.398E-03    -164.166E-03    -163.927E-03     327.076E-03    -163.606E-03     7.73789E-03    -53.8738E+06    -116.758E+06    -197.948E+06    -116.944E+06    -197.762E+06    -53.8738E+06    -3.75766E+06         45.7749
            1691     5.94513E-03     117.922E-03     12.8938E-03    -11.9640E-03    -36.2925E-03    -8.63318E-03    -14.7655E-03    -11.9640E-03    -12.0512E-03     326.312E-03    -163.025E-03    -163.665E-03    -162.967E-03     326.254E-03    -163.665E-03     10.3615E-03    -32.2847E+06    -105.896E+06    -172.116E+06    -106.254E+06    -171.759E+06    -32.2847E+06    -4.71290E+06         45.8569
            1692     6.79621E-03     117.942E-03     12.2205E-03    -11.3633E-03    -34.9970E-03    -6.64875E-03    -16.1278E-03    -11.3633E-03    -10.0475E-03     326.405E-03    -162.837E-03    -163.701E-03    -162.863E-03     326.295E-03    -163.565E-03     14.4224E-03    -13.5034E+06    -94.8008E+06    -146.871E+06    -95.4946E+06    -146.178E+06    -13.5034E+06    -5.70970E+06         45.9312
            1693     7.64651E-03     117.966E-03     12.2646E-03    -10.5745E-03    -38.3724E-03    -3.38730E-03    -22.7205E-03    -10.5745E-03     15.9534E-03     326.310E-03    -162.829E-03    -163.793E-03    -162.807E-03     326.151E-03    -163.656E-03     17.3581E-03     3.01692E+06    -83.6660E+06    -119.063E+06    -84.8222E+06    -117.907E+06     3.01692E+06    -6.01828E+06         46.2763
            1694     8.49634E-03     117.989E-03     12.4273E-03    -9.71457E-03    -37.3790E-03    -2.63471E-03    -22.3169E-03    -9.71457E-03     24.0801E-03     327.003E-03    -163.237E-03    -164.214E-03    -163.420E-03     326.740E-03    -163.768E-03     22.2815E-03     17.2262E+06    -72.3686E+06    -92.7105E+06    -74.4372E+06    -90.6420E+06     17.2262E+06    -5.69542E+06         47.2089
            1695     9.34609E-03     118.024E-03     4.79378E-03    -9.23656E-03    -29.2644E-03    -9.67530E-03    -14.7953E-03    -9.23656E-03     2.85503E-03     328.420E-03    -163.764E-03    -165.014E-03    -164.663E-03     328.070E-03    -163.764E-03     26.2226E-03     28.4774E+06    -57.2327E+06    -71.2046E+06    -64.7554E+06    -63.6820E+06     28.4774E+06    -4.56615E+06         48.8084
            1696     10.1895E-03     118.061E-03     8.21278E-03    -9.27676E-03    -41.6214E-03    -13.9077E-03    -19.5009E-03    -9.27676E-03     5.16973E-03     327.997E-03    -163.590E-03    -164.642E-03    -164.032E-03     327.549E-03    -163.753E-03     29.4598E-03     38.3679E+06    -29.0492E+06    -55.9972E+06    -55.1814E+06    -29.8650E+06     38.3679E+06    -1.91856E+06         51.0280
            1697     11.0411E-03     118.107E-03     53.9316E-03    -7.49405E-03    -52.3888E-03     39.4029E-03    -37.8601E-03    -7.49405E-03     18.2475E-03     327.165E-03    -163.197E-03    -163.869E-03    -162.714E-03     326.596E-03    -163.782E-03     33.1717E-03     49.4702E+06     10.7599E+06    -44.8729E+06    -44.5501E+06     10.4371E+06     49.4702E+06     1.33857E+06         53.8352
            1698     11.8890E-03     118.157E-03     49.3664E-03    -12.3639E-03    -119.518E-03    -27.9355E-03    -48.2404E-03    -6.33987E-03    -30.7151E-03     325.756E-03    -161.724E-03    -163.788E-03    -161.061E-03     325.093E-03    -163.788E-03     35.7019E-03     91.7709E+06     54.9886E+06    -36.4405E+06    -36.2860E+06     79.6663E+06     66.9387E+06     3.80069E+06         57.2055
            1699     12.7440E-03     118.211E-03     165.934E-03    -10.0281E-03    -122.298E-03     86.4868E-03    -48.8752E-03    -4.00411E-03    -20.7540E-03     325.236E-03    -161.400E-03    -163.746E-03    -160.563E-03     324.296E-03    -163.643E-03     42.3884E-03     132.248E+06     88.1566E+06    -29.0960E+06    -28.9629E+06     132.115E+06     88.1566E+06     4.07655E+06         61.1182
            1700     13.5966E-03     118.284E-03     161.825E-03    -21.1992E-03    -246.162E-03    -54.4447E-03    -48.6023E-03    -2.48887E-03     1.41444E-03     327.319E-03    -162.982E-03    -164.572E-03    -162.531E-03     325.880E-03    -163.584E-03     52.7394E-03     147.957E+06     117.320E+06    -20.1473E+06    -20.0926E+06     147.903E+06     117.320E+06     2.55623E+06         65.3156
            1701     14.4435E-03     118.372E-03     281.393E-03    -20.5984E-03    -245.826E-03     67.7912E-03    -50.9349E-03    -1.88800E-03    -64.4332E-03     326.102E-03    -161.907E-03    -164.647E-03    -161.335E-03     324.646E-03    -163.762E-03     53.0576E-03     172.283E+06     157.905E+06    -10.7948E+06    -10.7859E+06     169.274E+06     160.905E+06     1.06014E+06         68.9779
            1702     848.309E-06     119.260E-03     130.022E-03    -35.3348E-03    -120.684E-03    -17.3589E-03     26.6970E-03    -35.3348E-03     151.039E-03     324.878E-03    -162.213E-03    -162.673E-03    -162.325E-03     324.873E-03    -162.557E-03     1.76306E-03    -154.671E+06    -159.631E+06    -309.900E+06    -158.851E+06    -309.879E+06    -155.472E+06     196.987E+03         45.3342
            1703     1.69954E-03     119.265E-03     40.2089E-03    -15.9643E-03    -54.0963E-03    -11.4609E-03     4.92090E-03    -23.3117E-03    -13.3306E-03     324.490E-03    -162.056E-03    -162.566E-03    -162.180E-03     324.475E-03    -162.427E-03     4.65280E-03    -141.795E+06    -154.049E+06    -294.003E+06    -154.079E+06    -293.972E+06    -141.795E+06    -1.13602E+06         45.4007
            1704     2.55068E-03     119.272E-03     28.9413E-03    -9.97133E-03    -49.7280E-03     137.895E-06    -13.5773E-03    -17.3187E-03     66.5076E-03     325.175E-03    -162.334E-03    -162.919E-03    -162.701E-03     325.154E-03    -162.532E-03     6.35396E-03    -122.713E+06    -147.020E+06    -275.208E+06    -147.060E+06    -275.168E+06    -122.713E+06    -1.87536E+06         45.4937
            1705     3.40190E-03     119.277E-03     25.1231E-03    -12.4506E-03    -44.1934E-03     2.32162E-03    -21.3919E-03    -12.4506E-03     30.2238E-03     326.969E-03    -162.893E-03    -164.042E-03    -163.956E-03     326.948E-03    -162.958E-03     6.42318E-03    -100.336E+06    -138.795E+06    -251.104E+06    -138.872E+06    -251.026E+06    -100.336E+06    -2.62491E+06         45.5742
            1706     4.24656E-03     119.289E-03     14.0061E-03    -9.86881E-03    -37.2498E-03    -3.35855E-03    -19.8851E-03    -9.86881E-03    -1.78118E-03     327.076E-03    -162.976E-03    -164.163E-03    -163.852E-03     327.049E-03    -163.259E-03     7.29930E-03    -77.2676E+06    -128.984E+06    -223.608E+06    -129.144E+06    -223.449E+06    -77.2676E+06    -3.70531E+06         45.6512
            1707     5.09795E-03     119.300E-03     10.4868E-03    -8.54274E-03    -37.9040E-03    -1.14051E-03    -26.2767E-03    -8.54274E-03    -6.71621E-03     326.438E-03    -163.095E-03    -163.902E-03    -163.495E-03     326.398E-03    -163.461E-03     8.80353E-03    -54.1133E+06    -117.832E+06    -195.635E+06    -118.075E+06    -195.392E+06    -54.1133E+06    -4.21094E+06         45.7599
            1708     5.94681E-03     119.308E-03     11.7243E-03    -6.95087E-03    -41.3282E-03     5.78453E-03    -35.3884E-03    -6.95087E-03     2.74937E-03     327.151E-03    -163.435E-03    -164.260E-03    -164.001E-03     327.080E-03    -163.623E-03     11.5652E-03    -32.3267E+06    -106.408E+06    -169.177E+06    -106.906E+06    -168.679E+06    -32.3267E+06    -5.27185E+06         45.8511
            1709     6.79473E-03     119.327E-03     11.3934E-03    -5.58227E-03    -37.8520E-03     411.162E-06    -26.8698E-03    -5.58227E-03     1.94320E-03     326.782E-03    -162.933E-03    -163.944E-03    -163.210E-03     326.680E-03    -163.564E-03     14.1279E-03    -13.1036E+06    -94.8143E+06    -144.049E+06    -95.8247E+06    -143.039E+06    -13.1036E+06       -6.71E+06         45.9392
            1710     7.64468E-03     119.350E-03     8.25493E-03    -8.40794E-03    -33.3431E-03    -10.2176E-03    -17.8860E-03    -5.39247E-03     1.04801E-03     326.357E-03    -162.851E-03    -163.747E-03    -162.783E-03     326.227E-03    -163.685E-03     15.8747E-03     2.67116E+06    -83.6901E+06    -118.853E+06    -85.2251E+06    -117.318E+06     2.67116E+06    -7.06146E+06         46.2984
            1711     8.49515E-03     119.374E-03     11.7014E-03    -8.40964E-03    -38.4628E-03    -1.51231E-03    -28.2646E-03    -5.39417E-03     1.64867E-03     327.013E-03    -163.275E-03    -164.238E-03    -163.467E-03     326.781E-03    -163.814E-03     20.9561E-03     16.6654E+06    -71.9976E+06    -93.4413E+06    -75.2923E+06    -90.1465E+06     16.6654E+06    -6.71629E+06         47.2447
            1712     9.34170E-03     119.416E-03     25.3358E-03    -3.90523E-03    -41.8147E-03     22.6034E-03    -39.0823E-03    -3.90523E-03    -9.29364E-03     327.389E-03    -163.237E-03    -164.602E-03    -163.721E-03     327.028E-03    -163.757E-03     26.4971E-03     27.7937E+06    -57.0930E+06    -72.7170E+06    -65.5829E+06    -64.2271E+06     27.7937E+06    -6.54329E+06         48.8589
            1713     10.1942E-03     119.449E-03     15.2026E-03    -13.7767E-03    -70.0242E-03    -31.8428E-03    -33.0132E-03    -3.74232E-03    -2.97507E-03     327.663E-03    -163.398E-03    -164.470E-03    -163.674E-03     327.156E-03    -163.687E-03     31.3666E-03     36.8987E+06    -30.8382E+06    -58.1285E+06    -55.4882E+06    -33.4785E+06     36.8987E+06    -5.87475E+06         51.0932
            1714     11.0415E-03     119.492E-03     105.231E-03    -12.4763E-03    -72.0548E-03     57.4010E-03    -34.2588E-03    -2.44199E-03    -8.27482E-03     327.664E-03    -163.521E-03    -163.971E-03    -163.134E-03     326.975E-03    -163.670E-03     36.7004E-03     46.8097E+06     4.41725E+06    -46.8110E+06    -46.3274E+06     3.93364E+06     46.8097E+06    -2.58450E+06         53.9124
            1715     11.8938E-03     119.543E-03     106.258E-03    -7.62445E-03    -186.572E-03    -49.0676E-03    -37.2706E-03    -1.60046E-03     18.2549E-03     327.520E-03    -163.091E-03    -164.241E-03    -162.767E-03     326.719E-03    -163.764E-03     39.6289E-03     88.2770E+06     48.4223E+06    -37.0194E+06    -36.8526E+06     73.2501E+06     63.2824E+06     1.96696E+06         57.2897
            1716     12.7418E-03     119.593E-03     199.477E-03    -7.98855E-03    -204.967E-03     32.9374E-03    -44.4512E-03    -1.96457E-03    -43.5133E-03     328.169E-03    -163.259E-03    -164.889E-03    -163.181E-03     326.986E-03    -163.783E-03     47.6454E-03     132.491E+06     86.4636E+06    -28.0282E+06    -27.9305E+06     132.393E+06     86.4636E+06     3.21916E+06         61.2022
            1717     13.5901E-03     119.674E-03     251.734E-03    -16.6528E-03    -249.817E-03     53.1046E-03    -68.8511E-03     1.01036E-03     7.89839E-03     327.366E-03    -162.909E-03    -164.688E-03    -162.031E-03     325.583E-03    -163.783E-03     58.8086E-03     151.511E+06     117.083E+06    -19.3303E+06    -19.2737E+06     151.454E+06     117.083E+06     2.37544E+06         65.4019
            1718     14.4431E-03     119.758E-03     294.847E-03    -15.6786E-03    -324.336E-03    -32.2564E-03    -14.8956E-03     1.98454E-03     65.1708E-03     323.909E-03    -160.160E-03    -164.137E-03    -158.808E-03     322.281E-03    -163.861E-03     55.5865E-03     174.268E+06     158.456E+06    -9.82493E+06    -9.80819E+06     171.835E+06     160.873E+06     1.42292E+06         69.0764
            1719     851.146E-06     120.641E-03     82.5642E-03     6.56699E-03    -112.418E-03     9.68979E-03    -45.2074E-03     12.2310E-03     134.327E-03     323.758E-03    -161.011E-03    -162.772E-03    -161.324E-03     323.751E-03    -162.452E-03     2.62125E-03    -157.385E+06    -160.530E+06    -308.629E+06    -160.549E+06    -308.610E+06    -157.385E+06    -506.315E+03         45.3336
            1720     1.70170E-03     120.646E-03     25.8477E-03     1.95289E-03    -55.5897E-03    -6.31855E-03    -29.0874E-03     7.61687E-03     439.337E-06     324.306E-03    -161.648E-03    -162.782E-03    -162.397E-03     324.292E-03    -162.020E-03     4.87843E-03    -144.139E+06    -155.415E+06    -292.320E+06    -155.453E+06    -292.282E+06    -144.139E+06    -1.05854E+06         45.3907
            1721     2.55235E-03     120.653E-03     30.1040E-03     713.590E-06    -63.2325E-03    -6.59495E-03    -28.5259E-03     2.70591E-03     32.1496E-03     325.571E-03    -162.234E-03    -163.278E-03    -163.127E-03     325.553E-03    -162.366E-03     5.70606E-03    -124.005E+06    -148.424E+06    -272.876E+06    -148.477E+06    -272.822E+06    -124.005E+06    -1.79104E+06         45.4722
            1722     3.39882E-03     120.667E-03     19.6780E-03    -672.411E-06    -54.4981E-03     1.89626E-03    -38.7087E-03     1.31991E-03     22.3205E-03     326.236E-03    -162.437E-03    -163.722E-03    -163.277E-03     326.211E-03    -162.856E-03     7.01675E-03    -100.500E+06    -139.195E+06    -248.971E+06    -139.253E+06    -248.912E+06    -100.500E+06    -2.23695E+06         45.5463
            1723     4.25023E-03     120.675E-03     10.8884E-03     768.127E-06    -45.8167E-03    -1.26091E-03    -34.1231E-03     1.22395E-03     11.3820E-03     325.940E-03    -162.371E-03    -163.709E-03    -162.978E-03     325.910E-03    -163.073E-03     7.53912E-03    -76.0878E+06    -129.216E+06    -220.271E+06    -129.359E+06    -220.128E+06    -76.0878E+06    -3.25992E+06         45.6216
            1724     5.09953E-03     120.681E-03     11.8405E-03     164.617E-06    -44.2605E-03    -4.62106E-03    -28.2547E-03     620.435E-06    -7.87635E-03     326.403E-03    -162.919E-03    -163.993E-03    -163.662E-03     326.355E-03    -163.201E-03     9.54289E-03    -53.3030E+06    -118.344E+06    -192.769E+06    -118.754E+06    -192.359E+06    -53.3030E+06    -5.14275E+06         45.7318
            1725     5.94797E-03     120.700E-03     13.5457E-03    -111.242E-06    -45.5245E-03    -5.35379E-03    -26.6250E-03    -111.242E-06     335.635E-06     327.367E-03    -163.457E-03    -164.500E-03    -164.426E-03     327.292E-03    -163.457E-03     12.0520E-03    -32.0907E+06    -106.454E+06    -166.320E+06    -107.148E+06    -165.626E+06    -32.0907E+06    -6.19249E+06         45.8350
            1726     6.79564E-03     120.713E-03     15.9404E-03    -500.473E-06    -44.9112E-03    -1.77176E-03    -27.1990E-03    -500.473E-06     8.75854E-03     327.542E-03    -163.277E-03    -164.368E-03    -164.030E-03     327.435E-03    -163.507E-03     14.4662E-03    -12.7277E+06    -95.2052E+06    -140.466E+06    -96.4143E+06    -139.257E+06    -12.7277E+06    -7.00933E+06         45.9445
            1727     7.64543E-03     120.736E-03     14.1152E-03    -3.50621E-03    -43.0623E-03    -326.953E-06    -31.6356E-03    -490.728E-06    -59.7741E-06     327.443E-03    -163.452E-03    -164.169E-03    -163.713E-03     327.273E-03    -163.738E-03     18.1330E-03     3.39413E+06    -83.4815E+06    -117.612E+06    -85.9665E+06    -115.127E+06     3.39413E+06    -8.42096E+06         46.3226
            1728     8.49209E-03     120.766E-03     11.1363E-03    -8.80157E-03    -44.6504E-03    -3.30425E-03    -38.5133E-03    -498.191E-06     1.34086E-03     326.880E-03    -163.436E-03    -163.977E-03    -163.239E-03     326.622E-03    -163.915E-03     22.3542E-03     16.2529E+06    -70.7588E+06    -94.6052E+06    -74.9501E+06    -90.4138E+06     16.2529E+06    -8.35103E+06         47.2854
            1729     9.34573E-03     120.796E-03     57.8260E-03    -3.57669E-03    -51.5412E-03     49.6580E-03    -48.6612E-03     1.71121E-03    -1.39752E-03     326.036E-03    -162.753E-03    -163.780E-03    -162.396E-03     325.679E-03    -163.780E-03     26.2887E-03     27.6715E+06    -54.0679E+06    -73.8740E+06    -64.9967E+06    -62.9452E+06     27.6715E+06    -8.10385E+06         48.9178
            1730     10.1949E-03     120.839E-03     52.9482E-03    -19.4271E-03    -121.228E-03    -37.2051E-03    -52.9444E-03     2.44308E-03     31.0633E-03     325.904E-03    -162.446E-03    -163.794E-03    -162.189E-03     325.433E-03    -163.579E-03     30.2106E-03     36.8294E+06    -29.3059E+06    -60.4387E+06    -56.6480E+06    -33.0965E+06     36.8294E+06    -8.56628E+06         51.1716
            1731     11.0458E-03     120.880E-03     132.884E-03    -19.4720E-03    -117.683E-03     39.6557E-03    -46.3251E-03     2.39810E-03    -23.1116E-03     326.316E-03    -162.680E-03    -163.670E-03    -162.239E-03     325.661E-03    -163.456E-03     35.6236E-03     45.0183E+06     49.7405E+03    -49.1100E+06    -47.8819E+06    -1.17841E+06     45.0183E+06    -6.30727E+06         54.0096
            1732     11.8946E-03     120.928E-03     180.796E-03     6.88115E-03    -146.424E-03     84.1146E-03    -49.7428E-03     6.88115E-03     42.1487E-03     328.222E-03    -163.330E-03    -164.863E-03    -163.693E-03     327.300E-03    -163.577E-03     42.3774E-03     82.2303E+06     42.4748E+06    -38.1731E+06    -37.9211E+06     64.5556E+06     59.8976E+06    -2.11756E+06         57.4011
            1733     12.7434E-03     120.989E-03     119.984E-03     3.23916E-03    -364.641E-03    -199.725E-03    -44.9323E-03     3.23916E-03     10.7781E-03     328.877E-03    -163.376E-03    -165.476E-03    -163.900E-03     327.590E-03    -163.664E-03     50.0223E-03     129.986E+06     83.6109E+06    -28.1158E+06    -27.9674E+06     129.838E+06     83.6109E+06     1.50849E+06         61.3238
            1734     13.5937E-03     121.056E-03     537.424E-03     5.73107E-03    -286.976E-03     291.341E-03    -40.8926E-03     5.73107E-03    -22.6501E-03     325.967E-03    -161.932E-03    -164.133E-03    -160.531E-03     324.040E-03    -163.607E-03     60.7614E-03     154.198E+06     114.430E+06    -20.6110E+06    -20.5442E+06     154.131E+06     114.430E+06     2.21478E+06         65.5322
            1735     14.4492E-03     121.137E-03     497.775E-03    -63.4743E-03    -685.977E-03    -188.742E-03    -72.2329E-03     9.29900E-03     177.229E-03     324.537E-03    -161.214E-03    -163.681E-03    -159.434E-03     322.758E-03    -163.681E-03     57.8934E-03     175.932E+06     157.399E+06    -11.4330E+06    -11.4176E+06     173.109E+06     160.207E+06     1.24322E+06         69.2097
            1736     852.010E-06     122.024E-03     49.1058E-03     11.2409E-03    -87.9909E-03    -62.7871E-06    -44.4863E-03     16.9049E-03     22.2235E-03     323.812E-03    -160.782E-03    -163.055E-03    -161.936E-03     323.807E-03    -161.896E-03     2.43382E-03    -158.338E+06    -161.719E+06    -307.199E+06    -161.555E+06    -307.174E+06    -158.527E+06    -653.142E+03         45.3340
            1737     1.70138E-03     122.029E-03     27.6070E-03     2.59339E-03    -62.2083E-03     8.26509E-03    -48.5303E-03     8.25738E-03    -42.7469E-03     325.454E-03    -162.192E-03    -163.363E-03    -163.332E-03     325.447E-03    -162.216E-03     3.41502E-03    -145.789E+06    -157.841E+06    -291.161E+06    -157.870E+06    -291.132E+06    -145.789E+06    -723.224E+03         45.3738
            1738     2.54831E-03     122.039E-03     15.8669E-03     1.59541E-03    -50.3301E-03    -1.38148E-03    -38.2784E-03     6.79201E-03    -31.0095E-03     325.340E-03    -162.108E-03    -163.141E-03    -162.639E-03     325.324E-03    -162.595E-03     5.29828E-03    -124.938E+06    -150.427E+06    -270.032E+06    -150.483E+06    -269.976E+06    -124.938E+06    -1.97954E+06         45.4331
            1739     3.40096E-03     122.049E-03     13.0787E-03    -224.114E-06    -49.9040E-03     1.71416E-03    -43.7361E-03     4.97249E-03    -32.6339E-03     324.703E-03    -161.701E-03    -162.877E-03    -161.779E-03     324.676E-03    -162.772E-03     7.27924E-03    -100.780E+06    -140.461E+06    -246.494E+06    -140.594E+06    -246.361E+06    -100.780E+06    -3.39152E+06         45.4982
            1740     4.25148E-03     122.058E-03     18.6218E-03     4.78010E-03    -57.5332E-03     12.2627E-03    -51.6300E-03     5.23591E-03    -26.0220E-03     325.484E-03    -162.268E-03    -163.437E-03    -162.796E-03     325.451E-03    -162.877E-03     7.89793E-03    -75.7166E+06    -128.728E+06    -217.332E+06    -128.940E+06    -217.120E+06    -75.7166E+06    -3.96360E+06         45.5810
            1741     5.09955E-03     122.072E-03     16.8814E-03     5.50647E-03    -51.5675E-03     6.35932E-03    -41.5012E-03     5.96229E-03    -25.6048E-03     326.570E-03    -163.074E-03    -164.063E-03    -164.016E-03     326.522E-03    -163.074E-03     9.56081E-03    -51.8839E+06    -116.987E+06    -189.423E+06    -117.462E+06    -188.948E+06    -51.8839E+06    -5.52491E+06         45.6975
            1742     5.94822E-03     122.085E-03     16.9610E-03     5.45861E-03    -51.6183E-03    -2.49550E-03    -32.1618E-03     5.45861E-03    -9.16120E-03     326.646E-03    -163.313E-03    -163.971E-03    -163.898E-03     326.573E-03    -163.313E-03     11.9424E-03    -31.0516E+06    -106.106E+06    -163.447E+06    -106.926E+06    -162.627E+06    -31.0516E+06    -6.60645E+06         45.8078
            1743     6.79857E-03     122.103E-03     18.9578E-03     5.14156E-03    -51.0288E-03     7.92638E-03    -39.9974E-03     5.14156E-03     9.25335E-03     327.359E-03    -163.356E-03    -164.204E-03    -164.088E-03     327.243E-03    -163.356E-03     14.9579E-03    -11.5996E+06    -94.4062E+06    -137.047E+06    -95.8465E+06    -135.606E+06    -11.5996E+06    -7.39529E+06         45.9372
            1744     7.64451E-03     122.125E-03     21.6913E-03     6.04788E-03    -55.9541E-03     17.0594E-03    -51.3222E-03     6.04788E-03     1.19088E-03     327.642E-03    -163.524E-03    -164.240E-03    -163.996E-03     327.454E-03    -163.580E-03     19.0757E-03     4.91400E+06    -82.2210E+06    -113.917E+06    -85.3131E+06    -110.825E+06     4.91400E+06    -8.94298E+06         46.3425
            1745     8.49589E-03     122.152E-03     13.7742E-03    -8.37704E-03    -63.1088E-03    -8.23422E-03    -55.5616E-03     6.08415E-03    -4.08435E-03     326.943E-03    -163.539E-03    -163.895E-03    -163.371E-03     326.667E-03    -163.787E-03     23.1443E-03     16.7331E+06    -68.8727E+06    -94.8769E+06    -75.4956E+06    -88.2539E+06     16.7331E+06    -10.7240E+06         47.3310
            1746     9.34210E-03     122.184E-03     95.0960E-03    -5.90500E-03    -62.9710E-03     75.1751E-03    -57.5113E-03     8.55618E-03    -18.9833E-03     326.422E-03    -163.025E-03    -163.789E-03    -162.726E-03     326.054E-03    -163.721E-03     26.6854E-03     26.6922E+06    -52.5975E+06    -76.2761E+06    -65.2503E+06    -63.6233E+06     26.6922E+06    -10.0237E+06         48.9863
            1747     10.1939E-03     122.223E-03     97.4221E-03    -17.7341E-03    -142.206E-03    -11.4878E-03    -61.9124E-03     10.8823E-03     47.5872E-03     325.718E-03    -162.364E-03    -163.509E-03    -161.894E-03     325.248E-03    -163.509E-03     30.1665E-03     37.2816E+06    -27.3090E+06    -59.7622E+06    -56.1352E+06    -30.9361E+06     37.2816E+06    -8.80736E+06         51.2608
            1748     11.0463E-03     122.265E-03     67.3568E-03    -28.5745E-03    -182.742E-03    -90.8329E-03    -59.5185E-03     6.39121E-03    -15.7622E-03     326.336E-03    -162.655E-03    -163.666E-03    -162.327E-03     325.747E-03    -163.404E-03     33.8014E-03     44.1291E+06    -2.76768E+06    -50.1811E+06    -48.0659E+06    -4.88287E+06     44.1291E+06    -8.90725E+06         54.1173
            1749     11.8990E-03     122.315E-03     366.285E-03     7.08174E-03    -111.028E-03     310.446E-03    -61.5386E-03     13.4311E-03    -37.5241E-03     327.047E-03    -162.532E-03    -164.587E-03    -162.743E-03     326.187E-03    -163.516E-03     40.5611E-03     75.3228E+06     35.6684E+06    -41.0807E+06    -40.1084E+06     54.1985E+06     55.8205E+06    -5.65984E+06         57.5274
            1750     12.7467E-03     122.382E-03     305.601E-03    -9.28998E-03    -686.618E-03    -346.845E-03    -55.8711E-03     12.4089E-03     72.6434E-03     326.235E-03    -162.008E-03    -164.294E-03    -161.686E-03     325.104E-03    -163.485E-03     46.8491E-03     125.199E+06     78.8728E+06    -31.7001E+06    -31.5477E+06     125.047E+06     78.8728E+06    -1.48362E+06         61.4724
            1751     13.6002E-03     122.434E-03     937.851E-03    -12.2840E-03    -662.696E-03     288.322E-03    -34.8659E-03     9.41489E-03    -51.9763E-03     325.719E-03    -162.231E-03    -163.530E-03    -160.743E-03     324.044E-03    -163.343E-03     56.3930E-03     156.171E+06     110.944E+06    -21.4825E+06    -21.3517E+06     156.040E+06     110.944E+06     1.03153E+06         65.6969
            1752     14.4513E-03     122.525E-03     942.120E-03    -86.4891E-03        -1.05449    -96.5367E-03    -117.307E-03     14.9876E-03    -72.5523E-03     326.291E-03    -162.890E-03    -163.711E-03    -161.376E-03     324.590E-03    -163.524E-03     56.9834E-03     179.358E+06     157.168E+06    -10.0311E+06    -9.99972E+06     175.539E+06     160.956E+06     842.172E+03         69.3717
            1753     849.463E-06     123.405E-03     33.2076E-03    -3.63075E-03    -58.5700E-03    -23.4590E-03    -11.4934E-03     5.95932E-03    -9.85352E-03     326.327E-03    -162.238E-03    -164.115E-03    -163.656E-03     326.323E-03    -162.693E-03     2.71605E-03    -159.807E+06    -163.817E+06    -307.234E+06    -163.683E+06    -307.178E+06    -159.996E+06     685.891E+03         45.3234
            1754     1.69771E-03     123.416E-03     21.1648E-03    -3.18641E-03    -51.7104E-03     18.6720E-03    -49.2176E-03    -3.18641E-03    -2.10019E-03     325.350E-03    -161.972E-03    -163.422E-03    -162.348E-03     325.342E-03    -163.038E-03     3.75828E-03    -145.250E+06    -158.465E+06    -288.590E+06    -158.490E+06    -288.565E+06    -145.250E+06    -984.787E+03         45.3442
            1755     2.55024E-03     123.421E-03     22.6440E-03     1.07418E-03    -58.3992E-03     16.0975E-03    -55.0570E-03     4.27847E-03     12.0521E-03     324.275E-03    -161.521E-03    -162.747E-03    -161.507E-03     324.261E-03    -162.747E-03     5.19645E-03    -124.667E+06    -150.498E+06    -266.308E+06    -150.553E+06    -266.253E+06    -124.667E+06    -2.37134E+06         45.3866
            1756     3.40080E-03     123.429E-03     20.4964E-03     2.88617E-03    -54.8456E-03     8.36586E-03    -46.3591E-03     6.53021E-03    -7.62805E-03     324.302E-03    -161.618E-03    -162.653E-03    -161.589E-03     324.273E-03    -162.653E-03     7.23384E-03    -100.549E+06    -140.662E+06    -241.983E+06    -140.886E+06    -241.759E+06    -100.549E+06    -4.41108E+06         45.4473
            1757     4.25114E-03     123.444E-03     23.8207E-03     6.96750E-03    -59.9098E-03     13.1212E-03    -49.6501E-03     7.40726E-03    -3.63141E-03     325.014E-03    -162.143E-03    -163.073E-03    -162.413E-03     324.963E-03    -162.753E-03     9.79168E-03    -76.2664E+06    -129.452E+06    -215.307E+06    -129.904E+06    -214.855E+06    -76.2664E+06    -6.07373E+06         45.5294
            1758     5.10012E-03     123.457E-03     30.7208E-03     9.15046E-03    -66.3310E-03     22.3518E-03    -57.9619E-03     9.15046E-03     8.33575E-03     325.773E-03    -162.735E-03    -163.624E-03    -163.369E-03     325.708E-03    -162.924E-03     11.1856E-03    -51.9060E+06    -117.576E+06    -185.756E+06    -118.166E+06    -185.165E+06    -51.9060E+06    -6.18211E+06         45.6430
            1759     5.94975E-03     123.469E-03     29.9740E-03     11.2701E-03    -66.9624E-03     24.4555E-03    -61.4439E-03     11.2701E-03     1.81827E-03     326.376E-03    -163.103E-03    -163.937E-03    -163.848E-03     326.287E-03    -163.103E-03     13.0686E-03    -29.6207E+06    -104.994E+06    -160.315E+06    -106.116E+06    -159.194E+06    -29.6207E+06    -7.45836E+06         45.7605
            1760     6.79772E-03     123.490E-03     31.2405E-03     13.2141E-03    -65.2326E-03     27.4250E-03    -61.4170E-03     13.2141E-03     10.4205E-03     326.825E-03    -163.159E-03    -163.902E-03    -163.767E-03     326.690E-03    -163.159E-03     16.1656E-03    -10.7403E+06    -92.6520E+06    -134.788E+06    -94.5645E+06    -132.875E+06    -10.7403E+06    -8.57771E+06         45.9151
            1761     7.64890E-03     123.512E-03     28.3470E-03     14.6717E-03    -63.5216E-03     22.1783E-03    -57.3528E-03     14.6717E-03     8.51302E-03     327.126E-03    -163.321E-03    -163.879E-03    -163.689E-03     326.937E-03    -163.321E-03     19.2234E-03     6.19303E+06    -80.6774E+06    -110.553E+06    -83.7736E+06    -107.457E+06     6.19303E+06    -8.82151E+06         46.3567
            1762     8.49549E-03     123.536E-03     16.1639E-03    -10.4121E-03    -84.6181E-03    -36.7306E-03    -54.9006E-03     12.7650E-03    -4.41801E-03     326.858E-03    -163.402E-03    -163.852E-03    -163.463E-03     326.581E-03    -163.515E-03     23.1241E-03     19.0779E+06    -66.3014E+06    -90.9248E+06    -74.5306E+06    -82.6957E+06     19.0779E+06    -10.4136E+06         47.3815
            1763     9.34799E-03     123.573E-03     128.862E-03    -9.83511E-03    -86.7950E-03     78.1627E-03    -59.2732E-03     13.3420E-03    -53.0224E-03     326.348E-03    -163.069E-03    -163.588E-03    -162.761E-03     325.972E-03    -163.520E-03     27.0350E-03     27.0066E+06    -52.1501E+06    -76.6540E+06    -65.7387E+06    -63.0654E+06     27.0066E+06    -12.0768E+06         49.0685
            1764     10.1968E-03     123.605E-03     147.772E-03     2.44813E-03    -110.340E-03     86.0073E-03    -65.3561E-03     19.2287E-03     24.5312E-03     326.636E-03    -162.932E-03    -163.725E-03    -162.757E-03     326.120E-03    -163.383E-03     31.5994E-03     35.7972E+06    -26.6963E+06    -62.2880E+06    -56.0647E+06    -32.9196E+06     35.7972E+06    -10.4016E+06         51.3694
            1765     11.0455E-03     123.652E-03     24.2273E-03    -23.8081E-03    -324.810E-03    -275.494E-03    -60.1000E-03     11.2036E-03     24.6597E-03     327.935E-03    -163.301E-03    -164.430E-03    -163.613E-03     327.231E-03    -163.414E-03     36.8498E-03     44.5079E+06    -1.18851E+06    -50.1794E+06    -48.2954E+06    -3.07252E+06     44.5079E+06    -9.12429E+06         54.2454
            1766     11.8906E-03     123.703E-03     678.617E-03    -2.75970E-03    -270.736E-03     438.269E-03    -48.6187E-03     15.4714E-03    -64.7895E-03     326.575E-03    -162.301E-03    -164.212E-03    -162.160E-03     325.760E-03    -163.537E-03     39.6242E-03     69.9886E+06     33.0423E+06    -42.1308E+06    -40.7739E+06     47.5849E+06     54.0891E+06    -7.93077E+06         57.6709
            1767     12.7495E-03     123.756E-03     681.587E-03    -54.0035E-03        -1.05450    -348.817E-03    -96.5381E-03     18.4410E-03    -64.8042E-03     325.000E-03    -161.740E-03    -163.428E-03    -160.713E-03     323.974E-03    -163.428E-03     44.4323E-03     119.324E+06      74.681E+06    -31.6895E+06    -31.3991E+06     119.033E+06      74.681E+06    -4.30531E+06         61.6324
            1768     13.5992E-03     123.827E-03         1.31179    -58.0733E-03        -1.09017     270.246E-03    -121.075E-03     14.3712E-03     67.8557E-03     326.279E-03    -162.899E-03    -163.546E-03    -161.606E-03     324.799E-03    -163.359E-03     53.4740E-03     156.798E+06     109.942E+06    -22.1277E+06    -21.9522E+06     156.623E+06     109.942E+06    -2.53435E+06         65.8699
            1769     14.4495E-03     123.904E-03         1.43565    -11.8239E-03        -1.53379    -174.762E-03     47.9109E-03     16.8795E-03    -16.8216E-03     326.776E-03    -163.242E-03    -163.783E-03    -161.802E-03     325.150E-03    -163.597E-03     56.2309E-03     179.879E+06     156.750E+06    -10.9677E+06    -10.8367E+06     174.732E+06     161.766E+06    -1.28468E+06         69.5554
            1770     846.735E-06     124.794E-03     59.2741E-03     19.7131E-03    -103.987E-03     22.1144E-03    -89.7549E-03     42.6411E-03     19.7981E-03     326.548E-03    -162.476E-03    -164.100E-03    -163.048E-03     326.536E-03    -163.517E-03     4.16128E-03    -158.842E+06    -162.296E+06    -305.871E+06    -161.918E+06    -305.819E+06    -159.271E+06     208.168E+03         45.2636
            1771     1.69921E-03     124.797E-03     33.5415E-03     6.89553E-03    -66.7696E-03     8.41173E-03    -62.5579E-03     27.8135E-03     25.4106E-03     325.101E-03    -161.930E-03    -163.211E-03    -162.070E-03     325.086E-03    -163.055E-03     4.92473E-03    -145.197E+06    -157.019E+06    -285.159E+06    -157.060E+06    -285.118E+06    -145.197E+06    -1.88406E+06         45.2881
            1772     2.54983E-03     124.802E-03     35.2916E-03     14.5624E-03    -79.7651E-03     16.2545E-03    -68.3082E-03     22.1425E-03     51.0843E-03     324.673E-03    -161.804E-03    -162.925E-03    -161.951E-03     324.664E-03    -162.770E-03     3.95862E-03    -124.040E+06    -148.952E+06    -262.098E+06    -149.059E+06    -261.991E+06    -124.040E+06    -3.23449E+06         45.3359
            1773     3.40065E-03     124.811E-03     31.8186E-03     16.1053E-03    -79.9051E-03     14.2734E-03    -66.7718E-03     20.5173E-03     37.9731E-03     324.022E-03    -161.362E-03    -162.675E-03    -161.338E-03     323.998E-03    -162.675E-03     6.33360E-03    -99.3152E+06    -139.087E+06    -238.072E+06    -139.348E+06    -237.811E+06    -99.3152E+06    -4.88467E+06         45.3961
            1774     4.25150E-03     124.825E-03     24.6540E-03     14.7428E-03    -67.2782E-03     13.5395E-03    -60.7380E-03     19.3172E-03     10.9887E-03     323.272E-03    -160.837E-03    -162.622E-03    -160.772E-03     323.207E-03    -162.622E-03     10.9009E-03    -74.2622E+06    -128.557E+06    -211.283E+06    -129.050E+06    -210.789E+06    -74.2622E+06    -6.25337E+06         45.4635
            1775     5.10314E-03     124.841E-03     30.9166E-03     19.2553E-03    -75.8023E-03     25.5569E-03    -70.6049E-03     19.4177E-03     21.0269E-03     324.105E-03    -161.734E-03    -162.834E-03    -161.879E-03     324.001E-03    -162.585E-03     14.1085E-03    -50.7324E+06    -116.764E+06    -181.980E+06    -117.744E+06    -181.000E+06    -50.7324E+06    -7.58781E+06         45.5646
            1776     5.95151E-03     124.858E-03     33.6919E-03     20.8005E-03    -80.1624E-03     30.8645E-03    -77.3350E-03     20.8005E-03     20.0732E-03     325.784E-03    -162.647E-03    -163.651E-03    -163.511E-03     325.644E-03    -162.647E-03     16.4083E-03    -28.7239E+06    -104.127E+06    -156.770E+06    -105.772E+06    -155.125E+06    -28.7239E+06    -8.97241E+06         45.6902
            1777     6.80129E-03     124.875E-03     36.2586E-03     22.2615E-03    -76.4598E-03     31.9619E-03    -72.1631E-03     22.2615E-03     16.7538E-03     326.803E-03    -162.779E-03    -164.208E-03    -164.019E-03     326.615E-03    -162.779E-03     19.0599E-03    -9.96017E+06    -91.7913E+06    -132.690E+06    -94.3153E+06    -130.166E+06    -9.96017E+06    -9.59902E+06         45.8766
            1778     7.64899E-03     124.899E-03     32.1256E-03     22.2747E-03    -69.9716E-03     25.3782E-03    -64.0736E-03     23.1241E-03     9.29799E-03     327.545E-03    -162.979E-03    -164.498E-03    -164.265E-03     327.312E-03    -162.979E-03     21.2994E-03     6.61317E+06    -78.4444E+06    -109.001E+06    -83.0564E+06    -104.389E+06     6.61317E+06    -10.3773E+06         46.3649
            1779     8.49951E-03     124.927E-03     21.1179E-03    -14.2093E-03    -104.628E-03    -60.6053E-03    -56.4981E-03     19.3842E-03    -695.050E-06     327.314E-03    -163.109E-03    -164.385E-03    -164.022E-03     327.063E-03    -163.222E-03     22.1201E-03     20.3606E+06    -64.0777E+06    -88.1177E+06    -71.9793E+06    -80.2161E+06     20.3606E+06    -10.4723E+06         47.4376
            1780     9.34699E-03     124.954E-03     125.992E-03    -15.9116E-03    -103.913E-03     46.0613E-03    -56.7263E-03     16.8325E-03    -59.1191E-03     326.080E-03    -162.689E-03    -163.633E-03    -162.696E-03     325.770E-03    -163.316E-03     24.4516E-03     30.0152E+06    -47.9261E+06    -73.3559E+06    -63.0933E+06    -58.1886E+06     30.0152E+06    -11.3212E+06         49.1677
            1781     10.1986E-03     124.993E-03     235.291E-03     26.5781E-03    -82.0294E-03     224.067E-03    -70.8061E-03     26.5781E-03     6.72174E-03     325.936E-03    -162.573E-03    -163.555E-03    -162.375E-03     325.395E-03    -163.214E-03     32.0748E-03     36.0003E+06    -27.3210E+06    -62.6495E+06    -55.4304E+06    -34.5401E+06     36.0003E+06    -12.5962E+06         51.5065
            1782     11.0480E-03     125.039E-03     119.867E-03    -16.8619E-03    -525.497E-03    -365.827E-03    -76.9778E-03     20.3139E-03     96.5191E-03     327.074E-03    -163.103E-03    -164.052E-03    -163.110E-03     326.258E-03    -163.229E-03     39.8479E-03     44.4077E+06    -1.12149E+06    -50.1966E+06    -47.0260E+06    -4.29209E+06     44.4077E+06    -9.92407E+06         54.4142
            1783     11.9012E-03     125.093E-03     889.747E-03    -17.3785E-03    -498.979E-03     411.886E-03    -58.2947E-03     19.7972E-03     22.3488E-03     327.782E-03    -163.015E-03    -164.795E-03    -163.561E-03     326.907E-03    -163.374E-03     41.3932E-03     72.7046E+06     39.2395E+06    -40.1944E+06    -39.2148E+06     52.8833E+06     58.0811E+06    -9.34881E+06         57.8582
            1784     12.7450E-03     125.137E-03     874.321E-03    -47.2135E-03        -1.82611    -856.458E-03    -146.915E-03     4.37148E-03    -619.735E-03     327.498E-03    -162.900E-03    -164.773E-03    -163.191E-03     326.417E-03    -163.401E-03     45.7317E-03     116.415E+06     75.1317E+06    -31.2165E+06    -30.4540E+06     115.652E+06     75.1317E+06    -8.88252E+06         61.8147
            1785     13.5982E-03     125.216E-03         4.05676    -7.97301E-03        -1.87474         2.18064    -50.2031E-03     43.6119E-03     893.659E-03     326.798E-03    -163.010E-03    -163.931E-03    -161.943E-03     325.299E-03    -163.499E-03     54.0543E-03     151.520E+06     111.418E+06    -20.2688E+06    -19.8516E+06     151.103E+06     111.418E+06    -3.85213E+06         66.0523
            1786     14.4491E-03     125.289E-03         4.63070     34.4684E-03        -6.63441        -2.63768     633.970E-03     34.4684E-03         1.24489     326.008E-03    -162.530E-03    -163.705E-03    -160.890E-03     324.368E-03    -163.705E-03     56.4800E-03     176.028E+06     156.723E+06    -10.9431E+06    -10.7142E+06     169.936E+06     162.586E+06    -2.22676E+06         69.7723
            1787     852.736E-06     126.173E-03     90.0869E-03     22.6212E-03    -131.928E-03     73.2306E-03    -128.410E-03     35.9591E-03     35.5127E-03     323.579E-03    -161.402E-03    -162.229E-03    -161.585E-03     323.562E-03    -162.029E-03     3.58488E-03    -157.540E+06    -160.620E+06    -302.775E+06    -160.237E+06    -302.729E+06    -157.969E+06    -2.23693E+06         45.1239
            1788     1.70061E-03     126.184E-03     57.0548E-03     26.2187E-03    -105.291E-03     28.2383E-03    -99.5523E-03     49.2965E-03    -8.04019E-03     324.164E-03    -161.800E-03    -162.409E-03    -162.290E-03     324.129E-03    -161.884E-03     7.52370E-03    -144.832E+06    -155.107E+06    -280.562E+06    -155.179E+06    -280.490E+06    -144.832E+06    -2.65755E+06         45.1766
            1789     2.54824E-03     126.187E-03     42.4094E-03     19.5160E-03    -87.2828E-03     10.8417E-03    -75.4763E-03     39.2774E-03     12.1920E-03     324.615E-03    -161.903E-03    -162.783E-03    -162.511E-03     324.569E-03    -162.129E-03     8.06853E-03    -123.979E+06    -148.504E+06    -258.425E+06    -148.644E+06    -258.285E+06    -123.979E+06    -3.87109E+06         45.2504
            1790     3.39876E-03     126.194E-03     41.0112E-03     18.0527E-03    -87.1522E-03     11.8969E-03    -72.0314E-03     32.0463E-03     123.783E-06     323.845E-03    -161.266E-03    -162.605E-03    -161.545E-03     323.795E-03    -162.276E-03     9.04807E-03    -98.7808E+06    -139.265E+06    -233.515E+06    -139.550E+06    -233.229E+06    -98.7808E+06    -5.02390E+06         45.3273
            1791     4.25256E-03     126.203E-03     36.8230E-03     25.0639E-03    -90.6764E-03     25.4973E-03    -83.4853E-03     29.1985E-03    -37.3959E-03     322.515E-03    -160.433E-03    -162.306E-03    -160.359E-03     322.441E-03    -162.306E-03     11.6287E-03    -73.0970E+06    -127.256E+06    -207.366E+06    -128.029E+06    -206.593E+06    -73.0970E+06    -7.27572E+06         45.3945
            1792     5.10550E-03     126.223E-03     30.9481E-03     27.0931E-03    -85.9571E-03     27.0093E-03    -83.6590E-03     28.7338E-03    -21.3615E-03     322.427E-03    -160.671E-03    -162.204E-03    -160.564E-03     322.315E-03    -162.200E-03     14.6267E-03    -49.0610E+06    -114.288E+06    -178.929E+06    -115.616E+06    -177.601E+06    -49.0610E+06    -8.87244E+06         45.4827
            1793     5.95786E-03     126.242E-03     28.5758E-03     23.0987E-03    -78.3308E-03     21.2226E-03    -76.0198E-03     28.1409E-03    -10.2980E-03     323.998E-03    -161.670E-03    -162.760E-03    -162.170E-03     323.847E-03    -162.109E-03     17.0348E-03    -26.6394E+06    -102.391E+06    -152.119E+06    -104.275E+06    -150.234E+06    -26.6394E+06    -9.32759E+06         45.6037
            1794     6.80625E-03     126.263E-03     31.4777E-03     23.9693E-03    -76.6804E-03     25.2322E-03    -73.9988E-03     27.5331E-03    -13.8536E-03     326.171E-03    -162.232E-03    -164.123E-03    -163.913E-03     325.961E-03    -162.232E-03     20.2071E-03    -7.57248E+06    -89.0710E+06    -129.016E+06    -92.8836E+06    -125.203E+06    -7.57248E+06    -11.1544E+06         45.8165
            1795     7.65472E-03     126.287E-03     38.9193E-03     27.0107E-03    -80.8976E-03     35.7758E-03    -78.6036E-03     27.8602E-03    -18.8065E-03     327.358E-03    -162.441E-03    -164.814E-03    -164.515E-03     327.059E-03    -162.441E-03     24.0726E-03     8.03843E+06    -74.9562E+06    -107.499E+06    -81.2229E+06    -101.232E+06     8.03843E+06    -12.4568E+06         46.3651
            1796     8.49953E-03     126.316E-03     32.5500E-03    -16.8264E-03    -108.756E-03    -33.7079E-03    -84.7478E-03     25.4232E-03    -2.05001E-03     327.136E-03    -162.741E-03    -164.447E-03    -164.086E-03     326.776E-03    -162.741E-03     26.1812E-03     20.9341E+06    -60.9323E+06    -88.5328E+06    -70.6872E+06    -78.7780E+06     20.9341E+06    -12.5239E+06         47.5067
            1797     9.34882E-03     126.341E-03     83.3554E-03    -19.0708E-03    -106.381E-03     16.1754E-03    -80.6014E-03     22.3293E-03    -32.5894E-03     326.817E-03    -162.606E-03    -164.352E-03    -163.536E-03     326.366E-03    -162.970E-03     29.1039E-03     31.3063E+06    -45.2489E+06    -71.3353E+06    -60.6287E+06    -55.9555E+06     31.3063E+06    -11.6899E+06         49.2966
            1798     10.1995E-03     126.374E-03     302.950E-03     33.3271E-03    -81.0713E-03     299.850E-03    -77.9717E-03     33.3271E-03    -29.3208E-03     326.548E-03    -162.463E-03    -164.210E-03    -163.080E-03     325.908E-03    -162.953E-03     35.1294E-03     39.9561E+06    -22.7339E+06    -58.4052E+06    -51.7149E+06    -29.4242E+06     39.9561E+06    -12.6839E+06         51.6867
            1799     11.0520E-03     126.426E-03     240.067E-03    -17.6523E-03    -587.595E-03    -312.351E-03    -84.2990E-03     31.4699E-03     83.7804E-03     326.168E-03    -162.809E-03    -163.544E-03    -162.632E-03     325.382E-03    -162.935E-03     39.1798E-03     45.1947E+06    -1.97591E+06    -49.3317E+06    -42.6731E+06    -8.63448E+06     45.1947E+06    -13.8353E+06         54.6391
            1800     11.8999E-03     126.475E-03     826.297E-03    -21.9078E-03    -607.293E-03     272.346E-03    -102.464E-03     27.2144E-03     15.1446E-03     327.360E-03    -163.112E-03    -164.484E-03    -163.536E-03     326.412E-03    -163.112E-03     42.9318E-03     81.5965E+06     39.7945E+06    -36.4993E+06    -32.4384E+06     56.4722E+06     60.8579E+06    -12.5218E+06         58.1187
            1801     12.7503E-03     126.535E-03     982.757E-03    -19.8651E-03        -2.59713        -1.65841     43.1985E-03    -19.0258E-03    -401.337E-03     328.840E-03    -163.241E-03    -165.797E-03    -164.577E-03     327.620E-03    -163.241E-03     48.8182E-03     115.547E+06     79.4503E+06    -27.9574E+06    -26.9760E+06     114.566E+06     79.4503E+06    -11.8181E+06         62.0893
            1802     13.5958E-03     126.593E-03         17.6585     380.966E-03        -3.37283         14.3404    -55.5615E-03     381.806E-03         6.59258     327.939E-03    -163.011E-03    -164.988E-03    -162.922E-03     326.212E-03    -163.350E-03     57.7806E-03     140.449E+06     104.009E+06    -18.5050E+06    -17.5484E+06     139.492E+06     104.009E+06    -8.70373E+06         66.3391
            1803     14.4493E-03     126.680E-03         17.6385    -671.504E-03        -42.8409        -24.9871    -989.674E-03     102.763E-03         1.39875     326.551E-03    -162.641E-03    -164.012E-03    -161.222E-03     324.702E-03    -163.582E-03     59.8173E-03     174.040E+06     148.437E+06    -7.42772E+06    -6.39423E+06     168.486E+06     152.958E+06    -379.205E+03         70.0937
            1804     850.614E-06     127.558E-03     71.4811E-03    -1.50035E-03    -90.7251E-03     69.5791E-03    -76.3668E-03    -13.9566E-03     19.5432E-03     319.333E-03    -159.264E-03    -160.108E-03    -159.886E-03     319.296E-03    -159.449E-03     6.08585E-03    -156.035E+06    -159.888E+06    -296.882E+06    -159.161E+06    -296.796E+06    -156.848E+06    -3.44962E+06         44.9090
            1805     1.70426E-03     127.560E-03     48.9418E-03     28.7068E-03    -104.947E-03     43.3581E-03    -101.523E-03     30.8667E-03    -21.3598E-03     320.689E-03    -159.863E-03    -160.864E-03    -160.813E-03     320.638E-03    -159.863E-03     9.70299E-03    -144.066E+06    -155.182E+06    -277.238E+06    -155.266E+06    -277.154E+06    -144.066E+06    -3.18506E+06         44.9913
            1806     2.55772E-03     127.573E-03     53.5675E-03     22.0234E-03    -105.426E-03     36.1362E-03    -100.176E-03     34.2046E-03     3.19972E-03     321.756E-03    -160.352E-03    -161.513E-03    -161.444E-03     321.687E-03    -160.352E-03     11.4397E-03    -122.579E+06    -147.770E+06    -253.924E+06    -147.960E+06    -253.734E+06    -122.579E+06    -4.13078E+06         45.0994
            1807     3.40674E-03     127.575E-03     55.9328E-03     24.8131E-03    -109.016E-03     37.4133E-03    -100.518E-03     34.8345E-03    -13.3958E-03     323.327E-03    -160.789E-03    -162.603E-03    -162.439E-03     323.243E-03    -160.868E-03     12.6628E-03    -97.3584E+06    -137.267E+06    -227.265E+06    -137.730E+06    -226.802E+06    -97.3584E+06    -6.16697E+06         45.2152
            1808     4.25465E-03     127.585E-03     45.0713E-03     34.6470E-03    -109.117E-03     35.3599E-03    -99.9832E-03     35.2250E-03    -26.6303E-03     323.790E-03    -160.977E-03    -162.964E-03    -162.344E-03     323.677E-03    -161.485E-03     14.5866E-03    -71.9570E+06    -125.687E+06    -201.618E+06    -126.701E+06    -200.605E+06    -71.9570E+06    -8.39378E+06         45.3112
            1809     5.10535E-03     127.601E-03     36.5598E-03     31.2447E-03    -96.8742E-03     28.0519E-03    -91.8898E-03     34.7682E-03     8.21918E-03     322.866E-03    -160.859E-03    -162.330E-03    -161.293E-03     322.736E-03    -161.766E-03     15.7339E-03    -48.2881E+06    -113.895E+06    -175.793E+06    -115.620E+06    -174.069E+06    -48.2881E+06    -9.90063E+06         45.3957
            1810     5.95759E-03     127.623E-03     34.3651E-03     27.0448E-03    -90.7333E-03     22.7594E-03    -85.6370E-03     33.5542E-03     18.1940E-03     322.402E-03    -160.848E-03    -161.933E-03    -160.908E-03     322.234E-03    -161.705E-03     17.7835E-03    -25.8012E+06    -99.9925E+06    -148.673E+06    -103.026E+06    -145.639E+06    -25.8012E+06    -11.1343E+06         45.5030
            1811     6.80919E-03     127.648E-03     36.0813E-03     29.1479E-03    -93.5296E-03     29.2202E-03    -90.2324E-03     32.7118E-03     11.7635E-03     323.514E-03    -161.246E-03    -162.539E-03    -161.832E-03     323.264E-03    -161.702E-03     21.8126E-03    -5.59044E+06    -85.7819E+06    -124.961E+06    -90.7243E+06    -120.018E+06    -5.59044E+06    -12.6199E+06         45.7414
            1812     7.65803E-03     127.672E-03     47.7635E-03     33.3874E-03    -101.793E-03     46.5293E-03    -100.558E-03     33.3874E-03     6.39412E-03     324.454E-03    -161.492E-03    -162.789E-03    -162.247E-03     324.089E-03    -161.668E-03     26.4272E-03     10.0363E+06    -71.8090E+06    -105.635E+06    -79.8428E+06    -97.6008E+06     10.0363E+06    -13.7835E+06         46.3667
            1813     8.51127E-03     127.700E-03     45.2831E-03     6.59593E-03    -105.458E-03     16.5064E-03    -103.551E-03     33.4656E-03     26.7813E-03     325.421E-03    -161.725E-03    -163.484E-03    -162.918E-03     324.954E-03    -161.823E-03     30.1910E-03     22.3200E+06    -57.2185E+06    -87.5715E+06    -69.3756E+06    -75.4144E+06     22.3200E+06    -14.2325E+06         47.5981
            1814     9.36111E-03     127.728E-03     44.2775E-03    -22.3430E-03    -104.630E-03    -21.1886E-03    -92.0057E-03     30.4987E-03     8.68993E-03     328.162E-03    -162.226E-03    -165.928E-03    -165.366E-03     327.599E-03    -162.226E-03     33.2460E-03     32.6569E+06    -40.4754E+06    -72.3123E+06    -58.9347E+06    -53.8530E+06     32.6569E+06    -15.3548E+06         49.4653
            1815     10.2061E-03     127.766E-03     275.369E-03     10.4321E-03    -96.9637E-03     232.288E-03    -79.8551E-03     36.4042E-03    -76.6878E-03     329.198E-03    -162.513E-03    -166.740E-03    -166.069E-03     328.528E-03    -162.513E-03     36.4075E-03     41.7433E+06    -18.9242E+06    -57.1327E+06    -48.3004E+06    -27.7565E+06     41.7433E+06    -14.7664E+06         51.9221
            1816     11.0518E-03     127.809E-03     263.658E-03    -13.2753E-03    -417.456E-03    -121.193E-03    -84.3523E-03     38.4725E-03     21.1365E-03     327.534E-03    -162.649E-03    -164.997E-03    -164.203E-03     326.740E-03    -162.649E-03     39.4480E-03     48.0390E+06     3.62086E+06    -46.9896E+06    -40.0071E+06    -3.36161E+06     48.0390E+06    -15.7066E+06         54.9375
            1817     11.9056E-03     127.862E-03     429.619E-03    -20.5925E-03    -494.082E-03    -3.37910E-03    -112.831E-03     31.1553E-03    -100.216E-03     326.178E-03    -162.558E-03    -163.833E-03    -162.497E-03     325.166E-03    -162.882E-03     44.3113E-03     75.7256E+06     40.7689E+06    -38.5829E+06    -33.0985E+06     52.4262E+06     58.5839E+06    -17.0617E+06         58.4825
            1818     12.7552E-03     127.923E-03         1.10342     748.220E-06        -1.91345    -918.770E-03     108.732E-03     748.220E-06     955.244E-03     326.211E-03    -162.227E-03    -164.103E-03    -162.114E-03     324.915E-03    -162.919E-03     50.1795E-03     114.685E+06     80.5709E+06    -24.0381E+06    -22.6368E+06     113.284E+06     80.5709E+06    -12.7375E+06         62.5230
            1819     13.6060E-03     127.985E-03         22.7185     361.591E-03        -9.26212         13.5064    -49.9692E-03     361.591E-03        -7.67949     328.368E-03    -162.517E-03    -165.886E-03    -163.658E-03     326.508E-03    -162.885E-03     60.1158E-03     134.323E+06     98.9654E+06    -20.9096E+06    -19.8067E+06     131.028E+06     101.157E+06    -6.24738E+06         66.8290
            1820     14.4554E-03     128.058E-03         27.4280    -670.262E-03        -49.9083        -21.7751        -1.47941     104.006E-03        -2.43465     329.950E-03    -163.240E-03    -166.729E-03    -164.789E-03     328.010E-03    -163.240E-03     61.6682E-03     162.827E+06     137.776E+06    -18.4517E+06    -17.0187E+06     157.032E+06     142.138E+06    -232.247E+03         70.6094
            1821     857.896E-06     128.930E-03     45.1464E-03     8.38088E-03    -84.8707E-03     36.4766E-03    -68.9036E-03     1.08358E-03    -765.735E-06     315.129E-03    -156.871E-03    -158.278E-03    -157.679E-03     315.086E-03    -157.428E-03     8.81973E-03    -153.792E+06    -160.500E+06    -289.464E+06    -159.827E+06    -289.324E+06    -154.605E+06    -685.513E+03         44.6418
            1822     1.70826E-03     128.939E-03     41.5366E-03     22.7475E-03    -97.0471E-03     40.3254E-03    -96.2919E-03     23.2035E-03    -1.56389E-03     317.189E-03    -157.906E-03    -159.355E-03    -159.312E-03     317.145E-03    -157.906E-03     9.00051E-03    -141.336E+06    -154.602E+06    -272.295E+06    -154.798E+06    -272.099E+06    -141.336E+06    -4.12290E+06         44.7415
            1823     2.55972E-03     128.946E-03     67.3454E-03     32.7626E-03    -133.511E-03     64.0571E-03    -130.223E-03     32.7626E-03     28.0781E-03     318.430E-03    -158.541E-03    -160.041E-03    -159.979E-03     318.368E-03    -158.541E-03     10.8106E-03    -121.109E+06    -145.415E+06    -248.626E+06    -145.804E+06    -248.237E+06    -121.109E+06    -5.95751E+06         44.8758
            1824     3.41270E-03     128.958E-03     65.3176E-03     40.5923E-03    -135.783E-03     61.1682E-03    -131.634E-03     40.5923E-03     14.4845E-03     320.782E-03    -159.156E-03    -161.636E-03    -161.542E-03     320.689E-03    -159.156E-03     13.3100E-03    -96.5992E+06    -135.204E+06    -222.082E+06    -135.845E+06    -221.440E+06    -96.5992E+06    -7.28212E+06         45.0319
            1825     4.26271E-03     128.967E-03     47.3577E-03     38.6625E-03    -111.551E-03     39.5403E-03    -107.951E-03     42.8798E-03    -7.52920E-03     322.853E-03    -159.998E-03    -162.800E-03    -162.641E-03     322.695E-03    -159.998E-03     17.2875E-03    -69.7398E+06    -123.800E+06    -194.553E+06    -124.917E+06    -193.436E+06    -69.7398E+06    -8.61687E+06         45.1693
            1826     5.11041E-03     128.984E-03     43.4267E-03     36.1311E-03    -106.508E-03     32.1624E-03    -100.928E-03     41.8156E-03     4.64222E-03     323.141E-03    -160.616E-03    -162.591E-03    -162.320E-03     322.911E-03    -160.656E-03     20.8585E-03    -45.2547E+06    -110.975E+06    -170.007E+06    -113.129E+06    -167.853E+06    -45.2547E+06    -10.7380E+06         45.2706
            1827     5.96051E-03     129.000E-03     46.8247E-03     39.5302E-03    -115.679E-03     39.3428E-03    -109.665E-03     40.9973E-03     9.99899E-03     322.462E-03    -160.503E-03    -162.230E-03    -161.517E-03     322.166E-03    -160.921E-03     23.5471E-03    -24.4536E+06    -97.9665E+06    -145.042E+06    -101.891E+06    -141.118E+06    -24.4536E+06    -12.6687E+06         45.3889
            1828     6.81356E-03     129.028E-03     46.3585E-03     39.3774E-03    -119.625E-03     39.0852E-03    -113.870E-03     40.8958E-03    -2.18987E-03     321.668E-03    -160.424E-03    -161.601E-03    -160.704E-03     321.350E-03    -161.004E-03     24.6017E-03    -4.65841E+06    -83.6641E+06    -122.054E+06    -90.5355E+06    -115.182E+06    -4.65841E+06    -14.1277E+06         45.6734
            1829     7.66800E-03     129.052E-03     46.7911E-03     37.5786E-03    -113.870E-03     39.9392E-03    -110.293E-03     40.8541E-03    -13.2580E-03     321.922E-03    -160.553E-03    -161.190E-03    -160.555E-03     321.587E-03    -160.854E-03     25.2505E-03     11.6388E+06    -68.4744E+06    -103.473E+06    -78.9109E+06    -93.0364E+06     11.6388E+06    -15.4661E+06         46.3819
            1830     8.51887E-03     129.080E-03     81.8116E-03     36.5807E-03    -101.112E-03     74.5819E-03    -99.8495E-03     42.5477E-03     24.0578E-03     324.581E-03    -160.905E-03    -163.393E-03    -162.864E-03     324.151E-03    -161.004E-03     28.8209E-03     23.9527E+06    -52.6429E+06    -86.8530E+06    -67.8734E+06    -71.6225E+06     23.9527E+06    -16.5910E+06         47.7057
            1831     9.36608E-03     129.118E-03     74.8039E-03    -20.0207E-03    -152.479E-03    -51.4035E-03    -86.5232E-03     40.2305E-03     41.6484E-03     327.799E-03    -161.543E-03    -166.344E-03    -165.808E-03     327.263E-03    -161.543E-03     32.4960E-03     34.1691E+06    -35.9276E+06    -72.1576E+06    -57.9539E+06    -50.1313E+06     34.1691E+06    -17.2683E+06         49.6604
            1832     10.2116E-03     129.157E-03     172.536E-03    -20.1315E-03    -175.663E-03     29.1667E-03    -88.3351E-03     35.9098E-03    -96.3112E-03     328.901E-03    -161.944E-03    -167.110E-03    -166.437E-03     328.228E-03    -161.944E-03     36.4120E-03     41.3735E+06    -15.4406E+06    -59.7740E+06    -49.3312E+06    -25.8834E+06     41.3735E+06    -18.5021E+06         52.2034
            1833     11.0596E-03     129.196E-03     345.899E-03     14.0814E-03    -216.345E-03     207.244E-03    -105.609E-03     42.0011E-03    -8.71772E-03     328.832E-03    -162.193E-03    -166.680E-03    -165.798E-03     327.950E-03    -162.193E-03     41.6230E-03     48.5232E+06     5.85261E+06    -47.1385E+06    -40.3899E+06    -896.062E+03     48.5232E+06    -16.9153E+06         55.3077
            1834     11.9043E-03     129.249E-03     256.057E-03    -2.65461E-03    -678.025E-03    -376.714E-03    -81.7171E-03     33.8083E-03    -51.6356E-03     327.180E-03    -162.188E-03    -165.089E-03    -163.720E-03     326.135E-03    -162.513E-03     45.2239E-03     75.5811E+06     39.5563E+06    -37.5728E+06    -34.5356E+06     53.4907E+06     58.6095E+06    -14.3965E+06         58.9573
            1835     12.7587E-03     129.302E-03         2.30655     53.9722E-03        -1.25907         1.31471    -275.774E-03     62.5155E-03         1.12652     326.097E-03    -161.915E-03    -164.205E-03    -162.328E-03     324.912E-03    -162.608E-03     47.9706E-03     105.640E+06     73.3456E+06    -32.7424E+06    -31.5012E+06     104.399E+06     73.3456E+06    -11.6322E+06         63.1243
            1836     13.6140E-03     129.370E-03         10.7157    -298.149E-03        -23.4094        -12.6512    -42.4697E-03    -298.149E-03        -7.51804     329.186E-03    -162.271E-03    -166.859E-03    -164.925E-03     327.620E-03    -162.639E-03     55.2840E-03     126.412E+06     92.7021E+06    -27.9103E+06    -26.8004E+06     123.110E+06     94.8939E+06    -6.01687E+06         67.5264
            1837     14.4568E-03     129.460E-03         52.5733     654.201E-03        -28.3999         23.3871         1.45779    -17.2738E-03        -3.17718     331.085E-03    -163.102E-03    -168.060E-03    -166.493E-03     329.518E-03    -163.102E-03     55.4867E-03     162.462E+06     133.650E+06    -21.9339E+06    -20.8472E+06     153.254E+06     141.771E+06    -4.45376E+06         71.3309
            1838     853.599E-06     130.298E-03     63.6941E-03     30.4954E-03    -132.762E-03     29.7340E-03    -130.088E-03     61.7820E-03    -12.1499E-03     313.064E-03    -155.656E-03    -157.418E-03    -156.005E-03     313.022E-03    -157.026E-03     8.68250E-03    -153.614E+06    -161.855E+06    -283.101E+06    -159.404E+06    -282.923E+06    -156.243E+06    -1.14525E+06         44.3292
            1839     1.71031E-03     130.309E-03     55.6988E-03     35.7103E-03    -127.115E-03     44.6941E-03    -126.170E-03     45.7705E-03    -4.38231E-03     313.731E-03    -156.187E-03    -157.588E-03    -157.046E-03     313.678E-03    -156.675E-03     9.64988E-03    -139.521E+06    -152.597E+06    -264.071E+06    -152.851E+06    -263.816E+06    -139.521E+06    -4.86030E+06         44.4297
            1840     2.56447E-03     130.319E-03     60.0027E-03     27.4358E-03    -116.948E-03     39.6343E-03    -113.927E-03     44.7827E-03     10.9485E-03     315.368E-03    -157.046E-03    -158.464E-03    -158.368E-03     315.272E-03    -157.046E-03     13.2917E-03    -119.652E+06    -144.597E+06    -242.236E+06    -145.177E+06    -241.656E+06    -119.652E+06    -7.08805E+06         44.5774
            1841     3.41639E-03     130.332E-03     55.5245E-03     36.0876E-03    -117.962E-03     42.9071E-03    -113.088E-03     43.8304E-03    -3.98480E-03     317.154E-03    -157.531E-03    -159.656E-03    -159.505E-03     317.003E-03    -157.531E-03     16.6056E-03    -95.1094E+06    -134.099E+06    -217.182E+06    -135.129E+06    -216.152E+06    -95.1094E+06    -8.90138E+06         44.7691
            1842     4.26887E-03     130.348E-03     55.2293E-03     40.4910E-03    -122.329E-03     48.6543E-03    -119.394E-03     44.1303E-03    -24.5775E-03     318.920E-03    -158.138E-03    -160.564E-03    -160.355E-03     318.711E-03    -158.138E-03     19.7770E-03    -68.1852E+06    -121.579E+06    -189.318E+06    -123.241E+06    -187.656E+06    -68.1852E+06    -10.2094E+06         44.9530
            1843     5.12251E-03     130.363E-03     54.3564E-03     41.1356E-03    -123.992E-03     47.2999E-03    -120.574E-03     44.7749E-03    -25.3330E-03     320.633E-03    -158.836E-03    -161.612E-03    -161.313E-03     320.334E-03    -158.836E-03     23.8557E-03    -42.4096E+06    -108.193E+06    -163.673E+06    -110.939E+06    -160.927E+06    -42.4096E+06    -11.8018E+06         45.0919
            1844     5.97264E-03     130.383E-03     51.5602E-03     44.4821E-03    -125.825E-03     47.7025E-03    -122.667E-03     45.1819E-03    -25.8418E-03     321.974E-03    -159.381E-03    -162.755E-03    -162.347E-03     321.567E-03    -159.381E-03     28.0354E-03    -20.0451E+06    -93.7825E+06    -140.286E+06    -98.4979E+06    -135.571E+06    -20.0451E+06    -13.6184E+06         45.2550
            1845     6.81967E-03     130.406E-03     48.2896E-03     37.9284E-03    -124.393E-03     36.9755E-03    -120.035E-03     44.8842E-03    -30.0647E-03     322.169E-03    -159.653E-03    -162.797E-03    -162.244E-03     321.740E-03    -159.777E-03     28.4858E-03    -558.190E+03    -78.5209E+06    -116.848E+06    -86.6461E+06    -108.723E+06    -558.190E+03    -15.2019E+06         45.6089
            1846     7.66972E-03     130.429E-03     43.6812E-03     35.0544E-03    -115.894E-03     30.8623E-03    -111.702E-03     43.6812E-03    -35.7935E-03     322.967E-03    -159.848E-03    -163.052E-03    -162.468E-03     322.507E-03    -159.971E-03     29.1400E-03     14.3601E+06    -63.9103E+06    -100.156E+06    -76.0855E+06    -87.9808E+06     14.3601E+06    -16.8768E+06         46.4038
            1847     8.52080E-03     130.464E-03     155.852E-03     45.8737E-03    -109.092E-03     153.074E-03    -108.686E-03     48.2445E-03     11.0233E-03     324.949E-03    -160.381E-03    -164.514E-03    -163.933E-03     324.368E-03    -160.381E-03     33.1811E-03     25.6193E+06    -48.5686E+06    -85.9526E+06    -66.1628E+06    -68.3584E+06     25.6193E+06    -18.2504E+06         47.8192
            1848     9.36948E-03     130.506E-03     157.415E-03    -27.9711E-03    -226.358E-03    -35.0381E-03    -111.684E-03     49.8075E-03     41.3718E-03     326.067E-03    -160.973E-03    -165.299E-03    -164.666E-03     325.434E-03    -160.973E-03     35.1220E-03     35.0860E+06    -32.2080E+06    -71.0860E+06    -56.7146E+06    -46.5794E+06     35.0860E+06    -18.5125E+06         49.8668
            1849     10.2204E-03     130.542E-03     69.1287E-03    -63.0031E-03    -294.398E-03    -216.518E-03    -107.375E-03     35.6214E-03    -83.7862E-03     326.904E-03    -161.309E-03    -165.724E-03    -165.018E-03     326.197E-03    -161.309E-03     37.2118E-03     42.4478E+06    -11.9395E+06    -58.7689E+06    -49.3759E+06    -21.3325E+06     42.4478E+06    -17.7295E+06         52.5052
            1850     11.0674E-03     130.588E-03     663.570E-03     24.2835E-03    -175.048E-03     565.329E-03    -97.6527E-03     45.1295E-03    -20.6989E-03     328.349E-03    -161.558E-03    -166.822E-03    -165.916E-03     327.443E-03    -161.558E-03     42.2108E-03     46.6782E+06     5.67358E+06    -50.8033E+06    -43.5722E+06    -1.55757E+06     46.6782E+06    -18.5050E+06         55.7068
            1851     11.9166E-03     130.636E-03     625.613E-03     6.75220E-03        -1.31855    -652.815E-03    -74.0490E-03     40.6798E-03     77.5044E-03     329.512E-03    -161.995E-03    -167.611E-03    -166.580E-03     328.481E-03    -161.995E-03     45.1551E-03     71.3893E+06     38.7392E+06    -39.1021E+06    -34.9931E+06     49.0027E+06     57.0168E+06    -14.2709E+06         59.4604
            1852     12.7618E-03     130.687E-03         3.69497     57.5222E-03        -1.49856         2.36914    -206.664E-03     91.4498E-03    -237.494E-03     331.012E-03    -162.395E-03    -168.652E-03    -167.435E-03     329.794E-03    -162.395E-03     48.9656E-03     98.3952E+06     71.5500E+06    -30.2510E+06    -29.6301E+06     97.7743E+06     71.5500E+06    -8.87841E+06         63.7895
            1853     13.6019E-03     130.762E-03         4.30495    -343.805E-03        -20.7282        -16.2821    -174.391E-03    -310.556E-03         6.65157     331.601E-03    -162.723E-03    -168.818E-03    -167.153E-03     329.936E-03    -162.723E-03     57.1470E-03     123.318E+06     90.9975E+06    -25.4812E+06    -24.5849E+06     122.422E+06     90.9975E+06    -10.6715E+06         68.3541
            1854     14.4536E-03     130.846E-03         45.6795     588.624E-03        -20.8354         24.8953     587.039E-03    -49.6028E-03     839.836E-03     329.785E-03    -163.250E-03    -166.667E-03    -165.074E-03     328.192E-03    -163.250E-03     55.6567E-03     163.057E+06     131.082E+06    -14.9017E+06    -14.1593E+06     150.187E+06     143.209E+06    -7.89452E+06         72.1920
            1855     855.452E-06     131.663E-03     109.339E-03     9.54654E-03    -153.747E-03     6.89612E-03    -149.184E-03     107.427E-03    -30.9409E-03     310.933E-03    -154.588E-03    -156.339E-03    -154.547E-03     310.892E-03    -156.339E-03     8.30482E-03    -152.050E+06    -160.045E+06    -274.486E+06    -157.579E+06    -274.324E+06    -154.678E+06    -4.26186E+06         43.9631
            1856     1.71274E-03     131.672E-03     59.7812E-03     40.1205E-03    -132.086E-03     42.3389E-03    -128.658E-03     54.1348E-03    -28.4780E-03     309.446E-03    -154.124E-03    -155.336E-03    -154.128E-03     309.355E-03    -155.242E-03     12.3263E-03    -139.573E+06    -151.614E+06    -256.362E+06    -151.986E+06    -255.991E+06    -139.573E+06    -5.79041E+06         44.0568
            1857     2.56901E-03     131.688E-03     61.6822E-03     32.4348E-03    -119.116E-03     41.7165E-03    -116.497E-03     49.7817E-03     2.94059E-03     310.776E-03    -154.909E-03    -155.963E-03    -155.568E-03     310.610E-03    -155.139E-03     17.3038E-03    -116.050E+06    -142.402E+06    -234.483E+06    -143.163E+06    -233.721E+06    -116.050E+06    -7.90811E+06         44.2167
            1858     3.42441E-03     131.700E-03     59.4043E-03     40.6379E-03    -125.123E-03     47.2479E-03    -120.709E-03     48.3806E-03     20.5987E-03     312.962E-03    -155.474E-03    -157.583E-03    -157.339E-03     312.718E-03    -155.474E-03     21.1627E-03    -90.7860E+06    -130.980E+06    -210.313E+06    -132.520E+06    -208.773E+06    -90.7860E+06    -10.5996E+06         44.4474
            1859     4.27877E-03     131.719E-03     58.1138E-03     45.0828E-03    -132.723E-03     50.9178E-03    -129.092E-03     48.6476E-03     20.2408E-03     315.349E-03    -156.033E-03    -159.154E-03    -158.856E-03     315.051E-03    -156.033E-03     23.6766E-03    -65.5847E+06    -118.474E+06    -183.962E+06    -120.972E+06    -181.465E+06    -65.5847E+06    -12.3287E+06         44.6845
            1860     5.13054E-03     131.735E-03     58.7130E-03     45.8266E-03    -138.222E-03     53.5662E-03    -136.640E-03     49.3914E-03     5.66383E-03     317.514E-03    -156.838E-03    -160.501E-03    -160.127E-03     317.139E-03    -156.838E-03     26.4800E-03    -39.9024E+06    -104.901E+06    -158.247E+06    -108.714E+06    -154.434E+06    -39.9024E+06    -13.4632E+06         44.8734
            1861     5.98243E-03     131.763E-03     55.0522E-03     49.2736E-03    -135.198E-03     51.1805E-03    -132.026E-03     49.9734E-03     13.7731E-03     318.932E-03    -157.481E-03    -161.524E-03    -161.039E-03     318.447E-03    -157.481E-03     30.4468E-03    -16.4655E+06    -89.2244E+06    -135.183E+06    -95.6380E+06    -128.769E+06    -16.4655E+06    -15.5922E+06         45.0906
            1862     6.83488E-03     131.787E-03     51.4609E-03     33.3179E-03    -122.888E-03     30.9818E-03    -118.186E-03     49.0951E-03     26.0764E-03     321.405E-03    -158.027E-03    -163.546E-03    -162.972E-03     320.831E-03    -158.027E-03     33.2765E-03     2.40585E+06    -73.8419E+06    -113.579E+06    -83.3435E+06    -104.078E+06     2.40585E+06    -16.6498E+06         45.5203
            1863     7.68328E-03     131.813E-03     46.6423E-03     22.9461E-03    -111.930E-03     19.6607E-03    -108.645E-03     46.6423E-03     10.6646E-03     324.580E-03    -158.646E-03    -165.948E-03    -165.272E-03     323.905E-03    -158.646E-03     36.3488E-03     17.4270E+06    -59.4596E+06    -96.1326E+06    -72.5181E+06    -83.0741E+06     17.4270E+06    -17.3331E+06         46.4153
            1864     8.52910E-03     131.849E-03     203.654E-03     43.6983E-03    -111.728E-03     193.727E-03    -110.419E-03     52.3171E-03     4.85579E-03     325.689E-03    -159.377E-03    -166.271E-03    -165.480E-03     324.898E-03    -159.377E-03     39.3706E-03     28.4721E+06    -44.7976E+06    -81.6765E+06    -62.9793E+06    -63.4949E+06     28.4721E+06    -18.0630E+06         47.9345
            1865     9.37848E-03     131.889E-03     207.239E-03    -37.6508E-03    -263.045E-03    -22.7820E-03    -126.577E-03     55.9020E-03    -20.9034E-03     326.167E-03    -160.098E-03    -166.115E-03    -165.328E-03     325.380E-03    -160.098E-03     39.2558E-03     36.2004E+06    -29.8571E+06    -68.8466E+06    -55.6919E+06    -43.0119E+06     36.2004E+06    -18.0470E+06         50.0774
            1866     10.2248E-03     131.929E-03     35.3602E-03    -107.126E-03    -386.709E-03    -375.403E-03    -118.432E-03     35.3602E-03    -50.2517E-03     327.319E-03    -160.617E-03    -166.694E-03    -165.934E-03     326.560E-03    -160.617E-03     38.6691E-03     42.3660E+06    -12.5147E+06    -57.2306E+06    -48.2073E+06    -21.5380E+06     42.3660E+06    -17.0957E+06         52.8044
            1867     11.0743E-03     131.972E-03     962.725E-03    -2.55903E-03    -220.585E-03     780.897E-03    -87.6906E-03     46.3743E-03    -28.4809E-03     328.593E-03    -161.047E-03    -167.634E-03    -166.787E-03     327.747E-03    -161.047E-03     40.9440E-03     48.8365E+06     9.35417E+06    -47.6759E+06    -41.2753E+06     2.95360E+06     48.8365E+06    -16.1607E+06         56.0876
            1868     11.9198E-03     132.026E-03     963.966E-03    -23.4930E-03        -1.70550    -713.465E-03    -99.1781E-03     47.6153E-03     38.2365E-03     330.828E-03    -161.564E-03    -169.346E-03    -168.356E-03     329.838E-03    -161.564E-03     44.3471E-03     63.9278E+06     39.4331E+06    -41.1133E+06    -35.6983E+06     43.1817E+06     54.7643E+06    -18.3928E+06         59.9032
            1869     12.7631E-03     132.088E-03         3.76122     33.3184E-03        -1.59703         2.02393     88.7154E-03     84.8579E-03    -126.866E-03     332.714E-03    -162.096E-03    -170.517E-03    -169.156E-03     331.353E-03    -162.096E-03     51.9337E-03     96.2416E+06      73.174E+06    -26.8378E+06    -23.7893E+06     93.1931E+06      73.174E+06    -16.0155E+06         64.3781
            1870     13.6111E-03     132.157E-03         3.68664    -13.2660E-03        -8.55539        -4.75108    -131.357E-03     413.921E-06    -138.765E-03     332.144E-03    -162.581E-03    -169.435E-03    -167.472E-03     330.181E-03    -162.581E-03     62.3890E-03     124.016E+06     100.693E+06    -13.0001E+06    -12.4142E+06     123.430E+06     100.693E+06    -7.87656E+06         69.1571
            1871     14.4561E-03     132.236E-03         13.5264    -30.1976E-03        -9.87151         5.14577        -1.52417     3.05099E-03     396.742E-03     331.265E-03    -163.141E-03    -168.243E-03    -166.283E-03     329.305E-03    -163.141E-03     62.1622E-03     154.017E+06     130.514E+06    -5.45815E+06    -5.25019E+06     139.724E+06     144.599E+06    -4.68098E+06         73.0557
            1872     857.005E-06     133.023E-03     127.961E-03    -19.6343E-03    -133.662E-03    -27.4185E-03    -119.104E-03     121.187E-03     2.83227E-03     304.775E-03    -151.506E-03    -153.271E-03    -152.415E-03     304.711E-03    -152.299E-03     9.85613E-03    -148.847E+06    -157.238E+06    -263.802E+06    -155.066E+06    -263.592E+06    -151.229E+06    -3.72262E+06         43.5604
            1873     1.71607E-03     133.030E-03     65.1702E-03     44.0638E-03    -126.137E-03     54.8521E-03    -120.229E-03     48.4739E-03    -3.54345E-03     305.016E-03    -151.770E-03    -153.257E-03    -152.485E-03     304.873E-03    -152.399E-03     15.5656E-03    -136.994E+06    -149.069E+06    -247.583E+06    -149.675E+06    -246.976E+06    -136.994E+06    -7.41886E+06         43.6566
            1874     2.57659E-03     133.046E-03     72.4527E-03     53.1580E-03    -143.646E-03     71.2610E-03    -142.454E-03     53.1580E-03     5.44703E-03     305.926E-03    -152.372E-03    -153.523E-03    -153.060E-03     305.692E-03    -152.601E-03     20.6496E-03    -113.937E+06    -139.820E+06    -226.367E+06    -141.023E+06    -225.165E+06    -113.937E+06    -9.74760E+06         43.8305
            1875     3.43423E-03     133.067E-03     71.0172E-03     57.4792E-03    -148.407E-03     67.2406E-03    -144.631E-03     57.4792E-03     9.34101E-03     308.582E-03    -153.064E-03    -155.566E-03    -155.261E-03     308.277E-03    -153.064E-03     23.7542E-03    -87.4374E+06    -128.348E+06    -202.109E+06    -130.330E+06    -200.127E+06    -87.4374E+06    -11.5782E+06         44.0952
            1876     4.28899E-03     133.087E-03     62.3296E-03     52.7696E-03    -141.341E-03     52.0921E-03    -136.498E-03     58.1642E-03    -7.35766E-03     311.883E-03    -153.753E-03    -157.997E-03    -157.622E-03     311.508E-03    -153.753E-03     26.5017E-03    -61.6550E+06    -114.700E+06    -177.460E+06    -118.367E+06    -173.794E+06    -61.6550E+06    -14.1990E+06         44.3839
            1877     5.14237E-03     133.111E-03     58.3714E-03     50.5093E-03    -139.251E-03     49.5851E-03    -136.975E-03     57.0202E-03    -17.1155E-03     314.344E-03    -154.644E-03    -159.528E-03    -159.053E-03     313.870E-03    -154.644E-03     29.8981E-03    -36.8498E+06    -99.3017E+06    -153.277E+06    -105.116E+06    -147.462E+06    -36.8498E+06    -16.4126E+06         44.6350
            1878     5.99493E-03     133.132E-03     60.1365E-03     55.1122E-03    -140.734E-03     55.4853E-03    -137.390E-03     56.4196E-03     13.2939E-03     316.472E-03    -155.493E-03    -161.001E-03    -160.454E-03     315.924E-03    -155.493E-03     32.3257E-03    -14.3928E+06    -84.8497E+06    -130.158E+06    -92.7997E+06    -122.208E+06    -14.3928E+06    -16.9958E+06         44.9122
            1879     6.84750E-03     133.160E-03     57.5225E-03     36.4547E-03    -131.765E-03     34.5928E-03    -127.537E-03     55.1567E-03     29.7774E-03     319.689E-03    -156.265E-03    -163.485E-03    -162.854E-03     319.058E-03    -156.265E-03     34.8278E-03     4.33375E+06    -70.2704E+06    -111.096E+06    -81.5476E+06    -99.8185E+06     4.33375E+06    -18.0502E+06         45.4135
            1880     7.69461E-03     133.201E-03     52.0411E-03     19.9652E-03    -115.812E-03     16.9485E-03    -112.796E-03     52.0411E-03     19.1194E-03     323.309E-03    -157.114E-03    -166.214E-03    -165.475E-03     322.570E-03    -157.114E-03     37.9823E-03     19.1517E+06    -55.9529E+06    -93.9678E+06    -70.3413E+06    -79.5794E+06     19.1517E+06    -18.2385E+06         46.4152
            1881     8.54189E-03     133.231E-03     192.636E-03     42.5922E-03    -110.709E-03     176.343E-03    -107.980E-03     56.1571E-03    -14.2419E-03     325.727E-03    -158.066E-03    -167.619E-03    -166.748E-03     324.855E-03    -158.066E-03     41.3535E-03     30.3341E+06    -42.8369E+06    -77.6473E+06    -60.9010E+06    -59.5833E+06     30.3341E+06    -17.0303E+06         48.0481
            1882     9.38750E-03     133.277E-03     194.376E-03    -28.2035E-03    -261.686E-03    -36.9092E-03    -116.501E-03     57.8970E-03    -67.2258E-03     327.151E-03    -158.974E-03    -168.133E-03    -167.198E-03     326.215E-03    -158.974E-03     42.9574E-03     38.1179E+06    -29.0534E+06    -64.2857E+06    -52.3844E+06    -40.9547E+06     38.1179E+06    -16.4382E+06         50.2875
            1883     10.2343E-03     133.318E-03     37.7388E-03    -78.5033E-03    -383.958E-03    -349.718E-03    -112.743E-03     37.7388E-03     54.3032E-03     329.091E-03    -159.805E-03    -169.087E-03    -168.139E-03     328.143E-03    -159.805E-03     43.3067E-03     44.3675E+06    -9.20758E+06    -53.9613E+06    -44.4807E+06    -18.6882E+06     44.3675E+06    -17.6785E+06         53.0981
            1884     11.0775E-03     133.365E-03     874.976E-03     17.1773E-03    -229.615E-03     715.351E-03    -100.131E-03     47.3188E-03     13.2072E-03     330.995E-03    -160.502E-03    -170.260E-03    -169.209E-03     329.944E-03    -160.502E-03     45.6610E-03     49.7566E+06     8.69878E+06    -43.7698E+06    -36.0376E+06     966.658E+03     49.7566E+06    -16.6209E+06         56.4510
            1885     11.9227E-03     133.422E-03     877.050E-03    -20.7688E-03        -1.52345    -610.367E-03    -106.191E-03     49.3926E-03    -58.0195E-03     331.584E-03    -161.095E-03    -170.364E-03    -169.157E-03     330.377E-03    -161.095E-03     48.9953E-03     77.9931E+06     40.3723E+06    -35.7825E+06    -29.8718E+06     52.9710E+06     59.4835E+06    -15.9077E+06         60.3234
            1886     12.7699E-03     133.480E-03         3.69380     45.3521E-03        -1.66270         2.18676    -206.260E-03     95.9449E-03     374.114E-03     331.414E-03    -161.645E-03    -169.649E-03    -168.196E-03     329.962E-03    -161.645E-03     53.8056E-03     94.4901E+06     71.2796E+06    -30.4373E+06    -25.6152E+06     87.9824E+06     72.9653E+06    -18.7580E+06         64.9001
            1887     13.6151E-03     133.545E-03         4.47507    -304.531E-03        -19.9670        -15.4571    -15.2635E-03    -324.100E-03        -6.87391     331.993E-03    -162.108E-03    -169.705E-03    -167.815E-03     330.103E-03    -162.108E-03     61.2804E-03     108.990E+06     83.8319E+06    -13.9548E+06    -11.2157E+06     104.566E+06     85.5176E+06    -13.9992E+06         69.8192
            1888     14.4656E-03     133.626E-03         47.2107     652.614E-03        -20.0394         27.0922     760.996E-03    -29.2897E-03        -1.30832     334.601E-03    -162.783E-03    -171.922E-03    -169.923E-03     332.602E-03    -162.783E-03     63.4196E-03     154.787E+06     117.762E+06     5.14100E+06     5.51097E+06     137.850E+06     134.329E+06    -3.10528E+06         73.7824
            1889     866.294E-06     134.376E-03     155.998E-03     20.8097E-03    -195.641E-03     7.70363E-03    -175.760E-03     149.224E-03     103.604E-03     298.367E-03    -148.451E-03    -149.925E-03    -149.865E-03     298.307E-03    -148.451E-03     9.27372E-03    -145.992E+06    -152.243E+06    -253.009E+06    -150.213E+06    -252.657E+06    -148.373E+06    -4.44884E+06         43.1713
            1890     1.72468E-03     134.384E-03     88.2931E-03     52.4655E-03    -154.344E-03     60.3944E-03    -149.311E-03     75.3311E-03     57.5376E-03     300.697E-03    -149.515E-03    -151.165E-03    -151.049E-03     300.581E-03    -149.515E-03     13.1904E-03    -132.838E+06    -145.814E+06    -236.606E+06    -146.488E+06    -235.933E+06    -132.838E+06    -6.87855E+06         43.2742
            1891     2.58268E-03     134.400E-03     75.2432E-03     37.1988E-03    -126.140E-03     43.3590E-03    -124.906E-03     67.8490E-03     17.5445E-03     301.913E-03    -150.203E-03    -151.629E-03    -151.393E-03     301.677E-03    -150.203E-03     20.2584E-03    -110.112E+06    -136.629E+06    -216.285E+06    -138.381E+06    -214.533E+06    -110.112E+06    -11.3022E+06         43.4553
            1892     3.44140E-03     134.424E-03     70.0491E-03     49.4587E-03    -135.934E-03     54.1286E-03    -133.409E-03     62.8540E-03    -9.08130E-03     304.200E-03    -150.825E-03    -153.462E-03    -153.097E-03     303.835E-03    -150.825E-03     25.7093E-03    -83.8099E+06    -123.576E+06    -194.420E+06    -126.650E+06    -191.346E+06    -83.8099E+06    -14.1105E+06         43.7344
            1893     4.29827E-03     134.448E-03     70.3196E-03     60.2652E-03    -149.205E-03     64.5189E-03    -145.234E-03     62.0950E-03    -11.7160E-03     307.451E-03    -151.538E-03    -155.926E-03    -155.470E-03     306.995E-03    -151.538E-03     28.9855E-03    -57.4565E+06    -109.023E+06    -169.584E+06    -113.875E+06    -164.733E+06    -57.4565E+06    -15.9845E+06         44.0658
            1894     5.15373E-03     134.472E-03     63.6705E-03     49.9842E-03    -137.173E-03     49.6143E-03    -134.567E-03     61.4345E-03    -16.0341E-03     310.999E-03    -152.428E-03    -158.438E-03    -157.881E-03     310.443E-03    -152.428E-03     32.2097E-03    -34.3939E+06    -95.0352E+06    -147.298E+06    -102.354E+06    -139.980E+06    -34.3939E+06    -17.9372E+06         44.3923
            1895     6.00729E-03     134.502E-03     59.3694E-03     45.1765E-03    -128.379E-03     43.2908E-03    -126.494E-03     59.3694E-03     746.660E-06     315.245E-03    -153.525E-03    -161.659E-03    -160.997E-03     314.583E-03    -153.525E-03     35.3702E-03    -13.1395E+06    -81.1658E+06    -127.656E+06    -91.0322E+06    -117.789E+06    -13.1395E+06    -18.8180E+06         44.7413
            1896     6.85474E-03     134.535E-03     57.1425E-03     41.6909E-03    -130.573E-03     39.2977E-03    -128.180E-03     57.1425E-03     20.0079E-03     318.717E-03    -154.651E-03    -164.101E-03    -163.354E-03     317.970E-03    -154.651E-03     37.8304E-03     5.94467E+06    -66.0992E+06    -108.763E+06    -78.7210E+06    -96.1416E+06     5.94467E+06    -19.3703E+06         45.3138
            1897     7.70684E-03     134.574E-03     54.9544E-03     36.8879E-03    -128.371E-03     34.8986E-03    -126.382E-03     54.9544E-03     16.5020E-03     321.492E-03    -155.753E-03    -165.800E-03    -164.986E-03     320.678E-03    -155.753E-03     39.7799E-03     21.3072E+06    -51.8207E+06    -90.8383E+06    -67.5362E+06    -75.1228E+06     21.3072E+06    -18.8861E+06         46.4151
            1898     8.55421E-03     134.619E-03     142.770E-03     50.2549E-03    -129.685E-03     129.984E-03    -124.086E-03     57.4422E-03    -42.4090E-03     324.563E-03    -156.820E-03    -167.651E-03    -166.762E-03     323.674E-03    -156.820E-03     41.7649E-03     32.2774E+06    -38.7743E+06    -75.8779E+06    -57.2107E+06    -57.4414E+06     32.2774E+06    -18.5036E+06         48.1572
            1899     9.39995E-03     134.660E-03     142.621E-03    -21.5490E-03    -211.319E-03    -24.7637E-03    -122.776E-03     57.2930E-03    -93.0033E-03     326.681E-03    -157.807E-03    -168.819E-03    -167.833E-03     325.695E-03    -157.807E-03     44.1261E-03     40.6928E+06    -23.9182E+06    -61.8496E+06    -46.1054E+06    -39.6624E+06     40.6928E+06    -18.4108E+06         50.4946
            1900     10.2450E-03     134.708E-03     98.4625E-03    -34.4424E-03    -269.623E-03    -131.219E-03    -120.838E-03     46.4539E-03     117.904E-03     329.207E-03    -158.829E-03    -170.267E-03    -169.149E-03     328.089E-03    -158.829E-03     47.1727E-03     47.4184E+06    -7.29288E+06    -46.9518E+06    -37.7967E+06    -16.4480E+06     47.4184E+06    -15.9294E+06         53.3927
            1901     11.0898E-03     134.757E-03     457.823E-03     49.7184E-03    -200.847E-03     376.434E-03    -121.513E-03     51.7727E-03     42.8798E-03     332.113E-03    -159.637E-03    -172.074E-03    -170.802E-03     330.841E-03    -159.637E-03     50.5551E-03     52.3132E+06     11.4544E+06    -40.5742E+06    -33.3195E+06     4.19967E+06     52.3132E+06    -17.1867E+06         56.8230
            1902     11.9325E-03     134.811E-03     406.092E-03     24.7402E-03    -841.937E-03    -375.378E-03    -84.9052E-03     49.1777E-03     4.97820E-03     332.647E-03    -160.372E-03    -171.985E-03    -170.645E-03     331.308E-03    -160.372E-03     51.9294E-03     74.9549E+06     45.3479E+06    -31.4735E+06    -25.7153E+06     52.7027E+06     61.8420E+06    -15.7659E+06         60.7686
            1903     12.7764E-03     134.871E-03         2.72062     60.8298E-03        -1.35096         1.66891    -323.683E-03     85.2673E-03    -919.353E-03     332.327E-03    -161.099E-03    -171.216E-03    -169.712E-03     330.823E-03    -161.099E-03     54.8773E-03     97.3390E+06     75.9015E+06    -22.9509E+06    -19.4637E+06     92.1662E+06     77.5872E+06    -13.4223E+06         65.4128
            1904     13.6235E-03     134.936E-03         9.80194    -294.025E-03        -25.0312        -15.0523    -177.019E-03    -294.025E-03         7.89236     335.790E-03    -161.790E-03    -173.882E-03    -171.998E-03     333.906E-03    -161.790E-03     61.7674E-03     110.730E+06     77.4937E+06    -19.8740E+06    -17.0125E+06     95.9632E+06     89.3989E+06    -14.2739E+06         70.3825
            1905     14.4630E-03     135.024E-03         53.7211     652.091E-03        -29.4526         23.5529         1.39747    -29.8131E-03         2.15972     337.768E-03    -162.695E-03    -175.156E-03    -173.304E-03     335.916E-03    -162.695E-03     61.3889E-03     141.648E+06     107.324E+06    -13.3187E+06    -12.4599E+06     121.157E+06     126.956E+06    -7.22655E+06         74.3807
            1906     860.012E-06     135.718E-03     158.996E-03     31.2691E-03    -209.638E-03     20.3771E-03    -192.838E-03     153.089E-03     61.1082E-03     295.385E-03    -147.143E-03    -148.240E-03    -147.578E-03     295.319E-03    -147.739E-03     9.47231E-03    -143.183E+06    -148.661E+06    -243.091E+06    -149.090E+06    -242.548E+06    -143.298E+06    -4.27967E+06         42.8129
            1907     1.72362E-03     135.729E-03     94.5202E-03     59.3696E-03    -169.956E-03     65.8478E-03    -164.150E-03     82.2352E-03     4.14172E-03     296.177E-03    -147.428E-03    -148.761E-03    -148.239E-03     296.049E-03    -147.822E-03     13.6473E-03    -127.310E+06    -140.938E+06    -224.057E+06    -141.812E+06    -223.182E+06    -127.310E+06    -7.53679E+06         42.9184
            1908     2.58661E-03     135.745E-03     83.3626E-03     43.5078E-03    -142.586E-03     51.5353E-03    -141.409E-03     74.1580E-03     1.78378E-03     297.731E-03    -148.203E-03    -149.597E-03    -149.312E-03     297.446E-03    -148.203E-03     21.8232E-03    -105.333E+06    -130.566E+06    -204.943E+06    -132.432E+06    -203.076E+06    -105.333E+06    -11.3137E+06         43.0990
            1909     3.44818E-03     135.774E-03     73.2508E-03     46.5146E-03    -132.397E-03     48.3725E-03    -128.981E-03     67.9771E-03    -21.1732E-03     299.517E-03    -148.700E-03    -151.003E-03    -150.531E-03     299.044E-03    -148.700E-03     29.0085E-03    -80.1804E+06    -119.497E+06    -184.757E+06    -123.125E+06    -181.129E+06    -80.1804E+06    -14.6585E+06         43.3747
            1910     4.30813E-03     135.806E-03     68.8889E-03     52.1607E-03    -136.435E-03     50.4551E-03    -130.047E-03     64.2063E-03    -18.0542E-03     302.890E-03    -149.367E-03    -153.813E-03    -153.200E-03     302.278E-03    -149.367E-03     33.2553E-03    -54.9524E+06    -105.512E+06    -162.292E+06    -111.611E+06    -156.193E+06    -54.9524E+06    -17.2219E+06         43.7361
            1911     5.16478E-03     135.838E-03     65.0984E-03     49.2408E-03    -133.667E-03     48.9328E-03    -129.984E-03     61.7235E-03    -18.9022E-03     308.250E-03    -150.332E-03    -158.023E-03    -157.277E-03     307.504E-03    -150.332E-03     37.0797E-03    -30.9948E+06    -89.9981E+06    -140.907E+06    -98.9347E+06    -131.970E+06    -30.9948E+06    -19.0840E+06         44.1318
            1912     6.01707E-03     135.875E-03     60.7499E-03     45.7480E-03    -127.428E-03     45.5362E-03    -126.077E-03     59.6110E-03    -6.01195E-03     313.202E-03    -151.572E-03    -161.493E-03    -160.627E-03     312.336E-03    -151.572E-03     40.4125E-03    -10.3617E+06    -75.3606E+06    -123.647E+06    -87.4948E+06    -111.513E+06    -10.3617E+06    -20.8131E+06         44.5517
            1913     6.86958E-03     135.917E-03     57.9511E-03     48.8364E-03    -130.443E-03     47.0482E-03    -128.655E-03     57.9511E-03     22.1340E-03     317.122E-03    -152.949E-03    -164.341E-03    -163.359E-03     316.140E-03    -152.949E-03     43.3125E-03     7.55895E+06    -60.8945E+06    -106.414E+06    -75.9408E+06    -91.3678E+06     7.55895E+06    -21.2794E+06         45.2098
            1914     7.71463E-03     135.956E-03     59.6099E-03     51.7233E-03    -133.976E-03     52.7461E-03    -132.496E-03     57.1068E-03     30.3281E-03     320.793E-03    -154.362E-03    -166.864E-03    -165.795E-03     319.724E-03    -154.362E-03     45.3640E-03     22.2566E+06    -47.3502E+06    -89.6864E+06    -64.3911E+06    -72.6455E+06     22.2566E+06    -20.6963E+06         46.4169
            1915     8.56223E-03     136.001E-03     86.7639E-03     39.0565E-03    -140.701E-03     61.0882E-03    -133.078E-03     57.1097E-03    -38.9738E-03     323.577E-03    -155.554E-03    -168.001E-03    -166.920E-03     322.496E-03    -155.554E-03     45.8082E-03     34.2160E+06    -32.4421E+06    -74.7274E+06    -53.3720E+06    -53.7974E+06     34.2160E+06    -20.7029E+06         48.2640
            1916     9.40975E-03     136.046E-03     82.0664E-03    -131.445E-06    -154.802E-03     2.68792E-03    -130.470E-03     54.9153E-03    -91.4185E-03     325.771E-03    -156.579E-03    -169.062E-03    -167.944E-03     324.653E-03    -156.579E-03     46.8485E-03     40.9410E+06    -21.6861E+06    -62.8876E+06    -45.5778E+06    -38.9959E+06     40.9410E+06    -20.0261E+06         50.7001
            1917     10.2562E-03     136.096E-03     207.313E-03     17.2010E-03    -161.864E-03     132.577E-03    -125.749E-03     55.8219E-03     89.3096E-03     328.381E-03    -157.721E-03    -170.838E-03    -169.583E-03     327.126E-03    -157.721E-03     49.9230E-03     47.7358E+06    -6.31481E+06    -48.7327E+06    -36.7610E+06    -18.2865E+06     47.7358E+06    -18.3197E+06         53.6891
            1918     11.1002E-03     136.151E-03     232.754E-03     25.9905E-03    -341.216E-03    -21.7030E-03    -116.958E-03     56.1899E-03     21.5142E-03     331.101E-03    -158.630E-03    -172.469E-03    -171.066E-03     329.699E-03    -158.630E-03     53.0263E-03     57.9364E+06     16.0007E+06    -33.2100E+06    -26.9034E+06     9.69403E+06     57.9364E+06    -15.9231E+06         57.2039
            1919     11.9423E-03     136.211E-03     397.484E-03     21.5181E-03    -475.937E-03     6.02484E-03    -114.677E-03     51.7175E-03     98.1855E-03     332.912E-03    -159.515E-03    -173.281E-03    -171.858E-03     331.489E-03    -159.515E-03     53.5696E-03     71.4389E+06     45.9202E+06    -26.3550E+06    -22.5305E+06     49.2917E+06     64.2429E+06    -15.2299E+06         61.2251
            1920     12.7863E-03     136.261E-03         1.42945     25.8370E-03        -1.98908    -658.710E-03     99.0719E-03     25.8370E-03        -1.28286     335.534E-03    -160.441E-03    -174.942E-03    -173.296E-03     333.888E-03    -160.441E-03     57.6782E-03     94.5031E+06     78.7110E+06    -18.6006E+06    -16.7921E+06     90.7373E+06     80.6682E+06    -10.9711E+06         65.9297
            1921     13.6260E-03     136.337E-03         23.7504     401.030E-03        -11.3199         12.6057    -175.171E-03     401.030E-03         7.56636     340.184E-03    -161.420E-03    -178.613E-03    -176.333E-03     337.905E-03    -161.420E-03     68.1931E-03     111.293E+06     86.9417E+06    -15.0547E+06    -14.3637E+06     98.4248E+06     99.1185E+06    -7.32327E+06         70.9358
            1922     14.4606E-03     136.436E-03         29.4977    -635.598E-03        -55.0063        -24.6294        -1.60642     91.6803E-03         3.42805     340.654E-03    -162.575E-03    -178.221E-03    -176.150E-03     338.583E-03    -162.575E-03     64.6031E-03     132.370E+06     105.072E+06    -19.4843E+06    -18.8672E+06     109.990E+06     126.835E+06    -7.63506E+06         74.9456
            1923     864.840E-06     137.057E-03     102.736E-03     12.2744E-03    -135.005E-03    -5.71929E-03    -89.0241E-03     74.7481E-03     32.9281E-03     290.790E-03    -144.929E-03    -145.830E-03    -144.958E-03     290.701E-03    -145.712E-03     10.8283E-03    -138.560E+06    -142.904E+06    -229.738E+06    -143.265E+06    -229.263E+06    -138.674E+06    -4.03548E+06         42.4663
            1924     1.73051E-03     137.071E-03     89.7737E-03     44.3942E-03    -149.714E-03     86.1524E-03    -146.093E-03     44.3942E-03    -23.2097E-03     290.731E-03    -144.800E-03    -145.869E-03    -145.075E-03     290.519E-03    -145.381E-03     18.9256E-03    -123.473E+06    -135.560E+06    -212.402E+06    -136.758E+06    -211.204E+06    -123.473E+06    -8.96828E+06         42.5803
            1925     2.59363E-03     137.092E-03     94.7043E-03     60.1729E-03    -169.762E-03     94.5300E-03    -169.588E-03     60.1729E-03    -5.28161E-03     293.097E-03    -145.639E-03    -147.472E-03    -147.053E-03     292.678E-03    -145.639E-03     26.7069E-03    -103.695E+06    -127.193E+06    -194.642E+06    -129.259E+06    -192.577E+06    -103.695E+06    -11.3205E+06         42.7607
            1926     3.45604E-03     137.123E-03     74.6315E-03     57.2879E-03    -148.949E-03     63.5122E-03    -145.897E-03     65.3550E-03    -29.2726E-03     295.760E-03    -146.264E-03    -149.487E-03    -148.864E-03     295.137E-03    -146.264E-03     33.1615E-03    -77.5947E+06    -115.794E+06    -173.824E+06    -119.592E+06    -170.025E+06    -77.5947E+06    -13.9526E+06         43.0266
            1927     4.31834E-03     137.158E-03     63.1089E-03     49.6636E-03    -128.800E-03     43.9361E-03    -123.022E-03     63.0579E-03    -34.0701E-03     299.747E-03    -147.124E-03    -152.687E-03    -151.877E-03     298.937E-03    -147.124E-03     38.0817E-03    -51.9615E+06    -102.061E+06    -153.394E+06    -109.352E+06    -146.103E+06    -51.9615E+06    -17.4685E+06         43.3965
            1928     5.17600E-03     137.198E-03     61.3019E-03     50.5675E-03    -129.370E-03     48.4549E-03    -126.118E-03     60.1630E-03    -15.6821E-03     305.322E-03    -148.280E-03    -157.200E-03    -156.240E-03     304.362E-03    -148.280E-03     42.0526E-03    -28.9818E+06    -86.5383E+06    -135.043E+06    -97.8809E+06    -123.701E+06    -28.9818E+06    -20.3229E+06         43.8260
            1929     6.03001E-03     137.237E-03     59.8530E-03     51.2820E-03    -134.095E-03     51.9594E-03    -133.634E-03     58.7140E-03    -8.33023E-03     310.153E-03    -149.619E-03    -160.460E-03    -159.421E-03     309.113E-03    -149.619E-03     44.1379E-03    -8.39644E+06    -70.5508E+06    -118.553E+06    -85.5283E+06    -103.576E+06    -8.39644E+06    -22.0135E+06         44.3080
            1930     6.88077E-03     137.281E-03     62.6824E-03     53.9982E-03    -136.389E-03     58.2950E-03    -136.213E-03     58.2099E-03     798.881E-06     314.298E-03    -151.083E-03    -163.288E-03    -162.028E-03     313.038E-03    -151.083E-03     48.8169E-03     8.85082E+06    -56.5350E+06    -102.898E+06    -74.5755E+06    -84.8575E+06     8.85082E+06    -22.4696E+06         45.0772
            1931     7.73240E-03     137.333E-03     71.3271E-03     57.7639E-03    -141.936E-03     69.9497E-03    -141.607E-03     58.8119E-03     7.42334E-03     319.161E-03    -152.591E-03    -166.865E-03    -165.454E-03     317.750E-03    -152.591E-03     52.2228E-03     22.1878E+06    -43.8577E+06    -90.3380E+06    -64.3441E+06    -69.8516E+06     22.1878E+06    -22.9606E+06         46.4139
            1932     8.57790E-03     137.376E-03     64.7199E-03     3.79153E-03    -149.166E-03     1.18898E-03    -138.521E-03     56.6773E-03    -32.6693E-03     323.293E-03    -153.921E-03    -169.414E-03    -168.050E-03     321.928E-03    -153.921E-03     51.7645E-03     32.7228E+06    -32.3444E+06    -76.1177E+06    -54.9943E+06    -53.4678E+06     32.7228E+06    -21.4510E+06         48.3754
            1933     9.42365E-03     137.426E-03     97.6840E-03     89.4056E-06    -128.131E-03     33.0016E-03    -116.370E-03     53.0111E-03    -51.5395E-03     326.072E-03    -155.169E-03    -170.726E-03    -169.383E-03     324.728E-03    -155.169E-03     51.5815E-03     41.3155E+06    -19.8078E+06    -63.2485E+06    -47.4110E+06    -35.6453E+06     41.3155E+06    -20.3099E+06         50.9125
            1934     10.2676E-03     137.476E-03     281.353E-03     60.8984E-03    -113.061E-03     274.693E-03    -106.437E-03     60.9343E-03     51.8309E-03     328.533E-03    -156.463E-03    -172.043E-03    -170.594E-03     327.085E-03    -156.463E-03     53.7187E-03     47.3486E+06    -4.75817E+06    -53.1146E+06    -40.1984E+06    -17.6743E+06     47.3486E+06    -20.7064E+06         53.9916
            1935     11.1109E-03     137.539E-03     232.163E-03    -22.5402E-03    -564.781E-03    -294.674E-03    -116.902E-03     56.4177E-03    -10.6448E-03     330.380E-03    -157.602E-03    -172.991E-03    -171.466E-03     328.855E-03    -157.602E-03     55.3103E-03     54.6234E+06     13.6188E+06    -40.1872E+06    -32.5615E+06     5.99305E+06     54.6234E+06    -17.9385E+06         57.5886
            1936     11.9561E-03     137.597E-03     899.450E-03    -24.8090E-03    -599.539E-03     371.806E-03    -150.853E-03     54.1489E-03     12.6287E-03     333.587E-03    -158.733E-03    -175.028E-03    -173.535E-03     332.094E-03    -158.733E-03     55.0207E-03     72.6171E+06     48.1797E+06    -28.0737E+06    -24.8573E+06     51.6872E+06     65.8932E+06    -14.1160E+06         61.6824
            1937     12.7956E-03     137.660E-03         1.12946    -16.0023E-03        -3.19276        -2.12383     48.2585E-03    -3.72707E-03     258.260E-03     338.634E-03    -159.824E-03    -178.696E-03    -176.978E-03     336.915E-03    -159.824E-03     59.3920E-03     86.2460E+06     75.6730E+06    -20.6063E+06    -19.3716E+06     83.0541E+06     77.6302E+06    -10.9233E+06         66.4454
            1938     13.6323E-03     137.742E-03         20.9967     404.597E-03        -3.81849         17.0961     69.8342E-03     416.872E-03        -7.20739     341.501E-03    -160.987E-03    -180.441E-03    -178.110E-03     339.171E-03    -160.987E-03     69.1925E-03     99.7129E+06     87.2351E+06    -14.9457E+06    -14.4799E+06     94.1963E+06     92.2858E+06    -5.29714E+06         71.4870
            1939     14.4761E-03     137.836E-03         20.8916    -591.278E-03        -47.3702        -26.2643    -941.576E-03     136.001E-03    -662.145E-03     342.969E-03    -162.305E-03    -180.850E-03    -178.800E-03     340.919E-03    -162.305E-03     64.3404E-03     135.127E+06     103.844E+06    -6.70267E+06    -6.59483E+06     109.271E+06     129.592E+06    -2.30185E+06         75.5022
            1940     867.010E-06     138.390E-03     81.3636E-03     41.9661E-03    -142.064E-03     14.3528E-03    -91.6080E-03     58.5205E-03     49.8990E-03     284.334E-03    -141.045E-03    -143.269E-03    -143.009E-03     284.262E-03    -141.233E-03     9.29251E-03    -132.285E+06    -135.576E+06    -216.312E+06    -134.822E+06    -215.972E+06    -133.380E+06    -5.24705E+06         42.1626
            1941     1.73525E-03     138.403E-03     76.1384E-03     36.1552E-03    -133.116E-03     63.8191E-03    -126.923E-03     42.2807E-03    -14.6696E-03     286.223E-03    -142.250E-03    -143.928E-03    -143.534E-03     286.016E-03    -142.437E-03     18.5031E-03    -120.838E+06    -132.227E+06    -200.667E+06    -133.117E+06    -199.778E+06    -120.838E+06    -6.97155E+06         42.2814
            1942     2.60271E-03     138.428E-03     81.7631E-03     45.3814E-03    -150.543E-03     73.4455E-03    -148.351E-03     51.5069E-03     29.3922E-03     288.997E-03    -143.172E-03    -145.817E-03    -145.427E-03     288.608E-03    -143.172E-03     25.5649E-03    -101.233E+06    -125.612E+06    -183.808E+06    -128.186E+06    -181.235E+06    -101.233E+06    -11.1985E+06         42.4629
            1943     3.46697E-03     138.462E-03     78.3783E-03     57.5420E-03    -158.517E-03     77.0466E-03    -157.186E-03     57.5420E-03     13.2242E-03     292.776E-03    -144.124E-03    -148.499E-03    -147.898E-03     292.175E-03    -144.124E-03     32.2788E-03    -77.6829E+06    -113.964E+06    -165.056E+06    -118.785E+06    -160.234E+06    -77.6829E+06    -14.5014E+06         42.7181
            1944     4.32711E-03     138.497E-03     70.9243E-03     59.3778E-03    -151.245E-03     68.8662E-03    -150.536E-03     60.7264E-03    -246.779E-06     296.737E-03    -145.195E-03    -151.416E-03    -150.530E-03     295.852E-03    -145.195E-03     39.5753E-03    -52.2412E+06    -100.418E+06    -143.829E+06    -108.149E+06    -136.098E+06    -52.2412E+06    -16.2614E+06         43.0614
            1945     5.18508E-03     138.546E-03     61.4795E-03     52.2265E-03    -133.980E-03     51.5702E-03    -132.634E-03     60.7902E-03    -4.21773E-03     300.513E-03    -146.317E-03    -154.317E-03    -153.113E-03     299.309E-03    -146.317E-03     46.4899E-03    -29.0536E+06    -87.0789E+06    -127.373E+06    -99.3952E+06    -115.057E+06    -29.0536E+06    -18.2276E+06         43.4762
            1946     6.04095E-03     138.594E-03     59.3599E-03     49.8558E-03    -130.127E-03     49.0569E-03    -129.329E-03     59.3599E-03    -2.17906E-03     305.580E-03    -147.522E-03    -158.159E-03    -156.705E-03     304.125E-03    -147.522E-03     51.4372E-03    -8.33969E+06    -71.2119E+06    -113.497E+06    -88.9071E+06    -95.8017E+06    -8.33969E+06    -20.5942E+06         44.0164
            1947     6.89586E-03     138.641E-03     64.8428E-03     56.6243E-03    -135.357E-03     61.9558E-03    -134.759E-03     58.9133E-03     15.8876E-03     311.607E-03    -148.936E-03    -162.621E-03    -160.919E-03     309.906E-03    -148.936E-03     56.4185E-03     7.39816E+06    -56.1116E+06    -101.445E+06    -78.9949E+06    -78.5616E+06     7.39816E+06    -22.2680E+06         44.9236
            1948     7.74645E-03     138.699E-03     71.0193E-03     55.3617E-03    -135.562E-03     66.2793E-03    -135.010E-03     59.5503E-03     5.31092E-03     316.931E-03    -150.527E-03    -166.377E-03    -164.621E-03     315.175E-03    -150.527E-03     58.0192E-03     19.1019E+06    -45.2784E+06    -91.4666E+06    -71.3747E+06    -65.3704E+06     19.1019E+06    -22.5576E+06         46.4108
            1949     8.59439E-03     138.756E-03     60.9676E-03    -26.1060E-03    -144.273E-03    -35.9805E-03    -128.859E-03     55.4281E-03    -17.6771E-03     321.903E-03    -152.158E-03    -169.952E-03    -168.282E-03     320.233E-03    -152.158E-03     57.0575E-03     28.9891E+06    -34.1097E+06    -80.7813E+06    -62.6511E+06    -52.2400E+06     28.9891E+06    -22.3083E+06         48.4985
            1950     9.43694E-03     138.807E-03     180.247E-03    -24.8903E-03    -126.257E-03     87.2071E-03    -110.563E-03     52.4552E-03     578.220E-06     326.511E-03    -153.640E-03    -172.840E-03    -171.165E-03     324.836E-03    -153.640E-03     57.5817E-03     38.3763E+06    -19.2572E+06    -66.6329E+06    -52.6358E+06    -33.2543E+06     38.3763E+06    -21.0137E+06         51.1414
            1951     10.2807E-03     138.863E-03     266.580E-03     62.2497E-03    -103.350E-03     264.197E-03    -100.967E-03     62.2497E-03     11.1923E-03     329.742E-03    -155.108E-03    -174.534E-03    -172.801E-03     328.009E-03    -155.108E-03     58.9187E-03     45.1555E+06    -4.93397E+06    -55.1984E+06    -45.0685E+06    -15.0638E+06     45.1555E+06    -19.9133E+06         54.3102
            1952     11.1232E-03     138.926E-03     129.548E-03    -20.6660E-03    -573.091E-03    -407.775E-03    -109.445E-03     53.0102E-03    -51.2467E-03     332.858E-03    -156.640E-03    -176.312E-03    -174.668E-03     331.215E-03    -156.640E-03     57.6819E-03     49.7717E+06     13.0128E+06    -47.3324E+06    -39.0833E+06     4.76368E+06     49.7717E+06    -19.9564E+06         57.9825
            1953     11.9629E-03     138.990E-03         1.07365    -21.3114E-03    -572.402E-03     538.257E-03    -110.687E-03     52.3648E-03    -69.2304E-03     336.982E-03    -158.114E-03    -178.954E-03    -177.413E-03     335.440E-03    -158.114E-03     56.3093E-03     63.5378E+06     44.8165E+06    -35.7119E+06    -30.9681E+06     44.8288E+06     58.7817E+06    -17.9398E+06         62.1377
            1954     12.7999E-03     139.065E-03         1.04674    -49.8511E-03        -2.54241        -1.35704    -213.940E-03     25.4534E-03     799.193E-03     340.763E-03    -159.447E-03    -181.272E-03    -179.626E-03     339.116E-03    -159.447E-03     58.5074E-03     80.4275E+06     71.2478E+06    -26.5197E+06    -24.8435E+06     76.2196E+06     73.7795E+06    -12.5528E+06         66.9474
            1955     13.6375E-03     139.144E-03         5.45936    -8.07898E-03        -2.54654         2.91724    -79.7205E-03     67.2255E-03    -840.406E-03     343.913E-03    -160.860E-03    -182.930E-03    -180.915E-03     341.898E-03    -160.860E-03     64.8619E-03     97.1888E+06     85.8914E+06    -20.3660E+06    -19.8897E+06     87.3069E+06     95.2970E+06    -5.65615E+06         72.0119
            1956     14.4687E-03     139.242E-03         6.02587     76.7293E-03        -7.88822        -2.49902     636.669E-03     76.7293E-03        -1.77652     344.626E-03    -162.272E-03    -182.465E-03    -180.657E-03     342.817E-03    -162.272E-03     61.0493E-03     136.639E+06     103.509E+06    -10.0110E+06    -9.90524E+06     103.403E+06     136.639E+06    -581.615E+03         76.0300
            1957     872.092E-06     139.714E-03     92.0289E-03     66.2632E-03    -187.698E-03     54.1983E-03    -172.906E-03     89.3009E-03     4.63970E-03     281.489E-03    -139.570E-03    -141.917E-03    -141.859E-03     281.432E-03    -139.570E-03     7.45095E-03    -134.373E+06    -139.804E+06    -208.469E+06    -138.922E+06    -208.256E+06    -135.468E+06    -3.59864E+06         41.9518
            1958     1.73782E-03     139.733E-03     70.0699E-03     54.7128E-03    -150.219E-03     48.7329E-03    -141.511E-03     67.3419E-03    -29.2628E-03     284.225E-03    -141.188E-03    -143.116E-03    -142.939E-03     284.048E-03    -141.188E-03     16.8190E-03    -122.331E+06    -134.981E+06    -189.926E+06    -135.390E+06    -189.516E+06    -122.331E+06    -4.25945E+06         42.0533
            1959     2.60227E-03     139.760E-03     64.7979E-03     39.1719E-03    -132.532E-03     41.0522E-03    -129.483E-03     59.8685E-03     40.1103E-03     286.426E-03    -141.988E-03    -144.569E-03    -144.211E-03     286.068E-03    -141.988E-03     24.4312E-03    -101.696E+06    -127.815E+06    -171.820E+06    -129.539E+06    -170.096E+06    -101.696E+06    -7.59216E+06         42.2219
            1960     3.46728E-03     139.797E-03     71.0417E-03     41.7757E-03    -140.522E-03     54.7480E-03    -139.108E-03     56.6547E-03     11.0755E-03     289.235E-03    -142.787E-03    -146.424E-03    -145.769E-03     288.580E-03    -142.787E-03     33.1432E-03    -80.1168E+06    -118.662E+06    -155.692E+06    -123.450E+06    -150.904E+06    -80.1168E+06    -11.3787E+06         42.4539
            1961     4.33090E-03     139.840E-03     70.3550E-03     50.1019E-03    -146.640E-03     63.2535E-03    -146.350E-03     56.9134E-03    -11.1930E-03     292.042E-03    -143.675E-03    -148.401E-03    -147.382E-03     291.023E-03    -143.675E-03     41.9828E-03    -57.3220E+06    -105.792E+06    -138.452E+06    -115.653E+06    -128.592E+06    -57.3220E+06    -14.0528E+06         42.7494
            1962     5.19549E-03     139.889E-03     70.7203E-03     55.0496E-03    -147.493E-03     66.7734E-03    -146.493E-03     57.9963E-03    -23.9062E-03     295.090E-03    -144.497E-03    -150.656E-03    -149.286E-03     293.720E-03    -144.497E-03     49.2168E-03    -32.6956E+06    -89.8344E+06    -122.510E+06    -105.369E+06    -106.975E+06    -32.6956E+06    -15.5714E+06         43.1278
            1963     6.05960E-03     139.946E-03     67.4789E-03     54.9166E-03    -140.376E-03     62.0806E-03    -138.800E-03     58.7388E-03    -24.0444E-03     300.627E-03    -145.458E-03    -155.262E-03    -153.568E-03     298.933E-03    -145.458E-03     55.4215E-03    -12.1161E+06    -74.4047E+06    -110.275E+06    -96.4304E+06    -88.2489E+06    -12.1161E+06    -16.5031E+06         43.7263
            1964     6.91393E-03     140.008E-03     60.3271E-03     57.8528E-03    -130.414E-03     57.4686E-03    -128.431E-03     58.7283E-03    -8.10922E-03     307.945E-03    -146.796E-03    -161.133E-03    -159.154E-03     305.967E-03    -146.796E-03     60.7603E-03     3.31607E+06    -59.1584E+06    -101.214E+06    -89.0571E+06    -71.3155E+06     3.31607E+06    -18.0507E+06         44.7854
            1965     7.76281E-03     140.072E-03     59.7257E-03     52.8184E-03    -123.856E-03     51.8793E-03    -121.318E-03     58.1269E-03    -18.3527E-03     313.734E-03    -148.406E-03    -165.337E-03    -163.165E-03     311.562E-03    -148.406E-03     64.2698E-03     14.8444E+06    -46.1961E+06    -93.6271E+06    -80.6460E+06    -59.1773E+06     14.8444E+06    -20.6776E+06         46.4296
            1966     8.61105E-03     140.130E-03     53.1137E-03    -27.7766E-03    -124.212E-03    -38.7782E-03    -113.210E-03     53.1137E-03    -9.16047E-03     319.495E-03    -150.145E-03    -169.588E-03    -167.334E-03     317.241E-03    -150.145E-03     66.0592E-03     23.4981E+06    -34.0953E+06    -85.5338E+06    -71.8903E+06    -47.7388E+06     23.4981E+06    -22.5387E+06         48.6449
            1967     9.45752E-03     140.195E-03     223.745E-03    -23.2649E-03    -119.873E-03     138.077E-03    -109.787E-03     52.3169E-03     17.1334E-03     326.693E-03    -151.806E-03    -174.855E-03    -172.666E-03     324.504E-03    -151.806E-03     65.9768E-03     31.1930E+06    -18.9989E+06    -74.8222E+06    -62.5388E+06    -31.2823E+06     31.1930E+06    -22.9978E+06         51.3941
            1968     10.2973E-03     140.256E-03     231.277E-03     14.5333E-03    -154.699E-03     147.726E-03    -116.190E-03     59.5747E-03    -34.4123E-03     332.255E-03    -153.650E-03    -178.834E-03    -176.809E-03     330.229E-03    -153.650E-03     64.1868E-03     38.6011E+06    -3.67300E+06    -62.9352E+06    -52.7470E+06    -13.8611E+06     38.6011E+06    -22.1686E+06         54.6485
            1969     11.1349E-03     140.326E-03     48.5023E-03    -54.4751E-03    -396.798E-03    -344.297E-03    -106.701E-03     48.2277E-03    -32.5158E-03     337.202E-03    -155.609E-03    -181.846E-03    -179.916E-03     335.272E-03    -155.609E-03     63.0774E-03     45.1067E+06     15.3042E+06    -52.3138E+06    -43.8324E+06     6.82286E+06     45.1067E+06    -22.1150E+06         58.3899
            1970     11.9687E-03     140.399E-03     855.506E-03    -7.01467E-03    -321.812E-03     545.705E-03    -69.6735E-03     50.6468E-03     8.81307E-03     341.596E-03    -157.450E-03    -183.948E-03    -182.135E-03     339.783E-03    -157.450E-03     61.4973E-03     57.0769E+06     42.2463E+06    -42.6949E+06    -37.2686E+06     41.1742E+06     52.7227E+06    -19.6548E+06         62.6037
            1971     12.8035E-03     140.473E-03     855.665E-03    -39.1381E-03        -1.35174    -478.288E-03    -107.728E-03     50.8060E-03     116.713E-03     344.084E-03    -159.138E-03    -184.736E-03    -182.912E-03     342.260E-03    -159.138E-03     61.8817E-03     74.4421E+06     64.1204E+06    -29.4227E+06    -27.5463E+06     66.5982E+06     70.0879E+06    -13.0104E+06         67.4521
            1972     13.6362E-03     140.558E-03         1.75933    -44.9807E-03        -1.42051     418.981E-03    -170.114E-03     44.9634E-03     8.73379E-03     346.942E-03    -160.764E-03    -186.136E-03    -183.834E-03     344.639E-03    -160.764E-03     69.5545E-03     92.4931E+06     75.6768E+06    -17.8006E+06    -17.0579E+06     74.9341E+06     92.4931E+06    -7.74653E+06         72.5246
            1973     14.4697E-03     140.660E-03         1.85514     6.61230E-03        -2.07479    -243.125E-03    -17.3218E-03     47.4170E-03    -134.200E-03     345.961E-03    -162.266E-03    -183.940E-03    -181.951E-03     343.973E-03    -162.266E-03     63.7907E-03     139.145E+06     98.4357E+06    -7.66234E+06    -7.42552E+06     98.1989E+06     139.145E+06    -3.21796E+06         76.5382
            1974     866.480E-06     141.039E-03     77.7492E-03     58.1668E-03    -169.621E-03     59.5085E-03    -166.199E-03     72.9854E-03    -14.0483E-03     282.358E-03    -140.230E-03    -142.134E-03    -140.600E-03     282.299E-03    -141.705E-03     7.83824E-03    -147.005E+06    -151.778E+06    -202.783E+06    -151.315E+06    -202.650E+06    -147.601E+06    -1.52661E+06         41.8308
            1975     1.73619E-03     141.060E-03     69.0544E-03     56.6792E-03    -153.959E-03     58.0217E-03    -150.538E-03     64.2906E-03    -26.9869E-03     283.079E-03    -141.058E-03    -142.129E-03    -141.717E-03     282.888E-03    -141.279E-03     17.2930E-03    -134.316E+06    -146.593E+06    -184.759E+06    -146.878E+06    -184.475E+06    -134.316E+06    -2.76686E+06         41.9090
            1976     2.60521E-03     141.092E-03     59.5745E-03     43.7047E-03    -131.057E-03     41.7839E-03    -128.945E-03     59.3835E-03    -9.17261E-03     284.456E-03    -141.534E-03    -143.014E-03    -142.621E-03     284.063E-03    -141.534E-03     25.6292E-03    -112.705E+06    -139.693E+06    -164.259E+06    -140.758E+06    -163.194E+06    -112.705E+06    -3.37328E+06         42.0413
            1977     3.47233E-03     141.129E-03     54.9574E-03     39.4135E-03    -119.977E-03     39.3201E-03    -119.218E-03     54.2926E-03    -14.6299E-03     285.600E-03    -141.936E-03    -143.682E-03    -142.988E-03     284.906E-03    -141.936E-03     34.0224E-03    -86.8585E+06    -129.179E+06    -147.021E+06    -133.690E+06    -142.510E+06    -86.8585E+06    -5.49248E+06         42.2300
            1978     4.34032E-03     141.180E-03     58.8468E-03     45.4189E-03    -126.547E-03     51.6467E-03    -126.158E-03     52.2304E-03    -11.7394E-03     287.530E-03    -142.381E-03    -145.257E-03    -144.207E-03     286.480E-03    -142.381E-03     42.3767E-03    -63.3844E+06    -112.284E+06    -135.268E+06    -127.077E+06    -120.476E+06    -63.3844E+06    -8.56637E+06         42.4877
            1979     5.20459E-03     141.233E-03     68.1476E-03     53.2534E-03    -138.466E-03     67.2587E-03    -137.577E-03     53.2534E-03    -6.34403E-03     291.919E-03    -142.962E-03    -148.899E-03    -147.525E-03     290.546E-03    -142.962E-03     49.0447E-03    -40.1528E+06    -92.7530E+06    -124.515E+06    -117.396E+06    -99.8715E+06    -40.1528E+06    -11.5279E+06         42.8551
            1980     6.06405E-03     141.294E-03     63.7564E-03     53.9766E-03    -131.603E-03     61.6631E-03    -130.282E-03     54.7494E-03    -6.58139E-03     297.134E-03    -143.919E-03    -153.181E-03    -151.428E-03     295.381E-03    -143.919E-03     55.9233E-03    -19.7627E+06    -75.7339E+06    -114.149E+06    -107.741E+06    -82.1419E+06    -19.7627E+06    -13.7233E+06         43.5194
            1981     6.92360E-03     141.370E-03     56.1682E-03     54.1366E-03    -122.611E-03     53.1250E-03    -120.341E-03     54.9094E-03    -7.31714E-03     302.276E-03    -145.093E-03    -157.237E-03    -155.133E-03     300.172E-03    -145.093E-03     61.9506E-03    -2.96081E+06    -57.7097E+06    -104.109E+06    -97.6984E+06    -64.1201E+06    -2.96081E+06    -15.9577E+06         44.7113
            1982     7.78117E-03     141.437E-03     55.0138E-03     45.5242E-03    -117.343E-03     43.3793E-03    -114.194E-03     54.0104E-03    -8.57103E-03     308.638E-03    -146.408E-03    -162.210E-03    -159.861E-03     306.289E-03    -146.408E-03     66.3149E-03     11.3413E+06    -40.9127E+06    -94.1623E+06    -85.5158E+06    -49.5593E+06     11.3413E+06    -19.3910E+06         46.4912
            1983     8.63292E-03     141.507E-03     50.1583E-03    -9.01108E-03    -110.433E-03    -13.3424E-03    -106.102E-03     50.1583E-03     5.25684E-03     316.851E-03    -148.028E-03    -168.874E-03    -166.361E-03     314.337E-03    -148.028E-03     69.6881E-03     19.7820E+06    -28.0087E+06    -86.9369E+06    -75.1616E+06     -39.784E+06     19.7820E+06    -23.3321E+06         48.8197
            1984     9.47646E-03     141.583E-03     201.600E-03     489.371E-06    -108.431E-03     147.572E-03    -105.085E-03     51.1726E-03    -4.22477E-03     325.920E-03    -149.901E-03    -176.017E-03    -173.488E-03     323.392E-03    -149.901E-03     71.0158E-03     26.6461E+06    -14.0225E+06    -78.2276E+06    -65.4504E+06    -26.7998E+06     26.6461E+06    -25.5849E+06         51.6641
            1985     10.3140E-03     141.658E-03     203.597E-03    -22.8854E-03    -235.343E-03     3.30710E-03    -111.108E-03     53.1688E-03    -68.5695E-03     333.977E-03    -152.026E-03    -182.238E-03    -179.864E-03     331.603E-03    -152.026E-03     69.7307E-03     33.5258E+06     635.796E+03    -67.9673E+06    -55.8961E+06    -11.4354E+06     33.5258E+06    -26.1046E+06         54.9987
            1986     11.1474E-03     141.727E-03     139.073E-03    -64.6700E-03    -270.666E-03    -136.841E-03    -103.549E-03     44.1278E-03     19.8717E-03     340.313E-03    -154.327E-03    -186.360E-03    -184.018E-03     337.971E-03    -154.327E-03     69.9973E-03     41.2121E+06     18.2975E+06    -56.7912E+06    -47.2078E+06     8.71409E+06     41.2121E+06    -24.6062E+06         58.8088
            1987     11.9806E-03     141.812E-03     512.740E-03     17.7248E-03    -139.919E-03     431.641E-03    -91.5643E-03     50.4685E-03     35.2693E-03     344.498E-03    -156.565E-03    -187.884E-03    -185.641E-03     342.255E-03    -156.565E-03     68.8065E-03     54.2691E+06     43.2820E+06    -44.0050E+06    -37.8066E+06     39.9233E+06     51.4294E+06    -22.0926E+06         63.0895
            1988     12.8096E-03     141.884E-03     416.061E-03    -2.18482E-03    -849.125E-03    -403.308E-03    -80.6767E-03     48.7346E-03    -96.3034E-03     347.575E-03    -158.521E-03    -188.859E-03    -186.549E-03     345.264E-03    -158.521E-03     70.0365E-03     66.3523E+06     56.0255E+06    -31.5697E+06    -27.9228E+06     55.2183E+06     63.5126E+06    -17.0195E+06         67.9798
            1989     13.6425E-03     141.974E-03         1.12875    -8.93684E-03    -833.146E-03     313.151E-03    -68.4712E-03     41.9825E-03    -28.1356E-03     349.013E-03    -160.291E-03    -188.732E-03    -186.005E-03     346.287E-03    -160.291E-03     76.2816E-03     84.7458E+06     64.0072E+06    -17.4069E+06    -15.8234E+06     62.4238E+06     84.7458E+06    -10.6798E+06         73.0451
            1990     14.4755E-03     142.072E-03         1.13280    -73.7625E-03        -1.24559    -96.9500E-03    -135.638E-03     46.0419E-03     42.2152E-03     348.614E-03    -161.966E-03    -186.933E-03    -184.787E-03     346.468E-03    -161.966E-03     66.5747E-03     137.025E+06     92.4224E+06    -3.31030E+06    -2.68175E+06     91.7939E+06     137.025E+06    -6.43466E+06         77.0358
            1991     868.485E-06     142.367E-03     73.2048E-03     27.5415E-03    -110.174E-03     28.8488E-03    -108.682E-03     70.4059E-03     4.00698E-03     282.755E-03    -140.450E-03    -142.325E-03    -140.781E-03     282.686E-03    -141.926E-03     9.53878E-03    -172.749E+06    -180.580E+06    -204.178E+06    -180.788E+06    -197.310E+06    -179.409E+06    -3.23800E+06         41.7900
            1992     1.73661E-03     142.385E-03     54.8931E-03     40.5050E-03    -117.255E-03     45.2684E-03    -115.759E-03     48.6336E-03    -3.84973E-03     282.397E-03    -141.039E-03    -141.416E-03    -140.980E-03     282.182E-03    -141.260E-03     18.5368E-03    -159.586E+06    -169.578E+06    -191.513E+06    -175.915E+06    -180.782E+06    -163.980E+06    -3.30858E+06         41.8454
            1993     2.60438E-03     142.419E-03     60.7358E-03     47.5683E-03    -133.803E-03     55.0884E-03    -129.264E-03     48.6761E-03     12.0929E-03     283.277E-03    -141.266E-03    -141.881E-03    -141.500E-03     282.896E-03    -141.266E-03     25.3360E-03    -136.694E+06    -154.979E+06    -174.155E+06    -167.048E+06    -160.399E+06    -138.381E+06    -4.42245E+06         41.9422
            1994     3.47251E-03     142.458E-03     62.8304E-03     50.7502E-03    -132.266E-03     59.2198E-03    -128.656E-03     50.7502E-03     15.6994E-03     284.355E-03    -141.565E-03    -142.628E-03    -142.069E-03     283.796E-03    -141.565E-03     30.7186E-03    -107.221E+06    -136.304E+06    -156.330E+06    -154.565E+06    -138.069E+06    -107.221E+06    -4.57646E+06         42.0975
            1995     4.34092E-03     142.504E-03     58.4386E-03     48.6280E-03    -123.243E-03     54.5936E-03    -122.879E-03     52.1094E-03    -11.4164E-03     285.894E-03    -141.866E-03    -144.139E-03    -143.280E-03     285.036E-03    -141.866E-03     38.1370E-03    -75.6647E+06    -111.739E+06    -141.817E+06    -140.585E+06    -112.970E+06    -75.6647E+06    -5.78112E+06         42.3228
            1996     5.20794E-03     142.567E-03     54.6728E-03     43.7533E-03    -113.726E-03     45.1992E-03    -112.313E-03     51.8134E-03     6.37761E-03     289.305E-03    -142.258E-03    -147.039E-03    -145.781E-03     288.047E-03    -142.258E-03     46.5963E-03    -50.0190E+06    -90.2217E+06    -131.338E+06    -129.230E+06    -92.3298E+06    -50.0190E+06    -8.74313E+06         42.6989
            1997     6.07146E-03     142.637E-03     51.5977E-03     46.0780E-03    -110.560E-03     44.0536E-03    -107.594E-03     50.6566E-03     3.44273E-03     293.353E-03    -142.981E-03    -150.291E-03    -148.555E-03     291.617E-03    -142.981E-03     55.1886E-03    -27.6020E+06    -69.1145E+06    -120.198E+06    -115.987E+06    -73.3258E+06    -27.6020E+06    -13.6362E+06         43.4385
            1998     6.93313E-03     142.712E-03     53.7226E-03     49.9506E-03    -113.969E-03     50.5650E-03    -110.811E-03     49.9506E-03    -10.1535E-03     297.870E-03    -143.933E-03    -153.995E-03    -151.876E-03     295.752E-03    -143.933E-03     61.6890E-03    -8.39341E+06    -48.0621E+06    -107.311E+06    -100.470E+06    -54.9030E+06    -8.39341E+06    -18.8712E+06         44.7319
            1999     7.79128E-03     142.791E-03     52.1126E-03     41.8979E-03    -109.830E-03     42.2691E-03    -107.352E-03     49.2641E-03    -2.42483E-03     305.095E-03    -145.068E-03    -159.969E-03    -157.611E-03     302.737E-03    -145.068E-03     66.0294E-03     6.15801E+06    -30.4552E+06    -96.1083E+06    -86.6126E+06    -39.9509E+06     6.15801E+06    -22.9852E+06         46.6063
            2000     8.64297E-03     142.876E-03     47.2864E-03     22.8608E-03    -106.652E-03     20.0986E-03    -103.883E-03     47.2802E-03     10.4978E-03     314.172E-03    -146.603E-03    -167.535E-03    -165.019E-03     311.656E-03    -146.603E-03     69.4318E-03     17.6895E+06    -17.2645E+06    -85.9705E+06    -73.3290E+06    -29.9060E+06     17.6895E+06    -26.4597E+06         49.0171
            2001     9.48952E-03     142.963E-03     136.977E-03     31.7225E-03    -106.577E-03     116.976E-03    -103.630E-03     48.7757E-03    -12.9670E-03     323.340E-03    -148.600E-03    -174.877E-03    -172.241E-03     320.703E-03    -148.600E-03     72.2908E-03     25.7810E+06    -6.40216E+06    -76.6278E+06    -61.6831E+06    -21.3468E+06     25.7810E+06    -28.7036E+06         51.9345
            2002     10.3311E-03     143.051E-03     134.808E-03    -11.9359E-03    -244.438E-03    -76.3618E-03    -91.8100E-03     46.6066E-03    -35.5472E-03     332.604E-03    -150.656E-03    -182.047E-03    -179.426E-03     329.983E-03    -150.656E-03     73.2449E-03     33.6235E+06     7.92541E+06    -66.5580E+06    -51.9439E+06    -6.68865E+06     33.6235E+06    -29.4899E+06         55.3379
            2003     11.1642E-03     143.134E-03     274.172E-03    -16.4049E-03    -233.218E-03     59.7255E-03    -77.3141E-03     42.1375E-03     63.1936E-03     340.695E-03    -153.000E-03    -187.807E-03    -185.241E-03     338.129E-03    -153.000E-03     73.4679E-03     41.2695E+06     24.3400E+06    -55.5406E+06    -42.1970E+06     10.9964E+06     41.2695E+06    -29.5093E+06         59.2144
            2004     11.9934E-03     143.215E-03     334.816E-03     29.0730E-03    -247.959E-03     160.414E-03    -90.9957E-03     46.5118E-03    -46.1831E-03     346.080E-03    -155.509E-03    -190.699E-03    -188.308E-03     343.690E-03    -155.509E-03     71.3726E-03     51.4913E+06     42.7714E+06    -42.4538E+06    -32.7020E+06     34.5249E+06     49.9859E+06    -26.4636E+06         63.5598
            2005     12.8261E-03     143.295E-03     225.617E-03    -532.279E-06    -521.531E-03    -243.799E-03    -93.5584E-03     40.9110E-03    -29.2757E-03     350.400E-03    -157.709E-03    -192.593E-03    -190.263E-03     348.070E-03    -157.709E-03     70.8020E-03     63.7261E+06     52.1908E+06    -30.9495E+06    -24.3945E+06     47.1411E+06     62.2208E+06    -21.8547E+06         68.4849
            2006     13.6515E-03     143.390E-03     633.968E-03    -5.96500E-03    -381.324E-03     269.458E-03    -61.3082E-03     38.5292E-03     24.7387E-03     352.053E-03    -159.718E-03    -192.178E-03    -189.792E-03     349.667E-03    -159.718E-03     71.4928E-03     80.7319E+06     56.6798E+06    -20.0816E+06    -15.7918E+06     52.3900E+06     80.7319E+06    -16.1529E+06         73.5327
            2007     14.4823E-03     143.484E-03     568.791E-03    -57.6426E-03    -603.390E-03    -78.1547E-03    -55.9330E-03     41.8467E-03    -193.319E-03     351.624E-03    -161.656E-03    -190.011E-03    -188.101E-03     349.714E-03    -161.656E-03     63.6300E-03     131.383E+06     81.3648E+06    -8.13540E+06    -7.12052E+06     80.3499E+06     131.383E+06    -7.22784E+06         77.4951
            2008     867.819E-06     143.691E-03     83.7168E-03     22.4869E-03    -107.211E-03     22.1695E-03    -104.907E-03     81.7295E-03     27.5213E-03     283.213E-03    -140.641E-03    -142.589E-03    -142.547E-03     283.171E-03    -140.641E-03     7.19339E-03    -184.124E+06    -230.470E+06    -235.825E+06    -233.176E+06    -186.773E+06    -230.470E+06    -7.99206E+06         41.8658
            2009     1.73631E-03     143.710E-03     57.7620E-03     44.6471E-03    -110.768E-03     49.4230E-03    -109.449E-03     51.6680E-03     2.78097E-03     283.559E-03    -141.564E-03    -142.058E-03    -141.799E-03     283.405E-03    -141.669E-03     15.3570E-03    -169.127E+06    -211.108E+06    -225.764E+06    -223.759E+06    -171.132E+06    -211.108E+06    -10.1542E+06         41.9001
            2010     2.60488E-03     143.740E-03     64.6032E-03     48.4873E-03    -126.830E-03     55.9556E-03    -121.784E-03     52.0884E-03     35.3808E-03     283.600E-03    -141.523E-03    -142.075E-03    -141.482E-03     283.302E-03    -141.817E-03     22.0224E-03    -146.265E+06    -182.157E+06    -211.225E+06    -207.797E+06    -152.742E+06    -179.109E+06    -13.8848E+06         41.9769
            2011     3.47242E-03     143.780E-03     63.9785E-03     42.5079E-03    -124.174E-03     49.6546E-03    -119.905E-03     52.5631E-03     34.4354E-03     285.099E-03    -141.780E-03    -143.167E-03    -142.503E-03     284.624E-03    -141.968E-03     28.1852E-03    -120.496E+06    -149.728E+06    -192.124E+06    -187.112E+06    -132.842E+06    -142.394E+06    -16.7928E+06         42.1160
            2012     4.33750E-03     143.833E-03     53.9725E-03     36.9842E-03    -105.481E-03     39.3424E-03    -104.832E-03     50.9652E-03    -15.5438E-03     286.879E-03    -142.239E-03    -144.548E-03    -143.802E-03     286.133E-03    -142.239E-03     35.6084E-03    -90.6489E+06    -115.896E+06    -168.834E+06    -163.253E+06    -108.320E+06    -103.806E+06    -17.7902E+06         42.3115
            2013     5.20306E-03     143.894E-03     49.8100E-03     36.4559E-03    -98.8973E-03     36.5706E-03    -97.7634E-03     48.5614E-03    -3.56984E-03     288.148E-03    -142.662E-03    -145.572E-03    -144.498E-03     287.074E-03    -142.662E-03     42.9627E-03    -62.5944E+06    -83.0625E+06    -145.647E+06    -138.703E+06    -84.7122E+06    -67.8882E+06    -19.3862E+06         42.6863
            2014     6.07070E-03     143.967E-03     48.4568E-03     36.9256E-03    -100.648E-03     35.8102E-03    -97.6093E-03     46.5338E-03    -1.95367E-03     290.824E-03    -143.090E-03    -147.716E-03    -146.308E-03     289.415E-03    -143.090E-03     49.4701E-03    -37.8383E+06    -54.6608E+06    -124.651E+06    -115.927E+06    -63.1165E+06    -38.1064E+06    -22.1461E+06         43.4873
            2015     6.93472E-03     144.045E-03     47.4714E-03     34.2984E-03    -99.9298E-03     33.9338E-03    -96.9101E-03     44.8163E-03    -12.7478E-03     295.916E-03    -143.779E-03    -152.172E-03    -150.412E-03     294.156E-03    -143.779E-03     55.8880E-03    -13.8242E+06    -34.2986E+06    -106.794E+06    -96.2041E+06    -44.8881E+06    -13.8242E+06    -25.2813E+06         44.8537
            2016     7.79402E-03     144.136E-03     45.4472E-03     37.3224E-03    -105.501E-03     37.6980E-03    -103.890E-03     43.4604E-03    -12.7054E-03     303.076E-03    -144.841E-03    -158.247E-03    -156.116E-03     300.944E-03    -144.841E-03     62.4337E-03     3.62438E+06    -18.2785E+06    -93.9327E+06    -81.3274E+06    -30.8838E+06     3.62438E+06    -28.0558E+06         46.7815
            2017     8.64814E-03     144.233E-03     48.2300E-03     41.1146E-03    -108.856E-03     45.1259E-03    -107.468E-03     42.8306E-03    -7.20482E-03     311.154E-03    -146.194E-03    -164.867E-03    -162.445E-03     308.733E-03    -146.194E-03     67.6737E-03     16.5121E+06    -5.39741E+06    -84.9903E+06    -69.6623E+06    -20.7254E+06     16.5121E+06    -31.2635E+06         49.2363
            2018     9.49585E-03     144.329E-03     80.8548E-03     42.8097E-03    -103.091E-03     75.8571E-03    -99.1597E-03     43.8759E-03    -32.9196E-03     320.009E-03    -148.031E-03    -172.128E-03    -169.494E-03     317.376E-03    -148.031E-03     71.7981E-03     26.7091E+06     5.11385E+06    -76.9598E+06    -58.1410E+06    -13.7050E+06     26.7091E+06    -34.4639E+06         52.1931
            2019     10.3373E-03     144.432E-03     72.5929E-03    -6.66686E-03    -159.654E-03    -53.1642E-03    -81.5712E-03     41.0072E-03    -4.07922E-03     329.641E-03    -149.944E-03    -179.626E-03    -176.892E-03     326.908E-03    -149.944E-03     74.3857E-03     35.1825E+06     18.0296E+06    -65.9163E+06    -45.6848E+06    -2.20189E+06     35.1825E+06    -35.6745E+06         55.6338
            2020     11.1745E-03     144.528E-03     258.064E-03    -7.36327E-03    -153.413E-03     133.620E-03    -76.6428E-03     40.3108E-03     35.0987E-03     338.763E-03    -152.087E-03    -186.429E-03    -183.827E-03     336.161E-03    -152.087E-03     73.6818E-03     42.8354E+06     30.1393E+06    -53.3491E+06    -34.9559E+06     11.7461E+06     42.8354E+06    -34.3191E+06         59.5481
            2021     12.0063E-03     144.621E-03     257.183E-03    -1.34911E-03    -366.529E-03    -77.1240E-03    -73.0007E-03     39.4297E-03    -57.2156E-03     346.921E-03    -154.599E-03    -192.276E-03    -189.877E-03     344.522E-03    -154.599E-03     71.6736E-03     50.5705E+06     41.5773E+06    -40.7150E+06    -27.1139E+06     27.9762E+06     50.5705E+06    -29.6916E+06         63.9383
            2022     12.8277E-03     144.711E-03     408.226E-03    -4.82990E-03    -374.342E-03     61.2126E-03    -68.1078E-03     35.9489E-03     12.0462E-03     352.530E-03    -157.051E-03    -195.481E-03    -193.152E-03     350.201E-03    -157.051E-03     71.1816E-03     64.1369E+06     50.8751E+06    -29.5636E+06    -20.7141E+06     42.0257E+06     64.1369E+06    -23.8255E+06         68.9010
            2023     13.6536E-03     144.810E-03     408.368E-03    -16.7100E-03    -418.125E-03     20.1670E-03    -82.7247E-03     36.0916E-03     40.1118E-03     354.556E-03    -159.324E-03    -195.266E-03    -192.868E-03     352.158E-03    -159.324E-03     72.0102E-03     80.8414E+06     46.4869E+06    -21.3357E+06    -16.2356E+06     41.3869E+06     80.8414E+06    -16.8314E+06         73.9555
            2024     14.4757E-03     144.902E-03     409.919E-03    -18.6132E-03    -379.646E-03    -4.87217E-03    -17.6557E-03     34.1884E-03    -68.8408E-03     354.607E-03    -161.453E-03    -193.186E-03    -191.077E-03     352.497E-03    -161.453E-03     67.1769E-03     129.723E+06     65.6762E+06    -9.78998E+06    -8.08781E+06     63.9740E+06     129.723E+06    -7.67540E+06         77.9089
            2025     867.366E-06     145.023E-03     95.1336E-03     21.4573E-03    -123.427E-03     18.8356E-03    -118.818E-03     93.1463E-03     38.4387E-03     286.579E-03    -142.022E-03    -144.588E-03    -144.547E-03     286.538E-03    -142.022E-03     8.02008E-03    -161.695E+06    -237.161E+06    -243.892E+06    -242.250E+06    -163.171E+06    -237.326E+06    -9.24525E+06         42.1494
            2026     1.73098E-03     145.038E-03     55.9885E-03     49.3757E-03    -109.590E-03     42.6827E-03    -100.264E-03     53.3551E-03    -28.6683E-03     287.482E-03    -143.305E-03    -144.216E-03    -143.979E-03     287.397E-03    -143.458E-03     11.6750E-03    -144.822E+06    -219.191E+06    -238.230E+06    -233.246E+06    -149.806E+06    -219.191E+06    -19.8461E+06         42.1788
            2027     2.59749E-03     145.068E-03     51.3001E-03     43.2714E-03    -101.183E-03     33.7683E-03    -88.2692E-03     47.8892E-03    -43.4166E-03     286.682E-03    -143.135E-03    -143.725E-03    -142.959E-03     286.506E-03    -143.725E-03     17.1697E-03    -125.347E+06    -192.075E+06    -226.594E+06    -217.834E+06    -134.107E+06    -192.075E+06    -27.5596E+06         42.2328
            2028     3.46535E-03     145.107E-03     53.8134E-03     34.1714E-03    -97.3223E-03     38.8791E-03    -92.4433E-03     44.2265E-03    -20.0047E-03     287.149E-03    -143.098E-03    -144.219E-03    -143.274E-03     286.818E-03    -143.713E-03     23.4384E-03    -104.235E+06    -159.742E+06    -212.121E+06    -198.879E+06    -117.477E+06    -159.742E+06    -34.8957E+06         42.3458
            2029     4.33221E-03     145.161E-03     55.0001E-03     32.5167E-03    -95.7049E-03     43.3214E-03    -94.5258E-03     43.0162E-03    -22.2550E-03     288.710E-03    -143.573E-03    -145.097E-03    -144.389E-03     288.179E-03    -143.751E-03     29.7978E-03    -81.1415E+06    -126.407E+06    -193.068E+06    -175.884E+06    -98.3257E+06    -126.407E+06    -39.8408E+06         42.5229
            2030     5.19775E-03     145.222E-03     50.0763E-03     38.8382E-03    -93.2497E-03     45.3578E-03    -92.5767E-03     42.8838E-03    -4.04955E-03     290.370E-03    -144.175E-03    -146.300E-03    -145.527E-03     289.597E-03    -144.175E-03     36.0918E-03    -57.2256E+06    -92.0992E+06    -169.492E+06    -150.814E+06    -75.9037E+06    -92.0992E+06    -41.4257E+06         42.8854
            2031     6.06117E-03     145.297E-03     44.4653E-03     35.5860E-03    -89.0781E-03     36.7148E-03    -88.1762E-03     42.4346E-03     8.67743E-03     292.690E-03    -144.627E-03    -148.223E-03    -147.208E-03     291.674E-03    -144.627E-03     41.8938E-03    -33.7000E+06    -59.8978E+06    -146.851E+06    -126.832E+06    -54.2969E+06    -59.3197E+06    -42.9660E+06         43.7017
            2032     6.92451E-03     145.382E-03     40.6822E-03     24.9126E-03    -84.5862E-03     22.7365E-03    -82.4101E-03     40.6822E-03    -1.79493E-03     296.553E-03    -145.157E-03    -151.480E-03    -150.181E-03     295.254E-03    -145.157E-03     47.8615E-03    -12.4139E+06    -34.2412E+06    -124.793E+06    -103.363E+06    -38.6951E+06    -29.3898E+06    -42.8233E+06         45.0897
            2033     7.78351E-03     145.482E-03     38.3094E-03     23.3366E-03    -83.7839E-03     20.5128E-03    -80.9601E-03     38.3094E-03    -12.6793E-03     301.771E-03    -146.028E-03    -155.799E-03    -154.166E-03     300.137E-03    -146.028E-03     54.3842E-03     3.63768E+06    -11.1865E+06    -102.545E+06    -80.2999E+06    -26.8476E+06    -2.94650E+06    -40.5885E+06         47.0213
            2034     8.64036E-03     145.585E-03     42.0811E-03     28.1818E-03    -85.1253E-03     32.1645E-03    -83.7149E-03     36.6879E-03    -11.9919E-03     308.104E-03    -147.085E-03    -160.993E-03    -159.011E-03     306.122E-03    -147.085E-03     60.6765E-03     18.3205E+06     8.12954E+06    -83.5132E+06    -61.3414E+06    -13.1765E+06     17.4548E+06    -39.0655E+06         49.4739
            2035     9.49258E-03     145.700E-03     46.7243E-03     27.8653E-03    -83.4379E-03     35.6415E-03    -80.3174E-03     35.8276E-03    -30.5887E-03     316.027E-03    -148.460E-03    -167.676E-03    -165.363E-03     313.714E-03    -148.460E-03     66.6022E-03     30.4911E+06     18.1902E+06    -72.0376E+06    -48.0038E+06    -5.84352E+06     30.4911E+06    -39.6733E+06         52.4272
            2036     10.3390E-03     145.810E-03     47.7595E-03     8.44293E-03    -91.5931E-03     8.42473E-03    -77.9106E-03     34.0952E-03    -4.55741E-03     325.331E-03    -150.113E-03    -175.251E-03    -172.664E-03     322.744E-03    -150.113E-03     71.6936E-03     38.6067E+06     25.8501E+06    -63.2274E+06    -38.5281E+06     1.15081E+06     38.6067E+06    -39.6782E+06         55.8618
            2037     11.1774E-03     145.928E-03     133.262E-03     14.7155E-03    -96.2809E-03     100.064E-03    -83.2267E-03     34.8599E-03    -16.1801E-03     335.186E-03    -152.054E-03    -183.072E-03    -180.459E-03     332.573E-03    -152.054E-03     73.3507E-03     45.1888E+06     31.4443E+06    -52.8143E+06    -31.8721E+06     10.5022E+06     45.1888E+06    -36.2776E+06         59.7598
            2038     12.0088E-03     146.030E-03     123.359E-03    -479.313E-06    -236.582E-03    -74.1389E-03    -72.6812E-03     33.1178E-03    -1.08751E-03     345.074E-03    -154.348E-03    -190.774E-03    -188.248E-03     342.548E-03    -154.348E-03     73.3892E-03     53.6569E+06     38.7869E+06    -42.1221E+06    -25.4192E+06     22.0840E+06     53.6569E+06    -32.5665E+06         64.1738
            2039     12.8384E-03     146.139E-03     316.597E-03    -1.71815E-03    -218.647E-03     118.973E-03    -54.6199E-03     31.8789E-03    -9.01257E-03     352.122E-03    -156.739E-03    -195.549E-03    -193.186E-03     349.759E-03    -156.739E-03     71.5608E-03     64.9443E+06     42.9338E+06    -30.8316E+06    -18.9557E+06     31.0580E+06     64.9443E+06    -25.4731E+06         69.2223
            2040     13.6626E-03     146.228E-03     316.164E-03    -14.4720E-03    -389.318E-03    -62.2683E-03    -56.8036E-03     31.4454E-03    -27.7219E-03     355.468E-03    -159.061E-03    -196.619E-03    -194.345E-03     353.194E-03    -159.061E-03     69.9893E-03     80.2502E+06     33.0707E+06    -19.5188E+06    -13.5220E+06     27.0739E+06     80.2502E+06    -14.7931E+06         74.3331
            2041     14.4923E-03     146.333E-03     414.964E-03    -17.4314E-03    -399.750E-03     36.5834E-03    -67.2863E-03     28.4861E-03     77.7330E-03     356.480E-03    -161.291E-03    -195.309E-03    -193.358E-03     354.528E-03    -161.291E-03     64.2304E-03     128.323E+06     53.0170E+06    -11.2775E+06    -9.73372E+06     51.4732E+06     128.323E+06    -6.89684E+06         78.2968
            2042     864.035E-06     146.362E-03     98.8045E-03     1.08667E-03    -98.6494E-03    -15.3173E-03    -79.6646E-03     96.2237E-03     26.0983E-03     293.977E-03    -145.470E-03    -148.553E-03    -146.456E-03     293.945E-03    -147.535E-03     7.01419E-03    -126.999E+06    -185.163E+06    -192.231E+06    -188.360E+06    -130.401E+06    -185.632E+06    -11.5388E+06         42.7689
            2043     1.72690E-03     146.377E-03     43.5627E-03     33.7338E-03    -76.8007E-03     28.4525E-03    -65.6699E-03     37.7132E-03     3.28784E-03     294.261E-03    -146.674E-03    -147.538E-03    -147.098E-03     294.218E-03    -147.071E-03     7.72535E-03    -106.557E+06    -167.228E+06    -189.380E+06    -180.033E+06    -115.904E+06    -167.228E+06    -24.8354E+06         42.7897
            2044     2.59003E-03     146.402E-03     39.4627E-03     31.6354E-03    -75.8292E-03     22.8844E-03    -61.0447E-03     33.4293E-03    -19.8630E-03     294.084E-03    -146.902E-03    -147.268E-03    -146.818E-03     293.986E-03    -147.254E-03     12.2437E-03    -88.3348E+06    -147.057E+06    -186.577E+06    -170.081E+06    -104.831E+06    -147.057E+06    -35.8846E+06         42.8245
            2045     3.45307E-03     146.444E-03     46.1627E-03     31.4754E-03    -82.4383E-03     38.0982E-03    -75.1509E-03     32.2525E-03    -1.83569E-03     293.496E-03    -146.566E-03    -147.251E-03    -146.394E-03     293.323E-03    -147.251E-03     16.6425E-03    -68.3941E+06    -124.265E+06    -180.408E+06    -157.714E+06    -91.0878E+06    -124.265E+06    -44.1850E+06         42.9062
            2046     4.31693E-03     146.498E-03     56.7225E-03     34.7567E-03    -91.0318E-03     54.3164E-03    -88.6257E-03     34.7567E-03    -5.76658E-03     293.859E-03    -146.627E-03    -147.410E-03    -146.589E-03     293.602E-03    -147.191E-03     20.6217E-03    -48.3340E+06    -100.878E+06    -173.664E+06    -145.215E+06    -76.7827E+06    -100.878E+06    -52.0328E+06         43.0448
            2047     5.18020E-03     146.561E-03     48.8533E-03     36.4101E-03    -87.5654E-03     46.8689E-03    -86.4215E-03     37.2508E-03     4.22203E-03     295.585E-03    -147.292E-03    -148.496E-03    -147.928E-03     295.199E-03    -147.475E-03     25.4070E-03    -28.3739E+06    -77.9565E+06    -163.995E+06    -130.722E+06    -61.6470E+06    -77.9565E+06    -57.3637E+06         43.3656
            2048     6.04257E-03     146.640E-03     38.0358E-03     31.4261E-03    -77.9987E-03     31.1932E-03    -76.9837E-03     37.2536E-03     5.86509E-03     298.057E-03    -147.853E-03    -150.543E-03    -149.987E-03     297.500E-03    -147.853E-03     30.8244E-03    -8.20440E+06    -52.1103E+06    -147.951E+06    -113.450E+06    -42.7047E+06    -52.1103E+06    -59.2155E+06         44.1343
            2049     6.90177E-03     146.729E-03     35.5652E-03     24.6629E-03    -71.8872E-03     22.7799E-03    -70.0042E-03     35.5652E-03    -13.5081E-03     300.464E-03    -148.228E-03    -152.273E-03    -151.529E-03     299.719E-03    -148.228E-03     35.6739E-03     5.00426E+06    -27.6829E+06    -132.909E+06    -96.3829E+06    -31.5217E+06    -27.6829E+06    -60.2276E+06         45.4636
            2050     7.76206E-03     146.832E-03     33.4135E-03     20.3845E-03    -65.0435E-03     17.4463E-03    -62.1053E-03     33.4135E-03    -18.6817E-03     302.964E-03    -148.884E-03    -154.003E-03    -153.019E-03     301.980E-03    -148.884E-03     41.3035E-03     11.9897E+06    -7.77863E+06    -117.067E+06    -79.3696E+06    -25.7075E+06    -7.77863E+06    -58.3721E+06         47.3292
            2051     8.61906E-03     146.944E-03     31.4164E-03     19.5782E-03    -59.3522E-03     17.1370E-03    -56.9109E-03     31.4164E-03    -5.14049E-03     306.927E-03    -149.679E-03    -157.267E-03    -155.997E-03     305.657E-03    -149.679E-03     47.6416E-03     22.0204E+06     8.60742E+06    -96.4714E+06    -62.4793E+06    -13.5622E+06     10.1979E+06    -53.0381E+06         49.7172
            2052     9.47352E-03     147.064E-03     29.6404E-03     15.9962E-03    -60.2863E-03     13.1326E-03    -57.4228E-03     29.6404E-03     12.6277E-03     312.629E-03    -150.546E-03    -162.070E-03    -160.506E-03     311.065E-03    -150.546E-03     53.7549E-03     32.8573E+06     22.9026E+06    -77.5647E+06    -47.0379E+06    -2.68804E+06     27.9213E+06    -47.6784E+06         52.6148
            2053     10.3234E-03     147.193E-03     40.6620E-03     19.7386E-03    -66.2428E-03     29.6138E-03    -64.1142E-03     28.6582E-03     15.1310E-03     319.743E-03    -151.725E-03    -168.210E-03    -166.339E-03     317.872E-03    -151.725E-03     59.8538E-03     41.2929E+06     27.2775E+06    -64.6777E+06    -36.1831E+06    -1.21699E+06     41.2929E+06    -41.9471E+06         56.0045
            2054     11.1695E-03     147.320E-03     49.9286E-03     15.5758E-03    -72.8779E-03     29.0034E-03    -64.7248E-03     28.3479E-03     3.56265E-03     328.896E-03    -153.168E-03    -175.987E-03    -173.855E-03     326.764E-03    -153.168E-03     65.1411E-03     50.8952E+06     30.7680E+06    -51.9080E+06    -28.8244E+06     7.68444E+06     50.8952E+06    -36.2799E+06         59.8565
            2055     12.0079E-03     147.446E-03     61.1803E-03     4.32484E-03    -84.6294E-03     12.3599E-03    -58.8382E-03     27.3540E-03     14.1078E-03     339.248E-03    -154.860E-03    -184.383E-03    -182.160E-03     337.025E-03    -154.860E-03     67.9193E-03     59.2524E+06     34.9569E+06    -41.1965E+06    -24.4075E+06     18.1679E+06     59.2524E+06    -31.3278E+06         64.2901
            2056     12.8351E-03     147.560E-03     91.6144E-03    -4.06329E-03    -84.5145E-03     30.7970E-03    -54.2485E-03     26.4881E-03    -1.08004E-03     348.852E-03    -156.939E-03    -191.907E-03    -189.831E-03     346.775E-03    -156.939E-03     66.7412E-03     67.5331E+06     31.1633E+06    -34.1575E+06    -21.4513E+06     18.4571E+06     67.5331E+06    -25.0195E+06         69.4619
            2057     13.6601E-03     147.662E-03     97.8686E-03    -8.51473E-03    -106.301E-03    -2.03008E-03    -40.3017E-03     25.3850E-03    -13.0597E-03     355.156E-03    -159.207E-03    -196.038E-03    -194.168E-03     353.286E-03    -159.207E-03     63.9837E-03     79.7157E+06     20.8818E+06    -25.5039E+06    -16.2566E+06     11.6344E+06     79.7157E+06    -16.2347E+06         74.6826
            2058     14.4769E-03     147.756E-03     126.169E-03     172.925E-06    -138.534E-03     11.4317E-03    -47.4980E-03     23.8736E-03     38.7892E-03     355.292E-03    -161.394E-03    -194.003E-03    -192.385E-03     353.673E-03    -161.394E-03     59.1323E-03     128.137E+06     42.4715E+06    -10.7832E+06    -6.73626E+06     38.4246E+06     128.137E+06    -6.07028E+06         78.6958
            2059     856.510E-06     147.709E-03     106.244E-03     4.82860E-03    -103.113E-03    -21.7138E-03    -64.7923E-03     94.4650E-03     60.1544E-03     307.639E-03    -152.177E-03    -155.487E-03    -152.166E-03     307.627E-03    -155.487E-03     2.58506E-03    -79.5050E+06    -109.481E+06    -121.784E+06    -111.635E+06    -89.3499E+06    -109.786E+06    -15.6909E+06         43.8496
            2060     1.71747E-03     147.728E-03     53.3973E-03     38.1068E-03    -78.0230E-03     45.0465E-03    -69.6721E-03     38.1068E-03     63.5981E-03     306.174E-03    -152.469E-03    -153.677E-03    -152.472E-03     306.162E-03    -153.663E-03     91.3080E-06    -62.2794E+06    -98.1536E+06    -124.059E+06    -106.548E+06    -79.7900E+06    -98.1536E+06    -26.3008E+06         43.8570
            2061     2.57584E-03     147.756E-03     41.5431E-03     27.8777E-03    -64.0429E-03     24.9682E-03    -57.6217E-03     38.0313E-03     36.6463E-03     305.887E-03    -152.521E-03    -153.436E-03    -152.508E-03     305.860E-03    -153.422E-03     1.68285E-03    -45.7150E+06    -79.8072E+06    -125.008E+06    -100.455E+06    -70.2681E+06    -79.8072E+06    -35.6605E+06         43.8811
            2062     3.43441E-03     147.796E-03     37.9181E-03     20.8615E-03    -59.0527E-03     13.3467E-03    -47.2145E-03     33.5948E-03     3.38101E-03     305.347E-03    -152.308E-03    -153.341E-03    -152.261E-03     305.300E-03    -153.341E-03     4.23319E-03    -30.3835E+06    -60.1091E+06    -124.695E+06    -93.4464E+06    -61.6324E+06    -60.1091E+06    -43.7979E+06         43.9247
            2063     4.29379E-03     147.846E-03     40.3405E-03     24.6965E-03    -65.2613E-03     23.6332E-03    -54.2160E-03     30.3585E-03    -21.8113E-03     305.468E-03    -152.382E-03    -153.346E-03    -152.302E-03     305.388E-03    -153.346E-03     5.92070E-03    -12.5244E+06    -39.2226E+06    -121.610E+06    -84.5281E+06    -49.6064E+06    -39.2226E+06    -51.0307E+06         43.9870
            2064     5.15317E-03     147.912E-03     36.3905E-03     25.3929E-03    -63.7349E-03     29.6833E-03    -60.9507E-03     29.3159E-03    -11.1648E-03     306.262E-03    -152.737E-03    -153.743E-03    -152.800E-03     306.137E-03    -153.555E-03     7.26869E-03     4.45983E+06    -20.3762E+06    -118.459E+06    -75.1813E+06    -38.8183E+06    -20.3762E+06    -58.3171E+06         44.2016
            2065     6.01026E-03     147.993E-03     33.2922E-03     24.6906E-03    -64.4098E-03     28.1573E-03    -63.2836E-03     28.6992E-03    -5.00638E-03     306.936E-03    -152.472E-03    -154.698E-03    -153.279E-03     306.761E-03    -153.716E-03     10.2399E-03     15.4725E+06    -7.18715E+06    -112.523E+06    -66.8420E+06    -30.2081E+06    -7.18715E+06    -60.9306E+06         44.8242
            2066     6.86645E-03     148.087E-03     35.7258E-03     22.4615E-03    -64.9039E-03     28.8452E-03    -63.6739E-03     28.1121E-03    -11.9534E-03     307.212E-03    -152.029E-03    -155.191E-03    -153.222E-03     306.998E-03    -153.784E-03     14.0562E-03     22.2942E+06     3.55550E+06    -103.812E+06    -61.4196E+06    -20.9738E+06     4.43101E+06    -58.8489E+06         45.9906
            2067     7.72161E-03     148.186E-03     34.6220E-03     23.5912E-03    -62.9260E-03     29.6696E-03    -62.1678E-03     27.7854E-03    -5.72268E-03     307.569E-03    -152.289E-03    -155.447E-03    -153.279E-03     307.260E-03    -154.148E-03     19.6306E-03     26.7590E+06     11.4340E+06    -100.511E+06    -58.5118E+06    -17.3810E+06     13.5748E+06    -58.8069E+06         47.7048
            2068     8.57881E-03     148.303E-03     29.6341E-03     20.6444E-03    -57.0999E-03     21.8258E-03    -55.8815E-03     27.2342E-03     4.28877E-03     308.822E-03    -152.446E-03    -156.560E-03    -154.017E-03     308.359E-03    -154.526E-03     26.2605E-03     32.5085E+06     17.7965E+06    -95.3776E+06    -53.3848E+06    -13.2396E+06     21.5518E+06    -58.4326E+06         49.9546
            2069     9.43417E-03     148.429E-03     26.0374E-03     17.4963E-03    -52.4922E-03     13.6075E-03    -48.6035E-03     26.0374E-03     9.69389E-03     311.227E-03    -152.751E-03    -158.349E-03    -155.689E-03     310.552E-03    -154.736E-03     33.1210E-03     37.7508E+06     26.9405E+06    -83.0120E+06    -45.6518E+06    -5.48358E+06     32.8147E+06    -53.5363E+06         52.7271
            2070     10.2882E-03     148.562E-03     28.6297E-03     18.8889E-03    -44.8699E-03     18.5422E-03    -40.6803E-03     24.7867E-03    -2.37393E-03     315.201E-03    -154.333E-03    -160.897E-03    -159.097E-03     314.253E-03    -155.185E-03     40.9171E-03     44.0369E+06     26.8252E+06    -70.9036E+06    -37.1529E+06    -6.92548E+06     44.0369E+06    -46.0762E+06         56.0349
            2071     11.1383E-03     148.697E-03     26.7863E-03     530.910E-06    -41.1943E-03    -4.82546E-03    -31.9950E-03     22.9434E-03     7.84635E-03     321.546E-03    -155.886E-03    -165.774E-03    -164.522E-03     320.294E-03    -155.886E-03     48.5430E-03     53.7130E+06     23.1051E+06    -55.9118E+06    -30.3190E+06    -2.48763E+06     53.7130E+06    -36.3255E+06         59.8776
            2072     11.9830E-03     148.840E-03     45.2854E-03     757.234E-06    -49.0985E-03     14.2476E-03    -38.3395E-03     21.0361E-03    -7.61511E-03     329.784E-03    -156.808E-03    -172.906E-03    -171.412E-03     328.289E-03    -156.808E-03     54.3337E-03     64.1153E+06     24.3807E+06    -40.6428E+06    -26.2260E+06     9.96390E+06     64.1153E+06    -25.8298E+06         64.3732
            2073     12.8252E-03     148.966E-03     46.2069E-03    -479.080E-06    -64.3822E-03     12.4747E-03    -51.0457E-03     19.9166E-03    -15.2603E-03     339.557E-03    -158.192E-03    -181.348E-03    -179.611E-03     337.820E-03    -158.192E-03     59.8316E-03     74.9527E+06     26.6887E+06    -32.2980E+06    -21.9381E+06     16.3288E+06     74.9527E+06    -21.0642E+06         69.6834
            2074     13.6534E-03     149.088E-03     54.3991E-03    -1.06778E-03    -57.9494E-03     23.5765E-03    -47.4211E-03     19.2266E-03     2.79669E-03     347.703E-03    -159.904E-03    -187.953E-03    -186.157E-03     345.907E-03    -159.904E-03     61.7342E-03     82.4320E+06     12.8642E+06    -33.0675E+06    -17.2646E+06    -2.93870E+06     82.4320E+06    -17.9029E+06         75.0652
            2075     14.4862E-03     149.181E-03     51.6053E-03     6.83903E-03    -68.3531E-03     3.91342E-03    -32.2958E-03     18.4736E-03     4.31484E-03     350.032E-03    -161.629E-03    -188.649E-03    -187.086E-03     348.468E-03    -161.629E-03     57.5682E-03     125.729E+06     31.9707E+06    -18.5047E+06    -7.81755E+06     21.2835E+06     125.729E+06    -8.20790E+06         79.1795
            2076     849.539E-06     149.081E-03     95.2612E-03     6.96162E-03    -96.4005E-03    -16.2719E-03    -61.4785E-03     83.5727E-03     28.1812E-03     327.651E-03    -162.846E-03    -164.808E-03    -163.189E-03     327.619E-03    -164.433E-03    -5.00369E-03    -24.1680E+06    -34.0397E+06    -60.0980E+06    -36.1993E+06    -50.4186E+06    -31.6878E+06    -10.0227E+06         45.5059
            2077     1.69862E-03     149.095E-03     51.5391E-03     33.6423E-03    -74.0246E-03     34.8700E-03    -57.3555E-03     33.6423E-03     3.60671E-03     326.034E-03    -162.413E-03    -163.637E-03    -162.379E-03     326.000E-03    -163.637E-03    -7.25282E-03    -13.6168E+06    -30.1806E+06    -63.7694E+06    -37.4114E+06    -44.5536E+06    -25.6018E+06    -20.5757E+06         45.5032
            2078     2.55087E-03     149.125E-03     46.1497E-03     23.1667E-03    -62.7978E-03     27.6415E-03    -53.6662E-03     32.5432E-03    -19.8221E-03     325.630E-03    -162.283E-03    -163.373E-03    -162.181E-03     325.528E-03    -163.373E-03    -11.8951E-03    -1.75250E+06    -16.4201E+06    -68.4638E+06    -34.9304E+06    -39.0132E+06    -12.6928E+06    -30.3672E+06         45.4987
            2079     3.40325E-03     149.163E-03     38.9190E-03     17.7452E-03    -55.0529E-03     17.7180E-03    -45.8080E-03     29.7013E-03    -32.9331E-03     325.274E-03    -161.944E-03    -163.383E-03    -161.757E-03     325.087E-03    -163.383E-03    -15.4202E-03     12.1015E+06     339.171E+03    -70.7447E+06    -29.3521E+06    -33.5896E+06     4.63767E+06    -37.9588E+06         45.4792
            2080     4.25361E-03     149.218E-03     28.0928E-03     17.6387E-03    -43.5300E-03     9.82882E-03    -33.9004E-03     26.2732E-03    -21.8688E-03     324.968E-03    -161.631E-03    -163.469E-03    -161.376E-03     324.713E-03    -163.469E-03    -17.9828E-03     25.9183E+06     12.9939E+06    -68.8962E+06    -24.5304E+06    -25.1090E+06     19.6555E+06    -43.0574E+06         45.4394
            2081     5.10204E-03     149.283E-03     24.8192E-03     16.1308E-03    -41.0215E-03     10.3285E-03    -33.8032E-03     23.4032E-03     6.88251E-03     323.941E-03    -160.618E-03    -163.511E-03    -160.322E-03     323.645E-03    -163.511E-03    -19.7952E-03     36.8300E+06      21.327E+06    -66.6967E+06    -23.1721E+06    -17.3644E+06     31.9968E+06    -45.6787E+06         45.4659
            2082     5.95232E-03     149.363E-03     26.3134E-03     19.9940E-03    -49.1455E-03     16.0144E-03    -40.5729E-03     21.7205E-03     17.1023E-03     321.484E-03    -158.239E-03    -163.339E-03    -157.916E-03     321.161E-03    -163.339E-03    -19.7611E-03     43.7469E+06     22.6210E+06    -68.2437E+06    -24.7516E+06    -16.7657E+06     39.6416E+06    -46.8214E+06         45.7965
            2083     6.80654E-03     149.450E-03     28.6776E-03     19.4474E-03    -47.8175E-03     22.7405E-03    -43.4968E-03     21.0639E-03    -5.73294E-03     318.998E-03    -156.029E-03    -162.964E-03    -155.695E-03     318.663E-03    -162.964E-03    -17.8018E-03     47.2594E+06     25.8377E+06    -66.4686E+06    -24.7131E+06    -13.7658E+06     45.1073E+06    -45.8511E+06         46.6583
            2084     7.66179E-03     149.551E-03     30.2660E-03     19.7643E-03    -47.2542E-03     25.5234E-03    -43.6192E-03     20.8719E-03    -23.3352E-03     317.323E-03    -154.885E-03    -162.741E-03    -154.526E-03     316.964E-03    -162.741E-03    -14.7110E-03     54.1660E+06     31.8036E+06    -60.5474E+06    -23.0994E+06    -5.64438E+06     54.1660E+06    -44.3292E+06         48.1220
            2085     8.51479E-03     149.664E-03     30.3660E-03     17.9398E-03    -48.2462E-03     23.4142E-03    -43.9023E-03     20.5479E-03    -23.3301E-03     315.335E-03    -153.174E-03    -162.476E-03    -152.814E-03     314.975E-03    -162.476E-03    -10.1347E-03     59.5637E+06     30.2583E+06    -59.8638E+06    -24.5167E+06    -5.08876E+06     59.5637E+06    -43.8549E+06         50.1714
            2086     9.37147E-03     149.787E-03     25.2023E-03     16.9624E-03    -42.4561E-03     18.0941E-03    -38.2071E-03     19.8216E-03    -11.2788E-03     313.376E-03    -151.352E-03    -161.931E-03    -151.009E-03     313.033E-03    -161.931E-03    -4.00384E-03     58.7692E+06     26.1373E+06    -61.6120E+06    -29.7889E+06    -5.68578E+06     58.7692E+06    -41.6809E+06         52.7690
            2087     10.2285E-03     149.917E-03     19.1721E-03     14.7248E-03    -33.6318E-03     11.0925E-03    -29.4797E-03     18.6523E-03    -10.4430E-03     312.592E-03    -150.960E-03    -161.542E-03    -150.695E-03     312.229E-03    -161.444E-03     5.07957E-03     56.2622E+06     18.4430E+06    -61.7369E+06    -34.6349E+06    -8.65900E+06     56.2622E+06    -37.6217E+06         55.9822
            2088     11.0839E-03     150.065E-03     20.1856E-03     6.07304E-03    -32.1602E-03     4.53059E-03    -27.5868E-03     17.1547E-03     5.01628E-03     313.543E-03    -151.038E-03    -162.519E-03    -151.917E-03     313.107E-03    -161.204E-03     16.5433E-03     57.6520E+06     9.07207E+06    -57.3664E+06    -34.9808E+06    -13.3136E+06     57.6520E+06    -31.3503E+06         59.8786
            2089     11.9391E-03     150.209E-03     18.5876E-03     3.16203E-03    -33.2208E-03    -342.863E-06    -26.6850E-03     15.5567E-03     349.129E-06     316.861E-03    -151.926E-03    -164.906E-03    -155.178E-03     316.232E-03    -161.025E-03     29.1002E-03     66.6207E+06     16.7682E+06    -44.4662E+06    -29.1849E+06     1.48703E+06     66.6207E+06    -25.2776E+06         64.5003
            2090     12.7876E-03     150.353E-03     17.6025E-03     9.07180E-03    -36.4322E-03    -200.557E-06    -23.6183E-03     14.0611E-03    -1.09485E-03     321.896E-03    -153.808E-03    -168.140E-03    -159.961E-03     320.915E-03    -161.006E-03     41.9713E-03     80.1000E+06     27.9889E+06    -29.5530E+06    -18.1981E+06     16.6339E+06     80.1000E+06    -21.7594E+06         69.9726
            2091     13.6387E-03     150.486E-03     17.9609E-03     11.0557E-03    -37.4606E-03     5.94525E-03    -27.2836E-03     12.8943E-03     13.3738E-03     329.216E-03    -157.909E-03    -171.504E-03    -166.646E-03     327.859E-03    -161.410E-03     51.3441E-03     90.3751E+06     12.9908E+06    -35.0497E+06    -9.21260E+06    -12.8463E+06     90.3751E+06    -15.5347E+06         75.5437
            2092     14.4742E-03     150.596E-03     20.6665E-03     8.82310E-03    -37.0793E-03     11.5787E-03    -31.3694E-03     12.2010E-03     17.7545E-03     337.640E-03    -161.877E-03    -176.063E-03    -174.418E-03     336.272E-03    -162.154E-03     52.6947E-03     123.670E+06     26.3124E+06    -24.2216E+06    -3.47109E+06     5.56194E+06     123.670E+06    -7.77585E+06         79.7842
            2093     838.033E-06     150.482E-03     65.7205E-03     3.19912E-03    -64.1421E-03    -27.4293E-03    -6.12863E-03     38.3355E-03     11.8546E-03     358.046E-03    -177.757E-03    -180.283E-03    -179.717E-03     357.898E-03    -178.175E-03    -16.4079E-03     31.2775E+06     27.5729E+06    -26.6527E+06     27.4535E+06    -25.2847E+06     30.0290E+06    -7.17228E+06         47.3467
            2094     1.67919E-03     150.499E-03     46.8609E-03     7.54473E-03    -46.9985E-03     17.0213E-03    -17.1589E-03     7.54473E-03     4.53768E-03     356.440E-03    -177.669E-03    -178.797E-03    -177.372E-03     356.143E-03    -178.797E-03    -22.1542E-03     39.3200E+06     31.2237E+06    -20.9320E+06     26.9635E+06    -15.9466E+06     38.5947E+06    -12.9331E+06         47.3187
            2095     2.51524E-03     150.526E-03     39.5272E-03     12.5255E-03    -48.9667E-03     30.1792E-03    -39.6188E-03     12.5255E-03    -15.8470E-03     355.593E-03    -177.065E-03    -178.521E-03    -176.570E-03     355.097E-03    -178.521E-03    -30.5571E-03     48.5963E+06     35.9345E+06    -23.4162E+06     25.5303E+06    -13.0119E+06     48.5963E+06    -18.8403E+06         47.2670
            2096     3.35121E-03     150.566E-03     30.6676E-03     16.6419E-03    -53.4966E-03     28.7944E-03    -51.6234E-03     16.6419E-03    -16.2016E-03     355.048E-03    -176.487E-03    -178.432E-03    -175.780E-03     354.341E-03    -178.432E-03    -37.5718E-03     58.8558E+06     38.5736E+06    -25.7542E+06     25.1533E+06    -12.3339E+06     58.8558E+06    -22.7055E+06         47.1790
            2097     4.18930E-03     150.616E-03     29.6674E-03     15.1488E-03    -46.4166E-03     21.7822E-03    -41.5038E-03     18.1212E-03    -19.2667E-03     353.217E-03    -174.721E-03    -178.303E-03    -173.732E-03     352.228E-03    -178.303E-03    -44.2410E-03     66.3119E+06     37.6429E+06    -25.4954E+06     21.5950E+06    -9.44754E+06     66.3119E+06    -24.4984E+06         47.0464
            2098     5.03022E-03     150.678E-03     31.1605E-03     13.2269E-03    -41.2006E-03     9.80338E-03    -24.0335E-03     17.4169E-03    -18.5424E-03     349.544E-03    -171.494E-03    -177.969E-03    -170.160E-03     348.210E-03    -177.969E-03    -50.4119E-03     74.2776E+06     35.3043E+06    -23.4164E+06     17.6468E+06    -5.75893E+06     74.2776E+06    -24.4088E+06         46.8934
            2099     5.87298E-03     150.750E-03     26.9983E-03     13.6308E-03    -39.4193E-03     1.77261E-03    -15.9201E-03     15.3573E-03    -10.9921E-03     345.310E-03    -168.015E-03    -177.360E-03    -166.364E-03     343.660E-03    -177.360E-03    -55.2724E-03     84.0079E+06     32.0044E+06    -23.4764E+06     14.0421E+06    -5.51420E+06     84.0079E+06    -23.5511E+06         46.8806
            2100     6.71814E-03     150.829E-03     22.4261E-03     11.7939E-03    -29.4862E-03     6.15918E-03    -14.8358E-03     13.4104E-03    -19.6658E-03     341.414E-03    -164.779E-03    -176.553E-03    -162.840E-03     339.476E-03    -176.553E-03    -58.9186E-03     89.7076E+06     30.1957E+06    -24.8556E+06     10.7198E+06    -5.37971E+06     89.7076E+06    -24.4966E+06         47.3299
            2101     7.56378E-03     150.926E-03     19.2313E-03     11.1565E-03    -21.9207E-03     10.6371E-03    -14.4342E-03     12.2641E-03    -27.9854E-03     336.733E-03    -160.933E-03    -175.689E-03    -158.677E-03     334.477E-03    -175.689E-03    -62.3305E-03     92.3164E+06     28.0790E+06    -23.3632E+06     7.18135E+06    -2.46554E+06     92.3164E+06    -22.5225E+06         48.4821
            2102     8.41416E-03     151.031E-03     21.3052E-03     11.7581E-03    -23.0865E-03     16.4226E-03    -18.2040E-03     11.7581E-03    -26.4673E-03     331.020E-03    -156.358E-03    -174.737E-03    -153.859E-03     328.520E-03    -174.737E-03    -63.6406E-03     94.0820E+06     22.7178E+06    -21.2141E+06     2.02346E+06    -519.745E+03     94.0820E+06    -19.2346E+06         50.3336
            2103     9.26650E-03     151.147E-03     22.4363E-03     11.6838E-03    -27.1107E-03     19.4276E-03    -24.1021E-03     11.6838E-03    -3.76533E-03     325.015E-03    -151.415E-03    -173.576E-03    -148.866E-03     322.466E-03    -173.576E-03    -61.7856E-03     92.5842E+06     18.8589E+06    -23.3836E+06    -2.78550E+06    -1.73913E+06     92.5842E+06    -16.9382E+06         52.7833
            2104     10.1235E-03     151.273E-03     20.0640E-03     10.1970E-03    -29.3681E-03     17.0564E-03    -27.8018E-03     11.6383E-03     4.74380E-03     318.081E-03    -145.824E-03    -172.219E-03    -143.282E-03     315.538E-03    -172.219E-03    -57.2975E-03     86.7631E+06     14.6742E+06    -27.8435E+06    -6.91922E+06    -6.25006E+06     86.7631E+06    -15.6700E+06         55.9292
            2105     10.9864E-03     151.414E-03     17.9244E-03     7.61629E-03    -27.8152E-03     12.0346E-03    -25.6162E-03     11.3071E-03     8.43779E-03     310.401E-03    -139.719E-03    -170.758E-03    -137.329E-03     308.010E-03    -170.758E-03    -48.9820E-03     80.1555E+06     9.76984E+06    -31.4882E+06    -8.98138E+06    -12.7370E+06     80.1555E+06    -16.3705E+06         59.8830
            2106     11.8537E-03     151.561E-03     16.2384E-03     3.33504E-03    -22.8037E-03     3.27153E-03    -16.9743E-03     10.4725E-03     282.825E-06     303.530E-03    -134.503E-03    -168.997E-03    -132.480E-03     301.507E-03    -168.997E-03    -34.4037E-03     79.3550E+06     17.2158E+06    -27.3124E+06    -9.70162E+06    -394.953E+03     79.3550E+06    -17.8597E+06         64.6341
            2107     12.7264E-03     151.709E-03     14.1080E-03     4.22981E-03    -21.9413E-03    -5.45742E-03    -7.26381E-03     9.11773E-03    -7.35331E-03     299.020E-03    -131.993E-03    -167.077E-03    -130.494E-03     297.520E-03    -167.077E-03    -16.0107E-03     84.2081E+06     20.9521E+06    -18.7266E+06    -11.5733E+06     13.7987E+06     84.2081E+06    -14.0552E+06         70.2755
            2108     13.5957E-03     151.847E-03     9.92481E-03     4.34742E-03    -19.3443E-03    -5.84999E-03    -6.89153E-03     7.66946E-03     5.01322E-03     300.178E-03    -134.920E-03    -165.511E-03    -133.814E-03     299.073E-03    -165.511E-03     4.31893E-03     89.1552E+06     6.47231E+06    -33.0850E+06    -8.74581E+06    -17.8668E+06     89.1552E+06    -8.14640E+06         76.0248
            2109     14.4670E-03     151.981E-03     15.6964E-03     3.19989E-03    -26.3703E-03    -2.61545E-03    -11.3805E-03     6.52194E-03     24.4293E-03     303.643E-03    -137.141E-03    -166.771E-03    -138.797E-03     302.759E-03    -164.230E-03     23.5319E-03     113.790E+06     20.5004E+06    -27.8572E+06    -4.24448E+06    -3.11228E+06     113.790E+06    -8.26467E+06         80.3838


