********************************************************************************
Field Output Report, written Tue May 28 19:03:40 2024

Source 1
---------

   ODB: G:/Abaqus_calc_2019/1740/Vel_20/odb/zeides_2a_24_red_250_cal_75_vel_20_fric_025.odb
   Step: Step-1
   Frame: Increment   3547763: Step Time =   0.4562

Loc 1 : Nodal values from source 1

Output sorted by column "Nodal Label".

Field Output reported at nodes for region: DIE_2A_24_D0_36-1.Region_1
   Computation algorithm: EXTRAPOLATE_COMPUTE_AVERAGE
   Averaged at nodes
   Averaging regions: ODB_REGIONS

      Node Label     COORD.COOR1     COORD.COOR2
                          @Loc 1          @Loc 1
-------------------------------------------------
               1     21.1989E-03     111.136E-03


Field Output reported at nodes for region: DIE_2A_24_D0_36-1.Region_2
   Computation algorithm: EXTRAPOLATE_COMPUTE_AVERAGE
   Averaged at nodes
   Averaging regions: ODB_REGIONS

      Node Label     COORD.COOR1     COORD.COOR2
                          @Loc 1          @Loc 1
-------------------------------------------------
               1     21.1989E-03     111.136E-03


Field Output reported at nodes for part: WIRE-1
   Computation algorithm: EXTRAPOLATE_COMPUTE_AVERAGE
   Averaged at nodes
   Averaging regions: ODB_REGIONS

      Node Label     COORD.COOR1     COORD.COOR2           S.S11           S.S22           S.S33           S.S12         PE.PE11         PE.PE22         PE.PE33         PE.PE12         LE.LE11         LE.LE22         LE.LE33         LE.LE12
                          @Loc 1          @Loc 1          @Loc 1          @Loc 1          @Loc 1          @Loc 1          @Loc 1          @Loc 1          @Loc 1          @Loc 1          @Loc 1          @Loc 1          @Loc 1          @Loc 1
-------------------------------------------------------------------------------------------------------------------------------------------------------------------------------------------------------------------------------------------------
               1     20.0599E-09     57.4698E-03    -22.7529E+06    -114.906E+06    -22.6997E+06     7.94971E+03    -26.5864E-03     53.1596E-03    -26.5732E-03     3.45194E-03    -26.5007E-03     52.6511E-03    -26.4871E-03     3.45043E-03
               2     17.5324E-03     58.6329E-03    -3.07996E+06     164.855E+06     100.993E+06    -700.758E+03    -26.3429E-03     52.9162E-03    -26.5733E-03     76.4918E-03    -27.9672E-03     54.8221E-03    -26.3029E-03     78.3313E-03
               3     17.2366E-03     116.909E-03     16.5165E+06    -17.7575E+06     10.2406E+06     8.87954E+06     19.0102E-03     18.0177E-03    -37.0280E-03     1.48241E-03     19.0733E-03     17.8597E-03    -36.9750E-03     1.59697E-03
               4    -1.28103E-06     115.201E-03     29.2115E+06     720.465E+03     27.7193E+06    -1.23155E+06    -28.5779E-03     58.0158E-03    -29.4378E-03    -906.988E-06    -28.4746E-03     57.9353E-03    -29.3426E-03    -923.825E-06
               5     183.459E-09     97.1445E-18    -11.0611E+06    -86.9256E+06    -10.3820E+06     431.594E+03    -20.0192E-03     39.9399E-03    -19.9207E-03     109.385E-06    -19.9333E-03     39.5364E-03    -19.8305E-03     114.936E-06
               6     17.3974E-03     97.1445E-18     15.0021E+06     109.983E+06     87.8626E+06     5.92396E+06    -56.4006E-03     87.9930E-03    -31.5924E-03     83.2960E-03    -56.8081E-03     88.5914E-03    -31.3343E-03     82.9519E-03
               7     876.466E-06     57.4730E-03    -22.5716E+06    -114.525E+06    -22.1413E+06     58.2359E+03    -26.5904E-03     53.1682E-03    -26.5778E-03     5.75092E-03    -26.5052E-03     52.6605E-03    -26.4897E-03     5.74895E-03
               8     1.75295E-03     57.4807E-03    -22.0495E+06    -113.635E+06    -20.5378E+06     108.076E+03    -26.6044E-03     53.1903E-03    -26.5858E-03     10.5875E-03    -26.5206E-03     52.6843E-03    -26.4918E-03     10.5837E-03
               9     2.62941E-03     57.4932E-03    -21.1607E+06    -112.074E+06    -17.7908E+06     133.281E+03    -26.6313E-03     53.2255E-03    -26.5942E-03     15.7306E-03    -26.5497E-03     52.7226E-03    -26.4900E-03     15.7243E-03
              10     3.50590E-03     57.5107E-03    -19.9169E+06    -109.875E+06     -14.036E+06     222.691E+03    -26.6704E-03     53.2756E-03    -26.6052E-03     20.9529E-03    -26.5921E-03     52.7773E-03    -26.4872E-03     20.9444E-03
              11     4.38239E-03     57.5330E-03    -18.4404E+06    -104.428E+06    -10.7232E+06     230.526E+03    -26.7159E-03     53.3239E-03    -26.6080E-03     26.1983E-03    -26.6442E-03     52.8471E-03    -26.4834E-03     26.1857E-03
              12     5.25888E-03     57.5605E-03    -16.8500E+06    -98.7654E+06    -6.76029E+06     218.399E+03    -26.7744E-03     53.3869E-03    -26.6125E-03     31.4613E-03    -26.7106E-03     52.9323E-03    -26.4787E-03     31.4435E-03
              13     6.13541E-03     57.5929E-03    -15.1446E+06    -95.3966E+06    -2.02499E+06     186.441E+03    -26.8514E-03     53.4751E-03    -26.6237E-03     36.7098E-03    -26.7936E-03     53.0307E-03    -26.4735E-03     36.6851E-03
              14     7.01190E-03     57.6303E-03    -13.2931E+06    -90.3336E+06     1.12784E+06     146.767E+03    -26.9347E-03     53.5584E-03    -26.6237E-03     41.9127E-03    -26.8835E-03     53.1360E-03    -26.4678E-03     41.8795E-03
              15     7.88850E-03     57.6725E-03    -11.5571E+06    -84.0302E+06     2.75058E+06     210.624E+03    -27.0253E-03     53.6389E-03    -26.6136E-03     47.0345E-03    -26.9825E-03     53.2489E-03    -26.4613E-03     46.9922E-03
              16     8.76500E-03     57.7196E-03    -10.1511E+06    -77.9235E+06     3.55354E+06     421.388E+03    -27.1376E-03     53.7376E-03    -26.6000E-03     52.0617E-03    -27.1060E-03     53.3830E-03    -26.4546E-03     52.0097E-03
              17     9.64161E-03     57.7714E-03    -8.94485E+06    -72.0357E+06     3.35312E+06     523.599E+03    -27.2595E-03     53.8422E-03    -26.5827E-03     56.9845E-03    -27.2418E-03     53.5273E-03    -26.4485E-03     56.9188E-03
              18     10.5181E-03     57.8279E-03    -8.10307E+06    -64.6199E+06     1.30883E+06     486.280E+03    -27.3610E-03     53.9151E-03    -26.5541E-03     61.7980E-03    -27.3635E-03     53.6556E-03    -26.4421E-03     61.7137E-03
              19     11.3950E-03     57.8888E-03    -7.28812E+06    -52.0747E+06     1.88121E+06     449.361E+03    -27.5411E-03     54.0730E-03    -26.5319E-03     67.5447E-03    -27.5845E-03     53.9002E-03    -26.4364E-03     67.4372E-03
              20     12.2711E-03     57.9562E-03    -6.53138E+06    -40.4207E+06     184.872E+03     457.983E+03    -27.7621E-03     54.2629E-03    -26.5008E-03     75.3144E-03    -27.8598E-03     54.1934E-03    -26.4318E-03     75.1791E-03
              21     13.1478E-03     58.0323E-03    -6.40447E+06    -26.9899E+06    -6.03524E+06     468.450E+03    -27.7230E-03     54.1632E-03    -26.4401E-03     80.3241E-03    -27.8945E-03     54.2336E-03    -26.4219E-03     80.1588E-03
              22     14.0247E-03     58.1084E-03    -6.52501E+06     5.19346E+06    -8.32326E+06     68.3450E+03    -28.0178E-03     54.3836E-03    -26.3658E-03     91.8156E-03    -28.3672E-03     54.7524E-03    -26.4055E-03     91.6198E-03
              23     14.9019E-03     58.2059E-03    -6.71063E+06     59.0070E+06    -17.1944E+06     339.730E+03    -29.5405E-03     55.7625E-03    -26.2220E-03     128.809E-03    -30.5089E-03     56.9664E-03    -26.3838E-03     128.643E-03
              24     15.7790E-03     58.3530E-03    -6.56860E+06     124.000E+06     6.29636E+06     870.682E+03    -32.0032E-03     58.2135E-03    -26.2104E-03     187.939E-03    -35.2989E-03     61.9078E-03    -26.3492E-03     188.548E-03
              25     16.6579E-03     58.5669E-03    -4.68279E+06     161.142E+06     69.8855E+06     53.9586E+03    -29.8518E-03     56.2895E-03    -26.4376E-03     148.728E-03    -33.2309E-03     60.0214E-03    -26.3151E-03     150.318E-03
              26     17.5330E-03     59.6419E-03    -2.47671E+06     165.413E+06     101.684E+06     651.113E+03    -26.6821E-03     53.2536E-03    -26.5715E-03     76.9931E-03    -28.3118E-03     55.1670E-03    -26.2993E-03     78.8277E-03
              27     17.5322E-03     60.6402E-03    -2.17324E+06     166.117E+06     101.763E+06     321.433E+03    -24.7790E-03     51.3923E-03    -26.6134E-03     79.9956E-03    -26.4543E-03     53.3546E-03    -26.3423E-03     81.9272E-03
              28     17.5337E-03     61.6346E-03    -3.87069E+06     165.262E+06     100.751E+06    -962.960E+03    -25.7332E-03     52.3188E-03    -26.5857E-03     78.4145E-03    -27.3959E-03     54.2624E-03    -26.3159E-03     80.3002E-03
              29     17.5314E-03     62.6390E-03    -2.43330E+06     166.652E+06     102.060E+06     168.000E+03    -25.5460E-03     52.1453E-03    -26.5993E-03     75.5637E-03    -27.1785E-03     54.0649E-03    -26.3272E-03     77.4508E-03
              30     17.5339E-03     63.6323E-03    -1.08560E+06     167.802E+06     102.813E+06     297.280E+03    -25.5038E-03     52.0880E-03    -26.5842E-03     80.5458E-03    -27.1886E-03     54.0667E-03    -26.3118E-03     82.4497E-03
              31     17.5327E-03     64.6418E-03    -3.41283E+06     165.633E+06     101.219E+06    -200.675E+03    -26.7993E-03     53.3522E-03    -26.5529E-03     85.5526E-03    -28.5513E-03     55.3869E-03    -26.2820E-03     87.4339E-03
              32     17.5326E-03     65.6431E-03    -2.96390E+06     165.977E+06     101.653E+06     181.148E+03    -24.9521E-03     51.5700E-03    -26.6179E-03     82.4107E-03    -26.6697E-03     53.5720E-03    -26.3460E-03     84.3662E-03
              33     17.5326E-03     66.6235E-03    -2.12628E+06     166.455E+06     102.449E+06     58.9687E+03    -26.0130E-03     52.6061E-03    -26.5931E-03     75.7430E-03    -27.6252E-03     54.5050E-03    -26.3191E-03     77.6059E-03
              34     17.5324E-03     67.6380E-03    -2.40598E+06     166.509E+06     101.901E+06     840.563E+03    -26.7833E-03     53.3491E-03    -26.5658E-03     75.7957E-03    -28.3945E-03     55.2477E-03    -26.2942E-03     77.6138E-03
              35     17.5332E-03     68.6373E-03    -2.43521E+06     167.620E+06     101.718E+06     230.685E+03    -24.0515E-03     50.6743E-03    -26.6228E-03     79.6601E-03    -25.7248E-03     52.6393E-03    -26.3537E-03     81.6132E-03
              36     17.5327E-03     69.6257E-03    -2.98380E+06     167.742E+06     101.894E+06    -468.972E+03    -26.2949E-03     52.8692E-03    -26.5742E-03     78.1892E-03    -27.9465E-03     54.8105E-03    -26.3037E-03     80.0481E-03
              37     17.5324E-03     70.6373E-03    -2.61987E+06     168.486E+06     102.531E+06     1.01066E+06    -26.9193E-03     53.4895E-03    -26.5701E-03     77.6467E-03    -28.5625E-03     55.4244E-03    -26.2980E-03     79.4779E-03
              38     17.5328E-03     71.6347E-03    -2.33531E+06     169.262E+06     102.408E+06     217.869E+03    -23.9029E-03     50.5392E-03    -26.6363E-03     78.6667E-03    -25.5675E-03     52.4997E-03    -26.3663E-03     80.6196E-03
              39     17.5329E-03     72.6227E-03    -3.31757E+06     168.498E+06     101.692E+06    -956.673E+03    -26.2502E-03     52.8224E-03    -26.5722E-03     76.1807E-03    -27.8772E-03     54.7413E-03    -26.3033E-03     78.0206E-03
              40     17.5323E-03     73.6350E-03    -2.48007E+06     169.172E+06     102.318E+06     411.394E+03    -27.0777E-03     53.6287E-03    -26.5510E-03     76.2425E-03    -28.7012E-03     55.5475E-03    -26.2811E-03     78.0486E-03
              41     17.5334E-03     74.6327E-03    -2.39600E+06     169.800E+06     102.532E+06     152.803E+03    -25.2070E-03     51.8089E-03    -26.6019E-03     80.9194E-03    -26.9024E-03     53.8015E-03    -26.3320E-03     82.8476E-03
              42     17.5318E-03     75.6296E-03    -2.40119E+06     169.780E+06     102.482E+06     340.568E+03    -25.5009E-03     52.1027E-03    -26.6018E-03     79.6258E-03    -27.1758E-03     54.0748E-03    -26.3321E-03     81.5323E-03
              43     17.5333E-03     76.6316E-03    -2.77229E+06     169.327E+06     101.842E+06     65.1944E+03    -24.9731E-03     51.5849E-03    -26.6118E-03     77.5462E-03    -26.6192E-03     53.5272E-03    -26.3441E-03     79.4448E-03
              44     17.5319E-03     77.6235E-03    -2.91576E+06     169.020E+06     101.612E+06    -537.863E+03    -25.8936E-03     52.4794E-03    -26.5858E-03     76.1455E-03    -27.5200E-03     54.4010E-03    -26.3186E-03     77.9918E-03
              45     17.5333E-03     78.6285E-03    -3.00624E+06     168.843E+06     101.320E+06    -720.092E+03    -26.7864E-03     53.3402E-03    -26.5539E-03     75.4205E-03    -28.4037E-03     55.2525E-03    -26.2877E-03     77.2249E-03
              46     17.5325E-03     79.6292E-03    -2.64498E+06     169.578E+06     101.302E+06    -343.281E+03    -25.5007E-03     52.0707E-03    -26.5700E-03     78.1930E-03    -27.1572E-03     54.0260E-03    -26.3056E-03     80.0835E-03
              47     17.5340E-03     80.6276E-03    -2.54931E+06     170.521E+06     101.910E+06     1.26927E+06    -26.2336E-03     52.8059E-03    -26.5723E-03     81.8120E-03    -27.9453E-03     54.8184E-03    -26.3063E-03     83.7258E-03
              48     17.5307E-03     81.6340E-03    -2.58728E+06     171.317E+06     101.823E+06     908.590E+03    -25.8003E-03     52.4054E-03    -26.6051E-03     81.1897E-03    -27.5271E-03     54.4361E-03    -26.3406E-03     83.1230E-03
              49     17.5341E-03     82.6237E-03    -3.19928E+06     170.564E+06     100.054E+06    -618.102E+03    -23.8808E-03     50.4938E-03    -26.6130E-03     79.5582E-03    -25.5705E-03     52.4878E-03    -26.3554E-03     81.5261E-03
              50     17.5328E-03     83.6238E-03    -3.10982E+06     170.996E+06     100.861E+06     25.4731E+03    -26.3084E-03     52.8541E-03    -26.5457E-03     80.9805E-03    -27.9894E-03     54.8389E-03    -26.2849E-03     82.8455E-03
              51     17.5326E-03     84.6314E-03    -1.08658E+06     174.126E+06     103.101E+06     542.048E+03    -26.8692E-03     53.4221E-03    -26.5529E-03     78.9420E-03    -28.5296E-03     55.3980E-03    -26.2883E-03     80.7700E-03
              52     17.5329E-03     85.6192E-03    -3.10094E+06     173.493E+06     101.621E+06     286.480E+03    -26.0645E-03     52.6390E-03    -26.5746E-03     77.3728E-03    -27.7163E-03     54.6012E-03    -26.3135E-03     79.2499E-03
              53     17.5321E-03     86.6291E-03    -3.05476E+06     174.198E+06     101.629E+06     1.18339E+06    -25.7051E-03     52.2832E-03    -26.5781E-03     77.6497E-03    -27.3610E-03     54.2522E-03    -26.3181E-03     79.5330E-03
              54     17.5338E-03     87.6236E-03    -2.04653E+06     175.520E+06     102.385E+06     209.738E+03    -24.3998E-03     50.9950E-03    -26.5952E-03     79.2499E-03    -26.0724E-03     52.9868E-03    -26.3348E-03     81.1811E-03
              55     17.5325E-03     88.6205E-03    -1.90697E+06     175.671E+06     102.290E+06     58.0667E+03    -24.9716E-03     51.5303E-03    -26.5587E-03     76.6876E-03    -26.6037E-03     53.4828E-03    -26.2992E-03     78.5619E-03
              56     17.5347E-03     89.6201E-03    -2.66793E+06     174.659E+06     101.368E+06    -803.405E+03    -26.5310E-03     53.0285E-03    -26.4975E-03     77.1983E-03    -28.1750E-03     54.9893E-03    -26.2400E-03     79.0112E-03
              57     17.5328E-03     90.6231E-03    -3.28692E+06     173.834E+06     100.844E+06    -287.627E+03    -26.8228E-03     53.3058E-03    -26.4830E-03     79.2323E-03    -28.5038E-03     55.3002E-03    -26.2261E-03     81.0789E-03
              58     17.5349E-03     91.6262E-03    -2.37971E+06     173.961E+06     100.621E+06     575.103E+03    -24.3459E-03     50.8653E-03    -26.5194E-03     79.0844E-03    -26.0194E-03     52.8565E-03    -26.2651E-03     81.0188E-03
              59     17.5344E-03     92.6134E-03    -2.52387E+06     172.885E+06     100.050E+06    -898.265E+03    -25.2000E-03     51.6574E-03    -26.4574E-03     77.2128E-03    -26.8402E-03     53.6125E-03    -26.2042E-03     79.0886E-03
              60     17.5359E-03     93.6194E-03    -3.58431E+06     171.316E+06     99.0981E+06    -975.617E+03    -27.5310E-03     53.8817E-03    -26.3507E-03     74.6016E-03    -29.1406E-03     55.7994E-03    -26.0984E-03     76.3696E-03
              61     17.5363E-03     94.6200E-03    -2.75789E+06     172.225E+06     100.010E+06     377.290E+03    -26.8367E-03     53.1541E-03    -26.3173E-03     78.3521E-03    -28.4979E-03     55.1267E-03    -26.0630E-03     80.1985E-03
              62     17.5378E-03     95.6238E-03    -826.002E+03     173.905E+06     101.826E+06     1.12447E+06    -25.4122E-03     51.7050E-03    -26.2929E-03     81.6942E-03    -27.1108E-03     53.7228E-03    -26.0347E-03     83.6199E-03
              63     17.5391E-03     96.6199E-03    -2.92533E+06     171.633E+06     100.493E+06    -426.095E+03    -25.8670E-03     52.0717E-03    -26.2046E-03     80.8514E-03    -27.5650E-03     54.0772E-03    -25.9468E-03     82.7517E-03
              64     17.5402E-03     97.6149E-03    -3.40972E+06     169.435E+06     100.153E+06    -810.618E+03    -28.4357E-03     54.4931E-03    -26.0574E-03     75.5828E-03    -30.0638E-03     56.4202E-03    -25.7974E-03     77.3505E-03
              65     17.5421E-03     98.6211E-03    -3.32643E+06     167.769E+06     101.059E+06    -801.340E+03    -29.5082E-03     55.4569E-03    -25.9488E-03     74.4183E-03    -31.1208E-03     57.3603E-03    -25.6819E-03     76.1431E-03
              66     17.5431E-03     99.6239E-03    -2.86001E+06     165.461E+06     101.357E+06    -809.433E+03    -29.6258E-03     55.4866E-03    -25.8608E-03     76.0108E-03    -31.2611E-03     57.4052E-03    -25.5898E-03     77.7603E-03
              67     17.5454E-03     100.625E-03    -2.86314E+06     162.858E+06     101.671E+06    -1.13462E+06    -30.9252E-03     56.6719E-03    -25.7467E-03     74.6645E-03    -32.5447E-03     58.5645E-03    -25.4704E-03     76.3618E-03
              68     17.5457E-03     101.630E-03    -1.89953E+06     159.819E+06     102.090E+06    -1.33065E+06    -33.2174E-03     58.8416E-03    -25.6242E-03     73.8029E-03    -34.8326E-03     60.7214E-03    -25.3428E-03     75.4209E-03
              69     17.5475E-03     102.638E-03    -4.07444E+06     154.764E+06     99.1651E+06    -2.80540E+06    -35.7697E-03     61.2593E-03    -25.4897E-03     74.1513E-03    -37.4039E-03     63.1409E-03    -25.2123E-03     75.6723E-03
              70     17.5481E-03     103.648E-03    -1.54594E+06     152.263E+06     98.5857E+06    -1.47249E+06    -37.7784E-03     63.1483E-03    -25.3699E-03     76.3858E-03    -39.4268E-03     65.0461E-03    -25.0955E-03     77.8495E-03
              71     17.5497E-03     104.665E-03    -1.18562E+06     148.998E+06     98.0617E+06    -1.69207E+06    -40.5307E-03     65.7697E-03    -25.2389E-03     81.9652E-03    -42.2610E-03     67.7405E-03    -24.9630E-03     83.3367E-03
              72     17.5504E-03     105.677E-03    -2.75211E+06     140.951E+06     97.4620E+06    -2.08833E+06    -44.9575E-03     70.0409E-03    -25.0834E-03     82.5435E-03    -46.7243E-03     72.0158E-03    -24.7965E-03     83.7478E-03
              73     17.5512E-03     106.698E-03    -5.79835E+06     133.538E+06     97.0082E+06    -2.24483E+06    -49.0443E-03     73.9965E-03    -24.9521E-03     82.8634E-03    -50.8781E-03     76.0029E-03    -24.6523E-03     83.9023E-03
              74     17.5518E-03     107.724E-03    -2.38724E+06     126.097E+06     97.2243E+06    -2.10688E+06    -54.1512E-03     78.9458E-03    -24.7946E-03     92.1730E-03    -56.1296E-03     81.0831E-03    -24.4879E-03     93.0237E-03
              75     17.5529E-03     108.763E-03    -3.81177E+06     120.377E+06     99.8753E+06    -1.22491E+06    -60.9208E-03     85.5395E-03    -24.6187E-03     103.428E-03    -63.0927E-03     87.8373E-03    -24.2883E-03     104.008E-03
              76     17.5529E-03     109.800E-03     -997.78E+03     116.154E+06     103.195E+06    -915.231E+03    -69.3665E-03     93.7631E-03    -24.3967E-03     113.966E-03    -71.7411E-03     96.2490E-03    -24.0477E-03     114.177E-03
              77     17.5547E-03     110.851E-03    -7.74341E+06     109.466E+06     98.5958E+06    -3.07994E+06    -78.0422E-03     102.186E-03    -24.1436E-03     132.795E-03    -80.7279E-03     104.955E-03    -23.7981E-03     132.497E-03
              78     17.5555E-03     111.932E-03     117.319E+03     103.910E+06     96.1112E+06    -1.55501E+06    -80.2865E-03     104.330E-03    -24.0435E-03     165.610E-03    -83.4324E-03     107.575E-03    -23.7137E-03     165.001E-03
              79     17.5581E-03     112.986E-03    -10.3611E+06     80.0767E+06     53.8567E+06    -15.3283E+06    -74.8743E-03     98.8646E-03    -23.9903E-03     200.146E-03    -78.3588E-03     102.445E-03    -23.8221E-03     199.232E-03
              80     17.5588E-03     114.039E-03    -4.44036E+06     33.8682E+06     13.5760E+06    -23.5297E+06    -54.7354E-03     79.0644E-03    -24.3290E-03     219.637E-03    -57.3560E-03     81.7563E-03    -24.3038E-03     218.954E-03
              81     17.5607E-03     115.030E-03     9.13261E+06     3.28429E+06     11.3352E+06    -8.29719E+06    -13.4548E-03     39.8196E-03    -26.3648E-03     182.853E-03    -14.3769E-03     40.7644E-03    -26.3261E-03     182.782E-03
              82     17.4829E-03     115.950E-03    -4.04004E+06    -10.7925E+06     5.67048E+06     1.78947E+06     15.3836E-03     17.1309E-03    -32.5145E-03     71.8169E-03     15.2921E-03     17.1314E-03    -32.4646E-03     71.8755E-03
              83     16.3712E-03     116.682E-03     1.32548E+06     18.8257E+06     44.1167E+06     1.99170E+06     14.1207E-03     23.7779E-03    -37.8986E-03     14.2599E-03     14.0253E-03     23.7959E-03    -37.7072E-03     14.2852E-03
              84     15.4719E-03     116.491E-03    -16.3354E+06     3.02021E+06     62.5913E+06    -3.71557E+06    -9.06909E-03     48.0076E-03    -38.9386E-03     21.3639E-03    -9.25126E-03     47.9563E-03    -38.6063E-03     21.2964E-03
              85     14.6274E-03     116.272E-03    -10.0029E+06    -10.3063E+06     48.2680E+06    -9.44279E+06    -27.5045E-03     66.2391E-03    -38.7347E-03     9.04343E-03    -27.6312E-03     66.1173E-03    -38.4639E-03     8.88878E-03
              86     13.7870E-03     116.091E-03     4.16852E+06    -2.76035E+06     54.3765E+06    -9.74842E+06    -30.2402E-03     68.4149E-03    -38.1747E-03    -2.04957E-03    -30.3106E-03     68.3015E-03    -37.9049E-03    -2.20470E-03
              87     12.9343E-03     115.950E-03     11.6393E+06    -4.33064E+06     65.3677E+06    -2.90171E+06    -36.3860E-03     73.9974E-03    -37.6114E-03    -9.73865E-03    -36.4256E-03     73.8542E-03    -37.2951E-03    -9.81173E-03
              88     12.0887E-03     115.825E-03     15.4217E+06     1.56033E+06     64.0292E+06    -2.07412E+06    -41.3304E-03     78.0663E-03    -36.7359E-03    -13.0957E-03    -41.3564E-03     77.9492E-03    -36.4404E-03    -13.1623E-03
              89     11.2405E-03     115.719E-03     18.2800E+06    -3.66735E+06     61.1747E+06    -1.53085E+06    -42.7970E-03     78.4887E-03    -35.6917E-03    -12.6396E-03    -42.7951E-03     78.3472E-03    -35.4070E-03    -12.6979E-03
              90     10.3914E-03     115.626E-03     20.1999E+06     1.28376E+06     62.2353E+06    -1.35863E+06    -42.0355E-03     76.6623E-03    -34.6268E-03    -11.0857E-03    -42.0317E-03     76.5426E-03    -34.3468E-03    -11.1369E-03
              91     9.53756E-03     115.547E-03     21.4261E+06    -1.37146E+06     60.7596E+06    -1.32664E+06    -40.2008E-03     73.8319E-03    -33.6311E-03    -9.24302E-03    -40.1838E-03     73.7009E-03    -33.3564E-03    -9.28750E-03
              92     8.68063E-03     115.479E-03     22.2171E+06     565.090E+03     57.6152E+06    -1.39009E+06    -38.1608E-03     70.8947E-03    -32.7338E-03    -7.56856E-03    -38.1375E-03     70.7777E-03    -32.4788E-03    -7.60815E-03
              93     7.82007E-03     115.422E-03     22.6084E+06    -838.116E+03     53.0443E+06    -1.23086E+06    -36.3030E-03     68.2533E-03    -31.9503E-03    -6.13422E-03    -36.2683E-03     68.1363E-03    -31.7166E-03    -6.16711E-03
              94     6.95675E-03     115.372E-03     23.2178E+06     751.944E+03     50.0004E+06    -1.61481E+06    -34.7050E-03     65.9762E-03    -31.2712E-03    -5.03339E-03    -34.6648E-03     65.8713E-03    -31.0560E-03    -5.06779E-03
              95     6.09142E-03     115.331E-03     24.1282E+06    -885.048E+03     44.9148E+06    -1.63449E+06    -33.2600E-03     63.9390E-03    -30.6790E-03    -4.13023E-03    -33.2052E-03     63.8323E-03    -30.4881E-03    -4.16217E-03
              96     5.22409E-03     115.296E-03     24.8980E+06     202.384E+03     40.7700E+06    -1.29283E+06    -32.0079E-03     62.1879E-03    -30.1800E-03    -3.38027E-03    -31.9446E-03     62.0918E-03    -30.0125E-03    -3.40558E-03
              97     4.35541E-03     115.267E-03     25.5585E+06    -238.521E+03     37.6253E+06    -1.38854E+06    -30.9698E-03     60.7482E-03    -29.7784E-03    -2.76182E-03    -30.8979E-03     60.6537E-03    -29.6270E-03    -2.78653E-03
              98     3.48539E-03     115.244E-03     26.4483E+06     97.3184E+03     34.7839E+06    -1.56571E+06    -30.1739E-03     59.6355E-03    -29.4615E-03    -2.22911E-03    -30.0938E-03     59.5456E-03    -29.3261E-03    -2.25455E-03
              99     2.61472E-03     115.226E-03     27.6039E+06    -719.999E+03     31.7920E+06    -1.41177E+06    -29.5747E-03     58.8017E-03    -29.2270E-03    -1.77007E-03    -29.4832E-03     58.7104E-03    -29.1070E-03    -1.79213E-03
             100     1.74321E-03     115.213E-03     28.5402E+06    -293.495E+03     30.2526E+06    -1.04462E+06    -29.1709E-03     58.2561E-03    -29.0853E-03    -1.34347E-03    -29.0731E-03     58.1679E-03    -28.9750E-03    -1.35953E-03
             101     871.530E-06     115.205E-03     29.0733E+06    -559.581E+03     28.5712E+06    -1.10486E+06    -28.8026E-03     58.0412E-03    -29.2387E-03    -1.01987E-03    -28.6994E-03     57.9533E-03    -29.1371E-03    -1.03559E-03
             102     531.705E-09     114.197E-03     25.8020E+06    -2.00859E+06     25.4293E+06    -1.04870E+06    -26.1303E-03     52.4938E-03    -26.3635E-03     22.0189E-06    -26.0364E-03     52.4084E-03    -26.2709E-03     7.43798E-06
             103    -178.004E-09     113.203E-03     15.7886E+06    -5.93732E+06     16.6594E+06    -977.711E+03    -21.7014E-03     43.1887E-03    -21.4873E-03     1.11765E-03    -21.6386E-03     43.1115E-03    -21.4183E-03     1.10393E-03
             104     216.040E-09     112.218E-03     2.51308E+06    -11.2350E+06     2.84981E+06    -1.79321E+06    -18.4470E-03     36.8613E-03    -18.4143E-03     1.60585E-03    -18.4224E-03     36.7972E-03    -18.3874E-03     1.58179E-03
             105    -191.051E-09     111.236E-03    -15.4886E+06    -18.0972E+06    -15.1773E+06    -2.11926E+06    -16.3878E-03     32.7646E-03    -16.3769E-03     2.16644E-03    -16.4170E-03     32.7186E-03    -16.4040E-03     2.13846E-03
             106     187.746E-09     110.258E-03    -37.8179E+06    -25.8373E+06    -37.5895E+06    -2.46540E+06    -15.2237E-03     30.4583E-03    -15.2346E-03     2.58945E-03    -15.3208E-03     30.4385E-03    -15.3302E-03     2.55722E-03
             107    -203.886E-09     109.281E-03    -59.8567E+06    -34.0531E+06    -59.8947E+06    -2.49147E+06    -14.7649E-03     29.5507E-03    -14.7858E-03     2.90703E-03    -14.9279E-03     29.5541E-03    -14.9491E-03     2.87463E-03
             108     178.751E-09     108.304E-03    -82.9958E+06    -42.0506E+06    -82.7513E+06    -2.38531E+06    -14.8002E-03     29.6208E-03    -14.8207E-03     3.12944E-03    -15.0342E-03     29.6510E-03    -15.0531E-03     3.09852E-03
             109    -191.603E-09     107.327E-03    -96.6293E+06    -47.2684E+06    -97.7648E+06    -555.721E+03    -15.1922E-03     30.3828E-03    -15.1906E-03     3.27468E-03    -15.4650E-03     30.4283E-03    -15.4708E-03     3.26745E-03
             110     189.526E-09     106.349E-03    -78.4350E+06    -41.3597E+06    -80.0693E+06     4.16076E+06    -15.9174E-03     31.8513E-03    -15.9339E-03     3.38755E-03    -16.1335E-03     31.8744E-03    -16.1605E-03     3.44125E-03
             111    -240.408E-09     105.369E-03    -44.4841E+06    -21.7406E+06    -44.7542E+06     7.67164E+06    -16.9533E-03     33.9526E-03    -16.9993E-03     3.49518E-03    -17.0793E-03     33.9733E-03    -17.1270E-03     3.59423E-03
             112     201.403E-09     104.387E-03    -22.6437E+06    -803.455E+03    -20.5333E+06     4.88162E+06    -18.2341E-03     36.4815E-03    -18.2474E-03     3.61592E-03    -18.3164E-03     36.5401E-03    -18.3160E-03     3.67895E-03
             113    -167.380E-09     103.402E-03    -7.36735E+06     7.01978E+06    -6.49393E+06    -87.8545E+03    -19.6030E-03     39.1944E-03    -19.5914E-03     3.69975E-03    -19.6407E-03     39.2496E-03    -19.6233E-03     3.69853E-03
             114     158.364E-09     102.415E-03     1.22793E+06     3.80414E+06     1.41080E+06    -1.88148E+06    -20.8993E-03     41.7976E-03    -20.8983E-03     3.71433E-03    -20.9008E-03     41.8128E-03    -20.8986E-03     3.68982E-03
             115    -151.232E-09     101.424E-03     4.83660E+06    -3.41992E+06     4.83595E+06    -2.34541E+06    -22.0625E-03     44.1312E-03    -22.0686E-03     3.70061E-03    -22.0405E-03     44.1001E-03    -22.0465E-03     3.66993E-03
             116     127.645E-09     100.432E-03     5.24519E+06    -11.4053E+06     5.20727E+06    -2.40175E+06    -23.0667E-03     46.1378E-03    -23.0710E-03     3.66946E-03    -23.0315E-03     46.0656E-03    -23.0361E-03     3.63785E-03
             117    -117.865E-09     99.4385E-03     3.84326E+06    -19.8533E+06     3.86323E+06    -2.57475E+06    -23.9081E-03     47.8195E-03    -23.9113E-03     3.63226E-03    -23.8657E-03     47.7091E-03    -23.8688E-03     3.59821E-03
             118     96.9578E-09     98.4430E-03     2.04730E+06    -28.6053E+06     1.96569E+06    -2.59660E+06    -24.5931E-03     49.1934E-03    -24.6003E-03     3.59366E-03    -24.5443E-03     49.0446E-03    -24.5519E-03     3.55916E-03
             119    -95.2082E-09     97.4465E-03    -883.924E+03     -37.545E+06    -895.172E+03    -2.61996E+06    -25.1358E-03     50.2752E-03    -25.1394E-03     3.56706E-03    -25.0845E-03     50.0901E-03    -25.0881E-03     3.53210E-03
             120     81.5082E-09     96.4490E-03    -4.54554E+06    -45.9660E+06    -4.76231E+06    -2.30126E+06    -25.5537E-03     51.1018E-03    -25.5482E-03     3.54313E-03    -25.5029E-03     50.8856E-03    -25.4987E-03     3.51215E-03
             121    -66.2149E-09     95.4509E-03    -7.99920E+06    -53.5587E+06    -7.97583E+06    -2.13118E+06    -25.8642E-03     51.7255E-03    -25.8613E-03     3.50712E-03    -25.8150E-03     51.4810E-03    -25.8119E-03     3.47823E-03
             122     50.7889E-09     94.4522E-03    -11.2274E+06    -60.4500E+06    -11.3921E+06    -1.93217E+06    -26.0937E-03     52.1899E-03    -26.0962E-03     3.48988E-03    -26.0457E-03     51.9205E-03    -26.0492E-03     3.46348E-03
             123    -47.0092E-09     93.4533E-03    -15.0710E+06    -66.8244E+06    -15.0730E+06    -1.77864E+06    -26.2584E-03     52.5181E-03    -26.2597E-03     3.47966E-03    -26.2150E-03     52.2278E-03    -26.2164E-03     3.45518E-03
             124     35.3227E-09     92.4539E-03    -17.9966E+06     -72.708E+06    -18.0784E+06    -1.65428E+06    -26.3757E-03     52.7440E-03    -26.3683E-03     3.46278E-03    -26.3341E-03     52.4329E-03    -26.3271E-03     3.43986E-03
             125    -16.8922E-09     91.4546E-03    -20.2755E+06    -78.1981E+06    -20.2958E+06    -1.55452E+06    -26.4541E-03     52.9058E-03    -26.4518E-03     3.45902E-03    -26.4126E-03     52.5737E-03    -26.4105E-03     3.43736E-03
             126    -3.15230E-09     90.4550E-03    -22.1671E+06    -83.2464E+06    -22.2369E+06    -1.41463E+06    -26.5047E-03     53.0119E-03    -26.5072E-03     3.45010E-03    -26.4626E-03     52.6602E-03    -26.4656E-03     3.43023E-03
             127     12.5619E-09     89.4555E-03    -24.1393E+06    -88.1470E+06    -24.0901E+06    -1.45145E+06    -26.5408E-03     53.0773E-03    -26.5365E-03     3.44725E-03    -26.4988E-03     52.7066E-03    -26.4942E-03     3.42689E-03
             128    -19.2890E-09     88.4558E-03    -25.0634E+06    -92.6920E+06    -25.2468E+06    -1.18564E+06    -26.5654E-03     53.1239E-03    -26.5585E-03     3.45029E-03    -26.5198E-03     52.7335E-03    -26.5140E-03     3.43336E-03
             129     30.6394E-09     87.4562E-03    -26.3697E+06    -96.4542E+06    -26.2701E+06    -1.01576E+06    -26.5738E-03     53.1416E-03    -26.5678E-03     3.45078E-03    -26.5278E-03     52.7358E-03    -26.5211E-03     3.43604E-03
             130    -35.7354E-09     86.4566E-03    -26.8657E+06    -99.8386E+06    -27.0070E+06    -932.239E+03    -26.5734E-03     53.1510E-03    -26.5776E-03     3.44881E-03    -26.5239E-03     52.7300E-03    -26.5289E-03     3.43515E-03
             131     26.5125E-09     85.4570E-03    -26.8973E+06    -103.028E+06    -26.7911E+06    -910.970E+03    -26.5790E-03     53.1629E-03    -26.5839E-03     3.44588E-03    -26.5253E-03     52.7257E-03    -26.5295E-03     3.43249E-03
             132    -30.1082E-09     84.4573E-03    -26.9995E+06    -105.787E+06    -27.2522E+06    -662.900E+03    -26.5787E-03     53.1523E-03    -26.5736E-03     3.44760E-03    -26.5209E-03     52.7021E-03    -26.5173E-03     3.43741E-03
             133     34.5241E-09     83.4578E-03    -27.8977E+06    -107.459E+06    -27.8346E+06    -309.079E+03    -26.5751E-03     53.1428E-03    -26.5677E-03     3.45139E-03    -26.5184E-03     52.6864E-03    -26.5106E-03     3.44577E-03
             134    -30.6429E-09     82.4582E-03    -27.7846E+06    -108.981E+06    -27.6918E+06    -581.932E+03    -26.5735E-03     53.1387E-03    -26.5652E-03     3.45215E-03    -26.5143E-03     52.6743E-03    -26.5053E-03     3.44301E-03
             135     37.0165E-09     81.4587E-03    -27.6458E+06    -110.809E+06    -27.7986E+06    -444.511E+03    -26.5744E-03     53.1308E-03    -26.5564E-03     3.46083E-03    -26.5117E-03     52.6573E-03    -26.4947E-03     3.45347E-03
             136    -19.0666E-09     80.4591E-03    -26.9390E+06    -111.033E+06    -27.2579E+06     345.841E+03    -26.5665E-03     53.1345E-03    -26.5680E-03     3.46296E-03    -26.5007E-03     52.6580E-03    -26.5042E-03     3.46582E-03
             137    -10.4822E-09     79.4596E-03    -26.2308E+06    -109.967E+06    -25.8808E+06     277.614E+03    -26.5682E-03     53.1509E-03    -26.5827E-03     3.44637E-03    -26.5024E-03     52.6767E-03    -26.5146E-03     3.44834E-03
             138     13.0977E-09     78.4600E-03    -27.1588E+06    -110.841E+06    -26.9571E+06    -794.593E+03    -26.5731E-03     53.1398E-03    -26.5666E-03     3.43977E-03    -26.5092E-03     52.6641E-03    -26.5013E-03     3.42788E-03
             139    -7.41049E-09     77.4605E-03    -26.8092E+06    -113.316E+06    -27.1608E+06    -564.241E+03    -26.5700E-03     53.1320E-03    -26.5620E-03     3.45088E-03    -26.5003E-03     52.6438E-03    -26.4947E-03     3.44197E-03
             140     6.18502E-09     76.4609E-03    -25.9791E+06    -114.826E+06    -25.7988E+06    -242.686E+03    -26.5727E-03     53.1498E-03    -26.5772E-03     3.45316E-03    -26.4987E-03     52.6509E-03    -26.5020E-03     3.44840E-03
             141    -16.3020E-09     75.4614E-03    -25.2637E+06    -115.611E+06    -25.4203E+06    -226.816E+03    -26.5744E-03     53.1504E-03    -26.5760E-03     3.45027E-03    -26.4962E-03     52.6459E-03    -26.4989E-03     3.44573E-03
             142     16.3549E-09     74.4618E-03    -24.9300E+06    -115.989E+06    -24.8953E+06     18.5103E+03    -26.5726E-03     53.1403E-03    -26.5676E-03     3.45791E-03    -26.4930E-03     52.6327E-03    -26.4878E-03     3.45654E-03
             143    -12.7116E-09     73.4624E-03    -24.7546E+06    -116.022E+06    -24.7754E+06    -11.4348E+03    -26.5684E-03     53.1315E-03    -26.5632E-03     3.45103E-03    -26.4880E-03     52.6233E-03    -26.4829E-03     3.44927E-03
             144     12.5180E-09     72.4628E-03    -24.6311E+06    -116.027E+06    -24.6213E+06     28.6896E+03    -26.5626E-03     53.1233E-03    -26.5607E-03     3.43961E-03    -26.4818E-03     52.6147E-03    -26.4799E-03     3.43837E-03
             145    -14.4058E-09     71.4634E-03    -24.5540E+06    -116.069E+06    -24.5129E+06    -44.5609E+03    -26.5521E-03     53.1151E-03    -26.5630E-03     3.43958E-03    -26.4710E-03     52.6060E-03    -26.4817E-03     3.43739E-03
             146    -7.84484E-09     70.4639E-03    -24.1613E+06    -116.067E+06    -24.2603E+06     51.2366E+03    -26.5539E-03     53.1158E-03    -26.5619E-03     3.43814E-03    -26.4712E-03     52.6058E-03    -26.4799E-03     3.43721E-03
             147     9.42868E-09     69.4644E-03    -23.8672E+06    -115.780E+06    -23.8535E+06     133.981E+03    -26.5576E-03     53.1186E-03    -26.5610E-03     3.43743E-03    -26.4745E-03     52.6090E-03    -26.4777E-03     3.43757E-03
             148    -22.1244E-09     68.4649E-03    -23.6967E+06    -115.550E+06    -23.6451E+06     28.2273E+03    -26.5570E-03     53.1261E-03    -26.5692E-03     3.43387E-03    -26.4736E-03     52.6171E-03    -26.4855E-03     3.43264E-03
             149     8.61360E-09     67.4654E-03    -23.8089E+06    -115.631E+06    -23.8394E+06    -57.8429E+03    -26.5666E-03     53.1354E-03    -26.5688E-03     3.43361E-03    -26.4835E-03     52.6265E-03    -26.4858E-03     3.43127E-03
             150    -4.73280E-09     66.4659E-03    -24.0825E+06    -115.760E+06    -24.0979E+06     4.07365E+03    -26.5751E-03     53.1423E-03    -26.5672E-03     3.44822E-03    -26.4928E-03     52.6335E-03    -26.4849E-03     3.44668E-03
             151     9.19841E-09     65.4663E-03    -23.8771E+06    -115.794E+06    -23.8597E+06     23.2417E+03    -26.5833E-03     53.1581E-03    -26.5748E-03     3.45387E-03    -26.5002E-03     52.6484E-03    -26.4915E-03     3.45258E-03
             152    -3.90513E-09     64.4668E-03    -23.3912E+06    -115.644E+06    -23.4330E+06     98.7917E+03    -26.5981E-03     53.1771E-03    -26.5790E-03     3.44554E-03    -26.5134E-03     52.6669E-03    -26.4946E-03     3.44521E-03
             153     26.0633E-09     63.4672E-03    -23.0294E+06    -115.306E+06    -22.9697E+06     90.9639E+03    -26.6077E-03     53.1917E-03    -26.5841E-03     3.44671E-03    -26.5223E-03     52.6820E-03    -26.4983E-03     3.44628E-03
             154    -11.6064E-09     62.4676E-03    -22.9291E+06    -115.173E+06    -22.9284E+06    -5.03384E+03    -26.6119E-03     53.1977E-03    -26.5858E-03     3.44281E-03    -26.5263E-03     52.6884E-03    -26.5002E-03     3.44114E-03
             155     37.4551E-09     61.4681E-03    -23.2771E+06    -115.246E+06    -23.2800E+06    -12.4114E+03    -26.6101E-03     53.1983E-03    -26.5882E-03     3.43659E-03    -26.5256E-03     52.6896E-03    -26.5037E-03     3.43483E-03
             156    -30.3716E-09     60.4685E-03    -23.4182E+06    -115.258E+06    -23.4138E+06    -14.6897E+03    -26.5892E-03     53.1944E-03    -26.6052E-03     3.43326E-03    -26.5053E-03     52.6861E-03    -26.5212E-03     3.43147E-03
             157    -10.0618E-09     59.4690E-03    -23.1658E+06    -115.255E+06    -23.1862E+06     37.6429E+03    -26.5856E-03     53.1949E-03    -26.6093E-03     3.42826E-03    -26.5007E-03     52.6859E-03    -26.5245E-03     3.42715E-03
             158     3.37292E-09     58.4693E-03    -22.8441E+06    -115.029E+06    -22.8454E+06     94.3874E+03    -26.5997E-03     53.1867E-03    -26.5870E-03     3.44611E-03    -26.5140E-03     52.6779E-03    -26.5013E-03     3.44573E-03
             159    -25.1264E-09     56.4702E-03    -22.8707E+06    -114.945E+06    -22.9424E+06    -1.78753E+03    -26.5689E-03     53.1362E-03    -26.5674E-03     3.43744E-03    -26.4833E-03     52.6280E-03    -26.4822E-03     3.43581E-03
             160     26.5793E-09     55.4708E-03    -23.0822E+06    -114.908E+06    -23.0602E+06     37.3792E+03    -26.5528E-03     53.1203E-03    -26.5675E-03     3.43770E-03    -26.4681E-03     52.6128E-03    -26.4828E-03     3.43658E-03
             161    -59.1291E-09     54.4712E-03    -23.0440E+06    -114.841E+06    -23.0656E+06     38.4183E+03    -26.5468E-03     53.1141E-03    -26.5672E-03     3.44603E-03    -26.4621E-03     52.6068E-03    -26.4826E-03     3.44492E-03
             162     50.1994E-09     53.4717E-03    -23.2017E+06    -114.843E+06    -23.1317E+06    -59.2721E+03    -26.5593E-03     53.1035E-03    -26.5442E-03     3.44352E-03    -26.4753E-03     52.5965E-03    -26.4597E-03     3.44114E-03
             163    -19.4171E-09     52.4723E-03    -23.2571E+06    -115.111E+06    -23.3313E+06    -44.0406E+03    -26.5592E-03     53.0975E-03    -26.5383E-03     3.45667E-03    -26.4748E-03     52.5896E-03    -26.4543E-03     3.45449E-03
             164     18.9915E-09     51.4728E-03    -22.8409E+06    -114.920E+06    -22.8974E+06     150.125E+03    -26.5553E-03     53.1051E-03    -26.5498E-03     3.45030E-03    -26.4697E-03     52.5969E-03    -26.4645E-03     3.45065E-03
             165    -14.8832E-09     50.4733E-03    -22.5150E+06    -114.575E+06    -22.4154E+06     116.730E+03    -26.5626E-03     53.1023E-03    -26.5396E-03     3.44425E-03    -26.4766E-03     52.5946E-03    -26.4529E-03     3.44418E-03
             166     46.7450E-09     49.4738E-03    -22.5728E+06    -114.509E+06    -22.5491E+06    -55.1840E+03    -26.5652E-03     53.0958E-03    -26.5306E-03     3.44628E-03    -26.4794E-03     52.5888E-03    -26.4446E-03     3.44397E-03
             167    -23.1380E-09     48.4744E-03    -23.1257E+06    -114.742E+06    -23.1577E+06    -67.7253E+03    -26.5385E-03     53.0696E-03    -26.5311E-03     3.43763E-03    -26.4542E-03     52.5631E-03    -26.4470E-03     3.43514E-03
             168     6.70622E-09     47.4749E-03    -23.2114E+06    -114.803E+06    -23.2395E+06     22.3383E+03    -26.5040E-03     53.0311E-03    -26.5270E-03     3.40739E-03    -26.4200E-03     52.5245E-03    -26.4431E-03     3.40610E-03
             169    -36.2235E-09     46.4756E-03    -22.9002E+06    -114.612E+06    -22.9343E+06     82.3269E+03    -26.4858E-03     52.9984E-03    -26.5127E-03     3.37485E-03    -26.4008E-03     52.4919E-03    -26.4279E-03     3.37437E-03
             170     12.9833E-09     45.4762E-03    -22.5281E+06    -114.375E+06    -22.5098E+06     77.6646E+03    -26.4833E-03     52.9669E-03    -26.4836E-03     3.37964E-03    -26.3975E-03     52.4604E-03    -26.3976E-03     3.37909E-03
             171     4.66073E-09     44.4769E-03    -22.4333E+06    -114.279E+06    -22.4284E+06     29.8414E+03    -26.4574E-03     52.8961E-03    -26.4387E-03     3.39952E-03    -26.3713E-03     52.3898E-03    -26.3526E-03     3.39833E-03
             172     5.12767E-09     43.4776E-03    -22.5714E+06    -114.326E+06    -22.5246E+06    -42.6639E+03    -26.3992E-03     52.7992E-03    -26.4001E-03     3.39759E-03    -26.3136E-03     52.2931E-03    -26.3142E-03     3.39547E-03
             173    -21.2702E-09     42.4786E-03    -22.7137E+06    -114.635E+06    -22.7470E+06    -94.9660E+03    -26.3527E-03     52.7165E-03    -26.3637E-03     3.36093E-03    -26.2671E-03     52.2093E-03    -26.2783E-03     3.35816E-03
             174     12.5177E-09     41.4794E-03    -22.7410E+06    -114.646E+06    -22.8216E+06     98.3811E+03    -26.3017E-03     52.6119E-03    -26.3101E-03     3.35031E-03    -26.2161E-03     52.1048E-03    -26.2250E-03     3.35006E-03
             175    -24.5714E-09     40.4806E-03    -22.7099E+06    -114.462E+06    -22.6381E+06     37.3129E+03    -26.2340E-03     52.4837E-03    -26.2497E-03     3.32783E-03    -26.1488E-03     51.9773E-03    -26.1640E-03     3.32679E-03
             176     4.77652E-09     39.4817E-03    -22.9839E+06    -114.531E+06    -23.0244E+06    -71.5862E+03    -26.1639E-03     52.3463E-03    -26.1824E-03     3.31268E-03    -26.0794E-03     51.8405E-03    -26.0982E-03     3.31024E-03
             177    -22.9143E-09     38.4831E-03    -23.3351E+06    -114.603E+06    -23.3776E+06     22.9596E+03    -26.0789E-03     52.1806E-03    -26.1017E-03     3.31043E-03    -25.9955E-03     51.6754E-03    -26.0185E-03     3.30923E-03
             178    -4.37607E-09     37.4846E-03    -23.2287E+06    -114.460E+06    -23.2738E+06     113.729E+03    -25.9936E-03     51.9931E-03    -25.9996E-03     3.28572E-03    -25.9100E-03     51.4883E-03    -25.9163E-03     3.28570E-03
             179     15.6514E-09     36.4864E-03    -23.0255E+06    -114.192E+06    -22.9543E+06     21.8988E+03    -25.8969E-03     51.7784E-03    -25.8814E-03     3.25670E-03    -25.8132E-03     51.2742E-03    -25.7972E-03     3.25549E-03
             180    -3.72513E-09     35.4883E-03    -22.7879E+06    -113.955E+06    -22.8750E+06     122.441E+03    -25.7624E-03     51.5158E-03    -25.7534E-03     3.23920E-03    -25.6780E-03     51.0123E-03    -25.6695E-03     3.23932E-03
             181     1.90654E-09     34.4906E-03    -22.4080E+06    -113.323E+06    -22.3818E+06     212.788E+03    -25.6066E-03     51.2162E-03    -25.6096E-03     3.20979E-03    -25.5218E-03     50.7146E-03    -25.5247E-03     3.21109E-03
             182    -9.92003E-09     33.4931E-03    -22.1366E+06    -113.136E+06    -22.0034E+06    -95.7058E+03    -25.4292E-03     50.8691E-03    -25.4399E-03     3.15071E-03    -25.3440E-03     50.3675E-03    -25.3537E-03     3.14805E-03
             183    -3.73408E-09     32.4962E-03    -22.1023E+06    -113.479E+06    -22.2581E+06    -130.605E+03    -25.2260E-03     50.4691E-03    -25.2430E-03     3.10498E-03    -25.1397E-03     49.9661E-03    -25.1577E-03     3.10191E-03
             184    -18.6306E-09     31.4994E-03    -22.5177E+06    -113.434E+06    -22.5384E+06     168.867E+03    -25.0187E-03     50.0399E-03    -25.0212E-03     3.06302E-03    -24.9341E-03     49.5381E-03    -24.9368E-03     3.06386E-03
             185     31.9786E-09     30.5033E-03    -22.9361E+06    -113.298E+06    -22.7422E+06    -64.3001E+03    -24.7903E-03     49.5757E-03    -24.7854E-03     3.01950E-03    -24.7077E-03     49.0755E-03    -24.7016E-03     3.01736E-03
             186    -38.8522E-09     29.5075E-03    -22.9865E+06    -113.571E+06    -23.1688E+06    -95.6731E+03    -24.5150E-03     49.0397E-03    -24.5246E-03     2.94624E-03    -24.4317E-03     48.5388E-03    -24.4425E-03     2.94373E-03
             187     22.8394E-09     28.5125E-03    -22.8574E+06    -113.367E+06    -22.9065E+06     210.764E+03    -24.2197E-03     48.4433E-03    -24.2236E-03     2.88063E-03    -24.1364E-03     47.9429E-03    -24.1406E-03     2.88212E-03
             188    -17.9585E-09     27.5179E-03    -22.4675E+06    -112.611E+06    -22.4833E+06     231.055E+03    -23.8890E-03     47.7941E-03    -23.9050E-03     2.80916E-03    -23.8055E-03     47.2962E-03    -23.8216E-03     2.81094E-03
             189    -18.8597E-09     26.5242E-03    -22.2002E+06    -111.755E+06    -22.2200E+06     302.825E+03    -23.5372E-03     47.0927E-03    -23.5555E-03     2.72939E-03    -23.4540E-03     46.5984E-03    -23.4723E-03     2.73215E-03
             190     19.9959E-09     25.5309E-03    -21.8163E+06    -110.540E+06    -21.8778E+06     368.401E+03    -23.1661E-03     46.3371E-03    -23.1710E-03     2.65599E-03    -23.0832E-03     45.8478E-03    -23.0885E-03     2.65966E-03
             191    -33.5725E-09     24.5388E-03    -21.4682E+06    -108.892E+06    -21.6099E+06     683.552E+03    -22.7542E-03     45.5180E-03    -22.7638E-03     2.55146E-03    -22.6723E-03     45.0361E-03    -22.6828E-03     2.55927E-03
             192     25.8046E-09     23.5471E-03    -21.2091E+06    -106.578E+06    -21.1162E+06     679.434E+03    -22.3185E-03     44.6523E-03    -22.3338E-03     2.42809E-03    -22.2393E-03     44.1808E-03    -22.2541E-03     2.43591E-03
             193    -46.7145E-09     22.5568E-03    -20.7161E+06    -104.764E+06    -20.6956E+06     394.902E+03    -21.8626E-03     43.7379E-03    -21.8753E-03     2.30003E-03    -21.7843E-03     43.2742E-03    -21.7969E-03     2.30424E-03
             194     43.1020E-09     21.5668E-03    -20.4147E+06    -103.248E+06    -20.5912E+06     525.002E+03    -21.3769E-03     42.7673E-03    -21.3904E-03     2.21215E-03    -21.2995E-03     42.3106E-03    -21.3140E-03     2.21810E-03
             195    -67.3514E-09     20.5784E-03    -19.9825E+06    -101.094E+06    -20.0222E+06     789.521E+03    -20.8675E-03     41.7437E-03    -20.8762E-03     2.07550E-03    -20.7918E-03     41.2963E-03    -20.8007E-03     2.08493E-03
             196     73.9719E-09     19.5905E-03    -19.4772E+06    -98.4049E+06    -19.4992E+06     769.823E+03    -20.3300E-03     40.6514E-03    -20.3214E-03     1.91297E-03    -20.2564E-03     40.2159E-03    -20.2479E-03     1.92221E-03
             197    -67.1808E-09     18.6042E-03    -18.8198E+06    -95.7830E+06    -18.9013E+06     814.850E+03    -19.7279E-03     39.4522E-03    -19.7243E-03     1.70653E-03    -19.6557E-03     39.0280E-03    -19.6526E-03     1.71643E-03
             198     64.7124E-09     17.6186E-03    -17.3360E+06    -93.2237E+06    -17.2865E+06     753.135E+03    -19.0912E-03     38.1760E-03    -19.0849E-03     1.56454E-03    -19.0176E-03     37.7602E-03    -19.0110E-03     1.57369E-03
             199    -51.5674E-09     16.6348E-03    -15.6298E+06    -90.4303E+06    -15.8180E+06     859.902E+03    -18.4302E-03     36.8001E-03    -18.3699E-03     1.42052E-03    -18.3543E-03     36.3935E-03    -18.2952E-03     1.43110E-03
             200     142.092E-09     15.6519E-03    -13.4847E+06     -87.045E+06    -13.5039E+06     1.18630E+06    -17.7227E-03     35.3182E-03    -17.5955E-03     1.19709E-03    -17.6443E-03     34.9221E-03    -17.5173E-03     1.21195E-03
             201    -8.38248E-09     14.6713E-03    -10.7760E+06    -83.0806E+06    -10.8110E+06     1.21346E+06    -16.9264E-03     33.7716E-03    -16.8452E-03     944.623E-06    -16.8442E-03     33.3875E-03    -16.7631E-03     959.900E-06
             202     17.8661E-09     13.6912E-03    -7.86323E+06    -78.8517E+06    -7.91910E+06     1.30107E+06    -16.0589E-03     32.0446E-03    -15.9857E-03     714.328E-06    -15.9724E-03     31.6732E-03    -15.8995E-03     730.812E-06
             203     101.905E-09     12.7137E-03    -6.52345E+06    -75.4717E+06    -6.11907E+06     703.437E+03    -15.0864E-03     30.0463E-03    -14.9599E-03     536.490E-06    -15.0008E-03     29.6873E-03    -14.8716E-03     545.295E-06
             204     7.67184E-09     11.7377E-03    -8.77455E+06    -74.7804E+06    -8.56045E+06    -221.078E+03    -13.9957E-03     27.8829E-03    -13.8871E-03     391.913E-06    -13.9188E-03     27.5341E-03    -13.8088E-03     388.770E-06
             205     78.3735E-09     10.7643E-03    -13.3035E+06    -75.5706E+06    -13.3586E+06    -305.526E+03    -12.9908E-03     25.9072E-03    -12.9163E-03     362.565E-06    -12.9284E-03     25.5680E-03    -12.8542E-03     358.292E-06
             206    -32.3840E-09     9.79241E-03    -17.1185E+06    -76.4308E+06    -16.8474E+06    -241.385E+03    -12.3629E-03     24.6904E-03    -12.3274E-03     491.835E-06    -12.3133E-03     24.3575E-03    -12.2760E-03     488.374E-06
             207     52.5917E-09     8.82117E-03    -18.1197E+06    -77.4090E+06    -17.9772E+06    -421.071E+03    -12.3493E-03     24.6799E-03    -12.3306E-03     764.653E-06    -12.3016E-03     24.3453E-03    -12.2820E-03     758.899E-06
             208    -38.0329E-09     7.84931E-03    -16.8648E+06    -78.6461E+06    -16.7432E+06    -228.190E+03    -12.9556E-03     25.9027E-03    -12.9471E-03     1.04393E-03    -12.9016E-03     25.5582E-03    -12.8923E-03     1.04071E-03
             209     39.7982E-09     6.87550E-03    -13.7096E+06    -79.8719E+06    -13.4280E+06    -493.196E+03    -14.0023E-03     28.0121E-03    -14.0098E-03     1.22892E-03    -13.9356E-03     27.6521E-03    -13.9413E-03     1.22233E-03
             210    -51.8652E-09     5.89963E-03    -11.6195E+06    -81.7727E+06    -11.7797E+06    -603.006E+03    -15.2594E-03     30.5337E-03    -15.2744E-03     1.27397E-03    -15.1819E-03     30.1588E-03    -15.1978E-03     1.26599E-03
             211     35.5322E-09     4.92088E-03    -11.9724E+06    -83.6904E+06    -11.8919E+06    -584.132E+03    -16.5277E-03     33.0851E-03    -16.5574E-03     1.22760E-03    -16.4490E-03     32.7012E-03    -16.4782E-03     1.21988E-03
             212    -70.9965E-09     3.94005E-03    -12.3111E+06    -85.5926E+06    -12.6603E+06    -585.801E+03    -17.6624E-03     35.3789E-03    -17.7165E-03     1.06485E-03    -17.5815E-03     34.9872E-03    -17.6378E-03     1.05713E-03
             213     6.85593E-09     2.95689E-03    -12.4462E+06    -86.8255E+06    -12.5910E+06    -90.7943E+03    -18.6324E-03     37.2870E-03    -18.6547E-03     862.414E-06    -18.5504E-03     36.8892E-03    -18.5737E-03     861.120E-06
             214     16.0947E-09     1.97227E-03    -11.7745E+06    -87.1027E+06    -11.8200E+06    -100.459E+03    -19.3450E-03     38.7201E-03    -19.3751E-03     629.128E-06    -19.2604E-03     38.3188E-03    -19.2908E-03     627.757E-06
             215    -92.7518E-09     986.423E-06    -11.0061E+06    -87.1512E+06    -11.1996E+06     107.656E+03    -19.8134E-03     39.6175E-03    -19.8041E-03     298.883E-06    -19.7257E-03     39.2140E-03    -19.7178E-03     300.239E-06
             216     882.187E-06     97.1445E-18    -10.9162E+06    -87.1294E+06    -10.7438E+06     83.3450E+03    -20.0658E-03     40.0341E-03    -19.9683E-03     255.959E-06    -19.9784E-03     39.6299E-03    -19.8798E-03     257.003E-06
             217     1.76429E-03     97.1445E-18    -10.7966E+06    -87.5114E+06    -11.1999E+06    -50.8170E+03    -20.2519E-03     40.3142E-03    -20.0624E-03     526.257E-06    -20.1627E-03     39.9086E-03    -19.9758E-03     525.548E-06
             218     2.64614E-03     97.1445E-18    -10.8414E+06    -89.3498E+06    -11.7297E+06    -108.894E+03    -20.6056E-03     40.7849E-03    -20.1792E-03     770.646E-06    -20.5133E-03     40.3709E-03    -20.0926E-03     769.142E-06
             219     3.52759E-03     97.1445E-18    -10.6738E+06    -93.3553E+06    -12.7145E+06    -482.002E+03    -21.1176E-03     41.4625E-03    -20.3449E-03     1.05792E-03    -21.0172E-03     41.0296E-03    -20.2576E-03     1.05156E-03
             220     4.40853E-03     97.1445E-18    -10.1053E+06    -96.8626E+06    -14.9182E+06    -967.909E+03    -21.7799E-03     42.3324E-03    -20.5525E-03     1.40672E-03    -21.6683E-03     41.8844E-03    -20.4720E-03     1.39403E-03
             221     5.28873E-03     97.1445E-18    -8.96709E+06    -98.9907E+06    -18.9991E+06    -1.68658E+06    -22.5975E-03     43.3951E-03    -20.7976E-03     1.79201E-03    -22.4713E-03     42.9407E-03    -20.7360E-03     1.76999E-03
             222     6.16832E-03     97.1445E-18    -7.61899E+06    -100.380E+06    -23.8949E+06    -2.04579E+06    -23.5725E-03     44.6599E-03    -21.0874E-03     2.28568E-03    -23.4304E-03     44.2037E-03    -21.0503E-03     2.25893E-03
             223     7.04655E-03     97.1445E-18    -5.45763E+06    -97.4971E+06    -29.5214E+06    -3.24815E+06    -24.6651E-03     46.0799E-03    -21.4149E-03     2.74971E-03    -24.5082E-03     45.6432E-03    -21.4132E-03     2.70728E-03
             224     7.92456E-03     97.1445E-18    -2.41594E+06    -93.9209E+06    -37.5424E+06    -4.10336E+06    -25.9484E-03     47.7254E-03    -21.7770E-03     3.37827E-03    -25.7698E-03     47.3137E-03    -21.8250E-03     3.32452E-03
             225     8.80010E-03     97.1445E-18     1.05479E+06    -88.6882E+06    -44.9130E+06    -4.45152E+06    -27.3921E-03     49.5829E-03    -22.1909E-03     4.18139E-03    -27.1931E-03     49.2031E-03    -22.2884E-03     4.12291E-03
             226     9.67560E-03     97.1445E-18     4.94922E+06    -77.3518E+06    -48.7026E+06    -5.52376E+06    -28.9773E-03     51.6422E-03    -22.6649E-03     5.04630E-03    -28.7698E-03     51.3190E-03    -22.8034E-03     4.97323E-03
             227     10.5485E-03     97.1445E-18     9.38952E+06    -62.3146E+06    -48.7963E+06    -5.35638E+06    -30.8137E-03     54.0205E-03    -23.2068E-03     6.13392E-03    -30.6057E-03     53.7662E-03    -23.3741E-03     6.06225E-03
             228     11.4203E-03     97.1445E-18     13.2221E+06    -42.4354E+06    -43.4915E+06    -4.20213E+06    -32.6463E-03     56.4696E-03    -23.8233E-03     7.53605E-03    -32.4557E-03     56.3015E-03    -23.9984E-03     7.47834E-03
             229     12.2893E-03     97.1445E-18     15.5877E+06    -13.8613E+06    -35.4048E+06    -3.13672E+06    -35.2597E-03     59.7729E-03    -24.5132E-03     10.9478E-03    -35.1108E-03     59.7329E-03    -24.6927E-03     10.9000E-03
             230     13.1555E-03     97.1445E-18     14.9588E+06     22.6377E+06    -28.1263E+06    -392.970E+03    -38.2952E-03     63.5852E-03    -25.2900E-03     13.1896E-03    -38.2131E-03     63.7182E-03    -25.4851E-03     13.1764E-03
             231     14.0196E-03     97.1445E-18     13.2178E+06     57.2277E+06    -9.49364E+06     1.16488E+06    -42.3824E-03     68.6359E-03    -26.2534E-03     18.0818E-03    -42.3875E-03     68.9188E-03    -26.4031E-03     18.0786E-03
             232     14.8773E-03     97.1445E-18     9.28007E+06     80.9090E+06     26.8244E+06     1.65010E+06    -50.6854E-03     78.2637E-03    -27.5783E-03     31.0469E-03    -50.7979E-03     78.6176E-03    -27.5749E-03     31.0514E-03
             233     15.7164E-03     97.1445E-18     3.07956E+06     90.7152E+06     58.1452E+06     3.17194E+06    -57.5051E-03     86.7108E-03    -29.2057E-03     51.1342E-03    -57.7221E-03     87.0845E-03    -29.0510E-03     51.1219E-03
             234     16.5463E-03     97.1445E-18     7.89231E+06     101.136E+06     78.1679E+06     4.71381E+06    -57.6185E-03     88.4439E-03    -30.8254E-03     73.3915E-03    -57.9523E-03     88.9327E-03    -30.5926E-03     73.1904E-03
             235     17.4688E-03     1.03896E-03     113.349E+03     110.679E+06     79.5843E+06     6.89436E+06    -64.9422E-03     94.8242E-03    -29.8819E-03     80.9824E-03    -65.5518E-03     95.6056E-03    -29.6447E-03     80.4560E-03
             236     17.4996E-03     2.11897E-03    -9.57355E+06     118.466E+06     75.7382E+06     8.19443E+06    -76.5196E-03     103.888E-03    -27.3686E-03     82.7478E-03    -77.4624E-03     105.008E-03    -27.1478E-03     81.8821E-03
             237     17.5198E-03     3.18509E-03    -2.50970E+06     130.585E+06      85.061E+06     6.44769E+06    -76.2494E-03     102.561E-03    -26.3112E-03     88.5319E-03    -77.4395E-03     103.961E-03    -26.0716E-03     87.5944E-03
             238     17.5235E-03     4.23322E-03    -1.18942E+06     139.213E+06     92.3321E+06     3.17130E+06    -72.1065E-03     98.0681E-03    -25.9615E-03     88.3764E-03    -73.4733E-03     99.6569E-03    -25.7000E-03     87.5844E-03
             239     17.5280E-03     5.27603E-03    -2.59214E+06     143.324E+06     94.2954E+06     1.46228E+06    -70.6939E-03     96.5313E-03    -25.8375E-03     82.9481E-03    -72.1114E-03     98.1742E-03    -25.5700E-03     82.2725E-03
             240     17.5261E-03     6.31717E-03    -2.67095E+06     145.483E+06     95.0772E+06     670.409E+03    -69.3937E-03     95.2609E-03    -25.8672E-03     76.6430E-03    -70.7982E-03     96.8964E-03    -25.5989E-03     76.0840E-03
             241     17.5252E-03     7.36018E-03    -1.95099E+06     146.714E+06     95.2302E+06     855.463E+03    -65.1671E-03     91.1707E-03    -26.0036E-03     72.6797E-03    -66.5434E-03     92.7842E-03    -25.7374E-03     72.3335E-03
             242     17.5264E-03     8.39009E-03    -2.07611E+06     147.044E+06     94.4287E+06     782.637E+03    -59.7890E-03     85.9135E-03    -26.1245E-03     70.6579E-03    -61.1380E-03     87.5029E-03    -25.8626E-03     70.5494E-03
             243     17.5254E-03     9.42431E-03    -827.589E+03     149.810E+06     95.6902E+06     35.1022E+03    -56.9276E-03     83.1113E-03    -26.1838E-03     70.8231E-03    -58.2968E-03     84.7320E-03    -25.9213E-03     70.8628E-03
             244     17.5270E-03     10.4523E-03    -2.20620E+06     150.438E+06     95.2245E+06    -554.131E+03    -55.2920E-03     81.5056E-03    -26.2136E-03     71.8128E-03    -56.7004E-03     83.1641E-03    -25.9524E-03     71.9806E-03
             245     17.5254E-03     11.4833E-03    -3.88114E+06     150.366E+06     94.4106E+06     356.441E+03    -51.8838E-03     78.1773E-03    -26.2935E-03     72.5279E-03    -53.3246E-03     79.8648E-03    -26.0338E-03     72.8953E-03
             246     17.5272E-03     12.5072E-03    -2.67743E+06     152.462E+06     95.5187E+06     630.018E+03    -47.0297E-03     73.4284E-03    -26.3987E-03     75.4781E-03    -48.5166E-03     75.1702E-03    -26.1383E-03     76.0899E-03
             247     17.5265E-03     13.5239E-03    -1.71852E+06     153.844E+06     96.3882E+06     249.359E+03    -43.8409E-03     70.2910E-03    -26.4501E-03     74.8568E-03    -45.3259E-03     72.0364E-03    -26.1888E-03     75.6315E-03
             248     17.5281E-03     14.5394E-03    -1.73616E+06     154.989E+06     96.6036E+06     486.089E+03    -41.5246E-03     67.9911E-03    -26.4665E-03     73.5407E-03    -43.0055E-03     69.7358E-03    -26.2057E-03     74.4424E-03
             249     17.5284E-03     15.5539E-03    -2.71497E+06     155.490E+06     96.5464E+06     142.601E+03    -40.4037E-03     66.8674E-03    -26.4638E-03     75.2093E-03    -41.9240E-03     68.6503E-03    -26.2025E-03     76.2089E-03
             250     17.5284E-03     16.5704E-03    -2.01918E+06     156.483E+06     97.3464E+06     541.368E+03    -38.3349E-03     64.8273E-03    -26.4923E-03     74.8315E-03    -39.8609E-03     66.6193E-03    -26.2296E-03     75.9421E-03
             251     17.5297E-03     17.5773E-03    -1.57722E+06     157.311E+06     97.9473E+06    -74.9976E+03    -35.9658E-03     62.4810E-03    -26.5152E-03     74.9842E-03    -37.4966E-03     64.2805E-03    -26.2512E-03     76.2087E-03
             252     17.5297E-03     18.5871E-03    -2.05922E+06     156.983E+06     97.8316E+06    -222.772E+03    -35.7104E-03     62.1989E-03    -26.4884E-03     74.2634E-03    -37.2374E-03     63.9922E-03    -26.2239E-03     75.5204E-03
             253     17.5307E-03     19.5975E-03    -2.12239E+06     157.201E+06     98.2682E+06    -19.5453E+03    -35.0840E-03     61.5687E-03    -26.4846E-03     74.5928E-03    -36.6265E-03     63.3767E-03    -26.2182E-03     75.9044E-03
             254     17.5302E-03     20.6055E-03    -2.54340E+06     157.209E+06     98.2690E+06    -46.9897E+03    -34.0969E-03     60.5929E-03    -26.4960E-03     75.5128E-03    -35.6618E-03     62.4219E-03    -26.2290E-03     76.8997E-03
             255     17.5312E-03     21.6134E-03    -2.81646E+06     157.196E+06     98.0152E+06     389.353E+03    -32.8119E-03     59.3201E-03    -26.5082E-03     74.9475E-03    -34.3737E-03     61.1457E-03    -26.2419E-03     76.4026E-03
             256     17.5310E-03     22.6174E-03    -2.68676E+06     157.666E+06     98.0961E+06     34.9016E+03    -32.3444E-03     58.8440E-03    -26.4996E-03     76.4143E-03    -33.9285E-03     60.6938E-03    -26.2338E-03     77.9086E-03
             257     17.5319E-03     23.6272E-03    -2.94375E+06     157.737E+06     98.0896E+06     752.884E+03    -31.5092E-03     58.0382E-03    -26.5290E-03     76.5052E-03    -33.1089E-03     59.9032E-03    -26.2630E-03     78.0615E-03
             258     17.5298E-03     24.6306E-03    -2.25422E+06     158.935E+06     98.6981E+06    -447.378E+03    -29.2951E-03     55.8744E-03    -26.5793E-03     73.5577E-03    -30.8819E-03     57.7311E-03    -26.3130E-03     75.1998E-03
             259     17.5333E-03     25.6214E-03    -2.10658E+06     159.004E+06     98.6982E+06    -419.097E+03    -30.4519E-03     56.9488E-03    -26.4968E-03     76.6991E-03    -32.0469E-03     58.8150E-03    -26.2309E-03     78.3042E-03
             260     17.5321E-03     26.6513E-03    -2.26361E+06     159.197E+06     99.0982E+06     1.15786E+06    -31.0498E-03     57.5345E-03    -26.4847E-03     86.7758E-03    -32.7716E-03     59.5267E-03    -26.2167E-03     88.4357E-03
             261     17.5315E-03     27.6475E-03    -1.90249E+06     160.167E+06     99.5340E+06     430.779E+03    -27.3977E-03     54.0057E-03    -26.6080E-03     83.4670E-03    -29.1045E-03     55.9859E-03    -26.3398E-03     85.2725E-03
             262     17.5318E-03     28.6271E-03    -2.78312E+06     159.503E+06     99.1050E+06     266.189E+03    -27.5010E-03     54.0883E-03    -26.5874E-03     70.3518E-03    -29.0172E-03     55.8738E-03    -26.3191E-03     72.0625E-03
             263     17.5324E-03     29.6424E-03    -3.36791E+06     159.684E+06     99.4643E+06    -84.6226E+03    -30.1805E-03     56.6876E-03    -26.5070E-03     71.5905E-03    -31.7143E-03     58.4881E-03    -26.2364E-03     73.2029E-03
             264     17.5318E-03     30.6503E-03    -2.28732E+06     160.518E+06     99.8766E+06     172.519E+03    -27.9057E-03     54.4692E-03    -26.5636E-03     77.8425E-03    -29.5319E-03     56.3677E-03    -26.2936E-03     79.5978E-03
             265     17.5327E-03     31.6468E-03    -1.82167E+06     160.491E+06     99.5191E+06    -68.2754E+03    -25.4954E-03     52.1097E-03    -26.6144E-03     77.7410E-03    -27.1206E-03     54.0098E-03    -26.3468E-03     79.6001E-03
             266     17.5321E-03     32.6414E-03    -3.00529E+06     160.106E+06     99.2625E+06    -480.155E+03    -27.4534E-03     54.0161E-03    -26.5627E-03     75.0054E-03    -29.0425E-03     55.8752E-03    -26.2942E-03     76.7679E-03
             267     17.5325E-03     33.6500E-03    -2.70389E+06     160.330E+06     99.5848E+06     320.325E+03    -27.8696E-03     54.4235E-03    -26.5540E-03     75.2922E-03    -29.4633E-03     56.2881E-03    -26.2846E-03     77.0449E-03
             268     17.5323E-03     34.6493E-03    -2.26982E+06     161.133E+06     99.9526E+06     154.298E+03    -26.2409E-03     52.8284E-03    -26.5875E-03     77.7797E-03    -27.8732E-03     54.7348E-03    -26.3181E-03     79.6234E-03
             269     17.5330E-03     35.6478E-03    -3.42774E+06     161.109E+06     99.7818E+06    -887.171E+03    -26.5800E-03     53.1516E-03    -26.5716E-03     77.1514E-03    -28.2136E-03     55.0556E-03    -26.3013E-03     78.9826E-03
             270     17.5323E-03     36.6493E-03    -2.34425E+06     162.231E+06     100.997E+06     291.946E+03    -26.8433E-03     53.4102E-03    -26.5668E-03     78.0970E-03    -28.4826E-03     55.3241E-03    -26.2937E-03     79.9327E-03
             271     17.5331E-03     37.6536E-03    -1.51882E+06     163.234E+06     101.361E+06     922.687E+03    -25.6165E-03     52.2108E-03    -26.5942E-03     80.9609E-03    -27.2903E-03     54.1647E-03    -26.3219E-03     82.8592E-03
             272     17.5326E-03     38.6485E-03    -2.82631E+06     162.098E+06     100.182E+06    -65.2355E+03    -25.9585E-03     52.5495E-03    -26.5910E-03     80.6316E-03    -27.6379E-03     54.5038E-03    -26.3210E-03     82.5208E-03
             273     17.5322E-03     39.6493E-03    -2.66083E+06     162.156E+06     100.560E+06     273.067E+03    -26.3657E-03     52.9518E-03    -26.5862E-03     78.2322E-03    -28.0107E-03     54.8714E-03    -26.3146E-03     80.0904E-03
             274     17.5330E-03     40.6495E-03    -2.70415E+06     162.183E+06     100.415E+06    -107.556E+03    -25.4733E-03     52.0681E-03    -26.5948E-03     77.7674E-03    -27.1097E-03     53.9795E-03    -26.3240E-03     79.6497E-03
             275     17.5327E-03     41.6450E-03    -3.05040E+06     161.906E+06     100.108E+06    -318.523E+03    -26.8286E-03     53.3913E-03    -26.5627E-03     78.6524E-03    -28.4777E-03     55.3141E-03    -26.2925E-03     80.4977E-03
             276     17.5324E-03     42.6531E-03    -2.22870E+06     162.739E+06     100.841E+06     1.15051E+06    -26.2808E-03     52.8717E-03    -26.5908E-03     79.7618E-03    -27.9446E-03     54.8129E-03    -26.3194E-03     81.6439E-03
             277     17.5325E-03     43.6502E-03    -2.43369E+06     162.761E+06     100.379E+06    -18.6996E+03    -23.7385E-03     50.3868E-03    -26.6484E-03     79.3532E-03    -25.4028E-03     52.3296E-03    -26.3789E-03     81.3192E-03
             278     17.5329E-03     44.6375E-03    -4.19526E+06     160.769E+06     98.8280E+06    -2.04263E+06    -26.5313E-03     53.0999E-03    -26.5686E-03     75.5419E-03    -28.1434E-03     54.9817E-03    -26.3015E-03     77.3639E-03
             279     17.5322E-03     45.6491E-03    -2.19284E+06     162.508E+06     100.940E+06     660.329E+03    -27.2026E-03     53.7548E-03    -26.5523E-03     75.5516E-03    -28.8064E-03     55.6353E-03    -26.2800E-03     77.3586E-03
             280     17.5335E-03     46.6508E-03    -949.015E+03     164.337E+06     102.122E+06     722.544E+03    -24.8850E-03     51.4969E-03    -26.6119E-03     84.1225E-03    -26.6069E-03     53.5031E-03    -26.3382E-03     86.0839E-03
             281     17.5321E-03     47.6463E-03    -2.08745E+06     163.093E+06     100.911E+06     343.328E+03    -25.1129E-03     51.7275E-03    -26.6146E-03     82.7557E-03    -26.8198E-03     53.7138E-03    -26.3435E-03     84.6924E-03
             282     17.5328E-03     48.6456E-03    -1.81183E+06     163.181E+06     100.493E+06     156.416E+03    -24.2871E-03     50.9038E-03    -26.6167E-03     77.0332E-03    -25.9153E-03     52.8139E-03    -26.3483E-03     78.9466E-03
             283     17.5336E-03     49.6337E-03    -5.01273E+06     161.297E+06     98.7449E+06    -1.88502E+06    -27.8644E-03     54.3901E-03    -26.5257E-03     77.3403E-03    -29.5048E-03     56.2995E-03    -26.2585E-03     79.1307E-03
             284     17.5312E-03     50.6526E-03    -2.39285E+06     163.586E+06     101.181E+06     1.61021E+06    -27.5137E-03     54.0660E-03    -26.5523E-03     77.9526E-03    -29.1555E-03     55.9876E-03    -26.2802E-03     79.7710E-03
             285     17.5344E-03     51.6468E-03    -478.884E+03     165.975E+06     102.683E+06     914.882E+03    -23.0993E-03     49.7525E-03    -26.6531E-03     83.8397E-03    -24.8185E-03     51.7626E-03    -26.3797E-03     85.8655E-03
             286     17.5315E-03     52.6372E-03    -3.68381E+06     163.794E+06     100.775E+06    -710.680E+03    -26.2258E-03     52.8096E-03    -26.5838E-03     79.6459E-03    -27.8983E-03     54.7591E-03    -26.3121E-03     81.5199E-03
             287     17.5330E-03     53.6452E-03    -3.19324E+06     164.142E+06     100.795E+06     714.496E+03    -26.5988E-03     53.1747E-03    -26.5759E-03     75.3992E-03    -28.2096E-03     55.0648E-03    -26.3053E-03     77.2222E-03
             288     17.5326E-03     54.6386E-03    -2.68219E+06     165.013E+06     101.136E+06    -294.652E+03    -25.2192E-03     51.8181E-03    -26.5989E-03     77.3098E-03    -26.8522E-03     53.7341E-03    -26.3286E-03     79.1931E-03
             289     17.5328E-03     55.6407E-03    -2.77633E+06     164.973E+06     101.248E+06    -103.160E+03    -26.6350E-03     53.2060E-03    -26.5710E-03     77.6215E-03    -28.2726E-03     55.1258E-03    -26.2999E-03     79.4578E-03
             290     17.5323E-03     56.6443E-03    -2.39886E+06     165.574E+06     101.695E+06     719.012E+03    -25.5250E-03     52.1293E-03    -26.6043E-03     79.9439E-03    -27.1963E-03     54.0850E-03    -26.3324E-03     81.8512E-03
             291     17.5330E-03     57.6409E-03    -2.49609E+06     165.584E+06     101.618E+06    -71.9697E+03    -24.2449E-03     50.8756E-03    -26.6307E-03     78.7319E-03    -25.9041E-03     52.8192E-03    -26.3591E-03     80.6760E-03
             292     876.460E-06     58.4726E-03    -22.6365E+06    -114.639E+06    -22.2328E+06     104.061E+03    -26.5999E-03     53.1902E-03    -26.5903E-03     5.74975E-03    -26.5148E-03     52.6823E-03    -26.5024E-03     5.74838E-03
             293     1.75291E-03     58.4802E-03    -22.0585E+06    -113.720E+06    -20.6308E+06     137.493E+03    -26.6118E-03     53.2077E-03    -26.5959E-03     10.5945E-03    -26.5278E-03     52.7014E-03    -26.5021E-03     10.5911E-03
             294     2.62939E-03     58.4928E-03    -21.1803E+06    -112.153E+06    -17.8952E+06     189.304E+03    -26.6380E-03     53.2409E-03    -26.6029E-03     15.7397E-03    -26.5563E-03     52.7378E-03    -26.4991E-03     15.7341E-03
             295     3.50586E-03     58.5102E-03    -19.8998E+06    -109.980E+06    -14.1272E+06     214.927E+03    -26.6754E-03     53.2885E-03    -26.6131E-03     20.9629E-03    -26.5968E-03     52.7897E-03    -26.4954E-03     20.9543E-03
             296     4.38235E-03     58.5326E-03    -18.3963E+06    -104.447E+06    -10.7138E+06     257.195E+03    -26.7197E-03     53.3350E-03    -26.6153E-03     26.2103E-03    -26.6477E-03     52.8580E-03    -26.4908E-03     26.1981E-03
             297     5.25886E-03     58.5600E-03    -16.8540E+06    -98.8029E+06    -6.81461E+06     284.164E+03    -26.7766E-03     53.3955E-03    -26.6189E-03     31.4746E-03    -26.7127E-03     52.9407E-03    -26.4852E-03     31.4576E-03
             298     6.13535E-03     58.5924E-03    -15.1386E+06    -95.3167E+06    -2.10938E+06     260.219E+03    -26.8506E-03     53.4794E-03    -26.6288E-03     36.7248E-03    -26.7927E-03     53.0355E-03    -26.4792E-03     36.7011E-03
             299     7.01191E-03     58.6298E-03    -13.4022E+06    -90.2788E+06     1.24234E+06     181.808E+03    -26.9330E-03     53.5622E-03    -26.6292E-03     41.9240E-03    -26.8826E-03     53.1401E-03    -26.4726E-03     41.8913E-03
             300     7.88841E-03     58.6721E-03    -11.8527E+06    -84.2705E+06     2.69763E+06     301.284E+03    -27.0276E-03     53.6461E-03    -26.6185E-03     47.0416E-03    -26.9859E-03     53.2554E-03    -26.4656E-03     47.0005E-03
             301     8.76502E-03     58.7192E-03    -10.3823E+06    -78.0716E+06     3.49528E+06     425.344E+03    -27.1370E-03     53.7414E-03    -26.6044E-03     52.0851E-03    -27.1062E-03     53.3865E-03    -26.4587E-03     52.0333E-03
             302     9.64152E-03     58.7710E-03    -9.09176E+06    -72.0901E+06     3.15681E+06     473.260E+03    -27.2797E-03     53.8663E-03    -26.5865E-03     57.0166E-03    -27.2624E-03     53.5516E-03    -26.4531E-03     56.9501E-03
             303     10.5182E-03     58.8274E-03    -8.03616E+06    -64.3181E+06     1.44622E+06     457.724E+03    -27.4100E-03     53.9714E-03    -26.5613E-03     61.7348E-03    -27.4130E-03     53.7132E-03    -26.4492E-03     61.6496E-03
             304     11.3945E-03     58.8884E-03    -7.32198E+06    -52.0973E+06     1.87236E+06     417.935E+03    -27.4959E-03     54.0346E-03    -26.5387E-03     67.6661E-03    -27.5394E-03     53.8617E-03    -26.4432E-03     67.5586E-03
             305     12.2712E-03     58.9562E-03    -6.74375E+06    -40.4854E+06    -39.8904E+03     375.102E+03    -27.6554E-03     54.1561E-03    -26.5007E-03     75.4925E-03    -27.7537E-03     54.0868E-03    -26.4324E-03     75.3568E-03
             306     13.1482E-03     59.0310E-03    -6.01329E+06    -26.6530E+06    -5.79355E+06     529.785E+03    -27.7010E-03     54.1374E-03    -26.4365E-03     80.1204E-03    -27.8713E-03     54.2086E-03    -26.4181E-03     79.9560E-03
             307     14.0251E-03     59.1082E-03    -6.49726E+06     5.66311E+06    -8.12837E+06     498.503E+03    -27.9657E-03     54.3267E-03    -26.3610E-03     91.4309E-03    -28.3154E-03     54.6970E-03    -26.4004E-03     91.2412E-03
             308     14.9014E-03     59.2051E-03    -7.73455E+06     58.6582E+06    -18.0230E+06    -10.4951E+03    -29.6132E-03     55.8306E-03    -26.2174E-03     128.250E-03    -30.5855E-03     57.0359E-03    -26.3813E-03     128.077E-03
             309     15.7784E-03     59.3522E-03    -6.81409E+06     123.259E+06     4.85223E+06    -85.4456E+03    -31.7316E-03     57.9360E-03    -26.2045E-03     185.453E-03    -34.9780E-03     61.5818E-03    -26.3491E-03     186.071E-03
             310     16.6576E-03     59.5617E-03    -3.98242E+06     161.467E+06     69.7552E+06     339.822E+03    -29.6118E-03     56.0450E-03    -26.4331E-03     146.853E-03    -32.9431E-03     59.7331E-03    -26.3127E-03     148.459E-03
             311     876.445E-06     59.4721E-03    -22.9478E+06    -114.758E+06    -22.5616E+06     62.2560E+03    -26.5955E-03     53.1991E-03    -26.6036E-03     5.75000E-03    -26.5112E-03     52.6914E-03    -26.5167E-03     5.74810E-03
             312     1.75292E-03     59.4799E-03    -22.3382E+06    -113.803E+06    -20.8238E+06     106.718E+03    -26.6175E-03     53.2185E-03    -26.6010E-03     10.6071E-03    -26.5344E-03     52.7125E-03    -26.5077E-03     10.6033E-03
             313     2.62937E-03     59.4923E-03    -21.3202E+06     -112.26E+06    -17.9116E+06     156.241E+03    -26.6436E-03     53.2527E-03    -26.6091E-03     15.7491E-03    -26.5624E-03     52.7493E-03    -26.5050E-03     15.7431E-03
             314     3.50585E-03     59.5098E-03    -19.9968E+06    -110.040E+06    -14.0696E+06     211.075E+03    -26.6791E-03     53.2984E-03    -26.6193E-03     20.9758E-03    -26.6009E-03     52.7994E-03    -26.5011E-03     20.9672E-03
             315     4.38233E-03     59.5322E-03    -18.4976E+06    -104.548E+06    -10.7957E+06     260.825E+03    -26.7213E-03     53.3416E-03    -26.6204E-03     26.2238E-03    -26.6496E-03     52.8644E-03    -26.4959E-03     26.2117E-03
             316     5.25883E-03     59.5596E-03    -16.8561E+06    -98.8320E+06    -6.89425E+06     303.168E+03    -26.7757E-03     53.3985E-03    -26.6228E-03     31.4892E-03    -26.7116E-03     52.9437E-03    -26.4896E-03     31.4725E-03
             317     6.13535E-03     59.5920E-03    -15.0638E+06    -95.2518E+06    -2.06227E+06     260.995E+03    -26.8490E-03     53.4813E-03    -26.6323E-03     36.7384E-03    -26.7909E-03     53.0376E-03    -26.4826E-03     36.7148E-03
             318     7.01186E-03     59.6294E-03    -13.2897E+06    -90.3931E+06     1.43910E+06     389.015E+03    -26.9336E-03     53.5667E-03    -26.6331E-03     41.9270E-03    -26.8828E-03     53.1436E-03    -26.4755E-03     41.8970E-03
             319     7.88844E-03     59.6716E-03    -11.6887E+06    -84.3580E+06     2.90832E+06     454.703E+03    -27.0309E-03     53.6531E-03    -26.6222E-03     47.0504E-03    -26.9886E-03     53.2614E-03    -26.4683E-03     47.0113E-03
             320     8.76493E-03     59.7187E-03    -10.2228E+06    -78.0514E+06     3.53235E+06     357.471E+03    -27.1359E-03     53.7427E-03    -26.6068E-03     52.0978E-03    -27.1045E-03     53.3876E-03    -26.4611E-03     52.0450E-03
             321     9.64159E-03     59.7706E-03    -8.87079E+06    -72.1883E+06     3.21195E+06     388.330E+03    -27.2841E-03     53.8729E-03    -26.5888E-03     57.1084E-03    -27.2656E-03     53.5573E-03    -26.4552E-03     57.0409E-03
             322     10.5179E-03     59.8272E-03    -7.83509E+06    -64.3824E+06     1.39724E+06     448.842E+03    -27.4122E-03     53.9750E-03    -26.5627E-03     61.8594E-03    -27.4140E-03     53.7163E-03    -26.4510E-03     61.7742E-03
             323     11.3947E-03     59.8879E-03    -7.08994E+06    -52.1864E+06     1.82615E+06     506.165E+03    -27.4260E-03     53.9633E-03    -26.5373E-03     67.6087E-03    -27.4679E-03     53.7895E-03    -26.4422E-03     67.5027E-03
             324     12.2717E-03     59.9552E-03    -6.54065E+06    -40.2677E+06     50.6051E+03     438.674E+03    -27.6054E-03     54.1008E-03    -26.4954E-03     75.4218E-03    -27.7028E-03     54.0319E-03    -26.4273E-03     75.2874E-03
             325     13.1479E-03     60.0312E-03    -6.58424E+06    -26.5462E+06    -5.95839E+06     307.356E+03    -27.8178E-03     54.2515E-03    -26.4337E-03     80.1473E-03    -27.9911E-03     54.3245E-03    -26.4154E-03     79.9793E-03
             326     14.0242E-03     60.1070E-03    -6.16518E+06     5.12774E+06    -8.26502E+06     628.923E+03    -28.1324E-03     54.4994E-03    -26.3670E-03     91.4097E-03    -28.4804E-03     54.8676E-03    -26.4068E-03     91.2200E-03
             327     14.9019E-03     60.2047E-03    -6.20886E+06     59.6487E+06    -16.1241E+06     601.133E+03    -29.6938E-03     55.9302E-03    -26.2364E-03     128.241E-03    -30.6601E-03     57.1330E-03    -26.3945E-03     128.077E-03
             328     15.7782E-03     60.3520E-03    -7.39424E+06     123.466E+06     5.89350E+06    -217.753E+03    -32.5430E-03     58.7891E-03    -26.2461E-03     185.718E-03    -35.8047E-03     62.4457E-03    -26.3849E-03     186.284E-03
             329     16.6521E-03     60.5606E-03    -5.03634E+06     160.703E+06     69.0159E+06    -152.333E+03    -29.4552E-03     55.9371E-03    -26.4819E-03     148.601E-03    -32.8259E-03     59.6603E-03    -26.3626E-03     150.199E-03
             330     876.463E-06     60.4718E-03    -23.1564E+06    -114.810E+06    -22.6593E+06     17.2040E+03    -26.5994E-03     53.2022E-03    -26.6028E-03     5.75462E-03    -26.5160E-03     52.6947E-03    -26.5161E-03     5.75213E-03
             331     1.75290E-03     60.4794E-03    -22.4648E+06    -113.871E+06    -20.8287E+06     70.3085E+03    -26.6207E-03     53.2243E-03    -26.6036E-03     10.6126E-03    -26.5381E-03     52.7182E-03    -26.5101E-03     10.6083E-03
             332     2.62937E-03     60.4919E-03    -21.4798E+06    -112.356E+06    -17.9574E+06     123.265E+03    -26.6458E-03     53.2577E-03    -26.6119E-03     15.7566E-03    -26.5652E-03     52.7541E-03    -26.5077E-03     15.7502E-03
             333     3.50583E-03     60.5093E-03    -20.1235E+06    -110.148E+06    -14.0925E+06     200.395E+03    -26.6806E-03     53.3027E-03    -26.6221E-03     20.9869E-03    -26.6029E-03     52.8034E-03    -26.5037E-03     20.9781E-03
             334     4.38232E-03     60.5318E-03    -18.5512E+06    -104.588E+06    -10.7959E+06     231.026E+03    -26.7213E-03     53.3441E-03    -26.6228E-03     26.2373E-03    -26.6498E-03     52.8668E-03    -26.4982E-03     26.2248E-03
             335     5.25882E-03     60.5591E-03    -16.9110E+06    -98.8960E+06    -6.99662E+06     237.736E+03    -26.7741E-03     53.3984E-03    -26.6243E-03     31.5019E-03    -26.7101E-03     52.9435E-03    -26.4913E-03     31.4843E-03
             336     6.13533E-03     60.5916E-03    -15.2383E+06    -95.3317E+06    -2.21253E+06     373.192E+03    -26.8460E-03     53.4791E-03    -26.6331E-03     36.7526E-03    -26.7884E-03     53.0354E-03    -26.4838E-03     36.7304E-03
             337     7.01187E-03     60.6289E-03    -13.4826E+06    -90.5876E+06     1.30191E+06     460.406E+03    -26.9325E-03     53.5662E-03    -26.6337E-03     41.9465E-03    -26.8821E-03     53.1426E-03    -26.4763E-03     41.9174E-03
             338     7.88838E-03     60.6712E-03    -11.6816E+06    -84.2859E+06     2.90652E+06     446.506E+03    -27.0259E-03     53.6482E-03    -26.6224E-03     47.0709E-03    -26.9836E-03     53.2569E-03    -26.4687E-03     47.0317E-03
             339     8.76500E-03     60.7183E-03    -10.1355E+06    -77.9448E+06     3.62021E+06     357.566E+03    -27.1318E-03     53.7385E-03    -26.6067E-03     52.1299E-03    -27.1002E-03     53.3837E-03    -26.4609E-03     52.0772E-03
             340     9.64147E-03     60.7701E-03    -8.93950E+06    -72.3587E+06     3.17856E+06     319.667E+03    -27.2343E-03     53.8206E-03    -26.5862E-03     57.1882E-03    -27.2157E-03     53.5042E-03    -26.4525E-03     57.1201E-03
             341     10.5183E-03     60.8268E-03    -7.94606E+06    -64.5030E+06     1.42605E+06     371.386E+03    -27.3556E-03     53.9117E-03    -26.5561E-03     61.9304E-03    -27.3576E-03     53.6524E-03    -26.4439E-03     61.8447E-03
             342     11.3947E-03     60.8873E-03    -7.19231E+06    -52.1130E+06     2.09925E+06     415.908E+03    -27.5352E-03     54.0692E-03    -26.5340E-03     67.5029E-03    -27.5785E-03     53.8959E-03    -26.4375E-03     67.3950E-03
             343     12.2710E-03     60.9547E-03    -6.38848E+06    -40.5931E+06     415.173E+03     508.643E+03    -27.6313E-03     54.1297E-03    -26.4985E-03     75.2467E-03    -27.7278E-03     54.0583E-03    -26.4283E-03     75.1130E-03
             344     13.1484E-03     61.0304E-03    -5.77173E+06    -26.2641E+06    -5.04117E+06     516.045E+03    -27.7259E-03     54.1613E-03    -26.4354E-03     80.2929E-03    -27.8960E-03     54.2323E-03    -26.4142E-03     80.1288E-03
             345     14.0252E-03     61.1072E-03    -6.05207E+06     5.39404E+06    -7.77795E+06     128.417E+03    -28.2541E-03     54.6221E-03    -26.3680E-03     91.5826E-03    -28.6034E-03     54.9916E-03    -26.4059E-03     91.3853E-03
             346     14.9006E-03     61.2039E-03    -6.25689E+06     58.6543E+06    -17.4174E+06     564.868E+03    -29.7302E-03     55.9648E-03    -26.2346E-03     128.419E-03    -30.6930E-03     57.1642E-03    -26.3977E-03     128.253E-03
             347     15.7782E-03     61.3513E-03    -6.11344E+06     124.494E+06     6.28358E+06     1.27516E+06    -32.1003E-03     58.3324E-03    -26.2321E-03     187.110E-03    -35.3614E-03     61.9955E-03    -26.3723E-03     187.720E-03
             348     16.6570E-03     61.5630E-03    -4.99412E+06     161.799E+06     69.9192E+06     113.515E+03    -29.5783E-03     56.0356E-03    -26.4572E-03     148.996E-03    -32.9480E-03     59.7591E-03    -26.3350E-03     150.608E-03
             349     876.440E-06     61.4713E-03    -23.0619E+06    -114.816E+06    -22.6858E+06    -10.2529E+03    -26.6101E-03     53.2043E-03    -26.5943E-03     5.75834E-03    -26.5261E-03     52.6968E-03    -26.5078E-03     5.75550E-03
             350     1.75291E-03     61.4790E-03    -22.4896E+06    -113.957E+06    -20.9962E+06     56.2126E+03    -26.6199E-03     53.2234E-03    -26.6035E-03     10.6177E-03    -26.5371E-03     52.7171E-03    -26.5106E-03     10.6132E-03
             351     2.62936E-03     61.4915E-03    -21.5303E+06    -112.434E+06    -18.0152E+06     141.788E+03    -26.6445E-03     53.2563E-03    -26.6118E-03     15.7638E-03    -26.5640E-03     52.7524E-03    -26.5076E-03     15.7576E-03
             352     3.50584E-03     61.5089E-03    -20.1795E+06    -110.212E+06    -14.1582E+06     152.143E+03    -26.6792E-03     53.3008E-03    -26.6216E-03     20.9955E-03    -26.6016E-03     52.8013E-03    -26.5033E-03     20.9860E-03
             353     4.38232E-03     61.5313E-03    -18.6238E+06    -104.646E+06    -10.8710E+06     191.687E+03    -26.7185E-03     53.3403E-03    -26.6219E-03     26.2487E-03    -26.6471E-03     52.8629E-03    -26.4975E-03     26.2356E-03
             354     5.25883E-03     61.5587E-03    -17.0400E+06    -98.9527E+06    -7.01679E+06     254.022E+03    -26.7710E-03     53.3943E-03    -26.6233E-03     31.5152E-03    -26.7074E-03     52.9394E-03    -26.4902E-03     31.4979E-03
             355     6.13534E-03     61.5911E-03    -15.2366E+06    -95.6309E+06    -2.33789E+06     397.375E+03    -26.8419E-03     53.4734E-03    -26.6314E-03     36.7682E-03    -26.7838E-03     53.0284E-03    -26.4823E-03     36.7463E-03
             356     7.01188E-03     61.6285E-03    -13.3914E+06    -90.6535E+06     1.30458E+06     554.704E+03    -26.9242E-03     53.5558E-03    -26.6315E-03     41.9685E-03    -26.8733E-03     53.1317E-03    -26.4741E-03     41.9407E-03
             357     7.88845E-03     61.6708E-03    -11.8176E+06    -84.1758E+06     2.99573E+06     462.841E+03    -27.0187E-03     53.6387E-03    -26.6200E-03     47.0905E-03    -26.9774E-03     53.2480E-03    -26.4658E-03     47.0515E-03
             358     8.76497E-03     61.7178E-03    -10.3176E+06    -77.8267E+06     3.62320E+06     306.567E+03    -27.1180E-03     53.7213E-03    -26.6033E-03     52.1492E-03    -27.0875E-03     53.3673E-03    -26.4573E-03     52.0959E-03
             359     9.64164E-03     61.7697E-03    -8.99120E+06    -72.4384E+06     3.12480E+06     288.872E+03    -27.2038E-03     53.7850E-03    -26.5811E-03     57.1130E-03    -27.1853E-03     53.4683E-03    -26.4474E-03     57.0446E-03
             360     10.5182E-03     61.8261E-03    -8.13710E+06    -64.5956E+06     1.23988E+06     371.797E+03    -27.3191E-03     53.8673E-03    -26.5483E-03     61.9295E-03    -27.3215E-03     53.6079E-03    -26.4366E-03     61.8441E-03
             361     11.3948E-03     61.8872E-03    -7.52374E+06    -52.0248E+06     1.86365E+06     421.153E+03    -27.5059E-03     54.0296E-03    -26.5237E-03     67.7075E-03    -27.5504E-03     53.8573E-03    -26.4280E-03     67.6001E-03
             362     12.2715E-03     61.9543E-03    -7.17263E+06    -40.4855E+06    -231.355E+03     448.475E+03    -27.7614E-03     54.2520E-03    -26.4906E-03     75.3045E-03    -27.8618E-03     54.1839E-03    -26.4227E-03     75.1690E-03
             363     13.1478E-03     62.0293E-03    -6.59010E+06    -26.1746E+06    -5.62342E+06     408.512E+03    -27.8674E-03     54.3050E-03    -26.4376E-03     80.2871E-03    -28.0420E-03     54.3797E-03    -26.4182E-03     80.1199E-03
             364     14.0244E-03     62.1071E-03    -6.46678E+06     5.20280E+06    -7.82962E+06     221.776E+03    -28.1584E-03     54.5330E-03    -26.3746E-03     91.3530E-03    -28.5079E-03     54.9007E-03    -26.4119E-03     91.1581E-03
             365     14.9021E-03     62.2036E-03    -7.41200E+06     58.0663E+06    -17.9473E+06     65.8035E+03    -29.5526E-03     55.7867E-03    -26.2341E-03     127.785E-03    -30.5224E-03     56.9884E-03    -26.3972E-03     127.613E-03
             366     15.7786E-03     62.3504E-03    -6.67453E+06     123.985E+06     5.31880E+06     570.598E+03    -32.1407E-03     58.3696E-03    -26.2289E-03     185.803E-03    -35.3691E-03     61.9989E-03    -26.3724E-03     186.388E-03
             367     16.6563E-03     62.5599E-03    -3.93706E+06     162.482E+06     70.1404E+06     646.311E+03    -29.6066E-03     56.0701E-03    -26.4635E-03     146.614E-03    -32.9205E-03     59.7435E-03    -26.3427E-03     148.212E-03
             368     876.464E-06     62.4709E-03    -22.8265E+06    -114.842E+06    -22.4649E+06     44.1174E+03    -26.6103E-03     53.2029E-03    -26.5926E-03     5.75847E-03    -26.5255E-03     52.6945E-03    -26.5053E-03     5.75633E-03
             369     1.75290E-03     62.4785E-03    -22.3836E+06    -114.043E+06    -20.9655E+06     99.5818E+03    -26.6179E-03     53.2198E-03    -26.6019E-03     10.6172E-03    -26.5345E-03     52.7128E-03    -26.5089E-03     10.6133E-03
             370     2.62938E-03     62.4911E-03    -21.4789E+06    -112.495E+06    -18.1297E+06     118.029E+03    -26.6407E-03     53.2495E-03    -26.6089E-03     15.7689E-03    -26.5596E-03     52.7455E-03    -26.5053E-03     15.7624E-03
             371     3.50584E-03     62.5085E-03    -20.1835E+06    -110.247E+06    -14.2866E+06     160.663E+03    -26.6746E-03     53.2927E-03    -26.6181E-03     21.0005E-03    -26.5967E-03     52.7932E-03    -26.5004E-03     20.9912E-03
             372     4.38234E-03     62.5309E-03    -18.7258E+06    -104.740E+06    -11.0103E+06     208.683E+03    -26.7131E-03     53.3312E-03    -26.6181E-03     26.2549E-03    -26.6420E-03     52.8537E-03    -26.4941E-03     26.2421E-03
             373     5.25884E-03     62.5583E-03    -17.1379E+06    -99.0479E+06    -7.13932E+06     282.054E+03    -26.7644E-03     53.3837E-03    -26.6192E-03     31.5245E-03    -26.7011E-03     52.9286E-03    -26.4865E-03     31.5075E-03
             374     6.13537E-03     62.5907E-03    -15.4098E+06    -95.8148E+06    -2.41818E+06     344.219E+03    -26.8362E-03     53.4637E-03    -26.6274E-03     36.7781E-03    -26.7785E-03     53.0181E-03    -26.4782E-03     36.7556E-03
             375     7.01192E-03     62.6280E-03    -13.4762E+06    -90.8886E+06     1.12823E+06     481.355E+03    -26.9151E-03     53.5417E-03    -26.6266E-03     41.9748E-03    -26.8640E-03     53.1169E-03    -26.4696E-03     41.9460E-03
             376     7.88847E-03     62.6703E-03    -11.5758E+06    -83.9841E+06     3.07768E+06     539.001E+03    -27.0090E-03     53.6237E-03    -26.6147E-03     47.1023E-03    -26.9669E-03     53.2334E-03    -26.4607E-03     47.0643E-03
             377     8.76506E-03     62.7174E-03    -10.1059E+06    -77.7277E+06     3.74652E+06     379.577E+03    -27.1107E-03     53.7086E-03    -26.5979E-03     52.1371E-03    -27.0794E-03     53.3546E-03    -26.4518E-03     52.0848E-03
             378     9.64161E-03     62.7692E-03    -9.04266E+06    -72.5095E+06     2.97595E+06     373.686E+03    -27.2144E-03     53.7900E-03    -26.5756E-03     57.0816E-03    -27.1958E-03     53.4732E-03    -26.4425E-03     57.0142E-03
             379     10.5183E-03     62.8256E-03    -8.22907E+06    -64.8500E+06     937.294E+03     444.055E+03    -27.3072E-03     53.8499E-03    -26.5428E-03     61.9143E-03    -27.3093E-03     53.5899E-03    -26.4321E-03     61.8298E-03
             380     11.3951E-03     62.8865E-03    -7.30621E+06    -51.9147E+06     1.87524E+06     402.537E+03    -27.4428E-03     53.9593E-03    -26.5165E-03     67.5734E-03    -27.4861E-03     53.7869E-03    -26.4212E-03     67.4663E-03
             381     12.2718E-03     62.9539E-03    -6.77157E+06    -40.0992E+06     98.3901E+03     339.813E+03    -27.8903E-03     54.3774E-03    -26.4871E-03     75.2400E-03    -27.9904E-03     54.3108E-03    -26.4186E-03     75.1020E-03
             382     13.1480E-03     63.0296E-03    -7.01807E+06    -26.8565E+06    -6.41876E+06     394.832E+03    -27.9859E-03     54.4260E-03    -26.4401E-03     80.1225E-03    -28.1616E-03     54.5000E-03    -26.4231E-03     79.9535E-03
             383     14.0245E-03     63.1061E-03    -7.02539E+06     4.84349E+06    -8.64871E+06     315.037E+03    -27.9377E-03     54.3108E-03    -26.3731E-03     91.7129E-03    -28.2870E-03     54.6774E-03    -26.4132E-03     91.5216E-03
             384     14.9005E-03     63.2032E-03    -6.88819E+06     59.5485E+06    -16.4662E+06     256.671E+03    -29.8400E-03     56.0802E-03    -26.2402E-03     128.218E-03    -30.8190E-03     57.2939E-03    -26.3989E-03     128.045E-03
             385     15.7782E-03     63.3488E-03    -7.72272E+06     123.751E+06     4.91035E+06     250.379E+03    -32.2098E-03     58.4495E-03    -26.2396E-03     186.223E-03    -35.4774E-03     62.1146E-03    -26.3833E-03     186.816E-03
             386     16.6519E-03     63.5624E-03    -4.77126E+06     161.615E+06     68.7022E+06     216.862E+03    -29.1932E-03     55.6504E-03    -26.4572E-03     149.681E-03    -32.5623E-03     59.3771E-03    -26.3411E-03     151.298E-03
             387     876.444E-06     63.4705E-03    -22.8152E+06    -114.992E+06    -22.3802E+06     136.479E+03    -26.6066E-03     53.1972E-03    -26.5906E-03     5.75849E-03    -26.5216E-03     52.6879E-03    -26.5027E-03     5.75754E-03
             388     1.75292E-03     63.4781E-03    -22.2794E+06    -114.108E+06    -20.8570E+06     164.297E+03    -26.6139E-03     53.2128E-03    -26.5989E-03     10.6145E-03    -26.5300E-03     52.7052E-03    -26.5054E-03     10.6115E-03
             389     2.62938E-03     63.4906E-03    -21.4572E+06    -112.526E+06    -18.2497E+06     153.109E+03    -26.6349E-03     53.2392E-03    -26.6042E-03     15.7683E-03    -26.5535E-03     52.7351E-03    -26.5012E-03     15.7622E-03
             390     3.50587E-03     63.5081E-03    -20.2585E+06    -110.345E+06    -14.4831E+06     195.513E+03    -26.6677E-03     53.2803E-03    -26.6127E-03     21.0016E-03    -26.5897E-03     52.7807E-03    -26.4957E-03     20.9928E-03
             391     4.38236E-03     63.5305E-03    -18.7939E+06    -104.808E+06    -11.1016E+06     259.584E+03    -26.7065E-03     53.3192E-03    -26.6127E-03     26.2540E-03    -26.6355E-03     52.8416E-03    -26.4890E-03     26.2418E-03
             392     5.25888E-03     63.5578E-03    -17.2594E+06    -99.1804E+06    -7.28066E+06     321.557E+03    -26.7570E-03     53.3705E-03    -26.6135E-03     31.5234E-03    -26.6939E-03     52.9151E-03    -26.4811E-03     31.5070E-03
             393     6.13541E-03     63.5902E-03    -15.5736E+06    -95.9106E+06    -2.61844E+06     414.696E+03    -26.8266E-03     53.4476E-03    -26.6210E-03     36.7793E-03    -26.7692E-03     53.0021E-03    -26.4724E-03     36.7577E-03
             394     7.01195E-03     63.6276E-03    -13.7672E+06    -90.8943E+06     720.031E+03     320.180E+03    -26.9082E-03     53.5271E-03    -26.6189E-03     41.9799E-03    -26.8579E-03     53.1032E-03    -26.4636E-03     41.9491E-03
             395     7.88853E-03     63.6698E-03    -11.9233E+06    -84.0965E+06     2.50906E+06     307.628E+03    -26.9976E-03     53.6038E-03    -26.6062E-03     47.1116E-03    -26.9562E-03     53.2143E-03    -26.4544E-03     47.0707E-03
             396     8.76510E-03     63.7169E-03    -10.2864E+06    -77.6723E+06     3.62168E+06     475.776E+03    -27.1019E-03     53.6927E-03    -26.5908E-03     52.1344E-03    -27.0714E-03     53.3394E-03    -26.4452E-03     52.0834E-03
             397     9.64173E-03     63.7687E-03    -9.01999E+06    -72.4867E+06     3.04995E+06     423.719E+03    -27.2309E-03     53.8011E-03    -26.5703E-03     57.0718E-03    -27.2123E-03     53.4844E-03    -26.4368E-03     57.0050E-03
             398     10.5183E-03     63.8251E-03    -8.02301E+06    -64.7087E+06     1.08313E+06     387.853E+03    -27.3713E-03     53.9124E-03    -26.5412E-03     61.8490E-03    -27.3729E-03     53.6527E-03    -26.4303E-03     61.7633E-03
             399     11.3948E-03     63.8860E-03    -7.43458E+06    -52.1137E+06     1.71239E+06     389.923E+03    -27.5263E-03     54.0466E-03    -26.5202E-03     67.5280E-03    -27.5699E-03     53.8738E-03    -26.4253E-03     67.4201E-03
             400     12.2713E-03     63.9535E-03    -6.61488E+06    -40.2989E+06     125.668E+03     340.114E+03    -27.7462E-03     54.2350E-03    -26.4887E-03     75.5957E-03    -27.8447E-03     54.1665E-03    -26.4201E-03     75.4592E-03
             401     13.1477E-03     64.0297E-03    -6.11575E+06    -26.9608E+06    -5.82605E+06     547.265E+03    -27.7005E-03     54.1286E-03    -26.4282E-03     80.2777E-03    -27.8706E-03     54.1982E-03    -26.4093E-03     80.1139E-03
             402     14.0247E-03     64.1047E-03    -5.99920E+06     5.41410E+06    -8.05885E+06     781.683E+03    -27.9849E-03     54.3373E-03    -26.3524E-03     91.7842E-03    -28.3321E-03     54.7059E-03    -26.3919E-03     91.5983E-03
             403     14.9033E-03     64.2028E-03    -7.49799E+06     59.1979E+06    -17.2421E+06     883.711E+03    -30.0866E-03     56.3099E-03    -26.2232E-03     129.465E-03    -31.0673E-03     57.5240E-03    -26.3844E-03     129.298E-03
             404     15.7763E-03     64.3518E-03    -6.99561E+06     124.590E+06     4.76614E+06     379.318E+03    -31.5419E-03     57.7559E-03    -26.2140E-03     184.528E-03    -34.7593E-03     61.3769E-03    -26.3607E-03     185.176E-03
             405     16.6621E-03     64.5543E-03    -4.07317E+06     162.657E+06     68.9082E+06    -204.679E+03    -29.0799E-03     55.5029E-03    -26.4230E-03     149.496E-03    -32.4327E-03     59.2190E-03    -26.3084E-03     151.154E-03
             406     876.470E-06     64.4700E-03    -23.1655E+06    -115.190E+06    -22.8192E+06     102.693E+03    -26.5985E-03     53.1828E-03    -26.5843E-03     5.76067E-03    -26.5144E-03     52.6737E-03    -26.4978E-03     5.75929E-03
             407     1.75292E-03     64.4777E-03    -22.5496E+06    -114.192E+06    -21.1164E+06     145.197E+03    -26.6075E-03     53.1997E-03    -26.5921E-03     10.6156E-03    -26.5245E-03     52.6924E-03    -26.4994E-03     10.6124E-03
             408     2.62941E-03     64.4902E-03    -21.6192E+06    -112.599E+06    -18.2978E+06     206.909E+03    -26.6292E-03     53.2277E-03    -26.5986E-03     15.7666E-03    -26.5484E-03     52.7236E-03    -26.4955E-03     15.7613E-03
             409     3.50588E-03     64.5076E-03    -20.3618E+06    -110.417E+06    -14.5544E+06     231.760E+03    -26.6615E-03     53.2684E-03    -26.6069E-03     20.9988E-03    -26.5839E-03     52.7687E-03    -26.4900E-03     20.9905E-03
             410     4.38239E-03     64.5300E-03    -18.9023E+06    -104.931E+06    -11.2380E+06     287.078E+03    -26.6995E-03     53.3061E-03    -26.6066E-03     26.2496E-03    -26.6286E-03     52.8282E-03    -26.4832E-03     26.2378E-03
             411     5.25890E-03     64.5574E-03    -17.3277E+06    -99.2959E+06    -7.40508E+06     382.941E+03    -26.7500E-03     53.3572E-03    -26.6072E-03     31.5163E-03    -26.6868E-03     52.9015E-03    -26.4751E-03     31.5007E-03
             412     6.13545E-03     64.5898E-03    -15.5303E+06    -95.9700E+06    -2.76686E+06     373.273E+03    -26.8177E-03     53.4317E-03    -26.6140E-03     36.7694E-03    -26.7598E-03     52.9861E-03    -26.4662E-03     36.7473E-03
             413     7.01202E-03     64.6271E-03    -13.6393E+06    -90.7011E+06     720.366E+03     303.811E+03    -26.9001E-03     53.5120E-03    -26.6119E-03     41.9751E-03    -26.8494E-03     53.0888E-03    -26.4570E-03     41.9441E-03
             414     7.88857E-03     64.6694E-03    -11.9562E+06    -84.2033E+06     2.42756E+06     214.588E+03    -26.9929E-03     53.5923E-03    -26.5994E-03     47.0956E-03    -26.9514E-03     53.2024E-03    -26.4478E-03     47.0535E-03
             415     8.76519E-03     64.7164E-03    -10.4775E+06    -77.8476E+06     3.32661E+06     314.882E+03    -27.0952E-03     53.6787E-03    -26.5834E-03     52.1226E-03    -27.0650E-03     53.3252E-03    -26.4387E-03     52.0695E-03
             416     9.64176E-03     64.7682E-03    -9.02626E+06    -72.3300E+06     3.02392E+06      360.54E+03    -27.2402E-03     53.8043E-03    -26.5642E-03     57.0995E-03    -27.2219E-03     53.4885E-03    -26.4311E-03     57.0318E-03
             417     10.5183E-03     64.8247E-03    -7.94507E+06    -64.7271E+06     965.534E+03     348.199E+03    -27.3782E-03     53.9138E-03    -26.5357E-03     61.9797E-03    -27.3791E-03     53.6540E-03    -26.4255E-03     61.8937E-03
             418     11.3948E-03     64.8857E-03    -7.16526E+06    -52.1307E+06     1.59943E+06     444.305E+03    -27.4849E-03     53.9978E-03    -26.5129E-03     67.8586E-03    -27.5270E-03     53.8248E-03    -26.4189E-03     67.7518E-03
             419     12.2715E-03     64.9530E-03    -6.49831E+06    -40.4766E+06    -236.560E+03     450.368E+03    -27.4890E-03     53.9589E-03    -26.4699E-03     75.7469E-03    -27.5850E-03     53.8888E-03    -26.4030E-03     75.6139E-03
             420     13.1490E-03     65.0287E-03    -6.75801E+06    -27.0366E+06    -6.43515E+06     500.202E+03    -27.5832E-03     53.9805E-03    -26.3973E-03     80.3163E-03    -27.7547E-03     54.0506E-03    -26.3804E-03     80.1533E-03
             421     14.0258E-03     65.1043E-03    -6.99731E+06     5.09667E+06    -8.78955E+06     1.03353E+06    -28.5005E-03     54.8361E-03    -26.3356E-03     91.8242E-03    -28.8559E-03     55.2102E-03    -26.3768E-03     91.6356E-03
             422     14.8999E-03     65.2028E-03    -6.90668E+06     59.2218E+06    -17.1772E+06     1.16398E+06    -29.4475E-03     55.6549E-03    -26.2074E-03     128.674E-03    -30.4080E-03     56.8509E-03    -26.3691E-03     128.525E-03
             423     15.7811E-03     65.3504E-03    -6.53580E+06     125.090E+06     5.28501E+06    -309.695E+03    -32.3629E-03     58.5694E-03    -26.2065E-03     183.984E-03    -35.5733E-03     62.1854E-03    -26.3520E-03     184.520E-03
             424     16.6501E-03     65.5521E-03    -4.48014E+06     162.864E+06     68.9890E+06    -612.610E+03    -30.0265E-03     56.4896E-03    -26.4631E-03     148.102E-03    -33.3802E-03     60.2057E-03    -26.3478E-03     149.665E-03
             425     876.460E-06     65.4696E-03    -23.6418E+06    -115.283E+06    -23.1618E+06     37.7303E+03    -26.5859E-03     53.1637E-03    -26.5778E-03     5.76335E-03    -26.5035E-03     52.6553E-03    -26.4921E-03     5.76114E-03
             426     1.75295E-03     65.4772E-03    -22.9679E+06    -114.287E+06    -21.3242E+06     77.9069E+03    -26.5999E-03     53.1839E-03    -26.5840E-03     10.6156E-03    -26.5185E-03     52.6771E-03    -26.4916E-03     10.6114E-03
             427     2.62941E-03     65.4897E-03    -21.8929E+06    -112.724E+06    -18.3904E+06     154.412E+03    -26.6242E-03     53.2160E-03    -26.5918E-03     15.7645E-03    -26.5445E-03     52.7117E-03    -26.4886E-03     15.7584E-03
             428     3.50591E-03     65.5071E-03    -20.5272E+06    -110.505E+06    -14.5996E+06     246.742E+03    -26.6564E-03     53.2573E-03    -26.6009E-03     20.9935E-03    -26.5795E-03     52.7575E-03    -26.4839E-03     20.9853E-03
             429     4.38240E-03     65.5295E-03    -19.0101E+06    -105.041E+06    -11.3656E+06     293.440E+03    -26.6936E-03     53.2940E-03    -26.6004E-03     26.2429E-03    -26.6230E-03     52.8159E-03    -26.4773E-03     26.2313E-03
             430     5.25895E-03     65.5569E-03    -17.3410E+06    -99.3837E+06    -7.54012E+06     302.946E+03    -26.7439E-03     53.3447E-03    -26.6008E-03     31.5080E-03    -26.6805E-03     52.8888E-03    -26.4692E-03     31.4913E-03
             431     6.13548E-03     65.5893E-03    -15.5307E+06    -95.9177E+06    -2.79398E+06     284.662E+03    -26.8138E-03     53.4219E-03    -26.6081E-03     36.7564E-03    -26.7560E-03     52.9765E-03    -26.4604E-03     36.7332E-03
             432     7.01204E-03     65.6266E-03    -13.6564E+06    -90.6953E+06     652.927E+03     244.163E+03    -26.8919E-03     53.4977E-03    -26.6058E-03     41.9616E-03    -26.8412E-03     53.0747E-03    -26.4513E-03     41.9298E-03
             433     7.88864E-03     65.6689E-03    -11.8814E+06    -84.1439E+06     2.41320E+06     243.208E+03    -26.9846E-03     53.5778E-03    -26.5932E-03     47.0841E-03    -26.9428E-03     53.1881E-03    -26.4419E-03     47.0425E-03
             434     8.76520E-03     65.7159E-03    -10.3041E+06    -77.9949E+06     3.33599E+06     214.305E+03    -27.0962E-03     53.6738E-03    -26.5776E-03     52.1248E-03    -27.0649E-03     53.3194E-03    -26.4329E-03     52.0705E-03
             435     9.64184E-03     65.7677E-03    -9.02912E+06    -72.3849E+06     2.94256E+06     234.810E+03    -27.2131E-03     53.7703E-03    -26.5573E-03     57.1354E-03    -27.1945E-03     53.4542E-03    -26.4245E-03     57.0663E-03
             436     10.5185E-03     65.8242E-03    -8.03859E+06    -64.7816E+06     1.09138E+06     257.729E+03    -27.2825E-03     53.8080E-03    -26.5255E-03     61.9588E-03    -27.2839E-03     53.5477E-03    -26.4145E-03     61.8721E-03
             437     11.3953E-03     65.8850E-03    -7.20515E+06    -52.2769E+06     1.88494E+06     327.559E+03    -27.3917E-03     53.8890E-03    -26.4973E-03     67.7977E-03    -27.4341E-03     53.7148E-03    -26.4016E-03     67.6898E-03
             438     12.2720E-03     65.9525E-03    -6.76666E+06    -40.7327E+06    -35.4711E+03     501.355E+03    -27.5613E-03     54.0171E-03    -26.4558E-03     75.0543E-03    -27.6582E-03     53.9454E-03    -26.3871E-03     74.9213E-03
             439     13.1487E-03     66.0271E-03    -6.32747E+06    -27.1701E+06    -5.83153E+06     494.523E+03    -27.8311E-03     54.2280E-03    -26.3970E-03     79.9783E-03    -28.0028E-03     54.2978E-03    -26.3775E-03     79.8121E-03
             440     14.0248E-03     66.1051E-03    -6.41099E+06     4.41556E+06    -8.52981E+06     366.149E+03    -28.2869E-03     54.6225E-03    -26.3357E-03     92.2129E-03    -28.6369E-03     54.9902E-03    -26.3754E-03     92.0183E-03
             441     14.9023E-03     66.2032E-03    -5.48419E+06     59.8182E+06    -15.8044E+06     389.852E+03    -29.2631E-03     55.4635E-03    -26.2003E-03     127.335E-03    -30.2099E-03     56.6490E-03    -26.3581E-03     127.176E-03
             442     15.7789E-03     66.3442E-03    -5.53984E+06     126.279E+06     5.87136E+06     576.975E+03    -32.4120E-03     58.5970E-03    -26.1849E-03     187.607E-03    -35.7277E-03     62.3243E-03    -26.3306E-03     188.165E-03
             443     16.6564E-03     66.5666E-03    -4.55166E+06     162.768E+06     68.3242E+06     369.179E+03    -30.4281E-03     56.8599E-03    -26.4319E-03     149.778E-03    -33.8429E-03     60.6386E-03    -26.3196E-03     151.324E-03
             444     876.482E-06     66.4691E-03    -23.8023E+06    -115.289E+06    -23.3129E+06     6.48084E+03    -26.5783E-03     53.1488E-03    -26.5705E-03     5.76099E-03    -26.4965E-03     52.6408E-03    -26.4854E-03     5.75838E-03
             445     1.75295E-03     66.4768E-03    -23.1053E+06    -114.351E+06    -21.4698E+06     40.3548E+03    -26.5928E-03     53.1695E-03    -26.5767E-03     10.6138E-03    -26.5118E-03     52.6628E-03    -26.4848E-03     10.6092E-03
             446     2.62944E-03     66.4892E-03    -22.1083E+06    -112.825E+06    -18.5351E+06     99.8263E+03    -26.6181E-03     53.2031E-03    -26.5850E-03     15.7611E-03    -26.5391E-03     52.6988E-03    -26.4820E-03     15.7544E-03
             447     3.50592E-03     66.5067E-03    -20.6893E+06    -110.629E+06    -14.6902E+06     162.691E+03    -26.6513E-03     53.2460E-03    -26.5947E-03     20.9879E-03    -26.5748E-03     52.7459E-03    -26.4777E-03     20.9787E-03
             448     4.38244E-03     66.5291E-03    -19.0318E+06    -105.088E+06    -11.4003E+06     205.593E+03    -26.6896E-03     53.2841E-03    -26.5945E-03     26.2372E-03    -26.6189E-03     52.8058E-03    -26.4715E-03     26.2244E-03
             449     5.25896E-03     66.5564E-03    -17.3535E+06    -99.3797E+06    -7.53470E+06     181.931E+03    -26.7404E-03     53.3357E-03    -26.5954E-03     31.4997E-03    -26.6770E-03     52.8799E-03    -26.4638E-03     31.4815E-03
             450     6.13552E-03     66.5888E-03    -15.5519E+06    -95.9701E+06    -2.85342E+06     220.376E+03    -26.8105E-03     53.4132E-03    -26.6027E-03     36.7487E-03    -26.7526E-03     52.9677E-03    -26.4553E-03     36.7246E-03
             451     7.01208E-03     66.6261E-03    -13.6892E+06    -90.6313E+06     676.293E+03     200.232E+03    -26.8892E-03     53.4903E-03    -26.6011E-03     41.9461E-03    -26.8389E-03     53.0677E-03    -26.4465E-03     41.9138E-03
             452     7.88866E-03     66.6683E-03    -11.9407E+06    -84.1143E+06     2.45777E+06     118.580E+03    -26.9786E-03     53.5673E-03    -26.5888E-03     47.0633E-03    -26.9371E-03     53.1778E-03    -26.4372E-03     47.0200E-03
             453     8.76530E-03     66.7154E-03    -10.3585E+06    -78.0251E+06     3.44889E+06     131.279E+03    -27.0940E-03     53.6678E-03    -26.5738E-03     52.1090E-03    -27.0631E-03     53.3131E-03    -26.4284E-03     52.0536E-03
             454     9.64185E-03     66.7672E-03    -9.10840E+06    -72.4028E+06     3.09966E+06     162.151E+03    -27.1991E-03     53.7527E-03    -26.5536E-03     57.0435E-03    -27.1811E-03     53.4363E-03    -26.4199E-03     56.9735E-03
             455     10.5185E-03     66.8236E-03    -8.21277E+06    -64.7180E+06     1.21767E+06     169.154E+03    -27.3024E-03     53.8252E-03    -26.5228E-03     61.7173E-03    -27.3051E-03     53.5654E-03    -26.4109E-03     61.6291E-03
             456     11.3952E-03     66.8843E-03    -7.55134E+06    -52.3964E+06     1.89981E+06     269.188E+03    -27.3990E-03     53.8958E-03    -26.4968E-03     67.4271E-03    -27.4427E-03     53.7211E-03    -26.4004E-03     67.3184E-03
             457     12.2718E-03     66.9520E-03    -7.00519E+06    -40.8627E+06    -21.6948E+03     424.340E+03    -27.7267E-03     54.1885E-03    -26.4618E-03     74.9719E-03    -27.8250E-03     54.1170E-03    -26.3925E-03     74.8368E-03
             458     13.1481E-03     67.0268E-03    -6.06570E+06    -26.8730E+06    -5.33454E+06     266.313E+03    -27.9537E-03     54.3667E-03    -26.4130E-03     80.3546E-03    -28.1267E-03     54.4383E-03    -26.3919E-03     80.1843E-03
             459     14.0250E-03     67.1049E-03    -6.19509E+06     4.47610E+06    -8.31745E+06     119.601E+03    -27.7931E-03     54.1323E-03    -26.3392E-03     91.6310E-03    -28.1358E-03     54.4930E-03    -26.3783E-03     91.4394E-03
             460     14.9027E-03     67.2004E-03    -7.02142E+06     59.2364E+06    -16.3205E+06    -184.712E+03    -29.6628E-03     55.8639E-03    -26.2012E-03     127.089E-03    -30.6261E-03     57.0599E-03    -26.3585E-03     126.910E-03
             461     15.7783E-03     67.3475E-03    -6.56209E+06     126.380E+06     6.39825E+06     404.742E+03    -32.0207E-03     58.2177E-03    -26.1970E-03     185.344E-03    -35.2887E-03     61.8924E-03    -26.3387E-03     185.969E-03
             462     16.6598E-03     67.5572E-03    -4.23335E+06     163.355E+06     68.9082E+06     1.09285E+06    -29.6004E-03     56.0233E-03    -26.4229E-03     146.957E-03    -32.9431E-03     59.7311E-03    -26.3091E-03     148.573E-03
             463     876.473E-06     67.4686E-03    -23.6563E+06    -115.236E+06    -23.3478E+06    -33.6561E+03    -26.5710E-03     53.1390E-03    -26.5680E-03     5.75383E-03    -26.4884E-03     52.6311E-03    -26.4833E-03     5.75070E-03
             464     1.75297E-03     67.4763E-03    -23.1357E+06    -114.406E+06    -21.6897E+06     21.4969E+03    -26.5869E-03     53.1574E-03    -26.5705E-03     10.6136E-03    -26.5056E-03     52.6508E-03    -26.4795E-03     10.6087E-03
             465     2.62945E-03     67.4888E-03    -22.1466E+06    -112.883E+06    -18.6718E+06     70.7138E+03    -26.6119E-03     53.1907E-03    -26.5788E-03     15.7575E-03    -26.5328E-03     52.6865E-03    -26.4764E-03     15.7504E-03
             466     3.50596E-03     67.5062E-03    -20.7622E+06    -110.625E+06    -14.7668E+06     47.8131E+03    -26.6463E-03     53.2351E-03    -26.5888E-03     20.9817E-03    -26.5701E-03     52.7353E-03    -26.4721E-03     20.9709E-03
             467     4.38245E-03     67.5285E-03    -19.1511E+06    -105.130E+06    -11.4832E+06     39.7250E+03    -26.6859E-03     53.2750E-03    -26.5891E-03     26.2301E-03    -26.6156E-03     52.7968E-03    -26.4663E-03     26.2151E-03
             468     5.25900E-03     67.5559E-03    -17.4604E+06    -99.3864E+06    -7.51086E+06     114.623E+03    -26.7386E-03     53.3295E-03    -26.5909E-03     31.4915E-03    -26.6758E-03     52.8737E-03    -26.4590E-03     31.4725E-03
             469     6.13554E-03     67.5883E-03    -15.6540E+06    -96.0279E+06    -2.69723E+06     130.332E+03    -26.8113E-03     53.4110E-03    -26.5997E-03     36.7323E-03    -26.7541E-03     52.9652E-03    -26.4513E-03     36.7071E-03
             470     7.01212E-03     67.6256E-03    -13.7775E+06    -90.5236E+06     679.373E+03     132.520E+03    -26.8942E-03     53.4923E-03    -26.5981E-03     41.9189E-03    -26.8445E-03     53.0703E-03    -26.4434E-03     41.8857E-03
             471     7.88869E-03     67.6678E-03    -12.0448E+06    -83.9551E+06     2.45276E+06     42.4463E+03    -26.9955E-03     53.5828E-03    -26.5873E-03     47.0217E-03    -26.9548E-03     53.1942E-03    -26.4359E-03     46.9773E-03
             472     8.76526E-03     67.7149E-03    -10.5092E+06    -78.1209E+06     3.26403E+06     4.85980E+03    -27.0950E-03     53.6682E-03    -26.5732E-03     52.0444E-03    -27.0645E-03     53.3135E-03    -26.4283E-03     51.9873E-03
             473     9.64189E-03     67.7667E-03    -9.19929E+06    -72.4069E+06     2.84596E+06     143.194E+03    -27.2226E-03     53.7763E-03    -26.5537E-03     56.9689E-03    -27.2047E-03     53.4604E-03    -26.4211E-03     56.8985E-03
             474     10.5185E-03     67.8230E-03    -8.30572E+06    -64.7601E+06     861.834E+03     215.770E+03    -27.3942E-03     53.9213E-03    -26.5271E-03     61.7306E-03    -27.3969E-03     53.6621E-03    -26.4168E-03     61.6425E-03
             475     11.3948E-03     67.8841E-03    -7.42910E+06    -52.4787E+06     1.49953E+06     277.931E+03    -27.4218E-03     53.9266E-03    -26.5048E-03     67.2874E-03    -27.4639E-03     53.7517E-03    -26.4104E-03     67.1788E-03
             476     12.2718E-03     67.9508E-03    -6.76852E+06    -40.8654E+06    -436.501E+03     309.789E+03    -27.6855E-03     54.1532E-03    -26.4676E-03     75.4050E-03    -27.7826E-03     54.0824E-03    -26.4008E-03     75.2685E-03
             477     13.1484E-03     68.0274E-03    -7.13088E+06    -26.6631E+06    -6.51145E+06     114.811E+03    -27.8916E-03     54.3037E-03    -26.4121E-03     80.3473E-03    -28.0672E-03     54.3782E-03    -26.3956E-03     80.1763E-03
             478     14.0250E-03     68.1031E-03    -6.69392E+06     5.19390E+06    -8.46418E+06     167.978E+03    -28.0369E-03     54.3850E-03    -26.3481E-03     90.9154E-03    -28.3829E-03     54.7503E-03    -26.3883E-03     90.7216E-03
             479     14.9016E-03     68.2001E-03    -6.91870E+06     59.1190E+06    -16.6219E+06     348.714E+03    -29.7817E-03     56.0005E-03    -26.2188E-03     128.035E-03    -30.7516E-03     57.2039E-03    -26.3776E-03     127.864E-03
             480     15.7782E-03     68.3483E-03    -7.84606E+06     125.210E+06     5.84533E+06     397.325E+03    -32.9846E-03     59.2283E-03    -26.2438E-03     185.261E-03    -36.2298E-03     62.8732E-03    -26.3847E-03     185.810E-03
             481     16.6498E-03     68.5542E-03    -5.05051E+06     163.372E+06     69.2568E+06     364.385E+03    -29.3780E-03     55.8696E-03    -26.4916E-03     147.775E-03    -32.7236E-03     59.5764E-03    -26.3749E-03     149.371E-03
             482     876.484E-06     68.4681E-03    -23.5421E+06    -115.222E+06    -23.0988E+06     37.8116E+03    -26.5656E-03     53.1325E-03    -26.5669E-03     5.75222E-03    -26.4828E-03     52.6242E-03    -26.4812E-03     5.75001E-03
             483     1.75297E-03     68.4758E-03    -23.0399E+06    -114.419E+06    -21.5850E+06     42.5006E+03    -26.5837E-03     53.1508E-03    -26.5671E-03     10.6086E-03    -26.5021E-03     52.6439E-03    -26.4757E-03     10.6040E-03
             484     2.62947E-03     68.4883E-03    -22.1286E+06    -112.865E+06    -18.8199E+06     13.9760E+03    -26.6074E-03     53.1816E-03    -26.5742E-03     15.7504E-03    -26.5281E-03     52.6776E-03    -26.4725E-03     15.7425E-03
             485     3.50596E-03     68.5057E-03    -20.8037E+06    -110.572E+06    -14.8884E+06     2.15785E+03    -26.6429E-03     53.2272E-03    -26.5843E-03     20.9728E-03    -26.5668E-03     52.7278E-03    -26.4682E-03     20.9615E-03
             486     4.38248E-03     68.5281E-03    -19.2916E+06    -105.091E+06    -11.4439E+06    -22.0558E+03    -26.6851E-03     53.2711E-03    -26.5860E-03     26.2150E-03    -26.6156E-03     52.7932E-03    -26.4628E-03     26.1992E-03
             487     5.25901E-03     68.5554E-03    -17.6735E+06    -99.5453E+06    -7.65544E+06     52.5475E+03    -26.7414E-03     53.3296E-03    -26.5882E-03     31.4723E-03    -26.6792E-03     52.8735E-03    -26.4565E-03     31.4524E-03
             488     6.13556E-03     68.5878E-03    -15.8868E+06    -95.9092E+06    -2.97197E+06     87.3749E+03    -26.8179E-03     53.4151E-03    -26.5972E-03     36.7095E-03    -26.7617E-03     52.9706E-03    -26.4499E-03     36.6836E-03
             489     7.01209E-03     68.6251E-03    -14.0019E+06    -90.4611E+06     320.169E+03    -13.0553E+03    -26.9071E-03     53.5038E-03    -26.5967E-03     41.8961E-03    -26.8581E-03     53.0830E-03    -26.4436E-03     41.8609E-03
             490     7.88867E-03     68.6674E-03    -12.1663E+06    -83.8880E+06     2.01658E+06     -5.2525E+03    -27.0096E-03     53.5966E-03    -26.5870E-03     47.0179E-03    -26.9691E-03     53.2092E-03    -26.4376E-03     46.9729E-03
             491     8.76520E-03     68.7144E-03    -10.5970E+06    -78.0384E+06     2.88379E+06    -54.6036E+03    -27.1118E-03     53.6863E-03    -26.5745E-03     52.0123E-03    -27.0813E-03     53.3327E-03    -26.4315E-03     51.9544E-03
             492     9.64183E-03     68.7661E-03    -9.26130E+06    -72.6478E+06     2.29117E+06    -23.0181E+03    -27.2446E-03     53.8006E-03    -26.5560E-03     57.0056E-03    -27.2259E-03     53.4845E-03    -26.4257E-03     56.9330E-03
             493     10.5183E-03     68.8228E-03    -8.15825E+06    -64.7918E+06     592.491E+03     143.860E+03    -27.3485E-03     53.8771E-03    -26.5287E-03     61.8231E-03    -27.3498E-03     53.6178E-03    -26.4199E-03     61.7346E-03
             494     11.3951E-03     68.8835E-03    -7.41207E+06    -52.6207E+06     1.22879E+06     163.722E+03    -27.5235E-03     54.0317E-03    -26.5082E-03     67.3060E-03    -27.5654E-03     53.8569E-03    -26.4150E-03     67.1951E-03
             495     12.2716E-03     68.9502E-03    -6.68133E+06    -40.7070E+06    -477.158E+03     163.883E+03    -27.7272E-03     54.2039E-03    -26.4767E-03     75.2997E-03    -27.8244E-03     54.1342E-03    -26.4104E-03     75.1608E-03
             496     13.1483E-03     69.0271E-03    -6.46860E+06    -26.7345E+06    -6.18986E+06     369.099E+03    -27.6799E-03     54.0966E-03    -26.4166E-03     80.1912E-03    -27.8510E-03     54.1677E-03    -26.3994E-03     80.0254E-03
             497     14.0248E-03     69.1027E-03    -6.96170E+06     5.11625E+06    -8.86220E+06     214.348E+03    -28.1771E-03     54.5239E-03    -26.3469E-03     91.4655E-03    -28.5275E-03     54.8935E-03    -26.3885E-03     91.2703E-03
             498     14.9013E-03     69.1999E-03    -7.40948E+06     58.7672E+06    -18.0827E+06     457.645E+03    -29.7535E-03     55.9682E-03    -26.2147E-03     128.645E-03    -30.7222E-03     57.1716E-03    -26.3796E-03     128.479E-03
             499     15.7787E-03     69.3471E-03    -6.95662E+06     125.275E+06     5.22869E+06     954.592E+03    -32.0463E-03     58.2535E-03    -26.2071E-03     188.006E-03    -35.3476E-03     61.9596E-03    -26.3526E-03     188.609E-03
             500     16.6574E-03     69.5606E-03    -4.64738E+06     164.165E+06     69.7518E+06     206.556E+03    -29.8248E-03     56.2599E-03    -26.4351E-03     149.775E-03    -33.2251E-03     60.0243E-03    -26.3176E-03     151.368E-03
             501     876.488E-06     69.4676E-03    -23.6461E+06    -115.343E+06    -23.1892E+06     131.830E+03    -26.5652E-03     53.1268E-03    -26.5616E-03     5.75232E-03    -26.4827E-03     52.6181E-03    -26.4760E-03     5.75132E-03
             502     1.75297E-03     69.4753E-03    -23.0730E+06    -114.382E+06    -21.5246E+06     94.6587E+03    -26.5822E-03     53.1473E-03    -26.5650E-03     10.6038E-03    -26.5010E-03     52.6404E-03    -26.4733E-03     10.5999E-03
             503     2.62947E-03     69.4878E-03    -22.1915E+06    -112.799E+06    -18.7912E+06     45.0164E+03    -26.6064E-03     53.1789E-03    -26.5725E-03     15.7441E-03    -26.5275E-03     52.6752E-03    -26.4707E-03     15.7366E-03
             504     3.50597E-03     69.5052E-03    -20.9380E+06    -110.524E+06    -14.9591E+06     3.21086E+03    -26.6433E-03     53.2261E-03    -26.5827E-03     20.9637E-03    -26.5679E-03     52.7273E-03    -26.4669E-03     20.9524E-03
             505     4.38248E-03     69.5275E-03    -19.4287E+06    -105.073E+06    -11.4948E+06     23.9509E+03    -26.6887E-03     53.2741E-03    -26.5854E-03     26.2022E-03    -26.6199E-03     52.7966E-03    -26.4623E-03     26.1870E-03
             506     5.25901E-03     69.5549E-03    -17.8015E+06    -99.5999E+06    -7.70648E+06     21.6266E+03    -26.7477E-03     53.3364E-03    -26.5887E-03     31.4588E-03    -26.6860E-03     52.8803E-03    -26.4570E-03     31.4385E-03
             507     6.13553E-03     69.5873E-03    -15.9455E+06    -95.8085E+06    -3.36384E+06    -33.0287E+03    -26.8236E-03     53.4201E-03    -26.5965E-03     36.7022E-03    -26.7672E-03     52.9768E-03    -26.4513E-03     36.6748E-03
             508     7.01210E-03     69.6246E-03    -14.0346E+06    -90.3040E+06    -111.047E+03    -116.244E+03    -26.9134E-03     53.5097E-03    -26.5963E-03     41.9049E-03    -26.8642E-03     53.0904E-03    -26.4456E-03     41.8684E-03
             509     7.88862E-03     69.6668E-03    -12.3233E+06    -83.9538E+06     1.50398E+06    -160.833E+03    -27.0053E-03     53.5919E-03    -26.5866E-03     47.0264E-03    -26.9646E-03     53.2051E-03    -26.4395E-03     46.9794E-03
             510     8.76525E-03     69.7139E-03    -10.7258E+06    -77.8271E+06     2.55567E+06    -182.526E+03    -27.1267E-03     53.7015E-03    -26.5748E-03     52.0502E-03    -27.0966E-03     53.3496E-03    -26.4336E-03     51.9906E-03
             511     9.64172E-03     69.7656E-03    -9.43840E+06    -72.7372E+06     2.06523E+06    -232.808E+03    -27.2410E-03     53.7986E-03    -26.5576E-03     57.0459E-03    -27.2227E-03     53.4826E-03    -26.4281E-03     56.9706E-03
             512     10.5184E-03     69.8222E-03    -8.38853E+06    -65.0146E+06     218.862E+03    -124.215E+03    -27.3220E-03     53.8505E-03    -26.5285E-03     61.7435E-03    -27.3235E-03     53.5908E-03    -26.4210E-03     61.6516E-03
             513     11.3951E-03     69.8828E-03    -7.43125E+06    -52.4084E+06     1.28229E+06     4.90375E+03    -27.5556E-03     54.0648E-03    -26.5092E-03     67.5197E-03    -27.5984E-03     53.8914E-03    -26.4160E-03     67.4065E-03
             514     12.2711E-03     69.9507E-03    -6.65907E+06    -40.9096E+06    -568.242E+03     81.2301E+03    -27.7267E-03     54.2049E-03    -26.4782E-03     75.3759E-03    -27.8233E-03     54.1343E-03    -26.4121E-03     75.2360E-03
             515     13.1480E-03     70.0252E-03    -5.94496E+06    -27.1093E+06    -6.17531E+06     197.892E+03    -27.6290E-03     54.0451E-03    -26.4162E-03     80.2783E-03    -27.7974E-03     54.1141E-03    -26.3991E-03     80.1104E-03
             516     14.0257E-03     70.1027E-03    -6.33335E+06     5.03270E+06    -8.92222E+06     704.650E+03    -27.9581E-03     54.2947E-03    -26.3366E-03     91.6860E-03    -28.3045E-03     54.6624E-03    -26.3794E-03     91.4996E-03
             517     14.9020E-03     70.1998E-03    -7.23001E+06     58.8416E+06    -18.4883E+06     441.049E+03    -29.7035E-03     55.8992E-03    -26.1957E-03     128.454E-03    -30.6743E-03     57.1068E-03    -26.3629E-03     128.286E-03
             518     15.7787E-03     70.3458E-03    -6.52753E+06     125.150E+06     4.05107E+06    -166.000E+03    -31.7669E-03     57.9514E-03    -26.1845E-03     184.931E-03    -35.0065E-03     61.6003E-03    -26.3363E-03     185.549E-03
             519     16.6596E-03     70.5550E-03    -4.14516E+06     164.366E+06     69.0240E+06     470.738E+03    -29.7073E-03     56.1271E-03    -26.4199E-03     146.535E-03    -33.0372E-03     59.8258E-03    -26.3071E-03     148.141E-03
             520     876.481E-06     70.4671E-03    -23.9559E+06    -115.520E+06    -23.5873E+06     84.2288E+03    -26.5612E-03     53.1219E-03    -26.5607E-03     5.75313E-03    -26.4794E-03     52.6134E-03    -26.4764E-03     5.75151E-03
             521     1.75298E-03     70.4748E-03    -23.3556E+06    -114.415E+06    -21.6947E+06     149.691E+03    -26.5812E-03     53.1446E-03    -26.5635E-03     10.6025E-03    -26.5010E-03     52.6383E-03    -26.4722E-03     10.5992E-03
             522     2.62947E-03     70.4873E-03    -22.3909E+06    -112.745E+06    -18.6642E+06     140.859E+03    -26.6093E-03     53.1824E-03    -26.5732E-03     15.7396E-03    -26.5316E-03     52.6792E-03    -26.4706E-03     15.7334E-03
             523     3.50597E-03     70.5047E-03    -21.0687E+06    -110.414E+06    -14.8990E+06     53.5489E+03    -26.6470E-03     53.2311E-03    -26.5841E-03     20.9588E-03    -26.5724E-03     52.7329E-03    -26.4679E-03     20.9481E-03
             524     4.38247E-03     70.5271E-03    -19.4953E+06    -105.078E+06    -11.6526E+06    -6.15363E+03    -26.6925E-03     53.2789E-03    -26.5864E-03     26.2019E-03    -26.6238E-03     52.8018E-03    -26.4640E-03     26.1863E-03
             525     5.25899E-03     70.5544E-03    -17.7610E+06    -99.4834E+06    -7.62502E+06    -53.9245E+03    -26.7503E-03     53.3411E-03    -26.5909E-03     31.4616E-03    -26.6887E-03     52.8855E-03    -26.4590E-03     31.4403E-03
             526     6.13553E-03     70.5868E-03    -15.9132E+06    -95.6305E+06    -3.27516E+06    -200.659E+03    -26.8259E-03     53.4247E-03    -26.5987E-03     36.7101E-03    -26.7698E-03     52.9820E-03    -26.4534E-03     36.6806E-03
             527     7.01206E-03     70.6241E-03    -13.9855E+06    -90.1643E+06    -344.332E+03    -314.983E+03    -26.9079E-03     53.5043E-03    -26.5965E-03     41.9135E-03    -26.8582E-03     53.0859E-03    -26.4472E-03     41.8744E-03
             528     7.88866E-03     70.6664E-03    -12.1456E+06    -83.8845E+06     1.44307E+06    -330.288E+03    -27.0065E-03     53.5935E-03    -26.5870E-03     47.0249E-03    -26.9650E-03     53.2069E-03    -26.4405E-03     46.9758E-03
             529     8.76518E-03     70.7134E-03    -10.7837E+06    -77.8649E+06     2.38630E+06    -229.455E+03    -27.1156E-03     53.6901E-03    -26.5745E-03     52.0776E-03    -27.0854E-03     53.3383E-03    -26.4340E-03     52.0174E-03
             530     9.64182E-03     70.7653E-03    -9.62566E+06    -72.4103E+06     2.04689E+06    -298.277E+03    -27.2248E-03     53.7814E-03    -26.5565E-03     57.0225E-03    -27.2079E-03     53.4673E-03    -26.4273E-03     56.9465E-03
             531     10.5184E-03     70.8215E-03    -8.55055E+06    -65.1974E+06    -20.6026E+03    -404.474E+03    -27.3540E-03     53.8817E-03    -26.5277E-03     61.8168E-03    -27.3558E-03     53.6218E-03    -26.4209E-03     61.7211E-03
             532     11.3948E-03     70.8826E-03    -7.63906E+06    -52.7054E+06     807.396E+03    -143.078E+03    -27.3802E-03     53.8821E-03    -26.5019E-03     67.6866E-03    -27.4224E-03     53.7077E-03    -26.4103E-03     67.5728E-03
             533     12.2722E-03     70.9497E-03    -6.95293E+06    -41.1146E+06    -1.06598E+06    -88.2360E+03    -27.6202E-03     54.0808E-03    -26.4606E-03     75.4814E-03    -27.7167E-03     54.0098E-03    -26.3963E-03     75.3402E-03
             534     13.1487E-03     71.0251E-03    -6.76846E+06    -27.3743E+06    -7.03580E+06    -72.7127E+03    -27.9124E-03     54.3165E-03    -26.4041E-03     80.2858E-03    -28.0845E-03     54.3878E-03    -26.3898E-03     80.1122E-03
             535     14.0243E-03     71.1017E-03    -5.98053E+06     4.57791E+06    -8.77868E+06     416.672E+03    -28.0362E-03     54.3772E-03    -26.3410E-03     91.2295E-03    -28.3785E-03     54.7400E-03    -26.3829E-03     91.0391E-03
             536     14.9025E-03     71.1985E-03    -5.74083E+06     59.7638E+06    -15.9440E+06     787.037E+03    -29.6292E-03     55.8385E-03    -26.2092E-03     128.144E-03    -30.5928E-03     57.0401E-03    -26.3673E-03     127.982E-03
             537     15.7786E-03     71.3470E-03    -7.24311E+06     125.542E+06     5.39761E+06     250.849E+03    -33.2352E-03     59.4674E-03    -26.2322E-03     185.406E-03    -36.4886E-03     63.1250E-03    -26.3767E-03     185.937E-03
             538     16.6491E-03     71.5533E-03    -5.25500E+06     163.647E+06     68.2911E+06    -46.7163E+03    -29.6336E-03     56.1259E-03    -26.4923E-03     147.431E-03    -32.9875E-03     59.8441E-03    -26.3806E-03     149.004E-03
             539     876.494E-06     71.4666E-03    -24.2696E+06    -115.603E+06    -23.7839E+06     7.85433E+03    -26.5613E-03     53.1231E-03    -26.5619E-03     5.75422E-03    -26.4806E-03     52.6149E-03    -26.4780E-03     5.75160E-03
             540     1.75297E-03     71.4743E-03    -23.5395E+06    -114.568E+06    -21.8991E+06     123.531E+03    -26.5831E-03     53.1476E-03    -26.5645E-03     10.6020E-03    -26.5033E-03     52.6411E-03    -26.4738E-03     10.5984E-03
             541     2.62947E-03     71.4868E-03    -22.5083E+06    -112.788E+06    -18.8227E+06     222.667E+03    -26.6114E-03     53.1860E-03    -26.5745E-03     15.7380E-03    -26.5341E-03     52.6829E-03    -26.4724E-03     15.7329E-03
             542     3.50595E-03     71.5042E-03    -21.1875E+06    -110.220E+06    -14.9021E+06     132.236E+03    -26.6496E-03     53.2357E-03    -26.5861E-03     20.9603E-03    -26.5759E-03     52.7387E-03    -26.4701E-03     20.9506E-03
             543     4.38246E-03     71.5266E-03    -19.5685E+06    -104.848E+06    -11.5521E+06    -136.842E+03    -26.6931E-03     53.2820E-03    -26.5889E-03     26.2066E-03    -26.6252E-03     52.8059E-03    -26.4662E-03     26.1893E-03
             544     5.25898E-03     71.5540E-03    -17.7384E+06    -99.3977E+06    -7.69180E+06    -265.855E+03    -26.7495E-03     53.3418E-03    -26.5923E-03     31.4687E-03    -26.6879E-03     52.8866E-03    -26.4609E-03     31.4447E-03
             545     6.13552E-03     71.5863E-03    -15.8336E+06    -95.3649E+06    -3.27416E+06    -314.676E+03    -26.8232E-03     53.4228E-03    -26.5996E-03     36.7178E-03    -26.7670E-03     52.9813E-03    -26.4547E-03     36.6867E-03
             546     7.01207E-03     71.6237E-03    -14.0202E+06    -89.9521E+06    -358.074E+03    -480.757E+03    -26.9052E-03     53.5022E-03    -26.5970E-03     41.9126E-03    -26.8560E-03     53.0849E-03    -26.4480E-03     41.8714E-03
             547     7.88862E-03     71.6658E-03    -12.4737E+06    -84.0139E+06     1.17059E+06    -386.994E+03    -27.0022E-03     53.5890E-03    -26.5867E-03     47.0436E-03    -26.9618E-03     53.2026E-03    -26.4410E-03     46.9937E-03
             548     8.76521E-03     71.7130E-03    -10.9698E+06    -77.8162E+06     2.28057E+06    -278.829E+03    -27.0990E-03     53.6727E-03    -26.5736E-03     52.0705E-03    -27.0697E-03     53.3216E-03    -26.4335E-03     52.0098E-03
             549     9.64181E-03     71.7646E-03    -9.55168E+06    -72.1258E+06     2.05505E+06    -422.755E+03    -27.2111E-03     53.7653E-03    -26.5542E-03     57.0266E-03    -27.1942E-03     53.4525E-03    -26.4255E-03     56.9490E-03
             550     10.5184E-03     71.8212E-03    -8.58265E+06    -65.1165E+06     48.1958E+03    -521.835E+03    -27.2945E-03     53.8178E-03    -26.5233E-03     61.8298E-03    -27.2966E-03     53.5581E-03    -26.4162E-03     61.7330E-03
             551     11.3953E-03     71.8818E-03    -7.72302E+06    -52.9968E+06     552.624E+03    -615.314E+03    -27.4060E-03     53.9018E-03    -26.4958E-03     67.4037E-03    -27.4477E-03     53.7263E-03    -26.4050E-03     67.2837E-03
             552     12.2719E-03     71.9488E-03    -6.78802E+06    -40.9021E+06    -903.318E+03    -447.325E+03    -27.6625E-03     54.1217E-03    -26.4592E-03     75.1310E-03    -27.7586E-03     54.0511E-03    -26.3946E-03     74.9849E-03
             553     13.1483E-03     72.0253E-03    -6.25424E+06    -27.7302E+06    -6.68334E+06    -88.8981E+03    -27.7973E-03     54.1996E-03    -26.4023E-03     80.1683E-03    -27.9656E-03     54.2666E-03    -26.3864E-03     79.9955E-03
             554     14.0255E-03     72.1011E-03    -6.57433E+06     4.09118E+06    -9.39040E+06     116.035E+03    -28.2612E-03     54.6004E-03    -26.3391E-03     91.4946E-03    -28.6068E-03     54.9643E-03    -26.3825E-03     91.2974E-03
             555     14.9008E-03     72.1979E-03    -7.59376E+06     59.1952E+06    -17.2716E+06     636.493E+03    -29.7848E-03     56.0009E-03    -26.2162E-03     128.560E-03    -30.7567E-03     57.2062E-03    -26.3773E-03     128.394E-03
             556     15.7786E-03     72.3459E-03    -7.01646E+06     126.148E+06     5.80704E+06     1.22624E+06    -32.1044E-03     58.3127E-03    -26.2083E-03     188.399E-03    -35.4123E-03     62.0267E-03    -26.3520E-03     189.010E-03
             557     16.6580E-03     72.5604E-03    -4.57620E+06     164.756E+06     69.1902E+06     201.291E+03    -29.8197E-03     56.2509E-03    -26.4311E-03     149.059E-03    -33.2083E-03     60.0075E-03    -26.3174E-03     150.652E-03
             558     876.473E-06     72.4661E-03    -24.4200E+06    -115.569E+06    -23.9863E+06    -2.37499E+03    -26.5687E-03     53.1311E-03    -26.5625E-03     5.75553E-03    -26.4885E-03     52.6236E-03    -26.4794E-03     5.75279E-03
             559     1.75297E-03     72.4738E-03    -23.7735E+06    -114.685E+06    -22.2787E+06     11.2498E+03    -26.5857E-03     53.1532E-03    -26.5675E-03     10.6045E-03    -26.5064E-03     52.6470E-03    -26.4781E-03     10.5994E-03
             560     2.62945E-03     72.4863E-03    -22.6441E+06    -112.937E+06    -19.1865E+06     114.082E+03    -26.6122E-03     53.1889E-03    -26.5767E-03     15.7420E-03    -26.5348E-03     52.6858E-03    -26.4760E-03     15.7354E-03
             561     3.50596E-03     72.5037E-03    -21.0287E+06    -109.931E+06    -14.8948E+06     24.9123E+03    -26.6496E-03     53.2378E-03    -26.5882E-03     20.9649E-03    -26.5756E-03     52.7420E-03    -26.4728E-03     20.9539E-03
             562     4.38245E-03     72.5261E-03    -19.2758E+06    -104.425E+06    -11.3036E+06    -270.439E+03    -26.6926E-03     53.2837E-03    -26.5911E-03     26.2082E-03    -26.6242E-03     52.8089E-03    -26.4682E-03     26.1892E-03
             563     5.25898E-03     72.5534E-03    -17.6129E+06    -99.3571E+06    -7.68951E+06    -385.484E+03    -26.7478E-03     53.3413E-03    -26.5934E-03     31.4736E-03    -26.6856E-03     52.8861E-03    -26.4623E-03     31.4481E-03
             564     6.13551E-03     72.5859E-03    -15.9005E+06    -95.1672E+06    -3.47500E+06    -388.842E+03    -26.8185E-03     53.4177E-03    -26.5991E-03     36.7205E-03    -26.7627E-03     52.9776E-03    -26.4555E-03     36.6885E-03
             565     7.01207E-03     72.6231E-03    -14.2939E+06    -89.8518E+06    -293.143E+03    -314.749E+03    -26.9032E-03     53.5011E-03    -26.5979E-03     41.9108E-03    -26.8556E-03     53.0847E-03    -26.4484E-03     41.8717E-03
             566     7.88863E-03     72.6654E-03    -12.6994E+06    -83.8952E+06     1.15918E+06    -445.147E+03    -26.9902E-03     53.5768E-03    -26.5866E-03     47.0346E-03    -26.9510E-03     53.1913E-03    -26.4407E-03     46.9840E-03
             567     8.76524E-03     72.7124E-03    -10.8759E+06    -77.5692E+06     2.03050E+06    -749.507E+03    -27.0899E-03     53.6605E-03    -26.5706E-03     52.0697E-03    -27.0601E-03     53.3108E-03    -26.4322E-03     52.0030E-03
             568     9.64182E-03     72.7642E-03    -9.31853E+06    -72.2024E+06     1.84462E+06    -649.756E+03    -27.1997E-03     53.7505E-03    -26.5508E-03     57.0153E-03    -27.1812E-03     53.4372E-03    -26.4234E-03     56.9348E-03
             569     10.5185E-03     72.8205E-03    -8.23024E+06    -64.8256E+06     28.4814E+03    -620.312E+03    -27.3099E-03     53.8304E-03    -26.5205E-03     61.6795E-03    -27.3106E-03     53.5717E-03    -26.4145E-03     61.5812E-03
             570     11.3951E-03     72.8812E-03    -7.50466E+06    -52.5745E+06     563.808E+03    -760.591E+03    -27.5102E-03     54.0081E-03    -26.4978E-03     67.4460E-03    -27.5517E-03     53.8346E-03    -26.4079E-03     67.3234E-03
             571     12.2713E-03     72.9489E-03    -7.21614E+06    -41.4654E+06    -1.52467E+06    -553.942E+03    -27.7389E-03     54.2054E-03    -26.4665E-03     75.2880E-03    -27.8359E-03     54.1340E-03    -26.4035E-03     75.1400E-03
             572     13.1485E-03     73.0237E-03    -6.78951E+06    -27.9538E+06    -7.14698E+06    -218.956E+03    -27.7235E-03     54.1334E-03    -26.4098E-03     79.9710E-03    -27.8932E-03     54.2004E-03    -26.3952E-03     79.7970E-03
             573     14.0252E-03     73.1010E-03    -6.84747E+06     4.04140E+06    -9.80000E+06     47.3297E+03    -28.0767E-03     54.4150E-03    -26.3383E-03     91.3841E-03    -28.4227E-03     54.7794E-03    -26.3832E-03     91.1878E-03
             574     14.9023E-03     73.1983E-03    -7.14275E+06     58.1563E+06    -18.9629E+06     393.282E+03    -29.7121E-03     55.9142E-03    -26.2021E-03     128.390E-03    -30.6816E-03     57.1198E-03    -26.3709E-03     128.222E-03
             575     15.7784E-03     73.3444E-03    -6.38267E+06     125.909E+06     4.38155E+06     485.768E+03    -31.5216E-03     57.7057E-03    -26.1841E-03     185.629E-03    -34.7676E-03     61.3633E-03    -26.3355E-03     186.270E-03
             576     16.6593E-03     73.5540E-03    -4.12169E+06     165.406E+06     69.3016E+06     394.051E+03    -29.6157E-03     56.0222E-03    -26.4065E-03     146.562E-03    -32.9426E-03     59.7207E-03    -26.2938E-03     148.171E-03
             577     876.486E-06     73.4656E-03    -24.5947E+06    -115.551E+06    -24.1917E+06     16.8128E+03    -26.5731E-03     53.1384E-03    -26.5653E-03     5.76245E-03    -26.4935E-03     52.6315E-03    -26.4831E-03     5.75995E-03
             578     1.75295E-03     73.4733E-03    -24.0489E+06    -114.617E+06    -22.4568E+06    -26.4249E+03    -26.5887E-03     53.1599E-03    -26.5712E-03     10.6082E-03    -26.5106E-03     52.6546E-03    -26.4824E-03     10.6027E-03
             579     2.62945E-03     73.4858E-03    -23.0813E+06    -113.071E+06    -19.5061E+06    -8.42712E+03    -26.6143E-03     53.1943E-03    -26.5800E-03     15.7461E-03    -26.5384E-03     52.6917E-03    -26.4801E-03     15.7380E-03
             580     3.50592E-03     73.5032E-03    -21.7425E+06    -109.402E+06    -16.3186E+06    -250.229E+03    -26.6449E-03     53.2295E-03    -26.5847E-03     20.9666E-03    -26.5731E-03     52.7395E-03    -26.4761E-03     20.9519E-03
             581     4.38245E-03     73.5256E-03    -20.0631E+06    -104.078E+06    -12.8668E+06    -567.790E+03    -26.6867E-03     53.2727E-03    -26.5859E-03     26.2113E-03    -26.6205E-03     52.8031E-03    -26.4703E-03     26.1885E-03
             582     5.25896E-03     73.5530E-03    -18.1818E+06    -99.3220E+06    -8.06143E+06    -549.107E+03    -26.7455E-03     53.3392E-03    -26.5937E-03     31.4713E-03    -26.6856E-03     52.8856E-03    -26.4636E-03     31.4436E-03
             583     6.13552E-03     73.5853E-03    -16.3267E+06    -95.1893E+06    -3.57858E+06    -380.311E+03    -26.8177E-03     53.4183E-03    -26.6005E-03     36.7066E-03    -26.7638E-03     52.9789E-03    -26.4567E-03     36.6747E-03
             584     7.01206E-03     73.6227E-03    -14.3626E+06    -89.7627E+06    -462.180E+03    -366.009E+03    -26.8972E-03     53.4951E-03    -26.5979E-03     41.8962E-03    -26.8498E-03     53.0794E-03    -26.4492E-03     41.8565E-03
             585     7.88863E-03     73.6649E-03    -12.2465E+06    -83.1156E+06     1.09673E+06    -867.311E+03    -26.9866E-03     53.5713E-03    -26.5847E-03     47.0092E-03    -26.9462E-03     53.1892E-03    -26.4409E-03     46.9531E-03
             586     8.76523E-03     73.7119E-03    -10.5592E+06    -77.4616E+06     1.67277E+06    -1.13853E+06    -27.0852E-03     53.6532E-03    -26.5680E-03     52.0429E-03    -27.0535E-03     53.3041E-03    -26.4320E-03     51.9711E-03
             587     9.64187E-03     73.7636E-03    -9.19184E+06    -72.3444E+06         1.3E+06    -1.00284E+06    -27.2078E-03     53.7557E-03    -26.5479E-03     56.9672E-03    -27.1877E-03     53.4424E-03    -26.4232E-03     56.8822E-03
             588     10.5184E-03     73.8200E-03    -8.04766E+06    -64.7195E+06    -267.719E+03    -849.230E+03    -27.3636E-03     53.8845E-03    -26.5209E-03     61.7273E-03    -27.3633E-03     53.6266E-03    -26.4167E-03     61.6257E-03
             589     11.3949E-03     73.8809E-03    -7.38292E+06    -52.6758E+06     344.549E+03    -525.637E+03    -27.4527E-03     53.9513E-03    -26.4986E-03     67.4997E-03    -27.4930E-03     53.7774E-03    -26.4098E-03     67.3805E-03
             590     12.2722E-03     73.9480E-03    -7.01817E+06    -41.7266E+06    -1.80858E+06    -394.153E+03    -27.7152E-03     54.1788E-03    -26.4636E-03     75.4100E-03    -27.8106E-03     54.1064E-03    -26.4020E-03     75.2640E-03
             591     13.1479E-03     74.0239E-03    -7.03967E+06    -28.0230E+06    -7.81128E+06    -364.676E+03    -27.9292E-03     54.3400E-03    -26.4109E-03     80.1599E-03    -28.1002E-03     54.4093E-03    -26.3991E-03     79.9822E-03
             592     14.0245E-03     74.0998E-03    -6.83168E+06     3.88492E+06    -9.99579E+06    -233.782E+03    -28.0940E-03     54.4421E-03    -26.3481E-03     91.4142E-03    -28.4399E-03     54.8065E-03    -26.3938E-03     91.2145E-03
             593     14.9016E-03     74.1974E-03    -6.82192E+06     57.6913E+06    -18.8596E+06    -69.5024E+03    -29.5940E-03     55.8048E-03    -26.2108E-03     127.887E-03    -30.5538E-03     56.9999E-03    -26.3789E-03     127.716E-03
             594     15.7790E-03     74.3443E-03    -6.93788E+06     125.606E+06     3.69184E+06     305.897E+03    -32.4665E-03     58.6795E-03    -26.2130E-03     185.290E-03    -35.7153E-03     62.3388E-03    -26.3666E-03     185.859E-03
             595     16.6507E-03     74.5529E-03    -4.55706E+06     165.725E+06     68.9445E+06     338.800E+03    -29.6262E-03     56.0850E-03    -26.4588E-03     149.063E-03    -32.9996E-03     59.8306E-03    -26.3478E-03     150.662E-03
             596     876.464E-06     74.4652E-03    -24.6701E+06    -115.544E+06    -24.2551E+06     5.49290E+03    -26.5771E-03     53.1469E-03    -26.5698E-03     5.76288E-03    -26.4979E-03     52.6403E-03    -26.4878E-03     5.76024E-03
             597     1.75296E-03     74.4728E-03    -24.0561E+06    -114.559E+06    -22.4332E+06     36.3946E+03    -26.5928E-03     53.1686E-03    -26.5757E-03     10.6059E-03    -26.5149E-03     52.6636E-03    -26.4869E-03     10.6012E-03
             598     2.62942E-03     74.4853E-03    -22.9941E+06    -112.890E+06    -19.6336E+06    -128.065E+03    -26.6164E-03     53.1994E-03    -26.5831E-03     15.7467E-03    -26.5401E-03     52.6978E-03    -26.4842E-03     15.7370E-03
             599     3.50593E-03     74.5027E-03    -21.5607E+06    -108.788E+06    -16.4504E+06    -454.509E+03    -26.6456E-03     53.2318E-03    -26.5862E-03     20.9664E-03    -26.5736E-03     52.7448E-03    -26.4794E-03     20.9492E-03
             600     4.38243E-03     74.5251E-03    -20.1631E+06    -103.700E+06    -12.9811E+06    -737.622E+03    -26.6880E-03     53.2759E-03    -26.5879E-03     26.2061E-03    -26.6227E-03     52.8085E-03    -26.4732E-03     26.1811E-03
             601     5.25897E-03     74.5525E-03    -18.6587E+06    -99.4154E+06    -8.58410E+06    -694.644E+03    -26.7461E-03     53.3409E-03    -26.5948E-03     31.4619E-03    -26.6878E-03     52.8882E-03    -26.4665E-03     31.4323E-03
             602     6.13548E-03     74.5849E-03    -16.6854E+06    -95.1032E+06    -4.24053E+06    -650.347E+03    -26.8158E-03     53.4159E-03    -26.6002E-03     36.6979E-03    -26.7628E-03     52.9784E-03    -26.4593E-03     36.6625E-03
             603     7.01204E-03     74.6222E-03    -14.3121E+06    -89.2095E+06    -1.22985E+06    -1.06482E+06    -26.8927E-03     53.4877E-03    -26.5951E-03     41.8902E-03    -26.8447E-03     53.0759E-03    -26.4511E-03     41.8415E-03
             604     7.88863E-03     74.6644E-03    -12.2813E+06    -82.5617E+06     504.952E+03    -1.31253E+06    -26.9879E-03     53.5704E-03    -26.5825E-03     47.0026E-03    -26.9477E-03     53.1920E-03    -26.4424E-03     46.9407E-03
             605     8.76521E-03     74.7114E-03    -10.7285E+06    -77.3144E+06     1.33766E+06    -1.37219E+06    -27.0923E-03     53.6605E-03    -26.5682E-03     52.0027E-03    -27.0612E-03     53.3129E-03    -26.4338E-03     51.9279E-03
             606     9.64181E-03     74.7631E-03    -9.43670E+06    -72.3427E+06      806.15E+03    -1.36430E+06    -27.2208E-03     53.7694E-03    -26.5485E-03     56.9750E-03    -27.2012E-03     53.4571E-03    -26.4259E-03     56.8853E-03
             607     10.5184E-03     74.8196E-03    -8.44203E+06    -65.0067E+06    -945.519E+03    -1.14589E+06    -27.3374E-03     53.8579E-03    -26.5205E-03     61.7373E-03    -27.3375E-03     53.6000E-03    -26.4187E-03     61.6321E-03
             608     11.3951E-03     74.8803E-03    -7.42345E+06    -53.0923E+06    -86.6288E+03    -802.811E+03    -27.4807E-03     53.9798E-03    -26.4991E-03     67.3818E-03    -27.5200E-03     53.8045E-03    -26.4118E-03     67.2587E-03
             609     12.2713E-03     74.9474E-03    -6.42300E+06    -41.6855E+06    -1.72604E+06    -438.646E+03    -27.7208E-03     54.1872E-03    -26.4664E-03     75.2965E-03    -27.8132E-03     54.1138E-03    -26.4052E-03     75.1501E-03
             610     13.1488E-03     75.0236E-03    -6.20383E+06    -27.6831E+06    -7.46790E+06    -278.855E+03    -27.8378E-03     54.2491E-03    -26.4112E-03     80.0638E-03    -28.0048E-03     54.3173E-03    -26.3994E-03     79.8883E-03
             611     14.0251E-03     75.0996E-03    -6.72323E+06     3.53873E+06    -10.1617E+06    -327.187E+03    -28.2294E-03     54.5783E-03    -26.3489E-03     91.4540E-03    -28.5747E-03     54.9418E-03    -26.3951E-03     91.2512E-03
             612     14.9013E-03     75.1969E-03    -7.16832E+06     57.0829E+06    -19.5578E+06    -151.593E+03    -29.8929E-03     56.1146E-03    -26.2216E-03     128.321E-03    -30.8561E-03     57.3116E-03    -26.3918E-03     128.143E-03
             613     15.7775E-03     75.3435E-03    -7.08661E+06     125.652E+06     3.21384E+06    -7.65297E+03    -32.2805E-03     58.5056E-03    -26.2251E-03     185.699E-03    -35.5420E-03     62.1786E-03    -26.3809E-03     186.281E-03
             614     16.6596E-03     75.5549E-03    -4.63025E+06     165.942E+06     68.7254E+06     131.036E+03    -29.4570E-03     55.9186E-03    -26.4616E-03     148.497E-03    -32.8308E-03     59.6658E-03    -26.3519E-03     150.104E-03
             615     876.478E-06     75.4647E-03    -25.0845E+06    -115.410E+06    -24.8864E+06    -154.191E+03    -26.5789E-03     53.1544E-03    -26.5755E-03     5.76000E-03    -26.5010E-03     52.6499E-03    -26.4962E-03     5.75529E-03
             616     1.75292E-03     75.4724E-03    -24.3699E+06    -114.484E+06    -23.1252E+06    -161.331E+03    -26.5923E-03     53.1695E-03    -26.5773E-03     10.6122E-03    -26.5150E-03     52.6664E-03    -26.4916E-03     10.6049E-03
             617     2.62943E-03     75.4848E-03    -23.2040E+06    -112.374E+06    -19.8955E+06    -392.903E+03    -26.6164E-03     53.2009E-03    -26.5845E-03     15.7524E-03    -26.5415E-03     52.7025E-03    -26.4874E-03     15.7393E-03
             618     3.50591E-03     75.5023E-03    -21.7725E+06    -108.302E+06    -16.2299E+06    -675.484E+03    -26.6490E-03     53.2391E-03    -26.5901E-03     20.9669E-03    -26.5791E-03     52.7545E-03    -26.4826E-03     20.9468E-03
             619     4.38242E-03     75.5246E-03    -20.1826E+06    -103.391E+06    -12.6065E+06    -734.531E+03    -26.6917E-03     53.2846E-03    -26.5930E-03     26.2050E-03    -26.6274E-03     52.8183E-03    -26.4768E-03     26.1800E-03
             620     5.25892E-03     75.5520E-03    -18.5170E+06    -99.3875E+06    -8.87966E+06    -748.176E+03    -26.7464E-03     53.3428E-03    -26.5964E-03     31.4632E-03    -26.6869E-03     52.8905E-03    -26.4698E-03     31.4329E-03
             621     6.13548E-03     75.5844E-03    -16.6179E+06    -94.4081E+06    -5.18559E+06    -1.16370E+06    -26.8125E-03     53.4093E-03    -26.5969E-03     36.7048E-03    -26.7588E-03     52.9766E-03    -26.4618E-03     36.6628E-03
             622     7.01203E-03     75.6217E-03    -14.7164E+06    -88.5235E+06    -1.89536E+06    -1.65056E+06    -26.8933E-03     53.4868E-03    -26.5935E-03     41.8889E-03    -26.8474E-03     53.0799E-03    -26.4533E-03     41.8326E-03
             623     7.88860E-03     75.6639E-03    -12.8684E+06    -82.4408E+06    -101.141E+03    -1.73768E+06    -26.9861E-03     53.5683E-03    -26.5822E-03     47.0045E-03    -26.9480E-03     53.1922E-03    -26.4445E-03     46.9371E-03
             624     8.76519E-03     75.7109E-03    -11.1566E+06    -77.0028E+06     871.812E+03    -1.71295E+06    -27.1026E-03     53.6711E-03    -26.5685E-03     52.0096E-03    -27.0734E-03     53.3264E-03    -26.4363E-03     51.9303E-03
             625     9.64178E-03     75.7626E-03    -9.78320E+06    -72.3548E+06     399.772E+03    -1.67722E+06    -27.2153E-03     53.7650E-03    -26.5496E-03     56.9873E-03    -27.1968E-03     53.4537E-03    -26.4285E-03     56.8935E-03
             626     10.5184E-03     75.8191E-03    -8.73525E+06    -65.0889E+06    -1.52684E+06    -1.47875E+06    -27.3442E-03     53.8648E-03    -26.5206E-03     61.7470E-03    -27.3448E-03     53.6078E-03    -26.4212E-03     61.6376E-03
             627     11.3949E-03     75.8797E-03    -7.83503E+06    -53.4619E+06    -887.504E+03    -1.38829E+06    -27.5232E-03     54.0236E-03    -26.5003E-03     67.4487E-03    -27.5631E-03     53.8484E-03    -26.4159E-03     67.3177E-03
             628     12.2718E-03     75.9473E-03    -6.78453E+06    -41.8242E+06    -2.37938E+06    -1.11802E+06    -27.7296E-03     54.1989E-03    -26.4693E-03     75.3835E-03    -27.8224E-03     54.1261E-03    -26.4108E-03     75.2284E-03
             629     13.1477E-03     76.0225E-03    -6.18362E+06    -27.8491E+06    -7.65476E+06    -460.238E+03    -27.8203E-03     54.2355E-03    -26.4152E-03     80.1613E-03    -27.9870E-03     54.3035E-03    -26.4041E-03     79.9835E-03
             630     14.0248E-03     76.0994E-03    -6.27958E+06     3.03341E+06    -10.1645E+06     132.053E+03    -28.1030E-03     54.4520E-03    -26.3489E-03     91.3343E-03    -28.4436E-03     54.8105E-03    -26.3951E-03     91.1388E-03
             631     14.9017E-03     76.1965E-03    -6.86284E+06     57.1437E+06    -19.2740E+06     101.540E+03    -29.7444E-03     55.9576E-03    -26.2132E-03     128.816E-03    -30.7097E-03     57.1573E-03    -26.3825E-03     128.642E-03
             632     15.7783E-03     76.3441E-03    -6.98709E+06     126.019E+06     3.22464E+06    -259.705E+03    -32.6450E-03     58.8638E-03    -26.2188E-03     186.266E-03    -35.9091E-03     62.5410E-03    -26.3753E-03     186.829E-03
             633     16.6510E-03     76.5508E-03    -4.71487E+06     165.844E+06     68.1980E+06    -146.542E+03    -29.5904E-03     56.0574E-03    -26.4670E-03     147.330E-03    -32.9460E-03     59.7873E-03    -26.3597E-03     148.915E-03
             634     876.448E-06     76.4642E-03    -25.6901E+06    -114.963E+06    -25.3800E+06    -333.752E+03    -26.5770E-03     53.1528E-03    -26.5757E-03     5.76319E-03    -26.5021E-03     52.6522E-03    -26.4987E-03     5.75615E-03
             635     1.75295E-03     76.4718E-03    -25.0365E+06    -114.212E+06    -23.5371E+06    -428.476E+03    -26.5916E-03     53.1694E-03    -26.5777E-03     10.6193E-03    -26.5175E-03     52.6691E-03    -26.4935E-03     10.6086E-03
             636     2.62941E-03     76.4844E-03    -24.0685E+06    -111.980E+06    -20.2048E+06    -460.656E+03    -26.6175E-03     53.2037E-03    -26.5862E-03     15.7573E-03    -26.5471E-03     52.7090E-03    -26.4900E-03     15.7433E-03
             637     3.50590E-03     76.5018E-03    -22.7449E+06    -107.548E+06    -17.1714E+06    -831.099E+03    -26.6476E-03     53.2363E-03    -26.5888E-03     20.9671E-03    -26.5822E-03     52.7583E-03    -26.4857E-03     20.9449E-03
             638     4.38239E-03     76.5242E-03    -21.0292E+06    -103.246E+06    -13.9227E+06    -1.11459E+06    -26.6879E-03     53.2779E-03    -26.5901E-03     26.2126E-03    -26.6262E-03     52.8154E-03    -26.4795E-03     26.1827E-03
             639     5.25894E-03     76.5515E-03    -18.9329E+06    -98.9856E+06    -9.45491E+06    -1.19786E+06    -26.7441E-03     53.3397E-03    -26.5956E-03     31.4696E-03    -26.6865E-03     52.8909E-03    -26.4719E-03     31.4335E-03
             640     6.13546E-03     76.5839E-03    -16.8707E+06    -93.5123E+06    -5.43007E+06    -1.57181E+06    -26.8125E-03     53.4091E-03    -26.5966E-03     36.7072E-03    -26.7611E-03     52.9816E-03    -26.4637E-03     36.6599E-03
             641     7.01202E-03     76.6212E-03    -14.9205E+06    -87.9060E+06    -2.18489E+06    -1.95409E+06    -26.8944E-03     53.4878E-03    -26.5934E-03     41.8917E-03    -26.8500E-03     53.0847E-03    -26.4552E-03     41.8315E-03
             642     7.88859E-03     76.6634E-03    -13.0951E+06    -82.1493E+06    -398.773E+03    -2.20067E+06    -26.9850E-03     53.5676E-03    -26.5825E-03     46.9992E-03    -26.9481E-03     53.1937E-03    -26.4464E-03     46.9259E-03
             643     8.76519E-03     76.7104E-03    -11.3449E+06    -76.8401E+06     478.276E+03    -2.20565E+06    -27.0946E-03     53.6625E-03    -26.5679E-03     52.0455E-03    -27.0659E-03     53.3194E-03    -26.4377E-03     51.9599E-03
             644     9.64174E-03     76.7622E-03    -9.75695E+06    -72.2053E+06     94.9143E+03    -2.13994E+06    -27.2183E-03     53.7671E-03    -26.5488E-03     56.9761E-03    -27.1994E-03     53.4570E-03    -26.4295E-03     56.8763E-03
             645     10.5184E-03     76.8184E-03    -8.41831E+06    -65.1764E+06    -1.69861E+06    -1.99009E+06    -27.3659E-03     53.8870E-03    -26.5211E-03     61.8324E-03    -27.3646E-03     53.6294E-03    -26.4229E-03     61.7163E-03
             646     11.3949E-03     76.8796E-03    -7.39683E+06    -53.1818E+06    -1.00770E+06    -1.88216E+06    -27.5080E-03     54.0082E-03    -26.5002E-03     67.5055E-03    -27.5458E-03     53.8339E-03    -26.4174E-03     67.3685E-03
             647     12.2714E-03     76.9463E-03    -6.82908E+06    -42.2300E+06    -2.85469E+06    -1.58384E+06    -27.6694E-03     54.1357E-03    -26.4663E-03     75.3478E-03    -27.7610E-03     54.0614E-03    -26.4094E-03     75.1871E-03
             648     13.1488E-03     77.0226E-03     -6.6622E+06    -29.2659E+06    -8.73190E+06    -890.701E+03    -27.7844E-03     54.1920E-03    -26.4076E-03     80.4872E-03    -27.9498E-03     54.2552E-03    -26.3992E-03     80.3043E-03
             649     14.0246E-03     77.0987E-03    -6.38663E+06     2.55326E+06    -10.8580E+06     43.0511E+03    -28.0634E-03     54.4019E-03    -26.3385E-03     91.5786E-03    -28.4033E-03     54.7597E-03    -26.3873E-03     91.3827E-03
             650     14.9018E-03     77.1954E-03    -6.55095E+06     57.7408E+06    -19.1818E+06     362.387E+03    -29.5047E-03     55.7015E-03    -26.1969E-03     128.684E-03    -30.4653E-03     56.8995E-03    -26.3670E-03     128.520E-03
             651     15.7794E-03     77.3435E-03    -7.01279E+06     126.280E+06     3.11031E+06    -91.4478E+03    -32.3797E-03     58.5657E-03    -26.1859E-03     187.610E-03    -35.6720E-03     62.2723E-03    -26.3433E-03     188.188E-03
             652     16.6576E-03     77.5559E-03    -4.95334E+06     165.796E+06     67.8986E+06    -397.885E+03    -29.9885E-03     56.4206E-03    -26.4321E-03     148.069E-03    -33.3675E-03     60.1737E-03    -26.3258E-03     149.635E-03
             653     876.484E-06     77.4637E-03    -26.4130E+06    -114.040E+06    -25.8157E+06    -620.210E+03    -26.5790E-03     53.1494E-03    -26.5704E-03     5.75812E-03    -26.5084E-03     52.6551E-03    -26.4959E-03     5.74738E-03
             654     1.75293E-03     77.4714E-03    -25.5409E+06    -114.234E+06    -23.3724E+06    -378.498E+03    -26.5978E-03     53.1802E-03    -26.5825E-03     10.6081E-03    -26.5264E-03     52.6804E-03    -26.4967E-03     10.5981E-03
             655     2.62941E-03     77.4839E-03    -24.3671E+06    -111.299E+06    -21.1339E+06    -555.849E+03    -26.6166E-03     53.2016E-03    -26.5850E-03     15.7513E-03    -26.5473E-03     52.7120E-03    -26.4940E-03     15.7361E-03
             656     3.50589E-03     77.5013E-03    -22.7549E+06    -106.538E+06    -18.0558E+06    -1.23910E+06    -26.6433E-03     53.2288E-03    -26.5854E-03     20.9695E-03    -26.5782E-03     52.7570E-03    -26.4882E-03     20.9421E-03
             657     4.38240E-03     77.5237E-03    -21.0360E+06    -102.902E+06    -13.8787E+06    -1.53439E+06    -26.6881E-03     53.2795E-03    -26.5915E-03     26.2125E-03    -26.6270E-03     52.8187E-03    -26.4811E-03     26.1772E-03
             658     5.25891E-03     77.5510E-03    -19.2672E+06    -98.4117E+06    -9.65642E+06    -1.73949E+06    -26.7434E-03     53.3392E-03    -26.5958E-03     31.4711E-03    -26.6880E-03     52.8940E-03    -26.4735E-03     31.4280E-03
             659     6.13546E-03     77.5834E-03    -17.1696E+06    -92.6518E+06    -5.65739E+06    -2.10529E+06    -26.8098E-03     53.4060E-03    -26.5961E-03     36.7127E-03    -26.7608E-03     52.9835E-03    -26.4652E-03     36.6585E-03
             660     7.01201E-03     77.6207E-03    -14.9937E+06    -87.2880E+06    -2.50836E+06    -2.46707E+06    -26.8908E-03     53.4828E-03    -26.5921E-03     41.9028E-03    -26.8472E-03     53.0834E-03    -26.4563E-03     41.8359E-03
             661     7.88858E-03     77.6629E-03    -12.9755E+06    -81.6313E+06    -590.856E+03    -2.65460E+06    -26.9876E-03     53.5692E-03    -26.5816E-03     47.0088E-03    -26.9506E-03     53.1980E-03    -26.4473E-03     46.9297E-03
             662     8.76515E-03     77.7098E-03    -11.2140E+06    -76.6514E+06     281.141E+03    -2.78074E+06    -27.0836E-03     53.6505E-03    -26.5669E-03     52.0374E-03    -27.0543E-03     53.3085E-03    -26.4381E-03     51.9444E-03
             663     9.64184E-03     77.7616E-03    -9.64226E+06    -71.9983E+06    -134.711E+03    -2.74586E+06    -27.2216E-03     53.7687E-03    -26.5471E-03     57.0134E-03    -27.2021E-03     53.4598E-03    -26.4294E-03     56.9059E-03
             664     10.5183E-03     77.8180E-03    -8.36617E+06    -65.2750E+06    -1.96119E+06    -2.69189E+06    -27.3517E-03     53.8710E-03    -26.5193E-03     61.8766E-03    -27.3497E-03     53.6132E-03    -26.4223E-03     61.7515E-03
             665     11.3950E-03     77.8789E-03    -7.27728E+06    -53.1646E+06    -1.04632E+06    -2.34352E+06    -27.4635E-03     53.9604E-03    -26.4969E-03     67.5703E-03    -27.5004E-03     53.7857E-03    -26.4144E-03     67.4279E-03
             666     12.2718E-03     77.9461E-03    -6.71266E+06    -42.8608E+06    -2.93619E+06    -1.81792E+06    -27.6912E-03     54.1541E-03    -26.4629E-03     75.3031E-03    -27.7816E-03     54.0770E-03    -26.4057E-03     75.1390E-03
             667     13.1479E-03     78.0214E-03    -6.14243E+06    -30.4078E+06    -9.03571E+06    -1.25385E+06    -27.6595E-03     54.0599E-03    -26.4005E-03     80.2038E-03    -27.8189E-03     54.1158E-03    -26.3926E-03     80.0175E-03
             668     14.0257E-03     78.0985E-03    -5.88628E+06     2.20039E+06    -10.9880E+06    -703.818E+03    -28.0267E-03     54.3534E-03    -26.3266E-03     91.4720E-03    -28.3632E-03     54.7086E-03    -26.3762E-03     91.2670E-03
             669     14.9019E-03     78.1948E-03    -6.15321E+06     57.3098E+06    -19.9393E+06     92.9772E+03    -29.7149E-03     55.9036E-03    -26.1887E-03     128.198E-03    -30.6719E-03     57.1001E-03    -26.3626E-03     128.026E-03
             670     15.7785E-03     78.3423E-03    -6.15679E+06     126.702E+06     3.06472E+06     642.355E+03    -31.8144E-03     57.9879E-03    -26.1735E-03     186.530E-03    -35.0704E-03     61.6629E-03    -26.3329E-03     187.159E-03
             671     16.6563E-03     78.5532E-03    -4.62397E+06     166.192E+06     68.1798E+06    -97.7416E+03    -29.7806E-03     56.1857E-03    -26.4052E-03     147.177E-03    -33.1235E-03     59.9045E-03    -26.2985E-03     148.772E-03
             672     876.451E-06     78.4633E-03    -26.8392E+06    -112.892E+06    -26.0348E+06    -701.893E+03    -26.5827E-03     53.1578E-03    -26.5751E-03     5.75363E-03    -26.5155E-03     52.6701E-03    -26.5027E-03     5.74183E-03
             673     1.75292E-03     78.4709E-03    -25.7355E+06    -114.200E+06    -24.1159E+06    -671.834E+03    -26.5999E-03     53.1849E-03    -26.5850E-03     10.6119E-03    -26.5285E-03     52.6867E-03    -26.5027E-03     10.5981E-03
             674     2.62938E-03     78.4834E-03    -24.2714E+06    -110.101E+06    -22.1016E+06    -1.11127E+06    -26.6132E-03     53.1953E-03    -26.5821E-03     15.7558E-03    -26.5438E-03     52.7130E-03    -26.4978E-03     15.7334E-03
             675     3.50589E-03     78.5008E-03    -23.0049E+06    -105.533E+06    -18.8266E+06    -1.69142E+06    -26.6395E-03     53.2220E-03    -26.5826E-03     20.9734E-03    -26.5760E-03     52.7568E-03    -26.4903E-03     20.9401E-03
             676     4.38239E-03     78.5232E-03    -21.4378E+06    -102.417E+06    -13.9633E+06    -1.90957E+06    -26.6866E-03     53.2790E-03    -26.5924E-03     26.2160E-03    -26.6281E-03     52.8213E-03    -26.4826E-03     26.1758E-03
             677     5.25891E-03     78.5506E-03    -19.3588E+06    -97.5022E+06    -9.68251E+06    -2.25424E+06    -26.7410E-03     53.3368E-03    -26.5958E-03     31.4756E-03    -26.6873E-03     52.8963E-03    -26.4748E-03     31.4259E-03
             678     6.13544E-03     78.5829E-03    -17.1897E+06    -91.7577E+06    -6.14404E+06    -2.77816E+06    -26.8034E-03     53.3965E-03    -26.5931E-03     36.7204E-03    -26.7551E-03     52.9792E-03    -26.4658E-03     36.6576E-03
             679     7.01201E-03     78.6202E-03    -15.0899E+06    -86.5976E+06    -2.90350E+06    -3.08298E+06    -26.8849E-03     53.4740E-03    -26.5891E-03     41.9107E-03    -26.8422E-03     53.0788E-03    -26.4562E-03     41.8360E-03
             680     7.88859E-03     78.6624E-03    -13.1258E+06    -81.1026E+06    -1.12216E+06    -3.28263E+06    -26.9827E-03     53.5605E-03    -26.5778E-03     47.0273E-03    -26.9464E-03     53.1929E-03    -26.4467E-03     46.9401E-03
             681     8.76518E-03     78.7094E-03    -11.3396E+06    -76.1455E+06    -93.8384E+03    -3.39712E+06    -27.0936E-03     53.6578E-03    -26.5642E-03     52.0318E-03    -27.0651E-03     53.3190E-03    -26.4378E-03     51.9308E-03
             682     9.64174E-03     78.7610E-03    -9.76242E+06    -71.9733E+06    -557.641E+03    -3.40014E+06    -27.2136E-03     53.7587E-03    -26.5451E-03     57.0349E-03    -27.1942E-03     53.4507E-03    -26.4294E-03     56.9189E-03
             683     10.5185E-03     78.8177E-03    -8.60863E+06    -65.0644E+06    -2.37670E+06    -3.21859E+06    -27.3024E-03     53.8174E-03    -26.5149E-03     61.8399E-03    -27.3011E-03     53.5614E-03    -26.4200E-03     61.7082E-03
             684     11.3950E-03     78.8782E-03    -7.90161E+06    -53.8195E+06    -1.92413E+06    -2.85300E+06    -27.4040E-03     53.8921E-03    -26.4881E-03     67.5880E-03    -27.4416E-03     53.7162E-03    -26.4082E-03     67.4394E-03
             685     12.2717E-03     78.9456E-03    -6.83168E+06    -43.2697E+06    -3.55993E+06    -2.41881E+06    -27.7220E-03     54.1754E-03    -26.4534E-03     75.4787E-03    -27.8117E-03     54.0975E-03    -26.3985E-03     75.3067E-03
             686     13.1485E-03     79.0212E-03    -6.39633E+06    -30.3545E+06    -9.47648E+06    -1.81684E+06    -27.8709E-03     54.2709E-03    -26.3999E-03     79.9341E-03    -28.0321E-03     54.3290E-03    -26.3940E-03     79.7384E-03
             687     14.0248E-03     79.0968E-03    -6.21114E+06     910.606E+03    -11.7147E+06    -1.24228E+06    -28.0443E-03     54.3789E-03    -26.3347E-03     91.2179E-03    -28.3788E-03     54.7286E-03    -26.3856E-03     91.0057E-03
             688     14.9019E-03     79.1956E-03    -6.20411E+06     56.1126E+06    -20.3583E+06    -370.589E+03    -29.6553E-03     55.8518E-03    -26.1966E-03     128.083E-03    -30.6103E-03     57.0431E-03    -26.3707E-03     127.906E-03
             689     15.7787E-03     79.3407E-03    -6.09663E+06     126.480E+06     2.41689E+06     678.708E+03    -32.2788E-03     58.4691E-03    -26.1903E-03     185.971E-03    -35.5182E-03     62.1289E-03    -26.3528E-03     186.558E-03
             690     16.6560E-03     79.5523E-03    -4.05032E+06     166.754E+06     67.9977E+06     356.592E+03    -29.5309E-03     55.9591E-03    -26.4282E-03     148.214E-03    -32.8750E-03     59.6836E-03    -26.3241E-03     149.814E-03
             691     876.454E-06     79.4628E-03    -26.0376E+06    -111.851E+06    -25.3955E+06    -260.687E+03    -26.5807E-03     53.1640E-03    -26.5833E-03     5.75976E-03    -26.5120E-03     52.6795E-03    -26.5104E-03     5.75366E-03
             692     1.75291E-03     79.4705E-03    -25.3857E+06    -113.070E+06    -24.1555E+06    -1.21575E+06    -26.5986E-03     53.1826E-03    -26.5840E-03     10.6214E-03    -26.5269E-03     52.6895E-03    -26.5040E-03     10.6005E-03
             693     2.62940E-03     79.4830E-03    -24.4048E+06    -109.100E+06    -21.9971E+06    -1.65385E+06    -26.6124E-03     53.1945E-03    -26.5821E-03     15.7639E-03    -26.5453E-03     52.7173E-03    -26.4985E-03     15.7346E-03
             694     3.50588E-03     79.5004E-03    -23.1841E+06    -104.541E+06    -18.4212E+06    -1.88316E+06    -26.6397E-03     53.2242E-03    -26.5845E-03     20.9769E-03    -26.5791E-03     52.7636E-03    -26.4914E-03     20.9412E-03
             695     4.38238E-03     79.5228E-03      -21.55E+06    -101.532E+06    -14.2441E+06    -2.39509E+06    -26.6828E-03     53.2737E-03    -26.5909E-03     26.2221E-03    -26.6257E-03     52.8210E-03    -26.4837E-03     26.1757E-03
             696     5.25891E-03     79.5501E-03    -19.5523E+06    -96.3842E+06    -10.2835E+06    -2.92573E+06    -26.7346E-03     53.3264E-03    -26.5917E-03     31.4814E-03    -26.6826E-03     52.8926E-03    -26.4751E-03     31.4231E-03
             697     6.13545E-03     79.5824E-03    -17.4753E+06    -90.7462E+06    -6.65282E+06    -3.38511E+06    -26.7983E-03     53.3875E-03    -26.5892E-03     36.7208E-03    -26.7521E-03     52.9764E-03    -26.4655E-03     36.6501E-03
             698     7.01202E-03     79.6197E-03    -15.3890E+06    -85.8141E+06    -3.54012E+06    -3.76943E+06    -26.8795E-03     53.4641E-03    -26.5846E-03     41.9163E-03    -26.8385E-03     53.0741E-03    -26.4555E-03     41.8327E-03
             699     7.88859E-03     79.6619E-03    -13.3654E+06    -80.4752E+06    -1.68933E+06    -3.97188E+06    -26.9766E-03     53.5500E-03    -26.5733E-03     47.0235E-03    -26.9416E-03     53.1867E-03    -26.4457E-03     46.9274E-03
             700     8.76520E-03     79.7088E-03    -11.5697E+06    -75.6051E+06    -649.225E+03    -4.08434E+06    -27.0956E-03     53.6555E-03    -26.5599E-03     52.0523E-03    -27.0682E-03     53.3206E-03    -26.4368E-03     51.9424E-03
             701     9.64178E-03     79.7606E-03    -10.1086E+06    -71.6646E+06    -1.15397E+06    -4.07556E+06    -27.2143E-03     53.7557E-03    -26.5415E-03     57.0321E-03    -27.1962E-03     53.4507E-03    -26.4287E-03     56.9074E-03
             702     10.5183E-03     79.8169E-03    -8.81928E+06    -65.2692E+06    -3.11851E+06    -3.81828E+06    -27.3027E-03     53.8141E-03    -26.5114E-03     61.7444E-03    -27.3011E-03     53.5585E-03    -26.4196E-03     61.6050E-03
             703     11.3952E-03     79.8777E-03    -7.66107E+06    -53.8767E+06    -2.29105E+06    -3.42713E+06    -27.4330E-03     53.9201E-03    -26.4871E-03     67.3917E-03    -27.4690E-03     53.7443E-03    -26.4093E-03     67.2351E-03
             704     12.2720E-03     79.9449E-03    -6.93620E+06    -43.4848E+06    -4.19954E+06    -3.12013E+06    -27.6794E-03     54.1311E-03    -26.4516E-03     75.3044E-03    -27.7678E-03     54.0527E-03    -26.3995E-03     75.1238E-03
             705     13.1483E-03     80.0210E-03    -6.56363E+06    -30.8704E+06    -10.0643E+06    -2.50225E+06    -27.9075E-03     54.3061E-03    -26.3986E-03     80.0982E-03    -28.0683E-03     54.3632E-03    -26.3946E-03     79.8933E-03
             706     14.0244E-03     80.0969E-03    -6.17312E+06    -427.637E+03    -12.6024E+06    -1.63252E+06    -28.1893E-03     54.5271E-03    -26.3378E-03     91.3963E-03    -28.5226E-03     54.8735E-03    -26.3912E-03     91.1771E-03
             707     14.9017E-03     80.1935E-03    -6.29566E+06     54.9777E+06    -21.7874E+06    -688.816E+03    -29.7917E-03     55.9955E-03    -26.2038E-03     128.362E-03    -30.7443E-03     57.1842E-03    -26.3833E-03     128.179E-03
             708     15.7785E-03     80.3418E-03    -5.94735E+06     126.011E+06     429.919E+03    -154.009E+03    -31.9824E-03     58.1715E-03    -26.1892E-03     185.795E-03    -35.2327E-03     61.8469E-03    -26.3611E-03     186.389E-03
             709     16.6543E-03     80.5509E-03    -3.88477E+06      166.83E+06     66.7503E+06     530.468E+03    -29.5054E-03     55.9279E-03    -26.4225E-03     149.544E-03    -32.8889E-03     59.6963E-03    -26.3251E-03     151.165E-03
             710     876.470E-06     80.4624E-03    -26.5380E+06    -110.868E+06    -26.0738E+06    -269.827E+03    -26.5758E-03     53.1474E-03    -26.5716E-03     5.76723E-03    -26.5100E-03     52.6695E-03    -26.5028E-03     5.76102E-03
             711     1.75292E-03     80.4700E-03    -25.7009E+06    -111.213E+06    -23.5065E+06    -1.28134E+06    -26.5965E-03     53.1784E-03    -26.5818E-03     10.6142E-03    -26.5301E-03     52.6941E-03    -26.5008E-03     10.5924E-03
             712     2.62939E-03     80.4825E-03    -24.6961E+06    -108.303E+06    -21.2768E+06    -1.77539E+06    -26.6135E-03     53.1978E-03    -26.5843E-03     15.7576E-03    -26.5500E-03     52.7239E-03    -26.4979E-03     15.7266E-03
             713     3.50588E-03     80.4999E-03    -23.3398E+06    -103.360E+06    -18.3775E+06    -2.18882E+06    -26.6375E-03     53.2210E-03    -26.5835E-03     20.9759E-03    -26.5795E-03     52.7665E-03    -26.4917E-03     20.9362E-03
             714     4.38238E-03     80.5223E-03    -21.6284E+06    -100.167E+06    -14.4628E+06    -2.86053E+06    -26.6796E-03     53.2677E-03    -26.5881E-03     26.2202E-03    -26.6246E-03     52.8223E-03    -26.4838E-03     26.1678E-03
             715     5.25891E-03     80.5496E-03    -19.7444E+06    -95.1642E+06    -10.8440E+06    -3.50925E+06    -26.7292E-03     53.3164E-03    -26.5872E-03     31.4790E-03    -26.6791E-03     52.8899E-03    -26.4748E-03     31.4131E-03
             716     6.13546E-03     80.5819E-03    -17.7066E+06    -89.6108E+06    -7.13381E+06    -4.02863E+06    -26.7960E-03     53.3810E-03    -26.5850E-03     36.7172E-03    -26.7519E-03     52.9767E-03    -26.4651E-03     36.6382E-03
             717     7.01201E-03     80.6192E-03    -15.6340E+06    -84.8293E+06    -3.99847E+06    -4.46614E+06    -26.8777E-03     53.4585E-03    -26.5809E-03     41.9071E-03    -26.8387E-03     53.0745E-03    -26.4552E-03     41.8145E-03
             718     7.88862E-03     80.6614E-03    -13.6280E+06    -79.7500E+06    -2.29483E+06    -4.75848E+06    -26.9760E-03     53.5454E-03    -26.5694E-03     47.0224E-03    -26.9424E-03     53.1870E-03    -26.4455E-03     46.9161E-03
             719     8.76517E-03     80.7084E-03    -11.7702E+06    -75.1339E+06    -1.30714E+06    -4.81102E+06    -27.0906E-03     53.6466E-03    -26.5559E-03     52.0466E-03    -27.0640E-03     53.3152E-03    -26.4365E-03     51.9273E-03
             720     9.64182E-03     80.7600E-03    -10.1718E+06    -71.1204E+06    -1.60598E+06    -4.80918E+06    -27.2161E-03     53.7543E-03    -26.5382E-03     56.9930E-03    -27.1985E-03     53.4527E-03    -26.4284E-03     56.8588E-03
             721     10.5185E-03     80.8165E-03    -9.08042E+06    -65.2979E+06    -3.77265E+06    -4.60343E+06    -27.3542E-03     53.8647E-03    -26.5106E-03     61.7338E-03    -27.3530E-03     53.6105E-03    -26.4216E-03     61.5839E-03
             722     11.3948E-03     80.8771E-03    -7.78326E+06    -54.1672E+06    -2.83938E+06    -4.19678E+06    -27.5093E-03     54.0009E-03    -26.4916E-03     67.4685E-03    -27.5449E-03     53.8248E-03    -26.4159E-03     67.3016E-03
             723     12.2712E-03     80.9445E-03    -6.68806E+06    -43.7942E+06    -4.69524E+06    -3.65424E+06    -27.7007E-03     54.1596E-03    -26.4588E-03     75.3121E-03    -27.7867E-03     54.0799E-03    -26.4091E-03     75.1246E-03
             724     13.1484E-03     81.0200E-03    -6.07013E+06    -31.6855E+06    -10.5451E+06    -3.14495E+06    -27.7225E-03     54.1226E-03    -26.4001E-03     80.0682E-03    -27.8778E-03     54.1745E-03    -26.3981E-03     79.8569E-03
             725     14.0257E-03     81.0968E-03    -6.25390E+06    -1.23073E+06    -13.1741E+06    -2.10283E+06    -28.4075E-03     54.7478E-03    -26.3403E-03     91.2213E-03    -28.7398E-03     55.0917E-03    -26.3953E-03     90.9937E-03
             726     14.9014E-03     81.1932E-03    -6.98771E+06     54.4687E+06    -22.5908E+06    -1.32244E+06    -29.9389E-03     56.1563E-03    -26.2174E-03     127.915E-03    -30.8934E-03     57.3449E-03    -26.3992E-03     127.721E-03
             727     15.7774E-03     81.3417E-03    -7.27615E+06     125.060E+06    -229.804E+03    -603.836E+03    -32.0159E-03     58.2290E-03    -26.2131E-03     184.502E-03    -35.2321E-03     61.8639E-03    -26.3850E-03     185.092E-03
             728     16.6590E-03     81.5470E-03    -5.04100E+06     166.382E+06     66.2007E+06     572.497E+03    -29.5657E-03     56.0185E-03    -26.4528E-03     148.189E-03    -32.9233E-03     59.7570E-03    -26.3558E-03     149.825E-03
             729     876.456E-06     81.4619E-03    -27.3831E+06    -109.731E+06    -26.8815E+06    -633.095E+03    -26.5747E-03     53.1368E-03    -26.5620E-03     5.76563E-03    -26.5137E-03     52.6669E-03    -26.4976E-03     5.75473E-03
             730     1.75294E-03     81.4696E-03    -26.5168E+06    -109.563E+06    -24.1288E+06    -1.16525E+06    -26.5909E-03     53.1678E-03    -26.5769E-03     10.6071E-03    -26.5301E-03     52.6938E-03    -26.5002E-03     10.5868E-03
             731     2.62939E-03     81.4821E-03    -25.1102E+06    -106.978E+06    -21.3054E+06    -1.94649E+06    -26.6123E-03     53.1951E-03    -26.5829E-03     15.7484E-03    -26.5528E-03     52.7285E-03    -26.4979E-03     15.7152E-03
             732     3.50588E-03     81.4994E-03    -23.4562E+06    -101.986E+06    -18.5550E+06    -2.64897E+06    -26.6354E-03     53.2166E-03    -26.5813E-03     20.9701E-03    -26.5797E-03     52.7694E-03    -26.4921E-03     20.9245E-03
             733     4.38238E-03     81.5218E-03    -21.7162E+06    -98.5976E+06    -14.7086E+06    -3.31447E+06    -26.6767E-03     53.2618E-03    -26.5851E-03     26.2094E-03    -26.6240E-03     52.8247E-03    -26.4842E-03     26.1510E-03
             734     5.25891E-03     81.5491E-03    -19.8228E+06    -93.6943E+06    -11.0160E+06    -4.06116E+06    -26.7283E-03     53.3130E-03    -26.5848E-03     31.4664E-03    -26.6805E-03     52.8942E-03    -26.4752E-03     31.3933E-03
             735     6.13545E-03     81.5815E-03    -17.8145E+06    -88.3110E+06    -7.57579E+06    -4.70512E+06    -26.7929E-03     53.3744E-03    -26.5815E-03     36.7119E-03    -26.7506E-03     52.9774E-03    -26.4655E-03     36.6242E-03
             736     7.01203E-03     81.6187E-03    -15.7406E+06    -83.6577E+06    -4.43279E+06    -5.19369E+06    -26.8774E-03     53.4550E-03    -26.5775E-03     41.9010E-03    -26.8400E-03     53.0776E-03    -26.4556E-03     41.7990E-03
             737     7.88858E-03     81.6609E-03    -13.7767E+06    -78.8801E+06    -2.76235E+06    -5.52141E+06    -26.9762E-03     53.5428E-03    -26.5666E-03     47.0228E-03    -26.9440E-03     53.1896E-03    -26.4460E-03     46.9066E-03
             738     8.76520E-03     81.7078E-03    -11.9312E+06    -74.5192E+06    -1.87351E+06    -5.68437E+06    -27.0955E-03     53.6488E-03    -26.5533E-03     52.0563E-03    -27.0697E-03     53.3216E-03    -26.4373E-03     51.9257E-03
             739     9.64174E-03     81.7596E-03    -10.2983E+06    -70.6948E+06    -2.18821E+06    -5.60789E+06    -27.2303E-03     53.7668E-03    -26.5366E-03     56.9856E-03    -27.2130E-03     53.4684E-03    -26.4301E-03     56.8410E-03
             740     10.5183E-03     81.8159E-03    -8.85694E+06    -65.0709E+06    -4.14179E+06    -5.42376E+06    -27.3424E-03     53.8522E-03    -26.5097E-03     61.7536E-03    -27.3399E-03     53.5992E-03    -26.4233E-03     61.5932E-03
             741     11.3951E-03     81.8767E-03    -7.98367E+06    -54.3709E+06    -3.71680E+06    -5.04232E+06    -27.4904E-03     53.9783E-03    -26.4879E-03     67.6189E-03    -27.5254E-03     53.8027E-03    -26.4160E-03     67.4413E-03
             742     12.2719E-03     81.9439E-03    -7.00223E+06    -44.1903E+06    -5.31222E+06    -4.45983E+06    -27.7775E-03     54.2360E-03    -26.4584E-03     75.4490E-03    -27.8638E-03     54.1559E-03    -26.4108E-03     75.2507E-03
             743     13.1480E-03     82.0196E-03    -6.31194E+06    -32.0911E+06    -11.0871E+06    -3.64664E+06    -27.9538E-03     54.3639E-03    -26.4101E-03     79.9313E-03    -28.1104E-03     54.4163E-03    -26.4099E-03     79.7109E-03
             744     14.0243E-03     82.0956E-03    -6.59098E+06    -2.44762E+06    -13.9629E+06    -2.79726E+06    -28.1827E-03     54.5321E-03    -26.3494E-03     91.7835E-03    -28.5119E-03     54.8698E-03    -26.4061E-03     91.5498E-03
             745     14.9002E-03     82.1953E-03    -6.77269E+06     53.0777E+06    -23.2431E+06    -1.70735E+06    -29.8188E-03     56.0329E-03    -26.2141E-03     128.425E-03    -30.7731E-03     57.2190E-03    -26.3975E-03     128.229E-03
             746     15.7793E-03     82.3370E-03    -7.12224E+06     124.904E+06    -237.053E+03     246.563E+03    -32.9658E-03     59.1948E-03    -26.2290E-03     185.765E-03    -36.1938E-03     62.8415E-03    -26.4010E-03     186.298E-03
             747     16.6483E-03     82.5523E-03    -5.29518E+06     166.228E+06     65.9365E+06     405.760E+03    -29.2975E-03     55.7758E-03    -26.4784E-03     148.842E-03    -32.6435E-03     59.5020E-03    -26.3820E-03     150.437E-03
             748     876.465E-06     82.4615E-03    -27.6556E+06     -108.54E+06    -27.2666E+06    -615.603E+03    -26.5737E-03     53.1401E-03    -26.5664E-03     5.75980E-03    -26.5152E-03     52.6772E-03    -26.5052E-03     5.74912E-03
             749     1.75291E-03     82.4691E-03    -27.0083E+06    -107.901E+06    -25.4560E+06    -1.28641E+06    -26.5851E-03     53.1568E-03    -26.5716E-03     10.6078E-03    -26.5272E-03     52.6938E-03    -26.5033E-03     10.5861E-03
             750     2.62940E-03     82.4816E-03    -25.6907E+06    -104.992E+06    -22.3122E+06    -2.40629E+06    -26.6073E-03     53.1843E-03    -26.5771E-03     15.7471E-03    -26.5521E-03     52.7299E-03    -26.4992E-03     15.7079E-03
             751     3.50587E-03     82.4990E-03    -24.0089E+06    -100.503E+06    -18.8660E+06    -3.20817E+06    -26.6339E-03     53.2135E-03    -26.5796E-03     20.9617E-03    -26.5827E-03     52.7749E-03    -26.4934E-03     20.9089E-03
             752     4.38238E-03     82.5213E-03    -22.1299E+06    -96.8889E+06    -15.2287E+06    -3.88598E+06    -26.6740E-03     53.2560E-03    -26.5821E-03     26.2022E-03    -26.6251E-03     52.8288E-03    -26.4856E-03     26.1365E-03
             753     5.25889E-03     82.5487E-03    -20.1233E+06    -91.9468E+06    -11.4477E+06    -4.70316E+06    -26.7259E-03     53.3078E-03    -26.5819E-03     31.4596E-03    -26.6815E-03     52.8988E-03    -26.4767E-03     31.3782E-03
             754     6.13545E-03     82.5810E-03    -18.0188E+06    -86.7948E+06    -7.94272E+06    -5.45263E+06    -26.7891E-03     53.3681E-03    -26.5790E-03     36.7039E-03    -26.7495E-03     52.9795E-03    -26.4668E-03     36.6065E-03
             755     7.01200E-03     82.6182E-03    -15.9221E+06    -82.3954E+06    -4.88972E+06    -5.96588E+06    -26.8719E-03     53.4464E-03    -26.5745E-03     41.9050E-03    -26.8365E-03     53.0762E-03    -26.4564E-03     41.7930E-03
             756     7.88860E-03     82.6604E-03    -13.8925E+06    -77.8014E+06    -3.16614E+06    -6.34340E+06    -26.9742E-03     53.5379E-03    -26.5637E-03     47.0298E-03    -26.9435E-03     53.1909E-03    -26.4466E-03     46.9031E-03
             757     8.76516E-03     82.7073E-03    -12.0640E+06    -73.7410E+06    -2.32068E+06    -6.54963E+06    -27.0859E-03     53.6361E-03    -26.5502E-03     52.0890E-03    -27.0613E-03     53.3136E-03    -26.4373E-03     51.9473E-03
             758     9.64179E-03     82.7591E-03    -10.4272E+06    -70.3049E+06    -2.77619E+06    -6.51880E+06    -27.2197E-03     53.7520E-03    -26.5323E-03     57.0763E-03    -27.2028E-03     53.4566E-03    -26.4291E-03     56.9201E-03
             759     10.5183E-03     82.8154E-03    -9.03759E+06    -64.8103E+06    -4.68533E+06    -6.34784E+06    -27.3556E-03     53.8616E-03    -26.5060E-03     61.7910E-03    -27.3536E-03     53.6110E-03    -26.4223E-03     61.6187E-03
             760     11.3950E-03     82.8760E-03    -7.73459E+06    -54.5008E+06    -4.01867E+06    -5.95957E+06    -27.4908E-03     53.9768E-03    -26.4860E-03     67.5396E-03    -27.5240E-03     53.8006E-03    -26.4158E-03     67.3500E-03
             761     12.2714E-03     82.9436E-03    -6.82605E+06    -44.5327E+06    -5.75411E+06    -5.24967E+06    -27.7082E-03     54.1620E-03    -26.4538E-03     75.4713E-03    -27.7920E-03     54.0802E-03    -26.4081E-03     75.2633E-03
             762     13.1483E-03     83.0192E-03    -6.33444E+06    -32.8447E+06    -11.7679E+06    -4.51411E+06    -27.8961E-03     54.2960E-03    -26.3998E-03     80.7494E-03    -28.0514E-03     54.3463E-03    -26.4019E-03     80.5187E-03
             763     14.0242E-03     83.0961E-03    -5.55085E+06    -3.40338E+06    -14.0851E+06    -3.39426E+06    -27.9700E-03     54.3016E-03    -26.3315E-03     91.9593E-03    -28.2921E-03     54.6327E-03    -26.3890E-03     91.7201E-03
             764     14.9042E-03     83.1915E-03    -6.37465E+06     50.4871E+06    -24.4036E+06    -1.27218E+06    -29.8081E-03     55.9938E-03    -26.1857E-03     129.289E-03    -30.7563E-03     57.1693E-03    -26.3716E-03     129.098E-03
             765     15.7760E-03     83.3430E-03    -5.34780E+06     123.329E+06    -3.49884E+06     243.793E+03    -32.0662E-03     58.2245E-03    -26.1583E-03     187.156E-03    -35.3118E-03     61.8990E-03    -26.3469E-03     187.756E-03
             766     16.6608E-03     83.5482E-03    -3.07774E+06     167.283E+06     64.4640E+06     229.096E+03    -29.4107E-03     55.8017E-03    -26.3909E-03     149.520E-03    -32.7708E-03     59.5578E-03    -26.3067E-03     151.127E-03
             767     876.437E-06     83.4610E-03    -27.5662E+06    -107.224E+06    -27.3597E+06    -690.989E+03    -26.5769E-03     53.1459E-03    -26.5689E-03     5.75644E-03    -26.5198E-03     52.6895E-03    -26.5103E-03     5.74478E-03
             768     1.75293E-03     83.4687E-03    -26.7349E+06    -105.799E+06    -25.5707E+06    -1.66791E+06    -26.5861E-03     53.1581E-03    -26.5720E-03     10.6071E-03    -26.5297E-03     52.7054E-03    -26.5077E-03     10.5804E-03
             769     2.62937E-03     83.4812E-03    -25.5811E+06    -102.675E+06    -22.5994E+06    -2.84434E+06    -26.6043E-03     53.1797E-03    -26.5754E-03     15.7447E-03    -26.5515E-03     52.7372E-03    -26.5024E-03     15.6999E-03
             770     3.50587E-03     83.4986E-03    -24.0634E+06    -98.7700E+06    -19.0994E+06    -3.75507E+06    -26.6326E-03     53.2110E-03    -26.5785E-03     20.9524E-03    -26.5838E-03     52.7816E-03    -26.4959E-03     20.8925E-03
             771     4.38236E-03     83.5209E-03    -22.2328E+06    -94.9757E+06    -15.4067E+06    -4.56103E+06    -26.6723E-03     53.2531E-03    -26.5808E-03     26.1948E-03    -26.6265E-03     52.8359E-03    -26.4879E-03     26.1204E-03
             772     5.25890E-03     83.5482E-03    -20.2339E+06     -90.028E+06    -11.7334E+06    -5.40651E+06    -26.7214E-03     53.3012E-03    -26.5798E-03     31.4554E-03    -26.6800E-03     52.9024E-03    -26.4786E-03     31.3649E-03
             773     6.13543E-03     83.5805E-03    -18.2065E+06    -85.0307E+06    -8.13008E+06    -6.19890E+06    -26.7846E-03     53.3619E-03    -26.5773E-03     36.6976E-03    -26.7483E-03     52.9827E-03    -26.4683E-03     36.5905E-03
             774     7.01201E-03     83.6177E-03    -16.0681E+06    -80.9952E+06    -5.17412E+06    -6.84600E+06    -26.8618E-03     53.4340E-03    -26.5721E-03     41.9050E-03    -26.8289E-03     53.0714E-03    -26.4572E-03     41.7817E-03
             775     7.88858E-03     83.6599E-03    -13.9813E+06    -76.5853E+06    -3.49920E+06    -7.21776E+06    -26.9577E-03     53.5175E-03    -26.5599E-03     47.0504E-03    -26.9287E-03     53.1772E-03    -26.4460E-03     46.9124E-03
             776     8.76520E-03     83.7068E-03    -12.1477E+06    -72.9019E+06    -2.69424E+06    -7.41145E+06    -27.0627E-03     53.6075E-03    -26.5449E-03     52.1045E-03    -27.0391E-03     53.2899E-03    -26.4350E-03     51.9518E-03
             777     9.64182E-03     83.7585E-03    -10.5492E+06    -69.6935E+06    -3.21142E+06    -7.46222E+06    -27.1812E-03     53.7058E-03    -26.5246E-03     57.1065E-03    -27.1651E-03     53.4142E-03    -26.4243E-03     56.9383E-03
             778     10.5185E-03     83.8149E-03    -9.20510E+06    -64.4224E+06    -5.21175E+06    -7.30007E+06    -27.3511E-03     53.8478E-03    -26.4966E-03     61.9303E-03    -27.3498E-03     53.6002E-03    -26.4159E-03     61.7457E-03
             779     11.3948E-03     83.8757E-03    -8.02372E+06    -54.5619E+06    -4.70900E+06    -6.92667E+06    -27.4886E-03     53.9650E-03    -26.4764E-03     67.7529E-03    -27.5222E-03     53.7901E-03    -26.4092E-03     67.5509E-03
             780     12.2717E-03     83.9429E-03    -6.77185E+06    -45.1184E+06    -6.50013E+06    -6.19096E+06    -27.5951E-03     54.0354E-03    -26.4402E-03     75.6381E-03    -27.6768E-03     53.9516E-03    -26.3975E-03     75.4186E-03
             781     13.1486E-03     84.0185E-03    -5.89963E+06    -33.4963E+06    -12.1162E+06    -5.30525E+06    -27.5391E-03     53.9119E-03    -26.3729E-03     80.6097E-03    -27.6884E-03     53.9566E-03    -26.3763E-03     80.3722E-03
             782     14.0266E-03     84.0952E-03    -6.22039E+06    -5.16020E+06    -15.2383E+06    -3.94753E+06    -28.2475E-03     54.5500E-03    -26.3025E-03     91.7561E-03    -28.5721E-03     54.8784E-03    -26.3622E-03     91.5059E-03
             783     14.8993E-03     84.1917E-03    -5.72712E+06     48.1084E+06    -24.7893E+06    -1.55253E+06    -29.4550E-03     55.6152E-03    -26.1601E-03     128.942E-03    -30.3842E-03     56.7667E-03    -26.3455E-03     128.755E-03
             784     15.7821E-03     84.3408E-03    -6.12793E+06     120.965E+06    -3.06781E+06    -779.905E+03    -31.6407E-03     57.7645E-03    -26.1237E-03     185.368E-03    -34.8635E-03     61.4039E-03    -26.3056E-03     185.971E-03
             785     16.6555E-03     84.5446E-03    -4.29783E+06     167.238E+06     65.1644E+06    -429.225E+03    -30.1614E-03     56.5358E-03    -26.3744E-03     147.059E-03    -33.5129E-03     60.2769E-03    -26.2848E-03     148.636E-03
             786     876.468E-06     84.4607E-03    -26.7841E+06    -105.344E+06    -26.6186E+06    -1.08032E+06    -26.5824E-03     53.1574E-03    -26.5750E-03     5.75070E-03    -26.5251E-03     52.7083E-03    -26.5165E-03     5.73400E-03
             787     1.75289E-03     84.4683E-03    -26.1553E+06    -103.429E+06    -25.0886E+06    -2.07037E+06    -26.5895E-03     53.1652E-03    -26.5757E-03     10.6016E-03    -26.5343E-03     52.7228E-03    -26.5133E-03     10.5697E-03
             788     2.62938E-03     84.4807E-03    -25.1779E+06    -100.223E+06    -22.6443E+06    -3.17583E+06    -26.6035E-03     53.1793E-03    -26.5757E-03     15.7408E-03    -26.5522E-03     52.7485E-03    -26.5071E-03     15.6917E-03
             789     3.50584E-03     84.4981E-03    -23.8218E+06    -96.6019E+06    -19.2610E+06    -4.26003E+06    -26.6300E-03     53.2077E-03    -26.5777E-03     20.9480E-03    -26.5829E-03     52.7890E-03    -26.4994E-03     20.8816E-03
             790     4.38236E-03     84.5204E-03    -22.0710E+06    -92.8417E+06    -15.4357E+06    -5.22138E+06    -26.6685E-03     53.2485E-03    -26.5800E-03     26.1898E-03    -26.6249E-03     52.8417E-03    -26.4905E-03     26.1069E-03
             791     5.25887E-03     84.5477E-03    -20.1655E+06    -88.0336E+06    -11.7626E+06    -6.05135E+06    -26.7152E-03     53.2937E-03    -26.5784E-03     31.4506E-03    -26.6763E-03     52.9048E-03    -26.4804E-03     31.3519E-03
             792     6.13544E-03     84.5800E-03    -18.1704E+06    -83.0129E+06    -8.23402E+06    -6.89171E+06    -26.7750E-03     53.3495E-03    -26.5746E-03     36.7002E-03    -26.7412E-03     52.9804E-03    -26.4690E-03     36.5842E-03
             793     7.01199E-03     84.6172E-03    -16.1464E+06    -79.2532E+06    -5.32439E+06    -7.70254E+06    -26.8502E-03     53.4188E-03    -26.5686E-03     41.9045E-03    -26.8199E-03     53.0653E-03    -26.4569E-03     41.7701E-03
             794     7.88862E-03     84.6593E-03    -14.1877E+06    -75.4761E+06    -3.93030E+06    -8.11115E+06    -26.9302E-03     53.4844E-03    -26.5543E-03     47.0536E-03    -26.9032E-03     53.1506E-03    -26.4439E-03     46.9041E-03
             795     8.76523E-03     84.7063E-03    -12.3830E+06    -71.7698E+06    -3.09571E+06    -8.28109E+06    -27.0381E-03     53.5754E-03    -26.5373E-03     52.1173E-03    -27.0168E-03     53.2643E-03    -26.4307E-03     51.9535E-03
             796     9.64188E-03     84.7579E-03    -10.7539E+06    -68.9217E+06    -3.66089E+06    -8.45664E+06    -27.1553E-03     53.6707E-03    -26.5155E-03     57.1058E-03    -27.1406E-03     53.3838E-03    -26.4182E-03     56.9249E-03
             797     10.5185E-03     84.8144E-03    -9.27677E+06    -64.1085E+06    -5.73290E+06    -8.37657E+06    -27.2630E-03     53.7465E-03    -26.4835E-03     61.9923E-03    -27.2615E-03     53.5012E-03    -26.4058E-03     61.7943E-03
             798     11.3954E-03     84.8752E-03    -8.04867E+06    -54.2505E+06    -5.16121E+06    -7.99164E+06    -27.4129E-03     53.8710E-03    -26.4580E-03     67.7099E-03    -27.4462E-03     53.6981E-03    -26.3935E-03     67.4947E-03
             799     12.2719E-03     84.9423E-03    -7.14364E+06    -45.2062E+06    -7.12880E+06    -7.35575E+06    -27.6424E-03     54.0649E-03    -26.4224E-03     75.4121E-03    -27.7249E-03     53.9822E-03    -26.3822E-03     75.1773E-03
             800     13.1487E-03     85.0177E-03    -6.56852E+06    -34.8590E+06    -13.2048E+06    -6.25101E+06    -27.7635E-03     54.1295E-03    -26.3661E-03     80.0384E-03    -27.9131E-03     54.1704E-03    -26.3720E-03     79.7863E-03
             801     14.0248E-03     85.0939E-03    -5.68099E+06    -6.92093E+06    -15.6053E+06    -4.76377E+06    -28.0398E-03     54.3395E-03    -26.2997E-03     91.8515E-03    -28.3566E-03     54.6568E-03    -26.3595E-03     91.5935E-03
             802     14.9041E-03     85.1938E-03    -5.65182E+06     45.6934E+06    -25.5483E+06    -3.21170E+06    -29.4206E-03     55.5735E-03    -26.1529E-03     127.375E-03    -30.3321E-03     56.7013E-03    -26.3387E-03     127.165E-03
             803     15.7785E-03     85.3338E-03    -6.22059E+06     119.827E+06    -2.90981E+06    -743.506E+03    -32.4878E-03     58.6297E-03    -26.1419E-03     186.143E-03    -35.7502E-03     62.3040E-03    -26.3212E-03     186.698E-03
             804     16.6545E-03     85.5546E-03    -4.63023E+06     167.593E+06     65.7135E+06     598.184E+03    -30.2659E-03     56.6731E-03    -26.4073E-03     149.167E-03    -33.6634E-03     60.4587E-03    -26.3150E-03     150.741E-03
             805     876.419E-06     85.4602E-03    -26.5979E+06    -102.822E+06    -26.3106E+06    -1.38620E+06    -26.5818E-03     53.1634E-03    -26.5816E-03     5.75005E-03    -26.5277E-03     52.7262E-03    -26.5255E-03     5.72940E-03
             806     1.75290E-03     85.4679E-03    -25.9077E+06    -100.887E+06    -24.9485E+06    -2.41348E+06    -26.5893E-03     53.1668E-03    -26.5775E-03     10.5999E-03    -26.5368E-03     52.7365E-03    -26.5184E-03     10.5635E-03
             807     2.62935E-03     85.4803E-03    -24.8874E+06    -97.5798E+06    -22.5941E+06    -3.59999E+06    -26.6022E-03     53.1780E-03    -26.5758E-03     15.7384E-03    -26.5534E-03     52.7599E-03    -26.5111E-03     15.6838E-03
             808     3.50585E-03     85.4977E-03    -23.5161E+06    -94.0910E+06    -19.2792E+06    -4.74492E+06    -26.6257E-03     53.2022E-03    -26.5764E-03     20.9473E-03    -26.5807E-03     52.7956E-03    -26.5023E-03     20.8745E-03
             809     4.38234E-03     85.5200E-03    -21.8878E+06    -90.4586E+06    -15.4553E+06    -5.81768E+06    -26.6613E-03     53.2391E-03    -26.5778E-03     26.1889E-03    -26.6202E-03     52.8440E-03    -26.4922E-03     26.0982E-03
             810     5.25888E-03     85.5473E-03    -19.9339E+06    -85.8952E+06    -11.7510E+06    -6.76440E+06    -26.7055E-03     53.2809E-03    -26.5754E-03     31.4499E-03    -26.6685E-03     52.9023E-03    -26.4807E-03     31.3420E-03
             811     6.13542E-03     85.5795E-03    -17.8384E+06    -80.8233E+06    -8.21556E+06    -7.62764E+06    -26.7605E-03     53.3303E-03    -26.5699E-03     36.7045E-03    -26.7282E-03     52.9717E-03    -26.4679E-03     36.5791E-03
             812     7.01203E-03     85.6167E-03    -15.8706E+06    -77.3326E+06    -5.19132E+06    -8.36331E+06    -26.8333E-03     53.3967E-03    -26.5634E-03     41.9084E-03    -26.8046E-03     53.0522E-03    -26.4542E-03     41.7655E-03
             813     7.88861E-03     85.6588E-03    -14.0917E+06    -74.1188E+06    -3.97317E+06    -8.88520E+06    -26.9191E-03     53.4672E-03    -26.5481E-03     47.0379E-03    -26.8936E-03     53.1401E-03    -26.4401E-03     46.8784E-03
             814     8.76531E-03     85.7057E-03    -12.3404E+06    -70.4527E+06    -3.40002E+06    -9.25468E+06    -27.0121E-03     53.5408E-03    -26.5287E-03     52.1185E-03    -26.9920E-03     53.2367E-03    -26.4256E-03     51.9423E-03
             815     9.64193E-03     85.7574E-03    -10.6362E+06    -67.9022E+06    -3.91935E+06    -9.49256E+06    -27.1286E-03     53.6343E-03    -26.5056E-03     57.0914E-03    -27.1145E-03     53.3527E-03    -26.4114E-03     56.8971E-03
             816     10.5187E-03     85.8136E-03    -9.38525E+06    -63.6021E+06    -6.20108E+06    -9.45566E+06    -27.2711E-03     53.7447E-03    -26.4736E-03     61.9191E-03    -27.2702E-03     53.5027E-03    -26.3988E-03     61.7071E-03
             817     11.3952E-03     85.8746E-03    -8.26928E+06    -54.0565E+06    -5.74701E+06    -9.12102E+06    -27.4067E-03     53.8559E-03    -26.4493E-03     67.5041E-03    -27.4401E-03     53.6848E-03    -26.3876E-03     67.2745E-03
             818     12.2721E-03     85.9416E-03    -7.26419E+06    -45.6370E+06    -7.91511E+06    -8.56891E+06    -27.7171E-03     54.1338E-03    -26.4166E-03     75.2751E-03    -27.7984E-03     54.0502E-03    -26.3795E-03     75.0242E-03
             819     13.1485E-03     86.0172E-03    -6.36429E+06    -35.9015E+06    -14.0709E+06    -7.59158E+06    -28.0006E-03     54.3711E-03    -26.3705E-03     80.2485E-03    -28.1478E-03     54.4090E-03    -26.3796E-03     79.9772E-03
             820     14.0251E-03     86.0940E-03    -5.69026E+06    -8.06925E+06    -16.4103E+06    -6.10787E+06    -28.0564E-03     54.3696E-03    -26.3132E-03     91.1964E-03    -28.3670E-03     54.6789E-03    -26.3753E-03     90.9217E-03
             821     14.9014E-03     86.1898E-03    -6.20449E+06     43.2108E+06    -26.6849E+06    -3.98754E+06    -29.7905E-03     55.9689E-03    -26.1784E-03     127.243E-03    -30.7107E-03     57.0980E-03    -26.3655E-03     127.014E-03
             822     15.7781E-03     86.3389E-03    -6.77315E+06     117.040E+06    -5.92203E+06    -1.11987E+06    -32.4586E-03     58.6271E-03    -26.1685E-03     185.645E-03    -35.7033E-03     62.2804E-03    -26.3580E-03     186.212E-03
             823     16.6588E-03     86.5465E-03    -4.88016E+06     167.110E+06     63.3711E+06     852.534E+03    -29.5600E-03     55.9773E-03    -26.4174E-03     148.101E-03    -32.9286E-03     59.7382E-03    -26.3357E-03     149.704E-03
             824     876.457E-06     86.4599E-03    -26.6215E+06    -99.7530E+06    -26.2942E+06    -1.59788E+06    -26.5795E-03     53.1572E-03    -26.5777E-03     5.75244E-03    -26.5300E-03     52.7354E-03    -26.5259E-03     5.72906E-03
             825     1.75288E-03     86.4675E-03    -25.8123E+06    -97.9990E+06    -24.6935E+06    -2.89304E+06    -26.5876E-03     53.1637E-03    -26.5760E-03     10.6012E-03    -26.5392E-03     52.7473E-03    -26.5200E-03     10.5586E-03
             826     2.62936E-03     86.4799E-03    -24.6448E+06    -94.6720E+06    -22.3469E+06    -4.13673E+06    -26.5977E-03     53.1715E-03    -26.5738E-03     15.7384E-03    -26.5522E-03     52.7673E-03    -26.5125E-03     15.6769E-03
             827     3.50583E-03     86.4972E-03    -23.2527E+06    -91.4254E+06    -19.1407E+06    -5.29279E+06    -26.6185E-03     53.1917E-03    -26.5732E-03     20.9489E-03    -26.5762E-03     52.7979E-03    -26.5027E-03     20.8691E-03
             828     4.38235E-03     86.5196E-03    -21.5601E+06    -87.7835E+06    -15.3934E+06    -6.40631E+06    -26.6496E-03     53.2223E-03    -26.5727E-03     26.1925E-03    -26.6109E-03     52.8400E-03    -26.4911E-03     26.0943E-03
             829     5.25887E-03     86.5468E-03    -19.6449E+06    -83.3999E+06    -11.6781E+06    -7.57678E+06    -26.6903E-03     53.2593E-03    -26.5690E-03     31.4561E-03    -26.6556E-03     52.8927E-03    -26.4780E-03     31.3376E-03
             830     6.13546E-03     86.5790E-03    -17.5858E+06    -78.6564E+06    -8.23749E+06    -8.44443E+06    -26.7418E-03     53.3036E-03    -26.5618E-03     36.7138E-03    -26.7114E-03     52.9554E-03    -26.4634E-03     36.5779E-03
             831     7.01204E-03     86.6162E-03    -15.5712E+06    -75.4598E+06    -5.10916E+06    -9.02093E+06    -26.8129E-03     53.3674E-03    -26.5545E-03     41.9165E-03    -26.7855E-03     53.0316E-03    -26.4480E-03     41.7653E-03
             832     7.88872E-03     86.6583E-03    -13.6155E+06    -72.2375E+06    -3.72091E+06    -9.66483E+06    -26.9104E-03     53.4493E-03    -26.5390E-03     47.0645E-03    -26.8856E-03     53.1305E-03    -26.4331E-03     46.8951E-03
             833     8.76527E-03     86.7051E-03    -11.8326E+06    -68.9095E+06    -3.40858E+06    -10.2666E+06    -26.9977E-03     53.5159E-03    -26.5182E-03     52.1193E-03    -26.9773E-03     53.2188E-03    -26.4182E-03     51.9300E-03
             834     9.64207E-03     86.7567E-03    -10.2405E+06    -66.8057E+06    -3.99613E+06    -10.5015E+06    -27.1404E-03     53.6365E-03    -26.4961E-03     57.1254E-03    -27.1258E-03     53.3599E-03    -26.4044E-03     56.9182E-03
             835     10.5186E-03     86.8131E-03    -8.89087E+06    -62.8263E+06    -6.24356E+06    -10.4508E+06    -27.3011E-03     53.7679E-03    -26.4668E-03     61.9581E-03    -27.2989E-03     53.5291E-03    -26.3940E-03     61.7333E-03
             836     11.3953E-03     86.8740E-03    -7.90650E+06    -53.9017E+06    -6.18755E+06    -10.1503E+06    -27.4387E-03     53.8826E-03    -26.4439E-03     67.6286E-03    -27.4698E-03     53.7123E-03    -26.3852E-03     67.3859E-03
             837     12.2719E-03     86.9408E-03    -6.99942E+06    -45.7557E+06    -8.40211E+06    -9.76292E+06    -27.7598E-03     54.1734E-03    -26.4137E-03     75.6047E-03    -27.8392E-03     54.0899E-03    -26.3792E-03     75.3384E-03
             838     13.1484E-03     87.0172E-03    -6.36834E+06    -36.4614E+06    -14.5615E+06    -8.96841E+06    -27.9387E-03     54.3059E-03    -26.3672E-03     80.4891E-03    -28.0840E-03     54.3413E-03    -26.3779E-03     80.2011E-03
             839     14.0251E-03     87.0931E-03    -6.04505E+06    -9.66819E+06    -17.3516E+06    -7.23471E+06    -28.2764E-03     54.5901E-03    -26.3136E-03     91.4842E-03    -28.5872E-03     54.8954E-03    -26.3776E-03     91.1929E-03
             840     14.9014E-03     87.1904E-03    -6.23184E+06     39.6189E+06    -27.6703E+06    -4.19964E+06    -30.0063E-03     56.1964E-03    -26.1901E-03     128.808E-03    -30.9335E-03     57.3224E-03    -26.3768E-03     128.577E-03
             841     15.7787E-03     87.3369E-03    -6.76212E+06     113.769E+06      -8.854E+06    -778.389E+03    -32.8152E-03     58.9951E-03    -26.1800E-03     186.448E-03    -36.0379E-03     62.6233E-03    -26.3794E-03     186.994E-03
             842     16.6502E-03     87.5476E-03    -4.49244E+06     166.818E+06     61.2157E+06     431.853E+03    -29.3430E-03     55.7722E-03    -26.4292E-03     148.373E-03    -32.6920E-03     59.5199E-03    -26.3585E-03     149.972E-03
             843     876.433E-06     87.4595E-03    -26.0203E+06    -96.1882E+06    -25.6346E+06    -1.81174E+06    -26.5762E-03     53.1459E-03    -26.5697E-03     5.75236E-03    -26.5298E-03     52.7400E-03    -26.5206E-03     5.72621E-03
             844     1.75290E-03     87.4671E-03    -25.2591E+06    -94.5844E+06    -24.0572E+06    -3.33437E+06    -26.5808E-03     53.1513E-03    -26.5705E-03     10.6012E-03    -26.5355E-03     52.7503E-03    -26.5170E-03     10.5529E-03
             845     2.62935E-03     87.4795E-03    -24.1964E+06    -91.6030E+06    -21.7764E+06    -4.66197E+06    -26.5892E-03     53.1573E-03    -26.5681E-03     15.7427E-03    -26.5467E-03     52.7669E-03    -26.5091E-03     15.6744E-03
             846     3.50585E-03     87.4968E-03    -22.7498E+06    -88.4165E+06    -18.7034E+06    -5.92728E+06    -26.6058E-03     53.1716E-03    -26.5658E-03     20.9544E-03    -26.5660E-03     52.7914E-03    -26.4981E-03     20.8664E-03
             847     4.38236E-03     87.5191E-03    -21.0220E+06    -84.9951E+06    -15.1593E+06    -7.11338E+06    -26.6316E-03     53.1944E-03    -26.5628E-03     26.2048E-03    -26.5945E-03     52.8249E-03    -26.4849E-03     26.0974E-03
             848     5.25893E-03     87.5463E-03    -19.1995E+06    -80.5126E+06    -11.4203E+06    -8.23666E+06    -26.6683E-03     53.2255E-03    -26.5573E-03     31.4734E-03    -26.6359E-03     52.8723E-03    -26.4698E-03     31.3465E-03
             849     6.13550E-03     87.5785E-03    -17.3377E+06    -76.4296E+06    -8.08034E+06    -9.24078E+06    -26.7178E-03     53.2667E-03    -26.5490E-03     36.7337E-03    -26.6896E-03     52.9291E-03    -26.4534E-03     36.5876E-03
             850     7.01215E-03     87.6157E-03    -15.2461E+06    -73.4741E+06    -5.11058E+06    -9.90547E+06    -26.7893E-03     53.3289E-03    -26.5395E-03     41.9557E-03    -26.7632E-03     53.0026E-03    -26.4364E-03     41.7932E-03
             851     7.88875E-03     87.6576E-03    -13.2209E+06     -70.076E+06    -3.50943E+06    -10.6167E+06    -26.8739E-03     53.3967E-03    -26.5227E-03     47.1237E-03    -26.8505E-03     53.0877E-03    -26.4195E-03     46.9422E-03
             852     8.76550E-03     87.7046E-03    -11.2675E+06    -67.1448E+06    -3.11344E+06    -11.3008E+06    -26.9913E-03     53.4931E-03    -26.5018E-03     52.1927E-03    -26.9710E-03     53.2035E-03    -26.4037E-03     51.9902E-03
             853     9.64208E-03     87.7560E-03    -9.62567E+06    -65.6055E+06    -3.89084E+06    -11.5679E+06    -27.1361E-03     53.6161E-03    -26.4800E-03     57.3153E-03    -27.1202E-03     53.3444E-03    -26.3903E-03     57.0945E-03
             854     10.5187E-03     87.8128E-03    -8.27274E+06    -62.1588E+06    -6.19566E+06    -11.4745E+06    -27.2438E-03     53.6930E-03    -26.4492E-03     62.1587E-03    -27.2392E-03     53.4564E-03    -26.3780E-03     61.9212E-03
             855     11.3956E-03     87.8730E-03    -7.15114E+06    -53.4166E+06    -6.04344E+06    -11.1440E+06    -27.4537E-03     53.8792E-03    -26.4255E-03     67.9689E-03    -27.4823E-03     53.7103E-03    -26.3679E-03     67.7133E-03
             856     12.2721E-03     87.9408E-03    -6.40197E+06    -45.5425E+06    -8.26657E+06    -10.5741E+06    -27.7812E-03     54.1785E-03    -26.3973E-03     75.9544E-03    -27.8583E-03     54.0952E-03    -26.3633E-03     75.6776E-03
             857     13.1488E-03     88.0163E-03    -6.02650E+06    -36.9181E+06    -14.5690E+06    -9.94625E+06    -27.8227E-03     54.1712E-03    -26.3485E-03     80.7589E-03    -27.9652E-03     54.2035E-03    -26.3591E-03     80.4597E-03
             858     14.0253E-03     88.0931E-03    -5.93510E+06    -12.2197E+06    -17.8076E+06    -8.10725E+06    -28.1648E-03     54.4538E-03    -26.2890E-03     91.9126E-03    -28.4709E-03     54.7471E-03    -26.3517E-03     91.6114E-03
             859     14.9027E-03     88.1892E-03    -6.96041E+06     35.4064E+06    -29.0810E+06    -4.42580E+06    -30.0944E-03     56.2576E-03    -26.1631E-03     129.282E-03    -31.0170E-03     57.3654E-03    -26.3498E-03     129.045E-03
             860     15.7777E-03     88.3384E-03    -7.44628E+06     111.147E+06    -11.9146E+06    -1.51093E+06    -32.6457E-03     58.7844E-03    -26.1387E-03     187.375E-03    -35.8894E-03     62.4307E-03    -26.3487E-03     187.932E-03
             861     16.6595E-03     88.5479E-03    -4.35546E+06     166.528E+06     59.1650E+06     -321.61E+03    -29.3480E-03     55.7310E-03    -26.3830E-03     147.765E-03    -32.6993E-03     59.4864E-03    -26.3223E-03     149.350E-03
             862     876.449E-06     88.4591E-03    -24.9057E+06    -92.1600E+06    -24.7315E+06    -2.04177E+06    -26.5641E-03     53.1226E-03    -26.5585E-03     5.75585E-03    -26.5193E-03     52.7339E-03    -26.5124E-03     5.72675E-03
             863     1.75290E-03     88.4667E-03    -24.2625E+06    -90.7981E+06    -23.0707E+06    -3.65174E+06    -26.5671E-03     53.1258E-03    -26.5587E-03     10.6060E-03    -26.5237E-03     52.7408E-03    -26.5072E-03     10.5536E-03
             864     2.62939E-03     88.4791E-03    -23.1540E+06    -88.1772E+06    -20.6711E+06    -5.15558E+06    -26.5738E-03     53.1301E-03    -26.5563E-03     15.7473E-03    -26.5327E-03     52.7537E-03    -26.4982E-03     15.6727E-03
             865     3.50588E-03     88.4963E-03    -21.7575E+06    -85.1208E+06    -17.7995E+06    -6.55347E+06    -26.5848E-03     53.1366E-03    -26.5518E-03     20.9644E-03    -26.5462E-03     52.7702E-03    -26.4858E-03     20.8684E-03
             866     4.38243E-03     88.5186E-03    -20.1071E+06    -81.9500E+06    -14.3837E+06    -7.83277E+06    -26.6061E-03     53.1528E-03    -26.5466E-03     26.2214E-03    -26.5700E-03     52.7961E-03    -26.4706E-03     26.1048E-03
             867     5.25900E-03     88.5458E-03    -18.2081E+06    -77.6318E+06    -10.7898E+06    -8.94992E+06    -26.6368E-03     53.1750E-03    -26.5382E-03     31.5018E-03    -26.6045E-03     52.8338E-03    -26.4532E-03     31.3658E-03
             868     6.13563E-03     88.5780E-03    -16.2584E+06    -73.8668E+06    -7.26205E+06    -9.88758E+06    -26.6849E-03     53.2137E-03    -26.5289E-03     36.7729E-03    -26.6561E-03     52.8861E-03    -26.4345E-03     36.6186E-03
             869     7.01226E-03     88.6150E-03    -14.3802E+06    -71.1972E+06    -4.51948E+06    -10.8035E+06    -26.7472E-03     53.2638E-03    -26.5165E-03     42.0245E-03    -26.7209E-03     52.9467E-03    -26.4151E-03     41.8506E-03
             870     7.88898E-03     88.6571E-03    -12.3183E+06    -67.6653E+06    -2.97223E+06    -11.6742E+06    -26.8250E-03     53.3213E-03    -26.4964E-03     47.2112E-03    -26.8012E-03     53.0223E-03    -26.3953E-03     47.0164E-03
             871     8.76566E-03     88.7038E-03    -10.4286E+06    -65.3344E+06    -2.59265E+06    -12.3531E+06    -26.9433E-03     53.4169E-03    -26.4735E-03     52.3655E-03    -26.9221E-03     53.1342E-03    -26.3766E-03     52.1498E-03
             872     9.64238E-03     88.7556E-03    -8.96557E+06     -64.398E+06    -3.61717E+06    -12.5232E+06    -27.0589E-03     53.5067E-03    -26.4479E-03     57.4889E-03    -27.0417E-03     53.2396E-03    -26.3596E-03     57.2563E-03
             873     10.5193E-03     88.8117E-03    -7.99004E+06    -61.0330E+06    -6.04367E+06    -12.4709E+06    -27.2243E-03     53.6394E-03    -26.4151E-03     62.3628E-03    -27.2201E-03     53.4077E-03    -26.3452E-03     62.1128E-03
             874     11.3959E-03     88.8727E-03    -6.87333E+06    -53.0877E+06    -6.03643E+06    -12.2699E+06    -27.4352E-03     53.8275E-03    -26.3924E-03     68.2049E-03    -27.4629E-03     53.6599E-03    -26.3356E-03     67.9350E-03
             875     12.2725E-03     88.9401E-03    -5.84278E+06    -45.8150E+06    -8.29410E+06    -11.4266E+06    -27.6459E-03     54.0065E-03    -26.3606E-03     76.2358E-03    -27.7194E-03     53.9206E-03    -26.3272E-03     75.9492E-03
             876     13.1491E-03     89.0160E-03    -5.58886E+06    -36.9683E+06    -13.6958E+06    -10.1240E+06    -27.7666E-03     54.0778E-03    -26.3112E-03     81.0168E-03    -27.9074E-03     54.1073E-03    -26.3180E-03     80.7161E-03
             877     14.0264E-03     89.0917E-03    -6.26215E+06    -14.6025E+06    -17.7412E+06    -8.71736E+06    -28.3453E-03     54.6028E-03    -26.2574E-03     92.2430E-03    -28.6516E-03     54.8864E-03    -26.3159E-03     91.9318E-03
             878     14.9019E-03     89.1899E-03    -6.36406E+06     30.7791E+06    -30.0033E+06    -5.38240E+06    -29.9075E-03     56.0376E-03    -26.1301E-03     129.307E-03    -30.8156E-03     57.1194E-03    -26.3155E-03     129.063E-03
             879     15.7803E-03     89.3371E-03    -6.02318E+06     109.097E+06    -13.4365E+06    -1.72659E+06    -31.8890E-03     57.9619E-03    -26.0728E-03     187.471E-03    -35.1151E-03     61.5927E-03    -26.2895E-03     188.072E-03
             880     16.6530E-03     89.5465E-03    -4.48530E+06     166.042E+06     57.1464E+06    -756.471E+03    -29.7101E-03     56.0146E-03    -26.3045E-03     148.374E-03    -33.0640E-03     59.7763E-03    -26.2530E-03     149.966E-03
             881     876.467E-06     89.4587E-03    -23.8441E+06    -87.7464E+06    -23.4989E+06    -2.25373E+06    -26.5415E-03     53.0784E-03    -26.5369E-03     5.75689E-03    -26.4995E-03     52.7085E-03    -26.4926E-03     5.72505E-03
             882     1.75294E-03     89.4663E-03    -23.1313E+06    -86.6817E+06    -21.9083E+06    -3.96170E+06    -26.5431E-03     53.0797E-03    -26.5366E-03     10.6133E-03    -26.5017E-03     52.7121E-03    -26.4870E-03     10.5570E-03
             883     2.62943E-03     89.4786E-03    -22.0183E+06    -84.2951E+06    -19.5729E+06    -5.69023E+06    -26.5451E-03     53.0780E-03    -26.5329E-03     15.7587E-03    -26.5055E-03     52.7178E-03    -26.4766E-03     15.6773E-03
             884     3.50597E-03     89.4959E-03    -20.5694E+06    -81.6714E+06    -16.5669E+06    -7.13881E+06    -26.5530E-03     53.0808E-03    -26.5278E-03     20.9800E-03    -26.5152E-03     52.7280E-03    -26.4623E-03     20.8764E-03
             885     4.38253E-03     89.5181E-03    -18.9202E+06    -78.5208E+06    -13.3224E+06    -8.51765E+06    -26.5673E-03     53.0869E-03    -26.5195E-03     26.2480E-03    -26.5318E-03     52.7441E-03    -26.4449E-03     26.1227E-03
             886     5.25915E-03     89.5453E-03    -17.0732E+06    -74.6543E+06    -10.0412E+06    -9.79457E+06    -26.5896E-03     53.0970E-03    -26.5074E-03     31.5450E-03    -26.5570E-03     52.7679E-03    -26.4246E-03     31.3983E-03
             887     6.13581E-03     89.5773E-03    -15.1240E+06    -71.3656E+06    -6.58961E+06    -10.6115E+06    -26.6276E-03     53.1223E-03    -26.4948E-03     36.8431E-03    -26.5977E-03     52.8046E-03    -26.4023E-03     36.6796E-03
             888     7.01252E-03     89.6145E-03    -13.1019E+06    -68.2419E+06    -3.62956E+06    -11.6313E+06    -26.6813E-03     53.1600E-03    -26.4787E-03     42.1133E-03    -26.6540E-03     52.8545E-03    -26.3789E-03     41.9290E-03
             889     7.88926E-03     89.6563E-03    -11.1803E+06    -65.2439E+06    -2.35215E+06    -12.7251E+06    -26.7602E-03     53.2147E-03    -26.4545E-03     47.3475E-03    -26.7350E-03     52.9251E-03    -26.3554E-03     47.1395E-03
             890     8.76606E-03     89.7032E-03    -9.66301E+06    -63.5156E+06    -1.94906E+06    -13.1032E+06    -26.8603E-03     53.2897E-03    -26.4294E-03     52.5229E-03    -26.8387E-03     53.0140E-03    -26.3330E-03     52.2981E-03
             891     9.64291E-03     89.7546E-03    -8.40846E+06    -62.9933E+06    -3.05456E+06    -13.3589E+06    -27.0105E-03     53.4123E-03    -26.4018E-03     57.6017E-03    -26.9932E-03     53.1504E-03    -26.3135E-03     57.3587E-03
             892     10.5196E-03     89.8111E-03    -7.24112E+06    -59.8171E+06    -5.51166E+06     -13.336E+06    -27.1842E-03     53.5528E-03    -26.3685E-03     62.5916E-03    -27.1788E-03     53.3252E-03    -26.2988E-03     62.3309E-03
             893     11.3963E-03     89.8721E-03    -6.62216E+06    -52.4704E+06    -5.85414E+06    -13.1376E+06    -27.3361E-03     53.6793E-03    -26.3432E-03     68.4963E-03    -27.3634E-03     53.5139E-03    -26.2868E-03     68.2161E-03
             894     12.2732E-03     89.9392E-03    -5.67324E+06    -46.1221E+06    -8.53998E+06    -12.5077E+06    -27.5969E-03     53.9052E-03    -26.3083E-03     76.3519E-03    -27.6683E-03     53.8176E-03    -26.2759E-03     76.0520E-03
             895     13.1505E-03     90.0151E-03    -5.26659E+06    -38.2936E+06    -13.7052E+06    -10.6563E+06    -27.8631E-03     54.1290E-03    -26.2659E-03     81.0429E-03    -28.0003E-03     54.1513E-03    -26.2713E-03     80.7348E-03
             896     14.0262E-03     90.0918E-03    -5.57770E+06    -15.3035E+06    -17.0871E+06    -9.08639E+06    -28.3673E-03     54.5872E-03    -26.2199E-03     92.6216E-03    -28.6712E-03     54.8665E-03    -26.2751E-03     92.3060E-03
             897     14.9034E-03     90.1895E-03    -5.38941E+06     26.2812E+06    -29.7470E+06    -6.97872E+06    -29.9020E-03     56.0005E-03    -26.0985E-03     129.042E-03    -30.7984E-03     57.0574E-03    -26.2775E-03     128.780E-03
             898     15.7797E-03     90.3352E-03    -4.86532E+06     104.730E+06    -15.1190E+06    -2.68905E+06    -31.9107E-03     57.9490E-03    -26.0383E-03     185.552E-03    -35.0805E-03     61.5170E-03    -26.2587E-03     186.123E-03
             899     16.6635E-03     90.5466E-03    -3.83577E+06     166.214E+06     55.7212E+06    -188.517E+03    -29.8149E-03     56.0915E-03    -26.2767E-03     148.095E-03    -33.1417E-03     59.8332E-03    -26.2335E-03     149.690E-03
             900     876.487E-06     90.4583E-03    -21.9900E+06    -83.0022E+06    -21.6838E+06    -2.36995E+06    -26.5050E-03     53.0103E-03    -26.5053E-03     5.76124E-03    -26.4633E-03     52.6588E-03    -26.4615E-03     5.72792E-03
             901     1.75300E-03     90.4658E-03    -21.3130E+06    -82.1826E+06    -20.1007E+06    -4.27830E+06    -26.5047E-03     53.0066E-03    -26.5019E-03     10.6224E-03    -26.4633E-03     52.6561E-03    -26.4523E-03     10.5620E-03
             902     2.62953E-03     90.4782E-03    -20.3109E+06    -80.0721E+06    -17.9065E+06    -6.10616E+06    -26.5027E-03     52.9988E-03    -26.4961E-03     15.7739E-03    -26.4631E-03     52.6548E-03    -26.4401E-03     15.6871E-03
             903     3.50610E-03     90.4954E-03    -19.0277E+06    -77.9548E+06    -15.1910E+06    -7.72218E+06    -26.5038E-03     52.9919E-03    -26.4881E-03     21.0043E-03    -26.4657E-03     52.6536E-03    -26.4235E-03     20.8934E-03
             904     4.38271E-03     90.5176E-03    -17.4296E+06    -74.8036E+06    -12.2367E+06    -9.20480E+06    -26.5073E-03     52.9826E-03    -26.4753E-03     26.2902E-03    -26.4712E-03     52.6546E-03    -26.4027E-03     26.1562E-03
             905     5.25938E-03     90.5446E-03    -15.8271E+06    -71.5255E+06    -9.17638E+06    -10.4304E+06    -26.5200E-03     52.9793E-03    -26.4593E-03     31.6069E-03    -26.4869E-03     52.6628E-03    -26.3785E-03     31.4522E-03
             906     6.13610E-03     90.5767E-03    -14.0479E+06    -68.6025E+06    -6.04923E+06    -11.4915E+06    -26.5438E-03     52.9850E-03    -26.4412E-03     36.9304E-03    -26.5132E-03     52.6786E-03    -26.3516E-03     36.7559E-03
             907     7.01290E-03     90.6136E-03    -12.0308E+06    -65.0769E+06    -3.04754E+06    -12.5992E+06    -26.5917E-03     53.0117E-03    -26.4200E-03     42.2393E-03    -26.5644E-03     52.7195E-03    -26.3234E-03     42.0430E-03
             908     7.88973E-03     90.6556E-03    -10.4325E+06    -62.9944E+06    -1.59792E+06    -13.2821E+06    -26.6710E-03     53.0653E-03    -26.3944E-03     47.4955E-03    -26.6463E-03     52.7847E-03    -26.2959E-03     47.2808E-03
             909     8.76660E-03     90.7022E-03    -9.11458E+06    -61.6253E+06    -1.40764E+06    -13.7244E+06    -26.7830E-03     53.1493E-03    -26.3662E-03     52.6963E-03    -26.7620E-03     52.8812E-03    -26.2707E-03     52.4640E-03
             910     9.64342E-03     90.7539E-03    -7.73880E+06    -60.9882E+06    -2.48074E+06    -14.2080E+06    -26.9538E-03     53.2913E-03    -26.3375E-03     57.9011E-03    -26.9368E-03     53.0375E-03    -26.2502E-03     57.6478E-03
             911     10.5202E-03     90.8103E-03    -6.63537E+06    -59.3241E+06    -5.46345E+06    -14.2217E+06    -27.0812E-03     53.3829E-03    -26.3017E-03     62.8603E-03    -27.0732E-03     53.1566E-03    -26.2334E-03     62.5891E-03
             912     11.3973E-03     90.8711E-03    -5.58901E+06    -51.3539E+06    -5.50069E+06    -13.8411E+06    -27.2664E-03     53.5403E-03    -26.2739E-03     68.7665E-03    -27.2904E-03     53.3781E-03    -26.2188E-03     68.4782E-03
             913     12.2741E-03     90.9386E-03    -5.08233E+06    -46.1843E+06    -8.34424E+06    -13.3375E+06    -27.6981E-03     53.9434E-03    -26.2453E-03     76.6971E-03    -27.7671E-03     53.8546E-03    -26.2127E-03     76.3863E-03
             914     13.1499E-03     91.0145E-03    -4.96151E+06    -40.5070E+06    -14.7392E+06    -11.9771E+06    -27.9952E-03     54.2061E-03    -26.2109E-03     81.5484E-03    -28.1274E-03     54.2196E-03    -26.2187E-03     81.2227E-03
             915     14.0275E-03     91.0912E-03    -4.15667E+06    -15.8174E+06    -15.9531E+06    -9.83831E+06    -28.3051E-03     54.4814E-03    -26.1762E-03     92.7221E-03    -28.6010E-03     54.7526E-03    -26.2270E-03     92.3986E-03
             916     14.9039E-03     91.1888E-03    -4.73551E+06     22.9305E+06    -28.8225E+06    -7.27869E+06    -30.1213E-03     56.1865E-03    -26.0652E-03     129.204E-03    -31.0130E-03     57.2264E-03    -26.2357E-03     128.934E-03
             917     15.7802E-03     91.3356E-03    -6.40864E+06     99.7036E+06    -19.2402E+06    -4.00067E+06    -33.3219E-03     59.3543E-03    -26.0323E-03     185.336E-03    -36.4997E-03     62.9189E-03    -26.2638E-03     185.816E-03
             918     16.6505E-03     91.5418E-03    -4.63394E+06     164.764E+06     52.2853E+06    -813.018E+03    -29.6682E-03     55.9730E-03    -26.3048E-03     147.381E-03    -32.9994E-03     59.7211E-03    -26.2756E-03     148.938E-03
             919     876.543E-06     91.4578E-03    -20.0356E+06    -77.9752E+06    -19.8289E+06    -2.52203E+06    -26.4515E-03     52.9015E-03    -26.4499E-03     5.77150E-03    -26.4100E-03     52.5695E-03    -26.4070E-03     5.73626E-03
             920     1.75309E-03     91.4654E-03    -19.4473E+06    -77.2989E+06    -18.4199E+06    -4.56539E+06    -26.4462E-03     52.8919E-03    -26.4457E-03     10.6375E-03    -26.4051E-03     52.5608E-03    -26.3975E-03     10.5735E-03
             921     2.62967E-03     91.4776E-03    -18.4705E+06    -75.6328E+06    -16.3988E+06    -6.50880E+06    -26.4370E-03     52.8743E-03    -26.4373E-03     15.7991E-03    -26.3969E-03     52.5477E-03    -26.3828E-03     15.7072E-03
             922     3.50630E-03     91.4948E-03    -17.2179E+06    -73.8157E+06    -13.8417E+06    -8.25120E+06    -26.4278E-03     52.8532E-03    -26.4254E-03     21.0453E-03    -26.3885E-03     52.5309E-03    -26.3626E-03     20.9277E-03
             923     4.38299E-03     91.5168E-03    -15.8443E+06    -70.9764E+06    -11.0869E+06    -9.81205E+06    -26.4209E-03     52.8289E-03    -26.4080E-03     26.3509E-03    -26.3841E-03     52.5160E-03    -26.3376E-03     26.2093E-03
             924     5.25973E-03     91.5439E-03    -14.2582E+06    -68.3185E+06    -8.08770E+06    -11.0134E+06    -26.4220E-03     52.8098E-03    -26.3878E-03     31.6894E-03    -26.3873E-03     52.5054E-03    -26.3085E-03     31.5275E-03
             925     6.13656E-03     91.5758E-03    -12.6410E+06    -65.2828E+06    -5.09000E+06    -12.1840E+06    -26.4372E-03     52.8014E-03    -26.3641E-03     37.0439E-03    -26.4058E-03     52.5081E-03    -26.2766E-03     36.8609E-03
             926     7.01344E-03     91.6128E-03    -11.2040E+06    -62.1832E+06    -2.39632E+06    -13.2183E+06    -26.4740E-03     52.8119E-03    -26.3379E-03     42.3992E-03    -26.4476E-03     52.5319E-03    -26.2434E-03     42.1955E-03
             927     7.89039E-03     91.6545E-03    -9.63533E+06    -60.8326E+06    -934.129E+03    -13.8160E+06    -26.5529E-03     52.8617E-03    -26.3088E-03     47.7077E-03    -26.5282E-03     52.5895E-03    -26.2113E-03     47.4869E-03
             928     8.76732E-03     91.7013E-03    -8.00398E+06    -59.2959E+06    -797.802E+03    -14.4480E+06    -26.6732E-03     52.9492E-03    -26.2760E-03     53.0079E-03    -26.6506E-03     52.6900E-03    -26.1824E-03     52.7672E-03
             929     9.64432E-03     91.7529E-03    -6.77535E+06    -59.2111E+06    -1.94408E+06    -14.8975E+06    -26.8117E-03     53.0551E-03    -26.2435E-03     58.3006E-03    -26.7928E-03     52.8076E-03    -26.1575E-03     58.0397E-03
             930     10.5213E-03     91.8094E-03    -5.86428E+06    -58.0081E+06    -4.94527E+06    -15.0513E+06    -27.0065E-03     53.2124E-03    -26.2060E-03     63.2777E-03    -26.9969E-03     52.9905E-03    -26.1381E-03     62.9968E-03
             931     11.3980E-03     91.8699E-03    -4.96378E+06    -50.8528E+06    -5.33076E+06    -14.7696E+06    -27.3094E-03     53.4918E-03    -26.1824E-03     69.3063E-03    -27.3312E-03     53.3309E-03    -26.1281E-03     69.0066E-03
             932     12.2749E-03     91.9380E-03    -4.42831E+06    -46.2341E+06    -7.98366E+06    -13.9515E+06    -27.7098E-03     53.8722E-03    -26.1624E-03     77.2474E-03    -27.7758E-03     53.7815E-03    -26.1289E-03     76.9296E-03
             933     13.1523E-03     92.0138E-03    -4.09768E+06    -41.0305E+06    -14.4254E+06    -12.9923E+06    -28.0108E-03     54.1436E-03    -26.1328E-03     82.2010E-03    -28.1384E-03     54.1528E-03    -26.1395E-03     81.8632E-03
             934     14.0275E-03     92.0911E-03    -3.85646E+06    -18.6457E+06    -15.7956E+06    -10.9877E+06    -28.4666E-03     54.5765E-03    -26.1099E-03     93.2814E-03    -28.7578E-03     54.8337E-03    -26.1563E-03     92.9423E-03
             935     14.9046E-03     92.1877E-03    -4.57050E+06     19.3828E+06    -27.9038E+06    -7.17030E+06    -30.3046E-03     56.3197E-03    -26.0151E-03     130.178E-03    -31.1944E-03     57.3430E-03    -26.1761E-03     129.907E-03
             936     15.7809E-03     92.3366E-03    -5.73386E+06     96.8553E+06    -22.8772E+06    -3.40552E+06    -33.2952E-03     59.2499E-03    -25.9547E-03     188.695E-03    -36.5199E-03     62.8644E-03    -26.2012E-03     189.208E-03
             937     16.6590E-03     92.5482E-03    -4.38000E+06     162.810E+06     47.6748E+06    -1.44618E+06    -30.0121E-03     56.2307E-03    -26.2186E-03     148.958E-03    -33.3742E-03     60.0170E-03    -26.2099E-03     150.514E-03
             938     876.596E-06     92.4572E-03    -17.8443E+06    -72.5881E+06    -17.7173E+06    -2.73021E+06    -26.3716E-03     52.7389E-03    -26.3673E-03     5.78033E-03    -26.3300E-03     52.4276E-03    -26.3247E-03     5.74245E-03
             939     1.75323E-03     92.4647E-03    -17.2500E+06    -72.0475E+06    -16.5627E+06    -4.93445E+06    -26.3584E-03     52.7200E-03    -26.3616E-03     10.6602E-03    -26.3166E-03     52.4092E-03    -26.3149E-03     10.5915E-03
             940     2.62989E-03     92.4770E-03    -16.2500E+06    -70.7950E+06    -14.6493E+06    -7.11020E+06    -26.3396E-03     52.6892E-03    -26.3495E-03     15.8390E-03    -26.2979E-03     52.3809E-03    -26.2966E-03     15.7395E-03
             941     3.50662E-03     92.4940E-03    -14.9238E+06    -69.5139E+06    -12.0049E+06    -8.89267E+06    -26.3215E-03     52.6558E-03    -26.3343E-03     21.1025E-03    -26.2796E-03     52.3490E-03    -26.2719E-03     20.9769E-03
             942     4.38339E-03     92.5160E-03    -13.4412E+06    -66.9917E+06    -9.21203E+06    -10.3889E+06    -26.3029E-03     52.6153E-03    -26.3124E-03     26.4315E-03    -26.2625E-03     52.3161E-03    -26.2418E-03     26.2828E-03
             943     5.26026E-03     92.5429E-03    -11.9591E+06    -64.9941E+06    -6.34318E+06    -11.6412E+06    -26.2922E-03     52.5793E-03    -26.2871E-03     31.7995E-03    -26.2532E-03     52.2855E-03    -26.2072E-03     31.6300E-03
             944     6.13719E-03     92.5748E-03    -10.5450E+06    -62.0349E+06    -3.55786E+06    -12.5568E+06    -26.2956E-03     52.5526E-03    -26.2570E-03     37.2048E-03    -26.2605E-03     52.2701E-03    -26.1695E-03     37.0177E-03
             945     7.01422E-03     92.6116E-03    -9.17275E+06    -59.2412E+06    -1.03614E+06    -13.4867E+06    -26.3232E-03     52.5478E-03    -26.2245E-03     42.6166E-03    -26.2927E-03     52.2773E-03    -26.1305E-03     42.4102E-03
             946     7.89129E-03     92.6534E-03    -7.77850E+06    -58.2734E+06     328.094E+03    -14.4529E+06    -26.3914E-03     52.5813E-03    -26.1899E-03     48.0149E-03    -26.3627E-03     52.3171E-03    -26.0925E-03     47.7869E-03
             947     8.76843E-03     92.7000E-03    -6.49375E+06    -56.9345E+06     391.961E+03    -15.1023E+06    -26.5065E-03     52.6583E-03    -26.1518E-03     53.3965E-03    -26.4811E-03     52.4066E-03    -26.0579E-03     53.1487E-03
             948     9.64553E-03     92.7517E-03    -5.40855E+06    -57.4523E+06    -608.590E+03    -15.4614E+06    -26.6566E-03     52.7731E-03    -26.1165E-03     58.6859E-03    -26.6349E-03     52.5300E-03    -26.0284E-03     58.4191E-03
             949     10.5227E-03     92.8080E-03    -4.65045E+06    -56.3836E+06    -3.71302E+06    -15.6453E+06    -26.9100E-03     52.9877E-03    -26.0777E-03     63.8603E-03    -26.8981E-03     52.7699E-03    -26.0077E-03     63.5732E-03
             950     11.3997E-03     92.8693E-03    -4.22184E+06    -50.0910E+06    -4.40522E+06    -15.4457E+06    -27.2945E-03     53.3527E-03    -26.0582E-03     70.0692E-03    -27.3148E-03     53.1930E-03    -26.0015E-03     69.7619E-03
             951     12.2764E-03     92.9369E-03    -3.81478E+06    -45.9784E+06    -7.17389E+06    -14.7545E+06    -27.7800E-03     53.8274E-03    -26.0474E-03     78.0105E-03    -27.8446E-03     53.7360E-03    -26.0111E-03     77.6829E-03
             952     13.1524E-03     93.0132E-03    -3.36978E+06    -41.6332E+06    -13.6659E+06    -13.3961E+06    -28.0697E-03     54.0986E-03    -26.0289E-03     82.7266E-03    -28.1940E-03     54.1027E-03    -26.0320E-03     82.3841E-03
             953     14.0303E-03     93.0904E-03    -3.83980E+06    -20.7402E+06    -15.5092E+06    -11.6887E+06    -28.6147E-03     54.6331E-03    -26.0185E-03     93.7152E-03    -28.9042E-03     54.8804E-03    -26.0604E-03     93.3661E-03
             954     14.9059E-03     93.1879E-03    -4.05862E+06     14.5338E+06    -27.2228E+06    -8.26339E+06    -30.2561E-03     56.1921E-03    -25.9361E-03     130.622E-03    -31.1399E-03     57.1921E-03    -26.0874E-03     130.339E-03
             955     15.7823E-03     93.3361E-03    -3.94120E+06     93.0133E+06    -23.8316E+06    -3.45803E+06    -32.3331E-03     58.1738E-03    -25.8407E-03     188.464E-03    -35.5135E-03     61.7395E-03    -26.0890E-03     189.037E-03
             956     16.6606E-03     93.5451E-03    -3.91816E+06     161.810E+06     45.4380E+06    -1.11325E+06    -30.4150E-03     56.5023E-03    -26.0873E-03     147.283E-03    -33.7241E-03     60.2401E-03    -26.0891E-03     148.848E-03
             957     876.718E-06     93.4564E-03    -14.8267E+06    -66.6933E+06    -14.7585E+06    -2.99058E+06    -26.2513E-03     52.5057E-03    -26.2544E-03     5.79995E-03    -26.2074E-03     52.2153E-03    -26.2100E-03     5.75879E-03
             958     1.75342E-03     93.4639E-03    -14.2316E+06    -66.3199E+06    -13.7761E+06    -5.45922E+06    -26.2325E-03     52.4747E-03    -26.2422E-03     10.6929E-03    -26.1879E-03     52.1841E-03    -26.1942E-03     10.6176E-03
             959     2.63022E-03     93.4760E-03    -13.3619E+06    -65.5560E+06    -12.1049E+06    -7.73931E+06    -26.2056E-03     52.4312E-03    -26.2256E-03     15.8922E-03    -26.1607E-03     52.1413E-03    -26.1717E-03     15.7849E-03
             960     3.50704E-03     93.4931E-03    -12.2000E+06    -64.9487E+06    -9.83127E+06    -9.67883E+06    -26.1745E-03     52.3794E-03    -26.2049E-03     21.1825E-03    -26.1288E-03     52.0883E-03    -26.1422E-03     21.0471E-03
             961     4.38398E-03     93.5149E-03    -10.7780E+06    -63.0121E+06    -7.34271E+06    -11.1474E+06    -26.1404E-03     52.3168E-03    -26.1764E-03     26.5478E-03    -26.0951E-03     52.0309E-03    -26.1061E-03     26.3898E-03
             962     5.26098E-03     93.5418E-03    -9.34143E+06    -61.5881E+06    -4.45543E+06    -12.1858E+06    -26.1162E-03     52.2616E-03    -26.1453E-03     31.9599E-03    -26.0717E-03     51.9782E-03    -26.0648E-03     31.7840E-03
             963     6.13809E-03     93.5734E-03    -7.82993E+06    -58.9618E+06    -1.86028E+06    -13.1011E+06    -26.1040E-03     52.2115E-03    -26.1074E-03     37.4294E-03    -26.0620E-03     51.9377E-03    -26.0199E-03     37.2361E-03
             964     7.01529E-03     93.6102E-03    -6.26901E+06    -56.2341E+06     768.545E+03    -13.9154E+06    -26.1232E-03     52.1912E-03    -26.0680E-03     42.9190E-03    -26.0848E-03     51.9287E-03    -25.9735E-03     42.7082E-03
             965     7.89257E-03     93.6518E-03    -5.13562E+06    -55.5765E+06     2.50380E+06    -14.5863E+06    -26.1905E-03     52.2200E-03    -26.0295E-03     48.3902E-03    -26.1552E-03     51.9620E-03    -25.9290E-03     48.1618E-03
             966     8.76987E-03     93.6986E-03    -4.39606E+06    -54.4610E+06     2.36391E+06    -15.2701E+06    -26.3024E-03     52.2884E-03    -25.9860E-03     53.8567E-03    -26.2725E-03     52.0427E-03    -25.8889E-03     53.6083E-03
             967     9.64721E-03     93.7501E-03    -3.64401E+06    -55.3134E+06     1.17057E+06    -15.9179E+06    -26.5187E-03     52.4675E-03    -25.9488E-03     59.2475E-03    -26.4934E-03     52.2295E-03    -25.8574E-03     58.9764E-03
             968     10.5244E-03     93.8066E-03    -2.98092E+06    -54.9353E+06    -2.11578E+06    -16.0680E+06    -26.8342E-03     52.7478E-03    -25.9136E-03     64.5143E-03    -26.8180E-03     52.5320E-03    -25.8402E-03     64.2232E-03
             969     11.4015E-03     93.8679E-03    -2.60014E+06    -48.9595E+06    -2.76087E+06    -15.8366E+06    -27.1827E-03     53.0813E-03    -25.8986E-03     70.7260E-03    -27.1982E-03     52.9218E-03    -25.8376E-03     70.4155E-03
             970     12.2784E-03     93.9362E-03    -2.46366E+06    -45.8009E+06    -5.90071E+06    -15.2236E+06    -27.7746E-03     53.6672E-03    -25.8925E-03     78.9734E-03    -27.8344E-03     53.5727E-03    -25.8521E-03     78.6412E-03
             971     13.1554E-03     94.0127E-03    -3.09993E+06    -42.9761E+06    -13.2956E+06    -13.6374E+06    -28.3324E-03     54.2217E-03    -25.8894E-03     83.6397E-03    -28.4548E-03     54.2191E-03    -25.8890E-03     83.2933E-03
             972     14.0304E-03     94.0897E-03    -3.22138E+06    -21.2496E+06    -13.8953E+06    -11.7248E+06    -28.9177E-03     54.8252E-03    -25.9075E-03     94.5127E-03    -29.2080E-03     55.0690E-03    -25.9415E-03     94.1617E-03
             973     14.9072E-03     94.1881E-03    -3.62915E+06     10.5927E+06    -25.7687E+06    -9.57904E+06    -30.6426E-03     56.4995E-03    -25.8570E-03     130.132E-03    -31.5214E-03     57.4778E-03    -25.9959E-03     129.829E-03
             974     15.7849E-03     94.3340E-03    -4.05126E+06     86.1879E+06    -28.0115E+06    -4.85358E+06    -32.8649E-03     58.6397E-03    -25.7748E-03     186.351E-03    -36.0025E-03     62.1502E-03    -26.0340E-03     186.868E-03
             975     16.6603E-03     94.5463E-03    -3.16433E+06     159.807E+06     41.8320E+06     -544.26E+03    -30.3197E-03     56.3560E-03    -26.0363E-03     148.074E-03    -33.6168E-03     60.0879E-03    -26.0543E-03     149.640E-03
             976     876.823E-06     94.4554E-03    -11.1634E+06    -60.2213E+06    -11.2030E+06    -3.27219E+06    -26.0840E-03     52.1730E-03    -26.0890E-03     5.82292E-03    -26.0364E-03     51.9045E-03    -26.0415E-03     5.77822E-03
             977     1.75374E-03     94.4628E-03    -10.8196E+06    -60.1109E+06    -10.4962E+06    -5.89608E+06    -26.0588E-03     52.1321E-03    -26.0733E-03     10.7388E-03    -26.0109E-03     51.8629E-03    -26.0229E-03     10.6580E-03
             978     2.63064E-03     94.4749E-03    -10.1668E+06    -60.0109E+06    -9.33828E+06    -8.30263E+06    -26.0196E-03     52.0711E-03    -26.0515E-03     15.9656E-03    -25.9707E-03     51.8002E-03    -25.9964E-03     15.8513E-03
             979     3.50768E-03     94.4918E-03    -9.23283E+06    -59.9050E+06    -7.58647E+06    -10.4000E+06    -25.9714E-03     51.9947E-03    -26.0233E-03     21.2955E-03    -25.9213E-03     51.7211E-03    -25.9610E-03     21.1512E-03
             980     4.38476E-03     94.5136E-03    -8.10029E+06    -59.0485E+06    -5.55844E+06    -11.9365E+06    -25.9202E-03     51.9074E-03    -25.9872E-03     26.7080E-03    -25.8698E-03     51.6347E-03    -25.9176E-03     26.5405E-03
             981     5.26201E-03     94.5401E-03    -6.70344E+06    -58.1289E+06    -2.97925E+06    -12.9619E+06    -25.8776E-03     51.8248E-03    -25.9472E-03     32.1848E-03    -25.8269E-03     51.5526E-03    -25.8681E-03     31.9997E-03
             982     6.13932E-03     94.5718E-03    -5.22967E+06    -55.7783E+06    -315.607E+03    -13.8324E+06    -25.8521E-03     51.7537E-03    -25.9017E-03     37.7265E-03    -25.8037E-03     51.4897E-03    -25.8148E-03     37.5249E-03
             983     7.01677E-03     94.6083E-03    -4.04478E+06    -53.7042E+06     2.20740E+06    -14.2953E+06    -25.8617E-03     51.7169E-03    -25.8552E-03     43.3099E-03    -25.8176E-03     51.4614E-03    -25.7604E-03     43.0956E-03
             984     7.89427E-03     94.6501E-03    -2.97138E+06    -53.0286E+06     4.11268E+06    -14.6414E+06    -25.9339E-03     51.7447E-03    -25.8108E-03     48.8923E-03    -25.8933E-03     51.4934E-03    -25.7090E-03     48.6649E-03
             985     8.77182E-03     94.6965E-03    -2.01639E+06    -51.8767E+06     4.28411E+06    -15.2441E+06    -26.0763E-03     51.8406E-03    -25.7643E-03     54.4566E-03    -26.0404E-03     51.6010E-03    -25.6648E-03     54.2104E-03
             986     9.64936E-03     94.7483E-03    -1.49667E+06    -52.9485E+06     3.10128E+06    -15.8636E+06    -26.3543E-03     52.0823E-03    -25.7280E-03     60.0524E-03    -26.3238E-03     51.8496E-03    -25.6335E-03     59.7839E-03
             987     10.5267E-03     94.8049E-03    -1.32176E+06    -53.4312E+06    -436.113E+03    -16.2496E+06    -26.7367E-03     52.4352E-03    -25.6985E-03     65.4862E-03    -26.7162E-03     52.2216E-03    -25.6213E-03     65.1947E-03
             988     11.4037E-03     94.8665E-03    -1.12476E+06    -48.1056E+06    -1.29795E+06    -15.9930E+06    -27.1545E-03     52.8471E-03    -25.6927E-03     71.7261E-03    -27.1655E-03     52.6872E-03    -25.6278E-03     71.4153E-03
             989     12.2809E-03     94.9347E-03    -1.14309E+06    -45.7512E+06    -4.36152E+06    -15.2944E+06    -27.7525E-03     53.4510E-03    -25.6985E-03     80.0148E-03    -27.8074E-03     53.3521E-03    -25.6523E-03     79.6836E-03
             990     13.1571E-03     95.0125E-03    -1.23205E+06    -43.9434E+06    -11.7646E+06    -13.8118E+06    -28.4701E-03     54.1794E-03    -25.7094E-03     84.8845E-03    -28.5841E-03     54.1672E-03    -25.7027E-03     84.5369E-03
             991     14.0339E-03     95.0898E-03    -2.15767E+06    -22.4390E+06    -12.5281E+06    -11.7208E+06    -29.4215E-03     55.1774E-03    -25.7559E-03     95.6012E-03    -29.7099E-03     55.4148E-03    -25.7829E-03     95.2473E-03
             992     14.9093E-03     95.1880E-03    -3.32668E+06     8.19172E+06    -23.2565E+06    -9.55409E+06    -31.7505E-03     57.5166E-03    -25.7662E-03     131.326E-03    -32.6415E-03     58.4924E-03    -25.8895E-03     131.006E-03
             993     15.7817E-03     95.3356E-03    -4.93882E+06     79.7012E+06    -32.6326E+06    -5.83900E+06    -33.8969E-03     59.6180E-03    -25.7210E-03     185.965E-03    -37.0383E-03     63.1193E-03    -25.9926E-03     186.445E-03
             994     16.6604E-03     95.5420E-03    -3.59345E+06     155.975E+06     36.2087E+06    -1.09751E+06    -29.8672E-03     55.8626E-03    -25.9954E-03     148.541E-03    -33.1783E-03     59.6096E-03    -26.0353E-03     150.125E-03
             995     877.081E-06     95.4540E-03    -7.85340E+06    -53.2545E+06    -7.90810E+06    -3.50342E+06    -25.8523E-03     51.7069E-03    -25.8546E-03     5.85446E-03    -25.8030E-03     51.4637E-03    -25.8055E-03     5.80691E-03
             996     1.75411E-03     95.4614E-03    -7.48510E+06    -53.4714E+06    -7.40006E+06    -6.29598E+06    -25.8177E-03     51.6555E-03    -25.8378E-03     10.8009E-03    -25.7673E-03     51.4101E-03    -25.7864E-03     10.7153E-03
             997     2.63130E-03     95.4733E-03    -6.85145E+06    -54.0760E+06    -6.46797E+06    -8.89251E+06    -25.7643E-03     51.5754E-03    -25.8110E-03     16.0654E-03    -25.7116E-03     51.3251E-03    -25.7550E-03     15.9439E-03
             998     3.50850E-03     95.4901E-03    -6.04306E+06    -54.5749E+06    -5.16393E+06    -11.0626E+06    -25.6988E-03     51.4736E-03    -25.7748E-03     21.4429E-03    -25.6439E-03     51.2185E-03    -25.7127E-03     21.2907E-03
             999     4.38590E-03     95.5116E-03    -5.09399E+06    -54.8554E+06    -3.55553E+06    -12.6581E+06    -25.6289E-03     51.3592E-03    -25.7304E-03     26.9143E-03    -25.5722E-03     51.1001E-03    -25.6612E-03     26.7383E-03
            1000     5.26335E-03     95.5382E-03    -3.96829E+06    -54.3848E+06    -1.53715E+06    -13.8745E+06    -25.5657E-03     51.2452E-03    -25.6796E-03     32.4721E-03    -25.5086E-03     50.9855E-03    -25.6027E-03     32.2765E-03
            1001     6.14101E-03     95.5695E-03    -2.87679E+06    -53.0579E+06     842.910E+03    -14.3801E+06    -25.5261E-03     51.1514E-03    -25.6253E-03     38.1083E-03    -25.4712E-03     50.8955E-03    -25.5400E-03     37.9011E-03
            1002     7.01871E-03     95.6061E-03    -1.91230E+06    -51.3649E+06     3.30166E+06    -14.5028E+06    -25.5299E-03     51.1007E-03    -25.5708E-03     43.8092E-03    -25.4797E-03     50.8517E-03    -25.4770E-03     43.5941E-03
            1003     7.89656E-03     95.6475E-03    -967.320E+03    -50.6157E+06     5.19445E+06    -14.8724E+06    -25.6055E-03     51.1246E-03    -25.5192E-03     49.5412E-03    -25.5593E-03     50.8803E-03    -25.4184E-03     49.3129E-03
            1004     8.77438E-03     95.6942E-03    -346.405E+03    -49.6555E+06     5.60852E+06    -15.0832E+06    -25.8030E-03     51.2742E-03    -25.4712E-03     55.2925E-03    -25.7632E-03     51.0406E-03    -25.3706E-03     55.0507E-03
            1005     9.65209E-03     95.7458E-03    -24.3280E+03    -50.4736E+06     4.82299E+06    -15.6503E+06    -26.1153E-03     51.5528E-03    -25.4375E-03     61.1083E-03    -26.0827E-03     51.3270E-03    -25.3402E-03     60.8452E-03
            1006     10.5297E-03     95.8030E-03     91.8841E+03    -51.8658E+06     1.33512E+06    -16.0444E+06    -26.5390E-03     51.9517E-03    -25.4127E-03     66.7214E-03    -26.5153E-03     51.7403E-03    -25.3309E-03     66.4354E-03
            1007     11.4071E-03     95.8646E-03    -228.179E+03    -47.2588E+06     116.249E+03    -15.8364E+06    -27.1437E-03     52.5610E-03    -25.4172E-03     73.1880E-03    -27.1533E-03     52.4016E-03    -25.3478E-03     72.8812E-03
            1008     12.2837E-03     95.9338E-03    -285.643E+03    -45.4028E+06    -2.39470E+06    -15.1446E+06    -27.8981E-03     53.3453E-03    -25.4471E-03     81.5518E-03    -27.9522E-03     53.2441E-03    -25.3929E-03     81.2237E-03
            1009     13.1608E-03     96.0111E-03    -833.626E+03    -44.9633E+06    -10.3891E+06    -13.8366E+06    -28.6969E-03     54.1797E-03    -25.4828E-03     86.5627E-03    -28.8103E-03     54.1606E-03    -25.4683E-03     86.2156E-03
            1010     14.0360E-03     96.0906E-03    -1.53266E+06    -23.6998E+06    -10.7195E+06    -11.9253E+06    -29.8978E-03     55.4611E-03    -25.5633E-03     97.1235E-03    -30.1873E-03     55.6921E-03    -25.5803E-03     96.7641E-03
            1011     14.9108E-03     96.1890E-03    -2.38749E+06     5.19988E+06    -18.8648E+06    -8.86970E+06    -31.9362E-03     57.5498E-03    -25.6136E-03     133.442E-03    -32.8313E-03     58.5096E-03    -25.7120E-03     133.133E-03
            1012     15.7875E-03     96.3387E-03    -4.03751E+06     75.5479E+06    -31.5965E+06    -4.81619E+06    -34.5199E-03     60.0944E-03    -25.5746E-03     188.684E-03    -37.6899E-03     63.6099E-03    -25.8362E-03     189.160E-03
            1013     16.6598E-03     96.5417E-03    -3.86476E+06     153.520E+06     33.9010E+06    -1.52885E+06    -30.8663E-03     56.7394E-03    -25.8732E-03     149.293E-03    -34.2024E-03     60.5085E-03    -25.9207E-03     150.848E-03
            1014     877.282E-06     96.4522E-03    -4.53260E+06     -45.775E+06    -4.77207E+06    -3.79290E+06    -25.5357E-03     51.0755E-03    -25.5398E-03     5.90048E-03    -25.4851E-03     50.8602E-03    -25.4907E-03     5.84938E-03
            1015     1.75471E-03     96.4594E-03    -4.29059E+06    -46.3809E+06    -4.46695E+06    -6.77135E+06    -25.4898E-03     51.0083E-03    -25.5185E-03     10.8806E-03    -25.4379E-03     50.7895E-03    -25.4674E-03     10.7892E-03
            1016     2.63210E-03     96.4713E-03    -3.82077E+06    -47.7442E+06    -3.89391E+06    -9.51818E+06    -25.4228E-03     50.9082E-03    -25.4854E-03     16.1942E-03    -25.3678E-03     50.6814E-03    -25.4301E-03     16.0651E-03
            1017     3.50969E-03     96.4878E-03    -3.19588E+06    -49.0576E+06    -3.12932E+06    -11.7471E+06    -25.3388E-03     50.7793E-03    -25.4405E-03     21.6308E-03    -25.2806E-03     50.5447E-03    -25.3804E-03     21.4705E-03
            1018     4.38733E-03     96.5092E-03    -2.44789E+06    -50.3807E+06    -1.99443E+06    -13.3986E+06    -25.2483E-03     50.6350E-03    -25.3868E-03     27.1764E-03    -25.1870E-03     50.3920E-03    -25.3201E-03     26.9919E-03
            1019     5.26521E-03     96.5355E-03    -1.72256E+06    -50.4872E+06    -543.019E+03    -14.5239E+06    -25.1644E-03     50.4892E-03    -25.3249E-03     32.8320E-03    -25.1029E-03     50.2440E-03    -25.2519E-03     32.6293E-03
            1020     6.14316E-03     96.5668E-03    -949.988E+03    -50.8214E+06     1.36373E+06    -14.8771E+06    -25.1108E-03     50.3720E-03    -25.2613E-03     38.5862E-03    -25.0499E-03     50.1234E-03    -25.1794E-03     38.3744E-03
            1021     7.02131E-03     96.6030E-03    -36.8277E+03    -48.9816E+06     3.75036E+06    -14.8536E+06    -25.1104E-03     50.3076E-03    -25.1971E-03     44.4423E-03    -25.0543E-03     50.0665E-03    -25.1073E-03     44.2248E-03
            1022     7.89947E-03     96.6445E-03     616.781E+03    -48.5911E+06     6.01810E+06    -14.8189E+06    -25.2053E-03     50.3468E-03    -25.1415E-03     50.3426E-03    -25.1546E-03     50.1083E-03    -25.0418E-03     50.1177E-03
            1023     8.77771E-03     96.6910E-03     975.134E+03    -47.9151E+06     6.63577E+06    -14.7019E+06    -25.4321E-03     50.5238E-03    -25.0917E-03     56.3514E-03    -25.3888E-03     50.2945E-03    -24.9904E-03     56.1175E-03
            1024     9.65577E-03     96.7432E-03     880.465E+03    -47.8351E+06     6.31249E+06    -15.0544E+06    -25.7954E-03     50.8550E-03    -25.0596E-03     62.3508E-03    -25.7631E-03     50.6377E-03    -24.9600E-03     62.0987E-03
            1025     10.5337E-03     96.8001E-03     244.128E+03    -50.4187E+06     3.04623E+06    -15.3027E+06    -26.3368E-03     51.3819E-03    -25.0451E-03     68.1867E-03    -26.3159E-03     51.1740E-03    -24.9571E-03     67.9134E-03
            1026     11.4111E-03     96.8629E-03    -391.936E+03    -45.6702E+06     1.62390E+06    -15.2972E+06    -27.0661E-03     52.1291E-03    -25.0629E-03     74.8454E-03    -27.0802E-03     51.9749E-03    -24.9880E-03     74.5484E-03
            1027     12.2884E-03     96.9322E-03    -1.00045E+06    -45.0600E+06    -933.152E+03    -14.9558E+06    -28.1050E-03     53.2259E-03    -25.1209E-03     83.2720E-03    -28.1657E-03     53.1258E-03    -25.0588E-03     82.9473E-03
            1028     13.1640E-03     97.0109E-03    -1.41117E+06    -46.1608E+06    -9.46800E+06    -13.8069E+06    -29.1158E-03     54.3099E-03    -25.1940E-03     88.4686E-03    -29.2336E-03     54.2862E-03    -25.1724E-03     88.1210E-03
            1029     14.0400E-03     97.0909E-03    -1.89904E+06    -25.0001E+06    -8.91603E+06    -11.9826E+06    -30.0908E-03     55.4017E-03    -25.3109E-03     99.3342E-03    -30.3866E-03     55.6279E-03    -25.3165E-03     98.9748E-03
            1030     14.9152E-03     97.1908E-03    -2.46110E+06     1.17731E+06    -15.3505E+06    -8.61334E+06    -31.8419E-03     57.2296E-03    -25.3877E-03     134.331E-03    -32.7357E-03     58.1634E-03    -25.4626E-03     134.031E-03
            1031     15.7906E-03     97.3372E-03    -3.48618E+06     71.6249E+06    -30.1073E+06    -4.33165E+06    -34.5941E-03     59.9412E-03    -25.3470E-03     189.534E-03    -37.7828E-03     63.4591E-03    -25.5964E-03     190.018E-03
            1032     16.6677E-03     97.5485E-03    -3.87169E+06     151.859E+06     33.1927E+06    -1.54908E+06    -32.3149E-03     57.9954E-03    -25.6805E-03     147.831E-03    -35.6416E-03     61.7512E-03    -25.7291E-03     149.318E-03
            1033     877.719E-06     97.4495E-03    -870.058E+03    -37.7964E+06    -1.12028E+06    -4.06115E+06    -25.1153E-03     50.2422E-03    -25.1268E-03     5.94975E-03    -25.0633E-03     50.0562E-03    -25.0764E-03     5.89541E-03
            1034     1.75538E-03     97.4567E-03    -906.370E+03    -38.8923E+06    -1.44330E+06    -7.11782E+06    -25.0599E-03     50.1569E-03    -25.0970E-03     10.9805E-03    -25.0063E-03     49.9661E-03    -25.0465E-03     10.8850E-03
            1035     2.63325E-03     97.4684E-03    -850.231E+03    -41.0646E+06    -1.54956E+06    -9.99986E+06    -24.9774E-03     50.0334E-03    -25.0559E-03     16.3518E-03    -24.9206E-03     49.8322E-03    -25.0029E-03     16.2172E-03
            1036     3.51115E-03     97.4848E-03    -700.967E+03    -43.3595E+06    -1.53784E+06    -12.2876E+06    -24.8733E-03     49.8749E-03    -25.0017E-03     21.8612E-03    -24.8130E-03     49.6627E-03    -24.9455E-03     21.6949E-03
            1037     4.38930E-03     97.5059E-03    -475.972E+03    -45.6645E+06    -1.15351E+06    -13.9831E+06    -24.7609E-03     49.6981E-03    -24.9372E-03     27.4967E-03    -24.6976E-03     49.4743E-03    -24.8760E-03     27.3059E-03
            1038     5.26753E-03     97.5320E-03    -253.993E+03    -46.9428E+06    -393.065E+03    -14.8522E+06    -24.6575E-03     49.5218E-03    -24.8644E-03     33.2665E-03    -24.5937E-03     49.2916E-03    -24.7979E-03     33.0613E-03
            1039     6.14602E-03     97.5630E-03     38.1344E+03    -48.1660E+06     1.14217E+06    -15.2894E+06    -24.5926E-03     49.3838E-03    -24.7911E-03     39.1636E-03    -24.5298E-03     49.1467E-03    -24.7156E-03     38.9485E-03
            1040     7.02456E-03     97.5992E-03     336.833E+03    -47.2940E+06     3.02375E+06    -15.0322E+06    -24.5917E-03     49.3099E-03    -24.7182E-03     45.1989E-03    -24.5344E-03     49.0771E-03    -24.6350E-03     44.9817E-03
            1041     7.90328E-03     97.6405E-03     570.757E+03    -46.8370E+06     5.60795E+06    -14.5288E+06    -24.7130E-03     49.3718E-03    -24.6588E-03     51.3254E-03    -24.6635E-03     49.1418E-03    -24.5637E-03     51.1073E-03
            1042     8.78185E-03     97.6873E-03     694.471E+03    -46.5321E+06     6.83446E+06    -14.2472E+06    -24.9763E-03     49.5871E-03    -24.6108E-03     57.5567E-03    -24.9355E-03     49.3637E-03    -24.5102E-03     57.3322E-03
            1043     9.66043E-03     97.7394E-03     216.151E+03    -46.2664E+06     7.08328E+06    -13.6201E+06    -25.4331E-03     50.0183E-03    -24.5852E-03     63.7877E-03    -25.4063E-03     49.8075E-03    -24.4830E-03     63.5577E-03
            1044     10.5385E-03     97.7971E-03    -836.027E+03    -48.1793E+06     4.73663E+06    -14.0041E+06    -26.1555E-03     50.7438E-03    -24.5883E-03     69.8831E-03    -26.1447E-03     50.5452E-03    -24.4936E-03     69.6298E-03
            1045     11.4163E-03     97.8602E-03    -1.40983E+06    -44.0791E+06     2.91487E+06    -14.6267E+06    -27.0979E-03     51.7285E-03    -24.6306E-03     76.6604E-03    -27.1206E-03     51.5813E-03    -24.5501E-03     76.3745E-03
            1046     12.2929E-03     97.9307E-03    -1.90424E+06    -44.0023E+06     705.706E+03    -14.5525E+06    -28.2420E-03     52.9654E-03    -24.7234E-03     85.3048E-03    -28.3115E-03     52.8699E-03    -24.6533E-03     84.9869E-03
            1047     13.1694E-03     98.0106E-03    -2.78029E+06    -47.1695E+06    -8.33726E+06    -13.7578E+06    -29.3333E-03     54.1640E-03    -24.8308E-03     90.7455E-03    -29.4595E-03     54.1372E-03    -24.8000E-03     90.3997E-03
            1048     14.0444E-03     98.0910E-03    -2.83984E+06    -26.3782E+06    -7.25295E+06    -12.1509E+06    -30.3759E-03     55.3596E-03    -24.9837E-03     101.178E-03    -30.6799E-03     55.5809E-03    -24.9776E-03     100.817E-03
            1049     14.9197E-03     98.1914E-03    -2.63730E+06    -3.12831E+06    -12.8727E+06    -9.07418E+06    -32.7710E-03     57.8896E-03    -25.1185E-03     135.344E-03    -33.6758E-03     58.8113E-03    -25.1745E-03     135.024E-03
            1050     15.7940E-03     98.3391E-03    -3.46696E+06     66.9287E+06    -30.0634E+06    -4.17643E+06    -35.7795E-03     60.9189E-03    -25.1394E-03     189.318E-03    -38.9735E-03     64.4255E-03    -25.3817E-03     189.779E-03
            1051     16.6674E-03     98.5483E-03    -3.78362E+06     150.632E+06     32.9769E+06    -1.19047E+06    -33.2392E-03     58.7749E-03    -25.5358E-03     146.716E-03    -36.5581E-03     62.5195E-03    -25.5838E-03     148.174E-03
            1052     878.098E-06     98.4461E-03     1.93450E+06    -29.4659E+06     1.65876E+06    -4.18199E+06    -24.5705E-03     49.1567E-03    -24.5862E-03     6.00580E-03    -24.5206E-03     49.0042E-03    -24.5380E-03     5.95016E-03
            1053     1.75639E-03     98.4531E-03     1.71993E+06    -31.1934E+06     872.324E+03    -7.30400E+06    -24.5057E-03     49.0562E-03    -24.5504E-03     11.0987E-03    -24.4535E-03     48.8967E-03    -24.5033E-03     11.0013E-03
            1054     2.63463E-03     98.4647E-03     1.40847E+06    -34.1296E+06     46.8096E+03    -10.2295E+06    -24.4079E-03     48.9094E-03    -24.5015E-03     16.5380E-03    -24.3521E-03     48.7373E-03    -24.4538E-03     16.4012E-03
            1055     3.51314E-03     98.4808E-03     1.03877E+06    -37.6306E+06    -776.627E+03    -12.4951E+06    -24.2846E-03     48.7226E-03    -24.4380E-03     22.1292E-03    -24.2249E-03     48.5352E-03    -24.3888E-03     21.9614E-03
            1056     4.39171E-03     98.5017E-03     510.370E+03    -40.9164E+06    -1.34784E+06    -14.0402E+06    -24.1517E-03     48.5142E-03    -24.3625E-03     27.8676E-03    -24.0898E-03     48.3128E-03    -24.3106E-03     27.6776E-03
            1057     5.27058E-03     98.5274E-03    -98.4295E+03    -43.7745E+06    -1.43696E+06    -14.7599E+06    -24.0334E-03     48.3132E-03    -24.2798E-03     33.7661E-03    -23.9715E-03     48.0997E-03    -24.2234E-03     33.5640E-03
            1058     6.14954E-03     98.5583E-03    -846.368E+03    -45.2981E+06    -584.115E+03    -14.9354E+06    -23.9604E-03     48.1571E-03    -24.1968E-03     39.8288E-03    -23.9030E-03     47.9376E-03    -24.1328E-03     39.6207E-03
            1059     7.02874E-03     98.5942E-03    -1.62116E+06    -46.2349E+06     951.816E+03    -14.4961E+06    -23.9748E-03     48.0950E-03    -24.1202E-03     46.0547E-03    -23.9250E-03     47.8724E-03    -24.0460E-03     45.8473E-03
            1060     7.90790E-03     98.6356E-03    -2.27930E+06    -45.2633E+06     3.39732E+06    -13.7907E+06    -24.1213E-03     48.1789E-03    -24.0577E-03     52.4373E-03    -24.0840E-03     47.9630E-03    -23.9717E-03     52.2321E-03
            1061     8.78712E-03     98.6824E-03    -3.09813E+06    -45.7136E+06     5.23612E+06    -13.0673E+06    -24.4623E-03     48.4797E-03    -24.0174E-03     58.9002E-03    -24.4380E-03     48.2669E-03    -23.9204E-03     58.6947E-03
            1062     9.66598E-03     98.7349E-03    -3.76118E+06    -45.5057E+06     5.89083E+06    -12.2832E+06    -25.0694E-03     49.0748E-03    -24.0053E-03     65.4664E-03    -25.0605E-03     48.8739E-03    -23.9045E-03     65.2576E-03
            1063     10.5445E-03     98.7932E-03    -4.07453E+06    -45.0941E+06     5.17939E+06    -12.7973E+06    -25.9767E-03     50.0110E-03    -24.0343E-03     71.8545E-03    -25.9860E-03     49.8307E-03    -23.9371E-03     71.6204E-03
            1064     11.4220E-03     98.8574E-03    -4.81426E+06    -42.7324E+06     3.48970E+06    -13.6824E+06    -27.0820E-03     51.1928E-03    -24.1108E-03     78.9563E-03    -27.1240E-03     51.0558E-03    -24.0244E-03     78.6856E-03
            1065     12.2990E-03     98.9289E-03    -5.17459E+06    -43.0570E+06     1.31770E+06    -14.0067E+06    -28.3337E-03     52.5725E-03    -24.2389E-03     87.7720E-03    -28.4221E-03     52.4860E-03    -24.1623E-03     87.4635E-03
            1066     13.1752E-03     99.0094E-03    -5.04430E+06    -47.2028E+06    -6.74662E+06    -13.6308E+06    -29.6593E-03     54.0509E-03    -24.3916E-03     93.1111E-03    -29.8008E-03     54.0265E-03    -24.3496E-03     92.7678E-03
            1067     14.0506E-03     99.0920E-03    -5.20856E+06    -26.6224E+06    -5.70766E+06    -12.7628E+06    -31.3141E-03     55.9207E-03    -24.6066E-03     102.857E-03    -31.6371E-03     56.1473E-03    -24.5890E-03     102.482E-03
            1068     14.9246E-03     99.1923E-03    -5.26067E+06    -7.80804E+06    -10.9012E+06    -10.0212E+06    -34.2993E-03     59.1401E-03    -24.8409E-03     136.594E-03    -35.2293E-03     60.0554E-03    -24.8764E-03     136.239E-03
            1069     15.7970E-03     99.3436E-03    -5.55691E+06     61.6684E+06    -29.1839E+06    -5.17861E+06    -37.4137E-03     62.3721E-03    -24.9585E-03     189.538E-03    -40.6309E-03     65.8732E-03    -25.1857E-03     189.927E-03
            1070     16.6699E-03     99.5507E-03    -4.32724E+06     149.098E+06     33.2100E+06    -1.77546E+06    -34.0867E-03     59.5080E-03    -25.4213E-03     146.968E-03    -37.4275E-03     63.2665E-03    -25.4652E-03     148.389E-03
            1071     878.793E-06     99.4414E-03     3.74965E+06    -20.9484E+06     3.48303E+06    -4.20156E+06    -23.8835E-03     47.7813E-03    -23.8978E-03     6.07237E-03    -23.8395E-03     47.6661E-03    -23.8555E-03     6.01678E-03
            1072     1.75750E-03     99.4483E-03     3.33993E+06    -23.4626E+06     2.26089E+06    -7.36107E+06    -23.8101E-03     47.6702E-03    -23.8601E-03     11.2275E-03    -23.7629E-03     47.5450E-03    -23.8197E-03     11.1299E-03
            1073     2.63650E-03     99.4596E-03     2.56373E+06    -27.2879E+06     564.303E+03    -10.0978E+06    -23.6972E-03     47.5012E-03    -23.8040E-03     16.7403E-03    -23.6462E-03     47.3607E-03    -23.7653E-03     16.6061E-03
            1074     3.51551E-03     99.4756E-03     1.40089E+06    -32.0775E+06    -1.34870E+06    -12.1656E+06    -23.5582E-03     47.2897E-03    -23.7315E-03     22.4199E-03    -23.5037E-03     47.1302E-03    -23.6938E-03     22.2575E-03
            1075     4.39484E-03     99.4961E-03    -110.958E+03    -36.6960E+06     -3.0974E+06    -13.2927E+06    -23.4113E-03     47.0578E-03    -23.6464E-03     28.2699E-03    -23.3558E-03     46.8805E-03    -23.6086E-03     28.0911E-03
            1076     5.27426E-03     99.5217E-03    -2.02488E+06    -40.8545E+06    -4.08896E+06    -13.6331E+06    -23.2863E-03     46.8428E-03    -23.5566E-03     34.3055E-03    -23.2339E-03     46.6500E-03    -23.5148E-03     34.1200E-03
            1077     6.15398E-03     99.5521E-03    -4.23694E+06    -43.3227E+06    -4.01305E+06    -13.2268E+06    -23.2194E-03     46.6878E-03    -23.4684E-03     40.5407E-03    -23.1762E-03     46.4873E-03    -23.4195E-03     40.3573E-03
            1078     7.03372E-03     99.5880E-03    -6.50880E+06    -44.9568E+06    -2.50360E+06    -12.6208E+06    -23.2652E-03     46.6588E-03    -23.3936E-03     46.9787E-03    -23.2357E-03     46.4538E-03    -23.3315E-03     46.7986E-03
            1079     7.91359E-03     99.6293E-03    -8.51001E+06    -44.3932E+06    -188.999E+03    -11.8585E+06    -23.4648E-03     46.8014E-03    -23.3365E-03     53.6037E-03    -23.4535E-03     46.6028E-03    -23.2608E-03     53.4271E-03
            1080     8.79327E-03     99.6764E-03    -9.90628E+06    -44.9468E+06     2.22092E+06    -11.1466E+06    -23.9174E-03     47.2278E-03    -23.3104E-03     60.3659E-03    -23.9224E-03     47.0316E-03    -23.2198E-03     60.1891E-03
            1081     9.67270E-03     99.7293E-03    -10.2634E+06    -43.8289E+06     3.79456E+06    -11.4910E+06    -24.6877E-03     48.0086E-03    -23.3209E-03     67.3277E-03    -24.7091E-03     47.8270E-03    -23.2235E-03     67.1331E-03
            1082     10.5513E-03     99.7887E-03    -10.1210E+06    -43.0976E+06     4.14153E+06    -11.8932E+06    -25.7070E-03     49.0874E-03    -23.3804E-03     74.1089E-03    -25.7464E-03     48.9259E-03    -23.2826E-03     73.8907E-03
            1083     11.4293E-03     99.8538E-03    -10.0464E+06    -40.3787E+06     3.83360E+06    -12.7275E+06    -26.9930E-03     50.4871E-03    -23.4941E-03     81.4600E-03    -27.0642E-03     50.3682E-03    -23.4018E-03     81.2051E-03
            1084     12.3065E-03     99.9265E-03    -9.42593E+06    -41.3253E+06     1.87956E+06    -14.1476E+06    -28.6503E-03     52.3198E-03    -23.6695E-03     90.2341E-03    -28.7641E-03     52.2480E-03    -23.5865E-03     89.9248E-03
            1085     13.1822E-03     100.009E-03    -8.41182E+06    -47.1107E+06    -6.17713E+06    -14.1599E+06    -30.4785E-03     54.3716E-03    -23.8931E-03     95.4686E-03    -30.6407E-03     54.3547E-03    -23.8435E-03     95.1153E-03
            1086     14.0563E-03     100.093E-03    -7.87455E+06    -26.1320E+06    -4.14434E+06    -13.3363E+06    -32.6114E-03     56.8138E-03    -24.2024E-03     105.232E-03    -32.9602E-03     57.0539E-03    -24.1738E-03     104.838E-03
            1087     14.9283E-03     100.196E-03    -7.15035E+06    -12.0129E+06    -8.88119E+06    -11.3140E+06    -35.7936E-03     60.3369E-03    -24.5433E-03     138.882E-03    -36.7507E-03     61.2519E-03    -24.5599E-03     138.488E-03
            1088     15.8000E-03     100.347E-03    -5.80124E+06     55.9442E+06    -25.2626E+06    -6.81429E+06    -38.6911E-03     63.4488E-03    -24.7577E-03     191.039E-03    -41.9513E-03     66.9604E-03    -24.9568E-03     191.378E-03
            1089     16.6717E-03     100.556E-03    -4.01522E+06     146.573E+06     36.6040E+06    -2.60346E+06    -35.2847E-03     60.5713E-03    -25.2866E-03     146.694E-03    -38.6498E-03     64.3363E-03    -25.3103E-03     148.066E-03
            1090     879.417E-06     100.435E-03     4.88440E+06    -12.5255E+06     4.42762E+06    -4.06958E+06    -23.0394E-03     46.0941E-03    -23.0548E-03     6.13725E-03    -23.0033E-03     46.0181E-03    -23.0216E-03     6.08370E-03
            1091     1.75906E-03     100.442E-03     3.91696E+06    -15.9827E+06     2.48128E+06    -7.04719E+06    -22.9598E-03     45.9728E-03    -23.0130E-03     11.3537E-03    -22.9209E-03     45.8838E-03    -22.9831E-03     11.2608E-03
            1092     2.63863E-03     100.453E-03     2.32283E+06    -21.0721E+06    -327.960E+03    -9.36759E+06    -22.8371E-03     45.7880E-03    -22.9509E-03     16.9404E-03    -22.7949E-03     45.6802E-03    -22.9254E-03     16.8166E-03
            1093     3.51854E-03     100.469E-03    -36.0004E+03    -27.2709E+06    -3.56934E+06    -10.7760E+06    -22.6902E-03     45.5619E-03    -22.8717E-03     22.7060E-03    -22.6465E-03     45.4315E-03    -22.8499E-03     22.5629E-03
            1094     4.39850E-03     100.489E-03    -3.20030E+06    -33.5195E+06    -6.62191E+06    -11.1920E+06    -22.5419E-03     45.3237E-03    -22.7819E-03     28.6626E-03    -22.5010E-03     45.1716E-03    -22.7617E-03     28.5127E-03
            1095     5.27881E-03     100.514E-03    -6.89355E+06    -38.8247E+06    -8.43047E+06    -10.7624E+06    -22.4264E-03     45.1176E-03    -22.6912E-03     34.8327E-03    -22.3945E-03     44.9478E-03    -22.6671E-03     34.6865E-03
            1096     6.15915E-03     100.545E-03    -10.5851E+06    -42.1887E+06    -8.40679E+06    -10.0085E+06    -22.3894E-03     44.9981E-03    -22.6087E-03     41.2411E-03    -22.3725E-03     44.8182E-03    -22.5742E-03     41.1019E-03
            1097     7.03972E-03     100.580E-03    -13.7082E+06    -43.7981E+06    -6.39262E+06    -9.32482E+06    -22.4879E-03     45.0324E-03    -22.5445E-03     47.9008E-03    -22.4895E-03     44.8483E-03    -22.4931E-03     47.7663E-03
            1098     7.92013E-03     100.622E-03    -15.9019E+06    -43.5517E+06    -3.16267E+06    -8.98229E+06    -22.7858E-03     45.2917E-03    -22.5059E-03     54.7813E-03    -22.8071E-03     45.1111E-03    -22.4355E-03     54.6452E-03
            1099     8.80046E-03     100.669E-03    -16.6292E+06    -43.3318E+06     196.476E+03    -9.40950E+06    -23.3706E-03     45.8738E-03    -22.5032E-03     61.9231E-03    -23.4072E-03     45.6969E-03    -22.4152E-03     61.7725E-03
            1100     9.68015E-03     100.723E-03    -16.4484E+06    -41.3680E+06     2.84310E+06    -10.4609E+06    -24.2467E-03     46.7900E-03    -22.5433E-03     69.2729E-03    -24.2997E-03     46.6295E-03    -22.4453E-03     69.0958E-03
            1101     10.5594E-03     100.783E-03    -15.6687E+06    -41.6358E+06     3.59597E+06    -11.4528E+06    -25.4361E-03     48.0731E-03    -22.6370E-03     76.3382E-03    -25.5030E-03     47.9262E-03    -22.5360E-03     76.1297E-03
            1102     11.4376E-03     100.849E-03    -13.9824E+06    -36.9658E+06     4.63708E+06    -12.8207E+06    -27.0728E-03     49.8697E-03    -22.7969E-03     84.0083E-03    -27.1692E-03     49.7719E-03    -22.6999E-03     83.7549E-03
            1103     12.3142E-03     100.924E-03    -12.2669E+06    -38.4261E+06     3.39848E+06    -14.8272E+06    -29.1849E-03     52.2249E-03    -23.0400E-03     92.9822E-03    -29.3208E-03     52.1711E-03    -22.9495E-03     92.6638E-03
            1104     13.1894E-03     101.008E-03    -10.9244E+06    -46.8091E+06    -5.45028E+06    -15.3976E+06    -31.4922E-03     54.8405E-03    -23.3483E-03     98.5870E-03    -31.6739E-03     54.8332E-03    -23.2918E-03     98.2124E-03
            1105     14.0624E-03     101.095E-03    -8.88842E+06    -25.9705E+06    -2.45204E+06    -14.8496E+06    -33.7740E-03     57.5272E-03    -23.7532E-03     108.519E-03    -34.1430E-03     57.7796E-03    -23.7149E-03     108.095E-03
            1106     14.9347E-03     101.200E-03    -6.66332E+06    -15.3291E+06    -6.76519E+06    -12.9038E+06    -37.0313E-03     61.2171E-03    -24.1858E-03     141.822E-03    -38.0090E-03     62.1365E-03    -24.1878E-03     141.389E-03
            1107     15.8052E-03     101.353E-03    -5.88831E+06     50.2594E+06    -21.9392E+06    -8.41383E+06    -40.1704E-03     64.6682E-03    -24.4978E-03     192.443E-03    -43.4646E-03     68.1836E-03    -24.6718E-03     192.717E-03
            1108     16.6762E-03     101.561E-03    -3.89095E+06     142.555E+06     39.3640E+06    -3.52642E+06    -37.2058E-03     62.3286E-03    -25.1228E-03     146.282E-03    -40.5913E-03     66.0922E-03    -25.1270E-03     147.572E-03
            1109     880.406E-06     101.427E-03     4.19122E+06    -4.74590E+06     3.61482E+06    -3.62006E+06    -22.0321E-03     44.0816E-03    -22.0495E-03     6.19241E-03    -22.0095E-03     44.0465E-03    -22.0306E-03     6.14500E-03
            1110     1.76071E-03     101.434E-03     2.41561E+06    -9.36396E+06     642.603E+03    -6.03912E+06    -21.9499E-03     43.9533E-03    -22.0034E-03     11.4589E-03    -21.9254E-03     43.9022E-03    -21.9901E-03     11.3796E-03
            1111     2.64135E-03     101.445E-03    -461.502E+03    -16.2886E+06    -3.45453E+06    -7.46845E+06    -21.8302E-03     43.7693E-03    -21.9391E-03     17.1050E-03    -21.8042E-03     43.6938E-03    -21.9321E-03     17.0066E-03
            1112     3.52198E-03     101.460E-03    -4.55475E+06    -24.1578E+06    -7.92091E+06    -7.70335E+06    -21.6918E-03     43.5525E-03    -21.8606E-03     22.9426E-03    -21.6687E-03     43.4503E-03    -21.8586E-03     22.8404E-03
            1113     4.40295E-03     101.480E-03    -9.50213E+06    -31.9382E+06    -11.4166E+06    -7.05248E+06    -21.5654E-03     43.3438E-03    -21.7784E-03     28.9894E-03    -21.5510E-03     43.2153E-03    -21.7754E-03     28.8946E-03
            1114     5.28394E-03     101.505E-03    -14.5562E+06    -37.9958E+06    -12.9996E+06    -6.10814E+06    -21.4872E-03     43.1880E-03    -21.7008E-03     35.2824E-03    -21.4877E-03     43.0395E-03    -21.6896E-03     35.1982E-03
            1115     6.16522E-03     101.535E-03    -18.7541E+06    -41.2418E+06    -12.1101E+06    -5.61472E+06    -21.5068E-03     43.1432E-03    -21.6364E-03     41.8622E-03    -21.5260E-03     42.9844E-03    -21.6099E-03     41.7821E-03
            1116     7.04638E-03     101.571E-03    -21.3505E+06    -42.6309E+06    -8.98174E+06    -5.79780E+06    -21.6868E-03     43.2815E-03    -21.5947E-03     48.7460E-03    -21.7235E-03     43.1170E-03    -21.5468E-03     48.6599E-03
            1117     7.92759E-03     101.612E-03    -21.9958E+06    -41.7696E+06    -4.41680E+06    -6.63400E+06    -22.1005E-03     43.6836E-03    -21.5831E-03     55.9375E-03    -22.1518E-03     43.5213E-03    -21.5127E-03     55.8350E-03
            1118     8.80831E-03     101.660E-03    -21.2736E+06    -40.5622E+06    -61.3604E+03    -8.28520E+06    -22.8023E-03     44.4128E-03    -21.6105E-03     63.4693E-03    -22.8643E-03     44.2554E-03    -21.5212E-03     63.3370E-03
            1119     9.68868E-03     101.715E-03    -19.7702E+06    -39.0740E+06     2.97064E+06    -9.69417E+06    -23.8252E-03     45.5099E-03    -21.6848E-03     71.1567E-03    -23.8966E-03     45.3639E-03    -21.5846E-03     70.9934E-03
            1120     10.5681E-03     101.776E-03    -17.9572E+06    -38.6080E+06     4.34940E+06    -11.3716E+06    -25.3043E-03     47.1268E-03    -21.8225E-03     78.6662E-03    -25.3870E-03     46.9961E-03    -21.7187E-03     78.4621E-03
            1121     11.4462E-03     101.845E-03    -15.7378E+06    -33.2639E+06     5.65921E+06    -13.9184E+06    -27.2501E-03     49.2896E-03    -22.0394E-03     86.8369E-03    -27.3621E-03     49.2112E-03    -21.9401E-03     86.5715E-03
            1122     12.3231E-03     101.922E-03    -13.5319E+06    -35.7290E+06     4.75783E+06    -15.6373E+06    -29.6864E-03     52.0405E-03    -22.3541E-03     96.3262E-03    -29.8369E-03     52.0024E-03    -22.2589E-03     95.9969E-03
            1123     13.1974E-03     102.008E-03    -11.4956E+06    -45.3078E+06    -4.15402E+06    -16.9879E+06    -32.3313E-03     55.0733E-03    -22.7419E-03     102.453E-03    -32.5267E-03     55.0792E-03    -22.6803E-03     102.053E-03
            1124     14.0700E-03     102.098E-03    -8.93170E+06    -25.1309E+06    -1.04281E+06    -17.5437E+06    -35.0213E-03     58.2600E-03    -23.2387E-03     112.051E-03    -35.4071E-03     58.5282E-03    -23.1945E-03     111.580E-03
            1125     14.9405E-03     102.205E-03    -6.36900E+06    -19.3970E+06    -5.72491E+06    -15.0591E+06    -38.6245E-03     62.4035E-03    -23.7791E-03     144.282E-03    -39.6214E-03     63.3258E-03    -23.7703E-03     143.794E-03
            1126     15.8101E-03     102.361E-03    -5.48032E+06     44.2206E+06    -21.4809E+06    -8.98593E+06    -41.9455E-03     66.1445E-03    -24.1989E-03     193.472E-03    -45.2385E-03     69.6374E-03    -24.3625E-03     193.665E-03
            1127     16.6782E-03     102.568E-03    -4.94460E+06     138.741E+06     38.2954E+06    -3.99824E+06    -39.4257E-03     64.3575E-03    -24.9318E-03     146.525E-03    -42.8118E-03     68.1076E-03    -24.9343E-03     147.715E-03
            1128     881.290E-06     102.417E-03     258.650E+03     1.39318E+06    -260.619E+03    -2.61982E+06    -20.8708E-03     41.7529E-03    -20.8822E-03     6.21895E-03    -20.8712E-03     41.7599E-03    -20.8859E-03     6.18475E-03
            1129     1.76284E-03     102.424E-03    -2.79769E+06    -4.98317E+06    -4.31812E+06    -3.55416E+06    -20.7968E-03     41.6379E-03    -20.8411E-03     11.5113E-03    -20.7974E-03     41.6233E-03    -20.8514E-03     11.4647E-03
            1130     2.64428E-03     102.434E-03    -7.64049E+06    -14.0232E+06    -9.28674E+06    -3.46820E+06    -20.6982E-03     41.4842E-03    -20.7860E-03     17.1889E-03    -20.7028E-03     41.4388E-03    -20.8010E-03     17.1431E-03
            1131     3.52605E-03     102.449E-03    -13.4294E+06    -23.5019E+06    -13.8199E+06    -2.42700E+06    -20.5966E-03     41.3211E-03    -20.7244E-03     23.0742E-03    -20.6101E-03     41.2433E-03    -20.7400E-03     23.0413E-03
            1132     4.40778E-03     102.469E-03    -19.1992E+06    -32.0365E+06    -16.4033E+06    -1.20643E+06    -20.5230E-03     41.1893E-03    -20.6663E-03     29.1947E-03    -20.5494E-03     41.0813E-03    -20.6740E-03     29.1768E-03
            1133     5.28980E-03     102.494E-03    -23.7515E+06    -37.6014E+06    -16.4115E+06    -746.884E+03    -20.5125E-03     41.1294E-03    -20.6168E-03     35.6038E-03    -20.5541E-03     41.0007E-03    -20.6099E-03     35.5905E-03
            1134     6.17172E-03     102.524E-03    -26.4320E+06    -39.9389E+06    -13.9945E+06    -1.41463E+06    -20.6138E-03     41.1957E-03    -20.5820E-03     42.3558E-03    -20.6698E-03     41.0567E-03    -20.5557E-03     42.3320E-03
            1135     7.05377E-03     102.560E-03    -27.0912E+06    -40.2528E+06    -9.66233E+06    -3.20116E+06    -20.8894E-03     41.4601E-03    -20.5707E-03     49.4828E-03    -20.9564E-03     41.3160E-03    -20.5214E-03     49.4327E-03
            1136     7.93546E-03     102.602E-03    -26.0115E+06    -38.9012E+06    -4.62946E+06    -5.60596E+06    -21.4050E-03     41.9948E-03    -20.5898E-03     57.0143E-03    -21.4791E-03     41.8518E-03    -20.5188E-03     56.9281E-03
            1137     8.81694E-03     102.650E-03    -23.9111E+06    -37.1651E+06     67.0353E+03    -7.88097E+06    -22.2263E-03     42.8766E-03    -20.6504E-03     64.9064E-03    -22.3051E-03     42.7384E-03    -20.5615E-03     64.7826E-03
            1138     9.69763E-03     102.706E-03    -21.1554E+06    -36.2002E+06     3.23487E+06    -10.1988E+06    -23.4646E-03     44.2295E-03    -20.7649E-03     73.0582E-03    -23.5461E-03     44.0980E-03    -20.6656E-03     72.8918E-03
            1139     10.5773E-03     102.769E-03    -17.6978E+06    -35.0180E+06     5.28625E+06    -12.3470E+06    -25.1843E-03     46.1368E-03    -20.9526E-03     81.2071E-03    -25.2711E-03     46.0212E-03    -20.8497E-03     80.9937E-03
            1140     11.4557E-03     102.839E-03    -15.1959E+06    -29.3882E+06     6.98922E+06    -14.2965E+06    -27.3802E-03     48.6089E-03    -21.2287E-03     89.9717E-03    -27.4969E-03     48.5471E-03    -21.1291E-03     89.7037E-03
            1141     12.3319E-03     102.918E-03    -13.5650E+06    -32.8073E+06     6.12359E+06    -16.3851E+06    -30.1016E-03     51.7131E-03    -21.6116E-03     100.042E-03    -30.2608E-03     51.6901E-03    -21.5137E-03     99.7030E-03
            1142     13.2066E-03     103.009E-03    -11.8980E+06    -41.8517E+06    -3.15194E+06    -18.7322E+06    -33.1558E-03     55.2308E-03    -22.0750E-03     106.476E-03    -33.3660E-03     55.2595E-03    -22.0128E-03     106.050E-03
            1143     14.0783E-03     103.101E-03    -10.4425E+06    -24.3309E+06    -696.357E+03    -19.5625E+06    -36.4449E-03     59.1166E-03    -22.6718E-03     115.999E-03    -36.8548E-03     59.4054E-03    -22.6248E-03     115.488E-03
            1144     14.9475E-03     103.212E-03    -9.59590E+06    -22.9792E+06    -6.26392E+06    -17.3491E+06    -40.9920E-03     64.3395E-03    -23.3475E-03     147.369E-03    -42.0308E-03     65.2811E-03    -23.3315E-03     146.807E-03
            1145     15.8149E-03     103.368E-03    -7.02717E+06     35.8182E+06    -21.5658E+06    -11.9548E+06    -44.2156E-03     68.1364E-03    -23.9207E-03     193.467E-03    -47.5102E-03     71.5959E-03    -24.0703E-03     193.520E-03
            1146     16.6831E-03     103.578E-03    -3.00278E+06     132.117E+06     38.7675E+06    -4.84479E+06    -41.2036E-03     65.9754E-03    -24.7718E-03     146.495E-03    -44.5717E-03     69.6895E-03    -24.7652E-03     147.569E-03
            1147     882.563E-06     103.405E-03    -9.23801E+06     3.62356E+06    -8.59928E+06     233.990E+03    -19.5847E-03     39.1698E-03    -19.5851E-03     6.19198E-03    -19.6237E-03     39.2137E-03    -19.6200E-03     6.19486E-03
            1148     1.76497E-03     103.411E-03    -13.7584E+06    -4.74953E+06    -12.8278E+06     1.30268E+06    -19.5408E-03     39.1070E-03    -19.5662E-03     11.4681E-03    -19.5842E-03     39.1217E-03    -19.6035E-03     11.4847E-03
            1149     2.64769E-03     103.422E-03    -19.4423E+06    -15.1453E+06    -16.5687E+06     2.99672E+06    -19.4933E-03     39.0342E-03    -19.5408E-03     17.1475E-03    -19.5447E-03     39.0107E-03    -19.5735E-03     17.1857E-03
            1150     3.53027E-03     103.436E-03    -25.0801E+06    -25.0925E+06    -19.0228E+06     4.45945E+06    -19.4614E-03     38.9775E-03    -19.5161E-03     23.0621E-03    -19.5231E-03     38.9161E-03    -19.5385E-03     23.1189E-03
            1151     4.41312E-03     103.456E-03    -29.2668E+06    -32.7003E+06    -19.5224E+06     4.82845E+06    -19.4681E-03     38.9633E-03    -19.4951E-03     29.2501E-03    -19.5391E-03     38.8708E-03    -19.5029E-03     29.3112E-03
            1152     5.29582E-03     103.481E-03    -31.3109E+06    -36.5172E+06    -17.8582E+06     3.55934E+06    -19.5441E-03     39.0250E-03    -19.4809E-03     35.7773E-03    -19.6226E-03     38.9144E-03    -19.4719E-03     35.8211E-03
            1153     6.17870E-03     103.511E-03    -31.2315E+06    -37.6253E+06    -14.3010E+06     1.14669E+06    -19.7335E-03     39.2139E-03    -19.4804E-03     42.7026E-03    -19.8159E-03     39.0932E-03    -19.4520E-03     42.7135E-03
            1154     7.06130E-03     103.547E-03    -29.7450E+06    -36.5459E+06    -9.46917E+06    -1.96858E+06    -20.0960E-03     39.5973E-03    -19.5013E-03     50.0878E-03    -20.1810E-03     39.4744E-03    -19.4525E-03     50.0557E-03
            1155     7.94384E-03     103.589E-03    -27.5217E+06    -34.9646E+06    -4.41488E+06    -5.33337E+06    -20.7083E-03     40.2623E-03    -19.5540E-03     57.9447E-03    -20.7949E-03     40.1398E-03    -19.4855E-03     57.8646E-03
            1156     8.82573E-03     103.638E-03    -24.6489E+06    -33.4453E+06     124.677E+03    -8.36656E+06    -21.6622E-03     41.3130E-03    -19.6508E-03     66.2565E-03    -21.7488E-03     41.1930E-03    -19.5659E-03     66.1296E-03
            1157     9.70702E-03     103.695E-03    -21.1033E+06    -31.7343E+06     3.63933E+06    -11.5819E+06    -23.0739E-03     42.8810E-03    -19.8071E-03     75.0242E-03    -23.1607E-03     42.7696E-03    -19.7123E-03     74.8434E-03
            1158     10.5870E-03     103.760E-03    -17.3123E+06    -31.5127E+06     5.56467E+06    -14.5030E+06    -24.9699E-03     45.0118E-03    -20.0419E-03     83.8259E-03    -25.0588E-03     44.9113E-03    -19.9433E-03     83.5883E-03
            1159     11.4654E-03     103.833E-03    -13.4424E+06    -27.4930E+06     7.67378E+06    -15.1043E+06    -27.3884E-03     47.7601E-03    -20.3717E-03     93.3106E-03    -27.4994E-03     47.7036E-03    -20.2740E-03     93.0354E-03
            1160     12.3422E-03     103.915E-03    -11.0886E+06    -28.7486E+06     7.84981E+06    -16.1481E+06    -30.5360E-03     51.3544E-03    -20.8184E-03     104.087E-03    -30.6934E-03     51.3478E-03    -20.7214E-03     103.751E-03
            1161     13.2159E-03     104.008E-03    -10.8554E+06    -37.4010E+06    -1.33199E+06    -18.9403E+06    -34.1257E-03     55.4927E-03    -21.3670E-03     111.026E-03    -34.3462E-03     55.5461E-03    -21.3037E-03     110.592E-03
            1162     14.0866E-03     104.106E-03    -10.3175E+06    -23.6474E+06     384.918E+03    -19.8192E+06    -38.0525E-03     60.1267E-03    -22.0742E-03     120.504E-03    -38.4806E-03     60.4335E-03    -22.0230E-03     119.973E-03
            1163     14.9550E-03     104.219E-03    -8.55931E+06    -23.8661E+06    -5.32407E+06    -19.2810E+06    -43.1399E-03     66.0156E-03    -22.8757E-03     152.070E-03    -44.1996E-03     66.9760E-03    -22.8553E-03     151.444E-03
            1164     15.8178E-03     104.382E-03    -7.31870E+06     27.3717E+06    -19.1024E+06    -15.1713E+06    -46.6045E-03     70.2078E-03    -23.6033E-03     196.363E-03    -49.9343E-03     73.6643E-03    -23.7279E-03     196.273E-03
            1165     16.6826E-03     104.583E-03    -4.19607E+06     122.428E+06     40.1768E+06    -6.51017E+06    -43.8185E-03     68.4098E-03    -24.5913E-03     149.597E-03    -47.2533E-03     72.1480E-03    -24.5618E-03     150.529E-03
            1166     883.605E-06     104.390E-03    -24.8390E+06    -2.74382E+06    -21.3610E+06     6.51711E+06    -18.2412E-03     36.4917E-03    -18.2506E-03     6.07535E-03    -18.3304E-03     36.5450E-03    -18.3174E-03     6.15948E-03
            1167     1.76741E-03     104.396E-03    -29.4941E+06    -9.33891E+06    -22.6374E+06     9.00230E+06    -18.2584E-03     36.5220E-03    -18.2635E-03     11.2977E-03    -18.3596E-03     36.5508E-03    -18.3204E-03     11.4139E-03
            1168     2.65097E-03     104.406E-03    -33.3410E+06    -19.0462E+06    -23.0514E+06     10.2395E+06    -18.2873E-03     36.5699E-03    -18.2827E-03     16.9578E-03    -18.3930E-03     36.5564E-03    -18.3220E-03     17.0899E-03
            1169     3.53475E-03     104.421E-03    -35.2715E+06    -27.5597E+06    -22.2757E+06     10.4973E+06    -18.3422E-03     36.6433E-03    -18.3011E-03     22.8996E-03    -18.4464E-03     36.5889E-03    -18.3213E-03     23.0349E-03
            1170     4.41832E-03     104.441E-03    -35.5279E+06    -32.5455E+06    -20.3582E+06     8.97344E+06    -18.4410E-03     36.7598E-03    -18.3188E-03     29.1602E-03    -18.5421E-03     36.6782E-03    -18.3219E-03     29.2755E-03
            1171     5.30206E-03     104.465E-03    -34.3874E+06    -34.1645E+06    -17.5452E+06     5.87091E+06    -18.6030E-03     36.9424E-03    -18.3394E-03     35.7958E-03    -18.7004E-03     36.8472E-03    -18.3277E-03     35.8703E-03
            1172     6.18553E-03     104.496E-03    -32.3644E+06    -34.0448E+06    -13.9212E+06     2.02701E+06    -18.8683E-03     37.2390E-03    -18.3708E-03     42.8837E-03    -18.9616E-03     37.1369E-03    -18.3441E-03     42.9074E-03
            1173     7.06906E-03     104.532E-03    -29.7531E+06    -32.2539E+06    -9.26472E+06    -1.82200E+06    -19.3076E-03     37.7309E-03    -18.4234E-03     50.5157E-03    -19.3985E-03     37.6285E-03    -18.3798E-03     50.4874E-03
            1174     7.95208E-03     104.575E-03    -26.8080E+06    -30.2942E+06    -4.13581E+06    -5.57448E+06    -20.0114E-03     38.5214E-03    -18.5101E-03     58.7068E-03    -20.1005E-03     38.4198E-03    -18.4480E-03     58.6259E-03
            1175     8.83473E-03     104.625E-03    -23.5598E+06    -28.8509E+06     402.896E+03    -9.32874E+06    -21.0780E-03     39.7209E-03    -18.6429E-03     67.4996E-03    -21.1648E-03     39.6205E-03    -18.5649E-03     67.3631E-03
            1176     9.71638E-03     104.683E-03    -20.1839E+06    -26.4540E+06     4.01659E+06    -13.0417E+06    -22.5918E-03     41.4281E-03    -18.8363E-03     76.9024E-03    -22.6804E-03     41.3395E-03    -18.7486E-03     76.7063E-03
            1177     10.5969E-03     104.750E-03    -17.2055E+06    -27.7235E+06     5.73102E+06    -15.9591E+06    -24.6178E-03     43.7291E-03    -19.1113E-03     86.4021E-03    -24.7100E-03     43.6452E-03    -19.0175E-03     86.1498E-03
            1178     11.4758E-03     104.825E-03    -14.5442E+06    -26.4351E+06     6.81097E+06    -17.1874E+06    -27.3463E-03     46.8331E-03    -19.4869E-03     96.7439E-03    -27.4619E-03     46.7836E-03    -19.3934E-03     96.4454E-03
            1179     12.3523E-03     104.911E-03    -10.6114E+06    -24.9988E+06     8.30942E+06    -18.1080E+06    -30.8862E-03     50.8793E-03    -19.9931E-03     108.388E-03    -31.0482E-03     50.8911E-03    -19.9000E-03     108.029E-03
            1180     13.2259E-03     105.009E-03    -7.26031E+06    -34.6668E+06     1.20326E+06    -18.6618E+06    -34.9467E-03     55.5705E-03    -20.6238E-03     116.180E-03    -35.1624E-03     55.6342E-03    -20.5570E-03     115.746E-03
            1181     14.0961E-03     105.110E-03    -6.19886E+06    -22.0470E+06     2.58399E+06    -19.2603E+06    -39.3902E-03     60.8108E-03    -21.4207E-03     126.732E-03    -39.8189E-03     61.1321E-03    -21.3668E-03     126.194E-03
            1182     14.9614E-03     105.230E-03    -5.43375E+06    -23.0941E+06    -3.64615E+06    -20.1375E+06    -44.5025E-03     66.8159E-03    -22.3133E-03     158.103E-03    -45.5640E-03     67.7870E-03    -22.2902E-03     157.445E-03
            1183     15.8292E-03     105.393E-03    -5.03303E+06     20.6501E+06    -13.1032E+06    -16.3401E+06    -49.0917E-03     72.2773E-03    -23.1857E-03     200.343E-03    -52.4229E-03     75.7025E-03    -23.2738E-03     200.102E-03
            1184     16.6922E-03     105.601E-03    -3.91000E+06     113.111E+06     45.1083E+06    -7.20530E+06    -47.9343E-03     72.2876E-03    -24.3533E-03     151.240E-03    -51.3936E-03     76.0041E-03    -24.2861E-03     151.957E-03
            1185     884.896E-06     105.372E-03    -43.9260E+06    -19.6250E+06    -40.8467E+06     11.2509E+06    -16.9792E-03     33.9854E-03    -17.0063E-03     5.88235E-03    -17.1111E-03     34.0102E-03    -17.1184E-03     6.02762E-03
            1186     1.76950E-03     105.378E-03    -43.1745E+06    -18.9841E+06     -33.278E+06     16.0076E+06    -17.0431E-03     34.0848E-03    -17.0418E-03     11.0017E-03    -17.1832E-03     34.1007E-03    -17.1180E-03     11.2084E-03
            1187     2.65429E-03     105.389E-03    -42.9121E+06    -23.6394E+06    -27.7638E+06     16.4083E+06    -17.1414E-03     34.2375E-03    -17.0961E-03     16.6429E-03    -17.2814E-03     34.2217E-03    -17.1384E-03     16.8548E-03
            1188     3.53880E-03     105.404E-03    -41.5102E+06    -28.8377E+06    -24.4978E+06     13.8003E+06    -17.2801E-03     34.4248E-03    -17.1447E-03     22.6168E-03    -17.4103E-03     34.3762E-03    -17.1652E-03     22.7951E-03
            1189     4.42348E-03     105.423E-03    -38.1632E+06    -30.8968E+06    -21.3235E+06     9.95250E+06    -17.4552E-03     34.6452E-03    -17.1900E-03     28.9219E-03    -17.5704E-03     34.5769E-03    -17.1965E-03     29.0504E-03
            1190     5.30785E-03     105.448E-03    -34.2191E+06    -31.0369E+06    -17.8005E+06     5.86059E+06    -17.6852E-03     34.9237E-03    -17.2385E-03     35.6302E-03    -17.7857E-03     34.8441E-03    -17.2329E-03     35.7053E-03
            1191     6.19231E-03     105.479E-03    -30.6920E+06    -29.7531E+06    -13.7043E+06     1.79728E+06    -18.0207E-03     35.3194E-03    -17.2987E-03     42.8597E-03    -18.1118E-03     35.2356E-03    -17.2796E-03     42.8814E-03
            1192     7.07635E-03     105.515E-03    -27.6145E+06    -27.7155E+06    -8.95566E+06    -2.27514E+06    -18.5325E-03     35.9139E-03    -17.3813E-03     50.7167E-03    -18.6192E-03     35.8300E-03    -17.3459E-03     50.6839E-03
            1193     7.96024E-03     105.559E-03    -24.6894E+06    -25.3474E+06    -3.93227E+06    -6.10058E+06    -19.3024E-03     36.7998E-03    -17.4974E-03     59.2431E-03    -19.3875E-03     36.7186E-03    -17.4445E-03     59.1574E-03
            1194     8.84335E-03     105.610E-03    -21.7343E+06    -23.2003E+06     760.301E+03    -10.2525E+06    -20.4379E-03     38.0980E-03    -17.6601E-03     68.5311E-03    -20.5229E-03     38.0213E-03    -17.5911E-03     68.3855E-03
            1195     9.72571E-03     105.670E-03    -19.0439E+06    -21.6558E+06     4.25334E+06    -13.7536E+06    -22.0086E-03     39.8917E-03    -17.8831E-03     78.5279E-03    -22.0967E-03     39.8230E-03    -17.8028E-03     78.3265E-03
            1196     10.6068E-03     105.739E-03    -17.0180E+06    -23.7489E+06     5.90999E+06    -16.2420E+06    -24.1782E-03     42.3674E-03    -18.1892E-03     88.7802E-03    -24.2729E-03     42.3002E-03    -18.1005E-03     88.5288E-03
            1197     11.4860E-03     105.817E-03    -14.7088E+06    -22.9575E+06     7.04348E+06    -18.6145E+06    -27.1706E-03     45.7723E-03    -18.6017E-03     100.258E-03    -27.2901E-03     45.7377E-03    -18.5119E-03     99.9460E-03
            1198     12.3626E-03     105.907E-03    -11.8471E+06    -21.0229E+06     8.52424E+06    -21.4025E+06    -30.9272E-03     50.0783E-03    -19.1510E-03     113.072E-03    -31.1000E-03     50.1098E-03    -19.0607E-03     112.675E-03
            1199     13.2364E-03     106.008E-03    -7.35375E+06    -35.6171E+06     1.40997E+06    -21.7529E+06    -35.4313E-03     55.2702E-03    -19.8389E-03     122.227E-03    -35.6500E-03     55.3326E-03    -19.7696E-03     121.754E-03
            1200     14.1060E-03     106.116E-03    -4.62205E+06    -21.0328E+06     3.77057E+06    -19.0476E+06    -40.2485E-03     60.9498E-03    -20.7012E-03     132.823E-03    -40.6783E-03     61.2780E-03    -20.6452E-03     132.283E-03
            1201     14.9744E-03     106.239E-03    -5.33387E+06    -20.1308E+06    -899.188E+03    -19.5916E+06    -46.5145E-03     68.2164E-03    -21.7019E-03     162.717E-03    -47.5921E-03     69.2069E-03    -21.6695E-03     162.020E-03
            1202     15.8345E-03     106.408E-03    -6.11459E+06     12.9102E+06    -9.99935E+06    -17.3493E+06    -52.6410E-03     75.3985E-03    -22.7574E-03     203.117E-03    -55.9480E-03     78.7593E-03    -22.8173E-03     202.667E-03
            1203     16.6926E-03     106.619E-03    -6.17248E+06     102.853E+06     46.3237E+06    -7.78315E+06    -51.9488E-03     76.0756E-03    -24.1268E-03     152.188E-03    -55.4082E-03     79.7443E-03    -24.0354E-03     152.662E-03
            1204     885.562E-06     106.352E-03    -73.8744E+06    -37.8275E+06    -73.7901E+06     7.29474E+06    -15.9243E-03     31.8650E-03    -15.9408E-03     5.68390E-03    -16.1318E-03     31.8900E-03    -16.1477E-03     5.77805E-03
            1205     1.77142E-03     106.358E-03    -63.0857E+06    -31.4280E+06    -58.0570E+06     12.7006E+06    -15.9639E-03     31.9425E-03    -15.9786E-03     10.6273E-03    -16.1496E-03     31.9609E-03    -16.1318E-03     10.7913E-03
            1206     2.65698E-03     106.369E-03    -51.2609E+06    -28.5589E+06    -41.1363E+06     14.6783E+06    -16.0806E-03     32.1249E-03    -16.0443E-03     16.1686E-03    -16.2358E-03     32.1160E-03    -16.1343E-03     16.3582E-03
            1207     3.54261E-03     106.384E-03    -42.1413E+06    -28.5100E+06    -29.7518E+06     12.4926E+06    -16.2775E-03     32.3865E-03    -16.1090E-03     22.1491E-03    -16.4037E-03     32.3481E-03    -16.1553E-03     22.3105E-03
            1208     4.42788E-03     106.404E-03    -36.4878E+06    -28.5832E+06    -23.6299E+06     8.65126E+06    -16.5185E-03     32.6882E-03    -16.1697E-03     28.4846E-03    -16.6252E-03     32.6324E-03    -16.1935E-03     28.5965E-03
            1209     5.31329E-03     106.429E-03    -32.7656E+06    -27.5693E+06    -19.2135E+06     4.73363E+06    -16.8115E-03     33.0485E-03    -16.2369E-03     35.2289E-03    -16.9076E-03     32.9860E-03    -16.2455E-03     35.2899E-03
            1210     6.19831E-03     106.460E-03    -29.3517E+06    -25.3078E+06    -14.5294E+06     558.579E+03    -17.2083E-03     33.5276E-03    -16.3193E-03     42.5443E-03    -17.2977E-03     33.4651E-03    -16.3127E-03     42.5507E-03
            1211     7.08327E-03     106.497E-03    -25.5367E+06    -22.8028E+06    -9.26737E+06    -3.63118E+06    -17.7718E-03     34.1969E-03    -16.4251E-03     50.5735E-03    -17.8543E-03     34.1345E-03    -16.4013E-03     50.5242E-03
            1212     7.96762E-03     106.541E-03    -21.7135E+06    -20.8070E+06    -3.92088E+06    -7.23196E+06    -18.5843E-03     35.1477E-03    -16.5634E-03     59.4027E-03    -18.6602E-03     35.0840E-03    -16.5214E-03     59.3041E-03
            1213     8.85156E-03     106.594E-03    -19.1526E+06    -17.7892E+06     1.13198E+06    -10.2622E+06    -19.7304E-03     36.4761E-03    -16.7456E-03     69.1381E-03    -19.8094E-03     36.4205E-03    -16.6864E-03     68.9951E-03
            1214     9.73444E-03     106.655E-03    -17.9963E+06    -17.2055E+06     4.72517E+06    -13.1869E+06    -21.3504E-03     38.3392E-03    -16.9888E-03     79.7108E-03    -21.4379E-03     38.2881E-03    -16.9142E-03     79.5206E-03
            1215     10.6162E-03     106.726E-03    -16.3453E+06    -18.6519E+06     6.72019E+06    -16.3912E+06    -23.6391E-03     40.9526E-03    -17.3136E-03     90.9092E-03    -23.7356E-03     40.9055E-03    -17.2292E-03     90.6610E-03
            1216     11.4958E-03     106.807E-03    -13.6968E+06    -18.3458E+06     8.18902E+06    -19.8079E+06    -26.6331E-03     44.3760E-03    -17.7429E-03     103.511E-03    -26.7511E-03     44.3566E-03    -17.6555E-03     103.190E-03
            1217     12.3734E-03     106.900E-03    -11.6833E+06    -17.0310E+06     9.38416E+06    -22.0599E+06    -30.6443E-03     48.9525E-03    -18.3082E-03     117.693E-03    -30.8185E-03     48.9978E-03    -18.2197E-03     117.295E-03
            1218     13.2475E-03     107.007E-03    -11.7734E+06    -34.5674E+06     961.983E+03    -23.7551E+06    -35.7510E-03     54.7863E-03    -19.0353E-03     128.153E-03    -35.9910E-03     54.8594E-03    -18.9633E-03     127.657E-03
            1219     14.1175E-03     107.121E-03    -9.80670E+06    -21.9975E+06     2.63156E+06    -22.9456E+06    -41.4724E-03     61.4434E-03    -19.9710E-03     138.606E-03    -41.9259E-03     61.7770E-03    -19.9117E-03     138.007E-03
            1220     14.9810E-03     107.249E-03    -4.90602E+06    -18.3892E+06     1.86191E+06    -20.6558E+06    -49.4156E-03     70.5263E-03    -21.1107E-03     169.161E-03    -50.5171E-03     71.5407E-03    -21.0677E-03     168.386E-03
            1221     15.8420E-03     107.428E-03    -3.59000E+06      5.7515E+06    -10.1522E+06    -16.1681E+06    -55.8835E-03     78.2114E-03    -22.3279E-03     208.241E-03    -59.1240E-03     81.4895E-03    -22.3818E-03     207.639E-03
            1222     16.6992E-03     107.640E-03    -3.45754E+06     91.9328E+06     43.2719E+06    -7.04956E+06    -55.7627E-03     79.6275E-03    -23.8648E-03     158.127E-03    -59.2122E-03     83.2664E-03    -23.7767E-03     158.403E-03
            1223     886.324E-06     107.330E-03    -93.5599E+06    -44.8736E+06    -93.8061E+06    -474.619E+03    -15.1827E-03     30.3751E-03    -15.1924E-03     5.49643E-03    -15.4494E-03     30.4224E-03    -15.4607E-03     5.49021E-03
            1224     1.77246E-03     107.336E-03    -84.2545E+06    -39.0233E+06    -82.8588E+06     681.391E+03    -15.1726E-03     30.3753E-03    -15.2028E-03     10.2444E-03    -15.4172E-03     30.4225E-03    -15.4383E-03     10.2530E-03
            1225     2.65897E-03     107.347E-03    -70.6616E+06    -32.4674E+06    -68.2034E+06     2.32084E+06    -15.2106E-03     30.4350E-03    -15.2244E-03     15.5286E-03    -15.4180E-03     30.4740E-03    -15.4158E-03     15.5585E-03
            1226     3.54530E-03     107.362E-03    -56.5204E+06    -28.6695E+06    -53.6031E+06     2.81635E+06    -15.3461E-03     30.6059E-03    -15.2598E-03     21.2888E-03    -15.5094E-03     30.6222E-03    -15.4042E-03     21.3252E-03
            1227     4.43172E-03     107.383E-03    -44.2578E+06    -26.8942E+06    -39.3703E+06     1.95841E+06    -15.5968E-03     30.9173E-03    -15.3205E-03     27.5397E-03    -15.7220E-03     30.9041E-03    -15.4142E-03     27.5650E-03
            1228     5.31764E-03     107.408E-03    -34.3185E+06    -24.5779E+06    -26.6486E+06    -89.4754E+03    -15.9616E-03     31.3651E-03    -15.4034E-03     34.3325E-03    -16.0590E-03     31.3306E-03    -15.4513E-03     34.3313E-03
            1229     6.20352E-03     107.439E-03    -27.1292E+06    -21.4929E+06    -17.2190E+06    -2.51065E+06    -16.4419E-03     31.9434E-03    -15.5015E-03     41.7450E-03    -16.5217E-03     31.9005E-03    -15.5171E-03     41.7121E-03
            1230     7.08890E-03     107.477E-03    -23.3337E+06    -18.6158E+06    -10.4426E+06    -4.96966E+06    -17.0581E-03     32.6795E-03    -15.6214E-03     49.8830E-03    -17.1336E-03     32.6363E-03    -15.6128E-03     49.8172E-03
            1231     7.97411E-03     107.522E-03    -21.5644E+06    -16.2261E+06    -5.09273E+06    -7.94137E+06    -17.8728E-03     33.6442E-03    -15.7714E-03     58.9127E-03    -17.9521E-03     33.6041E-03    -15.7420E-03     58.8063E-03
            1232     8.85850E-03     107.575E-03    -19.2138E+06    -13.7467E+06     336.726E+03    -10.7562E+06    -18.9930E-03     34.9556E-03    -15.9626E-03     68.9784E-03    -19.0753E-03     34.9199E-03    -15.9131E-03     68.8314E-03
            1233     9.74230E-03     107.638E-03    -16.2121E+06    -13.1379E+06     5.38569E+06    -12.7599E+06    -20.6190E-03     36.8313E-03    -16.2123E-03     80.1724E-03    -20.7017E-03     36.7942E-03    -16.1428E-03     79.9916E-03
            1234     10.6245E-03     107.711E-03    -14.5038E+06    -12.8635E+06     8.41041E+06    -15.9138E+06    -22.8287E-03     39.3637E-03    -16.5351E-03     92.2984E-03    -22.9221E-03     39.3356E-03    -16.4533E-03     92.0627E-03
            1235     11.5052E-03     107.795E-03    -13.9978E+06    -13.2090E+06     9.66865E+06    -19.6190E+06    -25.8427E-03     42.7998E-03    -16.9572E-03     105.961E-03    -25.9646E-03     42.7973E-03    -16.8694E-03     105.652E-03
            1236     12.3834E-03     107.892E-03    -13.5486E+06    -14.2699E+06     10.1269E+06    -21.3882E+06    -30.2792E-03     47.8037E-03    -17.5246E-03     121.749E-03    -30.4596E-03     47.8563E-03    -17.4336E-03     121.368E-03
            1237     13.2580E-03     108.006E-03    -12.1346E+06    -28.8730E+06     4.77789E+06    -23.5968E+06    -35.9193E-03     54.2036E-03    -18.2843E-03     133.566E-03    -36.1663E-03     54.2916E-03    -18.2009E-03     133.079E-03
            1238     14.1270E-03     108.125E-03    -9.08078E+06    -21.0021E+06     4.68626E+06    -27.1866E+06    -42.5748E-03     61.8483E-03    -19.2735E-03     145.614E-03    -43.0285E-03     62.1823E-03    -19.2064E-03     144.951E-03
            1239     14.9923E-03     108.263E-03    -5.10483E+06    -23.1342E+06     2.69373E+06     -24.562E+06    -51.1550E-03     71.6530E-03    -20.4980E-03     178.499E-03    -52.2441E-03     72.6349E-03    -20.4436E-03     177.643E-03
            1240     15.8482E-03     108.449E-03    -1.65108E+06    -2.33940E+06    -14.0063E+06    -15.5658E+06    -58.6555E-03     80.4542E-03    -21.7987E-03     215.832E-03    -61.7837E-03     83.6100E-03    -21.8630E-03     215.073E-03
            1241     16.7050E-03     108.660E-03    -2.02327E+06     81.7548E+06     38.2217E+06    -6.07717E+06    -61.0852E-03     84.6097E-03    -23.5244E-03     166.150E-03    -64.5272E-03     88.2254E-03    -23.4489E-03     166.153E-03
            1242     886.540E-06     108.307E-03    -82.2143E+06    -40.7028E+06    -81.3857E+06    -3.84098E+06    -14.8057E-03     29.6229E-03    -14.8173E-03     5.25955E-03    -15.0397E-03     29.6567E-03    -15.0460E-03     5.20975E-03
            1243     1.77333E-03     108.313E-03    -79.9049E+06    -37.0803E+06    -77.6807E+06    -6.53260E+06    -14.8093E-03     29.6249E-03    -14.8156E-03     9.79228E-03    -15.0424E-03     29.6680E-03    -15.0344E-03     9.70757E-03
            1244     2.65987E-03     108.324E-03    -75.3189E+06    -31.7040E+06    -72.3507E+06    -8.20629E+06    -14.8022E-03     29.6172E-03    -14.8151E-03     14.7546E-03    -15.0280E-03     29.6729E-03    -15.0216E-03     14.6482E-03
            1245     3.54675E-03     108.339E-03    -67.8404E+06    -27.6519E+06    -64.6180E+06    -8.94682E+06    -14.8211E-03     29.6396E-03    -14.8185E-03     20.0898E-03    -15.0267E-03     29.6936E-03    -15.0031E-03     19.9738E-03
            1246     4.43351E-03     108.360E-03    -58.0042E+06    -25.2581E+06    -54.2102E+06    -9.47299E+06    -14.9298E-03     29.7669E-03    -14.8371E-03     25.9530E-03    -15.1048E-03     29.8035E-03    -14.9874E-03     25.8302E-03
            1247     5.32045E-03     108.385E-03    -47.3875E+06    -22.0762E+06    -43.1658E+06    -10.0906E+06    -15.1993E-03     30.0728E-03    -14.8735E-03     32.5286E-03    -15.3418E-03     30.0939E-03    -14.9886E-03     32.3978E-03
            1248     6.20689E-03     108.417E-03    -37.0289E+06    -19.4976E+06    -31.4854E+06    -10.4149E+06    -15.6736E-03     30.6189E-03    -14.9453E-03     39.9202E-03    -15.7852E-03     30.6211E-03    -15.0208E-03     39.7850E-03
            1249     7.09310E-03     108.456E-03    -27.4291E+06    -16.9372E+06    -18.5716E+06    -9.80582E+06    -16.3436E-03     31.4075E-03    -15.0640E-03     48.1548E-03    -16.4300E-03     31.3903E-03    -15.0925E-03     48.0268E-03
            1250     7.97857E-03     108.501E-03    -20.2310E+06    -12.6742E+06    -7.05155E+06    -9.93450E+06    -17.2014E-03     32.4207E-03    -15.2192E-03     57.3400E-03    -17.2759E-03     32.3988E-03    -15.2068E-03     57.2088E-03
            1251     8.86375E-03     108.556E-03    -16.7448E+06    -10.5015E+06     716.326E+03    -11.2268E+06    -18.3233E-03     33.7337E-03    -15.4104E-03     67.6375E-03    -18.3973E-03     33.7088E-03    -15.3673E-03     67.4864E-03
            1252     9.74790E-03     108.620E-03    -15.7110E+06    -10.2988E+06     5.64116E+06    -12.4416E+06    -19.8072E-03     35.4548E-03    -15.6476E-03     79.2836E-03    -19.8888E-03     35.4278E-03    -15.5817E-03     79.1109E-03
            1253     10.6312E-03     108.695E-03    -14.6522E+06    -6.65214E+06     10.0920E+06    -14.9661E+06    -21.8011E-03     37.7462E-03    -15.9451E-03     92.0411E-03    -21.9008E-03     37.7410E-03    -15.8638E-03     91.8244E-03
            1254     11.5129E-03     108.782E-03    -13.2853E+06    -8.38856E+06     12.8398E+06    -18.3482E+06    -24.9864E-03     41.3316E-03    -16.3453E-03     107.003E-03    -25.1073E-03     41.3385E-03    -16.2496E-03     106.720E-03
            1255     12.3918E-03     108.884E-03    -12.0490E+06    -10.8724E+06     14.5428E+06    -20.1376E+06    -29.6718E-03     46.5730E-03    -16.9012E-03     124.605E-03    -29.8424E-03     46.6203E-03    -16.7952E-03     124.253E-03
            1256     13.2666E-03     109.002E-03    -10.5974E+06    -21.3532E+06     11.3428E+06    -24.2284E+06    -35.5342E-03     53.1895E-03    -17.6553E-03     138.541E-03    -35.7762E-03     53.2857E-03    -17.5523E-03     138.060E-03
            1257     14.1373E-03     109.130E-03    -8.73725E+06    -16.9980E+06     9.43428E+06    -28.4437E+06    -42.7901E-03     61.4367E-03    -18.6466E-03     152.827E-03    -43.2379E-03     61.7665E-03    -18.5621E-03     152.155E-03
            1258     15.0000E-03     109.276E-03    -8.02995E+06    -28.3384E+06     4.53265E+06    -27.0272E+06    -51.0409E-03     70.9180E-03    -19.8771E-03     185.645E-03    -52.0735E-03     71.8090E-03    -19.8017E-03     184.764E-03
            1259     15.8633E-03     109.468E-03    -8.72720E+06    -15.4821E+06    -17.8230E+06    -19.3462E+06    -61.1700E-03     82.3762E-03    -21.2062E-03     226.402E-03    -64.1751E-03     85.3489E-03    -21.2603E-03     225.404E-03
            1260     16.7112E-03     109.694E-03    -5.04818E+06     71.0156E+06     35.2754E+06    -7.23150E+06    -68.2315E-03     91.3620E-03    -23.1305E-03     178.926E-03    -71.7026E-03     94.9674E-03    -23.0498E-03     178.529E-03
            1261     886.850E-06     109.284E-03    -59.4135E+06    -32.7384E+06    -58.6675E+06    -4.12648E+06    -14.7934E-03     29.5834E-03    -14.7900E-03     4.89397E-03    -14.9579E-03     29.5909E-03    -14.9497E-03     4.84030E-03
            1262     1.77343E-03     109.290E-03    -57.9003E+06    -29.7121E+06    -54.6718E+06    -7.61484E+06    -14.8564E-03     29.6707E-03    -14.8142E-03     9.10882E-03    -15.0237E-03     29.6854E-03    -14.9606E-03     9.00977E-03
            1263     2.66022E-03     109.301E-03    -55.7396E+06    -26.2395E+06    -49.2178E+06    -10.7032E+06    -14.9154E-03     29.7684E-03    -14.8530E-03     13.6866E-03    -15.0849E-03     29.7896E-03    -14.9802E-03     13.5473E-03
            1264     3.54676E-03     109.316E-03    -53.6611E+06    -23.2563E+06    -44.9852E+06    -12.9994E+06    -14.9459E-03     29.8262E-03    -14.8804E-03     18.5586E-03    -15.1156E-03     29.8533E-03    -14.9938E-03     18.3893E-03
            1265     4.43357E-03     109.336E-03    -51.4999E+06    -21.1454E+06    -42.4922E+06    -15.1985E+06    -14.9674E-03     29.8573E-03    -14.8899E-03     23.8536E-03    -15.1331E-03     29.8884E-03    -14.9970E-03     23.6557E-03
            1266     5.32030E-03     109.362E-03    -48.1425E+06    -18.6004E+06    -39.1021E+06    -17.0497E+06    -15.0549E-03     29.9515E-03    -14.8967E-03     29.7925E-03    -15.2126E-03     29.9857E-03    -14.9954E-03     29.5706E-03
            1267     6.20731E-03     109.394E-03    -43.0221E+06    -16.9962E+06    -32.5980E+06    -18.2676E+06    -15.3032E-03     30.2293E-03    -14.9261E-03     36.6168E-03    -15.4473E-03     30.2548E-03    -15.0021E-03     36.3791E-03
            1268     7.09388E-03     109.433E-03    -35.8375E+06    -16.4345E+06    -24.1683E+06    -18.3173E+06    -15.7795E-03     30.7666E-03    -14.9870E-03     44.5237E-03    -15.9010E-03     30.7726E-03    -15.0321E-03     44.2851E-03
            1269     7.98025E-03     109.480E-03    -27.0733E+06    -11.8021E+06    -15.2617E+06    -16.8353E+06    -16.5201E-03     31.5981E-03    -15.0781E-03     53.6821E-03    -16.6180E-03     31.6023E-03    -15.0980E-03     53.4618E-03
            1270     8.86565E-03     109.535E-03    -18.9634E+06    -10.0281E+06    -4.85012E+06    -14.4538E+06    -17.5913E-03     32.8199E-03    -15.2286E-03     64.2406E-03    -17.6679E-03     32.8077E-03    -15.2108E-03     64.0493E-03
            1271     9.75049E-03     109.600E-03    -13.0420E+06    -8.36063E+06     6.00485E+06    -13.2025E+06    -18.9821E-03     34.4220E-03    -15.4399E-03     76.1763E-03    -19.0509E-03     34.3974E-03    -15.3789E-03     75.9971E-03
            1272     10.6344E-03     109.677E-03    -9.94519E+06    -2.21505E+06     14.1504E+06    -14.0028E+06    -20.9209E-03     36.6244E-03    -15.7036E-03     89.3984E-03    -21.0034E-03     36.6229E-03    -15.6152E-03     89.2003E-03
            1273     11.5170E-03     109.766E-03    -9.83407E+06    -4.00201E+06     18.8107E+06    -15.6066E+06    -24.0170E-03     40.0857E-03    -16.0688E-03     105.635E-03    -24.1242E-03     40.0894E-03    -15.9547E-03     105.397E-03
            1274     12.3966E-03     109.873E-03    -10.4759E+06    -6.34791E+06     20.9376E+06    -18.3200E+06    -28.4927E-03     45.0669E-03    -16.5742E-03     124.850E-03    -28.6503E-03     45.1042E-03    -16.4451E-03     124.538E-03
            1275     13.2734E-03     109.997E-03    -11.5006E+06    -13.2198E+06     19.0992E+06    -22.1235E+06    -34.4184E-03     51.6905E-03    -17.2721E-03     141.144E-03    -34.6578E-03     51.7872E-03    -17.1408E-03     140.713E-03
            1276     14.1440E-03     110.133E-03    -14.7321E+06    -11.1004E+06     15.2660E+06    -25.8999E+06    -41.8197E-03     60.0255E-03    -18.2058E-03     157.701E-03    -42.2673E-03     60.3378E-03    -18.0920E-03     157.089E-03
            1277     15.0105E-03     110.288E-03    -15.5725E+06    -27.9700E+06     8.87719E+06    -29.6351E+06    -51.2591E-03     70.6791E-03    -19.4200E-03     189.041E-03    -52.2477E-03     71.4885E-03    -19.3125E-03     188.122E-03
            1278     15.8697E-03     110.482E-03    -11.5906E+06    -28.3434E+06    -10.3529E+06    -24.7594E+06    -62.5184E-03     83.3241E-03    -20.8057E-03     232.680E-03    -65.2811E-03     85.9765E-03    -20.7996E-03     231.487E-03
            1279     16.7230E-03     110.735E-03    -8.35103E+06     54.1423E+06     37.0193E+06    -10.5041E+06    -73.2072E-03     96.0302E-03    -22.8230E-03     193.975E-03    -76.6289E-03     99.5118E-03    -22.7043E-03     193.191E-03
            1280     886.386E-06     110.260E-03    -37.2013E+06    -24.4527E+06    -35.9680E+06    -4.17682E+06    -15.2661E-03     30.5155E-03    -15.2495E-03     4.35941E-03    -15.3645E-03     30.4994E-03    -15.3399E-03     4.30482E-03
            1281     1.77293E-03     110.267E-03    -36.0626E+06    -21.8129E+06    -32.2831E+06    -7.32886E+06    -15.3723E-03     30.6661E-03    -15.2938E-03     8.10043E-03    -15.4743E-03     30.6562E-03    -15.3713E-03     8.00454E-03
            1282     2.65910E-03     110.278E-03    -34.8487E+06    -19.6358E+06    -28.0816E+06    -9.95827E+06    -15.5135E-03     30.8722E-03    -15.3587E-03     12.1338E-03    -15.6189E-03     30.8656E-03    -15.4201E-03     12.0033E-03
            1283     3.54539E-03     110.293E-03    -33.1578E+06    -17.2518E+06    -23.7262E+06    -12.3162E+06    -15.6657E-03     31.0964E-03    -15.4308E-03     16.3982E-03    -15.7726E-03     31.0932E-03    -15.4763E-03     16.2365E-03
            1284     4.43139E-03     110.313E-03    -31.1063E+06    -15.0871E+06    -19.0965E+06    -14.8305E+06    -15.7998E-03     31.3036E-03    -15.5038E-03     21.0060E-03    -15.9067E-03     31.3018E-03    -15.5323E-03     20.8111E-03
            1285     5.31750E-03     110.339E-03    -29.6966E+06    -13.5993E+06    -14.9624E+06    -17.1362E+06    -15.8856E-03     31.4539E-03    -15.5683E-03     26.1355E-03    -15.9940E-03     31.4519E-03    -15.5804E-03     25.9103E-03
            1286     6.20343E-03     110.371E-03    -29.4155E+06    -12.8037E+06    -12.5288E+06    -18.7967E+06    -15.9443E-03     31.5586E-03    -15.6143E-03     32.0130E-03    -16.0564E-03     31.5570E-03    -15.6157E-03     31.7659E-03
            1287     7.08974E-03     110.410E-03    -29.4829E+06    -13.0902E+06    -11.4359E+06    -20.6289E+06    -16.0684E-03     31.7144E-03    -15.6460E-03     38.9193E-03    -16.1824E-03     31.7103E-03    -15.6414E-03     38.6484E-03
            1288     7.97588E-03     110.457E-03    -28.0108E+06    -10.9925E+06    -9.98070E+06    -21.6094E+06    -16.3798E-03     32.0552E-03    -15.6755E-03     47.2286E-03    -16.4920E-03     32.0579E-03    -15.6688E-03     46.9448E-03
            1289     8.86214E-03     110.513E-03    -23.4911E+06    -11.2878E+06    -5.17819E+06    -20.2337E+06    -17.0091E-03     32.7479E-03    -15.7387E-03     57.2728E-03    -17.1060E-03     32.7363E-03    -15.7142E-03     57.0064E-03
            1290     9.74752E-03     110.580E-03    -16.8140E+06    -8.13541E+06     2.74334E+06    -18.0703E+06    -18.0911E-03     33.9380E-03    -15.8470E-03     69.2138E-03    -18.1724E-03     33.9228E-03    -15.7971E-03     68.9738E-03
            1291     10.6320E-03     110.658E-03    -10.6104E+06    -1.61392E+06     13.6575E+06    -15.7067E+06    -19.9837E-03     36.0181E-03    -16.0344E-03     83.2959E-03    -20.0644E-03     36.0158E-03    -15.9484E-03     83.0812E-03
            1292     11.5145E-03     110.749E-03    -6.58803E+06    -2.18151E+06     23.6952E+06    -13.5920E+06    -22.9225E-03     39.2609E-03    -16.3384E-03     100.491E-03    -23.0107E-03     39.2494E-03    -16.2072E-03     100.290E-03
            1293     12.3959E-03     110.859E-03    -6.53289E+06    -1.98808E+06     28.7159E+06    -13.6309E+06    -27.0843E-03     43.8507E-03    -16.7664E-03     120.753E-03    -27.2150E-03     43.8681E-03    -16.6105E-03     120.521E-03
            1294     13.2731E-03     110.989E-03    -9.64590E+06    -6.16575E+06     28.8063E+06    -16.3651E+06    -32.5936E-03     49.9625E-03    -17.3690E-03     139.130E-03    -32.8056E-03     50.0353E-03    -17.2020E-03     138.804E-03
            1295     14.1467E-03     111.133E-03    -10.9705E+06    -2.82357E+06     26.3086E+06    -20.7269E+06    -40.3412E-03     58.5429E-03    -18.2017E-03     157.565E-03    -40.7274E-03     58.8046E-03    -18.0501E-03     157.060E-03
            1296     15.0133E-03     111.295E-03    -11.3118E+06    -18.2136E+06     20.9399E+06    -28.5634E+06    -51.2915E-03     70.6603E-03    -19.3689E-03     190.166E-03    -52.1607E-03     71.3652E-03    -19.2213E-03     189.279E-03
            1297     15.8695E-03     111.505E-03    -9.03430E+06    -41.4756E+06    -1.12112E+06    -28.7080E+06    -63.4980E-03     84.2771E-03    -20.7792E-03     235.705E-03    -65.8576E-03     86.4621E-03    -20.7115E-03     234.389E-03
            1298     16.7232E-03     111.755E-03    -2.94711E+06     31.7611E+06     38.7068E+06    -12.4642E+06    -74.8613E-03     97.6346E-03    -22.7733E-03     212.503E-03    -78.1824E-03     100.951E-03    -22.6215E-03     211.459E-03
            1299     885.630E-06     111.239E-03    -15.6568E+06    -16.6961E+06    -14.7087E+06    -3.53963E+06    -16.4341E-03     32.8318E-03    -16.3976E-03     3.62951E-03    -16.4670E-03     32.7923E-03    -16.4243E-03     3.58276E-03
            1300     1.77096E-03     111.245E-03    -15.6091E+06    -14.8941E+06    -12.7779E+06     -6.2278E+06    -16.5752E-03     33.0323E-03    -16.4571E-03     6.71145E-03    -16.6134E-03     32.9991E-03    -16.4768E-03     6.62904E-03
            1301     2.65638E-03     111.257E-03    -14.8125E+06    -13.3272E+06    -9.15946E+06    -8.81830E+06    -16.8046E-03     33.3547E-03    -16.5502E-03     10.0120E-03    -16.8465E-03     33.3231E-03    -16.5552E-03     9.89507E-03
            1302     3.54137E-03     111.272E-03    -13.5975E+06    -11.4711E+06    -4.41345E+06    -11.1751E+06    -17.0903E-03     33.7622E-03    -16.6719E-03     13.4709E-03    -17.1361E-03     33.7315E-03    -16.6576E-03     13.3223E-03
            1303     4.42625E-03     111.293E-03    -12.9133E+06    -9.72263E+06     -18.674E+03    -12.8817E+06    -17.3699E-03     34.1771E-03    -16.8072E-03     17.2025E-03    -17.4217E-03     34.1483E-03    -16.7744E-03     17.0305E-03
            1304     5.31074E-03     111.318E-03    -12.9020E+06    -8.77214E+06     2.71577E+06    -14.2046E+06    -17.5869E-03     34.5239E-03    -16.9370E-03     21.3703E-03    -17.6446E-03     34.4964E-03    -16.8920E-03     21.1799E-03
            1305     6.19532E-03     111.350E-03    -12.7048E+06    -8.34914E+06     4.96837E+06    -15.6398E+06    -17.7010E-03     34.7530E-03    -17.0520E-03     26.1579E-03    -17.7623E-03     34.7247E-03    -16.9966E-03     25.9479E-03
            1306     7.07969E-03     111.389E-03    -12.3704E+06    -8.05349E+06     8.17850E+06    -17.3531E+06    -17.7180E-03     34.8671E-03    -17.1491E-03     31.7641E-03    -17.7834E-03     34.8358E-03    -17.0786E-03     31.5312E-03
            1307     7.96445E-03     111.436E-03    -13.3910E+06    -8.11526E+06     10.3234E+06    -18.6499E+06    -17.6886E-03     34.9062E-03    -17.2175E-03     38.5293E-03    -17.7629E-03     34.8737E-03    -17.1347E-03     38.2793E-03
            1308     8.84915E-03     111.492E-03    -15.2902E+06    -9.56972E+06     9.91628E+06    -19.7981E+06    -17.7044E-03     34.9583E-03    -17.2538E-03     46.8848E-03    -17.7861E-03     34.9225E-03    -17.1682E-03     46.6200E-03
            1309     9.73450E-03     111.558E-03    -15.6638E+06    -7.89727E+06     10.3619E+06    -20.1357E+06    -18.0411E-03     35.3209E-03    -17.2798E-03     57.4298E-03    -18.1284E-03     35.2941E-03    -17.1938E-03     57.1610E-03
            1310     10.6196E-03     111.637E-03    -13.0865E+06    -3.36634E+06     16.2514E+06    -18.4463E+06    -19.1499E-03     36.5015E-03    -17.3516E-03     71.0467E-03    -19.2411E-03     36.4870E-03    -17.2465E-03     70.7987E-03
            1311     11.5034E-03     111.732E-03    -7.92645E+06    -2.81521E+06     26.3021E+06    -15.9476E+06    -21.5540E-03     39.0807E-03    -17.5267E-03     88.7187E-03    -21.6413E-03     39.0537E-03    -17.3796E-03     88.4966E-03
            1312     12.3841E-03     111.844E-03    -2.24546E+06    -4.14747E+06     35.6124E+06    -11.2137E+06    -25.3192E-03     43.1521E-03    -17.8329E-03     110.095E-03    -25.4100E-03     43.1172E-03    -17.6456E-03     109.915E-03
            1313     13.2631E-03     111.978E-03    -652.582E+03     455.719E+03     41.1262E+06    -9.40385E+06    -30.6435E-03     48.9479E-03    -18.3044E-03     130.041E-03    -30.7903E-03     48.9750E-03    -18.0985E-03     129.839E-03
            1314     14.1381E-03     112.127E-03    -4.24265E+06     6.34473E+06     39.9502E+06    -14.4505E+06    -38.3909E-03     57.4027E-03    -19.0118E-03     150.875E-03    -38.6875E-03     57.5916E-03    -18.8151E-03     150.504E-03
            1315     15.0039E-03     112.304E-03    -8.48311E+06    -5.02059E+06     34.7876E+06    -21.0948E+06    -48.8183E-03     68.8596E-03    -20.0413E-03     185.288E-03    -49.4982E-03     69.3916E-03    -19.8477E-03     184.589E-03
            1316     15.8684E-03     112.517E-03    -14.0871E+06    -41.9704E+06     7.75921E+06    -27.4421E+06    -61.2545E-03     82.5591E-03    -21.3046E-03     233.980E-03    -63.0728E-03     84.1575E-03    -21.1846E-03     232.746E-03
            1317     16.7167E-03     112.790E-03    -14.1514E+06     6.57745E+06     18.5494E+06    -22.9238E+06    -71.3651E-03     94.3419E-03    -22.9768E-03     230.347E-03    -74.4443E-03     97.3440E-03    -22.8731E-03     229.111E-03
            1318     883.761E-06     112.220E-03     2.47489E+06    -10.3518E+06     2.91618E+06    -2.76682E+06    -18.5128E-03     36.9611E-03    -18.4483E-03     2.68087E-03    -18.4900E-03     36.9014E-03    -18.4223E-03     2.64360E-03
            1319     1.76761E-03     112.227E-03     2.46067E+06    -8.88840E+06     4.52740E+06    -5.04185E+06    -18.7144E-03     37.2528E-03    -18.5384E-03     4.92814E-03    -18.6962E-03     37.1981E-03    -18.5064E-03     4.86010E-03
            1320     2.65096E-03     112.238E-03     2.52174E+06    -7.78991E+06     8.05715E+06    -7.23724E+06    -19.0284E-03     37.7001E-03    -18.6717E-03     7.30733E-03    -19.0169E-03     37.6459E-03    -18.6238E-03     7.20936E-03
            1321     3.53416E-03     112.255E-03     2.39365E+06    -6.61463E+06     11.5453E+06    -8.86745E+06    -19.4069E-03     38.2449E-03    -18.8379E-03     9.79797E-03    -19.4032E-03     38.1920E-03    -18.7741E-03     9.67716E-03
            1322     4.41681E-03     112.275E-03     2.39838E+06    -5.81049E+06     14.4063E+06    -10.0068E+06    -19.8157E-03     38.8405E-03    -19.0248E-03     12.4961E-03    -19.8178E-03     38.7880E-03    -18.9478E-03     12.3586E-03
            1323     5.29927E-03     112.302E-03     2.75691E+06    -4.87818E+06     17.5721E+06    -11.0597E+06    -20.2069E-03     39.4326E-03    -19.2257E-03     15.5201E-03    -20.2137E-03     39.3801E-03    -19.1347E-03     15.3670E-03
            1324     6.18116E-03     112.333E-03     2.68110E+06    -4.51231E+06     20.6951E+06    -12.2008E+06    -20.5150E-03     39.9439E-03    -19.4290E-03     19.0066E-03    -20.5281E-03     39.8897E-03    -19.3228E-03     18.8367E-03
            1325     7.06307E-03     112.372E-03     1.42453E+06    -4.50839E+06     22.8284E+06    -12.8707E+06    -20.6922E-03     40.3099E-03    -19.6177E-03     23.1416E-03    -20.7156E-03     40.2552E-03    -19.4991E-03     22.9613E-03
            1326     7.94464E-03     112.419E-03     67.7027E+03    -5.04161E+06     24.6646E+06    -13.3574E+06    -20.7098E-03     40.4920E-03    -19.7822E-03     28.1060E-03    -20.7431E-03     40.4349E-03    -19.6517E-03     27.9180E-03
            1327     8.82668E-03     112.474E-03    -641.070E+03    -5.31819E+06     27.0897E+06    -14.7440E+06    -20.6064E-03     40.5237E-03    -19.9173E-03     34.1903E-03    -20.6475E-03     40.4638E-03    -19.7732E-03     33.9834E-03
            1328     9.70868E-03     112.540E-03    -1.40867E+06    -5.85010E+06     29.1722E+06    -16.2195E+06    -20.4765E-03     40.4965E-03    -20.0200E-03     41.9941E-03    -20.5248E-03     40.4330E-03    -19.8636E-03     41.7679E-03
            1329     10.5911E-03     112.618E-03    -2.83904E+06    -4.01581E+06     30.9713E+06    -15.9924E+06    -20.5886E-03     40.6884E-03    -20.0998E-03     52.5817E-03    -20.6504E-03     40.6345E-03    -19.9350E-03     52.3589E-03
            1330     11.4741E-03     112.712E-03    -3.82705E+06    -2.78136E+06     35.1131E+06    -15.4033E+06    -21.3898E-03     41.5907E-03    -20.2008E-03     67.5565E-03    -21.4660E-03     41.5402E-03    -20.0157E-03     67.3414E-03
            1331     12.3566E-03     112.828E-03    -1.10207E+06    -8.87881E+06     39.6506E+06    -13.5477E+06    -23.5330E-03     43.8992E-03    -20.3662E-03     87.4266E-03    -23.5996E-03     43.8147E-03    -20.1535E-03     87.2303E-03
            1332     13.2362E-03     112.964E-03     6.43775E+06    -1.23247E+06     48.2606E+06    -8.40906E+06    -27.8398E-03     48.4991E-03    -20.6593E-03     109.310E-03    -27.9145E-03     48.4529E-03    -20.4256E-03     109.157E-03
            1333     14.1092E-03     113.123E-03     9.07014E+06     11.6773E+06     55.7749E+06    -4.47339E+06    -34.7336E-03     55.9115E-03    -21.1779E-03     132.846E-03    -34.8951E-03     55.9857E-03    -20.9291E-03     132.676E-03
            1334     14.9817E-03     113.301E-03     2.71360E+06     6.66285E+06     51.8391E+06    -7.23676E+06    -44.1482E-03     66.1183E-03    -21.9701E-03     167.592E-03    -44.5620E-03     66.4162E-03    -21.7245E-03     167.209E-03
            1335     15.8409E-03     113.530E-03    -2.76799E+06    -22.2691E+06     32.7169E+06    -17.6454E+06    -53.1337E-03     76.0671E-03    -22.9333E-03     217.021E-03    -54.2397E-03     76.9906E-03    -22.7335E-03     216.193E-03
            1336     16.7078E-03     113.800E-03    -4.26735E+06    -5.67040E+06     15.7652E+06    -24.0663E+06    -55.7709E-03     79.6505E-03    -23.8796E-03     232.025E-03    -57.8872E-03     81.6891E-03    -23.7863E-03     231.134E-03
            1337     881.199E-06     113.207E-03     15.9324E+06    -5.27808E+06     17.1534E+06    -2.05256E+06    -21.7802E-03     43.3717E-03    -21.5915E-03     1.63938E-03    -21.7184E-03     43.2969E-03    -21.5212E-03     1.61094E-03
            1338     1.76197E-03     113.214E-03     16.0188E+06    -4.30223E+06     18.7698E+06    -3.71424E+06    -22.0126E-03     43.7852E-03    -21.7726E-03     2.77096E-03    -21.9542E-03     43.7127E-03    -21.6957E-03     2.71928E-03
            1339     2.64264E-03     113.226E-03     15.7854E+06    -3.69206E+06     21.0179E+06    -4.93615E+06    -22.3611E-03     44.3019E-03    -21.9408E-03     4.04039E-03    -22.3082E-03     44.2297E-03    -21.8532E-03     3.97094E-03
            1340     3.52274E-03     113.242E-03     15.4851E+06    -3.17204E+06     23.4655E+06    -5.94212E+06    -22.8060E-03     44.9476E-03    -22.1416E-03     5.42436E-03    -22.7592E-03     44.8752E-03    -22.0421E-03     5.33974E-03
            1341     4.40252E-03     113.264E-03     15.1637E+06    -2.54113E+06     26.5573E+06    -7.01050E+06    -23.3432E-03     45.7234E-03    -22.3802E-03     6.95798E-03    -23.3038E-03     45.6504E-03    -22.2658E-03     6.85717E-03
            1342     5.28154E-03     113.290E-03     14.5562E+06    -2.21660E+06     29.7573E+06    -7.69210E+06    -23.9265E-03     46.5791E-03    -22.6526E-03     8.69300E-03    -23.8958E-03     46.5043E-03    -22.5217E-03     8.58076E-03
            1343     6.16020E-03     113.323E-03     13.4864E+06    -1.95095E+06     32.3000E+06    -7.82849E+06    -24.5164E-03     47.4642E-03    -22.9478E-03     10.7085E-03    -24.4957E-03     47.3891E-03    -22.8031E-03     10.5917E-03
            1344     7.03804E-03     113.362E-03     12.6328E+06    -2.42547E+06     34.5623E+06    -8.05219E+06    -25.0563E-03     48.3154E-03    -23.2591E-03     13.0810E-03    -25.0434E-03     48.2366E-03    -23.1011E-03     12.9583E-03
            1345     7.91566E-03     113.408E-03     12.2389E+06    -2.16151E+06     37.8610E+06    -8.91389E+06    -25.5007E-03     49.0817E-03    -23.5810E-03     15.9100E-03    -25.4961E-03     49.0007E-03    -23.4063E-03     15.7730E-03
            1346     8.79250E-03     113.463E-03     11.2273E+06    -2.50490E+06     40.9428E+06    -9.53773E+06    -25.8319E-03     49.7349E-03    -23.9030E-03     19.3951E-03    -25.8377E-03     49.6501E-03    -23.7109E-03     19.2470E-03
            1347     9.66916E-03     113.529E-03     9.07038E+06    -2.57826E+06     43.2184E+06    -10.3079E+06    -26.0650E-03     50.2834E-03    -24.2184E-03     23.8822E-03    -26.0865E-03     50.1991E-03    -24.0118E-03     23.7211E-03
            1348     10.5458E-03     113.605E-03     7.63141E+06    -3.49123E+06     45.4945E+06    -10.7370E+06    -26.1981E-03     50.7278E-03    -24.5297E-03     30.0666E-03    -26.2307E-03     50.6388E-03    -24.3082E-03     29.8976E-03
            1349     11.4216E-03     113.699E-03     6.75537E+06    -1.78386E+06     48.0042E+06    -10.2548E+06    -26.0095E-03     50.8338E-03    -24.8243E-03     38.8692E-03    -26.0545E-03     50.7519E-03    -24.5915E-03     38.7063E-03
            1350     12.2988E-03     113.810E-03     5.78844E+06    -7.32915E+06     48.1700E+06    -11.7997E+06    -25.5697E-03     50.6563E-03    -25.0866E-03     52.0277E-03    -25.6129E-03     50.5490E-03    -24.8435E-03     51.8476E-03
            1351     13.1763E-03     113.949E-03     7.39160E+06    -8.25508E+06     50.7226E+06    -11.7953E+06    -25.7203E-03     51.0425E-03    -25.3222E-03     69.8583E-03    -25.7614E-03     50.9292E-03    -25.0674E-03     69.6784E-03
            1352     14.0557E-03     114.109E-03     15.9930E+06     4.70635E+06     61.3118E+06    -4.35424E+06    -28.6540E-03     54.2673E-03    -25.6132E-03     93.5185E-03    -28.7072E-03     54.2160E-03    -25.3367E-03     93.4117E-03
            1353     14.9227E-03     114.300E-03     25.0508E+06     12.3263E+06     70.3133E+06     2.47827E+06    -35.6138E-03     61.6862E-03    -26.0725E-03     129.316E-03    -35.7442E-03     61.7472E-03    -25.7751E-03     129.207E-03
            1354     15.7938E-03     114.524E-03     26.5129E+06     1.16116E+06     65.0485E+06    -3.91699E+06    -40.4846E-03     67.1033E-03    -26.6187E-03     173.176E-03    -40.8920E-03     67.4213E-03    -26.3336E-03     172.834E-03
            1355     16.6601E-03     114.795E-03     17.4318E+06    -4.98595E+06     34.3718E+06    -9.76258E+06    -27.2078E-03     53.8321E-03    -26.6243E-03     188.956E-03    -27.9722E-03     54.5479E-03    -26.4705E-03     188.662E-03
            1356     877.170E-06     114.200E-03     25.5119E+06    -1.74910E+06     26.1775E+06    -1.31298E+06    -26.2791E-03     52.6253E-03    -26.3463E-03     54.8129E-06    -26.1881E-03     52.5405E-03    -26.2498E-03     36.1001E-06
            1357     1.75410E-03     114.208E-03     25.0387E+06    -1.44484E+06     27.5007E+06    -1.99315E+06    -26.5739E-03     52.9693E-03    -26.3954E-03     128.165E-06    -26.4877E-03     52.8848E-03    -26.2921E-03     99.1413E-06
            1358     2.63056E-03     114.220E-03     24.5431E+06    -1.32852E+06     29.0014E+06    -2.54829E+06    -26.9492E-03     53.5066E-03    -26.5573E-03     248.236E-06    -26.8679E-03     53.4212E-03    -26.4460E-03     210.354E-06
            1359     3.50677E-03     114.238E-03     23.9182E+06    -909.787E+03     31.6747E+06    -3.08702E+06    -27.4881E-03     54.2709E-03    -26.7828E-03     418.680E-06    -27.4145E-03     54.1847E-03    -26.6578E-03     371.992E-06
            1360     4.38219E-03     114.260E-03     23.0132E+06    -544.846E+03     34.9337E+06    -3.36823E+06    -28.1852E-03     55.2591E-03    -27.0739E-03     614.601E-06    -28.1216E-03     55.1713E-03    -26.9318E-03     562.230E-06
            1361     5.25702E-03     114.288E-03     21.9337E+06    -613.195E+03     37.7224E+06    -3.52045E+06    -29.0463E-03     56.4738E-03    -27.4275E-03     832.268E-06    -28.9923E-03     56.3833E-03    -27.2698E-03     775.606E-06
            1362     6.13072E-03     114.321E-03     21.2111E+06    -924.226E+03     40.9205E+06    -3.48987E+06    -30.0527E-03     57.9010E-03    -27.8483E-03     1.07383E-03    -30.0069E-03     57.8053E-03    -27.6731E-03     1.01487E-03
            1363     7.00352E-03     114.361E-03     20.7344E+06    -466.137E+03     45.2347E+06    -3.86369E+06    -31.1629E-03     59.5001E-03    -28.3372E-03     1.32294E-03    -31.1269E-03     59.4012E-03    -28.1404E-03     1.25600E-03
            1364     7.87483E-03     114.408E-03     19.6937E+06    -683.588E+03     48.6982E+06    -3.99291E+06    -32.3306E-03     61.2155E-03    -28.8848E-03     1.60967E-03    -32.3053E-03     61.1119E-03    -28.6689E-03     1.53733E-03
            1365     8.74507E-03     114.464E-03     18.4437E+06    -690.326E+03     51.8527E+06    -4.10698E+06    -33.5815E-03     63.0742E-03    -29.4927E-03     1.96648E-03    -33.5679E-03     62.9677E-03    -29.2592E-03     1.88819E-03
            1366     9.61382E-03     114.528E-03     17.6360E+06    -988.741E+03     55.2407E+06    -4.08180E+06    -34.9285E-03     65.0986E-03    -30.1701E-03     2.46142E-03    -34.9247E-03     64.9867E-03    -29.9180E-03     2.37807E-03
            1367     10.4803E-03     114.606E-03     16.3404E+06    -1.07455E+06     57.0946E+06    -4.78612E+06    -36.0815E-03     66.9894E-03    -30.9079E-03     3.39830E-03    -36.0884E-03     66.8761E-03    -30.6446E-03     3.30039E-03
            1368     11.3458E-03     114.697E-03     14.8953E+06    -2.34686E+06     57.4565E+06    -4.59263E+06    -36.3926E-03     68.0692E-03    -31.6766E-03     5.32502E-03    -36.4073E-03     67.9509E-03    -31.4075E-03     5.22595E-03
            1369     12.2090E-03     114.808E-03     13.3186E+06    -1.75090E+06     59.3379E+06    -5.50300E+06    -34.8153E-03     67.2227E-03    -32.4073E-03     9.44243E-03    -34.8433E-03     67.1062E-03    -32.1274E-03     9.33284E-03
            1370     13.0751E-03     114.936E-03     9.90175E+06    -7.24173E+06     59.3281E+06    -7.85409E+06    -30.9753E-03     63.9624E-03    -32.9871E-03     17.3896E-03    -31.0134E-03     63.8236E-03    -32.6943E-03     17.2556E-03
            1371     13.9416E-03     115.094E-03     7.55285E+06    -2.83654E+06     56.1403E+06    -9.68421E+06    -27.5710E-03     60.9308E-03    -33.3598E-03     32.4309E-03    -27.6255E-03     60.8233E-03    -33.0859E-03     32.2777E-03
            1372     14.8204E-03     115.280E-03     10.3449E+06     511.695E+03     62.6421E+06    -3.66911E+06    -28.6677E-03     62.4419E-03    -33.7743E-03     56.2840E-03    -28.7438E-03     62.3578E-03    -33.4768E-03     56.1856E-03
            1373     15.6844E-03     115.513E-03     12.0921E+06     7.69723E+06     71.2176E+06    -77.9215E+03    -21.1622E-03     55.1913E-03    -34.0291E-03     81.9580E-03    -21.3107E-03     55.2014E-03    -33.7017E-03     81.8669E-03
            1374     16.5611E-03     115.760E-03     3.50249E+06     6.80631E+06     38.9268E+06    -1.34225E+06     1.90482E-03     31.3553E-03    -33.2601E-03     82.7564E-03     1.74948E-03     31.4292E-03    -33.0804E-03     82.7041E-03
            1375     16.6510E-03     57.5618E-03    -4.83710E+06     160.309E+06     69.1772E+06    -113.286E+03    -29.4920E-03     55.9922E-03    -26.5002E-03     148.415E-03    -32.8603E-03     59.7118E-03    -26.3797E-03     150.006E-03
            1376     15.7783E-03     57.3545E-03    -6.93561E+06     123.393E+06     6.01615E+06     30.0709E+03    -32.8297E-03     59.0881E-03    -26.2584E-03     186.660E-03    -36.1006E-03     62.7549E-03    -26.3972E-03     187.212E-03
            1377     14.9009E-03     57.2061E-03    -6.03636E+06     59.3540E+06    -16.4630E+06     484.736E+03    -29.7055E-03     55.9490E-03    -26.2435E-03     129.058E-03    -30.6741E-03     57.1546E-03    -26.4031E-03     128.893E-03
            1378     14.0244E-03     57.1092E-03    -6.03059E+06     4.91567E+06    -8.19370E+06     534.492E+03    -28.2181E-03     54.5935E-03    -26.3755E-03     91.5153E-03    -28.5649E-03     54.9601E-03    -26.4148E-03     91.3235E-03
            1379     13.1479E-03     57.0325E-03    -6.64048E+06    -26.6368E+06    -5.85754E+06     346.922E+03    -27.9128E-03     54.3498E-03    -26.4370E-03     80.0220E-03    -28.0863E-03     54.4222E-03    -26.4180E-03     79.8536E-03
            1380     12.2717E-03     56.9566E-03    -6.86359E+06    -40.4983E+06    -19.8488E+03     399.676E+03    -27.7377E-03     54.2279E-03    -26.4902E-03     75.3898E-03    -27.8366E-03     54.1587E-03    -26.4216E-03     75.2541E-03
            1381     11.3946E-03     56.8894E-03    -7.37905E+06    -52.0731E+06     1.83409E+06     455.388E+03    -27.4985E-03     54.0219E-03    -26.5234E-03     67.5123E-03    -27.5421E-03     53.8491E-03    -26.4280E-03     67.4054E-03
            1382     10.5183E-03     56.8283E-03    -7.91472E+06    -64.6876E+06     1.18044E+06     411.388E+03    -27.3494E-03     53.8958E-03    -26.5464E-03     61.8027E-03    -27.3505E-03     53.6358E-03    -26.4352E-03     61.7175E-03
            1383     9.64162E-03     56.7719E-03    -8.68417E+06    -72.2319E+06     3.35814E+06     483.581E+03    -27.2429E-03     53.8194E-03    -26.5766E-03     56.9878E-03    -27.2235E-03     53.5031E-03    -26.4425E-03     56.9216E-03
            1384     8.76510E-03     56.7200E-03    -9.95328E+06    -77.5204E+06     3.64215E+06     487.418E+03    -27.1332E-03     53.7272E-03    -26.5941E-03     52.0425E-03    -27.1013E-03     53.3743E-03    -26.4490E-03     51.9914E-03
            1385     7.88849E-03     56.6730E-03    -11.6017E+06    -83.9238E+06     2.56643E+06     267.993E+03    -27.0286E-03     53.6351E-03    -26.6064E-03     47.0248E-03    -26.9860E-03     53.2459E-03    -26.4551E-03     46.9832E-03
            1386     7.01200E-03     56.6307E-03    -13.3454E+06    -90.2799E+06     980.426E+03     192.033E+03    -26.9332E-03     53.5491E-03    -26.6159E-03     41.8989E-03    -26.8821E-03     53.1272E-03    -26.4607E-03     41.8663E-03
            1387     6.13544E-03     56.5933E-03    -15.1451E+06    -95.4406E+06    -2.32273E+06     138.417E+03    -26.8466E-03     53.4612E-03    -26.6146E-03     36.6970E-03    -26.7883E-03     53.0170E-03    -26.4658E-03     36.6717E-03
            1388     5.25894E-03     56.5609E-03    -16.9020E+06    -98.8109E+06    -6.81187E+06     182.849E+03    -26.7694E-03     53.3737E-03    -26.6043E-03     31.4492E-03    -26.7057E-03     52.9189E-03    -26.4705E-03     31.4309E-03
            1389     4.38242E-03     56.5335E-03    -18.4962E+06    -104.383E+06    -10.6196E+06     197.587E+03    -26.7098E-03     53.3095E-03    -26.5997E-03     26.1883E-03    -26.6386E-03     52.8329E-03    -26.4747E-03     26.1753E-03
            1390     3.50593E-03     56.5111E-03    -19.9552E+06    -109.782E+06    -13.8436E+06     117.690E+03    -26.6632E-03     53.2599E-03    -26.5966E-03     20.9468E-03    -26.5855E-03     52.7618E-03    -26.4777E-03     20.9369E-03
            1391     2.62945E-03     56.4937E-03    -21.2359E+06    -112.025E+06    -17.7135E+06     103.905E+03    -26.6231E-03     53.2075E-03    -26.5844E-03     15.7267E-03    -26.5421E-03     52.7048E-03    -26.4797E-03     15.7200E-03
            1392     1.75296E-03     56.4812E-03    -22.1907E+06    -113.570E+06    -20.6932E+06     54.9129E+03    -26.5942E-03     53.1683E-03    -26.5741E-03     10.5895E-03    -26.5109E-03     52.6630E-03    -26.4807E-03     10.5851E-03
            1393     876.488E-06     56.4735E-03    -22.7184E+06    -114.470E+06    -22.3648E+06     8.40871E+03    -26.5752E-03     53.1439E-03    -26.5687E-03     5.74687E-03    -26.4905E-03     52.6371E-03    -26.4816E-03     5.74427E-03
            1394     16.6569E-03     56.5633E-03    -4.40631E+06     160.581E+06     69.4112E+06     160.733E+03    -29.2944E-03     55.7704E-03    -26.4759E-03     147.951E-03    -32.6419E-03     59.4710E-03    -26.3553E-03     149.571E-03
            1395     15.7772E-03     56.3532E-03    -7.07243E+06     122.831E+06     5.17215E+06     -354.13E+03    -32.0959E-03     58.3451E-03    -26.2491E-03     184.979E-03    -35.3384E-03     61.9834E-03    -26.3911E-03     185.573E-03
            1396     14.9015E-03     56.2077E-03    -7.69149E+06     58.4731E+06    -18.4010E+06     117.541E+03    -29.9266E-03     56.1659E-03    -26.2392E-03     128.389E-03    -30.8992E-03     57.3721E-03    -26.4049E-03     128.214E-03
            1397     14.0246E-03     56.1086E-03    -7.38232E+06     5.30552E+06    -9.01290E+06     449.514E+03    -28.2842E-03     54.6478E-03    -26.3636E-03     91.2838E-03    -28.6372E-03     55.0196E-03    -26.4056E-03     91.0903E-03
            1398     13.1485E-03     56.0334E-03    -6.83356E+06    -26.4062E+06    -5.99205E+06     402.125E+03    -27.8625E-03     54.2879E-03    -26.4254E-03     79.9512E-03    -28.0365E-03     54.3612E-03    -26.4072E-03     79.7843E-03
            1399     12.2712E-03     55.9571E-03    -6.58427E+06    -40.5998E+06    -141.363E+03     295.097E+03    -27.7223E-03     54.2023E-03    -26.4800E-03     75.4402E-03    -27.8197E-03     54.1326E-03    -26.4123E-03     75.3030E-03
            1400     11.3952E-03     55.8898E-03    -7.05239E+06    -52.0208E+06     1.92315E+06     266.786E+03    -27.4769E-03     53.9917E-03    -26.5148E-03     67.4299E-03    -27.5189E-03     53.8184E-03    -26.4195E-03     67.3207E-03
            1401     10.5183E-03     55.8290E-03    -7.89754E+06    -64.6752E+06     1.00482E+06     426.557E+03    -27.3337E-03     53.8715E-03    -26.5378E-03     61.8090E-03    -27.3346E-03     53.6118E-03    -26.4275E-03     61.7241E-03
            1402     9.64173E-03     55.7723E-03    -8.88517E+06    -72.3507E+06     3.03411E+06     438.257E+03    -27.2296E-03     53.7979E-03    -26.5684E-03     57.0250E-03    -27.2105E-03     53.4817E-03    -26.4354E-03     56.9583E-03
            1403     8.76511E-03     55.7206E-03    -10.0669E+06    -77.4355E+06     3.70178E+06     503.695E+03    -27.1326E-03     53.7198E-03    -26.5873E-03     52.0314E-03    -27.1014E-03     53.3674E-03    -26.4419E-03     51.9805E-03
            1404     7.88861E-03     55.6734E-03    -11.5326E+06    -83.6428E+06     2.70181E+06     445.570E+03    -27.0281E-03     53.6267E-03    -26.5987E-03     47.0080E-03    -26.9857E-03     53.2387E-03    -26.4472E-03     46.9687E-03
            1405     7.01202E-03     55.6312E-03    -13.3283E+06    -90.1810E+06     1.02091E+06     209.338E+03    -26.9269E-03     53.5343E-03    -26.6074E-03     41.8893E-03    -26.8759E-03     53.1129E-03    -26.4522E-03     41.8569E-03
            1406     6.13552E-03     55.5937E-03    -15.1837E+06    -95.4318E+06    -2.32265E+06     155.436E+03    -26.8384E-03     53.4443E-03    -26.6058E-03     36.6909E-03    -26.7803E-03     53.0002E-03    -26.4571E-03     36.6659E-03
            1407     5.25898E-03     55.5614E-03    -16.9211E+06    -98.8525E+06    -6.87627E+06     138.953E+03    -26.7613E-03     53.3564E-03    -26.5951E-03     31.4441E-03    -26.6976E-03     52.9016E-03    -26.4616E-03     31.4252E-03
            1408     4.38247E-03     55.5340E-03    -18.4549E+06    -104.299E+06    -10.5435E+06     90.5145E+03    -26.7015E-03     53.2924E-03    -26.5909E-03     26.1847E-03    -26.6303E-03     52.8160E-03    -26.4656E-03     26.1703E-03
            1409     3.50597E-03     55.5116E-03    -19.9593E+06    -109.756E+06    -13.8807E+06     69.0655E+03    -26.6534E-03     53.2407E-03    -26.5873E-03     20.9460E-03    -26.5757E-03     52.7428E-03    -26.4686E-03     20.9355E-03
            1410     2.62946E-03     55.4941E-03    -21.2782E+06    -112.020E+06    -17.7814E+06     42.6362E+03    -26.6132E-03     53.1884E-03    -26.5752E-03     15.7277E-03    -26.5323E-03     52.6859E-03    -26.4709E-03     15.7203E-03
            1411     1.75298E-03     55.4817E-03    -22.1905E+06    -113.532E+06    -20.6711E+06     50.5139E+03    -26.5844E-03     53.1502E-03    -26.5658E-03     10.5911E-03    -26.5011E-03     52.6451E-03    -26.4724E-03     10.5866E-03
            1412     876.477E-06     55.4740E-03    -22.8249E+06    -114.444E+06    -22.3951E+06     47.2010E+03    -26.5624E-03     53.1274E-03    -26.5650E-03     5.74812E-03    -26.4783E-03     52.6209E-03    -26.4779E-03     5.74602E-03
            1413     16.6560E-03     55.5656E-03    -4.32927E+06     160.737E+06     69.8414E+06     309.598E+03    -29.5806E-03     56.0201E-03    -26.4395E-03     148.261E-03    -32.9433E-03     59.7355E-03    -26.3171E-03     149.873E-03
            1414     15.7789E-03     55.3552E-03    -6.94043E+06     123.213E+06     5.93186E+06     708.743E+03    -31.8437E-03     58.0624E-03    -26.2187E-03     186.739E-03    -35.1195E-03     61.7338E-03    -26.3576E-03     187.364E-03
            1415     14.9012E-03     55.2066E-03    -7.62199E+06     58.6143E+06    -17.9286E+06     276.248E+03    -29.9112E-03     56.1293E-03    -26.2181E-03     128.270E-03    -30.8836E-03     57.3347E-03    -26.3817E-03     128.095E-03
            1416     14.0254E-03     55.1099E-03    -6.88626E+06     4.94260E+06    -8.82947E+06     10.4094E+03    -28.1174E-03     54.4626E-03    -26.3452E-03     91.0204E-03    -28.4661E-03     54.8300E-03    -26.3865E-03     90.8231E-03
            1417     13.1477E-03     55.0335E-03    -6.75602E+06    -26.6264E+06    -6.15457E+06     167.940E+03    -27.7586E-03     54.1717E-03    -26.4131E-03     79.9632E-03    -27.9315E-03     54.2439E-03    -26.3955E-03     79.7940E-03
            1418     12.2721E-03     54.9576E-03    -7.06247E+06    -40.4460E+06    -583.631E+03     171.150E+03    -27.7249E-03     54.1939E-03    -26.4690E-03     75.3383E-03    -27.8243E-03     54.1263E-03    -26.4030E-03     75.1995E-03
            1419     11.3948E-03     54.8904E-03    -7.43168E+06    -52.3919E+06     1.54605E+06     295.192E+03    -27.4319E-03     53.9374E-03    -26.5055E-03     67.4854E-03    -27.4746E-03     53.7632E-03    -26.4111E-03     67.3768E-03
            1420     10.5185E-03     54.8294E-03    -8.23725E+06    -64.5304E+06     1.06573E+06     452.224E+03    -27.3281E-03     53.8594E-03    -26.5312E-03     61.8462E-03    -27.3310E-03     53.6008E-03    -26.4204E-03     61.7616E-03
            1421     9.64176E-03     54.7729E-03    -9.21177E+06    -72.2182E+06     2.88752E+06     350.761E+03    -27.2368E-03     53.7968E-03    -26.5600E-03     57.0410E-03    -27.2194E-03     53.4819E-03    -26.4275E-03     56.9732E-03
            1422     8.76523E-03     54.7209E-03    -10.3009E+06    -77.6271E+06     3.66946E+06     325.521E+03    -27.1220E-03     53.7011E-03    -26.5791E-03     52.0352E-03    -27.0917E-03     53.3480E-03    -26.4333E-03     51.9821E-03
            1423     7.88864E-03     54.6739E-03    -11.6194E+06    -83.3875E+06     2.88512E+06     378.249E+03    -27.0177E-03     53.6085E-03    -26.5908E-03     47.0090E-03    -26.9764E-03     53.2216E-03    -26.4386E-03     46.9688E-03
            1424     7.01211E-03     54.6316E-03    -13.2254E+06    -90.0188E+06     1.21456E+06     276.047E+03    -26.9183E-03     53.5177E-03    -26.5995E-03     41.8903E-03    -26.8673E-03     53.0967E-03    -26.4437E-03     41.8589E-03
            1425     6.13555E-03     54.5943E-03    -15.0903E+06    -95.4202E+06    -2.04785E+06     178.609E+03    -26.8291E-03     53.4278E-03    -26.5987E-03     36.6950E-03    -26.7709E-03     52.9832E-03    -26.4487E-03     36.6703E-03
            1426     5.25903E-03     54.5618E-03    -16.8433E+06    -98.7507E+06    -6.75917E+06     80.3730E+03    -26.7506E-03     53.3380E-03    -26.5874E-03     31.4514E-03    -26.6868E-03     52.8834E-03    -26.4535E-03     31.4318E-03
            1427     4.38250E-03     54.5345E-03    -18.4593E+06    -104.325E+06    -10.6240E+06     34.5198E+03    -26.6905E-03     53.2736E-03    -26.5830E-03     26.1920E-03    -26.6192E-03     52.7972E-03    -26.4581E-03     26.1770E-03
            1428     3.50598E-03     54.5121E-03    -19.9676E+06    -109.748E+06    -13.9306E+06     40.4292E+03    -26.6443E-03     53.2246E-03    -26.5803E-03     20.9523E-03    -26.5666E-03     52.7268E-03    -26.4618E-03     20.9414E-03
            1429     2.62949E-03     54.4947E-03    -21.2892E+06    -112.032E+06    -17.8353E+06     39.0508E+03    -26.6050E-03     53.1738E-03    -26.5688E-03     15.7320E-03    -26.5240E-03     52.6713E-03    -26.4647E-03     15.7244E-03
            1430     1.75297E-03     54.4822E-03    -22.2950E+06    -113.548E+06    -20.7374E+06     42.6825E+03    -26.5765E-03     53.1370E-03    -26.5604E-03     10.5931E-03    -26.4937E-03     52.6320E-03    -26.4672E-03     10.5885E-03
            1431     876.502E-06     54.4745E-03    -22.8599E+06    -114.398E+06    -22.4371E+06     45.0415E+03    -26.5553E-03     53.1176E-03    -26.5623E-03     5.75196E-03    -26.4713E-03     52.6115E-03    -26.4755E-03     5.74984E-03
            1432     16.6562E-03     54.5677E-03    -5.21030E+06     159.878E+06     69.5187E+06     247.811E+03    -29.9311E-03     56.3928E-03    -26.4616E-03     148.519E-03    -33.3022E-03     60.1113E-03    -26.3383E-03     150.087E-03
            1433     15.7780E-03     54.3554E-03    -7.36699E+06     123.434E+06     7.25038E+06     638.495E+03    -32.8608E-03     59.0720E-03    -26.2111E-03     186.775E-03    -36.1453E-03     62.7474E-03    -26.3432E-03     187.335E-03
            1434     14.9026E-03     54.2069E-03    -6.58109E+06     59.3020E+06    -15.9980E+06     251.174E+03    -29.4855E-03     55.6791E-03    -26.1936E-03     127.870E-03    -30.4503E-03     56.8774E-03    -26.3500E-03     127.703E-03
            1435     14.0249E-03     54.1107E-03    -6.48155E+06     4.57575E+06    -8.69329E+06     140.496E+03    -27.8615E-03     54.1947E-03    -26.3332E-03     91.4455E-03    -28.2070E-03     54.5586E-03    -26.3739E-03     91.2531E-03
            1436     13.1491E-03     54.0340E-03    -6.52263E+06    -26.6488E+06    -6.06887E+06     214.752E+03    -27.8465E-03     54.2526E-03    -26.4061E-03     80.3051E-03    -28.0197E-03     54.3257E-03    -26.3884E-03     80.1355E-03
            1437     12.2714E-03     53.9582E-03    -6.83449E+06    -40.4601E+06    -44.3253E+03     343.586E+03    -27.6433E-03     54.1074E-03    -26.4642E-03     75.2839E-03    -27.7417E-03     54.0382E-03    -26.3958E-03     75.1479E-03
            1438     11.3953E-03     53.8909E-03    -7.89094E+06    -52.5543E+06     1.53438E+06     387.076E+03    -27.4191E-03     53.9213E-03    -26.5022E-03     67.6188E-03    -27.4641E-03     53.7472E-03    -26.4069E-03     67.5114E-03
            1439     10.5184E-03     53.8300E-03    -8.54588E+06    -64.4397E+06     1.05528E+06     258.741E+03    -27.3647E-03     53.8907E-03    -26.5260E-03     61.9095E-03    -27.3693E-03     53.6331E-03    -26.4149E-03     61.8222E-03
            1440     9.64192E-03     53.7733E-03    -9.24859E+06    -72.0210E+06     3.02539E+06     216.302E+03    -27.2375E-03     53.7903E-03    -26.5528E-03     57.0520E-03    -27.2207E-03     53.4762E-03    -26.4198E-03     56.9825E-03
            1441     8.76528E-03     53.7215E-03    -10.3716E+06    -77.7378E+06     3.54735E+06     127.884E+03    -27.1096E-03     53.6807E-03    -26.5711E-03     52.0845E-03    -27.0794E-03     53.3273E-03    -26.4256E-03     52.0289E-03
            1442     7.88872E-03     53.6743E-03    -11.7067E+06    -83.4041E+06     2.90395E+06     163.885E+03    -27.0076E-03     53.5914E-03    -26.5838E-03     47.0299E-03    -26.9667E-03     53.2045E-03    -26.4314E-03     46.9871E-03
            1443     7.01215E-03     53.6321E-03    -13.2885E+06    -89.9347E+06     1.20647E+06     212.340E+03    -26.9095E-03     53.5020E-03    -26.5924E-03     41.9003E-03    -26.8590E-03     53.0814E-03    -26.4367E-03     41.8681E-03
            1444     6.13560E-03     53.5947E-03    -14.9909E+06    -95.3116E+06    -2.13944E+06     134.442E+03    -26.8196E-03     53.4108E-03    -26.5913E-03     36.7050E-03    -26.7609E-03     52.9668E-03    -26.4420E-03     36.6798E-03
            1445     5.25906E-03     53.5624E-03    -16.7137E+06    -98.7215E+06    -6.80507E+06     93.0592E+03    -26.7395E-03     53.3205E-03    -26.5810E-03     31.4593E-03    -26.6750E-03     52.8659E-03    -26.4477E-03     31.4400E-03
            1446     4.38251E-03     53.5350E-03    -18.3529E+06    -104.321E+06    -10.6527E+06     76.0076E+03    -26.6812E-03     53.2590E-03    -26.5779E-03     26.2005E-03    -26.6093E-03     52.7825E-03    -26.4533E-03     26.1860E-03
            1447     3.50601E-03     53.5126E-03    -19.9564E+06    -109.782E+06    -13.9455E+06     70.6651E+03    -26.6375E-03     53.2138E-03    -26.5763E-03     20.9582E-03    -26.5596E-03     52.7158E-03    -26.4579E-03     20.9478E-03
            1448     2.62948E-03     53.4952E-03    -21.3736E+06    -112.026E+06    -17.8358E+06     82.4277E+03    -26.6003E-03     53.1659E-03    -26.5655E-03     15.7353E-03    -26.5198E-03     52.6635E-03    -26.4613E-03     15.7284E-03
            1449     1.75300E-03     53.4827E-03    -22.3668E+06    -113.522E+06    -20.7696E+06     33.4613E+03    -26.5735E-03     53.1304E-03    -26.5569E-03     10.5932E-03    -26.4910E-03     52.6257E-03    -26.4637E-03     10.5885E-03
            1450     876.474E-06     53.4750E-03    -22.9902E+06    -114.395E+06    -22.4835E+06    -32.1111E+03    -26.5607E-03     53.1096E-03    -26.5490E-03     5.75040E-03    -26.4773E-03     52.6038E-03    -26.4622E-03     5.74728E-03
            1451     16.6523E-03     53.5649E-03    -4.48092E+06     159.906E+06     68.9450E+06     266.368E+03    -30.1777E-03     56.5999E-03    -26.4223E-03     146.089E-03    -33.5051E-03     60.2792E-03    -26.3029E-03     147.652E-03
            1452     15.7807E-03     53.3540E-03    -6.15674E+06     123.526E+06     6.36232E+06     88.6237E+03    -32.0687E-03     58.2439E-03    -26.1752E-03     185.599E-03    -35.3187E-03     61.8920E-03    -26.3136E-03     186.189E-03
            1453     14.9027E-03     53.2098E-03    -6.41468E+06     58.9563E+06    -16.8383E+06     523.263E+03    -29.2923E-03     55.4772E-03    -26.1849E-03     128.728E-03    -30.2582E-03     56.6784E-03    -26.3453E-03     128.568E-03
            1454     14.0249E-03     53.1111E-03    -6.40749E+06     4.98763E+06    -8.50921E+06     361.152E+03    -27.9565E-03     54.2902E-03    -26.3337E-03     92.0581E-03    -28.3055E-03     54.6589E-03    -26.3742E-03     91.8668E-03
            1455     13.1478E-03     53.0341E-03    -6.75156E+06    -26.7779E+06    -5.79744E+06     322.910E+03    -27.7577E-03     54.1669E-03    -26.4092E-03     80.3129E-03    -27.9317E-03     54.2387E-03    -26.3896E-03     80.1454E-03
            1456     12.2723E-03     52.9591E-03    -6.96942E+06    -40.6961E+06     37.8203E+03     551.532E+03    -27.6846E-03     54.1527E-03    -26.4681E-03     75.4173E-03    -27.7835E-03     54.0823E-03    -26.3988E-03     75.2839E-03
            1457     11.3948E-03     52.8915E-03    -7.39886E+06    -52.0364E+06     1.87782E+06     325.665E+03    -27.5109E-03     54.0118E-03    -26.5008E-03     67.7251E-03    -27.5549E-03     53.8393E-03    -26.4053E-03     67.6163E-03
            1458     10.5186E-03     52.8303E-03    -8.20407E+06    -64.5573E+06     1.05064E+06     145.934E+03    -27.3622E-03     53.8828E-03    -26.5206E-03     61.8590E-03    -27.3649E-03     53.6241E-03    -26.4098E-03     61.7704E-03
            1459     9.64190E-03     52.7739E-03    -9.06041E+06    -72.0546E+06     3.07711E+06     138.092E+03    -27.2228E-03     53.7710E-03    -26.5482E-03     57.1029E-03    -27.2051E-03     53.4564E-03    -26.4152E-03     57.0325E-03
            1460     8.76533E-03     52.7219E-03    -10.2444E+06    -77.6010E+06      3.4999E+06     46.4791E+03    -27.1184E-03     53.6842E-03    -26.5657E-03     52.1193E-03    -27.0876E-03     53.3314E-03    -26.4209E-03     52.0627E-03
            1461     7.88875E-03     52.6749E-03    -11.7032E+06    -83.6058E+06     2.73884E+06     19.1607E+03    -27.0024E-03     53.5804E-03    -26.5780E-03     47.0464E-03    -26.9609E-03     53.1927E-03    -26.4261E-03     47.0018E-03
            1462     7.01219E-03     52.6326E-03    -13.2757E+06    -89.8990E+06     1.05950E+06     71.4802E+03    -26.9008E-03     53.4874E-03    -26.5867E-03     41.9133E-03    -26.8499E-03     53.0673E-03    -26.4318E-03     41.8793E-03
            1463     6.13563E-03     52.5953E-03    -15.0153E+06    -95.2739E+06    -2.21352E+06     60.0526E+03    -26.8100E-03     53.3966E-03    -26.5866E-03     36.7151E-03    -26.7514E-03     52.9529E-03    -26.4378E-03     36.6889E-03
            1464     5.25907E-03     52.5628E-03    -16.6980E+06    -98.7730E+06    -6.92073E+06     86.6014E+03    -26.7310E-03     53.3081E-03    -26.5771E-03     31.4710E-03    -26.6661E-03     52.8534E-03    -26.4443E-03     31.4516E-03
            1465     4.38254E-03     52.5355E-03    -18.2923E+06    -104.366E+06    -10.8375E+06     182.769E+03    -26.6746E-03     53.2491E-03    -26.5745E-03     26.2101E-03    -26.6021E-03     52.7726E-03    -26.4508E-03     26.1970E-03
            1466     3.50599E-03     52.5131E-03    -19.9008E+06    -109.737E+06    -14.0131E+06     210.500E+03    -26.6334E-03     53.2077E-03    -26.5742E-03     20.9667E-03    -26.5553E-03     52.7099E-03    -26.4563E-03     20.9580E-03
            1467     2.62951E-03     52.4957E-03    -21.3108E+06    -111.951E+06    -17.7639E+06     114.384E+03    -26.5991E-03     53.1636E-03    -26.5645E-03     15.7391E-03    -26.5185E-03     52.6614E-03    -26.4601E-03     15.7326E-03
            1468     1.75298E-03     52.4832E-03    -22.3381E+06    -113.442E+06    -20.7089E+06     42.9346E+03    -26.5735E-03     53.1289E-03    -26.5554E-03     10.5964E-03    -26.4911E-03     52.6245E-03    -26.4621E-03     10.5919E-03
            1469     876.523E-06     52.4756E-03    -22.9919E+06    -114.472E+06    -22.5981E+06    -12.1998E+03    -26.5606E-03     53.1054E-03    -26.5448E-03     5.75998E-03    -26.4769E-03     52.5993E-03    -26.4585E-03     5.75712E-03
            1470     16.6640E-03     52.5681E-03    -4.43524E+06     159.784E+06     67.8882E+06    -67.8899E+03    -29.8259E-03     56.2657E-03    -26.4399E-03     150.225E-03    -33.2291E-03     60.0237E-03    -26.3257E-03     151.833E-03
            1471     15.7782E-03     52.3580E-03    -6.21082E+06     122.939E+06     4.66872E+06     885.232E+03    -32.1288E-03     58.3414E-03    -26.2126E-03     188.403E-03    -35.4264E-03     62.0395E-03    -26.3586E-03     189.014E-03
            1472     14.9005E-03     52.2085E-03    -7.13412E+06     59.2333E+06    -17.0800E+06     803.611E+03    -29.8934E-03     56.1138E-03    -26.2204E-03     129.391E-03    -30.8677E-03     57.3226E-03    -26.3814E-03     129.226E-03
            1473     14.0258E-03     52.1123E-03    -6.41192E+06     5.42218E+06    -8.35990E+06     499.333E+03    -28.3145E-03     54.6582E-03    -26.3437E-03     91.9316E-03    -28.6651E-03     55.0295E-03    -26.3841E-03     91.7384E-03
            1474     13.1489E-03     52.0348E-03    -6.09832E+06    -27.0679E+06    -5.80519E+06     539.063E+03    -27.6984E-03     54.1080E-03    -26.4096E-03     80.3443E-03    -27.8676E-03     54.1763E-03    -26.3905E-03     80.1808E-03
            1475     12.2709E-03     51.9595E-03    -6.73502E+06    -40.5773E+06    -27.7029E+03     347.076E+03    -27.7371E-03     54.2057E-03    -26.4686E-03     75.3597E-03    -27.8351E-03     54.1359E-03    -26.4001E-03     75.2234E-03
            1476     11.3955E-03     51.8916E-03    -7.16668E+06    -51.9037E+06     1.91733E+06     224.112E+03    -27.5647E-03     54.0623E-03    -26.4976E-03     67.5847E-03    -27.6078E-03     53.8901E-03    -26.4024E-03     67.4744E-03
            1477     10.5185E-03     51.8311E-03    -7.78955E+06    -64.4145E+06     1.18934E+06     197.173E+03    -27.3267E-03     53.8433E-03    -26.5166E-03     61.8695E-03    -27.3276E-03     53.5844E-03    -26.4060E-03     61.7817E-03
            1478     9.64190E-03     51.7743E-03    -8.81764E+06    -72.1490E+06     2.99481E+06     135.123E+03    -27.2298E-03     53.7747E-03    -26.5449E-03     57.1502E-03    -27.2107E-03     53.4594E-03    -26.4125E-03     57.0797E-03
            1479     8.76537E-03     51.7225E-03    -10.0747E+06    -77.4839E+06     3.48881E+06     128.326E+03    -27.1204E-03     53.6824E-03    -26.5620E-03     52.1037E-03    -27.0889E-03     53.3299E-03    -26.4176E-03     52.0482E-03
            1480     7.88878E-03     51.6753E-03    -11.6246E+06    -83.5923E+06     2.62403E+06     1.84450E+03    -26.9970E-03     53.5710E-03    -26.5739E-03     47.0528E-03    -26.9550E-03     53.1833E-03    -26.4228E-03     47.0080E-03
            1481     7.01222E-03     51.6331E-03    -13.3073E+06    -89.9882E+06     941.611E+03    -46.2868E+03    -26.8895E-03     53.4731E-03    -26.5836E-03     41.9272E-03    -26.8385E-03     53.0527E-03    -26.4291E-03     41.8917E-03
            1482     6.13563E-03     51.5957E-03    -15.0301E+06    -95.3234E+06    -2.53743E+06     37.5539E+03    -26.8015E-03     53.3851E-03    -26.5836E-03     36.7309E-03    -26.7424E-03     52.9416E-03    -26.4362E-03     36.7045E-03
            1483     5.25909E-03     51.5634E-03    -16.8113E+06    -98.9386E+06    -7.11069E+06     163.474E+03    -26.7272E-03     53.3031E-03    -26.5758E-03     31.4856E-03    -26.6624E-03     52.8480E-03    -26.4435E-03     31.4672E-03
            1484     4.38251E-03     51.5360E-03    -18.4814E+06    -104.370E+06    -10.8619E+06     242.687E+03    -26.6731E-03     53.2473E-03    -26.5742E-03     26.2213E-03    -26.6015E-03     52.7711E-03    -26.4504E-03     26.2090E-03
            1485     3.50602E-03     51.5136E-03    -19.8833E+06    -109.640E+06    -14.0651E+06     183.891E+03    -26.6328E-03     53.2062E-03    -26.5735E-03     20.9716E-03    -26.5546E-03     52.7090E-03    -26.4560E-03     20.9626E-03
            1486     2.62947E-03     51.4962E-03    -21.0724E+06    -111.836E+06    -17.7379E+06     139.480E+03    -26.5986E-03     53.1627E-03    -26.5641E-03     15.7416E-03    -26.5170E-03     52.6607E-03    -26.4601E-03     15.7354E-03
            1487     1.75301E-03     51.4837E-03    -22.0161E+06    -113.408E+06    -20.5411E+06     87.3189E+03    -26.5735E-03     53.1300E-03    -26.5565E-03     10.5954E-03    -26.4898E-03     52.6251E-03    -26.4628E-03     10.5914E-03
            1488     876.463E-06     51.4761E-03    -22.6419E+06    -114.428E+06    -22.2793E+06     109.674E+03    -26.5586E-03     53.1101E-03    -26.5515E-03     5.75424E-03    -26.4737E-03     52.6033E-03    -26.4642E-03     5.75297E-03
            1489     16.6432E-03     51.5629E-03    -5.00365E+06     158.638E+06     66.9410E+06     151.164E+03    -29.0764E-03     55.5988E-03    -26.5224E-03     149.862E-03    -32.4561E-03     59.3298E-03    -26.4105E-03     151.469E-03
            1490     15.7768E-03     51.3565E-03    -8.62867E+06     121.508E+06     4.02426E+06    -363.516E+03    -33.4093E-03     59.6832E-03    -26.2739E-03     184.821E-03    -36.6655E-03     63.3279E-03    -26.4174E-03     185.338E-03
            1491     14.9022E-03     51.2095E-03    -6.88682E+06     59.6535E+06    -15.6745E+06     215.502E+03    -30.1543E-03     56.3859E-03    -26.2316E-03     127.911E-03    -31.1280E-03     57.5923E-03    -26.3865E-03     127.733E-03
            1492     14.0242E-03     51.1114E-03    -6.34653E+06     5.38714E+06    -8.22623E+06     577.447E+03    -28.1970E-03     54.5382E-03    -26.3411E-03     91.0960E-03    -28.5448E-03     54.9064E-03    -26.3809E-03     90.9056E-03
            1493     13.1480E-03     51.0362E-03    -6.45797E+06    -26.8459E+06    -6.07683E+06     330.031E+03    -27.8577E-03     54.2594E-03    -26.4017E-03     80.0629E-03    -28.0297E-03     54.3307E-03    -26.3837E-03     79.8950E-03
            1494     12.2725E-03     50.9594E-03    -6.45836E+06    -40.4930E+06     -78.456E+03     165.670E+03    -27.6726E-03     54.1297E-03    -26.4571E-03     75.4076E-03    -27.7693E-03     54.0599E-03    -26.3894E-03     75.2693E-03
            1495     11.3949E-03     50.8924E-03    -6.93526E+06    -52.0198E+06     1.82648E+06     222.605E+03    -27.4305E-03     53.9237E-03    -26.4933E-03     67.5332E-03    -27.4717E-03     53.7504E-03    -26.3987E-03     67.4236E-03
            1496     10.5185E-03     50.8314E-03    -7.56203E+06    -64.3803E+06     1.28287E+06     228.924E+03    -27.3639E-03     53.8805E-03    -26.5166E-03     61.9443E-03    -27.3640E-03     53.6214E-03    -26.4059E-03     61.8567E-03
            1497     9.64202E-03     50.7749E-03    -8.62801E+06    -71.9202E+06     3.15061E+06     237.299E+03    -27.2511E-03     53.7935E-03    -26.5424E-03     57.1380E-03    -27.2316E-03     53.4789E-03    -26.4098E-03     57.0688E-03
            1498     8.76535E-03     50.7229E-03    -9.89787E+06    -77.5744E+06     3.45460E+06     168.841E+03    -27.0988E-03     53.6578E-03    -26.5590E-03     52.1124E-03    -27.0662E-03     53.3046E-03    -26.4149E-03     52.0576E-03
            1499     7.88881E-03     50.6759E-03    -11.3488E+06    -83.4022E+06     2.76636E+06     138.154E+03    -26.9858E-03     53.5587E-03    -26.5729E-03     47.0630E-03    -26.9429E-03     53.1714E-03    -26.4217E-03     47.0200E-03
            1500     7.01219E-03     50.6336E-03    -13.1541E+06    -90.0114E+06     914.412E+03    -3.06999E+03    -26.8839E-03     53.4672E-03    -26.5833E-03     41.9455E-03    -26.8320E-03     53.0464E-03    -26.4291E-03     41.9107E-03
            1501     6.13564E-03     50.5963E-03    -15.0857E+06    -95.6118E+06    -2.62031E+06     136.742E+03    -26.8011E-03     53.3853E-03    -26.5842E-03     36.7410E-03    -26.7418E-03     52.9406E-03    -26.4367E-03     36.7159E-03
            1502     5.25905E-03     50.5639E-03    -16.9248E+06    -98.9491E+06    -7.02207E+06     293.974E+03    -26.7307E-03     53.3074E-03    -26.5767E-03     31.4846E-03    -26.6665E-03     52.8523E-03    -26.4438E-03     31.4680E-03
            1503     4.38255E-03     50.5365E-03    -18.4584E+06    -104.240E+06    -10.6610E+06     135.582E+03    -26.6761E-03     53.2507E-03    -26.5746E-03     26.2158E-03    -26.6048E-03     52.7748E-03    -26.4500E-03     26.2021E-03
            1504     3.50599E-03     50.5141E-03    -19.8374E+06    -109.599E+06    -14.0876E+06     53.9153E+03    -26.6327E-03     53.2051E-03    -26.5724E-03     20.9681E-03    -26.5543E-03     52.7081E-03    -26.4551E-03     20.9575E-03
            1505     2.62952E-03     50.4967E-03    -20.9845E+06    -111.817E+06    -17.7917E+06     52.6226E+03    -26.5966E-03     53.1596E-03    -26.5630E-03     15.7404E-03    -26.5145E-03     52.6577E-03    -26.4594E-03     15.7331E-03
            1506     1.75296E-03     50.4842E-03    -21.7714E+06    -113.418E+06    -20.3794E+06     99.2981E+03    -26.5744E-03     53.1309E-03    -26.5565E-03     10.5903E-03    -26.4896E-03     52.6254E-03    -26.4624E-03     10.5864E-03
            1507     876.524E-06     50.4766E-03    -22.2890E+06    -114.264E+06    -21.8437E+06     117.588E+03    -26.5646E-03     53.1115E-03    -26.5470E-03     5.74487E-03    -26.4788E-03     52.6044E-03    -26.4582E-03     5.74370E-03
            1508     16.6628E-03     50.5655E-03    -3.29121E+06     160.044E+06     68.9040E+06     1.15898E+06    -29.7095E-03     56.1133E-03    -26.4038E-03     145.563E-03    -32.9850E-03     59.7456E-03    -26.2866E-03     147.165E-03
            1509     15.7792E-03     50.3555E-03    -5.60236E+06     122.479E+06     5.51740E+06    -6.09609E+03    -31.4169E-03     57.5932E-03    -26.1764E-03     183.048E-03    -34.6004E-03     61.1754E-03    -26.3183E-03     183.664E-03
            1510     14.9019E-03     50.2099E-03    -6.94353E+06     58.2674E+06    -16.9617E+06    -170.006E+03    -29.6557E-03     55.8455E-03    -26.1898E-03     127.502E-03    -30.6250E-03     57.0461E-03    -26.3490E-03     127.325E-03
            1511     14.0261E-03     50.1128E-03    -6.43954E+06     5.63062E+06    -7.93438E+06     224.488E+03    -27.9844E-03     54.3080E-03    -26.3236E-03     91.1808E-03    -28.3339E-03     54.6776E-03    -26.3621E-03     90.9875E-03
            1512     13.1491E-03     50.0360E-03    -6.04395E+06    -26.7201E+06    -5.74237E+06     162.431E+03    -27.7189E-03     54.1135E-03    -26.3946E-03     80.2707E-03    -27.8897E-03     54.1846E-03    -26.3758E-03     80.1013E-03
            1513     12.2715E-03     49.9605E-03    -6.23061E+06    -40.6359E+06     46.2684E+03     222.281E+03    -27.6447E-03     54.1003E-03    -26.4556E-03     75.6540E-03    -27.7402E-03     54.0293E-03    -26.3874E-03     75.5167E-03
            1514     11.3953E-03     49.8930E-03    -6.82955E+06    -51.8724E+06     2.13016E+06     266.504E+03    -27.4242E-03     53.9184E-03    -26.4942E-03     67.7006E-03    -27.4656E-03     53.7452E-03    -26.3985E-03     67.5918E-03
            1515     10.5185E-03     49.8319E-03    -7.62688E+06    -64.5075E+06     1.18373E+06     253.748E+03    -27.3774E-03     53.8935E-03    -26.5161E-03     61.9620E-03    -27.3775E-03     53.6341E-03    -26.4056E-03     61.8746E-03
            1516     9.64198E-03     49.7753E-03    -8.36406E+06    -71.9749E+06     3.32915E+06     303.454E+03    -27.2490E-03     53.7913E-03    -26.5422E-03     57.1097E-03    -27.2283E-03     53.4757E-03    -26.4091E-03     57.0414E-03
            1517     8.76542E-03     49.7235E-03    -9.61107E+06    -77.3655E+06     3.62509E+06     272.852E+03    -27.0893E-03     53.6483E-03    -26.5590E-03     52.1436E-03    -27.0558E-03     53.2955E-03    -26.4148E-03     52.0902E-03
            1518     7.88875E-03     49.6764E-03    -11.0731E+06    -83.4074E+06     2.72234E+06     115.204E+03    -26.9803E-03     53.5535E-03    -26.5732E-03     47.0818E-03    -26.9359E-03     53.1658E-03    -26.4226E-03     47.0386E-03
            1519     7.01220E-03     49.6342E-03    -12.8177E+06    -90.1089E+06     1.33208E+06     334.034E+03    -26.8932E-03     53.4791E-03    -26.5859E-03     41.9318E-03    -26.8402E-03     53.0568E-03    -26.4300E-03     41.9013E-03
            1520     6.13560E-03     49.5968E-03    -14.9950E+06    -95.7191E+06    -2.02203E+06     414.919E+03    -26.8105E-03     53.3973E-03    -26.5869E-03     36.7231E-03    -26.7513E-03     52.9510E-03    -26.4364E-03     36.7016E-03
            1521     5.25910E-03     49.5644E-03    -16.7917E+06    -98.6823E+06    -6.68198E+06     174.843E+03    -26.7353E-03     53.3116E-03    -26.5763E-03     31.4700E-03    -26.6714E-03     52.8571E-03    -26.4423E-03     31.4517E-03
            1522     4.38252E-03     49.5370E-03    -18.2893E+06    -104.187E+06    -10.6061E+06     52.1782E+03    -26.6771E-03     53.2493E-03    -26.5721E-03     26.2024E-03    -26.6052E-03     52.7733E-03    -26.4476E-03     26.1877E-03
            1523     3.50604E-03     49.5146E-03    -19.7980E+06    -109.568E+06    -13.9747E+06     29.2343E+03    -26.6312E-03     53.2011E-03    -26.5699E-03     20.9560E-03    -26.5528E-03     52.7040E-03    -26.4522E-03     20.9451E-03
            1524     2.62948E-03     49.4972E-03    -21.1307E+06    -111.875E+06    -17.8385E+06     17.9512E+03    -26.5948E-03     53.1543E-03    -26.5596E-03     15.7323E-03    -26.5133E-03     52.6524E-03    -26.4559E-03     15.7245E-03
            1525     1.75302E-03     49.4847E-03    -22.0393E+06    -113.422E+06    -20.6265E+06     29.0700E+03    -26.5699E-03     53.1216E-03    -26.5517E-03     10.5853E-03    -26.4862E-03     52.6168E-03    -26.4584E-03     10.5805E-03
            1526     876.470E-06     49.4771E-03    -22.4796E+06    -114.197E+06    -22.1118E+06    -9.64125E+03    -26.5617E-03     53.1013E-03    -26.5395E-03     5.74503E-03    -26.4766E-03     52.5951E-03    -26.4519E-03     5.74221E-03
            1527     16.6592E-03     49.5728E-03    -4.76482E+06     159.527E+06     69.5862E+06    -59.5367E+03    -30.5048E-03     56.8844E-03    -26.3796E-03     150.379E-03    -33.8887E-03     60.6162E-03    -26.2561E-03     151.951E-03
            1528     15.7803E-03     49.3584E-03    -4.93724E+06     124.247E+06     8.89406E+06     1.52261E+06    -31.7137E-03     57.8710E-03    -26.1573E-03     189.087E-03    -35.0015E-03     61.5566E-03    -26.2858E-03     189.709E-03
            1529     14.9025E-03     49.2100E-03    -5.52251E+06     58.7757E+06    -15.5447E+06     691.055E+03    -29.1829E-03     55.3679E-03    -26.1850E-03     128.690E-03    -30.1422E-03     56.5614E-03    -26.3399E-03     128.535E-03
            1530     14.0250E-03     49.1135E-03    -5.42724E+06     4.89550E+06    -8.00605E+06     228.242E+03    -27.9088E-03     54.2435E-03    -26.3347E-03     92.1986E-03    -28.2528E-03     54.6088E-03    -26.3739E-03     92.0064E-03
            1531     13.1480E-03     49.0370E-03    -5.64812E+06    -26.6090E+06    -5.47003E+06     421.695E+03    -27.8048E-03     54.2146E-03    -26.4098E-03     80.8670E-03    -27.9754E-03     54.2865E-03    -26.3904E-03     80.7003E-03
            1532     12.2720E-03     48.9608E-03    -6.34051E+06    -40.5028E+06     67.1783E+03     348.399E+03    -27.7249E-03     54.1911E-03    -26.4662E-03     75.6017E-03    -27.8211E-03     54.1208E-03    -26.3979E-03     75.4657E-03
            1533     11.3950E-03     48.8936E-03    -6.90593E+06    -52.1170E+06     1.95796E+06     264.628E+03    -27.5285E-03     54.0266E-03    -26.4981E-03     67.8267E-03    -27.5700E-03     53.8529E-03    -26.4027E-03     67.7172E-03
            1534     10.5186E-03     48.8324E-03    -7.58366E+06    -64.3267E+06     1.31120E+06     318.186E+03    -27.3791E-03     53.8961E-03    -26.5170E-03     61.9971E-03    -27.3794E-03     53.6373E-03    -26.4062E-03     61.9107E-03
            1535     9.64197E-03     48.7758E-03    -8.47932E+06    -72.1615E+06     3.16185E+06     248.241E+03    -27.2236E-03     53.7672E-03    -26.5437E-03     57.1144E-03    -27.2029E-03     53.4511E-03    -26.4109E-03     57.0456E-03
            1536     8.76532E-03     48.7241E-03    -9.54247E+06    -77.2043E+06     3.76276E+06     251.395E+03    -27.1108E-03     53.6722E-03    -26.5615E-03     52.1368E-03    -27.0773E-03     53.3199E-03    -26.4169E-03     52.0830E-03
            1537     7.88879E-03     48.6769E-03    -11.1542E+06    -83.4463E+06     2.84100E+06     333.966E+03    -26.9979E-03     53.5720E-03    -26.5741E-03     47.0656E-03    -26.9540E-03     53.1840E-03    -26.4227E-03     47.0252E-03
            1538     7.01217E-03     48.6347E-03    -13.1091E+06    -90.4595E+06     1.36910E+06     514.569E+03    -26.9047E-03     53.4898E-03    -26.5852E-03     41.9003E-03    -26.8526E-03     53.0662E-03    -26.4282E-03     41.8721E-03
            1539     6.13568E-03     48.5973E-03    -14.7717E+06    -95.2465E+06    -1.74210E+06     426.666E+03    -26.8176E-03     53.4013E-03    -26.5837E-03     36.6928E-03    -26.7584E-03     52.9566E-03    -26.4329E-03     36.6714E-03
            1540     5.25908E-03     48.5649E-03    -16.4700E+06    -98.5400E+06    -6.65656E+06     155.118E+03    -26.7356E-03     53.3067E-03    -26.5710E-03     31.4469E-03    -26.6704E-03     52.8524E-03    -26.4375E-03     31.4284E-03
            1541     4.38258E-03     48.5376E-03    -18.1924E+06    -104.169E+06    -10.6046E+06     132.108E+03    -26.6760E-03     53.2425E-03    -26.5665E-03     26.1792E-03    -26.6036E-03     52.7665E-03    -26.4421E-03     26.1655E-03
            1542     3.50601E-03     48.5152E-03    -19.8420E+06    -109.559E+06    -13.8628E+06     122.662E+03    -26.6302E-03     53.1940E-03    -26.5638E-03     20.9330E-03    -26.5522E-03     52.6969E-03    -26.4455E-03     20.9233E-03
            1543     2.62955E-03     48.4977E-03    -21.2664E+06    -111.856E+06    -17.7969E+06     93.0104E+03    -26.5906E-03     53.1422E-03    -26.5516E-03     15.7116E-03    -26.5099E-03     52.6405E-03    -26.4476E-03     15.7048E-03
            1544     1.75299E-03     48.4853E-03    -22.2719E+06    -113.378E+06    -20.8000E+06     20.8640E+03    -26.5611E-03     53.1025E-03    -26.5414E-03     10.5691E-03    -26.4784E-03     52.5985E-03    -26.4487E-03     10.5643E-03
            1545     876.527E-06     48.4776E-03    -22.8879E+06    -114.247E+06    -22.5163E+06    -46.1570E+03    -26.5438E-03     53.0781E-03    -26.5343E-03     5.73329E-03    -26.4601E-03     52.5729E-03    -26.4480E-03     5.73001E-03
            1546     16.6490E-03     48.5655E-03    -5.34176E+06     158.289E+06     68.0764E+06    -823.236E+03    -29.6708E-03     56.1513E-03    -26.4805E-03     147.204E-03    -33.0237E-03     59.8498E-03    -26.3619E-03     148.763E-03
            1547     15.7787E-03     48.3584E-03    -8.04930E+06     122.650E+06     6.30243E+06    -866.598E+03    -32.8194E-03     59.0560E-03    -26.2366E-03     186.548E-03    -36.0918E-03     62.7167E-03    -26.3712E-03     187.086E-03
            1548     14.9019E-03     48.2119E-03    -6.42396E+06     59.0527E+06    -15.7403E+06     542.466E+03    -29.4875E-03     55.7153E-03    -26.2278E-03     129.644E-03    -30.4586E-03     56.9189E-03    -26.3828E-03     129.484E-03
            1549     14.0243E-03     48.1143E-03    -6.40975E+06     4.51836E+06    -8.62856E+06     651.354E+03    -28.2095E-03     54.5713E-03    -26.3618E-03     92.1716E-03    -28.5592E-03     54.9393E-03    -26.4022E-03     91.9811E-03
            1550     13.1484E-03     48.0366E-03    -6.49985E+06    -26.1946E+06    -5.82741E+06     393.169E+03    -27.9355E-03     54.3591E-03    -26.4236E-03     80.2781E-03    -28.1097E-03     54.4341E-03    -26.4053E-03     80.1100E-03
            1551     12.2715E-03     47.9618E-03    -6.42182E+06    -40.1156E+06     55.7002E+03     442.075E+03    -27.7708E-03     54.2452E-03    -26.4744E-03     75.5937E-03    -27.8680E-03     54.1771E-03    -26.4067E-03     75.4586E-03
            1552     11.3950E-03     47.8937E-03    -7.20979E+06    -52.1942E+06     1.62298E+06     328.638E+03    -27.5828E-03     54.0852E-03    -26.5024E-03     67.7972E-03    -27.6252E-03     53.9121E-03    -26.4082E-03     67.6883E-03
            1553     10.5186E-03     47.8329E-03    -7.77648E+06    -64.3528E+06     1.23641E+06     287.951E+03    -27.3853E-03     53.9055E-03    -26.5201E-03     61.9151E-03    -27.3863E-03     53.6468E-03    -26.4094E-03     61.8283E-03
            1554     9.64188E-03     47.7764E-03    -8.68675E+06    -71.9824E+06     3.11653E+06     232.274E+03    -27.2463E-03     53.7917E-03    -26.5454E-03     57.1223E-03    -27.2269E-03     53.4769E-03    -26.4129E-03     57.0532E-03
            1555     8.76537E-03     47.7245E-03    -10.0801E+06    -77.3552E+06     3.52651E+06     247.353E+03    -27.1336E-03     53.6945E-03    -26.5609E-03     52.0812E-03    -27.1023E-03     53.3426E-03    -26.4165E-03     52.0273E-03
            1556     7.88878E-03     47.6775E-03    -11.6311E+06    -83.6854E+06     2.69008E+06     547.578E+03    -27.0213E-03     53.5923E-03    -26.5710E-03     47.0126E-03    -26.9793E-03     53.2041E-03    -26.4193E-03     46.9748E-03
            1557     7.01227E-03     47.6352E-03    -13.1858E+06    -90.1780E+06     1.03065E+06     413.427E+03    -26.9116E-03     53.4889E-03    -26.5773E-03     41.8700E-03    -26.8599E-03     53.0673E-03    -26.4223E-03     41.8404E-03
            1558     6.13566E-03     47.5979E-03    -14.8490E+06    -95.0817E+06    -2.07956E+06     159.533E+03    -26.8171E-03     53.3917E-03    -26.5745E-03     36.6607E-03    -26.7581E-03     52.9484E-03    -26.4255E-03     36.6359E-03
            1559     5.25917E-03     47.5654E-03    -16.5116E+06    -98.5222E+06    -6.57580E+06     283.658E+03    -26.7348E-03     53.2976E-03    -26.5629E-03     31.4092E-03    -26.6698E-03     52.8434E-03    -26.4289E-03     31.3923E-03
            1560     4.38258E-03     47.5381E-03    -18.2017E+06    -104.115E+06    -10.5535E+06     284.644E+03    -26.6724E-03     53.2290E-03    -26.5567E-03     26.1466E-03    -26.6001E-03     52.7532E-03    -26.4321E-03     26.1349E-03
            1561     3.50610E-03     47.5157E-03    -19.7958E+06    -109.498E+06    -13.8491E+06     235.428E+03    -26.6246E-03     53.1769E-03    -26.5522E-03     20.9063E-03    -26.5465E-03     52.6799E-03    -26.4340E-03     20.8980E-03
            1562     2.62954E-03     47.4983E-03    -21.2017E+06    -111.767E+06    -17.6903E+06     183.674E+03    -26.5820E-03     53.1209E-03    -26.5389E-03     15.6915E-03    -26.5012E-03     52.6194E-03    -26.4346E-03     15.6859E-03
            1563     1.75306E-03     47.4858E-03    -22.2756E+06    -113.274E+06    -20.6741E+06     103.354E+03    -26.5511E-03     53.0779E-03    -26.5268E-03     10.5551E-03    -26.4687E-03     52.5742E-03    -26.4336E-03     10.5513E-03
            1564     876.507E-06     47.4782E-03    -22.9722E+06    -114.259E+06    -22.5640E+06     38.6387E+03    -26.5207E-03     53.0448E-03    -26.5240E-03     5.71312E-03    -26.4373E-03     52.5396E-03    -26.4378E-03     5.71095E-03
            1565     16.6606E-03     47.5678E-03    -3.78239E+06     159.499E+06     68.2030E+06     349.429E+03    -29.1685E-03     55.6545E-03    -26.4860E-03     149.219E-03    -32.5338E-03     59.3748E-03    -26.3708E-03     150.851E-03
            1566     15.7773E-03     47.3589E-03    -7.16619E+06     121.966E+06     3.52851E+06    -270.118E+03    -32.1411E-03     58.4028E-03    -26.2617E-03     185.238E-03    -35.3835E-03     62.0423E-03    -26.4105E-03     185.827E-03
            1567     14.9000E-03     47.2125E-03    -8.57996E+06     57.7683E+06    -18.7908E+06    -576.680E+03    -30.0794E-03     56.3352E-03    -26.2557E-03     129.055E-03    -31.0582E-03     57.5431E-03    -26.4210E-03     128.870E-03
            1568     14.0252E-03     47.1133E-03    -7.22087E+06     5.23415E+06    -8.84473E+06     176.267E+03    -28.5035E-03     54.8753E-03    -26.3718E-03     91.8975E-03    -28.8598E-03     55.2501E-03    -26.4132E-03     91.6976E-03
            1569     13.1483E-03     47.0382E-03    -6.30033E+06    -26.6057E+06    -5.90007E+06     482.298E+03    -27.9384E-03     54.3634E-03    -26.4250E-03     80.2102E-03    -28.1100E-03     54.4354E-03    -26.4068E-03     80.0437E-03
            1570     12.2715E-03     46.9616E-03    -6.53998E+06    -40.0588E+06     197.579E+03     378.847E+03    -27.8109E-03     54.2859E-03    -26.4750E-03     75.4642E-03    -27.9095E-03     54.2185E-03    -26.4064E-03     75.3276E-03
            1571     11.3952E-03     46.8943E-03    -7.14320E+06    -51.9384E+06     1.72834E+06     301.004E+03    -27.5382E-03     54.0402E-03    -26.5020E-03     67.5914E-03    -27.5806E-03     53.8678E-03    -26.4077E-03     67.4825E-03
            1572     10.5184E-03     46.8334E-03    -7.89844E+06    -64.5285E+06     1.01985E+06     211.594E+03    -27.3994E-03     53.9192E-03    -26.5198E-03     61.8515E-03    -27.4005E-03     53.6602E-03    -26.4096E-03     61.7636E-03
            1573     9.64200E-03     46.7768E-03    -8.84435E+06    -71.8717E+06     3.09826E+06     295.160E+03    -27.2914E-03     53.8341E-03    -26.5426E-03     57.0207E-03    -27.2729E-03     53.5200E-03    -26.4101E-03     56.9521E-03
            1574     8.76538E-03     46.7251E-03    -10.2045E+06    -77.5355E+06     3.40391E+06     433.845E+03    -27.1481E-03     53.7026E-03    -26.5545E-03     52.0141E-03    -27.1170E-03     53.3501E-03    -26.4102E-03     51.9625E-03
            1575     7.88888E-03     46.6779E-03    -11.5993E+06    -83.7145E+06     2.44998E+06     368.318E+03    -27.0284E-03     53.5899E-03    -26.5615E-03     46.9482E-03    -26.9858E-03     53.2018E-03    -26.4110E-03     46.9081E-03
            1576     7.01230E-03     46.6357E-03    -13.0713E+06    -89.8199E+06     910.311E+03     249.636E+03    -26.9159E-03     53.4817E-03    -26.5658E-03     41.8166E-03    -26.8639E-03     53.0618E-03    -26.4121E-03     41.7850E-03
            1577     6.13579E-03     46.5983E-03    -14.8677E+06    -95.0989E+06    -2.27732E+06     206.092E+03    -26.8161E-03     53.3778E-03    -26.5616E-03     36.6124E-03    -26.7569E-03     52.9347E-03    -26.4136E-03     36.5882E-03
            1578     5.25919E-03     46.5660E-03    -16.6902E+06    -98.6545E+06    -6.66605E+06     242.632E+03    -26.7311E-03     53.2802E-03    -26.5491E-03     31.3625E-03    -26.6667E-03     52.8257E-03    -26.4152E-03     31.3451E-03
            1579     4.38269E-03     46.5386E-03    -18.2113E+06    -104.023E+06    -10.4338E+06     334.089E+03    -26.6641E-03     53.2057E-03    -26.5416E-03     26.1078E-03    -26.5922E-03     52.7301E-03    -26.4166E-03     26.0967E-03
            1580     3.50612E-03     46.5163E-03    -19.7366E+06    -109.398E+06    -13.8367E+06     305.406E+03    -26.6109E-03     53.1462E-03    -26.5353E-03     20.8720E-03    -26.5327E-03     52.6497E-03    -26.4173E-03     20.8646E-03
            1581     2.62962E-03     46.4989E-03    -21.0671E+06    -111.607E+06    -17.6078E+06     222.950E+03    -26.5665E-03     53.0880E-03    -26.5215E-03     15.6642E-03    -26.4855E-03     52.5870E-03    -26.4171E-03     15.6591E-03
            1582     1.75305E-03     46.4864E-03    -22.0267E+06    -113.176E+06    -20.4118E+06     139.775E+03    -26.5337E-03     53.0435E-03    -26.5099E-03     10.5380E-03    -26.4505E-03     52.5396E-03    -26.4159E-03     10.5347E-03
            1583     876.557E-06     46.4788E-03    -22.6530E+06    -114.138E+06    -22.1804E+06     98.0506E+03    -26.5027E-03     53.0116E-03    -26.5089E-03     5.69100E-03    -26.4184E-03     52.5061E-03    -26.4215E-03     5.68960E-03
            1584     16.6489E-03     46.5654E-03    -4.53706E+06     158.803E+06     68.1953E+06     253.492E+03    -29.0384E-03     55.5250E-03    -26.4866E-03     149.841E-03    -32.4046E-03     59.2411E-03    -26.3693E-03     151.471E-03
            1585     15.7772E-03     46.3605E-03    -7.22092E+06     121.937E+06     3.96022E+06     102.139E+03    -32.4072E-03     58.6649E-03    -26.2577E-03     184.728E-03    -35.6443E-03     62.2976E-03    -26.4042E-03     185.306E-03
            1586     14.9019E-03     46.2111E-03    -6.05097E+06     58.4047E+06    -17.5848E+06    -116.824E+03    -30.0719E-03     56.3122E-03    -26.2403E-03     128.018E-03    -31.0406E-03     57.5178E-03    -26.4042E-03     127.837E-03
            1587     14.0242E-03     46.1146E-03    -6.21255E+06     4.69589E+06    -8.60161E+06    -231.425E+03    -28.1824E-03     54.5448E-03    -26.3624E-03     91.2611E-03    -28.5296E-03     54.9116E-03    -26.4033E-03     91.0597E-03
            1588     13.1478E-03     46.0376E-03    -6.79775E+06    -26.9196E+06    -6.27458E+06     231.027E+03    -27.9581E-03     54.3804E-03    -26.4223E-03     80.0703E-03    -28.1320E-03     54.4528E-03    -26.4048E-03     79.8999E-03
            1589     12.2721E-03     45.9623E-03    -6.91192E+06    -40.4999E+06    -420.608E+03     315.037E+03    -27.8311E-03     54.3003E-03    -26.4691E-03     75.4236E-03    -27.9302E-03     54.2322E-03    -26.4025E-03     75.2859E-03
            1590     11.3949E-03     45.8949E-03    -7.06588E+06    -51.7497E+06     1.63302E+06     285.427E+03    -27.5434E-03     54.0393E-03    -26.4959E-03     67.5998E-03    -27.5856E-03     53.8679E-03    -26.4024E-03     67.4905E-03
            1591     10.5187E-03     45.8337E-03    -7.89146E+06    -64.3927E+06     980.163E+03     230.748E+03    -27.4299E-03     53.9419E-03    -26.5120E-03     61.7558E-03    -27.4311E-03     53.6836E-03    -26.4023E-03     61.6680E-03
            1592     9.64199E-03     45.7774E-03    -8.90756E+06    -72.0717E+06     2.91880E+06     321.654E+03    -27.2977E-03     53.8299E-03    -26.5322E-03     56.9285E-03    -27.2790E-03     53.5152E-03    -26.4002E-03     56.8602E-03
            1593     8.76555E-03     45.7254E-03    -9.95521E+06    -77.5646E+06     3.46228E+06     391.755E+03    -27.1591E-03     53.7016E-03    -26.5425E-03     51.9362E-03    -27.1268E-03     53.3486E-03    -26.3983E-03     51.8840E-03
            1594     7.88895E-03     45.6785E-03    -11.3621E+06    -83.4799E+06     2.60583E+06     317.645E+03    -27.0256E-03     53.5733E-03    -26.5477E-03     46.8808E-03    -26.9823E-03     53.1858E-03    -26.3972E-03     46.8401E-03
            1595     7.01243E-03     45.6362E-03    -13.1197E+06    -89.8148E+06     899.981E+03     235.260E+03    -26.9141E-03     53.4645E-03    -26.5504E-03     41.7521E-03    -26.8623E-03     53.0447E-03    -26.3966E-03     41.7202E-03
            1596     6.13586E-03     45.5990E-03    -14.9269E+06    -95.0909E+06    -2.22869E+06     281.006E+03    -26.8134E-03     53.3578E-03    -26.5443E-03     36.5515E-03    -26.7546E-03     52.9148E-03    -26.3960E-03     36.5283E-03
            1597     5.25934E-03     45.5665E-03    -16.6596E+06    -98.6537E+06    -6.77618E+06     267.977E+03    -26.7216E-03     53.2504E-03    -26.5288E-03     31.3101E-03    -26.6569E-03     52.7960E-03    -26.3955E-03     31.2930E-03
            1598     4.38275E-03     45.5393E-03    -18.3125E+06    -104.054E+06    -10.5802E+06     266.452E+03    -26.6502E-03     53.1699E-03    -26.5197E-03     26.0602E-03    -26.5786E-03     52.6945E-03    -26.3951E-03     26.0482E-03
            1599     3.50623E-03     45.5168E-03    -19.7328E+06    -109.227E+06    -13.7881E+06     271.314E+03    -26.5932E-03     53.1055E-03    -26.5123E-03     20.8316E-03    -26.5153E-03     52.6098E-03    -26.3942E-03     20.8238E-03
            1600     2.62965E-03     45.4995E-03    -20.9554E+06    -111.468E+06    -17.5330E+06     170.440E+03    -26.5443E-03     53.0417E-03    -26.4973E-03     15.6281E-03    -26.4630E-03     52.5411E-03    -26.3930E-03     15.6223E-03
            1601     1.75313E-03     45.4870E-03    -21.8414E+06    -113.082E+06    -20.4014E+06     124.589E+03    -26.5061E-03     52.9923E-03    -26.4863E-03     10.5075E-03    -26.4221E-03     52.4886E-03    -26.3927E-03     10.5041E-03
            1602     876.537E-06     45.4795E-03    -22.3681E+06    -113.995E+06    -22.0308E+06     97.1773E+03    -26.4858E-03     52.9687E-03    -26.4829E-03     5.68035E-03    -26.4006E-03     52.4633E-03    -26.3953E-03     5.67895E-03
            1603     16.6606E-03     45.5713E-03    -3.37259E+06     159.535E+06     69.6490E+06     671.936E+03    -29.5762E-03     55.9922E-03    -26.4160E-03     146.222E-03    -32.8702E-03     59.6386E-03    -26.2942E-03     147.827E-03
            1604     15.7786E-03     45.3581E-03    -6.10205E+06     122.717E+06     5.42691E+06     95.4928E+03    -31.5042E-03     57.7000E-03    -26.1958E-03     185.397E-03    -34.7301E-03     61.3240E-03    -26.3378E-03     186.023E-03
            1605     14.9020E-03     45.2129E-03    -7.17072E+06     57.9731E+06    -18.0939E+06     43.2271E+03    -29.7362E-03     55.9443E-03    -26.2081E-03     128.118E-03    -30.7093E-03     57.1502E-03    -26.3723E-03     127.943E-03
            1606     14.0254E-03     45.1149E-03    -6.70496E+06     4.41502E+06    -8.83354E+06     258.397E+03    -28.0399E-03     54.3835E-03    -26.3436E-03     91.5002E-03    -28.3882E-03     54.7493E-03    -26.3845E-03     91.3064E-03
            1607     13.1488E-03     45.0382E-03    -6.56748E+06    -27.0275E+06    -6.18589E+06    -10.4961E+03    -27.7825E-03     54.1964E-03    -26.4138E-03     80.2343E-03    -27.9547E-03     54.2672E-03    -26.3961E-03     80.0621E-03
            1608     12.2711E-03     44.9627E-03    -6.64733E+06    -40.2963E+06    -108.736E+03     150.106E+03    -27.8431E-03     54.3096E-03    -26.4665E-03     75.3481E-03    -27.9413E-03     54.2414E-03    -26.3989E-03     75.2084E-03
            1609     11.3954E-03     44.8951E-03    -7.25500E+06    -51.8246E+06     1.68279E+06     272.761E+03    -27.6400E-03     54.1281E-03    -26.4880E-03     67.4483E-03    -27.6833E-03     53.9567E-03    -26.3939E-03     67.3382E-03
            1610     10.5186E-03     44.8344E-03    -7.87303E+06    -64.2846E+06     1.05191E+06     248.002E+03    -27.4330E-03     53.9316E-03    -26.4986E-03     61.6969E-03    -27.4342E-03     53.6736E-03    -26.3887E-03     61.6095E-03
            1611     9.64224E-03     44.7777E-03    -8.72892E+06    -72.2500E+06     2.98339E+06     300.782E+03    -27.2994E-03     53.8168E-03    -26.5174E-03     56.8730E-03    -27.2794E-03     53.5007E-03    -26.3851E-03     56.8045E-03
            1612     8.76564E-03     44.7260E-03    -9.99368E+06    -77.5021E+06     3.44627E+06     346.610E+03    -27.1571E-03     53.6827E-03    -26.5256E-03     51.8606E-03    -27.1249E-03     53.3300E-03    -26.3815E-03     51.8079E-03
            1613     7.88914E-03     44.6789E-03    -11.4608E+06    -83.4213E+06     2.58767E+06     331.922E+03    -27.0279E-03     53.5567E-03    -26.5288E-03     46.8184E-03    -26.9852E-03     53.1697E-03    -26.3783E-03     46.7779E-03
            1614     7.01255E-03     44.6368E-03    -13.0985E+06    -89.7393E+06     981.526E+03     323.280E+03    -26.9108E-03     53.4400E-03    -26.5292E-03     41.6795E-03    -26.8591E-03     53.0204E-03    -26.3752E-03     41.6489E-03
            1615     6.13603E-03     44.5994E-03    -14.9060E+06    -95.1198E+06    -2.32660E+06     264.910E+03    -26.8037E-03     53.3239E-03    -26.5202E-03     36.4811E-03    -26.7445E-03     52.8809E-03    -26.3723E-03     36.4577E-03
            1616     5.25944E-03     44.5672E-03    -16.6500E+06    -98.6259E+06    -6.77084E+06     321.809E+03    -26.7081E-03     53.2110E-03    -26.5029E-03     31.2468E-03    -26.6434E-03     52.7567E-03    -26.3696E-03     31.2305E-03
            1617     4.38290E-03     44.5398E-03    -18.2371E+06    -103.927E+06    -10.5311E+06     258.472E+03    -26.6317E-03     53.1232E-03    -26.4916E-03     26.0039E-03    -26.5599E-03     52.6483E-03    -26.3671E-03     25.9919E-03
            1618     3.50631E-03     44.5176E-03    -19.7069E+06    -109.125E+06    -13.7715E+06     111.829E+03    -26.5695E-03     53.0518E-03    -26.4823E-03     20.7844E-03    -26.4916E-03     52.5565E-03    -26.3643E-03     20.7746E-03
            1619     2.62976E-03     44.5001E-03    -20.8979E+06    -111.405E+06    -17.5493E+06     111.860E+03    -26.5161E-03     52.9818E-03    -26.4658E-03     15.5904E-03    -26.4345E-03     52.4815E-03    -26.3617E-03     15.5839E-03
            1620     1.75316E-03     44.4878E-03    -21.7862E+06    -113.014E+06    -20.3649E+06     102.271E+03    -26.4764E-03     52.9302E-03    -26.4537E-03     10.4753E-03    -26.3924E-03     52.4266E-03    -26.3601E-03     10.4716E-03
            1621     876.587E-06     44.4801E-03    -22.2791E+06    -113.874E+06    -21.9032E+06     57.5074E+03    -26.4584E-03     52.9024E-03    -26.4441E-03     5.67527E-03    -26.3730E-03     52.3973E-03    -26.3561E-03     5.67335E-03
            1622     16.6575E-03     44.5758E-03    -4.81958E+06     158.870E+06     69.6363E+06    -138.492E+03    -30.1640E-03     56.5973E-03    -26.4333E-03     149.446E-03    -33.5452E-03     60.3236E-03    -26.3085E-03     151.023E-03
            1623     15.7795E-03     44.3610E-03    -5.79326E+06     124.095E+06     8.19294E+06     1.64701E+06    -32.1093E-03     58.3173E-03    -26.2080E-03     189.404E-03    -35.4127E-03     62.0169E-03    -26.3386E-03     190.015E-03
            1624     14.9014E-03     44.2124E-03    -6.67400E+06     58.3580E+06    -16.9223E+06     679.306E+03    -29.5722E-03     55.7866E-03    -26.2144E-03     129.144E-03    -30.5405E-03     56.9875E-03    -26.3739E-03     128.983E-03
            1625     14.0251E-03     44.1157E-03    -6.50823E+06     4.31304E+06    -8.71011E+06     44.6248E+03    -28.2853E-03     54.6311E-03    -26.3459E-03     91.7791E-03    -28.6339E-03     54.9972E-03    -26.3862E-03     91.5799E-03
            1626     13.1478E-03     44.0391E-03    -6.17627E+06    -26.7637E+06    -5.50746E+06     216.768E+03    -27.8979E-03     54.3048E-03    -26.4069E-03     80.3173E-03    -28.0693E-03     54.3752E-03    -26.3867E-03     80.1475E-03
            1627     12.2723E-03     43.9626E-03    -6.69989E+06    -40.5130E+06    -98.3099E+03     1.46430E+03    -27.8324E-03     54.2857E-03    -26.4533E-03     75.2812E-03    -27.9301E-03     54.2162E-03    -26.3854E-03     75.1399E-03
            1628     11.3953E-03     43.8957E-03    -6.99462E+06    -51.9602E+06     1.70146E+06     39.6476E+03    -27.6264E-03     54.1004E-03    -26.4741E-03     67.3074E-03    -27.6679E-03     53.9277E-03    -26.3801E-03     67.1946E-03
            1629     10.5190E-03     43.8346E-03    -7.67539E+06    -64.3941E+06     1.22526E+06     382.382E+03    -27.4592E-03     53.9427E-03    -26.4836E-03     61.6350E-03    -27.4595E-03     53.6836E-03    -26.3729E-03     61.5492E-03
            1630     9.64235E-03     43.7783E-03    -8.72918E+06    -72.1547E+06     3.00262E+06     362.054E+03    -27.3033E-03     53.8020E-03    -26.4987E-03     56.8068E-03    -27.2835E-03     53.4863E-03    -26.3664E-03     56.7393E-03
            1631     8.76587E-03     43.7264E-03    -9.90714E+06    -77.5579E+06     3.49748E+06     321.044E+03    -27.1613E-03     53.6660E-03    -26.5047E-03     51.7900E-03    -27.1287E-03     53.3127E-03    -26.3603E-03     51.7371E-03
            1632     7.88928E-03     43.6795E-03    -11.3303E+06    -83.3608E+06     2.64566E+06     368.340E+03    -27.0329E-03     53.5375E-03    -26.5046E-03     46.7302E-03    -26.9897E-03     53.1504E-03    -26.3541E-03     46.6903E-03
            1633     7.01278E-03     43.6373E-03    -13.0252E+06    -89.7048E+06     944.852E+03     335.790E+03    -26.9056E-03     53.4071E-03    -26.5014E-03     41.5939E-03    -26.8536E-03     52.9876E-03    -26.3478E-03     41.5635E-03
            1634     6.13619E-03     43.6001E-03    -14.8565E+06    -95.0603E+06    -2.29601E+06     361.522E+03    -26.7911E-03     53.2810E-03    -26.4898E-03     36.4005E-03    -26.7318E-03     52.8381E-03    -26.3419E-03     36.3784E-03
            1635     5.25964E-03     43.5678E-03    -16.6138E+06    -98.6185E+06    -6.80519E+06     305.185E+03    -26.6900E-03     53.1597E-03    -26.4697E-03     31.1693E-03    -26.6251E-03     52.7054E-03    -26.3366E-03     31.1529E-03
            1636     4.38304E-03     43.5406E-03    -18.1795E+06    -103.718E+06    -10.5971E+06     254.866E+03    -26.6059E-03     53.0613E-03    -26.4555E-03     25.9349E-03    -26.5340E-03     52.5875E-03    -26.3317E-03     25.9229E-03
            1637     3.50646E-03     43.5182E-03    -19.7119E+06    -108.982E+06    -13.9116E+06     123.700E+03    -26.5369E-03     52.9812E-03    -26.4443E-03     20.7272E-03    -26.4590E-03     52.4868E-03    -26.3273E-03     20.7176E-03
            1638     2.62984E-03     43.5009E-03    -21.0563E+06    -111.418E+06    -17.5437E+06         756.320    -26.4803E-03     52.9080E-03    -26.4277E-03     15.5469E-03    -26.3995E-03     52.4078E-03    -26.3234E-03     15.5390E-03
            1639     1.75324E-03     43.4884E-03    -21.8811E+06    -112.961E+06    -20.2224E+06    -28.6663E+03    -26.4420E-03     52.8557E-03    -26.4138E-03     10.4481E-03    -26.3587E-03     52.3524E-03    -26.3193E-03     10.4427E-03
            1640     876.632E-06     43.4809E-03    -22.3830E+06    -113.895E+06    -21.8549E+06    -54.8863E+03    -26.4132E-03     52.8172E-03    -26.4040E-03     5.66367E-03    -26.3284E-03     52.3120E-03    -26.3157E-03     5.66032E-03
            1641     16.6494E-03     43.5680E-03    -5.66574E+06     157.414E+06     67.5308E+06    -549.776E+03    -29.5690E-03     56.0833E-03    -26.5143E-03     148.167E-03    -32.9358E-03     59.7930E-03    -26.3966E-03     149.744E-03
            1642     15.7781E-03     43.3621E-03    -8.03318E+06     122.260E+06     6.03064E+06    -191.410E+03    -33.3268E-03     59.5876E-03    -26.2608E-03     186.357E-03    -36.5984E-03     63.2472E-03    -26.3963E-03     186.884E-03
            1643     14.9014E-03     43.2133E-03    -5.98261E+06     59.6358E+06    -15.3946E+06     731.475E+03    -29.8948E-03     56.1211E-03    -26.2263E-03     128.953E-03    -30.8664E-03     57.3278E-03    -26.3810E-03     128.786E-03
            1644     14.0244E-03     43.1155E-03    -6.04662E+06     4.60962E+06    -8.72432E+06     301.156E+03    -28.3154E-03     54.6559E-03    -26.3405E-03     91.2187E-03    -28.6606E-03     55.0213E-03    -26.3820E-03     91.0229E-03
            1645     13.1494E-03     43.0394E-03    -6.46356E+06    -26.8072E+06     -6.3423E+06     21.5809E+03    -28.0662E-03     54.4570E-03    -26.3908E-03     80.1104E-03    -28.2381E-03     54.5292E-03    -26.3743E-03     79.9368E-03
            1646     12.2717E-03     42.9634E-03    -6.08030E+06    -40.3288E+06    -126.606E+03     120.793E+03    -27.8286E-03     54.2616E-03    -26.4330E-03     75.3161E-03    -27.9235E-03     54.1920E-03    -26.3663E-03     75.1764E-03
            1647     11.3956E-03     42.8958E-03    -7.22479E+06    -52.3405E+06     1.38428E+06     170.023E+03    -27.5824E-03     54.0372E-03    -26.4548E-03     67.2529E-03    -27.6237E-03     53.8630E-03    -26.3615E-03     67.1422E-03
            1648     10.5190E-03     42.8352E-03    -8.08742E+06    -64.6061E+06     887.272E+03     327.790E+03    -27.4708E-03     53.9344E-03    -26.4636E-03     61.5216E-03    -27.4723E-03     53.6753E-03    -26.3538E-03     61.4351E-03
            1649     9.64262E-03     42.7787E-03    -8.82496E+06    -71.9612E+06     2.93086E+06     366.298E+03    -27.3208E-03     53.7963E-03    -26.4756E-03     56.7206E-03    -27.3015E-03     53.4818E-03    -26.3438E-03     56.6532E-03
            1650     8.76605E-03     42.7270E-03    -10.0282E+06    -77.5833E+06     3.29440E+06     285.883E+03    -27.1746E-03     53.6518E-03    -26.4772E-03     51.6992E-03    -27.1422E-03     53.2988E-03    -26.3336E-03     51.6459E-03
            1651     7.88958E-03     42.6800E-03    -11.3984E+06    -83.3696E+06     2.52603E+06     300.709E+03    -27.0301E-03     53.5037E-03    -26.4736E-03     46.6268E-03    -26.9869E-03     53.1168E-03    -26.3235E-03     46.5860E-03
            1652     7.01298E-03     42.6380E-03    -12.9702E+06    -89.6846E+06     860.120E+03     378.836E+03    -26.8956E-03     53.3627E-03    -26.4671E-03     41.4978E-03    -26.8431E-03     52.9433E-03    -26.3140E-03     41.4680E-03
            1653     6.13644E-03     42.6007E-03    -14.7434E+06    -95.0668E+06    -2.20310E+06     406.081E+03    -26.7764E-03     53.2294E-03    -26.4531E-03     36.3093E-03    -26.7166E-03     52.7862E-03    -26.3049E-03     36.2879E-03
            1654     5.25984E-03     42.5685E-03    -16.5683E+06    -98.4748E+06    -6.66841E+06     429.959E+03    -26.6641E-03     53.0941E-03    -26.4300E-03     31.0869E-03    -26.5993E-03     52.6402E-03    -26.2965E-03     31.0721E-03
            1655     4.38324E-03     42.5412E-03    -18.3185E+06    -103.561E+06    -10.7200E+06     304.680E+03    -26.5712E-03     52.9837E-03    -26.4125E-03     25.8625E-03    -26.5001E-03     52.5110E-03    -26.2894E-03     25.8512E-03
            1656     3.50660E-03     42.5190E-03    -19.8136E+06    -108.716E+06    -13.8811E+06     112.999E+03    -26.4972E-03     52.8974E-03    -26.4002E-03     20.6688E-03    -26.4203E-03     52.4045E-03    -26.2833E-03     20.6591E-03
            1657     2.62997E-03     42.5017E-03    -21.0355E+06    -111.370E+06    -17.4297E+06    -90.4762E+03    -26.4385E-03     52.8213E-03    -26.3828E-03     15.5023E-03    -26.3578E-03     52.3211E-03    -26.2780E-03     15.4933E-03
            1658     1.75333E-03     42.4893E-03    -21.9939E+06    -113.035E+06    -20.4521E+06    -152.367E+03    -26.3941E-03     52.7614E-03    -26.3673E-03     10.4222E-03    -26.3110E-03     52.2582E-03    -26.2738E-03     10.4152E-03
            1659     876.660E-06     42.4817E-03    -22.5379E+06    -114.069E+06    -22.2465E+06    -103.787E+03    -26.3635E-03     52.7255E-03    -26.3620E-03     5.64038E-03    -26.2786E-03     52.2203E-03    -26.2752E-03     5.63642E-03
            1660     16.6583E-03     42.5702E-03    -3.93963E+06     158.326E+06     68.4036E+06     444.996E+03    -29.5482E-03     56.0000E-03    -26.4518E-03     147.301E-03    -32.8772E-03     59.6787E-03    -26.3337E-03     148.914E-03
            1661     15.7775E-03     42.3605E-03    -6.80471E+06     121.649E+06     4.35632E+06    -557.673E+03    -32.1657E-03     58.3775E-03    -26.2119E-03     184.501E-03    -35.3952E-03     62.0021E-03    -26.3566E-03     185.090E-03
            1662     14.9024E-03     42.2139E-03    -7.60683E+06     58.6572E+06    -18.5501E+06    -290.862E+03    -30.0470E-03     56.2414E-03    -26.1943E-03     128.178E-03    -31.0196E-03     57.4490E-03    -26.3611E-03     127.993E-03
            1663     14.0259E-03     42.1162E-03    -6.15076E+06     5.18824E+06    -8.95129E+06     393.706E+03    -28.2267E-03     54.5405E-03    -26.3139E-03     91.3580E-03    -28.5728E-03     54.9092E-03    -26.3572E-03     91.1644E-03
            1664     13.1479E-03     42.0395E-03    -5.73320E+06    -26.8750E+06    -5.81755E+06     250.247E+03    -27.9768E-03     54.3489E-03    -26.3720E-03     79.9427E-03    -28.1455E-03     54.4186E-03    -26.3539E-03     79.7726E-03
            1665     12.2728E-03     41.9638E-03    -6.76841E+06    -40.4330E+06    -279.778E+03     301.098E+03    -27.8534E-03     54.2664E-03    -26.4130E-03     75.0756E-03    -27.9511E-03     54.1973E-03    -26.3459E-03     74.9381E-03
            1666     11.3958E-03     41.8965E-03    -7.34560E+06    -52.3205E+06     1.38629E+06     390.974E+03    -27.5750E-03     54.0070E-03    -26.4319E-03     67.2730E-03    -27.6169E-03     53.8330E-03    -26.3385E-03     67.1653E-03
            1667     10.5194E-03     41.8355E-03    -8.05196E+06    -64.6432E+06     769.437E+03     205.879E+03    -27.4710E-03     53.9093E-03    -26.4383E-03     61.4264E-03    -27.4720E-03     53.6500E-03    -26.3290E-03     61.3385E-03
            1668     9.64283E-03     41.7793E-03    -8.96679E+06    -72.0120E+06     2.85008E+06     258.858E+03    -27.3406E-03     53.7877E-03    -26.4472E-03     56.6048E-03    -27.3217E-03     53.4732E-03    -26.3155E-03     56.5360E-03
            1669     8.76640E-03     41.7275E-03    -10.0674E+06    -77.4675E+06     3.25721E+06     271.728E+03    -27.1782E-03     53.6224E-03    -26.4443E-03     51.5891E-03    -27.1460E-03     53.2700E-03    -26.3011E-03     51.5357E-03
            1670     7.88981E-03     41.6807E-03    -11.5197E+06    -83.4617E+06     2.42991E+06     247.538E+03    -27.0239E-03     53.4609E-03    -26.4370E-03     46.5221E-03    -26.9810E-03     53.0738E-03    -26.2871E-03     46.4808E-03
            1671     7.01330E-03     41.6385E-03    -13.1428E+06    -89.7113E+06     866.834E+03     305.853E+03    -26.8841E-03     53.3113E-03    -26.4272E-03     41.3935E-03    -26.8324E-03     52.8920E-03    -26.2737E-03     41.3629E-03
            1672     6.13669E-03     41.6015E-03    -14.8091E+06    -95.1027E+06    -2.50743E+06     390.080E+03    -26.7524E-03     53.1603E-03    -26.4079E-03     36.2062E-03    -26.6924E-03     52.7174E-03    -26.2611E-03     36.1847E-03
            1673     5.26009E-03     41.5692E-03    -16.4576E+06    -98.5114E+06    -6.73810E+06     533.457E+03    -26.6314E-03     53.0144E-03    -26.3830E-03     30.9925E-03    -26.5658E-03     52.5603E-03    -26.2500E-03     30.9792E-03
            1674     4.38344E-03     41.5421E-03    -18.0664E+06    -103.121E+06    -10.3118E+06     439.996E+03    -26.5322E-03     52.8970E-03    -26.3647E-03     25.7801E-03    -26.4610E-03     52.4255E-03    -26.2406E-03     25.7706E-03
            1675     3.50679E-03     41.5198E-03    -19.6131E+06    -108.380E+06    -13.6184E+06    -6.38993E+03    -26.4531E-03     52.8030E-03    -26.3500E-03     20.6007E-03    -26.3760E-03     52.3110E-03    -26.2325E-03     20.5895E-03
            1676     2.63011E-03     41.5026E-03    -20.8595E+06    -111.407E+06    -17.5194E+06    -160.607E+03    -26.3883E-03     52.7186E-03    -26.3302E-03     15.4509E-03    -26.3066E-03     52.2181E-03    -26.2260E-03     15.4410E-03
            1677     1.75341E-03     41.4902E-03    -21.7844E+06    -113.219E+06    -20.4209E+06    -58.7378E+03    -26.3424E-03     52.6579E-03    -26.3155E-03     10.3818E-03    -26.2579E-03     52.1534E-03    -26.2219E-03     10.3760E-03
            1678     876.703E-06     41.4827E-03    -22.4791E+06    -114.164E+06    -22.1123E+06     42.1462E+03    -26.3127E-03     52.6230E-03    -26.3103E-03     5.61582E-03    -26.2277E-03     52.1170E-03    -26.2227E-03     5.61376E-03
            1679     16.6570E-03     41.5743E-03    -4.44830E+06     158.359E+06     69.2015E+06     164.017E+03    -30.1192E-03     56.5390E-03    -26.4198E-03     149.319E-03    -33.4936E-03     60.2591E-03    -26.2970E-03     150.902E-03
            1680     15.7801E-03     41.3620E-03    -6.19240E+06     122.663E+06     6.08809E+06     687.858E+03    -32.1583E-03     58.3365E-03    -26.1782E-03     187.242E-03    -35.4356E-03     62.0096E-03    -26.3166E-03     187.836E-03
            1681     14.9019E-03     41.2135E-03    -6.77451E+06     58.4316E+06    -17.8250E+06     102.570E+03    -29.7630E-03     55.9347E-03    -26.1717E-03     128.365E-03    -30.7290E-03     57.1358E-03    -26.3358E-03     128.191E-03
            1682     14.0253E-03     41.1171E-03    -6.78756E+06     4.73580E+06    -8.88260E+06    -209.539E+03    -28.2834E-03     54.5798E-03    -26.2964E-03     91.5529E-03    -28.6327E-03     54.9476E-03    -26.3379E-03     91.3508E-03
            1683     13.1500E-03     41.0396E-03    -6.48296E+06    -26.9581E+06    -6.07891E+06     314.552E+03    -27.9421E-03     54.2931E-03    -26.3509E-03     80.1013E-03    -28.1140E-03     54.3638E-03    -26.3328E-03     79.9324E-03
            1684     12.2723E-03     40.9645E-03    -6.47212E+06    -40.6996E+06    -162.361E+03     460.758E+03    -27.8325E-03     54.2258E-03    -26.3932E-03     75.1035E-03    -27.9280E-03     54.1543E-03    -26.3256E-03     74.9685E-03
            1685     11.3962E-03     40.8968E-03    -6.95642E+06    -52.0092E+06     1.75779E+06     381.941E+03    -27.6411E-03     54.0503E-03    -26.4092E-03     67.2987E-03    -27.6821E-03     53.8769E-03    -26.3149E-03     67.1906E-03
            1686     10.5196E-03     40.8362E-03    -7.76967E+06    -64.4967E+06     1.05713E+06     303.338E+03    -27.4945E-03     53.9045E-03    -26.4100E-03     61.3777E-03    -27.4945E-03     53.6449E-03    -26.2999E-03     61.2911E-03
            1687     9.64323E-03     40.7796E-03    -8.74296E+06    -72.1036E+06     2.97650E+06     258.814E+03    -27.3516E-03     53.7658E-03    -26.4142E-03     56.5129E-03    -27.3316E-03     53.4502E-03    -26.2821E-03     56.4443E-03
            1688     8.76668E-03     40.7282E-03    -9.99812E+06    -77.4626E+06     3.40374E+06     286.224E+03    -27.1824E-03     53.5895E-03    -26.4071E-03     51.4664E-03    -27.1499E-03     53.2367E-03    -26.2633E-03     51.4134E-03
            1689     7.89019E-03     40.6812E-03    -11.4816E+06    -83.4153E+06     2.51179E+06     292.107E+03    -27.0199E-03     53.4149E-03    -26.3950E-03     46.4002E-03    -26.9769E-03     53.0277E-03    -26.2448E-03     46.3596E-03
            1690     7.01360E-03     40.6393E-03    -13.1919E+06    -89.7908E+06     911.757E+03     289.446E+03    -26.8674E-03     53.2483E-03    -26.3809E-03     41.2678E-03    -26.8158E-03     52.8285E-03    -26.2271E-03     41.2371E-03
            1691     6.13702E-03     40.6022E-03    -15.0265E+06    -95.1335E+06    -2.28413E+06     355.559E+03    -26.7224E-03     53.0813E-03    -26.3590E-03     36.0863E-03    -26.6637E-03     52.6382E-03    -26.2107E-03     36.0645E-03
            1692     5.26037E-03     40.5702E-03    -16.7781E+06    -98.7287E+06    -6.88808E+06     529.979E+03    -26.5925E-03     52.9220E-03    -26.3294E-03     30.8843E-03    -26.5280E-03     52.4674E-03    -26.1964E-03     30.8710E-03
            1693     4.38369E-03     40.5430E-03    -18.3573E+06    -102.529E+06    -11.0555E+06     489.305E+03    -26.4846E-03     52.7890E-03    -26.3043E-03     25.6855E-03    -26.4146E-03     52.3219E-03    -26.1843E-03     25.6768E-03
            1694     3.50700E-03     40.5209E-03    -19.7919E+06    -107.848E+06    -14.4232E+06    -7.36595E+03    -26.3999E-03     52.6872E-03    -26.2873E-03     20.5209E-03    -26.3233E-03     52.1993E-03    -26.1743E-03     20.5098E-03
            1695     2.63026E-03     40.5036E-03    -21.0650E+06    -111.749E+06    -17.8181E+06    -168.661E+03    -26.3317E-03     52.6017E-03    -26.2700E-03     15.3875E-03    -26.2501E-03     52.1003E-03    -26.1665E-03     15.3776E-03
            1696     1.75352E-03     40.4913E-03    -22.0287E+06    -113.326E+06    -20.5646E+06     42.6190E+03    -26.2836E-03     52.5380E-03    -26.2544E-03     10.3437E-03    -26.2000E-03     52.0335E-03    -26.1610E-03     10.3393E-03
            1697     876.771E-06     40.4837E-03    -22.5550E+06    -114.124E+06    -22.1112E+06     52.5093E+03    -26.2502E-03     52.4991E-03    -26.2490E-03     5.59257E-03    -26.1655E-03     51.9934E-03    -26.1613E-03     5.59066E-03
            1698     16.6535E-03     40.5715E-03    -4.73431E+06     157.717E+06      67.961E+06    -5.94913E+03    -30.0389E-03     56.4866E-03    -26.4477E-03     148.281E-03    -33.3931E-03     60.1869E-03    -26.3297E-03     149.848E-03
            1699     15.7787E-03     40.3619E-03    -6.86872E+06     122.634E+06     6.02507E+06     88.5860E+03    -32.8755E-03     59.0672E-03    -26.1917E-03     186.611E-03    -36.1450E-03     62.7302E-03    -26.3295E-03     187.166E-03
            1700     14.9028E-03     40.2151E-03    -6.42034E+06     59.2120E+06    -16.2576E+06     338.434E+03    -29.8154E-03     55.9835E-03    -26.1681E-03     128.619E-03    -30.7846E-03     57.1872E-03    -26.3260E-03     128.449E-03
            1701     14.0261E-03     40.1166E-03    -6.06087E+06     4.27701E+06    -8.80931E+06     294.653E+03    -28.2482E-03     54.5346E-03    -26.2864E-03     91.7864E-03    -28.5930E-03     54.8986E-03    -26.3279E-03     91.5915E-03
            1702     13.1486E-03     40.0406E-03    -6.41580E+06    -27.4390E+06    -6.16079E+06     73.4416E+03    -28.0264E-03     54.3659E-03    -26.3394E-03     80.1555E-03    -28.1974E-03     54.4345E-03    -26.3211E-03     79.9829E-03
            1703     12.2730E-03     39.9646E-03    -6.59008E+06    -40.6842E+06    -137.627E+03     273.845E+03    -27.9125E-03     54.2877E-03    -26.3752E-03     75.1163E-03    -28.0087E-03     54.2164E-03    -26.3073E-03     74.9786E-03
            1704     11.3964E-03     39.8974E-03    -6.93735E+06    -51.8903E+06     1.78148E+06     363.877E+03    -27.6970E-03     54.0810E-03    -26.3841E-03     67.1917E-03    -27.7378E-03     53.9079E-03    -26.2899E-03     67.0833E-03
            1705     10.5200E-03     39.8365E-03    -7.65397E+06    -64.5121E+06     1.10576E+06     365.100E+03    -27.5422E-03     53.9206E-03    -26.3784E-03     61.3055E-03    -27.5415E-03     53.6605E-03    -26.2682E-03     61.2198E-03
            1706     9.64351E-03     39.7803E-03    -8.62409E+06    -72.0939E+06     3.05648E+06     413.761E+03    -27.3742E-03     53.7506E-03    -26.3764E-03     56.3725E-03    -27.3536E-03     53.4346E-03    -26.2441E-03     56.3060E-03
            1707     8.76710E-03     39.7287E-03    -10.0005E+06    -77.4110E+06     3.37854E+06     415.337E+03    -27.1892E-03     53.5525E-03    -26.3633E-03     51.3165E-03    -27.1567E-03     53.1999E-03    -26.2197E-03     51.2652E-03
            1708     7.89055E-03     39.6820E-03    -11.6126E+06    -83.3846E+06     2.42736E+06     385.267E+03    -27.0143E-03     53.3600E-03    -26.3457E-03     46.2481E-03    -26.9718E-03     52.9733E-03    -26.1959E-03     46.2088E-03
            1709     7.01400E-03     39.6400E-03    -13.3808E+06    -89.7730E+06     801.153E+03     388.118E+03    -26.8411E-03     53.1682E-03    -26.3271E-03     41.1184E-03    -26.7902E-03     52.7488E-03    -26.1735E-03     41.0892E-03
            1710     6.13736E-03     39.6032E-03    -15.3184E+06    -95.1903E+06    -2.31764E+06     433.579E+03    -26.6868E-03     52.9888E-03    -26.3020E-03     35.9534E-03    -26.6294E-03     52.5458E-03    -26.1534E-03     35.9327E-03
            1711     5.26070E-03     39.5711E-03    -17.2355E+06    -98.9260E+06    -6.94932E+06     594.324E+03    -26.5500E-03     52.8191E-03    -26.2691E-03     30.7632E-03    -26.4874E-03     52.3642E-03    -26.1354E-03     30.7509E-03
            1712     4.38398E-03     39.5441E-03    -18.8521E+06    -101.929E+06    -12.0744E+06     506.878E+03    -26.4292E-03     52.6643E-03    -26.2350E-03     25.5808E-03    -26.3611E-03     52.2024E-03    -26.1203E-03     25.5724E-03
            1713     3.50722E-03     39.5219E-03    -20.1857E+06    -107.314E+06    -15.3955E+06     57.0521E+03    -26.3373E-03     52.5536E-03    -26.2162E-03     20.4321E-03    -26.2620E-03     52.0703E-03    -26.1083E-03     20.4219E-03
            1714     2.63045E-03     39.5048E-03    -21.4227E+06    -112.102E+06    -18.1145E+06    -68.7096E+03    -26.2695E-03     52.4712E-03    -26.2017E-03     15.3195E-03    -26.1887E-03     51.9689E-03    -26.0987E-03     15.3109E-03
            1715     1.75364E-03     39.4924E-03    -22.3571E+06    -113.326E+06    -20.9373E+06     18.0414E+03    -26.2145E-03     52.3981E-03    -26.1835E-03     10.3013E-03    -26.1320E-03     51.8946E-03    -26.0915E-03     10.2966E-03
            1716     876.817E-06     39.4850E-03    -22.8397E+06    -114.110E+06    -22.5245E+06    -35.0943E+03    -26.1773E-03     52.3567E-03    -26.1794E-03     5.56934E-03    -26.0935E-03     51.8521E-03    -26.0934E-03     5.56632E-03
            1717     16.6574E-03     39.5732E-03    -4.40454E+06     157.826E+06     68.0046E+06     18.8465E+03    -30.0744E-03     56.5100E-03    -26.4355E-03     148.048E-03    -33.4257E-03     60.2086E-03    -26.3180E-03     149.623E-03
            1718     15.7791E-03     39.3614E-03    -6.51177E+06     122.228E+06     5.31814E+06    -150.392E+03    -32.4408E-03     58.6250E-03    -26.1841E-03     185.868E-03    -35.6976E-03     62.2771E-03    -26.3253E-03     186.442E-03
            1719     14.9024E-03     39.2155E-03    -6.77109E+06     58.8525E+06    -17.5078E+06     132.783E+03    -29.9549E-03     56.1194E-03    -26.1645E-03     128.606E-03    -30.9227E-03     57.3229E-03    -26.3276E-03     128.430E-03
            1720     14.0254E-03     39.1176E-03    -6.42193E+06     4.46983E+06    -9.26734E+06     438.104E+03    -28.4117E-03     54.6882E-03    -26.2765E-03     91.8371E-03    -28.7593E-03     55.0558E-03    -26.3200E-03     91.6423E-03
            1721     13.1500E-03     39.0405E-03    -6.19368E+06    -27.1890E+06    -6.01786E+06     466.634E+03    -28.0677E-03     54.3918E-03    -26.3241E-03     79.8771E-03    -28.2370E-03     54.4600E-03    -26.3058E-03     79.7097E-03
            1722     12.2730E-03     38.9652E-03    -6.69308E+06    -40.6939E+06    -478.397E+03     193.157E+03    -27.9920E-03     54.3444E-03    -26.3524E-03     75.0682E-03    -28.0882E-03     54.2738E-03    -26.2861E-03     74.9290E-03
            1723     11.3967E-03     38.8977E-03    -7.29824E+06    -52.1406E+06     1.30759E+06     183.530E+03    -27.7820E-03     54.1351E-03    -26.3532E-03     67.1081E-03    -27.8234E-03     53.9618E-03    -26.2604E-03     66.9973E-03
            1724     10.5203E-03     38.8370E-03    -7.84170E+06    -64.5652E+06     860.631E+03     435.033E+03    -27.5963E-03     53.9357E-03    -26.3394E-03     61.0838E-03    -27.5960E-03     53.6758E-03    -26.2301E-03     60.9989E-03
            1725     9.64403E-03     38.7807E-03    -8.87401E+06    -72.1208E+06     2.86000E+06     545.235E+03    -27.3869E-03     53.7175E-03    -26.3307E-03     56.1724E-03    -27.3670E-03     53.4018E-03    -26.1989E-03     56.1077E-03
            1726     8.76750E-03     38.7294E-03    -10.1798E+06    -77.3115E+06     3.32804E+06     550.652E+03    -27.1896E-03     53.5018E-03    -26.3122E-03     51.1382E-03    -27.1579E-03     53.1498E-03    -26.1687E-03     51.0889E-03
            1727     7.89102E-03     38.6827E-03    -11.7294E+06    -83.3168E+06     2.42792E+06     520.775E+03    -26.9941E-03     53.2838E-03    -26.2897E-03     46.0623E-03    -26.9521E-03     52.8974E-03    -26.1398E-03     46.0250E-03
            1728     7.01441E-03     38.6410E-03    -13.5325E+06    -89.7190E+06     751.115E+03     504.751E+03    -26.8099E-03     53.0764E-03    -26.2665E-03     40.9575E-03    -26.7597E-03     52.6575E-03    -26.1130E-03     40.9300E-03
            1729     6.13776E-03     38.6040E-03    -15.4422E+06    -95.2517E+06    -2.54468E+06     558.100E+03    -26.6485E-03     52.8850E-03    -26.2365E-03     35.8025E-03    -26.5912E-03     52.4421E-03    -26.0887E-03     35.7836E-03
            1730     5.26106E-03     38.5722E-03    -17.2309E+06    -98.9773E+06    -7.07658E+06     638.942E+03    -26.5016E-03     52.7014E-03    -26.1999E-03     30.6221E-03    -26.4386E-03     52.2465E-03    -26.0667E-03     30.6105E-03
            1731     4.38429E-03     38.5452E-03    -18.7167E+06    -101.417E+06    -11.9735E+06     520.840E+03    -26.3713E-03     52.5339E-03    -26.1625E-03     25.4578E-03    -26.3034E-03     52.0741E-03    -26.0482E-03     25.4497E-03
            1732     3.50749E-03     38.5232E-03    -20.0889E+06    -106.905E+06    -15.3876E+06     258.739E+03    -26.2709E-03     52.4115E-03    -26.1407E-03     20.3296E-03    -26.1957E-03     51.9301E-03    -26.0335E-03     20.3221E-03
            1733     2.63063E-03     38.5060E-03    -21.4181E+06    -112.162E+06    -18.2070E+06     63.1165E+03    -26.1982E-03     52.3224E-03    -26.1242E-03     15.2403E-03    -26.1171E-03     51.8199E-03    -26.0215E-03     15.2336E-03
            1734     1.75379E-03     38.4938E-03    -22.4256E+06    -113.323E+06    -20.9765E+06     29.8669E+03    -26.1388E-03     52.2431E-03    -26.1043E-03     10.2442E-03    -26.0566E-03     51.7398E-03    -26.0123E-03     10.2397E-03
            1735     876.895E-06     38.4863E-03    -23.0762E+06    -114.100E+06    -22.6865E+06     37.0069E+03    -26.0958E-03     52.1949E-03    -26.0990E-03     5.54510E-03    -26.0130E-03     51.6909E-03    -26.0136E-03     5.54304E-03
            1736     16.6553E-03     38.5724E-03    -4.67040E+06     157.971E+06     68.6781E+06    -78.2972E+03    -30.0294E-03     56.4775E-03    -26.4481E-03     149.415E-03    -33.4087E-03     60.2019E-03    -26.3270E-03     151.003E-03
            1737     15.7794E-03     38.3631E-03    -7.07389E+06     121.777E+06     5.41347E+06     156.114E+03    -32.5997E-03     58.7948E-03    -26.1951E-03     186.544E-03    -35.8683E-03     62.4549E-03    -26.3343E-03     187.117E-03
            1738     14.9019E-03     38.2154E-03    -7.14592E+06     58.4958E+06    -17.6683E+06     191.635E+03    -30.1392E-03     56.3055E-03    -26.1663E-03     128.802E-03    -31.1104E-03     57.5102E-03    -26.3291E-03     128.624E-03
            1739     14.0267E-03     38.1174E-03    -6.78008E+06     4.51249E+06    -9.25846E+06     274.308E+03    -28.6347E-03     54.9006E-03    -26.2659E-03     91.4923E-03    -28.9849E-03     55.2696E-03    -26.3089E-03     91.2928E-03
            1740     13.1494E-03     38.0413E-03    -6.63581E+06    -27.0804E+06    -6.54667E+06     490.606E+03    -28.1316E-03     54.4315E-03    -26.3000E-03     79.9171E-03    -28.3021E-03     54.5014E-03    -26.2838E-03     79.7498E-03
            1741     12.2734E-03     37.9653E-03    -6.66662E+06    -40.1680E+06    -351.190E+03     286.935E+03    -28.0972E-03     54.4197E-03    -26.3225E-03     74.9450E-03    -28.1944E-03     54.3516E-03    -26.2563E-03     74.8064E-03
            1742     11.3971E-03     37.8980E-03    -7.58498E+06    -52.3323E+06     1.12348E+06     242.022E+03    -27.8607E-03     54.1738E-03    -26.3131E-03     66.7653E-03    -27.9028E-03     54.0000E-03    -26.2206E-03     66.6549E-03
            1743     10.5210E-03     37.8374E-03    -8.50288E+06    -64.8647E+06     507.197E+03     416.321E+03    -27.6018E-03     53.8934E-03    -26.2915E-03     60.8534E-03    -27.6035E-03     53.6332E-03    -26.1826E-03     60.7686E-03
            1744     9.64445E-03     37.7815E-03    -9.27167E+06    -72.0982E+06     2.67277E+06     489.699E+03    -27.3961E-03     53.6731E-03    -26.2770E-03     55.9799E-03    -27.3777E-03     53.3581E-03    -26.1456E-03     55.9147E-03
            1745     8.76808E-03     37.7300E-03    -10.3789E+06    -77.3302E+06     3.29648E+06     542.315E+03    -27.1720E-03     53.4255E-03    -26.2535E-03     50.9299E-03    -27.1410E-03     53.0736E-03    -26.1099E-03     50.8808E-03
            1746     7.89150E-03     37.6837E-03    -11.8106E+06    -83.2294E+06     2.43398E+06     575.008E+03    -26.9626E-03     53.1891E-03    -26.2265E-03     45.8763E-03    -26.9210E-03     52.8031E-03    -26.0765E-03     45.8400E-03
            1747     7.01488E-03     37.6419E-03    -13.5076E+06    -89.6948E+06     783.501E+03     588.295E+03    -26.7803E-03     52.9790E-03    -26.1987E-03     40.7762E-03    -26.7300E-03     52.5600E-03    -26.0451E-03     40.7500E-03
            1748     6.13822E-03     37.6052E-03    -15.3562E+06    -95.2473E+06    -2.48631E+06     635.717E+03    -26.6075E-03     52.7710E-03    -26.1636E-03     35.6246E-03    -26.5498E-03     52.3279E-03    -26.0156E-03     35.6070E-03
            1749     5.26146E-03     37.5733E-03    -17.1136E+06    -98.8442E+06    -7.07543E+06      599.62E+03    -26.4479E-03     52.5697E-03    -26.1218E-03     30.4593E-03    -26.3845E-03     52.1151E-03    -25.9890E-03     30.4474E-03
            1750     4.38466E-03     37.5465E-03    -18.6366E+06    -101.160E+06    -11.8555E+06     552.647E+03    -26.3077E-03     52.3884E-03    -26.0807E-03     25.3087E-03    -26.2398E-03     51.9296E-03    -25.9662E-03     25.3011E-03
            1751     3.50777E-03     37.5245E-03    -19.9891E+06    -106.560E+06    -15.2355E+06     467.779E+03    -26.1988E-03     52.2536E-03    -26.0548E-03     20.2016E-03    -26.1238E-03     51.7736E-03    -25.9475E-03     20.1969E-03
            1752     2.63089E-03     37.5075E-03    -21.2933E+06    -111.947E+06    -18.1309E+06     304.918E+03    -26.1153E-03     52.1504E-03    -26.0351E-03     15.1407E-03    -26.0341E-03     51.6487E-03    -25.9325E-03     15.1371E-03
            1753     1.75393E-03     37.4953E-03    -22.3945E+06    -113.259E+06    -20.9554E+06     149.544E+03    -26.0507E-03     52.0640E-03    -26.0133E-03     10.1777E-03    -25.9684E-03     51.5609E-03    -25.9214E-03     10.1748E-03
            1754     876.980E-06     37.4878E-03    -23.0293E+06    -113.987E+06    -22.6421E+06     101.525E+03    -26.0092E-03     52.0113E-03    -26.0020E-03     5.50831E-03    -25.9264E-03     51.5077E-03    -25.9166E-03     5.50710E-03
            1755     16.6542E-03     37.5702E-03    -4.63180E+06     157.656E+06     68.1275E+06     257.068E+03    -29.7292E-03     56.1815E-03    -26.4523E-03     148.561E-03    -33.0852E-03     59.8832E-03    -26.3336E-03     150.151E-03
            1756     15.7781E-03     37.3635E-03    -7.71750E+06     121.151E+06     4.64634E+06    -225.499E+03    -32.8025E-03     58.9988E-03    -26.1963E-03     185.289E-03    -36.0573E-03     62.6428E-03    -26.3376E-03     185.850E-03
            1757     14.9028E-03     37.2150E-03    -7.08720E+06     58.5235E+06    -17.1770E+06     73.3556E+03    -30.3037E-03     56.4606E-03    -26.1569E-03     128.466E-03    -31.2789E-03     57.6683E-03    -26.3174E-03     128.281E-03
            1758     14.0258E-03     37.1176E-03    -6.61686E+06     4.59834E+06    -8.73124E+06     194.591E+03    -28.5808E-03     54.8321E-03    -26.2513E-03     91.2840E-03    -28.9299E-03     55.1994E-03    -26.2920E-03     91.0840E-03
            1759     13.1504E-03     37.0416E-03    -6.88306E+06    -27.1769E+06    -6.42299E+06     199.317E+03    -28.4080E-03     54.6827E-03    -26.2747E-03     79.7157E-03    -28.5810E-03     54.7534E-03    -26.2574E-03     79.5420E-03
            1760     12.2740E-03     36.9654E-03    -7.16766E+06    -40.4435E+06    -359.100E+03     408.578E+03    -28.2257E-03     54.5058E-03    -26.2801E-03     74.6562E-03    -28.3248E-03     54.4369E-03    -26.2128E-03     74.5185E-03
            1761     11.3979E-03     36.8983E-03    -7.70863E+06    -52.2723E+06     1.35102E+06     518.150E+03    -27.8230E-03     54.0864E-03    -26.2634E-03     66.5141E-03    -27.8656E-03     53.9121E-03    -26.1697E-03     66.4079E-03
            1762     10.5213E-03     36.8381E-03    -8.39161E+06    -64.9138E+06     534.468E+03     367.269E+03    -27.6096E-03     53.8466E-03    -26.2370E-03     60.6766E-03    -27.6104E-03     53.5856E-03    -26.1280E-03     60.5914E-03
            1763     9.64515E-03     36.7819E-03    -9.18957E+06    -72.1422E+06     2.71265E+06     386.289E+03    -27.3902E-03     53.6072E-03    -26.2170E-03     55.7510E-03    -27.3712E-03     53.2916E-03    -26.0855E-03     55.6848E-03
            1764     8.76862E-03     36.7310E-03    -10.3687E+06    -77.3837E+06     3.18826E+06     459.939E+03    -27.1500E-03     53.3377E-03    -26.1877E-03     50.7316E-03    -27.1185E-03     52.9855E-03    -26.0446E-03     50.6818E-03
            1765     7.89205E-03     36.6844E-03    -11.7769E+06    -83.2187E+06     2.37575E+06     538.078E+03    -26.9466E-03     53.1017E-03    -26.1551E-03     45.6698E-03    -26.9047E-03     52.7156E-03    -26.0055E-03     45.6333E-03
            1766     7.01544E-03     36.6430E-03    -13.4340E+06    -89.6956E+06     701.919E+03     627.424E+03    -26.7510E-03     52.8716E-03    -26.1205E-03     40.5497E-03    -26.7001E-03     52.4525E-03    -25.9675E-03     40.5242E-03
            1767     6.13870E-03     36.6063E-03    -15.2254E+06    -95.1528E+06    -2.55997E+06     648.377E+03    -26.5642E-03     52.6429E-03    -26.0788E-03     35.4015E-03    -26.5058E-03     52.2001E-03    -25.9315E-03     35.3842E-03
            1768     5.26194E-03     36.5747E-03    -16.9880E+06    -98.6942E+06    -7.07998E+06     646.361E+03    -26.3912E-03     52.4222E-03    -26.0310E-03     30.2463E-03    -26.3273E-03     51.9682E-03    -25.8987E-03     30.2351E-03
            1769     4.38505E-03     36.5479E-03    -18.5784E+06    -101.009E+06    -11.8787E+06     633.114E+03    -26.2356E-03     52.2198E-03    -25.9842E-03     25.1175E-03    -26.1676E-03     51.7617E-03    -25.8702E-03     25.1111E-03
            1770     3.50815E-03     36.5261E-03    -19.9528E+06    -106.309E+06    -15.1566E+06     609.796E+03    -26.1125E-03     52.0666E-03    -25.9541E-03     20.0419E-03    -26.0378E-03     51.5876E-03    -25.8468E-03     20.0392E-03
            1771     2.63114E-03     36.5091E-03    -21.1908E+06    -111.594E+06    -17.9773E+06     499.939E+03    -26.0203E-03     51.9508E-03    -25.9306E-03     15.0168E-03    -25.9392E-03     51.4505E-03    -25.8279E-03     15.0158E-03
            1772     1.75414E-03     36.4970E-03    -22.1564E+06    -112.981E+06    -20.7873E+06     301.831E+03    -25.9472E-03     51.8533E-03    -25.9060E-03     10.0916E-03    -25.8644E-03     51.3510E-03    -25.8140E-03     10.0907E-03
            1773     877.061E-06     36.4895E-03    -22.7940E+06    -113.764E+06    -22.3908E+06     108.894E+03    -25.9066E-03     51.7955E-03    -25.8889E-03     5.46238E-03    -25.8233E-03     51.2924E-03    -25.8029E-03     5.46128E-03
            1774     16.6578E-03     36.5748E-03    -3.61682E+06     157.882E+06     67.6427E+06     728.984E+03    -30.1346E-03     56.5445E-03    -26.4100E-03     148.026E-03    -33.4650E-03     60.2265E-03    -26.2954E-03     149.600E-03
            1775     15.7795E-03     36.3616E-03    -5.88869E+06     121.859E+06     4.11987E+06     681.743E+03    -32.4869E-03     58.6389E-03    -26.1519E-03     185.803E-03    -35.7288E-03     62.2805E-03    -26.2995E-03     186.382E-03
            1776     14.9031E-03     36.2160E-03    -6.89222E+06     58.2385E+06    -17.7888E+06     159.953E+03    -30.2383E-03     56.3643E-03    -26.1260E-03     127.932E-03    -31.2077E-03     57.5676E-03    -26.2894E-03     127.749E-03
            1777     14.0268E-03     36.1178E-03    -6.73380E+06     4.57869E+06    -8.86640E+06     43.7539E+03    -28.6612E-03     54.8805E-03    -26.2192E-03     91.1296E-03    -29.0096E-03     55.2468E-03    -26.2604E-03     90.9272E-03
            1778     13.1503E-03     36.0412E-03    -6.71579E+06    -26.9893E+06    -6.32274E+06     186.570E+03    -28.4698E-03     54.7056E-03    -26.2358E-03     79.5414E-03    -28.6419E-03     54.7763E-03    -26.2185E-03     79.3674E-03
            1779     12.2749E-03     35.9657E-03    -6.97265E+06    -40.9936E+06    -569.797E+03     516.874E+03    -28.2580E-03     54.4922E-03    -26.2341E-03     74.4765E-03    -28.3543E-03     54.4198E-03    -26.1674E-03     74.3405E-03
            1780     11.3982E-03     35.8990E-03    -7.21250E+06    -52.1835E+06     1.59328E+06     627.451E+03    -27.8654E-03     54.0771E-03    -26.2118E-03     66.4171E-03    -27.9057E-03     53.9020E-03    -26.1177E-03     66.3125E-03
            1781     10.5222E-03     35.8383E-03    -7.81039E+06    -64.6038E+06     766.963E+03     484.756E+03    -27.6284E-03     53.8061E-03    -26.1778E-03     60.4832E-03    -27.6267E-03     53.5452E-03    -26.0689E-03     60.3998E-03
            1782     9.64570E-03     35.7829E-03    -8.87104E+06    -72.2813E+06     2.66039E+06     420.631E+03    -27.3828E-03     53.5340E-03    -26.1512E-03     55.5451E-03    -27.3616E-03     53.2170E-03    -26.0202E-03     55.4797E-03
            1783     8.76922E-03     35.7317E-03    -10.1329E+06    -77.3402E+06     3.18074E+06     502.417E+03    -27.1635E-03     53.2782E-03    -26.1147E-03     50.4959E-03    -27.1308E-03     52.9257E-03    -25.9719E-03     50.4468E-03
            1784     7.89273E-03     35.6856E-03    -11.6590E+06    -83.2952E+06     2.23060E+06     552.728E+03    -26.9460E-03     53.0183E-03    -26.0723E-03     45.3971E-03    -26.9030E-03     52.6317E-03    -25.9235E-03     45.3610E-03
            1785     7.01604E-03     35.6441E-03    -13.3224E+06    -89.6505E+06     567.128E+03     621.970E+03    -26.7262E-03     52.7545E-03    -26.0283E-03     40.2625E-03    -26.6745E-03     52.3356E-03    -25.8761E-03     40.2372E-03
            1786     6.13935E-03     35.6077E-03    -15.0958E+06    -95.1075E+06    -2.64432E+06     680.353E+03    -26.5167E-03     52.4949E-03    -25.9782E-03     35.1183E-03    -26.4575E-03     52.0522E-03    -25.8316E-03     35.1016E-03
            1787     5.26248E-03     35.5761E-03    -16.8725E+06    -98.5885E+06    -7.13816E+06     739.794E+03    -26.3225E-03     52.2454E-03    -25.9229E-03     29.9866E-03    -26.2581E-03     51.7918E-03    -25.7912E-03     29.9768E-03
            1788     4.38559E-03     35.5496E-03    -18.4371E+06    -100.854E+06    -11.8220E+06     765.091E+03    -26.1482E-03     52.0183E-03    -25.8701E-03     24.8910E-03    -26.0798E-03     51.5606E-03    -25.7562E-03     24.8864E-03
            1789     3.50853E-03     35.5278E-03    -19.8009E+06    -106.051E+06    -15.0683E+06     723.774E+03    -26.0110E-03     51.8455E-03    -25.8346E-03     19.8570E-03    -25.9359E-03     51.3675E-03    -25.7274E-03     19.8559E-03
            1790     2.63149E-03     35.5110E-03    -20.9883E+06    -111.191E+06    -17.8066E+06     584.498E+03    -25.9078E-03     51.7146E-03    -25.8067E-03     14.8724E-03    -25.8266E-03     51.2157E-03    -25.7041E-03     14.8726E-03
            1791     1.75434E-03     35.4989E-03    -21.9161E+06    -112.563E+06    -20.4884E+06     393.151E+03    -25.8260E-03     51.6050E-03    -25.7791E-03     9.99259E-03    -25.7430E-03     51.1041E-03    -25.6865E-03     9.99295E-03
            1792     877.193E-06     35.4915E-03    -22.5280E+06    -113.433E+06    -22.1780E+06     209.168E+03    -25.7771E-03     51.5377E-03    -25.7607E-03     5.41465E-03    -25.6932E-03     51.0355E-03    -25.6744E-03     5.41488E-03
            1793     16.6560E-03     35.5741E-03    -4.80268E+06     157.204E+06     67.8797E+06    -20.0249E+03    -30.4999E-03     56.9140E-03    -26.4141E-03     148.572E-03    -33.8508E-03     60.6091E-03    -26.2957E-03     150.122E-03
            1794     15.7800E-03     35.3635E-03    -5.95771E+06     122.268E+06     5.61252E+06     977.822E+03    -32.9205E-03     59.0634E-03    -26.1428E-03     187.093E-03    -36.1803E-03     62.7198E-03    -26.2834E-03     187.657E-03
            1795     14.9031E-03     35.2150E-03    -5.75981E+06     58.9277E+06    -16.9429E+06     855.842E+03    -30.3524E-03     56.4517E-03    -26.0993E-03     128.152E-03    -31.3150E-03     57.6521E-03    -26.2611E-03     127.978E-03
            1796     14.0275E-03     35.1185E-03     -5.9647E+06     4.36882E+06    -9.00259E+06     459.658E+03    -28.8753E-03     55.0535E-03    -26.1783E-03     91.1928E-03    -29.2196E-03     55.4183E-03    -26.2210E-03     90.9939E-03
            1797     13.1515E-03     35.0410E-03    -5.98774E+06    -27.0644E+06    -6.14865E+06     437.737E+03    -28.4176E-03     54.6062E-03    -26.1887E-03     79.4050E-03    -28.5849E-03     54.6740E-03    -26.1715E-03     79.2352E-03
            1798     12.2748E-03     34.9661E-03    -6.31507E+06    -40.6872E+06    -260.646E+03     516.491E+03    -28.2224E-03     54.4090E-03    -26.1865E-03     74.0896E-03    -28.3154E-03     54.3358E-03    -26.1197E-03     73.9543E-03
            1799     11.3992E-03     34.8990E-03    -7.13538E+06    -52.3559E+06     1.35680E+06     586.139E+03    -27.9191E-03     54.0768E-03    -26.1577E-03     66.1758E-03    -27.9581E-03     53.9007E-03    -26.0647E-03     66.0707E-03
            1800     10.5227E-03     34.8392E-03    -7.83482E+06    -64.5468E+06     635.299E+03     659.937E+03    -27.6599E-03     53.7754E-03    -26.1156E-03     60.2743E-03    -27.6579E-03     53.5146E-03    -26.0074E-03     60.1935E-03
            1801     9.64638E-03     34.7834E-03    -8.78001E+06    -72.1683E+06     2.51872E+06     555.552E+03    -27.4429E-03     53.5211E-03    -26.0782E-03     55.2796E-03    -27.4210E-03     53.2045E-03    -25.9483E-03     55.2161E-03
            1802     8.77002E-03     34.7327E-03    -10.0858E+06    -77.3957E+06     3.03605E+06     596.292E+03    -27.2018E-03     53.2310E-03    -26.0291E-03     50.1657E-03    -27.1684E-03     52.8781E-03    -25.8871E-03     50.1180E-03
            1803     7.89343E-03     34.6866E-03    -11.5633E+06    -83.2450E+06     2.11463E+06     660.525E+03    -26.9483E-03     52.9225E-03    -25.9741E-03     45.0434E-03    -26.9046E-03     52.5360E-03    -25.8261E-03     45.0089E-03
            1804     7.01686E-03     34.6455E-03    -13.2861E+06    -89.6490E+06     413.912E+03     675.773E+03    -26.6953E-03     52.6142E-03    -25.9188E-03     39.9128E-03    -26.6430E-03     52.1953E-03    -25.7675E-03     39.8884E-03
            1805     6.14004E-03     34.6092E-03    -15.1117E+06    -95.0636E+06    -2.83434E+06     746.000E+03    -26.4549E-03     52.3138E-03    -25.8588E-03     34.7976E-03    -26.3955E-03     51.8714E-03    -25.7132E-03     34.7820E-03
            1806     5.26319E-03     34.5779E-03    -16.8268E+06    -98.5375E+06    -7.20656E+06     809.252E+03    -26.2352E-03     52.0312E-03    -25.7960E-03     29.6999E-03    -26.1704E-03     51.5778E-03    -25.6647E-03     29.6912E-03
            1807     4.38613E-03     34.5514E-03    -18.3404E+06    -100.685E+06    -11.7364E+06     864.840E+03    -26.0453E-03     51.7820E-03    -25.7367E-03     24.6430E-03    -25.9767E-03     51.3249E-03    -25.6228E-03     24.6399E-03
            1808     3.50907E-03     34.5298E-03    -19.6349E+06    -105.704E+06    -14.9058E+06     799.738E+03    -25.8933E-03     51.5881E-03    -25.6948E-03     19.6463E-03    -25.8182E-03     51.1113E-03    -25.5876E-03     19.6463E-03
            1809     2.63184E-03     34.5130E-03    -20.7817E+06    -110.761E+06    -17.6685E+06     630.932E+03    -25.7731E-03     51.4348E-03    -25.6618E-03     14.7116E-03    -25.6916E-03     50.9376E-03    -25.5594E-03     14.7125E-03
            1810     1.75462E-03     34.5011E-03    -21.6662E+06    -112.143E+06    -20.3614E+06     460.902E+03    -25.6826E-03     51.3136E-03    -25.6310E-03     9.88451E-03    -25.5992E-03     50.8142E-03    -25.5387E-03     9.88581E-03
            1811     877.310E-06     34.4937E-03    -22.2274E+06    -112.922E+06    -21.8782E+06     301.129E+03    -25.6262E-03     51.2404E-03    -25.6142E-03     5.35857E-03    -25.5420E-03     50.7399E-03    -25.5276E-03     5.36002E-03
            1812     16.6550E-03     34.5734E-03    -4.83802E+06     156.884E+06     68.1710E+06    -155.831E+03    -30.5889E-03     57.0168E-03    -26.4279E-03     147.767E-03    -33.9329E-03     60.7029E-03    -26.3075E-03     149.298E-03
            1813     15.7794E-03     34.3622E-03    -7.37061E+06     121.615E+06     5.86458E+06    -252.162E+03    -33.3414E-03     59.4795E-03    -26.1382E-03     185.770E-03    -36.5985E-03     63.1253E-03    -26.2745E-03     186.299E-03
            1814     14.9041E-03     34.2160E-03    -6.73048E+06     58.7179E+06    -16.9145E+06     537.891E+03    -30.4956E-03     56.5662E-03    -26.0707E-03     127.980E-03    -31.4627E-03     57.7670E-03    -26.2306E-03     127.799E-03
            1815     14.0275E-03     34.1174E-03    -6.20849E+06     4.60039E+06    -9.10720E+06     949.724E+03    -28.9077E-03     55.0469E-03    -26.1392E-03     91.0250E-03    -29.2531E-03     55.4130E-03    -26.1824E-03     90.8320E-03
            1816     13.1518E-03     34.0418E-03    -6.20039E+06    -27.1065E+06    -6.47861E+06     658.601E+03    -28.5120E-03     54.6534E-03    -26.1415E-03     79.2415E-03    -28.6796E-03     54.7216E-03    -26.1256E-03     79.0740E-03
            1817     12.2762E-03     33.9660E-03    -6.22528E+06    -40.6460E+06    -409.805E+03     577.254E+03    -28.2572E-03     54.3887E-03    -26.1315E-03     74.0155E-03    -28.3492E-03     54.3155E-03    -26.0656E-03     73.8811E-03
            1818     11.3995E-03     33.8998E-03    -6.89317E+06    -52.2851E+06     1.29232E+06     630.346E+03    -27.9606E-03     54.0560E-03    -26.0953E-03     65.8577E-03    -27.9979E-03     53.8794E-03    -26.0031E-03     65.7534E-03
            1819     10.5234E-03     33.8396E-03    -7.81957E+06    -64.4242E+06     586.116E+03     700.715E+03    -27.7464E-03     53.7884E-03    -26.0420E-03     59.8511E-03    -27.7441E-03     53.5280E-03    -25.9343E-03     59.7707E-03
            1820     9.64724E-03     33.7843E-03    -8.81734E+06    -71.9915E+06     2.42948E+06     716.947E+03    -27.5071E-03     53.4969E-03    -25.9898E-03     54.8570E-03    -27.4852E-03     53.1811E-03    -25.8605E-03     54.7956E-03
            1821     8.77083E-03     33.7336E-03    -10.0859E+06    -77.4330E+06     2.88242E+06     664.775E+03    -27.2339E-03     53.1598E-03    -25.9259E-03     49.7336E-03    -27.1999E-03     52.8068E-03    -25.7846E-03     49.6869E-03
            1822     7.89444E-03     33.6879E-03    -11.5764E+06    -83.1762E+06     2.06557E+06     744.299E+03    -26.9332E-03     52.7911E-03    -25.8579E-03     44.6182E-03    -26.8894E-03     52.4049E-03    -25.7102E-03     44.5850E-03
            1823     7.01769E-03     33.6469E-03    -13.2479E+06    -89.6114E+06     370.613E+03     796.763E+03    -26.6432E-03     52.4344E-03    -25.7912E-03     39.5226E-03    -26.5906E-03     52.0156E-03    -25.6402E-03     39.5000E-03
            1824     6.14094E-03     33.6109E-03    -15.0301E+06    -95.0113E+06    -2.76990E+06     822.602E+03    -26.3766E-03     52.0984E-03    -25.7218E-03     34.4377E-03    -26.3168E-03     51.6560E-03    -25.5761E-03     34.4233E-03
            1825     5.26391E-03     33.5797E-03    -16.7683E+06    -98.4351E+06    -7.18277E+06     856.896E+03    -26.1360E-03     51.7857E-03    -25.6497E-03     29.3772E-03    -26.0710E-03     51.3326E-03    -25.5186E-03     29.3694E-03
            1826     4.38686E-03     33.5535E-03    -18.2395E+06    -100.586E+06    -11.7798E+06     916.479E+03    -25.9245E-03     51.5066E-03    -25.5821E-03     24.3611E-03    -25.8554E-03     51.0498E-03    -25.4687E-03     24.3589E-03
            1827     3.50959E-03     33.5320E-03    -19.5686E+06    -105.288E+06    -14.9448E+06     932.425E+03    -25.7522E-03     51.2856E-03    -25.5334E-03     19.4157E-03    -25.6773E-03     50.8108E-03    -25.4271E-03     19.4176E-03
            1828     2.63232E-03     33.5154E-03    -20.8288E+06    -110.243E+06    -17.6352E+06     703.111E+03    -25.6195E-03     51.1150E-03    -25.4955E-03     14.5341E-03    -25.5390E-03     50.6204E-03    -25.3936E-03     14.5360E-03
            1829     1.75489E-03     33.5035E-03    -21.7256E+06    -111.652E+06    -20.2449E+06     396.963E+03    -25.5182E-03     50.9791E-03    -25.4609E-03     9.76397E-03    -25.4360E-03     50.4821E-03    -25.3687E-03     9.76452E-03
            1830     877.472E-06     33.4963E-03    -22.0694E+06    -112.479E+06    -21.5916E+06     78.2055E+03    -25.4534E-03     50.8967E-03    -25.4433E-03     5.28517E-03    -25.3694E-03     50.3977E-03    -25.3561E-03     5.28379E-03
            1831     16.6570E-03     33.5721E-03    -4.04825E+06     157.500E+06     68.6208E+06     268.119E+03    -30.8937E-03     57.2775E-03    -26.3838E-03     146.200E-03    -34.2091E-03     60.9387E-03    -26.2632E-03     147.721E-03
            1832     15.7810E-03     33.3628E-03    -6.41503E+06     121.665E+06     4.87128E+06     156.722E+03    -32.8613E-03     58.9491E-03    -26.0879E-03     185.497E-03    -36.1081E-03     62.5910E-03    -26.2306E-03     186.061E-03
            1833     14.9042E-03     33.2152E-03    -7.29005E+06     57.9287E+06    -18.8835E+06     200.883E+03    -30.5869E-03     56.6134E-03    -26.0265E-03     127.986E-03    -31.5550E-03     57.8160E-03    -26.1943E-03     127.798E-03
            1834     14.0288E-03     33.1182E-03    -6.45700E+06     4.71942E+06    -9.59301E+06     687.597E+03    -28.9315E-03     55.0261E-03    -26.0947E-03     90.8835E-03    -29.2762E-03     55.3925E-03    -26.1401E-03     90.6868E-03
            1835     13.1524E-03     33.0412E-03    -5.85637E+06    -27.3552E+06    -6.50387E+06     832.794E+03    -28.5387E-03     54.6326E-03    -26.0939E-03     78.9635E-03    -28.7030E-03     54.6979E-03    -26.0783E-03     78.7984E-03
            1836     12.2762E-03     32.9668E-03    -6.38665E+06    -40.6797E+06    -466.188E+03     666.150E+03    -28.4297E-03     54.5026E-03    -26.0729E-03     73.7209E-03    -28.5221E-03     54.4293E-03    -26.0069E-03     73.5868E-03
            1837     11.4006E-03     32.8998E-03    -7.09797E+06    -51.9513E+06     1.14467E+06     689.670E+03    -28.1308E-03     54.1478E-03    -26.0170E-03     65.4314E-03    -28.1690E-03     53.9730E-03    -25.9256E-03     65.3273E-03
            1838     10.5245E-03     32.8404E-03    -7.88395E+06    -64.3610E+06     419.370E+03     766.898E+03    -27.8263E-03     53.7719E-03    -25.9456E-03     59.3195E-03    -27.8238E-03     53.5118E-03    -25.8388E-03     59.2400E-03
            1839     9.64823E-03     32.7850E-03    -8.86882E+06    -71.8969E+06     2.32721E+06     839.819E+03    -27.5262E-03     53.4054E-03    -25.8792E-03     54.3894E-03    -27.5042E-03     53.0899E-03    -25.7504E-03     54.3299E-03
            1840     8.77203E-03     32.7347E-03    -10.1376E+06    -77.3814E+06     2.79641E+06     810.934E+03    -27.2217E-03     53.0245E-03    -25.8028E-03     49.2467E-03    -27.1876E-03     52.6716E-03    -25.6619E-03     49.2022E-03
            1841     7.89541E-03     32.6892E-03    -11.6715E+06    -83.1648E+06     2.00138E+06     812.338E+03    -26.8921E-03     52.6151E-03    -25.7230E-03     44.1582E-03    -26.8484E-03     52.2289E-03    -25.5755E-03     44.1263E-03
            1842     7.01880E-03     32.6486E-03    -13.3174E+06    -89.5144E+06     469.370E+03     836.776E+03    -26.5741E-03     52.2199E-03    -25.6458E-03     39.0947E-03    -26.5220E-03     51.8014E-03    -25.4943E-03     39.0730E-03
            1843     6.14184E-03     32.6128E-03    -15.0940E+06    -94.9484E+06    -2.66159E+06     875.526E+03    -26.2858E-03     51.8516E-03    -25.5658E-03     34.0412E-03    -26.2265E-03     51.4094E-03    -25.4196E-03     34.0278E-03
            1844     5.26485E-03     32.5819E-03    -16.8096E+06    -98.2661E+06    -7.04460E+06     890.883E+03    -26.0205E-03     51.5042E-03    -25.4837E-03     29.0183E-03    -25.9561E-03     51.0517E-03    -25.3520E-03     29.0112E-03
            1845     4.38759E-03     32.5559E-03    -18.3077E+06    -100.528E+06    -11.7728E+06     945.756E+03    -25.7819E-03     51.1890E-03    -25.4071E-03     24.0526E-03    -25.7132E-03     50.7326E-03    -25.2937E-03     24.0510E-03
            1846     3.51027E-03     32.5347E-03    -19.5136E+06    -104.949E+06    -14.9775E+06     1.01490E+06    -25.5906E-03     50.9417E-03    -25.3511E-03     19.1620E-03    -25.5158E-03     50.4684E-03    -25.2455E-03     19.1651E-03
            1847     2.63277E-03     32.5182E-03    -20.6141E+06    -109.452E+06    -17.2783E+06     757.393E+03    -25.4471E-03     50.7557E-03    -25.3086E-03     14.3388E-03    -25.3672E-03     50.2642E-03    -25.2064E-03     14.3415E-03
            1848     1.75527E-03     32.5064E-03    -21.4974E+06    -111.029E+06    -19.6540E+06     133.272E+03    -25.3365E-03     50.6058E-03    -25.2693E-03     9.62829E-03    -25.2548E-03     50.1107E-03    -25.1754E-03     9.62553E-03
            1849     877.643E-06     32.4992E-03    -21.9725E+06    -112.502E+06    -21.5094E+06    -163.303E+03    -25.2568E-03     50.5041E-03    -25.2473E-03     5.20827E-03    -25.1724E-03     50.0047E-03    -25.1599E-03     5.20383E-03
            1850     16.6594E-03     32.5753E-03    -4.64256E+06     157.243E+06     68.8405E+06    -40.7467E+03    -31.0844E-03     57.4790E-03    -26.3946E-03     147.583E-03    -34.4341E-03     61.1708E-03    -26.2716E-03     149.084E-03
            1851     15.7804E-03     32.3624E-03    -6.57002E+06     121.527E+06     5.25646E+06     701.223E+03    -33.4550E-03     59.5410E-03    -26.0860E-03     187.467E-03    -36.7377E-03     63.2165E-03    -26.2264E-03     188.006E-03
            1852     14.9050E-03     32.2152E-03    -6.47452E+06     58.0581E+06    -18.9412E+06     609.678E+03    -30.9338E-03     56.9328E-03    -25.9990E-03     128.162E-03    -31.8972E-03     58.1342E-03    -26.1685E-03     127.971E-03
            1853     14.0288E-03     32.1177E-03    -6.00938E+06     4.71463E+06    -9.74719E+06     588.827E+03    -29.1647E-03     55.2129E-03    -26.0482E-03     90.5025E-03    -29.5052E-03     55.5771E-03    -26.0950E-03     90.3024E-03
            1854     13.1532E-03     32.0419E-03    -6.31524E+06    -27.5178E+06    -6.93445E+06     903.942E+03    -28.7144E-03     54.7444E-03    -26.0300E-03     78.6056E-03    -28.8795E-03     54.8095E-03    -26.0156E-03     78.4405E-03
            1855     12.2776E-03     31.9665E-03    -6.79634E+06    -40.5440E+06    -772.587E+03     792.057E+03    -28.5962E-03     54.5871E-03    -25.9910E-03     73.1465E-03    -28.6897E-03     54.5149E-03    -25.9262E-03     73.0134E-03
            1856     11.4016E-03     31.9003E-03    -7.33492E+06    -51.9310E+06     997.561E+03     782.141E+03    -28.2188E-03     54.1370E-03    -25.9182E-03     64.8581E-03    -28.2574E-03     53.9623E-03    -25.8272E-03     64.7554E-03
            1857     10.5257E-03     31.8409E-03    -8.19959E+06    -64.3973E+06     183.732E+03     858.578E+03    -27.8724E-03     53.7038E-03    -25.8314E-03     58.8706E-03    -27.8706E-03     53.4437E-03    -25.7252E-03     58.7926E-03
            1858     9.64965E-03     31.7860E-03    -9.14572E+06    -71.8923E+06     2.15401E+06     911.308E+03    -27.5455E-03     53.2961E-03    -25.7506E-03     53.9525E-03    -27.5242E-03     52.9809E-03    -25.6223E-03     53.8944E-03
            1859     8.77313E-03     31.7359E-03    -10.2306E+06    -77.3087E+06     2.81240E+06     910.961E+03    -27.1849E-03     52.8465E-03    -25.6616E-03     48.7532E-03    -27.1511E-03     52.4937E-03    -25.5206E-03     48.7106E-03
            1860     7.89673E-03     31.6907E-03    -11.6525E+06    -83.0478E+06     2.14280E+06     886.335E+03    -26.8307E-03     52.4013E-03    -25.5706E-03     43.6582E-03    -26.7870E-03     52.0152E-03    -25.4225E-03     43.6278E-03
            1861     7.01987E-03     31.6505E-03    -13.3904E+06    -89.4467E+06     625.106E+03     873.494E+03    -26.4960E-03     51.9778E-03    -25.4818E-03     38.6276E-03    -26.4443E-03     51.5593E-03    -25.3296E-03     38.6068E-03
            1862     6.14299E-03     31.6150E-03    -15.2002E+06    -94.8142E+06    -2.58739E+06     884.835E+03    -26.1789E-03     51.5687E-03    -25.3898E-03     33.6036E-03    -26.1202E-03     51.1270E-03    -25.2432E-03     33.5907E-03
            1863     5.26579E-03     31.5844E-03    -16.9645E+06    -98.1652E+06    -7.02752E+06     928.958E+03    -25.8831E-03     51.1803E-03    -25.2972E-03     28.6260E-03    -25.8196E-03     50.7285E-03    -25.1654E-03     28.6197E-03
            1864     4.38848E-03     31.5586E-03    -18.5525E+06    -100.397E+06    -11.5798E+06     1.00146E+06    -25.6241E-03     50.8366E-03    -25.2125E-03     23.7101E-03    -25.5570E-03     50.3809E-03    -25.0979E-03     23.7095E-03
            1865     3.51096E-03     31.5376E-03    -19.9870E+06    -104.699E+06    -15.0627E+06     1.05272E+06    -25.4117E-03     50.5587E-03    -25.1471E-03     18.8776E-03    -25.3394E-03     50.0875E-03    -25.0416E-03     18.8814E-03
            1866     2.63336E-03     31.5213E-03    -21.0716E+06    -108.297E+06    -18.1238E+06     632.102E+03    -25.2457E-03     50.3392E-03    -25.0935E-03     14.1263E-03    -25.1685E-03     49.8553E-03    -24.9965E-03     14.1276E-03
            1867     1.75562E-03     31.5096E-03    -21.7204E+06    -110.534E+06    -20.4358E+06    -112.089E+03    -25.1239E-03     50.1766E-03    -25.0527E-03     9.48434E-03    -25.0430E-03     49.6854E-03    -24.9631E-03     9.47853E-03
            1868     877.841E-06     31.5025E-03    -22.2399E+06    -112.921E+06    -21.7743E+06    -131.974E+03    -25.0476E-03     50.0778E-03    -25.0302E-03     5.13006E-03    -24.9636E-03     49.5772E-03    -24.9431E-03     5.12607E-03
            1869     16.6513E-03     31.5700E-03    -4.56956E+06     156.707E+06     68.4899E+06     102.132E+03    -31.0364E-03     57.4829E-03    -26.4465E-03     147.578E-03    -34.3764E-03     61.1644E-03    -26.3246E-03     149.057E-03
            1870     15.7804E-03     31.3622E-03    -7.55348E+06     121.055E+06     5.79851E+06     278.063E+03    -34.6879E-03     60.7932E-03    -26.1053E-03     185.314E-03    -37.9411E-03     64.4324E-03    -26.2409E-03     185.770E-03
            1871     14.9048E-03     31.2138E-03    -7.23315E+06     58.1130E+06    -17.9411E+06     550.702E+03    -31.2656E-03     57.2331E-03    -25.9674E-03     127.057E-03    -32.2274E-03     58.4275E-03    -26.1309E-03     126.858E-03
            1872     14.0301E-03     31.1179E-03    -7.01319E+06     4.57277E+06    -9.88235E+06     770.102E+03    -29.3956E-03     55.3838E-03    -25.9882E-03     89.7978E-03    -29.7397E-03     55.7480E-03    -26.0341E-03     89.5983E-03
            1873     13.1543E-03     31.0414E-03    -6.98913E+06    -27.1128E+06    -6.80354E+06     692.682E+03    -28.9753E-03     54.9229E-03    -25.9476E-03     78.1041E-03    -29.1442E-03     54.9905E-03    -25.9322E-03     77.9345E-03
            1874     12.2788E-03     30.9667E-03    -6.98055E+06    -40.5616E+06    -608.620E+03     823.416E+03    -28.6432E-03     54.5338E-03    -25.8905E-03     72.7943E-03    -28.7370E-03     54.4606E-03    -25.8247E-03     72.6620E-03
            1875     11.4030E-03     30.9007E-03    -7.67089E+06    -52.1878E+06     896.480E+03     946.288E+03    -28.2238E-03     54.0300E-03    -25.8062E-03     64.4592E-03    -28.2626E-03     53.8537E-03    -25.7149E-03     64.3593E-03
            1876     10.5270E-03     30.8416E-03    -8.23336E+06    -64.3438E+06     308.458E+03     883.627E+03    -27.9229E-03     53.6296E-03    -25.7067E-03     58.4516E-03    -27.9209E-03     53.3691E-03    -25.5999E-03     58.3744E-03
            1877     9.65083E-03     30.7870E-03    -8.99015E+06    -71.7726E+06     2.40221E+06     889.147E+03    -27.5769E-03     53.1867E-03    -25.6098E-03     53.4175E-03    -27.5549E-03     52.8711E-03    -25.4807E-03     53.3596E-03
            1878     8.77470E-03     30.7373E-03    -10.1938E+06    -77.2260E+06     2.92469E+06     916.750E+03    -27.1527E-03     52.6576E-03    -25.5049E-03     48.2221E-03    -27.1185E-03     52.3046E-03    -25.3635E-03     48.1802E-03
            1879     7.89796E-03     30.6926E-03    -11.5877E+06    -82.9577E+06     2.21516E+06     941.484E+03    -26.7680E-03     52.1682E-03    -25.4001E-03     43.1522E-03    -26.7240E-03     51.7820E-03    -25.2520E-03     43.1230E-03
            1880     7.02125E-03     30.6525E-03    -13.2607E+06    -89.3121E+06     769.726E+03     975.622E+03    -26.4072E-03     51.7056E-03    -25.2984E-03     38.1138E-03    -26.3551E-03     51.2871E-03    -25.1458E-03     38.0949E-03
            1881     6.14415E-03     30.6175E-03    -15.1981E+06    -94.7187E+06    -2.41149E+06     1.00541E+06    -26.0535E-03     51.2480E-03    -25.1945E-03     33.1216E-03    -25.9951E-03     50.8064E-03    -25.0472E-03     33.1107E-03
            1882     5.26691E-03     30.5872E-03    -17.1138E+06    -98.0106E+06    -6.99171E+06     1.03254E+06    -25.7323E-03     50.8227E-03    -25.0904E-03     28.1913E-03    -25.6697E-03     50.3716E-03    -24.9584E-03     28.1867E-03
            1883     4.38941E-03     30.5617E-03    -18.9107E+06    -100.420E+06    -11.6202E+06     1.21460E+06    -25.4490E-03     50.4447E-03    -24.9957E-03     23.3290E-03    -25.3836E-03     49.9893E-03    -24.8808E-03     23.3314E-03
            1884     3.51178E-03     30.5409E-03    -20.5109E+06    -104.131E+06    -15.5636E+06     1.23484E+06    -25.2128E-03     50.1311E-03    -24.9183E-03     18.5628E-03    -25.1433E-03     49.6642E-03    -24.8154E-03     18.5691E-03
            1885     2.63396E-03     30.5248E-03    -21.6517E+06    -107.003E+06    -19.4477E+06     556.672E+03    -25.0201E-03     49.8737E-03    -24.8536E-03     13.8863E-03    -24.9458E-03     49.3990E-03    -24.7643E-03     13.8869E-03
            1886     1.75603E-03     30.5133E-03    -22.2772E+06    -110.313E+06    -21.7565E+06    -74.0781E+03    -24.8858E-03     49.6988E-03    -24.8130E-03     9.32003E-03    -24.8061E-03     49.2114E-03    -24.7295E-03     9.31484E-03
            1887     878.022E-06     30.5063E-03    -22.7148E+06    -113.322E+06    -22.3927E+06    -124.531E+03    -24.8146E-03     49.6089E-03    -24.7943E-03     5.04251E-03    -24.7315E-03     49.1078E-03    -24.7090E-03     5.03869E-03
            1888     16.6579E-03     30.5692E-03    -4.27770E+06     156.107E+06     67.4914E+06     499.971E+03    -31.4997E-03     57.8701E-03    -26.3704E-03     145.679E-03    -34.7706E-03     61.4843E-03    -26.2531E-03     147.143E-03
            1889     15.7811E-03     30.3585E-03    -6.78383E+06     121.136E+06     5.16088E+06     837.036E+03    -33.8308E-03     59.8581E-03    -26.0273E-03     182.998E-03    -37.0180E-03     63.4363E-03    -26.1673E-03     183.499E-03
            1890     14.9072E-03     30.2148E-03    -7.62809E+06     58.5387E+06    -17.9196E+06     713.500E+03    -31.3604E-03     57.2646E-03    -25.9042E-03     126.478E-03    -32.3272E-03     58.4641E-03    -26.0676E-03     126.282E-03
            1891     14.0306E-03     30.1165E-03    -7.48584E+06     4.42469E+06    -10.0384E+06     334.003E+03    -29.5765E-03     55.4868E-03    -25.9103E-03     89.3872E-03    -29.9209E-03     55.8495E-03    -25.9561E-03     89.1804E-03
            1892     13.1560E-03     30.0417E-03    -6.56832E+06    -27.1673E+06    -6.34235E+06     385.377E+03    -29.0173E-03     54.8753E-03    -25.8580E-03     77.8840E-03    -29.1836E-03     54.9402E-03    -25.8408E-03     77.7108E-03
            1893     12.2801E-03     29.9667E-03    -6.53211E+06    -40.7080E+06    -301.229E+03     879.007E+03    -28.7613E-03     54.5488E-03    -25.7874E-03     72.5038E-03    -28.8523E-03     54.4729E-03    -25.7205E-03     72.3723E-03
            1894     11.4043E-03     29.9013E-03    -7.13707E+06    -52.0920E+06     1.31956E+06     990.549E+03    -28.3231E-03     54.0091E-03    -25.6860E-03     63.9938E-03    -28.3591E-03     53.8310E-03    -25.5935E-03     63.8948E-03
            1895     10.5284E-03     29.8423E-03    -7.68517E+06    -64.2832E+06     575.327E+03     893.542E+03    -27.9838E-03     53.5517E-03    -25.5679E-03     57.9228E-03    -27.9789E-03     53.2896E-03    -25.4607E-03     57.8462E-03
            1896     9.65256E-03     29.7880E-03    -8.63325E+06    -71.7771E+06     2.47371E+06     979.381E+03    -27.5692E-03     53.0234E-03    -25.4541E-03     52.7997E-03    -27.5450E-03     52.7065E-03    -25.3252E-03     52.7437E-03
            1897     8.77602E-03     29.7390E-03    -9.95663E+06    -77.1162E+06     2.88913E+06     1.05097E+06    -27.1312E-03     52.4644E-03    -25.3332E-03     47.6622E-03    -27.0955E-03     52.1112E-03    -25.1925E-03     47.6227E-03
            1898     7.89955E-03     29.6945E-03    -11.5349E+06    -82.8418E+06     2.03963E+06     1.05028E+06    -26.7174E-03     51.9290E-03    -25.2116E-03     42.5830E-03    -26.6726E-03     51.5433E-03    -25.0645E-03     42.5558E-03
            1899     7.02261E-03     29.6550E-03    -13.3148E+06    -89.2459E+06     579.503E+03     1.13578E+06    -26.3037E-03     51.3985E-03    -25.0948E-03     37.5471E-03    -26.2514E-03     50.9804E-03    -24.9432E-03     37.5308E-03
            1900     6.14551E-03     29.6203E-03    -15.2574E+06    -94.5596E+06    -2.46466E+06     1.21035E+06    -25.9203E-03     50.8983E-03    -24.9780E-03     32.5889E-03    -25.8622E-03     50.4575E-03    -24.8311E-03     32.5811E-03
            1901     5.26810E-03     29.5904E-03    -17.2744E+06    -97.8772E+06    -7.02108E+06     1.28904E+06    -25.5671E-03     50.4287E-03    -24.8615E-03     27.7020E-03    -25.5053E-03     49.9784E-03    -24.7297E-03     27.7011E-03
            1902     4.39048E-03     29.5652E-03    -19.0974E+06    -100.460E+06    -11.8758E+06     1.47133E+06    -25.2544E-03     50.0094E-03    -24.7549E-03     22.9040E-03    -25.1894E-03     49.5544E-03    -24.6410E-03     22.9101E-03
            1903     3.51264E-03     29.5447E-03    -20.4312E+06    -103.205E+06    -16.0068E+06     1.32422E+06    -24.9902E-03     49.6562E-03    -24.6660E-03     18.2094E-03    -24.9209E-03     49.1944E-03    -24.5668E-03     18.2172E-03
            1904     2.63464E-03     29.5289E-03    -21.3541E+06    -105.870E+06    -19.3735E+06     699.400E+03    -24.7800E-03     49.3766E-03    -24.5966E-03     13.6118E-03    -24.7059E-03     48.9070E-03    -24.5090E-03     13.6144E-03
            1905     1.75649E-03     29.5175E-03    -22.1345E+06    -110.073E+06    -21.4765E+06     274.160E+03    -24.6352E-03     49.1880E-03    -24.5528E-03     9.13493E-03    -24.5554E-03     48.7012E-03    -24.4685E-03     9.13436E-03
            1906     878.272E-06     29.5106E-03    -22.7471E+06    -113.353E+06    -22.6337E+06     56.0493E+03    -24.5483E-03     49.0800E-03    -24.5317E-03     4.93980E-03    -24.4650E-03     48.5792E-03    -24.4475E-03     4.93837E-03
            1907     16.6606E-03     29.5689E-03    -4.53764E+06     155.490E+06     67.1000E+06     572.176E+03    -32.1434E-03     58.4445E-03    -26.3011E-03     146.307E-03    -35.4532E-03     62.0957E-03    -26.1845E-03     147.752E-03
            1908     15.7835E-03     29.3614E-03    -6.44099E+06     121.265E+06     5.17409E+06     1.19154E+06    -33.8464E-03     59.7996E-03    -25.9531E-03     186.312E-03    -37.1151E-03     63.4609E-03    -26.0938E-03     186.851E-03
            1909     14.9059E-03     29.2112E-03    -6.30009E+06     59.3426E+06    -17.2703E+06     797.468E+03    -31.6408E-03     57.4658E-03    -25.8250E-03     125.235E-03    -32.5917E-03     58.6551E-03    -25.9883E-03     125.027E-03
            1910     14.0331E-03     29.1174E-03    -5.38292E+06     4.49775E+06    -9.48714E+06     502.417E+03    -29.3390E-03     55.1615E-03    -25.8225E-03     88.8392E-03    -29.6668E-03     55.5137E-03    -25.8687E-03     88.6381E-03
            1911     13.1562E-03     29.0411E-03    -6.11360E+06    -27.6787E+06    -6.80274E+06     658.471E+03    -29.1382E-03     54.9038E-03    -25.7656E-03     77.8402E-03    -29.3003E-03     54.9657E-03    -25.7507E-03     77.6701E-03
            1912     12.2814E-03     28.9668E-03    -6.55339E+06    -40.7415E+06    -898.206E+03     716.563E+03    -29.0020E-03     54.6762E-03    -25.6742E-03     71.8775E-03    -29.0909E-03     54.5998E-03    -25.6101E-03     71.7433E-03
            1913     11.4059E-03     28.9018E-03    -6.56285E+06    -51.8514E+06     1.23769E+06     912.950E+03    -28.4631E-03     54.0126E-03    -25.5495E-03     63.3798E-03    -28.4955E-03     53.8341E-03    -25.4587E-03     63.2801E-03
            1914     10.5302E-03     28.8430E-03    -7.43930E+06    -64.2861E+06     245.685E+03     1.18185E+06    -27.9958E-03     53.4081E-03    -25.4123E-03     57.3437E-03    -27.9883E-03     53.1453E-03    -25.3071E-03     57.2718E-03
            1915     9.65395E-03     28.7896E-03    -8.50835E+06    -71.8364E+06     2.13949E+06     1.23636E+06    -27.5700E-03     52.8528E-03    -25.2828E-03     52.1822E-03    -27.5438E-03     52.5352E-03    -25.1556E-03     52.1303E-03
            1916     8.77779E-03     28.7406E-03    -9.85505E+06    -76.8992E+06     2.70607E+06     1.29997E+06    -27.1234E-03     52.2675E-03    -25.1441E-03     46.9837E-03    -27.0867E-03     51.9150E-03    -25.0047E-03     46.9481E-03
            1917     7.90111E-03     28.6968E-03    -11.5490E+06    -82.7297E+06     1.76936E+06     1.31324E+06    -26.6492E-03     51.6533E-03    -25.0041E-03     41.9066E-03    -26.6039E-03     51.2682E-03    -24.8585E-03     41.8835E-03
            1918     7.02421E-03     28.6577E-03    -13.3813E+06    -89.1615E+06     275.818E+03     1.33454E+06    -26.1976E-03     51.0684E-03    -24.8707E-03     36.9117E-03    -26.1450E-03     50.6510E-03    -24.7207E-03     36.8985E-03
            1919     6.14696E-03     28.6235E-03    -15.3418E+06    -94.4393E+06    -2.73238E+06     1.44004E+06    -25.7751E-03     50.5138E-03    -24.7386E-03     31.9888E-03    -25.7170E-03     50.0738E-03    -24.5931E-03     31.9845E-03
            1920     5.26943E-03     28.5940E-03    -17.2926E+06    -97.7499E+06    -7.18038E+06     1.57246E+06    -25.3860E-03     49.9947E-03    -24.6087E-03     27.1564E-03    -25.3242E-03     49.5452E-03    -24.4778E-03     27.1596E-03
            1921     4.39165E-03     28.5692E-03    -18.9480E+06    -100.179E+06    -11.9235E+06     1.58665E+06    -25.0403E-03     49.5303E-03    -24.4901E-03     22.4283E-03    -24.9748E-03     49.0765E-03    -24.3770E-03     22.4362E-03
            1922     3.51360E-03     28.5490E-03    -20.2222E+06    -102.287E+06    -16.0140E+06     1.34340E+06    -24.7467E-03     49.1372E-03    -24.3905E-03     17.8115E-03    -24.6776E-03     48.6796E-03    -24.2929E-03     17.8198E-03
            1923     2.63538E-03     28.5334E-03    -21.2538E+06    -104.964E+06    -19.2143E+06     941.285E+03    -24.5171E-03     48.8312E-03    -24.3141E-03     13.3018E-03    -24.4440E-03     48.3657E-03    -24.2271E-03     13.3077E-03
            1924     1.75700E-03     28.5222E-03    -22.0544E+06    -109.579E+06    -21.0125E+06     568.066E+03    -24.3588E-03     48.6238E-03    -24.2650E-03     8.92430E-03    -24.2800E-03     48.1386E-03    -24.1792E-03     8.92766E-03
            1925     878.531E-06     28.5154E-03    -22.6195E+06    -112.937E+06    -22.2151E+06     315.240E+03    -24.2587E-03     48.4942E-03    -24.2355E-03     4.82598E-03    -24.1759E-03     47.9946E-03    -24.1500E-03     4.82797E-03
            1926     16.6567E-03     28.5768E-03    -5.76141E+06     155.100E+06     69.0205E+06    -3.17151E+03    -33.1627E-03     59.5339E-03    -26.3712E-03     146.370E-03    -36.5239E-03     63.2256E-03    -26.2427E-03     147.698E-03
            1927     15.7803E-03     28.3525E-03    -7.14768E+06     120.934E+06     7.61132E+06    -187.220E+03    -35.7561E-03     61.7017E-03    -25.9456E-03     185.357E-03    -39.0495E-03     65.3772E-03    -26.0725E-03     185.730E-03
            1928     14.9121E-03     28.2134E-03    -5.05991E+06     58.9188E+06    -16.7189E+06     730.590E+03    -31.1888E-03     56.9495E-03    -25.7607E-03     124.785E-03    -32.1053E-03     58.1057E-03    -25.9224E-03     124.584E-03
            1929     14.0321E-03     28.1169E-03    -5.47736E+06     4.31521E+06    -9.77659E+06     1.39967E+06    -29.7269E-03     55.4803E-03    -25.7533E-03     89.8662E-03    -30.0586E-03     55.8361E-03    -25.8005E-03     89.6724E-03
            1930     13.1585E-03     28.0408E-03    -5.92756E+06    -26.8998E+06    -6.97649E+06     1.07798E+06    -29.5776E-03     55.2417E-03    -25.6641E-03     77.3109E-03    -29.7388E-03     55.3066E-03    -25.6514E-03     77.1431E-03
            1931     12.2829E-03     27.9667E-03    -6.11678E+06    -40.6678E+06    -1.14097E+06     847.972E+03    -29.0861E-03     54.6322E-03    -25.5461E-03     71.2064E-03    -29.1709E-03     54.5542E-03    -25.4840E-03     71.0746E-03
            1932     11.4077E-03     27.9021E-03    -7.17131E+06    -52.5474E+06     275.643E+03     1.04111E+06    -28.5410E-03     53.9441E-03    -25.4031E-03     62.8190E-03    -28.5730E-03     53.7633E-03    -25.3151E-03     62.7214E-03
            1933     10.5317E-03     27.8443E-03    -7.84459E+06    -64.2003E+06    -207.971E+03     1.40779E+06    -28.0912E-03     53.3374E-03    -25.2462E-03     56.7369E-03    -28.0843E-03     53.0753E-03    -25.1428E-03     56.6685E-03
            1934     9.65591E-03     27.7907E-03    -8.74859E+06    -71.6576E+06     1.81749E+06     1.47945E+06    -27.6151E-03     52.7090E-03    -25.0939E-03     51.4245E-03    -27.5893E-03     52.3924E-03    -24.9682E-03     51.3764E-03
            1935     8.77958E-03     27.7427E-03    -10.0799E+06    -76.8666E+06     2.33950E+06     1.53560E+06    -27.0837E-03     52.0178E-03    -24.9341E-03     46.2042E-03    -27.0471E-03     51.6658E-03    -24.7964E-03     46.1724E-03
            1936     7.90293E-03     27.6993E-03    -11.5749E+06    -82.4912E+06     1.53403E+06     1.58488E+06    -26.5700E-03     51.3457E-03    -24.7757E-03     41.1660E-03    -26.5244E-03     50.9617E-03    -24.6316E-03     41.1471E-03
            1937     7.02593E-03     27.6608E-03    -13.3568E+06    -89.0303E+06     66.7270E+03     1.58332E+06    -26.0816E-03     50.7062E-03    -24.6246E-03     36.1937E-03    -26.0285E-03     50.2894E-03    -24.4758E-03     36.1843E-03
            1938     6.14857E-03     27.6270E-03    -15.3001E+06    -94.3345E+06    -2.93921E+06     1.68144E+06    -25.6155E-03     50.0911E-03    -24.4755E-03     31.3175E-03    -25.5568E-03     49.6517E-03    -24.3312E-03     31.3169E-03
            1939     5.27091E-03     27.5980E-03    -17.1300E+06     -97.498E+06    -7.30941E+06     1.72760E+06    -25.1858E-03     49.5162E-03    -24.3304E-03     26.5470E-03    -25.1231E-03     49.0678E-03    -24.2008E-03     26.5527E-03
            1940     4.39291E-03     27.5736E-03    -18.6960E+06    -99.6606E+06    -11.7511E+06     1.63708E+06    -24.8051E-03     49.0047E-03    -24.1997E-03     21.8985E-03    -24.7392E-03     48.5528E-03    -24.0868E-03     21.9075E-03
            1941     3.51468E-03     27.5538E-03    -20.0208E+06    -101.585E+06    -15.7227E+06     1.47743E+06    -24.4829E-03     48.5720E-03    -24.0891E-03     17.3710E-03    -24.4142E-03     48.1172E-03    -23.9914E-03     17.3814E-03
            1942     2.63620E-03     27.5385E-03    -21.0481E+06    -104.067E+06    -19.0107E+06     1.18158E+06    -24.2291E-03     48.2314E-03    -24.0022E-03     12.9619E-03    -24.1566E-03     47.7698E-03    -23.9159E-03     12.9711E-03
            1943     1.75757E-03     27.5275E-03    -21.7790E+06    -108.792E+06    -20.8187E+06     712.321E+03    -24.0511E-03     47.9968E-03    -23.9457E-03     8.68789E-03    -23.9724E-03     47.5149E-03    -23.8605E-03     8.69326E-03
            1944     878.812E-06     27.5209E-03    -22.2903E+06    -112.306E+06    -21.8991E+06     342.148E+03    -23.9355E-03     47.8508E-03    -23.9153E-03     4.69751E-03    -23.8524E-03     47.3535E-03    -23.8297E-03     4.69992E-03
            1945     16.6515E-03     27.5574E-03    -4.84669E+06     155.524E+06     68.8048E+06    -536.959E+03    -33.4773E-03     59.8486E-03    -26.3712E-03     146.923E-03    -36.7891E-03     63.4961E-03    -26.2457E-03     148.252E-03
            1946     15.7902E-03     27.3558E-03    -7.08513E+06     119.960E+06     6.22448E+06    -722.924E+03    -35.4477E-03     61.3691E-03    -25.9213E-03     180.781E-03    -38.5939E-03     64.8980E-03    -26.0539E-03     181.125E-03
            1947     14.9044E-03     27.2127E-03    -6.75865E+06     57.4215E+06    -18.8317E+06     1.08534E+06    -31.3368E-03     57.0667E-03    -25.7299E-03     126.063E-03    -32.2610E-03     58.2252E-03    -25.8976E-03     125.873E-03
            1948     14.0346E-03     27.1149E-03    -6.43959E+06     4.79808E+06    -10.5302E+06     1.58032E+06    -30.7096E-03     56.3990E-03    -25.6894E-03     89.1125E-03    -31.0497E-03     56.7637E-03    -25.7396E-03     88.9099E-03
            1949     13.1594E-03     27.0404E-03    -6.07339E+06    -26.4660E+06    -7.17042E+06     1.14667E+06    -29.8047E-03     55.3607E-03    -25.5560E-03     76.5668E-03    -29.9646E-03     55.4258E-03    -25.5447E-03     76.3995E-03
            1950     12.2848E-03     26.9668E-03    -6.57985E+06    -41.1558E+06    -1.67880E+06     1.30592E+06    -29.2205E-03     54.6368E-03    -25.4162E-03     70.8550E-03    -29.3051E-03     54.5567E-03    -25.3554E-03     70.7293E-03
            1951     11.4090E-03     26.9029E-03    -7.16079E+06    -52.4780E+06     251.950E+03     1.45438E+06    -28.7347E-03     53.9850E-03    -25.2504E-03     62.1467E-03    -28.7658E-03     53.8037E-03    -25.1626E-03     62.0545E-03
            1952     10.5338E-03     26.8450E-03    -8.03955E+06    -64.2106E+06    -569.093E+03     1.49106E+06    -28.2445E-03     53.3076E-03    -25.0631E-03     55.8223E-03    -28.2373E-03     53.0456E-03    -24.9612E-03     55.7552E-03
            1953     9.65792E-03     26.7926E-03    -8.96310E+06    -71.6134E+06     1.46939E+06     1.59740E+06    -27.6241E-03     52.5090E-03    -24.8848E-03     50.5766E-03    -27.5982E-03     52.1927E-03    -24.7607E-03     50.5309E-03
            1954     8.78158E-03     26.7448E-03    -10.0614E+06    -76.7303E+06     2.14911E+06     1.72842E+06    -27.0382E-03     51.7427E-03    -24.7045E-03     45.3943E-03    -27.0009E-03     51.3910E-03    -24.5679E-03     45.3658E-03
            1955     7.90492E-03     26.7022E-03    -11.5299E+06    -82.3064E+06     1.33391E+06     1.77720E+06    -26.4893E-03     51.0148E-03    -24.5255E-03     40.3543E-03    -26.4430E-03     50.6316E-03    -24.3828E-03     40.3387E-03
            1956     7.02780E-03     26.6642E-03    -13.2509E+06    -88.8032E+06    -63.1871E+03     1.84810E+06    -25.9524E-03     50.3071E-03    -24.3547E-03     35.4032E-03    -25.8985E-03     49.8911E-03    -24.2070E-03     35.3980E-03
            1957     6.15037E-03     26.6310E-03    -15.0999E+06    -94.1223E+06    -3.02688E+06     1.86837E+06    -25.4393E-03     49.6267E-03    -24.1874E-03     30.5733E-03    -25.3796E-03     49.1880E-03    -24.0441E-03     30.5756E-03
            1958     5.27249E-03     26.6025E-03    -16.8840E+06    -97.0960E+06    -7.33492E+06     1.84592E+06    -24.9651E-03     48.9910E-03    -24.0259E-03     25.8791E-03    -24.9016E-03     48.5441E-03    -23.8973E-03     25.8869E-03
            1959     4.39434E-03     26.5786E-03    -18.4995E+06    -99.1309E+06    -11.6311E+06     1.75733E+06    -24.5462E-03     48.4278E-03    -23.8816E-03     21.3175E-03    -24.4802E-03     47.9779E-03    -23.7691E-03     21.3285E-03
            1960     3.51582E-03     26.5592E-03    -19.8779E+06    -100.969E+06    -15.4325E+06     1.62582E+06    -24.1929E-03     47.9525E-03    -23.7596E-03     16.8917E-03    -24.1247E-03     47.5001E-03    -23.6615E-03     16.9043E-03
            1961     2.63711E-03     26.5442E-03    -20.8854E+06    -103.083E+06    -18.8947E+06     1.35320E+06    -23.9125E-03     47.5738E-03    -23.6613E-03     12.5925E-03    -23.8407E-03     47.1167E-03    -23.5760E-03     12.6042E-03
            1962     1.75817E-03     26.5335E-03    -21.5101E+06    -107.793E+06    -20.8692E+06     880.303E+03    -23.7129E-03     47.3098E-03    -23.5969E-03     8.43433E-03    -23.6342E-03     46.8326E-03    -23.5138E-03     8.44203E-03
            1963     879.132E-06     26.5269E-03    -21.9625E+06     -111.54E+06    -21.7526E+06     446.814E+03    -23.5863E-03     47.1516E-03    -23.5653E-03     4.55859E-03    -23.5029E-03     46.6574E-03    -23.4805E-03     4.56243E-03
            1964     16.6636E-03     26.5493E-03    -2.73711E+06     155.567E+06     66.8039E+06     396.994E+03    -32.1619E-03     58.4287E-03    -26.2668E-03     147.445E-03    -35.3909E-03     62.0071E-03    -26.1544E-03     148.864E-03
            1965     15.7778E-03     26.3576E-03    -5.90238E+06     119.284E+06     2.58448E+06     295.237E+03    -33.9948E-03     59.8747E-03    -25.8799E-03     179.598E-03    -37.0811E-03     63.3561E-03    -26.0313E-03     180.073E-03
            1966     14.9122E-03     26.2093E-03    -8.20789E+06     57.3856E+06    -20.6087E+06     769.305E+03    -33.0524E-03     58.7366E-03    -25.6841E-03     125.178E-03    -34.0041E-03     59.9225E-03    -25.8585E-03     124.948E-03
            1967     14.0352E-03     26.1139E-03    -7.11988E+06     5.17694E+06    -11.3266E+06     851.006E+03    -30.7318E-03     56.3196E-03    -25.5878E-03     87.7829E-03    -31.0665E-03     56.6802E-03    -25.6416E-03     87.5722E-03
            1968     13.1611E-03     26.0396E-03    -6.43731E+06    -27.0559E+06    -7.70493E+06     1.23125E+06    -29.9419E-03     55.3835E-03    -25.4416E-03     75.6377E-03    -30.0994E-03     55.4445E-03    -25.4315E-03     75.4713E-03
            1969     12.2857E-03     25.9670E-03    -6.67495E+06     -40.936E+06    -1.51435E+06     1.43284E+06    -29.5685E-03     54.8440E-03    -25.2756E-03     69.8897E-03    -29.6529E-03     54.7638E-03    -25.2141E-03     69.7643E-03
            1970     11.4114E-03     25.9027E-03    -7.26373E+06    -52.3560E+06     25.5011E+03     1.60806E+06    -28.9553E-03     54.0280E-03    -25.0726E-03     61.0772E-03    -28.9856E-03     53.8465E-03    -24.9861E-03     60.9869E-03
            1971     10.5360E-03     25.8463E-03    -7.92654E+06    -64.0700E+06    -736.074E+03     1.68810E+06    -28.2578E-03     53.1164E-03    -24.8586E-03     54.8416E-03    -28.2488E-03     52.8539E-03    -24.7579E-03     54.7781E-03
            1972     9.66002E-03     25.7942E-03    -8.74912E+06     -71.557E+06     1.28580E+06     1.69161E+06    -27.6260E-03     52.2849E-03    -24.6589E-03     49.6881E-03    -27.5979E-03     51.9680E-03    -24.5360E-03     49.6445E-03
            1973     8.78382E-03     25.7474E-03    -9.93987E+06    -76.6351E+06     2.02592E+06     1.83311E+06    -27.0132E-03     51.4687E-03    -24.4555E-03     44.5021E-03    -26.9746E-03     51.1168E-03    -24.3198E-03     44.4759E-03
            1974     7.90702E-03     25.7053E-03    -11.3446E+06    -82.1164E+06     1.20023E+06     1.96606E+06    -26.4029E-03     50.6558E-03    -24.2528E-03     39.4593E-03    -26.3554E-03     50.2729E-03    -24.1113E-03     39.4470E-03
            1975     7.02992E-03     25.6680E-03    -12.9702E+06    -88.5980E+06    -167.486E+03     2.03892E+06    -25.8082E-03     49.8687E-03    -24.0605E-03     34.5387E-03    -25.7528E-03     49.4532E-03    -23.9141E-03     34.5367E-03
            1976     6.15225E-03     25.6355E-03    -14.7898E+06    -93.8021E+06    -3.08666E+06     2.10020E+06    -25.2445E-03     49.1182E-03    -23.8738E-03     29.7678E-03    -25.1833E-03     48.6805E-03    -23.7317E-03     29.7739E-03
            1977     5.27427E-03     25.6076E-03    -16.6415E+06    -96.6200E+06    -7.32441E+06     2.06227E+06    -24.7243E-03     48.4194E-03    -23.6951E-03     25.1516E-03    -24.6601E-03     47.9744E-03    -23.5675E-03     25.1627E-03
            1978     4.39582E-03     25.5842E-03    -18.2835E+06    -98.5490E+06    -11.5114E+06     1.92744E+06    -24.2634E-03     47.7995E-03    -23.5361E-03     20.6883E-03    -24.1973E-03     47.3520E-03    -23.4242E-03     20.7018E-03
            1979     3.51711E-03     25.5652E-03    -19.6271E+06    -100.308E+06    -15.2660E+06     1.74997E+06    -23.8746E-03     47.2764E-03    -23.4018E-03     16.3737E-03    -23.8063E-03     46.8266E-03    -23.3043E-03     16.3882E-03
            1980     2.63807E-03     25.5506E-03    -20.5889E+06    -102.115E+06    -18.7212E+06     1.50239E+06    -23.5655E-03     46.8594E-03    -23.2939E-03     12.1943E-03    -23.4938E-03     46.4064E-03    -23.2096E-03     12.2082E-03
            1981     1.75885E-03     25.5401E-03    -21.2133E+06    -106.680E+06    -20.6274E+06     1.10295E+06    -23.3479E-03     46.5715E-03    -23.2236E-03     8.15922E-03    -23.2696E-03     46.0990E-03    -23.1413E-03     8.16997E-03
            1982     879.442E-06     25.5338E-03    -21.6538E+06    -110.460E+06    -21.4242E+06     624.220E+03    -23.2151E-03     46.4007E-03    -23.1856E-03     4.41683E-03    -23.1322E-03     45.9109E-03    -23.1011E-03     4.42305E-03
            1983     16.6592E-03     25.5674E-03    -4.02120E+06     154.612E+06     67.9871E+06     1.07157E+06    -32.9907E-03     59.2672E-03    -26.2765E-03     146.921E-03    -36.2162E-03     62.8306E-03    -26.1549E-03     148.253E-03
            1984     15.7859E-03     25.3475E-03    -6.71919E+06     119.785E+06     5.72051E+06     1.69722E+06    -35.3135E-03     61.1671E-03    -25.8536E-03     182.026E-03    -38.4537E-03     64.6923E-03    -25.9889E-03     182.431E-03
            1985     14.9094E-03     25.2089E-03    -7.26154E+06     58.2052E+06    -19.0748E+06     373.780E+03    -33.2862E-03     58.8900E-03    -25.6038E-03     123.094E-03    -34.2257E-03     60.0657E-03    -25.7730E-03     122.849E-03
            1986     14.0371E-03     25.1119E-03    -7.02927E+06     4.61388E+06    -11.6532E+06     304.820E+03    -30.9299E-03     56.4076E-03    -25.4777E-03     87.3379E-03    -31.2585E-03     56.7614E-03    -25.5325E-03     87.1191E-03
            1987     13.1625E-03     25.0395E-03    -6.65562E+06    -27.1584E+06    -7.79130E+06     1.04356E+06    -30.3586E-03     55.6613E-03    -25.3028E-03     74.5932E-03    -30.5151E-03     55.7204E-03    -25.2927E-03     74.4219E-03
            1988     12.2887E-03     24.9660E-03    -6.55985E+06    -41.0886E+06    -1.66804E+06     1.56731E+06    -29.7982E-03     54.8986E-03    -25.1004E-03     68.7288E-03    -29.8797E-03     54.8158E-03    -25.0396E-03     68.6049E-03
            1989     11.4137E-03     24.9036E-03    -7.17333E+06    -52.5995E+06    -379.665E+03     1.73633E+06    -28.9300E-03     53.8029E-03    -24.8729E-03     60.1356E-03    -28.9570E-03     53.6187E-03    -24.7881E-03     60.0487E-03
            1990     10.5381E-03     24.8474E-03    -7.79989E+06    -63.8652E+06    -806.004E+03     1.80161E+06    -28.2993E-03     52.9397E-03    -24.6404E-03     53.9601E-03    -28.2886E-03     52.6769E-03    -24.5405E-03     53.8992E-03
            1991     9.66247E-03     24.7964E-03    -8.65064E+06    -71.3648E+06     1.12583E+06     1.84421E+06    -27.6598E-03     52.0747E-03    -24.4148E-03     48.6876E-03    -27.6304E-03     51.7579E-03    -24.2932E-03     48.6470E-03
            1992     8.78609E-03     24.7501E-03    -9.77004E+06    -76.6867E+06     1.74053E+06     1.93315E+06    -26.9791E-03     51.1637E-03    -24.1846E-03     43.4998E-03    -26.9385E-03     50.8111E-03    -24.0505E-03     43.4759E-03
            1993     7.90945E-03     24.7089E-03    -11.1324E+06    -81.9023E+06     1.02681E+06     2.12783E+06    -26.3031E-03     50.2605E-03    -23.9574E-03     38.4752E-03    -26.2540E-03     49.8781E-03    -23.8173E-03     38.4659E-03
            1994     7.03208E-03     24.6723E-03    -12.7621E+06    -88.4294E+06    -385.137E+03     2.24725E+06    -25.6476E-03     49.3899E-03    -23.7424E-03     33.6027E-03    -25.5906E-03     48.9749E-03    -23.5976E-03     33.6042E-03
            1995     6.15439E-03     24.6405E-03    -14.5522E+06    -93.4842E+06    -3.13690E+06     2.36962E+06    -25.0319E-03     48.5676E-03    -23.5357E-03     28.8918E-03    -24.9696E-03     48.1309E-03    -23.3947E-03     28.9020E-03
            1996     5.27611E-03     24.6133E-03    -16.3205E+06    -96.0253E+06    -7.27263E+06     2.31364E+06    -24.4625E-03     47.8011E-03    -23.3386E-03     24.3595E-03    -24.3974E-03     47.3583E-03    -23.2121E-03     24.3744E-03
            1997     4.39751E-03     24.5905E-03    -17.8862E+06    -97.8836E+06    -11.4071E+06     2.10213E+06    -23.9554E-03     47.1195E-03    -23.1641E-03     20.0062E-03    -23.8883E-03     46.6744E-03    -23.0532E-03     20.0225E-03
            1998     3.51843E-03     24.5720E-03    -19.2263E+06    -99.5877E+06    -15.1194E+06     1.91965E+06    -23.5292E-03     46.5469E-03    -23.0178E-03     15.8171E-03    -23.4600E-03     46.0999E-03    -22.9211E-03     15.8342E-03
            1999     2.63913E-03     24.5577E-03    -20.2162E+06    -101.123E+06    -18.3585E+06     1.65216E+06    -23.1932E-03     46.0947E-03    -22.9015E-03     11.7656E-03    -23.1215E-03     45.6455E-03    -22.8174E-03     11.7817E-03
            2000     1.75952E-03     24.5476E-03    -20.7918E+06    -105.507E+06    -20.1058E+06     1.25912E+06    -22.9599E-03     45.7846E-03    -22.8246E-03     7.86414E-03    -22.8820E-03     45.3166E-03    -22.7420E-03     7.87707E-03
            2001     879.829E-06     24.5413E-03    -21.2170E+06    -109.035E+06    -20.9965E+06     854.797E+03    -22.8133E-03     45.5942E-03    -22.7809E-03     4.25021E-03    -22.7309E-03     45.1103E-03    -22.6970E-03     4.25951E-03
            2002     16.6545E-03     24.5530E-03    -4.75381E+06     154.151E+06     68.1595E+06     504.804E+03    -34.5653E-03     60.8809E-03    -26.3156E-03     143.926E-03    -37.7761E-03     64.4244E-03    -26.1914E-03     145.166E-03
            2003     15.7852E-03     24.3491E-03    -7.03006E+06     119.871E+06     7.17625E+06     1.41686E+06    -37.0300E-03     62.8306E-03    -25.8006E-03     180.988E-03    -40.1403E-03     66.3208E-03    -25.9283E-03     181.292E-03
            2004     14.9128E-03     24.2043E-03    -6.12758E+06     58.4751E+06    -18.0331E+06     1.08730E+06    -33.1187E-03     58.6143E-03    -25.4956E-03     121.881E-03    -34.0320E-03     59.7657E-03    -25.6616E-03     121.647E-03
            2005     14.0386E-03     24.1119E-03    -5.62490E+06     4.65916E+06    -11.6466E+06     737.593E+03    -31.3627E-03     56.7078E-03    -25.3451E-03     85.6288E-03    -31.6798E-03     57.0553E-03    -25.4019E-03     85.4120E-03
            2006     13.1651E-03     24.0369E-03    -6.09156E+06    -27.8352E+06    -8.16184E+06     1.11517E+06    -30.5274E-03     55.6664E-03    -25.1390E-03     73.8779E-03    -30.6760E-03     55.7183E-03    -25.1306E-03     73.7084E-03
            2007     12.2909E-03     23.9666E-03    -6.42864E+06    -41.8519E+06    -2.21231E+06     1.75020E+06    -29.8474E-03     54.7630E-03    -24.9156E-03     67.8804E-03    -29.9240E-03     54.6747E-03    -24.8567E-03     67.7601E-03
            2008     11.4157E-03     23.9041E-03    -6.85506E+06    -52.0613E+06    -350.233E+03     1.94641E+06    -29.0573E-03     53.7232E-03    -24.6660E-03     59.3038E-03    -29.0818E-03     53.5397E-03    -24.5823E-03     59.2207E-03
            2009     10.5407E-03     23.8489E-03    -7.56160E+06    -63.7615E+06    -982.388E+03     1.87209E+06    -28.3989E-03     52.8034E-03    -24.4045E-03     52.8316E-03    -28.3857E-03     52.5398E-03    -24.3060E-03     52.7725E-03
            2010     9.66490E-03     23.7985E-03    -8.31126E+06    -71.2870E+06     1.03844E+06     1.98778E+06    -27.6751E-03     51.8254E-03    -24.1503E-03     47.5887E-03    -27.6430E-03     51.5077E-03    -24.0297E-03     47.5510E-03
            2011     8.78880E-03     23.7532E-03    -9.52405E+06    -76.5444E+06     1.45142E+06     2.17196E+06    -26.9316E-03     50.8236E-03    -23.8920E-03     42.4079E-03    -26.8888E-03     50.4711E-03    -23.7600E-03     42.3881E-03
            2012     7.91183E-03     23.7128E-03    -10.9576E+06    -81.8531E+06     678.252E+03     2.30366E+06    -26.1858E-03     49.8251E-03    -23.6394E-03     37.4094E-03    -26.1348E-03     49.4427E-03    -23.5014E-03     37.4034E-03
            2013     7.03457E-03     23.6771E-03    -12.5468E+06    -88.2138E+06    -640.823E+03     2.54508E+06    -25.4733E-03     48.8744E-03    -23.4011E-03     32.5805E-03    -25.4148E-03     48.4601E-03    -23.2582E-03     32.5868E-03
            2014     6.15655E-03     23.6461E-03    -14.3265E+06    -93.1010E+06    -3.22497E+06     2.59520E+06    -24.7982E-03     47.9718E-03    -23.1736E-03     27.9521E-03    -24.7349E-03     47.5366E-03    -23.0340E-03     27.9660E-03
            2015     5.27819E-03     23.6195E-03    -15.9869E+06    -95.3535E+06    -7.17932E+06     2.48662E+06    -24.1757E-03     47.1340E-03    -22.9583E-03     23.5116E-03    -24.1099E-03     46.6937E-03    -22.8327E-03     23.5293E-03
            2016     4.39920E-03     23.5975E-03    -17.5335E+06    -97.1935E+06    -11.3102E+06     2.34057E+06    -23.6247E-03     46.3927E-03    -22.7680E-03     19.2778E-03    -23.5568E-03     45.9503E-03    -22.6582E-03     19.2977E-03
            2017     3.51991E-03     23.5795E-03    -18.8671E+06    -98.7377E+06    -14.7926E+06     2.12499E+06    -23.1632E-03     45.7728E-03    -22.6096E-03     15.2158E-03    -23.0939E-03     45.3289E-03    -22.5131E-03     15.2360E-03
            2018     2.64020E-03     23.5657E-03    -19.8224E+06    -100.050E+06    -17.9991E+06     1.78901E+06    -22.7977E-03     45.2807E-03    -22.4830E-03     11.3017E-03    -22.7262E-03     44.8358E-03    -22.3992E-03     11.3198E-03
            2019     1.76031E-03     23.5558E-03    -20.4755E+06    -104.310E+06    -19.7142E+06     1.41097E+06    -22.5437E-03     44.9428E-03    -22.3991E-03     7.55410E-03    -22.4664E-03     44.4798E-03    -22.3168E-03     7.56918E-03
            2020     880.181E-06     23.5499E-03    -20.9978E+06    -107.309E+06    -20.5464E+06     962.476E+03    -22.3831E-03     44.7351E-03    -22.3520E-03     4.07375E-03    -22.3027E-03     44.2589E-03    -22.2687E-03     4.08454E-03
            2021     16.6609E-03     23.5490E-03    -4.16420E+06     154.008E+06     67.9940E+06     311.306E+03    -34.9358E-03     61.1840E-03    -26.2482E-03     143.209E-03    -38.1193E-03     64.7023E-03    -26.1255E-03     144.417E-03
            2022     15.7870E-03     23.3442E-03    -6.18501E+06     118.995E+06     5.73556E+06     629.401E+03    -36.9257E-03     62.6310E-03    -25.7053E-03     178.542E-03    -39.9919E-03     66.0811E-03    -25.8402E-03     178.844E-03
            2023     14.9140E-03     23.2025E-03    -6.63248E+06     58.6128E+06    -19.5922E+06     1.43509E+06    -33.8258E-03     59.1948E-03    -25.3690E-03     121.137E-03    -34.7291E-03     60.3395E-03    -25.5423E-03     120.894E-03
            2024     14.0413E-03     23.1094E-03    -6.08619E+06     5.28288E+06    -12.3685E+06     1.63526E+06    -31.4658E-03     56.6535E-03    -25.1877E-03     84.7517E-03    -31.7788E-03     56.9996E-03    -25.2484E-03     84.5469E-03
            2025     13.1673E-03     23.0367E-03    -6.26454E+06    -28.7038E+06    -8.80064E+06     1.57475E+06    -30.5113E-03     55.4801E-03    -24.9688E-03     73.0763E-03    -30.6546E-03     55.5248E-03    -24.9621E-03     72.9148E-03
            2026     12.2925E-03     22.9662E-03    -6.52349E+06    -41.6820E+06    -2.64928E+06     1.52790E+06    -30.0261E-03     54.7507E-03    -24.7246E-03     66.8071E-03    -30.1004E-03     54.6616E-03    -24.6679E-03     66.6845E-03
            2027     11.4187E-03     22.9046E-03    -6.58783E+06    -51.7534E+06    -673.680E+03     1.75793E+06    -29.3145E-03     53.7550E-03    -24.4405E-03     57.9755E-03    -29.3361E-03     53.5715E-03    -24.3593E-03     57.8900E-03
            2028     10.5434E-03     22.8505E-03    -7.18440E+06    -63.6190E+06    -1.00434E+06     2.06264E+06    -28.4349E-03     52.5822E-03    -24.1473E-03     51.6284E-03    -28.4185E-03     52.3174E-03    -24.0497E-03     51.5732E-03
            2029     9.66778E-03     22.8009E-03    -8.21314E+06    -71.4014E+06     650.832E+03     2.26828E+06    -27.6641E-03     51.5293E-03    -23.8652E-03     46.4605E-03    -27.6297E-03     51.2104E-03    -23.7465E-03     46.4277E-03
            2030     8.79137E-03     22.7567E-03    -9.29111E+06    -76.3843E+06     1.27877E+06     2.38909E+06    -26.8778E-03     50.4575E-03    -23.5798E-03     41.2043E-03    -26.8329E-03     50.1049E-03    -23.4491E-03     41.1885E-03
            2031     7.91466E-03     22.7171E-03    -10.6330E+06    -81.7507E+06     452.870E+03     2.60434E+06    -26.0569E-03     49.3569E-03    -23.3000E-03     36.2387E-03    -26.0035E-03     48.9743E-03    -23.1638E-03     36.2376E-03
            2032     7.03702E-03     22.6824E-03    -12.2144E+06    -88.0683E+06    -859.583E+03     2.79406E+06    -25.2753E-03     48.3130E-03    -23.0377E-03     31.4830E-03    -25.2146E-03     47.8989E-03    -22.8966E-03     31.4935E-03
            2033     6.15901E-03     22.6522E-03    -13.8641E+06    -92.5225E+06    -3.43498E+06     2.88257E+06    -24.5416E-03     47.3299E-03    -22.7883E-03     26.9352E-03    -24.4763E-03     46.8969E-03    -22.6512E-03     26.9536E-03
            2034     5.28024E-03     22.6266E-03    -15.6575E+06    -94.7311E+06    -7.26897E+06     2.78065E+06    -23.8673E-03     46.4225E-03    -22.5552E-03     22.6059E-03    -23.8004E-03     45.9848E-03    -22.4315E-03     22.6281E-03
            2035     4.40110E-03     22.6051E-03    -17.2447E+06    -96.3424E+06    -11.0265E+06     2.57551E+06    -23.2776E-03     45.6276E-03    -22.3500E-03     18.4890E-03    -23.2097E-03     45.1885E-03    -22.2405E-03     18.5125E-03
            2036     3.52140E-03     22.5878E-03    -18.4557E+06    -97.7561E+06    -14.4020E+06     2.21972E+06    -22.7759E-03     44.9537E-03    -22.1777E-03     14.5717E-03    -22.7065E-03     44.5134E-03    -22.0812E-03     14.5935E-03
            2037     2.64142E-03     22.5744E-03    -19.3220E+06    -99.0388E+06    -17.5312E+06     1.93939E+06    -22.3813E-03     44.4216E-03    -22.0403E-03     10.8104E-03    -22.3094E-03     43.9803E-03    -21.9563E-03     10.8308E-03
            2038     1.76106E-03     22.5650E-03    -19.9690E+06    -102.883E+06    -19.0596E+06     1.58313E+06    -22.1035E-03     44.0522E-03    -21.9487E-03     7.21608E-03    -22.0267E-03     43.5946E-03    -21.8659E-03     7.23358E-03
            2039     880.606E-06     22.5590E-03    -20.4708E+06    -105.467E+06    -19.9394E+06     846.573E+03    -21.9293E-03     43.8252E-03    -21.8959E-03     3.88080E-03    -21.8499E-03     43.3566E-03    -21.8130E-03     3.89021E-03
            2040     16.6598E-03     22.5460E-03    -4.79773E+06     153.559E+06     68.7458E+06     367.968E+03    -35.7077E-03     61.9138E-03    -26.2061E-03     144.254E-03    -38.8917E-03     65.4266E-03    -26.0781E-03     145.399E-03
            2041     15.7877E-03     22.3399E-03    -7.26481E+06     118.129E+06     6.20251E+06     797.482E+03    -37.4324E-03     63.0626E-03    -25.6303E-03     178.711E-03    -40.4976E-03     66.5034E-03    -25.7600E-03     178.971E-03
            2042     14.9163E-03     22.1993E-03    -7.10410E+06     58.2836E+06    -19.8211E+06     1.24755E+06    -34.1791E-03     59.4376E-03    -25.2585E-03     119.982E-03    -35.0702E-03     60.5679E-03    -25.4318E-03     119.729E-03
            2043     14.0430E-03     22.1076E-03    -6.41717E+06     5.36361E+06    -12.3504E+06     1.96176E+06    -31.8435E-03     56.8882E-03    -25.0447E-03     83.6888E-03    -32.1529E-03     57.2297E-03    -25.1049E-03     83.4852E-03
            2044     13.1693E-03     22.0363E-03    -6.10990E+06    -28.0526E+06    -8.52823E+06     1.95814E+06    -30.8808E-03     55.6692E-03    -24.7884E-03     71.8727E-03    -31.0217E-03     55.7136E-03    -24.7815E-03     71.7145E-03
            2045     12.2959E-03     21.9655E-03    -6.39060E+06     -41.414E+06    -2.96874E+06     1.43754E+06    -30.2109E-03     54.7175E-03    -24.5065E-03     65.7066E-03    -30.2818E-03     54.6272E-03    -24.4521E-03     65.5837E-03
            2046     11.4212E-03     21.9054E-03    -6.79747E+06    -52.3333E+06    -1.49518E+06     1.64370E+06    -29.3428E-03     53.5372E-03    -24.1945E-03     56.7016E-03    -29.3611E-03     53.3500E-03    -24.1162E-03     56.6164E-03
            2047     10.5463E-03     21.8522E-03    -7.20759E+06    -63.7110E+06    -1.25621E+06     2.20200E+06    -28.5227E-03     52.3979E-03    -23.8752E-03     50.4694E-03    -28.5044E-03     52.1315E-03    -23.7786E-03     50.4173E-03
            2048     9.67054E-03     21.8038E-03    -7.94737E+06    -71.1412E+06     700.998E+03     2.47275E+06    -27.6851E-03     51.2466E-03    -23.5615E-03     45.1700E-03    -27.6487E-03     50.9274E-03    -23.4433E-03     45.1412E-03
            2049     8.79448E-03     21.7603E-03    -8.96904E+06    -76.2940E+06     1.18082E+06     2.57322E+06    -26.7818E-03     50.0281E-03    -23.2464E-03     39.8848E-03    -26.7344E-03     49.6747E-03    -23.1168E-03     39.8728E-03
            2050     7.91737E-03     21.7221E-03    -10.2171E+06    -81.7185E+06     360.955E+03     2.83728E+06    -25.9068E-03     48.8476E-03    -22.9408E-03     34.9896E-03    -25.8506E-03     48.4640E-03    -22.8057E-03     34.9927E-03
            2051     7.03983E-03     21.6882E-03    -11.7170E+06    -87.8313E+06    -880.550E+03     3.14040E+06    -25.0586E-03     47.7130E-03    -22.6544E-03     30.3052E-03    -24.9954E-03     47.2989E-03    -22.5144E-03     30.3211E-03
            2052     6.16142E-03     21.6591E-03    -13.5229E+06    -92.0447E+06    -3.58722E+06     3.27770E+06    -24.2649E-03     46.6476E-03    -22.3827E-03     25.8464E-03    -24.1980E-03     46.2164E-03    -22.2476E-03     25.8709E-03
            2053     5.28254E-03     21.6341E-03    -15.2209E+06    -93.8803E+06    -7.19341E+06     3.17209E+06    -23.5467E-03     45.6773E-03    -22.1306E-03     21.6263E-03    -23.4788E-03     45.2430E-03    -22.0084E-03     21.6543E-03
            2054     4.40299E-03     21.6136E-03    -16.7012E+06    -95.3119E+06    -10.7711E+06     2.76652E+06    -22.9081E-03     44.8168E-03    -21.9087E-03     17.6399E-03    -22.8393E-03     44.3816E-03    -21.8002E-03     17.6663E-03
            2055     3.52305E-03     21.5968E-03    -18.0109E+06    -96.7062E+06    -14.0358E+06     2.39300E+06    -22.3693E-03     44.0919E-03    -21.7226E-03     13.8736E-03    -22.2996E-03     43.6557E-03    -21.6264E-03     13.8981E-03
            2056     2.64260E-03     21.5841E-03    -19.0675E+06    -98.0333E+06    -17.0465E+06     2.09940E+06    -21.9439E-03     43.5176E-03    -21.5738E-03     10.2758E-03    -21.8728E-03     43.0803E-03    -21.4892E-03     10.2985E-03
            2057     1.76196E-03     21.5748E-03    -19.7174E+06    -101.237E+06    -18.9298E+06     1.69553E+06    -21.6403E-03     43.1101E-03    -21.4699E-03     6.84601E-03    -21.5648E-03     42.6602E-03    -21.3892E-03     6.86517E-03
            2058     881.011E-06     21.5694E-03    -20.2008E+06    -103.580E+06    -20.0375E+06     981.969E+03    -21.4478E-03     42.8583E-03    -21.4105E-03     3.69237E-03    -21.3696E-03     42.3988E-03    -21.3312E-03     3.70363E-03
            2059     16.6590E-03     21.5387E-03    -4.29659E+06     153.015E+06     68.0214E+06     510.579E+03    -36.5112E-03     62.6976E-03    -26.1863E-03     142.235E-03    -39.6352E-03     66.1522E-03    -26.0619E-03     143.311E-03
            2060     15.7896E-03     21.3350E-03    -6.41836E+06     118.074E+06     6.07616E+06     903.423E+03    -38.1907E-03     63.7521E-03    -25.5613E-03     176.722E-03    -41.1955E-03     67.1357E-03    -25.6929E-03     176.928E-03
            2061     14.9171E-03     21.1961E-03    -6.64161E+06     57.7844E+06    -19.5020E+06     1.37810E+06    -34.5200E-03     59.6711E-03    -25.1511E-03     118.416E-03    -35.3919E-03     60.7812E-03    -25.3228E-03     118.155E-03
            2062     14.0449E-03     21.1053E-03    -6.05617E+06     4.95908E+06    -12.5647E+06     1.68802E+06    -32.2654E-03     57.1655E-03    -24.9002E-03     82.4242E-03    -32.5654E-03     57.4981E-03    -24.9614E-03     82.2146E-03
            2063     13.1726E-03     21.0349E-03    -5.26950E+06    -27.5348E+06    -8.61837E+06     1.83701E+06    -31.3794E-03     55.9792E-03    -24.5998E-03     70.9932E-03    -31.5142E-03     56.0226E-03    -24.5953E-03     70.8313E-03
            2064     12.2984E-03     20.9656E-03    -5.22711E+06    -41.0386E+06    -2.51118E+06     2.07165E+06    -30.4272E-03     54.7073E-03    -24.2801E-03     64.6236E-03    -30.4907E-03     54.6139E-03    -24.2256E-03     64.5098E-03
            2065     11.4242E-03     20.9063E-03    -6.38265E+06    -52.5330E+06    -1.19664E+06     2.13097E+06    -29.4056E-03     53.3446E-03    -23.9389E-03     55.4814E-03    -29.4196E-03     53.1529E-03    -23.8595E-03     55.4045E-03
            2066     10.5491E-03     20.8541E-03    -6.92675E+06    -63.9415E+06    -1.25223E+06     2.12398E+06    -28.6337E-03     52.2207E-03    -23.5870E-03     49.0969E-03    -28.6122E-03     51.9513E-03    -23.4905E-03     49.0449E-03
            2067     9.67398E-03     20.8066E-03    -7.42154E+06    -71.0221E+06     819.755E+03     2.46823E+06    -27.6790E-03     50.9184E-03    -23.2394E-03     43.7349E-03    -27.6390E-03     50.5976E-03    -23.1216E-03     43.7075E-03
            2068     8.79743E-03     20.7648E-03    -8.39586E+06    -76.2669E+06     1.21720E+06     2.84045E+06    -26.6734E-03     49.5684E-03    -22.8950E-03     38.5538E-03    -26.6223E-03     49.2132E-03    -22.7662E-03     38.5468E-03
            2069     7.92047E-03     20.7272E-03    -9.70127E+06    -81.7255E+06     215.258E+03     3.15481E+06    -25.7387E-03     48.3013E-03    -22.5627E-03     33.6649E-03    -25.6790E-03     47.9165E-03    -22.4290E-03     33.6735E-03
            2070     7.04258E-03     20.6948E-03    -11.2753E+06    -87.7336E+06    -1.07162E+06     3.58802E+06    -24.8325E-03     47.0837E-03    -22.2512E-03     29.0285E-03    -24.7663E-03     46.6692E-03    -22.1130E-03     29.0514E-03
            2071     6.16410E-03     20.6665E-03    -12.9524E+06    -91.4183E+06    -3.45766E+06     3.77725E+06    -23.9825E-03     45.9396E-03    -21.9571E-03     24.6789E-03    -23.9136E-03     45.5102E-03    -21.8230E-03     24.7108E-03
            2072     5.28485E-03     20.6427E-03    -14.6433E+06    -92.8278E+06    -7.00902E+06     3.50033E+06    -23.2080E-03     44.8917E-03    -21.6837E-03     20.5648E-03    -23.1387E-03     44.4613E-03    -21.5629E-03     20.5978E-03
            2073     4.40508E-03     20.6227E-03    -16.2075E+06    -94.1689E+06    -10.4047E+06     3.12094E+06    -22.5218E-03     43.9662E-03    -21.4444E-03     16.7170E-03    -22.4526E-03     43.5353E-03    -21.3364E-03     16.7486E-03
            2074     3.52469E-03     20.6069E-03    -17.6153E+06    -95.5220E+06    -13.5693E+06     2.67337E+06    -21.9433E-03     43.1861E-03    -21.2428E-03     13.1044E-03    -21.8740E-03     42.7545E-03    -21.1466E-03     13.1329E-03
            2075     2.64397E-03     20.5945E-03    -18.6350E+06    -96.8867E+06    -16.5846E+06     2.27173E+06    -21.4799E-03     42.5610E-03    -21.0811E-03     9.68834E-03    -21.4090E-03     42.1281E-03    -20.9965E-03     9.71361E-03
            2076     1.76279E-03     20.5859E-03    -19.3704E+06    -99.5961E+06    -18.6782E+06     1.90226E+06    -21.1495E-03     42.1164E-03    -20.9669E-03     6.45069E-03    -21.0750E-03     41.6738E-03    -20.8878E-03     6.47272E-03
            2077     881.482E-06     20.5805E-03    -19.8199E+06    -101.352E+06    -19.6588E+06     1.23132E+06    -20.9452E-03     41.8449E-03    -20.8997E-03     3.47165E-03    -20.8689E-03     41.3954E-03    -20.8223E-03     3.48625E-03
            2078     16.6620E-03     20.5321E-03    -4.03326E+06     152.243E+06     67.5775E+06     339.758E+03    -37.4045E-03     63.5505E-03    -26.1460E-03     141.547E-03    -40.4890E-03     66.9652E-03    -26.0230E-03     142.556E-03
            2079     15.7900E-03     20.3301E-03    -5.56599E+06     117.328E+06     5.61752E+06     1.17994E+06    -38.7069E-03     64.1812E-03    -25.4743E-03     174.807E-03    -41.6522E-03     67.5070E-03    -25.6083E-03     174.974E-03
            2080     14.9197E-03     20.1920E-03    -5.74025E+06     57.8890E+06    -19.9767E+06     1.74680E+06    -34.9390E-03     59.9632E-03    -25.0242E-03     116.439E-03    -35.7847E-03     61.0520E-03    -25.1997E-03     116.175E-03
            2081     14.0473E-03     20.1035E-03    -5.54837E+06     5.27446E+06    -13.0322E+06     1.67726E+06    -32.5314E-03     57.2716E-03    -24.7402E-03     81.0512E-03    -32.8205E-03     57.5975E-03    -24.8050E-03     80.8411E-03
            2082     13.1738E-03     20.0328E-03    -5.76077E+06    -27.9228E+06    -9.35475E+06     1.65612E+06    -31.6151E-03     56.0259E-03    -24.4108E-03     69.7891E-03    -31.7465E-03     56.0650E-03    -24.4088E-03     69.6252E-03
            2083     12.3015E-03     19.9654E-03    -5.78311E+06    -41.1628E+06    -3.30547E+06     2.13894E+06    -30.7861E-03     54.8389E-03    -24.0528E-03     63.1847E-03    -30.8480E-03     54.7438E-03    -24.0013E-03     63.0719E-03
            2084     11.4272E-03     19.9075E-03    -5.42793E+06    -51.7684E+06    -736.309E+03     2.45045E+06    -29.7063E-03     53.3752E-03    -23.6690E-03     54.1648E-03    -29.7152E-03     53.1833E-03    -23.5897E-03     54.0926E-03
            2085     10.5528E-03     19.8558E-03    -6.12834E+06    -64.0483E+06    -1.35586E+06     2.46883E+06    -28.6410E-03     51.9193E-03    -23.2783E-03     47.6301E-03    -28.6133E-03     51.6464E-03    -23.1833E-03     47.5846E-03
            2086     9.67690E-03     19.8103E-03    -6.99030E+06    -71.4059E+06     455.182E+03     2.65566E+06    -27.6158E-03     50.5181E-03    -22.9023E-03     42.2914E-03    -27.5711E-03     50.1939E-03    -22.7864E-03     42.2684E-03
            2087     8.80078E-03     19.7691E-03    -7.95647E+06    -76.2978E+06     1.12028E+06     3.07545E+06    -26.6053E-03     49.1343E-03    -22.5290E-03     37.0978E-03    -26.5509E-03     48.7776E-03    -22.4013E-03     37.0952E-03
            2088     7.92353E-03     19.7333E-03    -9.17328E+06    -81.8241E+06     72.3898E+03     3.60256E+06    -25.5743E-03     47.7407E-03    -22.1664E-03     32.2239E-03    -25.5109E-03     47.3541E-03    -22.0341E-03     32.2396E-03
            2089     7.04560E-03     19.7017E-03    -10.6580E+06    -87.6334E+06    -1.15442E+06     4.08062E+06    -24.6061E-03     46.4337E-03    -21.8276E-03     27.6463E-03    -24.5364E-03     46.0184E-03    -21.6908E-03     27.6767E-03
            2090     6.16683E-03     19.6748E-03    -12.2944E+06    -90.6046E+06    -3.57748E+06     4.21448E+06    -23.6953E-03     45.2016E-03    -21.5064E-03     23.3838E-03    -23.6237E-03     44.7752E-03    -21.3750E-03     23.4222E-03
            2091     5.28737E-03     19.6518E-03    -13.9153E+06    -91.7178E+06    -7.04636E+06     4.01125E+06    -22.8567E-03     44.0662E-03    -21.2095E-03     19.3882E-03    -22.7852E-03     43.6401E-03    -21.0916E-03     19.4286E-03
            2092     4.40721E-03     19.6330E-03    -15.5139E+06    -92.8514E+06    -10.0294E+06     3.57601E+06    -22.1195E-03     43.0709E-03    -20.9514E-03     15.6862E-03    -22.0491E-03     42.6449E-03    -20.8444E-03     15.7244E-03
            2093     3.52654E-03     19.6176E-03    -16.8929E+06    -94.1086E+06    -13.0653E+06     2.99299E+06    -21.4916E-03     42.2242E-03    -20.7326E-03     12.2515E-03    -21.4213E-03     41.7978E-03    -20.6370E-03     12.2846E-03
            2094     2.64530E-03     19.6061E-03    -18.0437E+06    -95.6468E+06    -16.1236E+06     2.54485E+06    -20.9915E-03     41.5485E-03    -20.5569E-03     9.02359E-03    -20.9200E-03     41.1201E-03    -20.4727E-03     9.05271E-03
            2095     1.76376E-03     19.5977E-03    -18.8004E+06    -97.7832E+06    -17.7119E+06     2.05604E+06    -20.6314E-03     41.0645E-03    -20.4331E-03     5.99299E-03    -20.5580E-03     40.6287E-03    -20.3527E-03     6.01722E-03
            2096     881.935E-06     19.5928E-03    -19.2815E+06    -98.8554E+06    -18.8557E+06     1.25606E+06    -20.4087E-03     40.7616E-03    -20.3528E-03     3.21378E-03    -20.3345E-03     40.3226E-03    -20.2758E-03     3.22880E-03
            2097     16.6599E-03     19.5236E-03    -4.25832E+06     151.767E+06     68.5311E+06    -3.94147E+03    -38.1846E-03     64.3021E-03    -26.1175E-03     140.037E-03    -41.2200E-03     67.6624E-03    -25.9887E-03     140.966E-03
            2098     15.7926E-03     19.3239E-03    -6.70471E+06     115.880E+06     5.71477E+06     790.889E+03    -39.2664E-03     64.6664E-03    -25.4000E-03     173.143E-03    -42.1628E-03     67.9339E-03    -25.5298E-03     173.258E-03
            2099     14.9212E-03     19.1882E-03    -6.47274E+06     57.5684E+06    -21.1944E+06     1.93645E+06    -35.5696E-03     60.4661E-03    -24.8965E-03     114.987E-03    -36.3991E-03     61.5385E-03    -25.0765E-03     114.713E-03
            2100     14.0495E-03     19.1009E-03    -6.17106E+06     5.99589E+06    -13.8167E+06     2.08963E+06    -33.0011E-03     57.5683E-03    -24.5672E-03     79.4126E-03    -33.2845E-03     57.8912E-03    -24.6360E-03     79.2049E-03
            2101     13.1778E-03     19.0315E-03    -6.06552E+06    -27.4970E+06    -10.2567E+06     1.76295E+06    -31.7949E-03     55.9959E-03    -24.2011E-03     68.3368E-03    -31.9217E-03     56.0334E-03    -24.2037E-03     68.1758E-03
            2102     12.3036E-03     18.9651E-03    -5.81500E+06    -41.5151E+06    -4.61337E+06     1.66963E+06    -31.0463E-03     54.8543E-03    -23.8081E-03     61.6686E-03    -31.1023E-03     54.7557E-03    -23.7625E-03     61.5510E-03
            2103     11.4307E-03     18.9078E-03    -5.85508E+06    -52.2710E+06    -1.80400E+06     2.23343E+06    -29.9412E-03     53.3267E-03    -23.3855E-03     52.4919E-03    -29.9477E-03     53.1321E-03    -23.3103E-03     52.4181E-03
            2104     10.5559E-03     18.8589E-03    -6.03813E+06    -63.7211E+06    -1.56277E+06     2.87503E+06    -28.7124E-03     51.6706E-03    -22.9581E-03     46.0581E-03    -28.6824E-03     51.3974E-03    -22.8648E-03     46.0199E-03
            2105     9.68048E-03     18.8136E-03    -6.75299E+06    -71.3877E+06     262.391E+03     3.04636E+06    -27.6141E-03     50.1614E-03    -22.5473E-03     40.6526E-03    -27.5666E-03     49.8358E-03    -22.4327E-03     40.6364E-03
            2106     8.80404E-03     18.7744E-03    -7.74059E+06    -76.4670E+06     816.146E+03     3.31796E+06    -26.5224E-03     48.6620E-03    -22.1396E-03     35.3516E-03    -26.4651E-03     48.3035E-03    -22.0134E-03     35.3539E-03
            2107     7.92688E-03     18.7395E-03    -8.91482E+06    -82.1080E+06    -212.882E+03     3.96177E+06    -25.4296E-03     47.1732E-03    -21.7436E-03     30.5275E-03    -25.3633E-03     46.7845E-03    -21.6127E-03     30.5494E-03
            2108     7.04873E-03     18.7096E-03    -10.2479E+06    -87.3992E+06    -1.56594E+06     4.55251E+06    -24.3780E-03     45.7490E-03    -21.3711E-03     26.0311E-03    -24.3054E-03     45.3344E-03    -21.2373E-03     26.0689E-03
            2109     6.16978E-03     18.6836E-03    -11.7588E+06    -89.7715E+06    -4.03865E+06     4.70441E+06    -23.3935E-03     44.4126E-03    -21.0191E-03     21.8602E-03    -23.3194E-03     43.9898E-03    -20.8921E-03     21.9060E-03
            2110     5.29003E-03     18.6620E-03    -13.2098E+06    -90.5026E+06    -7.05426E+06     4.47661E+06    -22.4881E-03     43.1850E-03    -20.6969E-03     18.0136E-03    -22.4146E-03     42.7637E-03    -20.5818E-03     18.0608E-03
            2111     4.40957E-03     18.6438E-03    -14.4112E+06    -91.2940E+06    -9.73341E+06     3.92734E+06    -21.6854E-03     42.1012E-03    -20.4158E-03     14.4870E-03    -21.6121E-03     41.6808E-03    -20.3112E-03     14.5303E-03
            2112     3.52842E-03     18.6296E-03    -15.6163E+06    -92.7447E+06    -12.2790E+06     3.45443E+06    -21.0085E-03     41.1883E-03    -20.1798E-03     11.2478E-03    -20.9349E-03     40.7656E-03    -20.0840E-03     11.2873E-03
            2113     2.64683E-03     18.6185E-03    -16.8287E+06    -94.0441E+06    -14.8626E+06     3.03613E+06    -20.4672E-03     40.4563E-03    -19.9891E-03     8.24523E-03    -20.3937E-03     40.0323E-03    -19.9027E-03     8.28103E-03
            2114     1.76478E-03     18.6109E-03    -17.9009E+06    -95.6151E+06    -16.8754E+06     2.27082E+06    -20.0702E-03     39.9190E-03    -19.8488E-03     5.46593E-03    -19.9967E-03     39.4914E-03    -19.7685E-03     5.49315E-03
            2115     882.476E-06     18.6060E-03    -18.5973E+06    -96.3429E+06    -18.2440E+06     1.29027E+06    -19.8193E-03     39.5777E-03    -19.7584E-03     2.91619E-03    -19.7462E-03     39.1495E-03    -19.6830E-03     2.93178E-03
            2116     16.6637E-03     18.5155E-03    -4.11857E+06     151.453E+06     69.4806E+06     394.693E+03    -38.8507E-03     64.9608E-03    -26.1101E-03     139.440E-03    -41.8453E-03     68.2770E-03    -25.9763E-03     140.302E-03
            2117     15.7921E-03     18.3177E-03    -7.36664E+06     115.178E+06     6.87130E+06     1.16990E+06    -40.1021E-03     65.4527E-03    -25.3505E-03     171.589E-03    -42.9530E-03     68.6663E-03    -25.4725E-03     171.649E-03
            2118     14.9227E-03     18.1830E-03    -8.22748E+06     56.9211E+06    -21.8892E+06     1.66375E+06    -36.4014E-03     61.1830E-03    -24.7816E-03     112.978E-03    -37.2161E-03     62.2341E-03    -24.9617E-03     112.684E-03
            2119     14.0526E-03     18.0975E-03    -7.40921E+06     6.29273E+06    -14.7079E+06     1.75136E+06    -33.6392E-03     58.0302E-03    -24.3910E-03     77.4716E-03    -33.9188E-03     58.3486E-03    -24.4629E-03     77.2557E-03
            2120     13.1795E-03     18.0307E-03    -6.13207E+06    -26.5693E+06    -10.5318E+06     1.62121E+06    -32.2427E-03     56.2166E-03    -23.9739E-03     66.7956E-03    -32.3657E-03     56.2541E-03    -23.9791E-03     66.6323E-03
            2121     12.3078E-03     17.9638E-03    -5.68285E+06    -41.8347E+06    -5.11892E+06     1.75494E+06    -31.2212E-03     54.7613E-03    -23.5401E-03     60.0727E-03    -31.2713E-03     54.6577E-03    -23.4968E-03     59.9581E-03
            2122     11.4337E-03     17.9094E-03    -6.22014E+06    -53.1104E+06    -2.51596E+06     2.10612E+06    -30.0436E-03     53.1268E-03    -23.0833E-03     50.4156E-03    -30.0464E-03     52.9264E-03    -23.0098E-03     50.3425E-03
            2123     10.5595E-03     17.8608E-03    -6.41258E+06    -63.8562E+06    -2.01379E+06     2.73356E+06    -28.8853E-03     51.5007E-03    -22.6154E-03     44.0765E-03    -28.8542E-03     51.2260E-03    -22.5236E-03     44.0382E-03
            2124     9.68416E-03     17.8181E-03    -6.70305E+06    -71.2406E+06    -34.0892E+03     3.19985E+06    -27.6811E-03     49.8398E-03    -22.1587E-03     38.6328E-03    -27.6315E-03     49.5137E-03    -22.0459E-03     38.6205E-03
            2125     8.80784E-03     17.7796E-03    -7.55066E+06    -76.6123E+06     596.053E+03     3.64145E+06    -26.4404E-03     48.1505E-03    -21.7101E-03     33.3353E-03    -26.3803E-03     47.7900E-03    -21.5851E-03     33.3437E-03
            2126     7.93053E-03     17.7467E-03    -8.65520E+06    -82.5343E+06    -571.300E+03     4.31073E+06    -25.2756E-03     46.5515E-03    -21.2759E-03     28.5337E-03    -25.2060E-03     46.1598E-03    -21.1465E-03     28.5618E-03
            2127     7.05229E-03     17.7178E-03    -9.89636E+06    -87.1340E+06    -2.22337E+06     4.96147E+06    -24.1375E-03     45.0014E-03    -20.8639E-03     24.1316E-03    -24.0620E-03     44.5879E-03    -20.7344E-03     24.1761E-03
            2128     6.17309E-03     17.6935E-03    -11.0960E+06    -88.8598E+06    -4.61886E+06     5.11625E+06    -23.0564E-03     43.5342E-03    -20.4777E-03     20.1118E-03    -22.9791E-03     43.1154E-03    -20.3559E-03     20.1641E-03
            2129     5.29303E-03     17.6727E-03    -12.2067E+06    -89.1399E+06    -7.18333E+06     4.82448E+06    -22.0740E-03     42.2016E-03    -20.1276E-03     16.4477E-03    -21.9969E-03     41.7856E-03    -20.0166E-03     16.5004E-03
            2130     4.41216E-03     17.6560E-03    -13.5146E+06    -89.8070E+06    -9.61062E+06     4.45017E+06    -21.2036E-03     41.0262E-03    -19.8225E-03     13.1341E-03    -21.1280E-03     40.6116E-03    -19.7208E-03     13.1848E-03
            2131     3.53063E-03     17.6424E-03    -14.8616E+06    -91.2041E+06    -12.0553E+06     4.01849E+06    -20.4670E-03     40.0330E-03    -19.5660E-03     10.1357E-03    -20.3920E-03     39.6165E-03    -19.4725E-03     10.1829E-03
            2132     2.64849E-03     17.6323E-03    -15.8796E+06    -92.1790E+06    -14.2435E+06     3.46915E+06    -19.8764E-03     39.2370E-03    -19.3606E-03     7.40206E-03    -19.8018E-03     38.8200E-03    -19.2751E-03     7.44379E-03
            2133     1.76591E-03     17.6249E-03    -16.5520E+06    -93.0418E+06    -15.9912E+06     2.68301E+06    -19.4451E-03     38.6554E-03    -19.2103E-03     4.89615E-03    -19.3699E-03     38.2375E-03    -19.1313E-03     4.92891E-03
            2134     883.050E-06     17.6207E-03    -17.0895E+06    -93.5464E+06    -17.0192E+06     1.47192E+06    -19.1810E-03     38.2984E-03    -19.1174E-03     2.62602E-03    -19.1061E-03     37.8801E-03    -19.0421E-03     2.64406E-03
            2135     16.6589E-03     17.5061E-03    -4.13951E+06     150.221E+06     68.8041E+06     664.669E+03    -39.8663E-03     65.9734E-03    -26.1071E-03     138.309E-03    -42.8073E-03     69.2334E-03    -25.9749E-03     139.078E-03
            2136     15.7938E-03     17.3089E-03    -6.71242E+06     114.513E+06     7.27859E+06     1.72861E+06    -41.3867E-03     66.6655E-03    -25.2788E-03     168.070E-03    -44.1555E-03     69.7960E-03    -25.3987E-03     168.047E-03
            2137     14.9253E-03     17.1778E-03    -6.82017E+06     57.4620E+06    -21.1397E+06     1.88750E+06    -36.9355E-03     61.5762E-03    -24.6408E-03     109.669E-03    -37.7128E-03     62.5948E-03    -24.8199E-03     109.368E-03
            2138     14.0540E-03     17.0938E-03    -6.64133E+06     6.99977E+06    -15.1261E+06     1.40414E+06    -34.0936E-03     58.2916E-03    -24.1980E-03     75.1716E-03    -34.3586E-03     58.6018E-03    -24.2741E-03     74.9502E-03
            2139     13.1841E-03     17.0286E-03    -6.14211E+06    -26.5135E+06    -11.3113E+06     1.39897E+06    -32.8568E-03     56.5851E-03    -23.7283E-03     64.8471E-03    -32.9733E-03     56.6185E-03    -23.7375E-03     64.6794E-03
            2140     12.3106E-03     16.9640E-03    -5.76452E+06    -42.4567E+06    -6.00069E+06     1.87185E+06    -31.5895E-03     54.8285E-03    -23.2390E-03     57.9713E-03    -31.6335E-03     54.7189E-03    -23.1991E-03     57.8594E-03
            2141     11.4379E-03     16.9101E-03    -5.76630E+06    -53.2167E+06    -2.81577E+06     2.25081E+06    -30.2138E-03     52.9498E-03    -22.7360E-03     48.0949E-03    -30.2100E-03     52.7449E-03    -22.6645E-03     48.0264E-03
            2142     10.5635E-03     16.8639E-03    -6.10717E+06    -64.2781E+06    -2.53704E+06     2.61863E+06    -29.0135E-03     51.2357E-03    -22.2222E-03     41.6968E-03    -28.9770E-03     50.9567E-03    -22.1328E-03     41.6592E-03
            2143     9.68836E-03     16.8219E-03    -6.59101E+06    -71.5271E+06    -653.899E+03     3.19095E+06    -27.7183E-03     49.4362E-03    -21.7179E-03     36.2119E-03    -27.6650E-03     49.1075E-03    -21.6079E-03     36.2017E-03
            2144     8.81211E-03     16.7860E-03    -7.37284E+06    -76.8462E+06     269.808E+03     3.94536E+06    -26.3865E-03     47.6101E-03    -21.2236E-03     31.0005E-03    -26.3235E-03     47.2474E-03    -21.1001E-03     31.0150E-03
            2145     7.93469E-03     16.7540E-03    -8.45828E+06    -82.8248E+06    -711.596E+03     4.65816E+06    -25.0875E-03     45.8337E-03    -20.7462E-03     26.2685E-03    -25.0153E-03     45.4396E-03    -20.6174E-03     26.3028E-03
            2146     7.05629E-03     16.7272E-03    -9.50848E+06    -86.8714E+06    -2.54164E+06     5.23127E+06    -23.8405E-03     44.1336E-03    -20.2931E-03     21.9867E-03    -23.7623E-03     43.7207E-03    -20.1661E-03     22.0362E-03
            2147     6.17680E-03     16.7039E-03    -10.4552E+06    -87.8195E+06    -5.10704E+06     5.33664E+06    -22.6558E-03     42.5261E-03    -19.8704E-03     18.1728E-03    -22.5756E-03     42.1120E-03    -19.7534E-03     18.2292E-03
            2148     5.29637E-03     16.6849E-03    -11.4912E+06    -88.0217E+06    -7.82527E+06     5.29580E+06    -21.5781E-03     41.0695E-03    -19.4914E-03     14.7475E-03    -21.4979E-03     40.6587E-03    -19.3862E-03     14.8071E-03
            2149     4.41506E-03     16.6690E-03    -12.5964E+06    -88.2664E+06    -9.83205E+06     5.15832E+06    -20.6394E-03     39.8051E-03    -19.1658E-03     11.7085E-03    -20.5609E-03     39.3971E-03    -19.0687E-03     11.7691E-03
            2150     3.53300E-03     16.6567E-03    -13.6737E+06    -89.2926E+06    -11.6007E+06     4.60201E+06    -19.8489E-03     38.7444E-03    -18.8954E-03     8.99577E-03    -19.7714E-03     38.3349E-03    -18.8041E-03     9.05106E-03
            2151     2.65030E-03     16.6471E-03    -14.6435E+06    -90.1106E+06    -13.5166E+06     3.92086E+06    -19.2222E-03     37.9021E-03    -18.6799E-03     6.55256E-03    -19.1454E-03     37.4926E-03    -18.5956E-03     6.60044E-03
            2152     1.76715E-03     16.6406E-03    -15.3681E+06    -90.1108E+06    -14.8210E+06     2.98360E+06    -18.7664E-03     37.2904E-03    -18.5240E-03     4.31471E-03    -18.6912E-03     36.8836E-03    -18.4451E-03     4.35154E-03
            2153     883.620E-06     16.6364E-03    -15.6307E+06    -90.3298E+06    -15.5555E+06     1.60686E+06    -18.5061E-03     36.9219E-03    -18.4158E-03     2.32195E-03    -18.4308E-03     36.5155E-03    -18.3399E-03     2.34182E-03
            2154     16.6631E-03     16.4934E-03    -4.03084E+06     149.512E+06     69.2816E+06     693.905E+03    -41.2807E-03     67.3260E-03    -26.0453E-03     135.707E-03    -44.1340E-03     70.4949E-03    -25.9098E-03     136.372E-03
            2155     15.7962E-03     16.3002E-03    -6.68640E+06     113.494E+06     7.52371E+06     1.47512E+06    -41.8512E-03     67.0006E-03    -25.1494E-03     164.194E-03    -44.5118E-03     70.0187E-03    -25.2667E-03     164.117E-03
            2156     14.9277E-03     16.1719E-03    -6.67056E+06     58.2633E+06    -21.9781E+06     2.22031E+06    -37.4886E-03     61.9425E-03    -24.4539E-03     106.482E-03    -38.2329E-03     62.9339E-03    -24.6386E-03     106.175E-03
            2157     14.0584E-03     16.0905E-03    -6.17636E+06     7.84312E+06    -16.3358E+06     1.81191E+06    -34.5630E-03     58.5215E-03    -23.9585E-03     72.4182E-03    -34.8114E-03     58.8233E-03    -24.0426E-03     72.2014E-03
            2158     13.1859E-03     16.0259E-03    -5.86247E+06    -27.0344E+06    -12.7222E+06     1.26987E+06    -33.2972E-03     56.7362E-03    -23.4390E-03     62.4281E-03    -33.4023E-03     56.7616E-03    -23.4550E-03     62.2593E-03
            2159     12.3158E-03     15.9633E-03    -5.37901E+06    -42.4192E+06    -6.83725E+06     1.68292E+06    -32.0910E-03     54.9837E-03    -22.8928E-03     55.2384E-03    -32.1268E-03     54.8698E-03    -22.8576E-03     55.1250E-03
            2160     11.4422E-03     15.9118E-03    -5.53230E+06    -53.6006E+06    -3.33720E+06     2.36324E+06    -30.5192E-03     52.8494E-03    -22.3302E-03     45.5707E-03    -30.5092E-03     52.6393E-03    -22.2611E-03     45.5059E-03
            2161     10.5684E-03     15.8664E-03    -5.89182E+06    -64.4291E+06    -2.83967E+06     2.80610E+06    -29.1409E-03     50.9021E-03    -21.7612E-03     38.9794E-03    -29.0999E-03     50.6198E-03    -21.6734E-03     38.9470E-03
            2162     9.69326E-03     15.8271E-03    -6.40112E+06    -71.8393E+06    -1.07859E+06     3.28814E+06    -27.7280E-03     48.9319E-03    -21.2039E-03     33.3910E-03    -27.6705E-03     48.5999E-03    -21.0959E-03     33.3848E-03
            2163     8.81695E-03     15.7922E-03    -7.12934E+06    -77.4363E+06    -110.409E+03     4.17144E+06    -26.2756E-03     46.9353E-03    -20.6596E-03     28.2259E-03    -26.2085E-03     46.5684E-03    -20.5375E-03     28.2455E-03
            2164     7.93958E-03     15.7628E-03    -8.24137E+06    -82.9315E+06    -546.057E+03     5.12605E+06    -24.8303E-03     44.9685E-03    -20.1382E-03     23.6441E-03    -24.7562E-03     44.5724E-03    -20.0087E-03     23.6864E-03
            2165     7.06082E-03     15.7370E-03    -9.49281E+06    -86.2943E+06    -2.45552E+06     5.44121E+06    -23.4369E-03     43.0825E-03    -19.6456E-03     19.5861E-03    -23.3590E-03     42.6717E-03    -19.5189E-03     19.6399E-03
            2166     6.18103E-03     15.7158E-03    -10.3548E+06    -86.8374E+06    -5.54888E+06     5.37399E+06    -22.1407E-03     41.3300E-03    -19.1893E-03     16.0265E-03    -22.0604E-03     40.9208E-03    -19.0761E-03     16.0846E-03
            2167     5.30008E-03     15.6978E-03    -10.7704E+06    -87.1994E+06    -7.86376E+06     5.46952E+06    -20.9710E-03     39.7609E-03    -18.7899E-03     12.9285E-03    -20.8881E-03     39.3530E-03    -18.6871E-03     12.9914E-03
            2168     4.41822E-03     15.6836E-03    -11.0345E+06    -86.6322E+06    -9.17931E+06     5.43204E+06    -19.9680E-03     38.4201E-03    -18.4521E-03     10.2145E-03    -19.8849E-03     38.0169E-03    -18.3564E-03     10.2793E-03
            2169     3.53553E-03     15.6720E-03    -11.4988E+06    -87.3590E+06    -10.0482E+06     5.08239E+06    -19.1525E-03     37.3299E-03    -18.1774E-03     7.81296E-03    -19.0691E-03     36.9247E-03    -18.0843E-03     7.87491E-03
            2170     2.65224E-03     15.6635E-03    -12.2862E+06    -87.6558E+06    -11.2273E+06     4.51888E+06    -18.5121E-03     36.4716E-03    -17.9595E-03     5.66767E-03    -18.4303E-03     36.0675E-03    -17.8707E-03     5.72356E-03
            2171     1.76840E-03     15.6573E-03    -12.9770E+06    -86.6848E+06    -12.4948E+06     3.20349E+06    -18.0513E-03     35.8482E-03    -17.7969E-03     3.73343E-03    -17.9725E-03     35.4518E-03    -17.7148E-03     3.77328E-03
            2172     884.342E-06     15.6538E-03    -13.3397E+06    -87.0101E+06    -13.2044E+06     1.72149E+06    -17.7975E-03     35.4612E-03    -17.6637E-03     2.00070E-03    -17.7189E-03     35.0646E-03    -17.5842E-03     2.02215E-03
            2173     16.6651E-03     15.4816E-03    -4.49558E+06     148.782E+06     70.0172E+06     886.007E+03    -42.7984E-03     68.7805E-03    -25.9821E-03     135.174E-03    -45.5984E-03     71.8898E-03    -25.8412E-03     135.733E-03
            2174     15.7981E-03     15.2922E-03    -6.97894E+06     113.024E+06     9.08533E+06     1.85730E+06    -42.9009E-03     67.9132E-03    -25.0122E-03     161.768E-03    -45.4862E-03     70.8487E-03    -25.1206E-03     161.626E-03
            2175     14.9309E-03     15.1641E-03    -7.34952E+06     58.1939E+06    -21.9321E+06     2.11472E+06    -38.3354E-03     62.5727E-03    -24.2373E-03     102.681E-03    -39.0458E-03     63.5274E-03    -24.4207E-03     102.358E-03
            2176     14.0616E-03     15.0874E-03    -6.48797E+06     8.79009E+06    -16.7102E+06     1.74740E+06    -35.1520E-03     58.8234E-03    -23.6714E-03     69.4048E-03    -35.3879E-03     59.1161E-03    -23.7583E-03     69.1864E-03
            2177     13.1924E-03     15.0231E-03    -6.07598E+06    -26.2822E+06    -13.0816E+06     1.33779E+06    -33.7566E-03     56.8493E-03    -23.0927E-03     59.9774E-03    -33.8557E-03     56.8715E-03    -23.1112E-03     59.8108E-03
            2178     12.3195E-03     14.9627E-03    -5.92113E+06    -43.1689E+06    -7.73017E+06     1.70469E+06    -32.5093E-03     54.9945E-03    -22.4851E-03     52.1672E-03    -32.5392E-03     54.8726E-03    -22.4526E-03     52.0567E-03
            2179     11.4479E-03     14.9128E-03    -5.64870E+06    -54.2213E+06    -3.86456E+06     2.34550E+06    -30.9579E-03     52.8117E-03    -21.8538E-03     42.4502E-03    -30.9429E-03     52.5955E-03    -21.7863E-03     42.3873E-03
            2180     10.5740E-03     14.8701E-03    -5.78813E+06    -64.4523E+06    -2.76917E+06     2.94251E+06    -29.3464E-03     50.5615E-03    -21.2151E-03     35.7283E-03    -29.3019E-03     50.2758E-03    -21.1271E-03     35.7006E-03
            2181     9.69917E-03     14.8320E-03    -6.39161E+06    -72.1350E+06    -1.02305E+06     3.61393E+06    -27.6957E-03     48.2913E-03    -20.5957E-03     30.1162E-03    -27.6357E-03     47.9556E-03    -20.4869E-03     30.1170E-03
            2182     8.82291E-03     14.7999E-03    -7.40395E+06    -78.1157E+06    -124.291E+03     4.44824E+06    -26.0482E-03     46.0474E-03    -19.9992E-03     25.0797E-03    -25.9800E-03     45.6761E-03    -19.8758E-03     25.1055E-03
            2183     7.94508E-03     14.7717E-03    -8.36921E+06    -83.1098E+06    -535.654E+03     5.40958E+06    -24.4379E-03     43.8713E-03    -19.4335E-03     20.6838E-03    -24.3632E-03     43.4735E-03    -19.3035E-03     20.7320E-03
            2184     7.06613E-03     14.7485E-03    -9.12012E+06    -84.9266E+06    -1.99549E+06     5.41507E+06    -22.8962E-03     41.8027E-03    -18.9064E-03     16.9238E-03    -22.8185E-03     41.3969E-03    -18.7800E-03     16.9789E-03
            2185     6.18568E-03     14.7286E-03    -9.52661E+06    -86.1086E+06    -4.12132E+06     5.01191E+06    -21.4851E-03     39.9171E-03    -18.4321E-03     13.6901E-03    -21.4034E-03     39.5080E-03    -18.3140E-03     13.7447E-03
            2186     5.30421E-03     14.7126E-03    -9.90502E+06    -86.5976E+06    -6.58732E+06     5.38183E+06    -20.2448E-03     38.2625E-03    -18.0178E-03     10.9356E-03    -20.1601E-03     37.8543E-03    -17.9108E-03     10.9982E-03
            2187     4.42163E-03     14.6992E-03    -10.4100E+06    -85.0061E+06    -8.91383E+06     5.45216E+06    -19.1932E-03     36.8599E-03    -17.6668E-03     8.58091E-03    -19.1096E-03     36.4634E-03    -17.5730E-03     8.64660E-03
            2188     3.53829E-03     14.6891E-03    -10.6729E+06    -85.6211E+06    -9.55422E+06     5.15636E+06    -18.3597E-03     35.7511E-03    -17.3914E-03     6.53007E-03    -18.2754E-03     35.3526E-03    -17.2996E-03     6.59343E-03
            2189     2.65426E-03     14.6811E-03    -10.5967E+06    -84.8224E+06    -9.53600E+06     4.47306E+06    -17.7241E-03     34.9016E-03    -17.1775E-03     4.71418E-03    -17.6405E-03     34.5068E-03    -17.0868E-03     4.76980E-03
            2190     1.76982E-03     14.6758E-03    -10.4740E+06    -83.2342E+06    -10.2771E+06     3.32737E+06    -17.2681E-03     34.2848E-03    -17.0168E-03     3.10676E-03    -17.1849E-03     33.8988E-03    -16.9323E-03     3.14841E-03
            2191     884.958E-06     14.6722E-03    -10.6337E+06    -83.3876E+06    -10.8040E+06     2.01415E+06    -17.0065E-03     33.9051E-03    -16.8986E-03     1.65392E-03    -16.9231E-03     33.5192E-03    -16.8163E-03     1.67924E-03
            2192     16.6624E-03     14.4680E-03    -4.25399E+06     147.485E+06     69.3119E+06     853.531E+03    -44.4474E-03     70.3823E-03    -25.9349E-03     132.145E-03    -47.1568E-03     73.3992E-03    -25.7961E-03     132.561E-03
            2193     15.8008E-03     14.2793E-03    -6.85215E+06     112.196E+06     9.65210E+06     2.08604E+06    -44.5539E-03     69.4196E-03    -24.8658E-03     157.329E-03    -47.0396E-03     72.2516E-03    -24.9703E-03     157.086E-03
            2194     14.9355E-03     14.1582E-03    -6.99625E+06     58.9413E+06    -20.6961E+06     2.43347E+06    -39.3389E-03     63.3320E-03    -23.9931E-03     98.7742E-03    -40.0119E-03     64.2496E-03    -24.1719E-03     98.4414E-03
            2195     14.0668E-03     14.0824E-03    -6.28085E+06     10.1081E+06    -16.7303E+06     1.59423E+06    -36.0845E-03     59.4210E-03    -23.3365E-03     66.3850E-03    -36.3070E-03     59.7058E-03    -23.4258E-03     66.1616E-03
            2196     13.1960E-03     14.0209E-03    -5.67120E+06    -26.1831E+06    -13.1543E+06     1.47541E+06    -34.5809E-03     57.2537E-03    -22.6728E-03     56.7197E-03    -34.6692E-03     57.2672E-03    -22.6924E-03     56.5548E-03
            2197     12.3266E-03     13.9618E-03    -5.64047E+06    -43.9267E+06    -7.61905E+06     1.86341E+06    -33.0240E-03     55.0078E-03    -21.9838E-03     48.3727E-03    -33.0447E-03     54.8748E-03    -21.9500E-03     48.2669E-03
            2198     11.4540E-03     13.9143E-03    -5.59720E+06    -54.3988E+06    -3.50527E+06     2.34153E+06    -31.2733E-03     52.5494E-03    -21.2761E-03     38.5622E-03    -31.2537E-03     52.3272E-03    -21.2066E-03     38.5027E-03
            2199     10.5812E-03     13.8734E-03    -6.13963E+06    -64.8939E+06    -2.32969E+06     3.06868E+06    -29.4704E-03     50.0364E-03    -20.5660E-03     31.9343E-03    -29.4246E-03     49.7453E-03    -20.4746E-03     31.9114E-03
            2200     9.70620E-03     13.8384E-03    -6.85016E+06    -72.5249E+06    -476.856E+03     3.87078E+06    -27.5749E-03     47.4572E-03    -19.8823E-03     26.5428E-03    -27.5154E-03     47.1174E-03    -19.7695E-03     26.5501E-03
            2201     8.82963E-03     13.8078E-03    -7.64019E+06    -78.6406E+06     763.487E+03     4.71995E+06    -25.7122E-03     44.9457E-03    -19.2335E-03     21.6298E-03    -25.6443E-03     44.5694E-03    -19.1046E-03     21.6617E-03
            2202     7.95170E-03     13.7825E-03    -8.42617E+06    -82.9053E+06     128.853E+03     5.17465E+06    -23.9045E-03     42.5281E-03    -18.6236E-03     17.4712E-03    -23.8305E-03     42.1295E-03    -18.4905E-03     17.5185E-03
            2203     7.07198E-03     13.7608E-03    -8.74971E+06    -83.2416E+06    -1.62754E+06     4.77331E+06    -22.2189E-03     40.2813E-03    -18.0625E-03     14.0079E-03    -22.1417E-03     39.8824E-03    -17.9372E-03     14.0563E-03
            2204     6.19107E-03     13.7433E-03    -9.21716E+06    -85.7569E+06    -2.84793E+06     4.67955E+06    -20.7146E-03     38.2890E-03    -17.5744E-03     11.1100E-03    -20.6334E-03     37.8789E-03    -17.4509E-03     11.1616E-03
            2205     5.30876E-03     13.7285E-03    -9.84228E+06    -86.0961E+06    -5.18880E+06     5.14617E+06    -19.4147E-03     36.5620E-03    -17.1474E-03     8.70370E-03    -19.3322E-03     36.1540E-03    -17.0342E-03     8.76415E-03
            2206     4.42554E-03     13.7169E-03    -9.98374E+06    -83.5043E+06    -7.73329E+06     5.24296E+06    -18.3263E-03     35.1114E-03    -16.7851E-03     6.71909E-03    -18.2444E-03     34.7200E-03    -16.6882E-03     6.78272E-03
            2207     3.54135E-03     13.7074E-03    -9.84700E+06    -83.6178E+06    -8.50282E+06     4.72929E+06    -17.4643E-03     33.9693E-03    -16.5050E-03     5.05076E-03    -17.3802E-03     33.5780E-03    -16.4120E-03     5.10908E-03
            2208     2.65659E-03     13.7006E-03    -9.50130E+06    -82.0382E+06    -8.67790E+06     3.73911E+06    -16.8176E-03     33.1096E-03    -16.2919E-03     3.62722E-03    -16.7337E-03     32.7258E-03    -16.2026E-03     3.67370E-03
            2209     1.77129E-03     13.6955E-03    -8.92933E+06    -80.4615E+06    -8.46323E+06     2.79309E+06    -16.3747E-03     32.5172E-03    -16.1425E-03     2.37893E-03    -16.2905E-03     32.1401E-03    -16.0552E-03     2.41389E-03
            2210     885.754E-06     13.6927E-03    -8.22412E+06    -79.6196E+06    -8.05267E+06     1.85675E+06    -16.1307E-03     32.1658E-03    -16.0351E-03     1.24826E-03    -16.0448E-03     31.7913E-03    -15.9480E-03     1.27168E-03
            2211     16.6676E-03     13.4507E-03    -3.75809E+06     146.432E+06     68.7649E+06     1.19898E+06    -46.5085E-03     72.3654E-03    -25.8569E-03     130.068E-03    -49.1196E-03     75.2838E-03    -25.7200E-03     130.340E-03
            2212     15.8039E-03     13.2681E-03    -6.94573E+06     111.113E+06     9.68461E+06     2.37583E+06    -46.1127E-03     70.7886E-03    -24.6758E-03     151.986E-03    -48.4695E-03     73.4874E-03    -24.7785E-03     151.646E-03
            2213     14.9382E-03     13.1489E-03    -7.17037E+06     60.5937E+06    -19.3818E+06     2.20800E+06    -40.7353E-03     64.4282E-03    -23.6928E-03     93.3050E-03    -41.3714E-03     65.3104E-03    -23.8672E-03     92.9513E-03
            2214     14.0717E-03     13.0779E-03    -6.25877E+06     11.5017E+06    -16.7344E+06     1.80972E+06    -37.2545E-03     60.1743E-03    -22.9197E-03     61.7383E-03    -37.4621E-03     60.4492E-03    -23.0110E-03     61.5140E-03
            2215     13.2045E-03     13.0168E-03    -5.76491E+06    -27.0098E+06    -13.7130E+06     1.73204E+06    -35.4189E-03     57.5734E-03    -22.1546E-03     52.9152E-03    -35.4961E-03     57.5743E-03    -22.1756E-03     52.7543E-03
            2216     12.3337E-03     12.9616E-03    -5.79925E+06    -43.9581E+06    -7.39431E+06     2.01607E+06    -33.6101E-03     54.9844E-03    -21.3743E-03     44.3935E-03    -33.6256E-03     54.8450E-03    -21.3392E-03     44.2920E-03
            2217     11.4627E-03     12.9155E-03    -6.44962E+06    -54.7362E+06    -3.34120E+06     2.68292E+06    -31.4373E-03     52.0233E-03    -20.5860E-03     34.6981E-03    -31.4171E-03     51.7958E-03    -20.5140E-03     34.6476E-03
            2218     10.5891E-03     12.8780E-03    -6.75046E+06    -65.3361E+06    -1.97340E+06     3.12439E+06    -29.4365E-03     49.2443E-03    -19.8078E-03     28.0313E-03    -29.3906E-03     48.9484E-03    -19.7132E-03     28.0131E-03
            2219     9.71422E-03     12.8449E-03    -7.09614E+06    -72.8333E+06     243.925E+03     3.69531E+06    -27.3594E-03     46.4214E-03    -19.0620E-03     22.6641E-03    -27.2997E-03     46.0774E-03    -18.9449E-03     22.6723E-03
            2220     8.83762E-03     12.8176E-03    -7.55521E+06    -79.0526E+06     1.79831E+06     4.48907E+06    -25.2336E-03     43.5960E-03    -18.3624E-03     18.0376E-03    -25.1649E-03     43.2147E-03    -18.2278E-03     18.0694E-03
            2221     7.95894E-03     12.7942E-03    -7.86659E+06    -81.7993E+06     1.53302E+06     4.47232E+06    -23.2582E-03     40.9708E-03    -17.7126E-03     14.2054E-03    -23.1842E-03     40.5742E-03    -17.5750E-03     14.2457E-03
            2222     7.07888E-03     12.7752E-03    -8.40885E+06    -82.4007E+06     198.007E+03     4.24106E+06    -21.4487E-03     38.5738E-03    -17.1251E-03     11.0761E-03    -21.3733E-03     38.1755E-03    -16.9924E-03     11.1193E-03
            2223     6.19706E-03     12.7592E-03    -9.29466E+06    -85.2934E+06    -1.28033E+06     4.43753E+06    -19.8648E-03     36.4793E-03    -16.6145E-03     8.52959E-03    -19.7867E-03     36.0692E-03    -16.4838E-03     8.57909E-03
            2224     5.31416E-03     12.7465E-03    -9.70484E+06    -85.2738E+06    -3.00268E+06     4.27951E+06    -18.5045E-03     34.6770E-03    -16.1725E-03     6.50118E-03    -18.4256E-03     34.2696E-03    -16.0498E-03     6.55116E-03
            2225     4.42999E-03     12.7360E-03    -9.48602E+06    -82.4401E+06    -5.01634E+06     4.20513E+06    -17.3692E-03     33.1687E-03    -15.7995E-03     4.90311E-03    -17.2902E-03     32.7778E-03    -15.6912E-03     4.95382E-03
            2226     3.54506E-03     12.7279E-03    -8.93070E+06    -81.2710E+06    -6.32657E+06      3.7114E+06    -16.4698E-03     31.9769E-03    -15.5071E-03     3.62896E-03    -16.3876E-03     31.5928E-03    -15.4079E-03     3.67446E-03
            2227     2.65930E-03     12.7217E-03    -8.18331E+06    -79.7159E+06    -6.75888E+06     2.56937E+06    -15.8047E-03     31.0957E-03    -15.2910E-03     2.59456E-03    -15.7204E-03     30.7189E-03    -15.1973E-03     2.62615E-03
            2228     1.77313E-03     12.7174E-03    -7.30990E+06    -78.3462E+06    -6.36608E+06     1.57501E+06    -15.3659E-03     30.5109E-03    -15.1449E-03     1.69179E-03    -15.2797E-03     30.1390E-03    -15.0526E-03     1.71116E-03
            2229     886.619E-06     12.7146E-03    -6.71498E+06    -77.0349E+06    -6.03224E+06     896.862E+03    -15.1437E-03     30.1685E-03    -15.0248E-03     897.663E-06    -15.0569E-03     29.8018E-03    -14.9335E-03     908.756E-06
            2230     16.6650E-03     12.4302E-03    -5.03382E+06     144.551E+06     69.0668E+06     1.05495E+06    -49.1901E-03     74.9222E-03    -25.7321E-03     125.934E-03    -51.6838E-03     77.7112E-03    -25.5891E-03     126.026E-03
            2231     15.8076E-03     12.2541E-03    -6.74185E+06     111.088E+06     12.5448E+06     1.86827E+06    -48.0050E-03     72.4107E-03    -24.4057E-03     144.082E-03    -50.2062E-03     74.9465E-03    -24.4943E-03     143.627E-03
            2232     14.9462E-03     12.1392E-03    -6.59588E+06     61.8575E+06    -17.7008E+06     2.29777E+06    -41.8684E-03     65.1573E-03    -23.2889E-03     86.9681E-03    -42.4566E-03     65.9934E-03    -23.4575E-03     86.6027E-03
            2233     14.0806E-03     12.0719E-03    -6.76931E+06     12.2951E+06    -17.1224E+06     2.40309E+06    -38.0180E-03     60.4299E-03    -22.4119E-03     57.5754E-03    -38.2125E-03     60.6939E-03    -22.5055E-03     57.3598E-03
            2234     13.2110E-03     12.0140E-03    -6.57753E+06    -26.8605E+06    -14.2225E+06     2.26715E+06    -36.1678E-03     57.7251E-03    -21.5573E-03     49.7262E-03    -36.2405E-03     57.7206E-03    -21.5799E-03     49.5735E-03
            2235     12.3429E-03     11.9599E-03    -6.45984E+06    -44.3261E+06    -7.51057E+06     2.37467E+06    -34.1205E-03     54.8075E-03    -20.6870E-03     40.4644E-03    -34.1320E-03     54.6608E-03    -20.6509E-03     40.3715E-03
            2236     11.4713E-03     11.9187E-03    -6.84072E+06    -54.7398E+06     -2.7149E+06     2.78344E+06    -31.6991E-03     51.5128E-03    -19.8137E-03     30.8006E-03    -31.6776E-03     51.2808E-03    -19.7380E-03     30.7555E-03
            2237     10.5983E-03     11.8824E-03    -7.30158E+06    -65.2235E+06    -1.55736E+06     2.95952E+06    -29.3370E-03     48.2957E-03    -18.9586E-03     24.1374E-03    -29.2918E-03     47.9977E-03    -18.8613E-03     24.1213E-03
            2238     9.72345E-03     11.8533E-03    -7.63743E+06    -73.1875E+06     688.081E+03     3.40766E+06    -26.9302E-03     45.0864E-03    -18.1561E-03     18.8562E-03    -26.8716E-03     44.7389E-03    -18.0355E-03     18.8643E-03
            2239     8.84603E-03     11.8282E-03    -8.14191E+06    -79.1059E+06     2.52332E+06     3.81013E+06    -24.5904E-03     42.0070E-03    -17.4166E-03     14.6925E-03    -24.5245E-03     41.6242E-03    -17.2775E-03     14.7182E-03
            2240     7.96709E-03     11.8080E-03    -8.58518E+06    -80.7234E+06     2.16542E+06     3.69255E+06    -22.4647E-03     39.2008E-03    -16.7361E-03     11.3017E-03    -22.3962E-03     38.8091E-03    -16.5958E-03     11.3339E-03
            2241     7.08602E-03     11.7910E-03    -9.22029E+06    -82.1893E+06     1.76976E+06     3.69124E+06    -20.5835E-03     36.7167E-03    -16.1331E-03     8.59463E-03    -20.5144E-03     36.3180E-03    -15.9917E-03     8.63194E-03
            2242     6.20370E-03     11.7774E-03    -9.70571E+06    -84.3696E+06     1.07534E+06     3.60329E+06    -18.9306E-03     34.5387E-03    -15.6082E-03     6.47611E-03    -18.8591E-03     34.1302E-03    -15.4664E-03     6.51559E-03
            2243     5.31976E-03     11.7662E-03    -10.1933E+06    -84.1419E+06    -820.111E+03     3.06284E+06    -17.5229E-03     32.6760E-03    -15.1531E-03     4.86366E-03    -17.4511E-03     32.2717E-03    -15.0204E-03     4.89834E-03
            2244     4.43486E-03     11.7574E-03    -10.4465E+06    -81.5968E+06    -3.31628E+06     2.61994E+06    -16.3583E-03     31.1282E-03    -14.7699E-03     3.63032E-03    -16.2877E-03     30.7404E-03    -14.6530E-03     3.66077E-03
            2245     3.54884E-03     11.7503E-03    -10.1107E+06    -79.2936E+06    -5.62439E+06     1.99887E+06    -15.4443E-03     29.9078E-03    -14.4635E-03     2.67315E-03    -15.3719E-03     29.5343E-03    -14.3620E-03     2.69662E-03
            2246     2.66225E-03     11.7450E-03    -9.45498E+06    -78.0283E+06    -6.95880E+06     1.05142E+06    -14.7727E-03     29.0068E-03    -14.2340E-03     1.90727E-03    -14.6969E-03     28.6405E-03    -14.1420E-03     1.91928E-03
            2247     1.77507E-03     11.7411E-03    -8.99617E+06    -77.1083E+06    -7.97842E+06     448.202E+03    -14.3100E-03     28.3823E-03    -14.0724E-03     1.23349E-03    -14.2316E-03     28.0214E-03    -13.9874E-03     1.23830E-03
            2248     887.637E-06     11.7389E-03    -8.78317E+06    -76.0678E+06    -8.37862E+06     43.1240E+03    -14.0623E-03     28.0108E-03    -13.9485E-03     651.005E-06    -13.9838E-03     27.6553E-03    -13.8673E-03     651.057E-06
            2249     16.6739E-03     11.4090E-03    -4.26688E+06     143.887E+06     70.1226E+06     819.607E+03    -52.5292E-03     78.0639E-03    -25.5347E-03     120.683E-03    -54.8748E-03     80.7024E-03    -25.3865E-03     120.571E-03
            2250     15.8157E-03     11.2381E-03    -5.77716E+06     110.704E+06     14.3027E+06     1.92655E+06    -49.1866E-03     73.2482E-03    -24.0616E-03     137.627E-03    -51.2305E-03     75.6238E-03    -24.1422E-03     137.091E-03
            2251     14.9529E-03     11.1293E-03    -7.17643E+06     61.7484E+06    -17.5155E+06     3.17233E+06    -42.5977E-03     65.4467E-03    -22.8490E-03     82.8893E-03    -43.1474E-03     66.2414E-03    -23.0157E-03     82.5347E-03
            2252     14.0863E-03     11.0667E-03    -7.24586E+06     13.1112E+06    -17.0839E+06     3.14067E+06    -39.1803E-03     61.0571E-03    -21.8768E-03     54.6263E-03    -39.3659E-03     61.3134E-03    -21.9707E-03     54.4181E-03
            2253     13.2211E-03     11.0092E-03    -6.81407E+06    -25.9295E+06    -13.5994E+06     2.65179E+06    -37.1551E-03     58.0684E-03    -20.9133E-03     45.8851E-03    -37.2223E-03     58.0591E-03    -20.9338E-03     45.7383E-03
            2254     12.3515E-03     10.9603E-03    -7.11094E+06    -44.2934E+06    -7.18536E+06     2.79549E+06    -34.5948E-03     54.5350E-03    -19.9402E-03     36.1356E-03    -34.6029E-03     54.3818E-03    -19.9016E-03     36.0532E-03
            2255     11.4812E-03     10.9204E-03    -7.45093E+06    -54.5582E+06    -2.12569E+06     2.69737E+06    -31.8350E-03     50.8169E-03    -18.9820E-03     26.6067E-03    -31.8137E-03     50.5820E-03    -18.9027E-03     26.5649E-03
            2256     10.6084E-03     10.8891E-03    -7.96671E+06    -64.8328E+06    -573.538E+03     2.77766E+06    -28.9632E-03     47.0286E-03    -18.0654E-03     20.3374E-03    -28.9208E-03     46.7296E-03    -17.9627E-03     20.3234E-03
            2257     9.73247E-03     10.8623E-03    -8.59340E+06    -73.6610E+06     1.54771E+06     3.10550E+06    -26.2221E-03     43.4507E-03    -17.2286E-03     15.6761E-03    -26.1673E-03     43.0996E-03    -17.1016E-03     15.6839E-03
            2258     8.85501E-03     10.8411E-03    -9.27067E+06    -78.6344E+06     3.54613E+06     3.28956E+06    -23.7416E-03     40.2125E-03    -16.4709E-03     11.9973E-03    -23.6828E-03     39.8315E-03    -16.3257E-03     12.0186E-03
            2259     7.97479E-03     10.8232E-03    -10.2737E+06    -79.8828E+06     2.61671E+06     2.98830E+06    -21.5022E-03     37.2831E-03    -15.7809E-03     9.21620E-03    -21.4436E-03     36.8969E-03    -15.6371E-03     9.24083E-03
            2260     7.09324E-03     10.8089E-03    -10.8074E+06    -81.6800E+06     1.98067E+06     2.50910E+06    -19.5695E-03     34.7489E-03    -15.1793E-03     7.00141E-03    -19.5093E-03     34.3545E-03    -15.0353E-03     7.02431E-03
            2261     6.20972E-03     10.7972E-03    -11.2330E+06    -83.5003E+06     1.79632E+06     2.19622E+06    -17.9105E-03     32.5742E-03    -14.6637E-03     5.35828E-03    -17.8489E-03     32.1711E-03    -14.5174E-03     5.38001E-03
            2262     5.32508E-03     10.7880E-03    -11.7638E+06    -82.9918E+06     235.207E+03     1.68852E+06    -16.5227E-03     30.7415E-03    -14.2188E-03     4.11559E-03    -16.4620E-03     30.3437E-03    -14.0802E-03     4.13268E-03
            2263     4.43909E-03     10.7805E-03    -12.3238E+06    -80.8155E+06    -3.07390E+06     1.06879E+06    -15.3993E-03     29.2379E-03    -13.8385E-03     3.15084E-03    -15.3396E-03     28.8564E-03    -13.7188E-03     3.16124E-03
            2264     3.55240E-03     10.7748E-03    -12.7871E+06     -78.038E+06    -7.18512E+06     476.070E+03    -14.5182E-03     28.0410E-03    -13.5227E-03     2.38581E-03    -14.4588E-03     27.6799E-03    -13.4269E-03     2.38954E-03
            2265     2.66488E-03     10.7702E-03    -13.1974E+06    -77.2304E+06    -10.3146E+06    -53.3356E+03    -13.8483E-03     27.1270E-03    -13.2787E-03     1.73763E-03    -13.7875E-03     26.7750E-03    -13.1992E-03     1.73527E-03
            2266     1.77693E-03     10.7671E-03    -13.4027E+06    -76.8227E+06    -12.2791E+06    -263.209E+03    -13.3666E-03     26.4685E-03    -13.1019E-03     1.14273E-03    -13.3045E-03     26.1217E-03    -13.0325E-03     1.13827E-03
            2267     888.541E-06     10.7651E-03    -13.3951E+06    -76.1382E+06    -13.1704E+06    -280.715E+03    -13.0814E-03     26.0546E-03    -12.9732E-03     610.680E-06    -13.0189E-03     25.7125E-03    -12.9093E-03     606.499E-06
            2268     16.6742E-03     10.3833E-03    -3.88966E+06     142.748E+06     70.3518E+06     569.188E+03    -55.1519E-03     80.5317E-03    -25.3798E-03     116.905E-03    -57.3676E-03     83.0371E-03    -25.2294E-03     116.628E-03
            2269     15.8193E-03     10.2216E-03    -6.82756E+06     108.657E+06     14.9474E+06     2.87696E+06    -50.8034E-03     74.5807E-03    -23.7773E-03     131.770E-03    -52.7055E-03     76.8018E-03    -23.8502E-03     131.171E-03
            2270     14.9578E-03     10.1201E-03    -7.69443E+06     62.0457E+06    -15.6971E+06     3.85753E+06    -44.3703E-03     66.8093E-03    -22.4390E-03     78.1057E-03    -44.8853E-03     67.5632E-03    -22.5963E-03     77.7465E-03
            2271     14.0956E-03     10.0578E-03    -7.35808E+06     14.5833E+06    -15.9130E+06     3.20771E+06    -40.8726E-03     62.1930E-03    -21.3204E-03     50.2991E-03    -41.0479E-03     62.4406E-03    -21.4105E-03     50.0865E-03
            2272     13.2292E-03     10.0058E-03    -7.44075E+06    -25.7659E+06    -13.2328E+06     2.94148E+06    -38.1983E-03     58.4208E-03    -20.2225E-03     41.3898E-03    -38.2597E-03     58.4031E-03    -20.2405E-03     41.2488E-03
            2273     12.3622E-03     9.95939E-03    -7.60155E+06    -43.5468E+06    -5.76204E+06     3.16438E+06    -34.8928E-03     54.0447E-03    -19.1519E-03     31.4895E-03    -34.8998E-03     53.8873E-03    -19.1066E-03     31.4176E-03
            2274     11.4915E-03     9.92429E-03    -8.27127E+06    -54.0113E+06    -782.519E+03     2.88869E+06    -31.3355E-03     49.4727E-03    -18.1372E-03     22.7276E-03    -31.3173E-03     49.2360E-03    -18.0508E-03     22.6949E-03
            2275     10.6176E-03     9.89645E-03    -8.68493E+06    -64.7561E+06     831.707E+03     2.49319E+06    -28.1530E-03     45.3555E-03    -17.2025E-03     17.1776E-03    -28.1143E-03     45.0539E-03    -17.0918E-03     17.1649E-03
            2276     9.74165E-03     9.87372E-03    -9.12626E+06    -73.7593E+06     3.40019E+06     2.61706E+06    -25.2133E-03     41.5834E-03    -16.3700E-03     13.3106E-03    -25.1628E-03     41.2289E-03    -16.2328E-03     13.3155E-03
            2277     8.86245E-03     9.85531E-03    -9.89188E+06    -78.0356E+06     5.02800E+06     2.70418E+06    -22.6195E-03     38.2482E-03    -15.6287E-03     10.3365E-03    -22.5665E-03     37.8685E-03    -15.4760E-03     10.3523E-03
            2278     7.98188E-03     9.84056E-03    -10.6485E+06    -78.5594E+06     3.71829E+06     2.09182E+06    -20.3573E-03     35.3241E-03    -14.9668E-03     8.17211E-03    -20.3040E-03     34.9434E-03    -14.8188E-03     8.18632E-03
            2279     7.09882E-03     9.82858E-03    -11.5605E+06    -81.0105E+06     2.62551E+06     1.33896E+06    -18.4241E-03     32.8297E-03    -14.4057E-03     6.56494E-03    -18.3695E-03     32.4389E-03    -14.2583E-03     6.57338E-03
            2280     6.21460E-03     9.81913E-03    -12.4555E+06    -82.6589E+06     2.54449E+06     714.708E+03    -16.8642E-03     30.8008E-03    -13.9366E-03     5.34714E-03    -16.8111E-03     30.4027E-03    -13.7860E-03     5.35001E-03
            2281     5.32884E-03     9.81150E-03    -13.4132E+06    -82.3239E+06     400.721E+03     183.627E+03    -15.6005E-03     29.1318E-03    -13.5313E-03     4.40178E-03    -15.5493E-03     28.7396E-03    -13.3904E-03     4.39950E-03
            2282     4.44230E-03     9.80550E-03    -14.4505E+06    -80.2374E+06    -4.52257E+06    -153.075E+03    -14.5938E-03     27.7712E-03    -13.1775E-03     3.60797E-03    -14.5435E-03     27.3979E-03    -13.0628E-03     3.60256E-03
            2283     3.55475E-03     9.80073E-03    -15.3185E+06    -77.5919E+06    -9.72650E+06    -474.391E+03    -13.7975E-03     26.6796E-03    -12.8821E-03     2.91634E-03    -13.7477E-03     26.3281E-03    -12.7960E-03     2.90773E-03
            2284     2.66671E-03     9.79715E-03    -15.9311E+06    -77.1607E+06    -12.9382E+06    -587.674E+03    -13.1863E-03     25.8422E-03    -12.6559E-03     2.23970E-03    -13.1354E-03     25.4984E-03    -12.5856E-03     2.23039E-03
            2285     1.77807E-03     9.79458E-03    -16.5116E+06    -77.0887E+06    -15.2376E+06    -574.442E+03    -12.7397E-03     25.2286E-03    -12.4889E-03     1.53546E-03    -12.6884E-03     24.8892E-03    -12.4294E-03     1.52694E-03
            2286     889.169E-06     9.79306E-03    -16.9223E+06    -76.7504E+06    -16.4590E+06    -417.333E+03    -12.4596E-03     24.8335E-03    -12.3739E-03     838.003E-06    -12.4091E-03     24.4982E-03    -12.3203E-03     832.036E-06
            2287     16.6760E-03     9.35197E-03    -4.53660E+06     140.526E+06     70.3820E+06     748.420E+03    -57.3990E-03     82.6824E-03    -25.2835E-03     110.473E-03    -59.4644E-03     85.0272E-03    -25.1287E-03     110.035E-03
            2288     15.8229E-03     9.20535E-03    -8.38924E+06     106.948E+06     17.4258E+06     2.62105E+06    -53.8313E-03     77.3509E-03    -23.5196E-03     121.617E-03    -55.5682E-03     79.3883E-03    -23.5754E-03     120.901E-03
            2289     14.9657E-03     9.10477E-03    -8.10865E+06     63.0402E+06    -12.6275E+06     3.87345E+06    -46.7392E-03     68.7242E-03    -21.9849E-03     70.9343E-03    -47.2115E-03     69.4288E-03    -22.1277E-03     70.5555E-03
            2290     14.1035E-03     9.05103E-03    -8.17261E+06     16.0692E+06    -15.2116E+06     3.66081E+06    -42.1777E-03     62.8798E-03    -20.7021E-03     44.9143E-03    -42.3431E-03     63.1179E-03    -20.7896E-03     44.7094E-03
            2291     13.2398E-03     8.99978E-03    -8.57752E+06    -25.0408E+06    -12.3172E+06     3.38449E+06    -38.6122E-03     58.1152E-03    -19.5030E-03     36.3088E-03    -38.6709E-03     58.0908E-03    -19.5158E-03     36.1807E-03
            2292     12.3724E-03     8.96012E-03    -8.35984E+06    -43.4374E+06    -4.22486E+06     3.16775E+06    -34.3617E-03     52.7461E-03    -18.3844E-03     27.1524E-03    -34.3685E-03     52.5817E-03    -18.3304E-03     27.0900E-03
            2293     11.5006E-03     8.92964E-03    -8.16530E+06    -52.9031E+06     1.81088E+06     2.68645E+06    -30.3148E-03     47.6847E-03    -17.3699E-03     19.7655E-03    -30.2983E-03     47.4465E-03    -17.2723E-03     19.7377E-03
            2294     10.6262E-03     8.90556E-03    -8.69879E+06    -64.0942E+06     3.53100E+06     2.21982E+06    -26.8494E-03     43.3170E-03    -16.4676E-03     15.0405E-03    -26.8143E-03     43.0134E-03    -16.3444E-03     15.0294E-03
            2295     9.74836E-03     8.88699E-03    -9.47597E+06    -73.6852E+06     6.03534E+06     1.91520E+06    -23.8448E-03     39.5342E-03    -15.6894E-03     12.1042E-03    -23.7994E-03     39.1762E-03    -15.5386E-03     12.1031E-03
            2296     8.86869E-03     8.87159E-03    -9.95332E+06    -77.0454E+06     6.67802E+06     1.41393E+06    -21.2295E-03     36.2399E-03    -15.0103E-03     9.94812E-03    -21.1805E-03     35.8627E-03    -14.8508E-03     9.94925E-03
            2297     7.98622E-03     8.85975E-03    -10.4038E+06    -77.9178E+06     5.62513E+06     1.00714E+06    -19.0286E-03     33.4609E-03    -14.4323E-03     8.42313E-03    -18.9778E-03     33.0803E-03    -14.2761E-03     8.42444E-03
            2298     7.10246E-03     8.85015E-03    -11.4814E+06    -80.0518E+06     5.13467E+06     576.942E+03    -17.2647E-03     31.2271E-03    -13.9624E-03     7.37436E-03    -17.2147E-03     30.8374E-03    -13.8040E-03     7.37354E-03
            2299     6.21692E-03     8.84248E-03    -13.0136E+06    -81.6495E+06     3.26410E+06    -486.758E+03    -15.8901E-03     29.4634E-03    -13.5733E-03     6.51231E-03    -15.8424E-03     29.0702E-03    -13.4198E-03     6.50000E-03
            2300     5.33060E-03     8.83638E-03    -14.3772E+06    -82.2338E+06    -357.943E+03    -1.10566E+06    -14.8494E-03     28.0948E-03    -13.2454E-03     5.75430E-03    -14.8021E-03     27.7056E-03    -13.1071E-03     5.73556E-03
            2301     4.44324E-03     8.83152E-03    -15.5402E+06    -80.1832E+06    -5.99368E+06    -1.16262E+06    -14.0419E-03     27.0038E-03    -12.9618E-03     4.98740E-03    -13.9950E-03     26.6344E-03    -12.8530E-03     4.96908E-03
            2302     3.55541E-03     8.82775E-03    -16.4308E+06    -77.7448E+06    -11.1268E+06    -1.15131E+06    -13.4128E-03     26.1442E-03    -12.7314E-03     4.18753E-03    -13.3663E-03     25.7957E-03    -12.6505E-03     4.17029E-03
            2303     2.66693E-03     8.82487E-03    -17.1470E+06    -77.6344E+06    -14.1854E+06    -989.676E+03    -12.9434E-03     25.5050E-03    -12.5616E-03     3.30150E-03    -12.8961E-03     25.1624E-03    -12.4951E-03     3.28709E-03
            2304     1.77821E-03     8.82286E-03    -17.6495E+06    -77.6430E+06    -16.2926E+06    -717.472E+03    -12.6135E-03     25.0536E-03    -12.4401E-03     2.29892E-03    -12.5656E-03     24.7146E-03    -12.3834E-03     2.28862E-03
            2305     889.130E-06     8.82168E-03    -18.0178E+06    -77.5844E+06    -17.5815E+06    -483.207E+03    -12.4145E-03     24.7752E-03    -12.3608E-03     1.27182E-03    -12.3666E-03     24.4390E-03    -12.3100E-03     1.26504E-03
            2306     16.6770E-03     8.32298E-03    -4.10091E+06     139.360E+06     72.4357E+06     1.46827E+06    -60.8606E-03     85.9964E-03    -25.1358E-03     104.445E-03    -62.7720E-03     88.1785E-03    -24.9697E-03     103.818E-03
            2307     15.8293E-03     8.17857E-03    -7.66781E+06     106.011E+06     20.6550E+06     2.76835E+06    -56.9556E-03     80.1232E-03    -23.1676E-03     109.696E-03    -58.5039E-03     81.9623E-03    -23.2069E-03     108.856E-03
            2308     14.9744E-03     8.09344E-03    -10.0237E+06     62.5733E+06    -11.3627E+06     4.11862E+06    -48.2742E-03     69.7230E-03    -21.4487E-03     62.4543E-03    -48.7013E-03     70.3706E-03    -21.5818E-03     62.0771E-03
            2309     14.1137E-03     8.03972E-03    -10.5474E+06     17.9203E+06    -13.4868E+06     4.35612E+06    -42.4625E-03     62.5277E-03    -20.0653E-03     39.8763E-03    -42.6269E-03     62.7581E-03    -20.1434E-03     39.6934E-03
            2310     13.2500E-03     7.99676E-03    -9.95422E+06    -23.5485E+06    -10.0645E+06     3.51236E+06    -37.8602E-03     56.6964E-03    -18.8363E-03     32.0156E-03    -37.9201E-03     56.6672E-03    -18.8380E-03     31.9046E-03
            2311     12.3802E-03     7.96222E-03    -9.65386E+06    -42.5705E+06    -2.07626E+06     2.57514E+06    -33.0577E-03     50.7977E-03    -17.7399E-03     23.9034E-03    -33.0701E-03     50.6311E-03    -17.6746E-03     23.8452E-03
            2312     11.5083E-03     7.93632E-03    -9.69010E+06    -52.1038E+06     4.07734E+06     1.68780E+06    -28.6996E-03     45.4861E-03    -16.7865E-03     17.7573E-03    -28.6928E-03     45.2484E-03    -16.6765E-03     17.7245E-03
            2313     10.6317E-03     7.91753E-03    -9.60591E+06    -63.3594E+06     6.70274E+06     1.33287E+06    -25.0785E-03     41.0572E-03    -15.9787E-03     14.4876E-03    -25.0526E-03     40.7531E-03    -15.8394E-03     14.4702E-03
            2314     9.75284E-03     7.90174E-03    -9.74991E+06    -72.6659E+06     8.67685E+06     643.389E+03    -22.1248E-03     37.4341E-03    -15.3093E-03     12.4170E-03    -22.0857E-03     37.0775E-03    -15.1464E-03     12.4027E-03
            2315     8.87109E-03     7.89015E-03    -10.1091E+06    -76.3393E+06     9.45373E+06    -265.653E+03    -19.6384E-03     34.3964E-03    -14.7580E-03     11.0726E-03    -19.5951E-03     34.0188E-03    -14.5853E-03     11.0540E-03
            2316     7.98769E-03     7.88052E-03    -10.6914E+06    -78.0248E+06     8.83526E+06    -422.627E+03    -17.7024E-03     32.0186E-03    -14.3162E-03     10.1571E-03    -17.6575E-03     31.6333E-03    -14.1434E-03     10.1411E-03
            2317     7.10244E-03     7.87305E-03    -11.4253E+06    -79.2457E+06     7.21276E+06    -606.835E+03    -16.2515E-03     30.2200E-03    -13.9685E-03     9.41771E-03    -16.2055E-03     29.8313E-03    -13.8010E-03     9.40237E-03
            2318     6.21638E-03     7.86685E-03    -12.5578E+06    -80.6069E+06     3.85192E+06    -1.40140E+06    -15.1898E-03     28.8829E-03    -13.6931E-03     8.69046E-03    -15.1422E-03     28.4934E-03    -13.5388E-03     8.66690E-03
            2319     5.32923E-03     7.86190E-03    -14.0160E+06    -82.3234E+06    -801.620E+03    -2.13524E+06    -14.4395E-03     27.9140E-03    -13.4745E-03     7.85669E-03    -14.3897E-03     27.5245E-03    -13.3388E-03     7.82510E-03
            2320     4.44177E-03     7.85786E-03    -15.0821E+06     -80.737E+06    -6.22596E+06    -2.18523E+06    -13.9036E-03     27.1976E-03    -13.2940E-03     6.86672E-03    -13.8533E-03     26.8252E-03    -13.1862E-03     6.83555E-03
            2321     3.55373E-03     7.85479E-03    -15.7542E+06    -78.4478E+06    -10.7173E+06    -1.80057E+06    -13.5137E-03     26.6686E-03    -13.1549E-03     5.76206E-03    -13.4635E-03     26.3150E-03    -13.0719E-03     5.73671E-03
            2322     2.66556E-03     7.85236E-03    -16.2178E+06    -78.4152E+06    -13.3060E+06    -1.44675E+06    -13.2449E-03     26.3057E-03    -13.0608E-03     4.51687E-03    -13.1931E-03     25.9566E-03    -12.9901E-03     4.49677E-03
            2323     1.77706E-03     7.85071E-03    -16.5411E+06    -78.6121E+06    -15.2022E+06    -1.04584E+06    -13.0724E-03     26.0707E-03    -12.9983E-03     3.11966E-03    -13.0191E-03     25.7236E-03    -12.9363E-03     3.10527E-03
            2324     888.591E-06     7.84967E-03    -16.7231E+06    -78.5987E+06    -16.3351E+06    -518.856E+03    -12.9821E-03     25.9428E-03    -12.9607E-03     1.72270E-03    -12.9281E-03     25.5977E-03    -12.9041E-03     1.71554E-03
            2325     16.6821E-03     7.28226E-03    -4.29956E+06     137.232E+06     73.5621E+06     1.70356E+06    -64.9120E-03     89.8146E-03    -24.9026E-03     98.2357E-03    -66.6663E-03     91.8285E-03    -24.7275E-03     97.4348E-03
            2326     15.8377E-03     7.15455E-03    -7.98405E+06     103.504E+06     24.3060E+06     4.02396E+06    -58.7064E-03     81.4647E-03    -22.7583E-03     97.2137E-03    -60.0424E-03     83.0713E-03    -22.7752E-03     96.3445E-03
            2327     14.9831E-03     7.07735E-03    -9.45478E+06     62.9124E+06    -5.96794E+06     5.60602E+06    -48.5080E-03     69.4504E-03    -20.9424E-03     54.8865E-03    -48.8841E-03     70.0348E-03    -21.0498E-03     54.5531E-03
            2328     14.1229E-03     7.03204E-03    -10.3534E+06     19.2766E+06     -9.0268E+06     5.21202E+06    -41.5147E-03     61.0511E-03    -19.5364E-03     36.1307E-03    -41.6696E-03     61.2646E-03    -19.5944E-03     35.9825E-03
            2329     13.2557E-03     6.99488E-03    -12.1024E+06    -21.1988E+06    -6.11675E+06     3.73569E+06    -36.2693E-03     54.6214E-03    -18.3520E-03     29.0884E-03    -36.3402E-03     54.5923E-03    -18.3343E-03     28.9994E-03
            2330     12.3871E-03     6.96554E-03    -12.8263E+06    -39.9989E+06     1.34812E+06     1.19385E+06    -31.0219E-03     48.3668E-03    -17.3449E-03     21.9032E-03    -31.0545E-03     48.2084E-03    -17.2616E-03     21.8400E-03
            2331     11.5116E-03     6.94673E-03    -12.2421E+06    -51.0853E+06     7.11581E+06    -438.593E+03    -26.3824E-03     42.9070E-03    -16.5246E-03     17.7883E-03    -26.3926E-03     42.6720E-03    -16.3972E-03     17.7370E-03
            2332     10.6336E-03     6.93053E-03    -11.6376E+06    -63.0765E+06     9.74371E+06    -907.237E+03    -22.9837E-03     38.8598E-03    -15.8761E-03     15.8589E-03    -22.9722E-03     38.5551E-03    -15.7191E-03     15.8179E-03
            2333     9.75255E-03     6.91940E-03    -11.0879E+06    -71.6058E+06     11.2539E+06    -1.60117E+06    -20.2484E-03     35.6193E-03    -15.3709E-03     14.5304E-03    -20.2211E-03     35.2660E-03    -15.1947E-03     14.4905E-03
            2334     8.86938E-03     6.90980E-03    -11.0682E+06    -75.9229E+06     11.8802E+06    -2.19007E+06    -18.1700E-03     33.1600E-03    -14.9900E-03     13.7649E-03    -18.1355E-03     32.7823E-03    -14.8044E-03     13.7237E-03
            2335     7.98451E-03     6.90267E-03    -11.3359E+06    -78.3741E+06     10.3511E+06    -2.47954E+06    -16.7119E-03     31.4159E-03    -14.7039E-03     13.0308E-03    -16.6720E-03     31.0275E-03    -14.5221E-03     12.9897E-03
            2336     7.09874E-03     6.89637E-03    -11.6022E+06    -78.9931E+06     7.18941E+06    -2.59306E+06    -15.7008E-03     30.1903E-03    -14.4894E-03     12.2309E-03    -15.6560E-03     29.8030E-03    -14.3221E-03     12.1909E-03
            2337     6.21204E-03     6.89138E-03    -11.9566E+06    -80.3412E+06     3.95164E+06    -2.84368E+06    -15.0375E-03     29.3747E-03    -14.3372E-03     11.2200E-03    -14.9874E-03     28.9854E-03    -14.1836E-03     11.1786E-03
            2338     5.32512E-03     6.88699E-03    -12.5465E+06    -82.2774E+06    -269.271E+03    -3.24183E+06    -14.6094E-03     28.8348E-03    -14.2255E-03     10.0119E-03    -14.5530E-03     28.4425E-03    -14.0893E-03     9.96663E-03
            2339     4.43771E-03     6.88354E-03    -13.1160E+06    -81.7827E+06    -5.08149E+06    -3.37416E+06    -14.3400E-03     28.4789E-03    -14.1389E-03     8.59121E-03    -14.2800E-03     28.0966E-03    -14.0267E-03     8.54515E-03
            2340     3.55032E-03     6.88068E-03    -13.2410E+06    -79.7611E+06    -8.52159E+06    -2.80632E+06    -14.1756E-03     28.2543E-03    -14.0787E-03     7.05777E-03    -14.1141E-03     27.8872E-03    -13.9865E-03     7.01977E-03
            2341     2.66271E-03     6.87854E-03    -13.3272E+06    -79.6197E+06    -10.5339E+06    -2.09047E+06    -14.0826E-03     28.1265E-03    -14.0439E-03     5.42415E-03    -14.0186E-03     27.7630E-03    -13.9618E-03     5.39597E-03
            2342     1.77520E-03     6.87693E-03    -13.5343E+06    -79.9831E+06    -12.2824E+06    -1.43032E+06    -14.0349E-03     28.0566E-03    -14.0217E-03     3.69179E-03    -13.9689E-03     27.6941E-03    -13.9475E-03     3.67257E-03
            2343     887.558E-06     6.87604E-03    -13.7013E+06    -79.9487E+06    -13.2660E+06    -775.523E+03    -14.0099E-03     28.0212E-03    -14.0113E-03     2.02266E-03    -13.9433E-03     27.6605E-03    -13.9419E-03     2.01226E-03
            2344     16.6885E-03     6.24095E-03    -4.96760E+06     134.265E+06     74.3962E+06     2.36782E+06    -67.8083E-03     92.4987E-03    -24.6904E-03     93.6090E-03    -69.4019E-03     94.3368E-03    -24.5059E-03     92.7044E-03
            2345     15.8436E-03     6.12811E-03    -8.60879E+06     100.575E+06     29.2537E+06     5.25999E+06    -59.0940E-03     81.5488E-03    -22.4549E-03     86.4121E-03    -60.2196E-03     82.9186E-03    -22.4419E-03     85.5831E-03
            2346     14.9901E-03     6.06252E-03    -11.2632E+06     62.1710E+06    -1.17030E+06     7.46795E+06    -47.3424E-03     67.9711E-03    -20.6288E-03     49.4767E-03    -47.6819E-03     68.4961E-03    -20.7084E-03     49.2160E-03
            2347     14.1265E-03     6.02684E-03    -14.7074E+06     21.9750E+06    -7.54942E+06     7.73027E+06    -39.9853E-03     59.2478E-03    -19.2625E-03     34.4282E-03    -40.1536E-03     59.4645E-03    -19.3108E-03     34.3417E-03
            2348     13.2608E-03     5.99334E-03    -16.9086E+06    -15.8502E+06    -3.22052E+06     3.59857E+06    -33.8955E-03     52.0858E-03    -18.1903E-03     27.9850E-03    -33.9944E-03     52.0784E-03    -18.1589E-03     27.9164E-03
            2349     12.3869E-03     5.97362E-03    -16.4367E+06    -36.8483E+06     4.55762E+06    -1.28325E+06    -28.0568E-03     45.4177E-03    -17.3609E-03     22.5673E-03    -28.1128E-03     45.2718E-03    -17.2609E-03     22.4878E-03
            2350     11.5100E-03     5.95806E-03    -15.4025E+06    -50.1248E+06     9.49451E+06    -3.51904E+06    -23.9237E-03     40.6675E-03    -16.7438E-03     20.5506E-03    -23.9533E-03     40.4372E-03    -16.6013E-03     20.4680E-03
            2351     10.6295E-03     5.94677E-03    -14.2250E+06    -62.9418E+06     12.1741E+06    -4.31006E+06    -20.9647E-03     37.2614E-03    -16.2967E-03     19.1867E-03    -20.9692E-03     36.9569E-03    -16.1239E-03     19.1070E-03
            2352     9.74665E-03     5.93770E-03    -13.3980E+06    -71.3579E+06     12.5797E+06    -4.52950E+06    -18.8176E-03     34.7933E-03    -15.9757E-03     18.1279E-03    -18.8038E-03     34.4422E-03    -15.7899E-03     18.0536E-03
            2353     8.86233E-03     5.93076E-03    -12.9110E+06    -75.7151E+06     11.8641E+06    -5.02448E+06    -17.4002E-03     33.1539E-03    -15.7537E-03     17.2179E-03    -17.3750E-03     32.7796E-03    -15.5658E-03     17.1422E-03
            2354     7.97704E-03     5.92443E-03    -12.2488E+06    -78.8955E+06     9.78682E+06    -5.44417E+06    -16.5029E-03     32.1037E-03    -15.6008E-03     16.1038E-03    -16.4658E-03     31.7145E-03    -15.4197E-03     16.0259E-03
            2355     7.09111E-03     5.91936E-03    -11.4325E+06    -79.6681E+06     6.52142E+06    -5.36011E+06    -15.9720E-03     31.4627E-03    -15.4906E-03     14.7271E-03    -15.9243E-03     31.0725E-03    -15.3259E-03     14.6524E-03
            2356     6.20501E-03     5.91458E-03    -10.8868E+06    -81.0130E+06     3.23793E+06    -5.04825E+06    -15.6448E-03     31.0613E-03    -15.4165E-03     13.1526E-03    -15.5872E-03     30.6680E-03    -15.2671E-03     13.0835E-03
            2357     5.31858E-03     5.91075E-03    -10.7291E+06    -82.8758E+06    -455.985E+03    -4.84207E+06    -15.4606E-03     30.8259E-03    -15.3653E-03     11.3993E-03    -15.3940E-03     30.4281E-03    -15.2318E-03     11.3339E-03
            2358     4.43223E-03     5.90728E-03    -10.8302E+06    -83.1052E+06    -4.57361E+06    -4.52825E+06    -15.3559E-03     30.6813E-03    -15.3254E-03     9.55652E-03    -15.2833E-03     30.2884E-03    -15.2121E-03     9.49596E-03
            2359     3.54572E-03     5.90466E-03    -11.1312E+06    -81.7487E+06    -7.46425E+06    -3.76024E+06    -15.3056E-03     30.6048E-03    -15.2993E-03     7.67812E-03    -15.2321E-03     30.2232E-03    -15.2019E-03     7.62808E-03
            2360     2.65933E-03     5.90241E-03    -11.4048E+06    -81.4249E+06    -9.23721E+06    -2.67216E+06    -15.2822E-03     30.5675E-03    -15.2853E-03     5.79237E-03    -15.2079E-03     30.1903E-03    -15.1969E-03     5.75685E-03
            2361     1.77283E-03     5.90094E-03    -11.6539E+06    -81.6673E+06    -10.7723E+06    -1.76635E+06    -15.2752E-03     30.5508E-03    -15.2756E-03     3.89964E-03    -15.1995E-03     30.1749E-03    -15.1941E-03     3.87618E-03
            2362     886.464E-06     5.89992E-03    -11.6706E+06    -81.7252E+06    -11.5159E+06    -1.01558E+06    -15.2675E-03     30.5408E-03    -15.2732E-03     2.12014E-03    -15.1908E-03     30.1657E-03    -15.1954E-03     2.10669E-03
            2363     16.6870E-03     5.19482E-03    -5.86525E+06     130.868E+06     75.4526E+06     3.64603E+06    -68.6336E-03     93.2826E-03    -24.6490E-03     90.0270E-03    -70.0715E-03     94.9468E-03    -24.4530E-03     89.1057E-03
            2364     15.8467E-03     5.10032E-03    -11.7493E+06     95.5337E+06     29.7552E+06     8.10937E+06    -58.4736E-03     80.8720E-03    -22.3984E-03     74.5563E-03    -59.4025E-03     82.0149E-03    -22.3711E-03     73.8335E-03
            2365     14.9887E-03     5.05260E-03    -17.6320E+06     60.2796E+06    -85.3505E+03     11.3384E+06    -45.3830E-03     66.0165E-03    -20.6335E-03     44.2787E-03    -45.7049E-03     66.4914E-03    -20.6957E-03     44.1271E-03
            2366     14.1262E-03     5.01928E-03    -20.6808E+06     28.7093E+06    -3.85011E+06     8.74005E+06    -36.9632E-03     56.3776E-03    -19.4144E-03     34.1044E-03    -37.1627E-03     56.6177E-03    -19.4453E-03     34.0678E-03
            2367     13.2558E-03     4.99750E-03    -19.5610E+06    -8.18837E+06    -271.414E+03     1.23478E+06    -30.3694E-03     48.9229E-03    -18.5535E-03     29.5111E-03    -30.4892E-03     48.9457E-03    -18.5146E-03     29.4382E-03
            2368     12.3803E-03     4.98330E-03    -18.6387E+06    -33.5546E+06     6.35974E+06    -4.06479E+06    -25.3346E-03     43.3007E-03    -17.9661E-03     26.5271E-03    -25.4060E-03     43.1687E-03    -17.8586E-03     26.4257E-03
            2369     11.5003E-03     4.97184E-03    -18.2600E+06    -48.8465E+06     9.86343E+06    -6.60416E+06    -22.0951E-03     39.6561E-03    -17.5610E-03     24.9367E-03    -22.1398E-03     39.4341E-03    -17.4144E-03     24.8218E-03
            2370     10.6184E-03     4.96352E-03    -17.5140E+06    -63.1027E+06     11.6837E+06    -8.24563E+06    -19.9306E-03     37.2246E-03    -17.2940E-03     23.3859E-03    -19.9497E-03     36.9236E-03    -17.1187E-03     23.2602E-03
            2371     9.73501E-03     4.95645E-03    -15.8873E+06    -71.8168E+06     11.0602E+06    -8.76103E+06    -18.6223E-03     35.7307E-03    -17.1085E-03     21.7517E-03    -18.6173E-03     35.3823E-03    -16.9260E-03     21.6257E-03
            2372     8.85081E-03     4.95047E-03    -13.8675E+06    -76.2150E+06     10.5660E+06    -8.94540E+06    -17.8487E-03     34.8311E-03    -16.9825E-03     20.0069E-03    -17.8252E-03     34.4571E-03    -16.7990E-03     19.8824E-03
            2373     7.96611E-03     4.94503E-03    -12.3644E+06    -79.6106E+06     8.65573E+06    -9.20644E+06    -17.4087E-03     34.2975E-03    -16.8887E-03     18.0695E-03    -17.3692E-03     33.9061E-03    -16.7121E-03     17.9443E-03
            2374     7.08134E-03     4.94005E-03    -10.9530E+06    -81.5317E+06     4.22578E+06    -8.82184E+06    -17.1452E-03     33.9493E-03    -16.8041E-03     15.9808E-03    -17.0889E-03     33.5522E-03    -16.6489E-03     15.8623E-03
            2375     6.19630E-03     4.93578E-03    -9.73567E+06    -82.9745E+06     974.915E+03    -7.58899E+06    -16.9794E-03     33.7187E-03    -16.7393E-03     13.8372E-03    -16.9098E-03     33.3169E-03    -16.6000E-03     13.7359E-03
            2376     5.31133E-03     4.93183E-03    -9.40442E+06    -84.7364E+06    -2.32827E+06    -6.23488E+06    -16.8489E-03     33.5350E-03    -16.6860E-03     11.6778E-03    -16.7701E-03     33.1285E-03    -16.5612E-03     11.5948E-03
            2377     4.42614E-03     4.92870E-03    -9.89136E+06    -85.0303E+06    -5.93260E+06    -5.06549E+06    -16.7537E-03     33.3920E-03    -16.6383E-03     9.58263E-03    -16.6715E-03     32.9899E-03    -16.5303E-03     9.51543E-03
            2378     3.54102E-03     4.92590E-03    -10.5951E+06    -84.0668E+06    -8.48221E+06    -3.93212E+06    -16.6764E-03     33.2768E-03    -16.6004E-03     7.57271E-03    -16.5954E-03     32.8842E-03    -16.5056E-03     7.52065E-03
            2379     2.65576E-03     4.92388E-03    -11.2842E+06    -83.6108E+06    -10.1911E+06    -2.77948E+06    -16.6179E-03     33.1907E-03    -16.5728E-03     5.63093E-03    -16.5384E-03     32.8037E-03    -16.4861E-03     5.59414E-03
            2380     1.77056E-03     4.92225E-03    -11.6698E+06    -83.5188E+06    -11.5207E+06    -1.83155E+06    -16.5729E-03     33.1259E-03    -16.5530E-03     3.76039E-03    -16.4935E-03     32.7419E-03    -16.4726E-03     3.73617E-03
            2381     885.245E-06     4.92141E-03    -11.8738E+06    -83.7361E+06    -11.9156E+06    -1.00135E+06    -16.5417E-03     33.0936E-03    -16.5519E-03     2.03457E-03    -16.4624E-03     32.7094E-03    -16.4728E-03     2.02134E-03
            2382     16.6873E-03     4.14801E-03    -6.16933E+06     124.600E+06     72.5664E+06     6.81904E+06    -68.4080E-03     93.1889E-03    -24.7809E-03     84.0146E-03    -69.6445E-03     94.6371E-03    -24.5898E-03     83.1532E-03
            2383     15.8409E-03     4.07429E-03    -14.3847E+06     90.0457E+06     34.2035E+06     12.7507E+06    -55.9393E-03     78.5789E-03    -22.6396E-03     59.5917E-03    -56.6675E-03     79.4795E-03    -22.5783E-03     59.0671E-03
            2384     14.9861E-03     4.04180E-03    -17.7748E+06     61.9666E+06     11.8435E+06     13.6088E+06    -40.8912E-03     61.9891E-03    -21.0980E-03     38.9687E-03    -41.1858E-03     62.4081E-03    -21.1028E-03     38.9221E-03
            2385     14.1169E-03     4.01825E-03    -17.9272E+06     37.3748E+06     3.62887E+06     7.42883E+06    -31.7951E-03     51.9532E-03    -20.1581E-03     37.1989E-03    -31.9920E-03     52.2095E-03    -20.1681E-03     37.1872E-03
            2386     13.2418E-03     4.00457E-03    -18.7397E+06     433.476E+03     1.31802E+06    -917.233E+03    -27.2761E-03     46.8595E-03    -19.5833E-03     33.9955E-03    -27.3994E-03     46.9143E-03    -19.5502E-03     33.9182E-03
            2387     12.3633E-03     3.99329E-03    -19.1008E+06    -30.1569E+06     5.05684E+06    -6.48672E+06    -24.1260E-03     43.3352E-03    -19.2092E-03     30.9559E-03    -24.1991E-03     43.2189E-03    -19.1125E-03     30.8339E-03
            2388     11.4836E-03     3.98629E-03    -18.5668E+06    -47.3391E+06     6.84704E+06    -9.52677E+06    -21.9223E-03     40.8633E-03    -18.9410E-03     28.8291E-03    -21.9642E-03     40.6514E-03    -18.8112E-03     28.6825E-03
            2389     10.6016E-03     3.97875E-03    -17.7321E+06    -62.1119E+06     6.53200E+06    -12.1182E+06    -20.7222E-03     39.4718E-03    -18.7496E-03     26.2720E-03    -20.7350E-03     39.1820E-03    -18.6012E-03     26.1001E-03
            2390     9.71949E-03     3.97331E-03    -15.6830E+06    -73.1151E+06     5.15066E+06    -13.8484E+06    -20.0415E-03     38.6358E-03    -18.5943E-03     23.5145E-03    -20.0242E-03     38.2881E-03    -18.4398E-03     23.3251E-03
            2391     8.83672E-03     3.96750E-03    -12.9875E+06    -77.8307E+06     3.73124E+06    -13.6241E+06    -19.6087E-03     38.0633E-03    -18.4546E-03     20.8238E-03    -19.5680E-03     37.6891E-03    -18.3043E-03     20.6405E-03
            2392     7.95404E-03     3.96261E-03    -10.6768E+06    -81.2931E+06     2.32241E+06    -12.8822E+06    -19.2737E-03     37.6026E-03    -18.3289E-03     18.1540E-03    -19.2138E-03     37.2091E-03    -18.1839E-03     17.9824E-03
            2393     7.07080E-03     3.95795E-03    -9.41803E+06    -84.6086E+06    -574.207E+03    -11.6667E+06    -18.9951E-03     37.2027E-03    -18.2076E-03     15.6044E-03    -18.9194E-03     36.7947E-03    -18.0742E-03     15.4499E-03
            2394     6.18764E-03     3.95378E-03    -8.98597E+06    -86.7077E+06    -3.66049E+06    -9.35407E+06    -18.7324E-03     36.8267E-03    -18.0942E-03     13.1629E-03    -18.6468E-03     36.4117E-03    -17.9738E-03     13.0394E-03
            2395     5.30405E-03     3.95026E-03    -9.03827E+06    -87.8128E+06    -5.51058E+06    -6.88206E+06    -18.4916E-03     36.4876E-03    -17.9959E-03     10.8935E-03    -18.4018E-03     36.0698E-03    -17.8830E-03     10.8026E-03
            2396     4.42045E-03     3.94712E-03     -9.4772E+06    -87.6679E+06    -7.12339E+06    -4.98999E+06    -18.2669E-03     36.1752E-03    -17.9083E-03     8.78819E-03    -18.1771E-03     35.7610E-03    -17.8030E-03     8.72225E-03
            2397     3.53655E-03     3.94469E-03    -10.3040E+06    -86.5616E+06    -9.11030E+06    -3.38093E+06    -18.0702E-03     35.9003E-03    -17.8301E-03     6.85795E-03    -17.9832E-03     35.4957E-03    -17.7352E-03     6.81322E-03
            2398     2.65259E-03     3.94261E-03    -11.2278E+06    -85.5485E+06    -11.1185E+06    -2.21011E+06    -17.9065E-03     35.6724E-03    -17.7658E-03     5.04202E-03    -17.8226E-03     35.2770E-03    -17.6811E-03     5.01272E-03
            2399     1.76843E-03     3.94129E-03    -11.9439E+06    -85.2934E+06    -12.1263E+06    -1.39661E+06    -17.7871E-03     35.5095E-03    -17.7224E-03     3.34951E-03    -17.7056E-03     35.1179E-03    -17.6420E-03     3.33099E-03
            2400     884.264E-06     3.94031E-03    -12.2855E+06    -85.4735E+06    -12.4787E+06    -782.106E+03    -17.7013E-03     35.4126E-03    -17.7114E-03     1.79873E-03    -17.6207E-03     35.0212E-03    -17.6320E-03     1.78837E-03
            2401     16.6811E-03     3.10275E-03    -6.82267E+06     115.949E+06     70.2628E+06     10.4063E+06    -67.1244E-03     92.3189E-03    -25.1946E-03     75.3783E-03    -68.0977E-03     93.4795E-03    -25.0015E-03     74.6276E-03
            2402     15.8377E-03     3.04999E-03    -11.1866E+06     88.0414E+06     46.5077E+06     14.1306E+06    -48.1236E-03     71.4950E-03    -23.3714E-03     50.3598E-03    -48.6569E-03     72.1701E-03    -23.2503E-03     50.0690E-03
            2403     14.9710E-03     3.03857E-03    -11.4813E+06     66.5723E+06     27.6448E+06     12.1399E+06    -34.2535E-03     56.5251E-03    -22.2716E-03     42.4521E-03    -34.5158E-03     56.9041E-03    -22.2133E-03     42.4642E-03
            2404     14.0941E-03     3.02389E-03    -12.3028E+06     45.7818E+06     8.38228E+06     7.06789E+06    -29.0030E-03     50.6217E-03    -21.6188E-03     44.1383E-03    -29.1787E-03     50.8919E-03    -21.6254E-03     44.1533E-03
            2405     13.2177E-03     3.00892E-03    -13.6426E+06     9.18209E+06    -207.845E+03    -1.23623E+06    -26.8203E-03     48.0294E-03    -21.2092E-03     37.9595E-03    -26.9203E-03     48.1141E-03    -21.2037E-03     37.8953E-03
            2406     12.3413E-03     3.00404E-03    -14.1726E+06    -26.3159E+06    -1.57128E+06    -8.59831E+06    -25.1877E-03     46.0950E-03    -20.9073E-03     32.9388E-03    -25.2277E-03     45.9955E-03    -20.8564E-03     32.7982E-03
            2407     11.4615E-03     2.99641E-03    -13.0582E+06    -45.8245E+06    -4.48250E+06    -12.5603E+06    -24.0804E-03     44.7061E-03    -20.6257E-03     29.6257E-03    -24.0783E-03     44.5075E-03    -20.5627E-03     29.4447E-03
            2408     10.5828E-03     2.99147E-03    -11.1719E+06    -61.0444E+06    -6.20714E+06    -15.1221E+06    -23.3229E-03     43.6978E-03    -20.3749E-03     25.7080E-03    -23.2844E-03     43.4205E-03    -20.3012E-03     25.5003E-03
            2409     9.70281E-03     2.98558E-03    -9.90744E+06    -73.9624E+06    -8.47680E+06    -16.7954E+06    -22.7162E-03     42.8533E-03    -20.1371E-03     22.2720E-03    -22.6482E-03     42.5117E-03    -20.0579E-03     22.0466E-03
            2410     8.82305E-03     2.98109E-03    -9.04720E+06    -81.1337E+06    -10.2867E+06    -16.5659E+06    -22.1847E-03     42.0899E-03    -19.9053E-03     19.0534E-03    -22.0986E-03     41.7132E-03    -19.8260E-03     18.8336E-03
            2411     7.94214E-03     2.97640E-03    -8.31081E+06    -84.5357E+06    -10.3627E+06    -14.6243E+06    -21.6182E-03     41.3068E-03    -19.6886E-03     16.1552E-03    -21.5229E-03     40.9117E-03    -19.6058E-03     15.9622E-03
            2412     7.06136E-03     2.97239E-03    -8.36589E+06    -88.8389E+06    -9.78219E+06    -12.3015E+06    -21.0667E-03     40.5606E-03    -19.4939E-03     13.5544E-03    -20.9660E-03     40.1430E-03    -19.4018E-03     13.3926E-03
            2413     6.17967E-03     2.96884E-03    -8.82979E+06    -91.4413E+06    -10.0083E+06    -9.49227E+06    -20.5550E-03     39.8667E-03    -19.3116E-03     11.2439E-03    -20.4524E-03     39.4369E-03    -19.2163E-03     11.1192E-03
            2414     5.29786E-03     2.96562E-03    -9.20415E+06    -91.5746E+06    -9.80173E+06    -6.79650E+06    -20.0854E-03     39.2333E-03    -19.1478E-03     9.15497E-03    -19.9847E-03     38.8030E-03    -19.0507E-03     9.06564E-03
            2415     4.41546E-03     2.96310E-03    -9.76544E+06    -90.8555E+06    -9.39924E+06    -4.47708E+06    -19.6703E-03     38.6759E-03    -19.0056E-03     7.30910E-03    -19.5739E-03     38.2494E-03    -18.9067E-03     7.25013E-03
            2416     3.53285E-03     2.96083E-03    -10.5484E+06    -89.0382E+06    -10.2999E+06    -2.60034E+06    -19.3144E-03     38.1931E-03    -18.8787E-03     5.64155E-03    -19.2232E-03     37.7782E-03    -18.7858E-03     5.60713E-03
            2417     2.64986E-03     2.95926E-03    -11.2494E+06    -87.1237E+06    -11.3920E+06    -1.35383E+06    -19.0252E-03     37.8010E-03    -18.7758E-03     4.11782E-03    -18.9387E-03     37.3982E-03    -18.6901E-03     4.09974E-03
            2418     1.76672E-03     2.95796E-03    -11.8538E+06    -86.4491E+06    -12.0147E+06    -767.874E+03    -18.8181E-03     37.5210E-03    -18.7029E-03     2.72351E-03    -18.7346E-03     37.1233E-03    -18.6205E-03     2.71322E-03
            2419     883.389E-06     2.95729E-03    -12.2637E+06    -86.6524E+06    -12.4167E+06    -382.445E+03    -18.6838E-03     37.3480E-03    -18.6642E-03     1.45631E-03    -18.6015E-03     36.9505E-03    -18.5829E-03     1.45117E-03
            2420     16.6745E-03     2.05934E-03     -5.8976E+06     108.017E+06     71.2359E+06     10.6169E+06    -61.0786E-03     87.5354E-03    -26.4568E-03     71.1079E-03    -61.7964E-03     88.4162E-03    -26.2487E-03     70.5606E-03
            2421     15.8098E-03     2.04399E-03    -2.50492E+06     88.3989E+06     55.8678E+06     12.9919E+06    -39.4687E-03     64.5605E-03    -25.0918E-03     55.7888E-03    -39.8424E-03     65.0786E-03    -24.9370E-03     55.6990E-03
            2422     14.9339E-03     2.03842E-03    -3.86666E+06     72.2103E+06     31.7934E+06     10.0062E+06    -33.7168E-03     58.0150E-03    -24.2981E-03     52.6423E-03    -33.9320E-03     58.3792E-03    -24.2383E-03     52.6766E-03
            2423     14.0643E-03     2.02288E-03    -3.43798E+06     53.4534E+06     5.28069E+06     4.49764E+06    -32.6868E-03     56.3082E-03    -23.6214E-03     46.5188E-03    -32.8105E-03     56.5931E-03    -23.6675E-03     46.5202E-03
            2424     13.1912E-03     2.01386E-03    -1.31504E+06     16.4536E+06    -9.27228E+06    -1.46600E+06    -30.0287E-03     53.1120E-03    -23.0833E-03     36.0708E-03    -30.0560E-03     53.2192E-03    -23.1516E-03     36.0182E-03
            2425     12.3149E-03     2.00779E-03    -1.48480E+06    -21.4726E+06    -14.7424E+06    -8.34649E+06    -28.6794E-03     51.3460E-03    -22.6666E-03     29.6837E-03    -28.6398E-03     51.2670E-03    -22.7070E-03     29.5546E-03
            2426     11.4414E-03     2.00294E-03    -1.73713E+06    -44.1005E+06    -21.4120E+06    -13.2678E+06    -27.8638E-03     50.1047E-03    -22.2409E-03     24.8771E-03    -27.7806E-03     49.9204E-03    -22.2815E-03     24.6919E-03
            2427     10.5650E-03     1.99802E-03    -1.75975E+06    -61.3779E+06    -25.2607E+06    -14.9342E+06    -26.7330E-03     48.5693E-03    -21.8363E-03     20.8868E-03    -26.6179E-03     48.3030E-03    -21.8711E-03     20.6849E-03
            2428     9.68879E-03     1.99419E-03    -2.63929E+06    -74.8777E+06    -27.3762E+06    -15.3390E+06    -25.7695E-03     47.2292E-03    -21.4597E-03     17.5294E-03    -25.6355E-03     46.8991E-03    -21.4842E-03     17.3252E-03
            2429     8.81079E-03     1.99003E-03    -3.91889E+06    -84.8234E+06    -26.7486E+06    -14.8566E+06    -24.7875E-03     45.9017E-03    -21.1142E-03     14.6159E-03    -24.6459E-03     45.5225E-03    -21.1193E-03     14.4199E-03
            2430     7.93296E-03     1.98678E-03    -5.56418E+06    -89.0484E+06    -23.9826E+06    -12.6843E+06    -23.8370E-03     44.6354E-03    -20.7984E-03     12.1565E-03    -23.7013E-03     44.2332E-03    -20.7811E-03     11.9899E-03
            2431     7.05339E-03     1.98370E-03    -6.97208E+06    -93.0014E+06    -20.3894E+06    -10.2356E+06    -22.9375E-03     43.4540E-03    -20.5165E-03     10.0507E-03    -22.8082E-03     43.0288E-03    -20.4735E-03     9.91657E-03
            2432     6.17368E-03     1.98093E-03    -8.12764E+06    -95.9911E+06    -16.7464E+06    -7.94647E+06    -22.1244E-03     42.3910E-03    -20.2666E-03     8.22338E-03    -22.0018E-03     41.9472E-03    -20.1994E-03     8.11934E-03
            2433     5.29288E-03     1.97871E-03    -9.18207E+06    -95.2852E+06    -14.2216E+06    -5.45201E+06    -21.4045E-03     41.4450E-03    -20.0405E-03     6.63789E-03    -21.2917E-03     41.0025E-03    -19.9601E-03     6.56645E-03
            2434     4.41172E-03     1.97666E-03    -10.1086E+06    -93.9240E+06    -12.4159E+06    -3.43746E+06    -20.7955E-03     40.6403E-03    -19.8448E-03     5.24744E-03    -20.6919E-03     40.2033E-03    -19.7560E-03     5.20229E-03
            2435     3.52996E-03     1.97516E-03    -10.7549E+06    -91.2418E+06    -11.5907E+06    -1.82671E+06    -20.2878E-03     39.9648E-03    -19.6770E-03     4.01972E-03    -20.1925E-03     39.5410E-03    -19.5871E-03     3.99557E-03
            2436     2.64785E-03     1.97387E-03    -11.1767E+06    -88.3386E+06    -11.4405E+06    -797.774E+03    -19.8901E-03     39.4309E-03    -19.5408E-03     2.92045E-03    -19.8013E-03     39.0220E-03    -19.4537E-03     2.90975E-03
            2437     1.76540E-03     1.97305E-03    -11.4150E+06    -87.0640E+06    -11.5510E+06    -273.693E+03    -19.6015E-03     39.0427E-03    -19.4412E-03     1.91563E-03    -19.5156E-03     38.6406E-03    -19.3561E-03     1.91184E-03
            2438     882.753E-06     1.97246E-03    -11.6716E+06    -87.1334E+06    -11.7802E+06    -73.2050E+03    -19.4143E-03     38.8022E-03    -19.3879E-03     1.03120E-03    -19.3292E-03     38.4006E-03    -19.3036E-03     1.03012E-03
            2439     16.6218E-03     1.03650E-03     1.85168E+06     102.786E+06     75.0124E+06     7.19735E+06    -56.8902E-03     86.0061E-03    -29.1159E-03     72.5174E-03    -57.3560E-03     86.6276E-03    -28.8926E-03     72.2128E-03
            2440     15.7567E-03     1.03907E-03     3.38544E+06     89.9871E+06     59.0708E+06     7.89761E+06    -47.1074E-03     74.8514E-03    -27.7440E-03     56.7277E-03    -47.3673E-03     75.2668E-03    -27.5840E-03     56.7158E-03
            2441     14.8947E-03     1.02606E-03     4.64854E+06     78.0643E+06     28.7321E+06     5.20695E+06    -43.5415E-03     70.0902E-03    -26.5487E-03     44.0706E-03    -43.6897E-03     70.4468E-03    -26.5249E-03     44.0904E-03
            2442     14.0320E-03     1.01284E-03     7.99827E+06     57.1414E+06    -4.87594E+06     1.45250E+06    -39.2902E-03     64.7663E-03    -25.4761E-03     31.7262E-03    -39.3342E-03     65.0552E-03    -25.5949E-03     31.7118E-03
            2443     13.1659E-03     1.01216E-03     10.5648E+06     20.9194E+06    -23.0131E+06    -1.01845E+06    -35.4736E-03     60.1271E-03    -24.6535E-03     23.2618E-03    -35.4213E-03     60.2527E-03    -24.8142E-03     23.2313E-03
            2444     12.2973E-03     1.00558E-03     11.2150E+06    -16.2441E+06    -29.0530E+06    -5.13746E+06    -33.1189E-03     57.1263E-03    -24.0074E-03     18.5568E-03    -32.9991E-03     57.0726E-03    -24.1454E-03     18.4784E-03
            2445     11.4253E-03     1.00328E-03     9.08281E+06    -42.7285E+06    -36.4175E+06    -8.34502E+06    -31.2990E-03     54.7037E-03    -23.4047E-03     14.1724E-03    -31.1398E-03     54.5306E-03    -23.5380E-03     14.0573E-03
            2446     10.5531E-03     1.00064E-03     5.74877E+06    -62.1754E+06    -42.2847E+06    -9.50026E+06    -29.6424E-03     52.4892E-03    -22.8468E-03     11.8116E-03    -29.4627E-03     52.2318E-03    -22.9764E-03     11.6840E-03
            2447     9.67851E-03     998.026E-06     2.72263E+06    -76.4362E+06    -42.9057E+06    -9.43645E+06    -28.1210E-03     50.4717E-03    -22.3507E-03     9.64447E-03    -27.9346E-03     50.1481E-03    -22.4584E-03     9.51939E-03
            2448     8.80357E-03     996.105E-06    -401.313E+03    -87.5956E+06    -40.0119E+06    -8.56743E+06    -26.6922E-03     48.6040E-03    -21.9118E-03     7.94703E-03    -26.5094E-03     48.2248E-03    -21.9842E-03     7.83428E-03
            2449     7.92612E-03     994.119E-06    -3.16422E+06    -92.7107E+06    -33.9007E+06    -7.38760E+06    -25.3883E-03     46.9130E-03    -21.5247E-03     6.54047E-03    -25.2206E-03     46.5033E-03    -21.5552E-03     6.44363E-03
            2450     7.04870E-03     992.483E-06    -5.46303E+06    -96.1674E+06    -27.2137E+06    -5.90678E+06    -24.2265E-03     45.4085E-03    -21.1820E-03     5.36225E-03    -24.0749E-03     44.9751E-03    -21.1707E-03     5.28497E-03
            2451     6.16952E-03     991.104E-06    -7.45580E+06    -99.2258E+06    -21.9948E+06    -4.37214E+06    -23.1870E-03     44.0631E-03    -20.8761E-03     4.37095E-03    -23.0485E-03     43.6097E-03    -20.8314E-03     4.31380E-03
            2452     5.28989E-03     989.783E-06    -9.02908E+06    -98.0354E+06    -17.6807E+06    -3.03712E+06    -22.2871E-03     42.8918E-03    -20.6047E-03     3.49749E-03    -22.1645E-03     42.4404E-03    -20.5379E-03     3.45777E-03
            2453     4.40931E-03     988.798E-06    -9.92816E+06    -96.0482E+06    -14.1752E+06    -1.87276E+06    -21.5254E-03     41.8983E-03    -20.3729E-03     2.73809E-03    -21.4152E-03     41.4530E-03    -20.2901E-03     2.71353E-03
            2454     3.52819E-03     987.909E-06    -10.5981E+06    -92.8290E+06    -12.2290E+06    -967.029E+03    -20.9069E-03     41.0835E-03    -20.1766E-03     2.08804E-03    -20.8075E-03     40.6525E-03    -20.0878E-03     2.07527E-03
            2455     2.64657E-03     987.293E-06    -10.9603E+06    -89.0661E+06    -11.6599E+06    -361.036E+03    -20.4274E-03     40.4445E-03    -20.0171E-03     1.51527E-03    -20.3362E-03     40.0320E-03    -19.9303E-03     1.51041E-03
            2456     1.76459E-03     986.812E-06    -11.0739E+06    -87.4358E+06    -11.3192E+06    -68.5414E+03    -20.0887E-03     39.9917E-03    -19.9030E-03     1.00008E-03    -20.0008E-03     39.5869E-03    -19.8168E-03     999.076E-06
            2457     882.379E-06     986.566E-06    -11.0263E+06    -87.1450E+06    -11.0827E+06     55.6270E+03    -19.8846E-03     39.7158E-03    -19.8312E-03     526.366E-06    -19.7973E-03     39.3122E-03    -19.7443E-03     527.023E-06


