********************************************************************************
Field Output Report, written Tue May 28 19:50:27 2024

Source 1
---------

   ODB: G:/Abaqus_calc_2019/1740/Vel_20/odb/zeides_2a_40_red_2500_cal_100_vel_20_fric_050.odb
   Step: Step-1
   Frame: Increment  12652349: Step Time =   0.9532

Loc 1 : Nodal values from source 1

Output sorted by column "Nodal Label".

Field Output reported at nodes for region: DIE_2A_40_D0_36-1.Region_1
   Computation algorithm: EXTRAPOLATE_COMPUTE_AVERAGE
   Averaged at nodes
   Averaging regions: ODB_REGIONS

      Node Label     COORD.COOR1     COORD.COOR2
                          @Loc 1          @Loc 1
-------------------------------------------------
               1     18.1173E-03     204.979E-03


Field Output reported at nodes for region: DIE_2A_40_D0_36-1.Region_2
   Computation algorithm: EXTRAPOLATE_COMPUTE_AVERAGE
   Averaged at nodes
   Averaging regions: ODB_REGIONS

      Node Label     COORD.COOR1     COORD.COOR2
                          @Loc 1          @Loc 1
-------------------------------------------------
               1     18.1173E-03     204.979E-03


Field Output reported at nodes for part: WIRE-1
   Computation algorithm: EXTRAPOLATE_COMPUTE_AVERAGE
   Averaged at nodes
   Averaging regions: ODB_REGIONS

      Node Label     COORD.COOR1     COORD.COOR2           S.S11           S.S22           S.S33           S.S12         PE.PE11         PE.PE22         PE.PE33         PE.PE12         LE.LE11         LE.LE22         LE.LE33         LE.LE12
                          @Loc 1          @Loc 1          @Loc 1          @Loc 1          @Loc 1          @Loc 1          @Loc 1          @Loc 1          @Loc 1          @Loc 1          @Loc 1          @Loc 1          @Loc 1          @Loc 1
-------------------------------------------------------------------------------------------------------------------------------------------------------------------------------------------------------------------------------------------------
               1    -169.553E-09     96.6664E-03    -128.393E+06    -214.432E+06    -129.309E+06     1.05662E+03    -297.083E-03     595.053E-03    -297.970E-03     15.9781E-03    -297.274E-03     594.402E-03    -298.119E-03     12.6416E-03
               2     13.3712E-03     101.886E-03    -2.07797E+06     70.9880E+06     79.2717E+06     229.943E+03    -296.615E-03     594.266E-03    -297.651E-03     105.114E-03    -300.250E-03     597.916E-03    -297.355E-03     74.9279E-03
               3     13.3844E-03     201.783E-03    -36.1826E+06     67.8808E+06     145.860E+06    -47.6183E+06     160.260E-03     144.268E-03    -304.527E-03    -2.65473E-03     160.495E-03     145.159E-03    -303.844E-03    -3.24182E-03
               4    -19.3275E-06     193.409E-03    -99.9967E+06    -50.6255E+06    -125.051E+06    -12.7343E+06    -285.374E-03     588.627E-03    -303.253E-03    -85.7619E-03    -286.689E-03     587.510E-03    -303.660E-03    -87.1873E-03
               5    -613.465E-09     9.20097E-15    -60.4675E+06    -146.244E+06    -59.5200E+06     472.508E+03    -244.613E-03     489.350E-03    -244.737E-03     82.6278E-06    -244.616E-03     488.793E-03    -244.735E-03    -97.2292E-06
               6     13.1734E-03     9.20097E-15     9.04054E+06     101.381E+06     86.7731E+06     14.0329E+06    -751.389E-03         1.04865    -297.257E-03     244.637E-03    -758.624E-03         1.05610    -296.984E-03     179.002E-03
               7     667.953E-06     96.6919E-03    -127.823E+06    -209.924E+06    -126.237E+06     181.689E+03    -297.476E-03     595.252E-03    -297.776E-03     26.7658E-03    -297.776E-03     594.720E-03    -297.917E-03     21.2763E-03
               8     1.33638E-03     96.7474E-03    -124.998E+06    -196.655E+06    -116.933E+06     480.490E+03    -297.983E-03     595.596E-03    -297.613E-03     49.5491E-03    -298.617E-03     595.427E-03    -297.731E-03     39.4574E-03
               9     2.00457E-03     96.8387E-03    -119.666E+06    -177.895E+06    -101.914E+06     664.221E+03    -298.302E-03     595.970E-03    -297.668E-03     73.5884E-03    -299.493E-03     596.400E-03    -297.746E-03     58.5342E-03
              10     2.67315E-03     96.9649E-03    -112.570E+06    -160.000E+06    -82.6059E+06     961.142E+03    -298.790E-03     596.514E-03    -297.723E-03     97.7539E-03    -300.765E-03     597.760E-03    -297.741E-03     77.5748E-03
              11     3.34112E-03     97.1272E-03    -104.500E+06    -129.692E+06    -62.1819E+06     1.44264E+06    -299.292E-03     597.046E-03    -297.754E-03     121.837E-03    -302.302E-03     599.406E-03    -297.726E-03     96.4189E-03
              12     4.00968E-03     97.3248E-03    -96.0876E+06    -89.8907E+06    -41.2143E+06     1.88871E+06    -299.791E-03     597.546E-03    -297.755E-03     145.807E-03    -304.104E-03     601.319E-03    -297.692E-03     115.028E-03
              13     4.67816E-03     97.5569E-03    -86.5942E+06    -52.7095E+06    -19.0473E+06     1.84695E+06    -300.356E-03     598.104E-03    -297.748E-03     169.694E-03    -306.226E-03     603.535E-03    -297.641E-03     133.435E-03
              14     5.34642E-03     97.8227E-03    -76.3466E+06    -24.8578E+06     445.238E+03     1.51751E+06    -301.009E-03     598.741E-03    -297.732E-03     193.023E-03    -308.662E-03     606.034E-03    -297.583E-03     151.260E-03
              15     6.01566E-03     98.1223E-03    -66.4234E+06    -11.3708E+06     14.9837E+06     2.04883E+06    -301.856E-03     599.575E-03    -297.719E-03     215.640E-03    -311.495E-03     608.895E-03    -297.532E-03     168.424E-03
              16     6.68476E-03     98.4555E-03    -58.1302E+06    -1.75291E+06     25.2347E+06     2.82769E+06    -302.571E-03     600.275E-03    -297.704E-03     236.493E-03    -314.301E-03     611.719E-03    -297.491E-03     184.179E-03
              17     7.35282E-03     98.8152E-03    -51.8904E+06     6.43607E+06     34.2975E+06     2.62261E+06    -303.037E-03     600.729E-03    -297.692E-03     254.063E-03    -316.823E-03     614.254E-03    -297.455E-03     197.211E-03
              18     8.02176E-03     99.2003E-03    -45.1919E+06     15.2575E+06     44.5551E+06     1.24549E+06    -303.438E-03     601.138E-03    -297.699E-03     267.148E-03    -319.024E-03     616.488E-03    -297.433E-03     206.557E-03
              19     8.68982E-03     99.5981E-03    -37.5075E+06     28.1034E+06     55.7749E+06    -550.675E+03    -303.581E-03     601.311E-03    -297.730E-03     274.462E-03    -320.431E-03     617.966E-03    -297.438E-03     211.376E-03
              20     9.35843E-03     100.003E-03    -30.0104E+06     32.3715E+06     63.4964E+06    -1.41836E+06    -303.241E-03     601.017E-03    -297.775E-03     275.343E-03    -320.605E-03     618.204E-03    -297.461E-03     211.250E-03
              21     10.0263E-03     100.404E-03    -23.6232E+06     39.8627E+06     67.9478E+06    -176.385E+03    -301.826E-03     599.612E-03    -297.786E-03     269.276E-03    -318.860E-03     616.507E-03    -297.470E-03     205.879E-03
              22     10.6928E-03     100.780E-03    -18.8560E+06     45.1642E+06     69.7687E+06     902.104E+03    -299.868E-03     597.610E-03    -297.742E-03     257.236E-03    -315.839E-03     613.472E-03    -297.431E-03     195.966E-03
              23     11.3660E-03     101.137E-03    -14.2951E+06      43.692E+06     67.6338E+06    -173.360E+03    -298.783E-03     596.452E-03    -297.669E-03     234.676E-03    -312.559E-03     610.137E-03    -297.374E-03     177.650E-03
              24     12.0335E-03     101.447E-03    -9.21261E+06     59.2475E+06     72.7898E+06    -812.428E+03    -298.332E-03     595.972E-03    -297.639E-03     214.831E-03    -310.377E-03     607.983E-03    -297.348E-03     160.925E-03
              25     12.7023E-03     101.744E-03    -4.31638E+06     70.6601E+06     79.2603E+06    -198.667E+03    -297.366E-03     595.017E-03    -297.651E-03     157.729E-03    -305.091E-03     602.748E-03    -297.351E-03     115.778E-03
              26     13.3681E-03     103.605E-03    -2.41433E+06     70.6626E+06     80.1818E+06     219.852E+03    -295.961E-03     593.642E-03    -297.682E-03     104.898E-03    -299.592E-03     597.284E-03    -297.380E-03     74.7651E-03
              27     13.3721E-03     105.315E-03    -1.99847E+06     70.6062E+06     78.5813E+06     109.135E+03    -296.181E-03     593.823E-03    -297.643E-03     102.471E-03    -299.769E-03     597.427E-03    -297.349E-03     72.3172E-03
              28     13.3684E-03     107.040E-03    -1.70384E+06     70.5794E+06     78.2051E+06    -576.911E+03    -295.857E-03     593.508E-03    -297.652E-03     101.776E-03    -299.433E-03     597.102E-03    -297.361E-03     71.6339E-03
              29     13.3717E-03     108.758E-03    -2.18454E+06     69.8465E+06     77.5264E+06     97.8978E+03    -295.296E-03     592.973E-03    -297.677E-03     105.042E-03    -298.941E-03     596.633E-03    -297.387E-03     74.8790E-03
              30     13.3684E-03     110.476E-03    -2.08395E+06     69.8605E+06     77.5115E+06    -227.224E+03    -296.405E-03     594.053E-03    -297.647E-03     104.124E-03    -300.045E-03     597.708E-03    -297.358E-03     73.7737E-03
              31     13.3716E-03     112.189E-03    -1.88441E+06     63.9319E+06     78.0194E+06    -2.06536E+06    -296.977E-03     594.618E-03    -297.641E-03     101.626E-03    -300.533E-03     598.168E-03    -297.341E-03     71.4015E-03
              32     13.3684E-03     113.919E-03    -1.67294E+06     58.7382E+06     78.0655E+06     227.793E+03    -296.307E-03     594.019E-03    -297.712E-03     102.537E-03    -299.855E-03     597.543E-03    -297.405E-03     72.5384E-03
              33     13.3692E-03     115.634E-03    -2.94479E+06     55.3055E+06     74.8061E+06    -780.205E+03    -295.814E-03     593.529E-03    -297.715E-03     106.343E-03    -299.449E-03     597.133E-03    -297.417E-03     76.1714E-03
              34     13.3711E-03     117.349E-03    -528.775E+03     47.8449E+06     75.0712E+06    -1.94251E+06    -296.077E-03     593.726E-03    -297.649E-03     104.011E-03    -299.652E-03     597.251E-03    -297.342E-03     73.7838E-03
              35     13.3699E-03     119.071E-03    -1.56286E+06     47.6494E+06     75.7742E+06     1.67697E+06    -296.630E-03     594.263E-03    -297.633E-03     103.305E-03    -300.211E-03     597.788E-03    -297.321E-03     73.0632E-03
              36     13.3707E-03     120.791E-03    -3.77921E+06     53.6406E+06     77.7932E+06     982.265E+03    -296.481E-03     594.140E-03    -297.659E-03     104.462E-03    -300.088E-03     597.699E-03    -297.343E-03     74.3015E-03
              37     13.3695E-03     122.511E-03    -1.11747E+06     55.0812E+06     80.9093E+06    -412.065E+03    -295.615E-03     593.272E-03    -297.657E-03     105.776E-03    -299.258E-03     596.871E-03    -297.330E-03     75.5078E-03
              38     13.3730E-03     124.224E-03    -2.16190E+06     54.0037E+06     74.0858E+06    -173.448E+03    -295.836E-03     593.451E-03    -297.615E-03     103.297E-03    -299.433E-03     597.018E-03    -297.320E-03     73.0193E-03
              39     13.3673E-03     125.946E-03    -2.58868E+06     53.6430E+06     71.1568E+06     14.0180E+03    -296.366E-03     594.012E-03    -297.647E-03     101.175E-03    -299.849E-03     597.471E-03    -297.365E-03     71.3029E-03
              40     13.3721E-03     127.659E-03    -1.48685E+06     54.2741E+06     74.2446E+06     441.826E+03    -296.034E-03     593.699E-03    -297.665E-03     101.501E-03    -299.499E-03     597.136E-03    -297.370E-03     71.7783E-03
              41     13.3684E-03     129.381E-03    -1.51095E+06     53.9772E+06     74.7348E+06    -453.533E+03    -296.429E-03     594.077E-03    -297.649E-03     100.303E-03    -299.912E-03     597.530E-03    -297.351E-03     70.3059E-03
              42     13.3713E-03     131.098E-03    -1.57645E+06     53.0271E+06     75.6038E+06    -329.486E+03    -296.778E-03     594.412E-03    -297.634E-03     102.141E-03    -300.316E-03     597.913E-03    -297.331E-03     71.9941E-03
              43     13.3699E-03     132.823E-03    -2.10062E+06     55.2803E+06     76.0227E+06     962.779E+03    -296.729E-03     594.370E-03    -297.641E-03     102.318E-03    -300.271E-03     597.881E-03    -297.338E-03     72.2823E-03
              44     13.3695E-03     134.543E-03    -2.61549E+06     57.2451E+06     77.2601E+06     493.649E+03    -295.055E-03     592.742E-03    -297.687E-03     104.803E-03    -298.664E-03     596.321E-03    -297.380E-03     74.7876E-03
              45     13.3719E-03     136.255E-03    -938.509E+03     58.7921E+06     79.4131E+06     108.515E+03    -294.421E-03     592.077E-03    -297.656E-03     105.761E-03    -298.074E-03     595.705E-03    -297.343E-03     75.5873E-03
              46     13.3703E-03     137.972E-03    -2.21585E+06     58.5316E+06     77.9394E+06    -195.256E+03    -295.834E-03     593.441E-03    -297.608E-03     102.862E-03    -299.423E-03     597.004E-03    -297.300E-03     72.6688E-03
              47     13.3713E-03     139.690E-03    -2.51689E+06     55.1256E+06     80.2739E+06    -880.373E+03    -296.562E-03     594.186E-03    -297.624E-03     102.126E-03    -300.108E-03     597.686E-03    -297.299E-03     72.0603E-03
              48     13.3700E-03     141.411E-03    -1.50232E+06     52.1264E+06     82.4638E+06    -24.7607E+03    -296.233E-03     593.879E-03    -297.646E-03     102.143E-03    -299.753E-03     597.340E-03    -297.307E-03     72.2241E-03
              49     13.3717E-03     143.129E-03    -2.34475E+06     52.1156E+06     78.2208E+06     7.61178E+03    -295.274E-03     592.894E-03    -297.620E-03     104.044E-03    -298.886E-03     596.456E-03    -297.301E-03     73.8344E-03
              50     13.3712E-03     144.845E-03    -2.04604E+06     53.8812E+06     79.9184E+06     194.900E+03    -296.239E-03     593.825E-03    -297.585E-03     104.044E-03    -299.867E-03     597.405E-03    -297.261E-03     73.7144E-03
              51     13.3713E-03     146.566E-03    -2.11506E+06     55.4360E+06     84.0866E+06     1.02335E+06    -296.094E-03     593.711E-03    -297.617E-03     102.544E-03    -299.633E-03     597.196E-03    -297.274E-03     72.6758E-03
              52     13.3712E-03     148.286E-03    -2.07718E+06     57.8066E+06     83.5376E+06     623.091E+03    -294.449E-03     592.098E-03    -297.649E-03     105.362E-03    -298.088E-03     595.692E-03    -297.312E-03     75.3157E-03
              53     13.3716E-03     149.998E-03    -2.52154E+06     56.9292E+06     83.6433E+06    -730.677E+03    -294.538E-03     592.180E-03    -297.642E-03     104.550E-03    -298.179E-03     595.772E-03    -297.303E-03     74.3774E-03
              54     13.3711E-03     151.713E-03    -2.11709E+06     57.8550E+06     84.2453E+06     576.890E+03    -294.457E-03     592.084E-03    -297.628E-03     101.556E-03    -298.016E-03     595.597E-03    -297.287E-03     71.6249E-03
              55     13.3724E-03     153.426E-03    -2.07725E+06     62.4573E+06     82.0594E+06     875.417E+03    -294.110E-03     591.699E-03    -297.589E-03     101.655E-03    -297.653E-03     595.219E-03    -297.266E-03     71.8657E-03
              56     13.3719E-03     155.147E-03    -2.18884E+06     62.9632E+06     85.2333E+06    -49.9796E+03    -294.097E-03     591.713E-03    -297.616E-03     103.145E-03    -297.671E-03     595.255E-03    -297.278E-03     73.3669E-03
              57     13.3711E-03     156.863E-03    -1.82341E+06     63.9290E+06     88.5454E+06     440.273E+03    -293.210E-03     590.861E-03    -297.651E-03     104.049E-03    -296.867E-03     594.482E-03    -297.299E-03     73.9923E-03
              58     13.3733E-03     158.565E-03    -2.57615E+06     64.6051E+06     86.7366E+06    -336.775E+03    -292.227E-03     589.820E-03    -297.592E-03     102.210E-03    -295.834E-03     593.395E-03    -297.248E-03     72.3567E-03
              59     13.3736E-03     160.287E-03    -1.78422E+06     64.9539E+06     89.1611E+06     508.214E+03    -290.468E-03     588.082E-03    -297.614E-03     101.055E-03    -294.027E-03     591.607E-03    -297.260E-03     71.5794E-03
              60     13.3725E-03     161.991E-03    -2.22833E+06     71.2004E+06     90.4280E+06     2.22842E+06    -288.644E-03     586.239E-03    -297.596E-03     105.378E-03    -292.301E-03     589.880E-03    -297.244E-03     75.9705E-03
              61     13.3779E-03     163.690E-03    -3.21737E+06     79.7027E+06     92.9742E+06     1.94836E+06    -287.383E-03     584.825E-03    -297.442E-03     103.643E-03    -290.977E-03     588.422E-03    -297.089E-03     74.6530E-03
              62     13.3780E-03     165.399E-03    -3.01016E+06     82.5901E+06     93.8710E+06    -133.760E+03    -282.881E-03     580.116E-03    -297.235E-03     104.089E-03    -286.515E-03     583.761E-03    -296.881E-03     75.2729E-03
              63     13.3894E-03     167.077E-03    -552.755E+03     87.0419E+06     97.0907E+06     1.89452E+06    -278.943E-03     575.659E-03    -296.716E-03     110.134E-03    -282.736E-03     579.479E-03    -296.356E-03     81.2466E-03
              64     13.3995E-03     168.771E-03    -3.16854E+06     92.4125E+06     99.7208E+06     480.231E+03    -279.407E-03     575.280E-03    -295.874E-03     111.162E-03    -283.226E-03     579.127E-03    -295.504E-03     82.1998E-03
              65     13.4117E-03     170.461E-03     -961.46E+03     91.1381E+06     100.368E+06     75.7622E+03    -279.086E-03     573.975E-03    -294.889E-03     116.446E-03    -283.020E-03     577.938E-03    -294.518E-03     87.1472E-03
              66     13.4294E-03     172.146E-03    -2.22036E+06     92.0315E+06     100.733E+06     626.011E+03    -280.288E-03     573.954E-03    -293.666E-03     122.896E-03    -284.409E-03     578.102E-03    -293.293E-03     92.9708E-03
              67     13.4445E-03     173.837E-03    -2.00235E+06     100.303E+06     108.262E+06     5.95341E+06    -285.777E-03     578.070E-03    -292.293E-03     125.448E-03    -290.000E-03     582.329E-03    -291.894E-03     94.7474E-03
              68     13.4626E-03     175.538E-03    -4.79184E+06     105.828E+06     115.497E+06     2.73737E+06    -293.830E-03     584.580E-03    -290.751E-03     132.921E-03    -298.290E-03     589.066E-03    -290.320E-03     100.779E-03
              69     13.4835E-03     177.251E-03    -1.72461E+06     105.825E+06     117.749E+06    -1.87024E+06    -307.695E-03     596.725E-03    -289.030E-03     138.085E-03    -312.210E-03     601.272E-03    -288.593E-03     104.481E-03
              70     13.4965E-03     179.008E-03    -3.87881E+06     108.369E+06     123.874E+06     1.83126E+06    -326.872E-03     614.471E-03    -287.599E-03     139.356E-03    -331.298E-03     618.913E-03    -287.131E-03     104.804E-03
              71     13.5022E-03     180.787E-03    -2.81812E+06     118.476E+06     133.559E+06     5.14010E+06    -347.414E-03     634.060E-03    -286.646E-03     141.124E-03    -351.828E-03     638.502E-03    -286.146E-03     105.167E-03
              72     13.5037E-03     182.598E-03    -5.18281E+06     122.240E+06     133.230E+06    -500.622E+03    -366.384E-03     652.438E-03    -286.053E-03     141.717E-03    -370.816E-03     656.902E-03    -285.557E-03     103.999E-03
              73     13.5022E-03     184.443E-03    -1.93653E+06     124.892E+06     131.105E+06    -361.619E+03    -383.403E-03     669.060E-03    -285.657E-03     147.850E-03    -387.844E-03     673.562E-03    -285.179E-03     109.215E-03
              74     13.5036E-03     186.316E-03    -5.65456E+06     116.429E+06     125.292E+06    -1.39714E+06    -397.425E-03     682.782E-03    -285.357E-03     151.647E-03    -401.836E-03     687.226E-03    -284.891E-03     112.248E-03
              75     13.5012E-03     188.199E-03      325.36E+03     109.932E+06     124.907E+06     1.03451E+06    -405.395E-03     690.575E-03    -285.180E-03     149.644E-03    -409.751E-03     694.958E-03    -284.715E-03     109.217E-03
              76     13.5040E-03     190.080E-03    -5.78326E+06     95.2499E+06     121.631E+06    -5.09453E+06    -408.306E-03     693.414E-03    -285.108E-03     141.863E-03    -412.484E-03     697.553E-03    -284.630E-03     101.299E-03
              77     13.5009E-03     191.969E-03    -713.642E+03     66.1389E+06     122.716E+06    -4.92227E+06    -408.810E-03     693.924E-03    -285.114E-03     136.842E-03    -412.751E-03     697.741E-03    -284.596E-03     96.7779E-03
              78     13.5051E-03     193.869E-03    -5.31094E+06     53.8156E+06     137.489E+06    -640.893E+03    -402.605E-03     687.913E-03    -285.308E-03     136.800E-03    -406.471E-03     691.557E-03    -284.691E-03     98.1768E-03
              79     13.5024E-03     195.751E-03    -836.092E+03     42.2612E+06     164.773E+06    -2.92345E+06    -383.658E-03     669.421E-03    -285.763E-03     139.904E-03    -387.400E-03     672.835E-03    -285.000E-03     104.640E-03
              80     13.5112E-03     197.568E-03    -2.51994E+06     38.1370E+06     193.937E+06     5.89476E+06    -334.169E-03     620.996E-03    -286.828E-03     138.473E-03    -337.933E-03     624.335E-03    -285.910E-03     107.837E-03
              81     13.5104E-03     199.287E-03     1.17788E+06     37.7264E+06     188.692E+06    -528.717E+03    -247.191E-03     535.972E-03    -288.781E-03     177.178E-03    -251.735E-03     540.115E-03    -287.894E-03     152.497E-03
              82     13.5226E-03     200.874E-03     12.4904E+06     52.4837E+06     165.247E+06    -23.5594E+06    -18.2780E-03     315.518E-03    -297.240E-03     109.397E-03    -20.6814E-03     318.388E-03    -296.508E-03     98.6136E-03
              83     12.1697E-03     201.597E-03    -21.1183E+06    -26.6283E+06     130.670E+06    -12.4603E+06     103.468E-03     210.831E-03    -314.299E-03    -59.1780E-03     103.494E-03     210.932E-03    -313.576E-03    -59.7082E-03
              84     11.3950E-03     201.028E-03    -13.1643E+06    -35.7314E+06     149.252E+06    -13.0332E+06     65.8685E-03     265.263E-03    -331.131E-03    -78.4728E-03     65.5123E-03     265.211E-03    -330.314E-03    -79.5099E-03
              85     10.5234E-03     200.413E-03    -20.2366E+06    -12.3130E+06     163.923E+06    -18.8125E+06     87.3402E-03     258.238E-03    -345.578E-03    -68.6490E-03     86.9580E-03     258.414E-03    -344.711E-03    -69.9937E-03
              86     9.71626E-03     199.790E-03    -10.1556E+06    -18.4387E+06     156.105E+06    -11.9365E+06     90.5660E-03     268.637E-03    -359.203E-03    -127.093E-03     90.4167E-03     268.501E-03    -358.381E-03    -128.757E-03
              87     8.95631E-03     199.145E-03    -15.1546E+06    -1.09665E+06     142.711E+06    -22.4915E+06     89.6443E-03     280.703E-03    -370.347E-03    -191.412E-03     89.8368E-03     280.314E-03    -369.610E-03    -193.774E-03
              88     8.23208E-03     198.498E-03    -24.3090E+06    -20.4684E+06     118.447E+06    -25.2144E+06     85.6704E-03     292.554E-03    -378.224E-03    -264.446E-03     86.4450E-03     291.532E-03    -377.567E-03    -267.459E-03
              89     7.56330E-03     197.845E-03    -26.8608E+06    -19.7740E+06     102.193E+06    -34.8276E+06     80.4245E-03     301.679E-03    -382.103E-03    -340.914E-03     81.8431E-03     299.900E-03    -381.524E-03    -344.629E-03
              90     6.93304E-03     197.214E-03    -36.2888E+06    -31.9642E+06     77.5835E+06    -37.5503E+06     70.3002E-03     311.719E-03    -382.019E-03    -414.220E-03     72.3673E-03     309.055E-03    -381.532E-03    -418.532E-03
              91     6.33671E-03     196.612E-03    -43.9111E+06    -35.1822E+06     54.4919E+06    -44.7482E+06     52.5863E-03     325.766E-03    -378.352E-03    -484.359E-03     55.2686E-03     322.226E-03    -377.965E-03    -489.441E-03
              92     5.76214E-03     196.053E-03    -52.9736E+06    -42.9306E+06     28.8583E+06    -48.9191E+06     26.2987E-03     345.365E-03    -371.663E-03    -545.901E-03     29.4491E-03     341.016E-03    -371.380E-03    -551.816E-03
              93     5.20325E-03     195.544E-03    -62.1760E+06    -48.7981E+06     6.00146E+06    -52.5095E+06    -9.09016E-03     371.798E-03    -362.708E-03    -591.908E-03    -5.76092E-03     366.881E-03    -362.517E-03    -598.687E-03
              94     4.65178E-03     195.089E-03    -72.2733E+06    -53.4410E+06    -13.8786E+06    -53.9779E+06    -51.7879E-03     404.161E-03    -352.373E-03    -615.313E-03    -48.5892E-03     398.981E-03    -352.260E-03    -622.934E-03
              95     4.09955E-03     194.691E-03    -80.2909E+06    -53.8953E+06    -30.2340E+06    -56.2384E+06    -99.0390E-03     440.567E-03    -341.528E-03    -611.959E-03    -96.2603E-03     435.468E-03    -341.484E-03    -620.296E-03
              96     3.54290E-03     194.351E-03    -88.7833E+06    -55.1070E+06    -45.3471E+06    -55.2062E+06    -147.111E-03     477.962E-03    -330.850E-03    -579.400E-03    -145.037E-03     473.261E-03    -330.868E-03    -588.063E-03
              97     2.97910E-03     194.064E-03    -96.0419E+06    -52.2362E+06    -59.4854E+06    -53.2046E+06    -191.800E-03     512.716E-03    -320.916E-03    -518.099E-03    -190.587E-03     508.680E-03    -320.999E-03    -526.610E-03
              98     2.40456E-03     193.832E-03    -101.274E+06    -51.0408E+06    -74.3364E+06    -49.2986E+06    -229.250E-03     541.494E-03    -312.244E-03    -433.625E-03    -228.885E-03     538.264E-03    -312.395E-03    -441.432E-03
              99     1.81693E-03     193.650E-03    -103.554E+06    -48.8481E+06    -86.7688E+06    -42.8776E+06    -257.300E-03     562.589E-03    -305.289E-03    -335.029E-03    -257.684E-03     560.147E-03    -305.502E-03    -341.569E-03
             100     1.21782E-03     193.522E-03    -105.692E+06    -48.1197E+06    -97.9082E+06    -32.0632E+06    -276.693E-03     577.071E-03    -300.378E-03    -228.472E-03    -277.674E-03     575.251E-03    -300.645E-03    -233.383E-03
             101     611.714E-06     193.442E-03    -103.659E+06    -49.8424E+06    -114.322E+06    -19.2055E+06    -284.930E-03     585.787E-03    -300.857E-03    -129.645E-03    -286.200E-03     584.446E-03    -301.206E-03    -132.393E-03
             102     10.3708E-06     191.697E-03    -167.043E+06    -92.3900E+06    -161.612E+06    -13.1085E+06    -233.640E-03     472.205E-03    -238.565E-03    -46.5374E-03    -234.738E-03     471.527E-03    -238.997E-03    -47.5688E-03
             103    -3.44657E-06     190.343E-03    -264.457E+06    -173.563E+06    -258.298E+06    -16.8284E+06    -156.785E-03     309.966E-03    -153.181E-03     3.72106E-03    -157.587E-03     309.750E-03    -153.837E-03     3.22274E-03
             104     2.74858E-06     189.114E-03    -343.607E+06    -245.468E+06    -347.717E+06    -13.8870E+06    -127.838E-03     253.767E-03    -125.928E-03     21.1495E-03    -128.705E-03     253.535E-03    -126.813E-03     20.9220E-03
             105     830.080E-09     187.908E-03     -323.72E+06    -277.112E+06    -320.651E+06     639.213E+03    -128.981E-03     253.534E-03    -124.553E-03     29.6814E-03    -129.738E-03     253.077E-03    -125.285E-03     29.6987E-03
             106     2.23638E-06     186.678E-03    -209.685E+06    -252.952E+06    -207.216E+06     9.53800E+06    -145.792E-03     287.372E-03    -141.580E-03     33.3932E-03    -146.198E-03     286.691E-03    -141.945E-03     33.4764E-03
             107     911.137E-09     185.387E-03    -148.596E+06    -226.267E+06    -144.883E+06     1.83800E+06    -171.921E-03     341.399E-03    -169.479E-03     34.2256E-03    -172.170E-03     340.663E-03    -169.659E-03     34.0432E-03
             108    -547.188E-09     184.014E-03    -131.957E+06    -229.208E+06    -134.677E+06    -2.63115E+06    -201.732E-03     402.857E-03    -201.124E-03     31.1584E-03    -201.917E-03     402.071E-03    -201.274E-03     30.6287E-03
             109     876.670E-09     182.553E-03    -123.132E+06    -237.218E+06    -124.059E+06    -443.790E+03    -231.723E-03     462.990E-03    -231.267E-03     28.1179E-03    -231.874E-03     462.153E-03    -231.365E-03     27.0329E-03
             110    -674.915E-09     181.004E-03    -121.888E+06    -240.518E+06    -124.233E+06    -721.672E+03    -258.355E-03     515.983E-03    -257.628E-03     25.3472E-03    -258.494E-03     515.147E-03    -257.724E-03     23.6488E-03
             111     1.35157E-06     179.373E-03    -129.239E+06    -244.330E+06    -134.273E+06    -650.175E+03    -278.614E-03     556.084E-03    -277.470E-03     22.4401E-03    -278.759E-03     555.271E-03    -277.600E-03     20.2816E-03
             112    -640.734E-09     177.695E-03    -139.416E+06    -249.086E+06    -136.500E+06    -930.709E+03    -291.341E-03     583.282E-03    -291.940E-03     20.6633E-03    -291.526E-03     582.474E-03    -292.059E-03     17.9904E-03
             113    -948.835E-09     175.978E-03    -146.603E+06    -256.226E+06    -146.470E+06    -1.09579E+06    -300.767E-03     601.881E-03    -301.115E-03     18.3011E-03    -300.962E-03     601.067E-03    -301.263E-03     15.2381E-03
             114     1.98692E-06     174.232E-03    -149.108E+06    -264.183E+06    -153.651E+06    -1.27225E+06    -307.880E-03     612.963E-03    -305.083E-03     17.0561E-03    -308.065E-03     612.128E-03    -305.252E-03     13.7401E-03
             115     573.439E-09     172.481E-03    -150.252E+06    -275.082E+06    -150.705E+06    -1.33176E+06    -309.416E-03     616.625E-03    -307.209E-03     15.6320E-03    -309.594E-03     615.731E-03    -307.346E-03     12.2449E-03
             116    -263.010E-09     170.723E-03    -150.066E+06    -280.578E+06    -150.943E+06    -145.751E+03    -308.422E-03     615.565E-03    -307.143E-03     15.1584E-03    -308.591E-03     614.643E-03    -307.273E-03     11.6993E-03
             117     1.60393E-06     168.969E-03    -150.898E+06    -284.990E+06    -149.340E+06    -588.779E+03    -307.320E-03     613.346E-03    -306.025E-03     16.5730E-03    -307.492E-03     612.404E-03    -306.140E-03     13.0965E-03
             118    -1.27021E-06     167.225E-03    -141.343E+06    -284.120E+06    -143.321E+06     691.929E+03    -305.002E-03     610.173E-03    -305.170E-03     15.4097E-03    -305.135E-03     609.212E-03    -305.270E-03     11.9524E-03
             119     659.779E-09     165.484E-03    -142.024E+06    -280.989E+06    -141.544E+06    -508.250E+03    -302.938E-03     606.620E-03    -303.682E-03     15.5102E-03    -303.083E-03     605.675E-03    -303.777E-03     11.9970E-03
             120    -1.06802E-06     163.748E-03    -144.562E+06    -281.684E+06    -144.678E+06     689.025E+03    -302.207E-03     604.393E-03    -302.185E-03     15.9185E-03    -302.360E-03     603.453E-03    -302.291E-03     12.4509E-03
             121     1.46458E-06     162.017E-03    -141.498E+06    -275.963E+06    -141.049E+06      940.87E+03    -302.009E-03     602.906E-03    -300.897E-03     15.4680E-03    -302.158E-03     601.984E-03    -300.997E-03     12.0284E-03
             122    -410.489E-09     160.288E-03    -136.765E+06    -271.892E+06    -138.031E+06    -223.232E+03    -301.178E-03     601.304E-03    -300.126E-03     15.1971E-03    -301.312E-03     600.389E-03    -300.224E-03     11.8377E-03
             123     713.053E-09     158.560E-03    -137.621E+06    -271.079E+06    -136.994E+06     126.882E+03    -300.058E-03     599.836E-03    -299.779E-03     15.6459E-03    -300.202E-03     598.927E-03    -299.871E-03     12.1954E-03
             124    -674.357E-09     156.835E-03    -139.573E+06     -268.76E+06    -136.207E+06     508.115E+03    -299.421E-03     598.819E-03    -299.398E-03     15.8254E-03    -299.577E-03     597.922E-03    -299.487E-03     12.5147E-03
             125     651.334E-09     155.112E-03    -132.670E+06    -260.108E+06    -135.557E+06     1.15808E+06    -299.145E-03     597.660E-03    -298.516E-03     16.2604E-03    -299.282E-03     596.797E-03    -298.624E-03     12.9016E-03
             126     139.644E-09     153.388E-03    -135.101E+06    -257.606E+06    -135.445E+06    -65.5696E+03    -298.778E-03     596.767E-03    -297.989E-03     17.5225E-03    -298.937E-03     595.926E-03    -298.097E-03     13.9529E-03
             127     61.2650E-09     151.671E-03    -139.392E+06    -257.380E+06    -137.823E+06     526.335E+03    -298.476E-03     596.565E-03    -298.089E-03     16.6069E-03    -298.651E-03     595.732E-03    -298.203E-03     13.1442E-03
             128     220.350E-09     149.950E-03    -132.661E+06    -249.455E+06    -134.880E+06     868.006E+03    -298.811E-03     595.991E-03    -297.179E-03     15.1535E-03    -298.963E-03     595.178E-03    -297.300E-03     11.8095E-03
             129     1.62881E-06     148.233E-03    -133.743E+06    -246.661E+06    -134.053E+06    -191.830E+03    -298.731E-03     595.577E-03    -296.846E-03     15.7837E-03    -298.893E-03     594.779E-03    -296.964E-03     12.4925E-03
             130    -1.00318E-06     146.514E-03    -136.806E+06    -246.665E+06    -137.073E+06     380.905E+03    -297.990E-03     595.901E-03    -297.911E-03     16.1196E-03    -298.164E-03     595.113E-03    -298.040E-03     12.8162E-03
             131     435.501E-09     144.791E-03    -134.290E+06    -240.067E+06    -133.734E+06     1.30999E+06    -297.856E-03     595.556E-03    -297.700E-03     15.8684E-03    -298.030E-03     594.790E-03    -297.826E-03     12.6267E-03
             132     300.133E-09     143.076E-03    -134.257E+06    -237.448E+06    -134.482E+06    -964.462E+03    -297.978E-03     595.901E-03    -297.923E-03     17.1865E-03    -298.163E-03     595.157E-03    -298.056E-03     13.6609E-03
             133    -1.01619E-06     141.354E-03    -136.795E+06    -236.403E+06    -136.559E+06     449.748E+03    -298.338E-03     596.424E-03    -298.086E-03     15.3536E-03    -298.529E-03     595.687E-03    -298.227E-03     11.9447E-03
             134     2.04142E-06     139.635E-03    -135.351E+06    -231.390E+06    -135.775E+06     562.572E+03    -298.690E-03     595.742E-03    -297.052E-03     15.6176E-03    -298.879E-03     595.024E-03    -297.199E-03     12.3442E-03
             135    -923.110E-09     137.915E-03    -133.428E+06    -226.811E+06    -133.558E+06     1.01474E+06    -297.598E-03     595.124E-03    -297.527E-03     16.6700E-03    -297.791E-03     594.427E-03    -297.672E-03     13.3017E-03
             136    -153.440E-09     136.198E-03    -133.761E+06    -223.575E+06    -129.261E+06     261.848E+03    -297.630E-03     595.188E-03    -297.558E-03     16.1460E-03    -297.833E-03     594.497E-03    -297.686E-03     12.9121E-03
             137     1.31565E-06     134.479E-03     -126.51E+06    -222.905E+06    -131.024E+06    -20.8236E+03    -298.824E-03     595.828E-03    -297.004E-03     16.4929E-03    -298.992E-03     595.136E-03    -297.152E-03     13.1233E-03
             138    -134.845E-09     132.760E-03    -127.493E+06    -219.966E+06    -127.864E+06     898.160E+03    -298.299E-03     595.513E-03    -297.214E-03     15.7351E-03    -298.479E-03     594.831E-03    -297.349E-03     12.3999E-03
             139     361.429E-09     131.043E-03    -127.224E+06    -218.944E+06    -126.794E+06    -711.828E+03    -297.854E-03     595.193E-03    -297.339E-03     15.7365E-03    -298.035E-03     594.513E-03    -297.471E-03     12.4388E-03
             140     63.2681E-09     129.323E-03    -124.864E+06    -217.922E+06    -126.203E+06     925.863E+03    -298.116E-03     595.509E-03    -297.393E-03     15.9277E-03    -298.289E-03     594.832E-03    -297.527E-03     12.5808E-03
             141     425.220E-09     127.604E-03    -125.175E+06    -215.661E+06    -124.433E+06    -303.053E+03    -297.394E-03     595.344E-03    -297.950E-03     16.4859E-03    -297.575E-03     594.676E-03    -298.078E-03     13.1614E-03
             142    -1.70189E-06     125.886E-03    -126.810E+06    -215.752E+06    -126.769E+06    -73.5675E+03    -295.734E-03     594.480E-03    -298.746E-03     15.8813E-03    -295.918E-03     593.816E-03    -298.883E-03     12.5616E-03
             143    -1.09172E-06     124.171E-03    -130.734E+06    -215.068E+06    -127.683E+06     232.011E+03    -296.434E-03     594.623E-03    -298.188E-03     15.4770E-03    -296.637E-03     593.968E-03    -298.325E-03     12.1486E-03
             144     1.52864E-06     122.451E-03    -128.675E+06    -213.720E+06    -130.721E+06     24.7278E+03    -299.196E-03     596.060E-03    -296.864E-03     16.0347E-03    -299.387E-03     595.415E-03    -297.021E-03     12.6859E-03
             145     1.08804E-06     120.729E-03    -131.406E+06    -213.354E+06    -131.093E+06     317.956E+03    -299.446E-03     596.184E-03    -296.738E-03     16.1504E-03    -299.651E-03     595.546E-03    -296.894E-03     12.7926E-03
             146    -131.110E-09     119.013E-03    -129.892E+06    -213.451E+06    -130.799E+06    -421.258E+03    -298.662E-03     595.667E-03    -297.005E-03     15.5026E-03    -298.859E-03     595.025E-03    -297.162E-03     12.1519E-03
             147     1.34392E-06     117.291E-03    -129.022E+06    -213.860E+06    -129.860E+06     40.8336E+03    -298.351E-03     595.637E-03    -297.286E-03     16.4123E-03    -298.543E-03     594.990E-03    -297.439E-03     13.1895E-03
             148    -1.19786E-06     115.571E-03    -129.488E+06    -216.775E+06    -129.313E+06    -675.344E+03    -297.527E-03     595.515E-03    -297.989E-03     17.0495E-03    -297.721E-03     594.856E-03    -298.133E-03     13.6905E-03
             149     375.864E-09     113.854E-03    -129.322E+06    -218.061E+06    -126.643E+06     513.906E+03    -297.530E-03     595.430E-03    -297.900E-03     16.2527E-03    -297.725E-03     594.760E-03    -298.029E-03     12.8822E-03
             150    -70.4821E-09     112.136E-03    -125.400E+06    -215.965E+06    -127.275E+06    -65.8664E+03    -298.244E-03     595.463E-03    -297.219E-03     15.7392E-03    -298.418E-03     594.795E-03    -297.360E-03     12.5008E-03
             151     1.07466E-06     110.417E-03    -127.716E+06    -216.097E+06    -129.575E+06     189.148E+03    -297.646E-03     595.281E-03    -297.635E-03     16.1278E-03    -297.829E-03     594.621E-03    -297.784E-03     12.8344E-03
             152    -2.12833E-06     108.699E-03    -131.538E+06    -214.179E+06    -129.956E+06     141.354E+03    -296.413E-03     595.223E-03    -298.810E-03     16.3512E-03    -296.619E-03     594.580E-03    -298.958E-03     13.0219E-03
             153    -56.9511E-09     106.979E-03    -133.124E+06    -214.726E+06    -131.585E+06    -475.374E+03    -297.659E-03     595.335E-03    -297.676E-03     15.2091E-03    -297.867E-03     594.692E-03    -297.830E-03     11.8635E-03
             154     2.19958E-06     105.262E-03    -134.386E+06    -217.784E+06    -135.162E+06    -158.455E+03    -299.484E-03     595.816E-03    -296.332E-03     16.3057E-03    -299.693E-03     595.168E-03    -296.498E-03     12.8761E-03
             155    -183.817E-09     103.541E-03    -133.577E+06    -214.800E+06    -132.063E+06     932.404E+03    -298.906E-03     595.959E-03    -297.053E-03     16.6987E-03    -299.120E-03     595.319E-03    -297.208E-03     13.3938E-03
             156     603.184E-09     101.820E-03    -130.043E+06    -212.584E+06    -132.461E+06    -433.729E+03    -298.513E-03     595.273E-03    -296.760E-03     16.5769E-03    -298.709E-03     594.638E-03    -296.926E-03     13.2943E-03
             157     1.24392E-06     100.104E-03    -130.411E+06    -214.528E+06    -131.596E+06    -121.452E+03    -298.406E-03     594.957E-03    -296.551E-03     16.9188E-03    -298.606E-03     594.315E-03    -296.709E-03     13.4976E-03
             158    -677.261E-09     98.3865E-03    -130.145E+06    -214.858E+06    -129.276E+06    -59.3728E+03    -297.503E-03     595.180E-03    -297.677E-03     16.6730E-03    -297.703E-03     594.531E-03    -297.824E-03     13.3599E-03
             159    -220.125E-09     94.9517E-03    -132.298E+06    -214.284E+06    -128.458E+06     2.86119E+03    -297.807E-03     595.288E-03    -297.480E-03     16.0478E-03    -298.021E-03     594.643E-03    -297.620E-03     12.6369E-03
             160     1.03831E-06     93.2296E-03    -126.910E+06    -210.588E+06    -130.521E+06     147.766E+03    -298.605E-03     595.695E-03    -297.090E-03     15.9033E-03    -298.790E-03     595.061E-03    -297.254E-03     12.6694E-03
             161     89.8508E-09     91.5118E-03    -128.679E+06    -209.961E+06    -128.844E+06     402.104E+03    -297.830E-03     595.195E-03    -297.366E-03     16.1136E-03    -298.028E-03     594.565E-03    -297.519E-03     12.8466E-03
             162    -647.398E-09     89.7951E-03    -131.857E+06    -211.951E+06    -129.880E+06    -358.109E+03    -297.421E-03     595.418E-03    -297.997E-03     16.4149E-03    -297.633E-03     594.787E-03    -298.148E-03     12.9873E-03
             163     405.645E-09     88.0719E-03    -128.826E+06    -211.239E+06    -130.221E+06     465.447E+03    -298.096E-03     595.711E-03    -297.615E-03     16.5292E-03    -298.294E-03     595.081E-03    -297.773E-03     13.1059E-03
             164     418.502E-09     86.3552E-03    -128.686E+06    -210.698E+06    -126.578E+06    -354.887E+03    -298.088E-03     595.381E-03    -297.293E-03     16.9299E-03    -298.291E-03     594.747E-03    -297.434E-03     13.5851E-03
             165    -219.585E-09     84.6360E-03    -126.128E+06    -210.400E+06    -128.778E+06     118.958E+03    -297.702E-03     595.296E-03    -297.594E-03     16.5182E-03    -297.890E-03     594.664E-03    -297.750E-03     13.0905E-03
             166     93.7272E-09     82.9189E-03    -127.481E+06    -207.524E+06    -125.943E+06     443.420E+03    -297.931E-03     595.344E-03    -297.413E-03     16.1949E-03    -298.133E-03     594.722E-03    -297.557E-03     12.8447E-03
             167     692.003E-09     81.1982E-03    -127.536E+06    -209.352E+06    -128.547E+06    -1.15280E+06    -298.262E-03     595.149E-03    -296.887E-03     16.1401E-03    -298.455E-03     594.519E-03    -297.041E-03     12.8674E-03
             168     302.140E-09     79.4826E-03    -131.162E+06    -211.461E+06    -130.291E+06     791.215E+03    -297.335E-03     595.213E-03    -297.878E-03     17.0051E-03    -297.547E-03     594.587E-03    -298.032E-03     13.5332E-03
             169    -2.06602E-06     77.7626E-03    -129.455E+06    -207.997E+06    -128.475E+06     383.022E+03    -297.375E-03     595.511E-03    -298.135E-03     15.6768E-03    -297.581E-03     594.894E-03    -298.288E-03     12.3287E-03
             170     2.78541E-06     76.0430E-03    -125.732E+06    -208.167E+06    -129.895E+06    -352.030E+03    -297.137E-03     594.754E-03    -297.617E-03     16.4419E-03    -297.320E-03     594.136E-03    -297.783E-03     13.0730E-03
             171    -4.23515E-06     74.3283E-03    -132.795E+06    -210.258E+06    -129.731E+06    -127.382E+03    -296.131E-03     594.729E-03    -298.597E-03     16.5051E-03    -296.349E-03     594.114E-03    -298.749E-03     13.0061E-03
             172     2.36562E-06     72.6094E-03    -131.762E+06    -209.178E+06    -132.435E+06     317.070E+03    -298.319E-03     595.776E-03    -297.457E-03     14.9264E-03    -298.525E-03     595.160E-03    -297.625E-03     11.6596E-03
             173     615.923E-09     70.8880E-03    -128.676E+06    -206.417E+06    -129.541E+06     149.778E+03    -299.305E-03     595.550E-03    -296.246E-03     16.2453E-03    -299.506E-03     594.939E-03    -296.408E-03     13.0236E-03
             174     429.411E-09     69.1707E-03    -130.937E+06    -209.013E+06    -130.446E+06    -883.211E+03    -297.997E-03     594.776E-03    -296.779E-03     16.5063E-03    -298.208E-03     594.159E-03    -296.938E-03     13.1071E-03
             175     108.687E-09     67.4527E-03    -132.086E+06    -209.279E+06    -129.985E+06     652.289E+03    -298.090E-03     594.625E-03    -296.536E-03     16.2353E-03    -298.308E-03     594.010E-03    -296.691E-03     12.7917E-03
             176     1.40659E-06     65.7364E-03    -126.063E+06    -206.554E+06    -129.511E+06    -246.909E+03    -298.401E-03     595.041E-03    -296.640E-03     16.6868E-03    -298.593E-03     594.429E-03    -296.805E-03     13.2924E-03
             177    -649.407E-09     64.0161E-03    -128.489E+06    -207.290E+06    -128.756E+06     107.597E+03    -297.170E-03     594.768E-03    -297.598E-03     16.3001E-03    -297.373E-03     594.153E-03    -297.755E-03     12.9856E-03
             178    -731.382E-09     62.3017E-03    -131.251E+06    -207.399E+06    -127.543E+06     486.390E+03    -296.992E-03     594.665E-03    -297.673E-03     15.4122E-03    -297.209E-03     594.049E-03    -297.819E-03     12.1204E-03
             179     1.19809E-06     60.5838E-03      -126.1E+06    -205.500E+06    -127.348E+06    -65.7544E+03    -298.521E-03     595.298E-03    -296.777E-03     15.3700E-03    -298.714E-03     594.683E-03    -296.933E-03     12.0841E-03
             180     619.223E-09     58.8612E-03    -124.789E+06    -204.191E+06    -126.902E+06     30.9277E+03    -297.548E-03     594.729E-03    -297.180E-03     16.5823E-03    -297.740E-03     594.120E-03    -297.338E-03     13.2982E-03
             181    -2.01762E-06     57.1487E-03    -129.244E+06    -204.355E+06    -127.614E+06     166.770E+03    -296.816E-03     594.533E-03    -297.716E-03     15.8830E-03    -297.026E-03     593.930E-03    -297.871E-03     12.6291E-03
             182     2.18013E-06     55.4282E-03    -127.998E+06    -203.004E+06    -129.770E+06     165.335E+03    -298.581E-03     594.996E-03    -296.415E-03     15.7068E-03    -298.783E-03     594.402E-03    -296.584E-03     12.4024E-03
             183     493.158E-09     53.7097E-03    -129.961E+06    -202.325E+06    -127.134E+06     211.527E+03    -298.186E-03     594.741E-03    -296.556E-03     17.1231E-03    -298.406E-03     594.152E-03    -296.710E-03     13.7756E-03
             184    -1.02505E-06     51.9942E-03    -126.281E+06    -201.940E+06    -127.965E+06    -539.239E+03    -296.297E-03     594.363E-03    -298.066E-03     16.2331E-03    -296.499E-03     593.771E-03    -298.230E-03     12.8427E-03
             185    -867.889E-09     50.2774E-03    -128.787E+06    -203.467E+06    -127.758E+06    -142.792E+03    -296.778E-03     594.463E-03    -297.685E-03     15.6731E-03    -296.990E-03     593.868E-03    -297.842E-03     12.2216E-03
             186     1.52257E-06     48.5582E-03    -129.178E+06    -203.134E+06    -128.568E+06     463.535E+03    -297.941E-03     594.021E-03    -296.079E-03     15.9733E-03    -298.154E-03     593.427E-03    -296.240E-03     12.6014E-03
             187     277.080E-09     46.8433E-03    -126.599E+06    -201.016E+06    -129.495E+06    -215.227E+03    -296.474E-03     593.103E-03    -296.629E-03     17.2310E-03    -296.677E-03     592.520E-03    -296.802E-03     13.9111E-03
             188    -2.37235E-06     45.1298E-03    -129.272E+06    -201.695E+06    -126.773E+06    -8.41110E+03    -295.601E-03     592.636E-03    -297.034E-03     15.4893E-03    -295.816E-03     592.046E-03    -297.188E-03     12.1904E-03
             189     2.53347E-06     43.4163E-03    -127.985E+06    -202.319E+06    -128.758E+06    -40.0845E+03    -295.830E-03     592.081E-03    -296.251E-03     15.8213E-03    -296.035E-03     591.492E-03    -296.416E-03     12.5069E-03
             190    -3.30671E-06     41.7038E-03    -127.973E+06    -201.615E+06    -127.289E+06     528.707E+03    -295.684E-03     591.965E-03    -296.281E-03     15.5775E-03    -295.889E-03     591.377E-03    -296.440E-03     12.3021E-03
             191     3.24389E-06     39.9912E-03    -126.040E+06    -200.301E+06    -127.209E+06     252.468E+03    -296.531E-03     591.949E-03    -295.418E-03     15.0975E-03    -296.726E-03     591.362E-03    -295.581E-03     11.9000E-03
             192    -1.74131E-06     38.2771E-03    -127.615E+06    -199.081E+06    -126.896E+06     258.995E+03    -295.761E-03     591.245E-03    -295.484E-03     16.2587E-03    -295.971E-03     590.666E-03    -295.644E-03     13.0266E-03
             193     564.344E-09     36.5671E-03    -128.313E+06    -197.695E+06    -128.032E+06     70.1517E+03    -295.112E-03     590.765E-03    -295.653E-03     15.4791E-03    -295.326E-03     590.194E-03    -295.821E-03     12.2266E-03
             194    -148.727E-09     34.8570E-03    -124.544E+06    -193.128E+06    -125.568E+06     808.730E+03    -295.781E-03     589.750E-03    -293.968E-03     14.3428E-03    -295.984E-03     589.190E-03    -294.136E-03     11.1538E-03
             195     2.12962E-06     33.1498E-03    -123.981E+06    -192.215E+06    -125.145E+06    -611.459E+03    -295.289E-03     588.361E-03    -293.072E-03     14.9771E-03    -295.489E-03     587.804E-03    -293.240E-03     11.8849E-03
             196    -1.18663E-06     31.4432E-03    -126.149E+06    -193.356E+06    -124.622E+06     431.118E+03    -294.251E-03     587.722E-03    -293.471E-03     15.1140E-03    -294.461E-03     587.161E-03    -293.631E-03     12.0400E-03
             197     1.26279E-06     29.7381E-03    -121.876E+06    -188.513E+06    -123.359E+06     990.597E+03    -293.599E-03     586.032E-03    -292.433E-03     14.0275E-03    -293.796E-03     585.485E-03    -292.600E-03     10.9679E-03
             198     189.602E-09     28.0377E-03    -120.057E+06    -184.734E+06    -121.444E+06    -418.138E+03    -292.071E-03     583.537E-03    -291.465E-03     14.7369E-03    -292.267E-03     583.003E-03    -291.630E-03     11.7215E-03
             199    -877.879E-09     26.3417E-03    -120.612E+06    -184.206E+06    -119.249E+06     411.151E+03    -289.836E-03     580.603E-03    -290.767E-03     13.5448E-03    -290.037E-03     580.068E-03    -290.921E-03     10.5403E-03
             200     303.832E-09     24.6511E-03    -119.677E+06    -182.791E+06    -118.336E+06     122.667E+03    -287.596E-03     576.123E-03    -288.527E-03     12.9630E-03    -287.792E-03     575.589E-03    -288.680E-03     10.1508E-03
             201    -993.875E-09     22.9692E-03    -118.248E+06    -183.163E+06    -120.078E+06      80.555E+03    -283.895E-03     569.399E-03    -285.504E-03     11.9570E-03    -284.077E-03     568.858E-03    -285.668E-03     9.33768E-03
             202    -524.965E-09     21.3029E-03    -119.675E+06    -183.178E+06    -118.547E+06     146.004E+03    -279.378E-03     560.095E-03    -280.717E-03     10.0203E-03    -279.565E-03     559.549E-03    -280.871E-03     7.55483E-03
             203     242.666E-09     19.6533E-03    -118.100E+06    -183.011E+06    -117.958E+06    -349.055E+03    -273.793E-03     548.408E-03    -274.614E-03     8.93518E-03    -273.971E-03     547.856E-03    -274.768E-03     6.62514E-03
             204    -1.06881E-06     18.0237E-03    -116.765E+06    -182.528E+06    -117.267E+06     190.858E+03    -266.346E-03     533.762E-03    -267.416E-03     7.68118E-03    -266.516E-03     533.205E-03    -267.568E-03     5.61579E-03
             205     444.556E-09     16.4206E-03    -115.691E+06    -180.666E+06    -115.460E+06     253.107E+03    -258.157E-03     516.875E-03    -258.718E-03     6.27300E-03    -258.322E-03     516.318E-03    -258.866E-03     4.51678E-03
             206    -564.165E-09     14.8497E-03    -114.526E+06    -180.651E+06    -114.829E+06    -3.80775E+03    -249.302E-03     498.466E-03    -249.165E-03     4.18180E-03    -249.460E-03     497.902E-03    -249.311E-03     2.62726E-03
             207     917.219E-09     13.3027E-03    -113.247E+06    -184.659E+06    -113.040E+06    -517.563E+03    -239.550E-03     478.458E-03    -238.908E-03     2.48463E-03    -239.695E-03     477.866E-03    -239.041E-03     1.20051E-03
             208    -311.091E-09     11.7940E-03    -112.973E+06    -178.926E+06    -115.454E+06     2.82970E+06    -229.029E-03     457.733E-03    -228.703E-03     1.75920E-03    -229.177E-03     457.172E-03    -228.858E-03     639.871E-06
             209     187.992E-09     10.3079E-03    -108.674E+06    -153.423E+06    -107.231E+06     4.91315E+06    -218.014E-03     436.324E-03    -218.310E-03     137.821E-06    -218.189E-03     435.870E-03    -218.466E-03    -862.335E-06
             210    -433.141E-09     8.86463E-03    -95.0819E+06    -134.837E+06    -95.1772E+06     1.01901E+06    -209.115E-03     418.343E-03    -209.228E-03     894.536E-06    -209.265E-03     417.948E-03    -209.371E-03    -145.388E-06
             211     543.092E-09     7.43037E-03    -89.9559E+06    -129.800E+06    -88.5020E+06     369.035E+03    -204.926E-03     409.327E-03    -204.400E-03     2.53788E-03    -205.067E-03     408.944E-03    -204.524E-03     1.46007E-03
             212     143.541E-09     6.01193E-03    -96.7465E+06    -130.312E+06    -95.4871E+06    -878.130E+03    -207.895E-03     416.318E-03    -208.423E-03     7.48151E-03    -208.069E-03     415.948E-03    -208.572E-03     6.45526E-03
             213    -1.52954E-06     4.56184E-03    -103.735E+06    -141.733E+06    -103.430E+06    -2.41521E+06    -218.713E-03     439.137E-03    -220.424E-03     8.65383E-03    -218.894E-03     438.730E-03    -220.585E-03     7.70696E-03
             214     496.476E-09     3.06754E-03    -84.9300E+06    -152.283E+06    -85.4585E+06    -681.529E+03    -231.933E-03     463.873E-03    -231.940E-03     7.04634E-03    -232.022E-03     463.359E-03    -232.023E-03     6.33742E-03
             215     529.898E-09     1.54746E-03    -63.4741E+06    -150.249E+06    -63.2504E+06     1.27012E+06    -241.373E-03     482.094E-03    -240.721E-03     4.64412E-03    -241.386E-03     481.525E-03    -240.727E-03     4.27496E-03
             216     704.599E-06     9.20097E-15    -59.9439E+06    -143.675E+06    -58.7561E+06     333.433E+03    -244.454E-03     489.100E-03    -244.646E-03     2.35206E-03    -244.461E-03     488.554E-03    -244.644E-03     2.02581E-03
             217     1.40660E-03     9.20097E-15    -58.7055E+06    -136.602E+06    -56.4308E+06    -919.893E+03    -244.226E-03     488.720E-03    -244.494E-03     6.60444E-03    -244.244E-03     488.207E-03    -244.493E-03     5.94170E-03
             218     2.11118E-03     9.20097E-15    -56.6664E+06    -120.580E+06    -51.2437E+06    -699.960E+03    -243.963E-03     488.338E-03    -244.375E-03     9.84618E-03    -244.007E-03     487.900E-03    -244.374E-03     8.86145E-03
             219     2.81504E-03     9.20097E-15    -53.9374E+06    -92.8041E+06    -43.0634E+06     69.2861E+03    -243.643E-03     487.893E-03    -244.250E-03     12.8199E-03    -243.732E-03     487.585E-03    -244.253E-03     11.5198E-03
             220     3.51943E-03     9.20097E-15    -50.1783E+06    -57.5990E+06    -33.6599E+06    -1.60041E+06    -243.614E-03     487.756E-03    -244.142E-03     15.9437E-03    -243.757E-03     487.613E-03    -244.154E-03     14.3178E-03
             221     4.22381E-03     9.20097E-15    -44.4760E+06    -30.7643E+06    -21.4520E+06    -3.09084E+06    -243.837E-03     487.952E-03    -244.115E-03     19.2260E-03    -244.019E-03     487.928E-03    -244.113E-03     17.2610E-03
             222     4.92673E-03     9.20097E-15    -37.9319E+06    -18.8991E+06    -9.03765E+06    -2.56682E+06    -244.222E-03     488.393E-03    -244.171E-03     23.0504E-03    -244.421E-03     488.416E-03    -244.134E-03     20.7393E-03
             223     5.63086E-03     9.20097E-15    -32.0143E+06    -12.2185E+06    -1.69929E+06    -1.95056E+06    -245.093E-03     489.378E-03    -244.285E-03     25.6086E-03    -245.296E-03     489.429E-03    -244.230E-03     22.9793E-03
             224     6.33456E-03     9.20097E-15    -27.0443E+06    -6.21276E+06     4.88658E+06    -1.35247E+06    -246.689E-03     491.202E-03    -244.513E-03     27.9660E-03    -246.900E-03     491.281E-03    -244.441E-03     25.0152E-03
             225     7.03497E-03     9.20097E-15    -23.1441E+06     370.346E+03     15.6526E+06     1.44506E+06    -249.551E-03     494.494E-03    -244.943E-03     32.3874E-03    -249.795E-03     494.610E-03    -244.832E-03     28.9894E-03
             226     7.73382E-03     9.20097E-15    -20.6174E+06     4.92335E+06     27.9328E+06     1.80508E+06    -254.075E-03     499.723E-03    -245.648E-03     35.3302E-03    -254.355E-03     499.867E-03    -245.486E-03     31.4231E-03
             227     8.43093E-03     9.20097E-15    -17.4196E+06     10.2620E+06     40.2869E+06     392.684E+03    -260.706E-03     507.408E-03    -246.702E-03     36.6546E-03    -261.025E-03     507.587E-03    -246.490E-03     32.0732E-03
             228     9.12144E-03     9.20097E-15    -14.1273E+06     17.7373E+06     48.9359E+06     629.240E+03    -270.749E-03     518.956E-03    -248.208E-03     39.3624E-03    -271.114E-03     519.195E-03    -247.968E-03     33.9365E-03
             229     9.80323E-03     9.20097E-15    -10.7954E+06     25.2007E+06     53.5604E+06     1.62607E+06    -286.536E-03     536.911E-03    -250.375E-03     44.0866E-03    -286.971E-03     537.248E-03    -250.128E-03     37.3813E-03
             230     10.4739E-03     9.20097E-15    -8.11764E+06     34.2435E+06     57.8127E+06     748.268E+03    -311.121E-03     564.657E-03    -253.537E-03     46.2501E-03    -311.624E-03     565.098E-03    -253.285E-03     37.9133E-03
             231     11.1283E-03     9.20097E-15    -6.94638E+06     43.2035E+06     61.7882E+06    -228.525E+03    -350.694E-03     608.867E-03    -258.173E-03     51.6740E-03    -351.321E-03     609.471E-03    -257.917E-03     40.8737E-03
             232     11.7456E-03     9.20097E-15    -7.53135E+06     51.4996E+06     64.0270E+06     682.578E+03    -416.812E-03     681.855E-03    -265.043E-03     67.6160E-03    -417.745E-03     682.822E-03    -264.786E-03     51.6702E-03
             233     12.3184E-03     9.20097E-15    -10.0158E+06     61.0976E+06     63.7639E+06     2.38051E+06    -520.206E-03     795.325E-03    -275.119E-03     80.6382E-03    -521.463E-03     796.716E-03    -274.874E-03     57.6788E-03
             234     12.8290E-03     9.20097E-15    -1.00970E+06     83.8756E+06     75.1353E+06     8.99758E+06    -666.794E-03     955.967E-03    -289.173E-03     164.343E-03    -671.102E-03     960.484E-03    -288.917E-03     118.248E-03
             235     13.3395E-03     3.01107E-03    -3.57035E+06     85.3639E+06     64.6196E+06    -2.55509E+06    -626.981E-03     923.441E-03    -296.460E-03     218.928E-03    -634.867E-03     931.432E-03    -296.255E-03     155.022E-03
             236     13.3252E-03     4.97080E-03    -6.72596E+06     72.5086E+06     54.8442E+06      -5.475E+06    -458.106E-03     754.510E-03    -296.404E-03     192.569E-03    -465.380E-03     761.802E-03    -296.225E-03     139.109E-03
             237     13.3571E-03     6.83132E-03    -510.121E+03     72.8865E+06     64.3819E+06      58.347E+03    -391.715E-03     688.810E-03    -297.095E-03     174.213E-03    -397.822E-03     694.965E-03    -296.878E-03     129.424E-03
             238     13.3504E-03     8.65804E-03    -2.49278E+06     64.5525E+06     66.1934E+06    -3.44637E+06    -367.311E-03     664.376E-03    -297.065E-03     155.208E-03    -373.201E-03     670.291E-03    -296.824E-03     111.526E-03
             239     13.3610E-03     10.4979E-03    -1.31231E+06     63.1089E+06     70.4988E+06     568.741E+03    -357.402E-03     654.453E-03    -297.051E-03     149.503E-03    -362.788E-03     659.852E-03    -296.788E-03     108.023E-03
             240     13.3609E-03     12.2938E-03    -1.62389E+06     67.0568E+06     73.0623E+06     169.109E+03    -344.067E-03     641.181E-03    -297.114E-03     138.733E-03    -349.005E-03     646.138E-03    -296.844E-03     99.7361E-03
             241     13.3636E-03     14.0787E-03    -1.71659E+06     70.1212E+06     73.0581E+06     296.828E+03    -331.870E-03     629.173E-03    -297.303E-03     130.874E-03    -336.472E-03     633.805E-03    -297.037E-03     94.1737E-03
             242     13.3634E-03     15.8406E-03    -2.30587E+06     68.0706E+06     71.5060E+06    -1.17531E+06    -320.879E-03     618.408E-03    -297.530E-03     124.265E-03    -325.225E-03     622.780E-03    -297.267E-03     89.3114E-03
             243     13.3631E-03     17.5836E-03    -1.14846E+06     60.2245E+06     75.2563E+06    -1.89099E+06    -311.999E-03     609.838E-03    -297.839E-03     115.679E-03    -316.050E-03     613.881E-03    -297.549E-03     82.4118E-03
             244     13.3604E-03     19.3181E-03    -1.35770E+06     58.6245E+06     72.7970E+06     851.785E+03    -304.447E-03     602.516E-03    -298.069E-03     111.825E-03    -308.303E-03     606.364E-03    -297.788E-03     80.1069E-03
             245     13.3635E-03     21.0392E-03    -2.66251E+06     60.8600E+06     71.3335E+06     803.910E+03    -299.533E-03     597.676E-03    -298.144E-03     108.052E-03    -303.228E-03     601.371E-03    -297.871E-03     77.3770E-03
             246     13.3620E-03     22.7563E-03    -1.06507E+06     62.6053E+06     73.1455E+06    -139.843E+03    -297.916E-03     596.032E-03    -298.117E-03     104.252E-03    -301.497E-03     599.620E-03    -297.840E-03     73.9829E-03
             247     13.3654E-03     24.4785E-03    -2.40036E+06     61.5224E+06     69.8849E+06    -409.220E+03    -297.816E-03     595.852E-03    -298.035E-03     102.926E-03    -301.356E-03     599.399E-03    -297.772E-03     72.7751E-03
             248     13.3638E-03     26.2028E-03    -1.56288E+06     57.8243E+06     71.6666E+06    -594.300E+03    -298.141E-03     596.159E-03    -298.017E-03     103.059E-03    -301.672E-03     599.681E-03    -297.740E-03     72.9085E-03
             249     13.3649E-03     27.9272E-03    -1.83161E+06     57.5102E+06     72.5981E+06     709.095E+03    -297.760E-03     595.749E-03    -297.989E-03     104.288E-03    -301.303E-03     599.279E-03    -297.707E-03     74.2094E-03
             250     13.3666E-03     29.6437E-03    -2.74486E+06     54.5666E+06     72.7047E+06    -1.30008E+06    -297.885E-03     595.779E-03    -297.894E-03     103.210E-03    -301.396E-03     599.263E-03    -297.606E-03     73.1412E-03
             251     13.3671E-03     31.3677E-03    -571.529E+03     50.6079E+06     74.2479E+06    -297.786E+03    -298.824E-03     596.656E-03    -297.832E-03     101.217E-03    -302.277E-03     600.071E-03    -297.534E-03     71.1689E-03
             252     13.3668E-03     33.0952E-03    -2.23706E+06     55.7859E+06     73.2398E+06     2.06919E+06    -298.106E-03     595.920E-03    -297.814E-03     102.679E-03    -301.623E-03     599.414E-03    -297.525E-03     72.5824E-03
             253     13.3684E-03     34.8136E-03    -2.38227E+06     58.7632E+06     73.5589E+06    -390.526E+03    -298.193E-03     595.935E-03    -297.743E-03     104.603E-03    -301.767E-03     599.497E-03    -297.457E-03     74.3215E-03
             254     13.3691E-03     36.5378E-03    -1.57053E+06     57.8063E+06     74.2584E+06     22.5008E+03    -299.092E-03     596.765E-03    -297.673E-03     102.583E-03    -302.620E-03     600.277E-03    -297.383E-03     72.2941E-03
             255     13.3685E-03     38.2640E-03    -1.89120E+06     60.6169E+06     73.2563E+06     866.314E+03    -298.058E-03     595.716E-03    -297.658E-03     103.186E-03    -301.632E-03     599.287E-03    -297.377E-03     72.8017E-03
             256     13.3706E-03     39.9814E-03    -1.75670E+06     62.1061E+06     73.3758E+06    -334.532E+03    -298.030E-03     595.678E-03    -297.649E-03     103.781E-03    -301.619E-03     599.269E-03    -297.369E-03     73.3909E-03
             257     13.3675E-03     41.7098E-03    -2.15524E+06     59.3197E+06     76.5595E+06    -456.952E+03    -298.112E-03     595.813E-03    -297.701E-03     103.081E-03    -301.667E-03     599.349E-03    -297.401E-03     72.8519E-03
             258     13.3699E-03     43.4272E-03    -2.35452E+06     57.0878E+06     73.5123E+06    -277.967E+03    -296.199E-03     593.909E-03    -297.710E-03     103.987E-03    -299.800E-03     597.491E-03    -297.422E-03     73.6780E-03
             259     13.3697E-03     45.1412E-03    -1.36831E+06     59.1042E+06     73.4918E+06     29.8535E+03    -297.068E-03     594.702E-03    -297.634E-03     102.493E-03    -300.647E-03     598.273E-03    -297.350E-03     72.0916E-03
             260     13.3702E-03     46.8655E-03    -1.42932E+06     60.2746E+06     76.8441E+06     48.1383E+03    -299.009E-03     596.612E-03    -297.603E-03     101.682E-03    -302.539E-03     600.128E-03    -297.304E-03     71.3859E-03
             261     13.3693E-03     48.5971E-03    -2.04253E+06     61.2016E+06     74.9945E+06     641.152E+03    -297.819E-03     595.461E-03    -297.642E-03     103.664E-03    -301.427E-03     599.062E-03    -297.353E-03     73.2409E-03
             262     13.3697E-03     50.3100E-03    -2.18172E+06     61.3798E+06     74.1378E+06    -58.3649E+03    -296.371E-03     594.061E-03    -297.689E-03     104.721E-03    -300.014E-03     597.698E-03    -297.404E-03     74.3307E-03
             263     13.3690E-03     52.0332E-03    -2.12843E+06     60.0811E+06     74.2550E+06    -140.475E+03    -295.940E-03     593.650E-03    -297.710E-03     104.524E-03    -299.539E-03     597.240E-03    -297.423E-03     74.3664E-03
             264     13.3697E-03     53.7484E-03    -1.46511E+06     61.5186E+06     73.4354E+06     387.508E+03    -295.591E-03     593.248E-03    -297.657E-03     105.952E-03    -299.242E-03     596.899E-03    -297.377E-03     75.5986E-03
             265     13.3720E-03     55.4642E-03    -2.41070E+06     59.5291E+06     73.7760E+06    -1.24331E+06    -296.995E-03     594.580E-03    -297.585E-03     103.674E-03    -300.603E-03     598.177E-03    -297.299E-03     73.2601E-03
             266     13.3687E-03     57.1894E-03    -1.37222E+06     57.0453E+06     77.4228E+06     316.233E+03    -297.778E-03     595.384E-03    -297.605E-03     102.014E-03    -301.309E-03     598.887E-03    -297.299E-03     71.8623E-03
             267     13.3719E-03     58.9070E-03    -1.84014E+06     59.1553E+06     76.4520E+06     941.062E+03    -296.604E-03     594.247E-03    -297.644E-03     102.489E-03    -300.161E-03     597.787E-03    -297.345E-03     72.3568E-03
             268     13.3680E-03     60.6297E-03    -2.49096E+06     58.7797E+06     72.3333E+06    -970.190E+03    -296.433E-03     594.092E-03    -297.659E-03     103.235E-03    -300.032E-03     597.681E-03    -297.378E-03     72.9115E-03
             269     13.3711E-03     62.3446E-03    -1.81485E+06     56.5548E+06     74.1616E+06    -246.795E+03    -296.158E-03     593.802E-03    -297.644E-03     103.530E-03    -299.768E-03     597.391E-03    -297.352E-03     73.1635E-03
             270     13.3705E-03     64.0636E-03    -1.49932E+06     56.8855E+06     77.9612E+06    -286.336E+03    -296.331E-03     593.961E-03    -297.631E-03     102.655E-03    -299.943E-03     597.544E-03    -297.321E-03     72.2265E-03
             271     13.3699E-03     65.7885E-03    -1.76219E+06     58.9322E+06     74.8490E+06     833.286E+03    -296.988E-03     594.635E-03    -297.647E-03     104.589E-03    -300.614E-03     598.247E-03    -297.356E-03     74.2265E-03
             272     13.3692E-03     67.5083E-03    -2.68506E+06     62.1360E+06     75.4918E+06     941.156E+03    -296.421E-03     594.107E-03    -297.686E-03     105.185E-03    -300.064E-03     597.742E-03    -297.395E-03     74.8692E-03
             273     13.3699E-03     69.2218E-03    -1.61849E+06     63.5105E+06     76.8915E+06     51.7935E+03    -296.099E-03     593.769E-03    -297.670E-03     104.636E-03    -299.727E-03     597.394E-03    -297.375E-03     74.3734E-03
             274     13.3706E-03     70.9441E-03    -2.12380E+06     63.2163E+06     75.4014E+06     191.762E+03    -296.254E-03     593.893E-03    -297.639E-03     103.400E-03    -299.843E-03     597.480E-03    -297.350E-03     73.2248E-03
             275     13.3696E-03     72.6612E-03    -1.67285E+06     63.8092E+06     77.2365E+06     472.567E+03    -296.324E-03     593.978E-03    -297.655E-03     104.016E-03    -299.937E-03     597.589E-03    -297.359E-03     73.7809E-03
             276     13.3704E-03     74.3825E-03    -2.48076E+06     67.0643E+06     75.7170E+06     937.862E+03    -296.242E-03     593.897E-03    -297.655E-03     104.392E-03    -299.879E-03     597.544E-03    -297.370E-03     74.1053E-03
             277     13.3692E-03     76.1001E-03    -2.35632E+06     67.4045E+06     76.6676E+06    -837.245E+03    -296.141E-03     593.789E-03    -297.648E-03     105.027E-03    -299.788E-03     597.445E-03    -297.359E-03     74.7067E-03
             278     13.3715E-03     77.8180E-03    -1.48794E+06     63.3458E+06     77.0432E+06    -662.893E+03    -296.255E-03     593.895E-03    -297.640E-03     103.274E-03    -299.830E-03     597.466E-03    -297.345E-03     73.1581E-03
             279     13.3687E-03     79.5368E-03    -2.58272E+06     61.8857E+06     75.7209E+06     219.040E+03    -296.253E-03     593.900E-03    -297.646E-03     102.188E-03    -299.823E-03     597.460E-03    -297.354E-03     72.0092E-03
             280     13.3714E-03     81.2531E-03    -1.43412E+06     63.0522E+06     77.3383E+06    -577.704E+03    -295.803E-03     593.447E-03    -297.644E-03     102.682E-03    -299.394E-03     597.033E-03    -297.347E-03     72.4499E-03
             281     13.3698E-03     82.9757E-03    -1.72286E+06     62.7305E+06     76.7762E+06     52.0236E+03    -296.520E-03     594.144E-03    -297.625E-03     103.570E-03    -300.116E-03     597.735E-03    -297.329E-03     73.3724E-03
             282     13.3704E-03     84.6940E-03    -1.85214E+06     62.2067E+06     76.0460E+06     260.268E+03    -297.292E-03     594.929E-03    -297.637E-03     103.189E-03    -300.881E-03     598.512E-03    -297.344E-03     72.9106E-03
             283     13.3689E-03     86.4164E-03    -2.27830E+06     61.1776E+06     74.5422E+06    -247.021E+03    -295.838E-03     593.509E-03    -297.671E-03     103.814E-03    -299.452E-03     597.117E-03    -297.384E-03     73.5572E-03
             284     13.3712E-03     88.1324E-03    -1.55328E+06     61.4203E+06     77.7162E+06     111.601E+03    -295.324E-03     593.024E-03    -297.700E-03     105.076E-03    -298.986E-03     596.672E-03    -297.398E-03     74.7401E-03
             285     13.3682E-03     89.8504E-03    -1.29352E+06     66.3821E+06     78.2174E+06     1.48326E+06    -296.168E-03     593.842E-03    -297.674E-03     104.105E-03    -299.813E-03     597.491E-03    -297.377E-03     73.7476E-03
             286     13.3718E-03     91.5666E-03    -2.47863E+06     70.6518E+06     75.1665E+06     695.799E+03    -296.832E-03     594.418E-03    -297.586E-03     104.396E-03    -300.441E-03     598.052E-03    -297.309E-03     74.2207E-03
             287     13.3703E-03     93.2918E-03    -2.22427E+06     70.7744E+06     75.2692E+06     156.032E+03    -296.901E-03     594.487E-03    -297.586E-03     103.024E-03    -300.470E-03     598.081E-03    -297.309E-03     72.9561E-03
             288     13.3696E-03     95.0125E-03    -2.43889E+06     70.6460E+06     76.6570E+06    -330.920E+03    -295.445E-03     593.121E-03    -297.676E-03     104.324E-03    -299.129E-03     596.824E-03    -297.391E-03     73.8740E-03
             289     13.3701E-03     96.7207E-03    -1.38506E+06     67.0915E+06     79.5787E+06    -1.25213E+06    -295.056E-03     592.724E-03    -297.668E-03     104.372E-03    -298.722E-03     596.392E-03    -297.365E-03     73.9860E-03
             290     13.3717E-03     98.4430E-03    -1.61559E+06     66.7110E+06     78.5696E+06     540.573E+03    -296.341E-03     593.943E-03    -297.603E-03     102.924E-03    -299.931E-03     597.537E-03    -297.304E-03     72.7414E-03
             291     13.3695E-03     100.165E-03    -2.64935E+06     70.3838E+06     77.1263E+06     701.824E+03    -297.002E-03     594.599E-03    -297.597E-03     104.963E-03    -300.657E-03     598.272E-03    -297.310E-03     74.6027E-03
             292     668.442E-06     98.4099E-03    -128.793E+06    -210.452E+06    -126.532E+06    -52.6749E+03    -297.608E-03     595.229E-03    -297.621E-03     27.3905E-03    -297.914E-03     594.699E-03    -297.762E-03     21.8877E-03
             293     1.33655E-03     98.4663E-03    -125.544E+06    -197.463E+06    -117.715E+06    -51.0097E+03    -297.922E-03     595.507E-03    -297.585E-03     49.9197E-03    -298.558E-03     595.338E-03    -297.705E-03     39.8082E-03
             294     2.00492E-03     98.5570E-03    -120.617E+06    -179.094E+06    -102.950E+06     41.8468E+03    -298.375E-03     596.019E-03    -297.644E-03     73.7069E-03    -299.569E-03     596.448E-03    -297.724E-03     58.6312E-03
             295     2.67287E-03     98.6840E-03    -113.947E+06    -161.992E+06    -84.0860E+06     402.533E+03    -298.838E-03     596.559E-03    -297.721E-03     97.7283E-03    -300.816E-03     597.802E-03    -297.742E-03     77.5174E-03
             296     3.34128E-03     98.8462E-03    -105.956E+06    -131.854E+06    -63.7790E+06     984.081E+03    -299.211E-03     596.963E-03    -297.752E-03     121.803E-03    -302.226E-03     599.319E-03    -297.726E-03     96.3739E-03
             297     4.00962E-03     99.0431E-03    -96.6087E+06    -91.2650E+06    -42.2255E+06     1.21504E+06    -299.635E-03     597.370E-03    -297.735E-03     145.824E-03    -303.949E-03     601.139E-03    -297.673E-03     115.051E-03
             298     4.67842E-03     99.2751E-03    -86.9294E+06    -52.9840E+06    -20.0039E+06     1.07766E+06    -300.256E-03     597.967E-03    -297.711E-03     169.468E-03    -306.116E-03     603.388E-03    -297.608E-03     133.238E-03
             299     5.34757E-03     99.5413E-03    -77.9097E+06    -25.9156E+06    -1.10954E+06     1.36234E+06    -301.079E-03     598.779E-03    -297.701E-03     192.638E-03    -308.724E-03     606.059E-03    -297.556E-03     150.890E-03
             300     6.01550E-03     99.8411E-03    -70.0504E+06    -14.5142E+06     12.0274E+06     1.53580E+06    -301.923E-03     599.627E-03    -297.704E-03     215.179E-03    -311.556E-03     608.926E-03    -297.521E-03     167.960E-03
             301     6.68366E-03     100.173E-03    -62.0630E+06    -3.55635E+06     23.0036E+06     1.97903E+06    -302.591E-03     600.296E-03    -297.705E-03     235.921E-03    -314.323E-03     611.728E-03    -297.495E-03     183.575E-03
             302     7.35279E-03     100.534E-03    -52.4381E+06     7.51560E+06     34.5473E+06     2.12881E+06    -303.215E-03     600.928E-03    -297.713E-03     253.844E-03    -317.014E-03     614.467E-03    -297.475E-03     196.898E-03
             303     8.02095E-03     100.918E-03    -43.0313E+06     17.4522E+06     45.5358E+06     1.50410E+06    -303.644E-03     601.379E-03    -297.735E-03     267.139E-03    -319.220E-03     616.732E-03    -297.471E-03     206.508E-03
             304     8.68955E-03     101.318E-03    -35.5620E+06     31.8157E+06     56.9454E+06     995.996E+03    -303.530E-03     601.295E-03    -297.765E-03     274.916E-03    -320.386E-03     617.973E-03    -297.475E-03     211.858E-03
             305     9.35683E-03     101.723E-03    -30.1490E+06     34.5877E+06     63.7717E+06     314.737E+03    -302.670E-03     600.447E-03    -297.777E-03     276.257E-03    -320.056E-03     617.664E-03    -297.464E-03     212.323E-03
             306     10.0264E-03     102.120E-03    -24.4389E+06     36.6660E+06     67.2950E+06     113.617E+03    -301.140E-03     598.884E-03    -297.744E-03     269.136E-03    -318.160E-03     615.752E-03    -297.425E-03     205.919E-03
             307     10.6989E-03     102.500E-03    -17.3825E+06     44.0018E+06     70.0469E+06     635.909E+03    -300.057E-03     597.747E-03    -297.690E-03     256.227E-03    -316.014E-03     613.595E-03    -297.379E-03     194.840E-03
             308     11.3635E-03     102.854E-03    -11.2627E+06     45.8297E+06     69.1487E+06     1.21754E+06    -299.440E-03     597.092E-03    -297.651E-03     234.528E-03    -313.215E-03     610.789E-03    -297.356E-03     177.343E-03
             309     12.0322E-03     103.168E-03    -7.19643E+06     60.1576E+06     74.6631E+06     1.03073E+06    -298.934E-03     596.595E-03    -297.660E-03     216.135E-03    -311.034E-03     608.666E-03    -297.364E-03     162.074E-03
             310     12.6997E-03     103.462E-03    -4.06451E+06     70.9798E+06     80.6390E+06     430.972E+03    -297.403E-03     595.087E-03    -297.683E-03     158.604E-03    -305.184E-03     602.871E-03    -297.377E-03     116.541E-03
             311     668.200E-06     100.128E-03    -129.615E+06    -210.484E+06    -128.161E+06    -283.037E+03    -298.145E-03     595.196E-03    -297.052E-03     27.3388E-03    -298.452E-03     594.669E-03    -297.199E-03     21.8115E-03
             312     1.33675E-03     100.184E-03    -126.868E+06    -197.617E+06    -118.826E+06    -344.807E+03    -298.029E-03     595.626E-03    -297.597E-03     49.6138E-03    -298.667E-03     595.457E-03    -297.721E-03     39.5259E-03
             313     2.00467E-03     100.276E-03    -122.079E+06    -179.744E+06    -104.178E+06    -31.0937E+03    -298.350E-03     596.025E-03    -297.675E-03     73.5355E-03    -299.548E-03     596.453E-03    -297.758E-03     58.4611E-03
             314     2.67292E-03     100.403E-03    -115.469E+06    -163.183E+06    -85.3519E+06     202.454E+03    -298.700E-03     596.428E-03    -297.728E-03     97.7006E-03    -300.683E-03     597.669E-03    -297.750E-03     77.4960E-03
             315     3.34121E-03     100.564E-03    -107.432E+06    -132.730E+06    -65.5947E+06     144.764E+03    -299.132E-03     596.864E-03    -297.732E-03     121.786E-03    -302.151E-03     599.220E-03    -297.712E-03     96.3447E-03
             316     4.00994E-03     100.761E-03    -98.7917E+06    -92.6360E+06    -45.1328E+06     95.4852E+03    -299.717E-03     597.432E-03    -297.715E-03     145.623E-03    -304.029E-03     601.195E-03    -297.663E-03     114.835E-03
             317     4.67835E-03     100.993E-03    -90.1129E+06    -55.3962E+06    -23.6156E+06     815.508E+03    -300.355E-03     598.065E-03    -297.709E-03     169.160E-03    -306.214E-03     603.475E-03    -297.617E-03     132.933E-03
             318     5.34635E-03     101.260E-03    -81.3212E+06    -28.0130E+06    -4.68536E+06     1.73531E+06    -301.099E-03     598.809E-03    -297.709E-03     192.564E-03    -308.753E-03     606.088E-03    -297.574E-03     150.810E-03
             319     6.01540E-03     101.560E-03    -71.5292E+06    -14.5635E+06     10.9615E+06     1.83309E+06    -301.947E-03     599.668E-03    -297.721E-03     215.244E-03    -311.584E-03     608.968E-03    -297.541E-03     168.035E-03
             320     6.68424E-03     101.892E-03    -61.3615E+06    -2.70369E+06     24.4727E+06     640.918E+03    -302.714E-03     600.448E-03    -297.734E-03     236.148E-03    -314.463E-03     611.898E-03    -297.519E-03     183.731E-03
             321     7.35231E-03     102.253E-03    -52.6714E+06     7.03084E+06     35.1010E+06    -599.520E+03    -303.365E-03     601.114E-03    -297.748E-03     254.250E-03    -317.188E-03     614.673E-03    -297.507E-03     197.188E-03
             322     8.02086E-03     102.638E-03    -45.6519E+06     16.3745E+06     44.3279E+06    -631.429E+03    -303.603E-03     601.366E-03    -297.763E-03     267.728E-03    -319.213E-03     616.744E-03    -297.499E-03     207.044E-03
             323     8.68891E-03     103.037E-03    -38.6886E+06     29.9170E+06     54.9268E+06     134.715E+03    -303.146E-03     600.914E-03    -297.768E-03     275.257E-03    -320.028E-03     617.606E-03    -297.481E-03     212.239E-03
             324     9.35952E-03     103.442E-03    -31.1209E+06     36.7161E+06     63.1795E+06     880.081E+03    -302.237E-03     599.988E-03    -297.751E-03     275.468E-03    -319.584E-03     617.172E-03    -297.443E-03     211.694E-03
             325     10.0281E-03     103.839E-03    -24.3282E+06     37.4248E+06     66.5254E+06    -542.293E+03    -301.205E-03     598.920E-03    -297.715E-03     268.138E-03    -318.190E-03     615.758E-03    -297.402E-03     204.905E-03
             326     10.6930E-03     104.215E-03    -18.4586E+06     40.4336E+06     68.1880E+06    -1.36693E+06    -300.420E-03     598.105E-03    -297.686E-03     256.149E-03    -316.375E-03     613.941E-03    -297.376E-03     194.627E-03
             327     11.3653E-03     104.575E-03    -14.3700E+06     43.8634E+06     66.5690E+06     114.401E+03    -299.440E-03     597.095E-03    -297.655E-03     234.496E-03    -313.201E-03     610.768E-03    -297.365E-03     177.322E-03
             328     12.0342E-03     104.885E-03    -9.87548E+06     60.3327E+06     71.4860E+06     914.978E+03    -298.502E-03     596.144E-03    -297.642E-03     216.623E-03    -310.597E-03     608.212E-03    -297.358E-03     162.701E-03
             329     12.7025E-03     105.189E-03    -4.29584E+06     72.4257E+06     78.6155E+06     533.370E+03    -297.229E-03     594.876E-03    -297.646E-03     158.107E-03    -304.996E-03     602.656E-03    -297.352E-03     116.131E-03
             330     668.482E-06     101.847E-03    -130.257E+06    -209.746E+06    -129.281E+06    -428.137E+03    -298.241E-03     595.464E-03    -297.223E-03     27.2471E-03    -298.550E-03     594.942E-03    -297.376E-03     21.7791E-03
             331     1.33598E-03     101.903E-03    -128.429E+06    -197.881E+06    -120.211E+06    -234.928E+03    -298.038E-03     595.742E-03    -297.705E-03     49.8184E-03    -298.685E-03     595.580E-03    -297.833E-03     39.6977E-03
             332     2.00446E-03     101.995E-03    -123.294E+06    -180.051E+06    -105.428E+06    -65.2946E+03    -298.205E-03     595.930E-03    -297.724E-03     73.6633E-03    -299.409E-03     596.362E-03    -297.812E-03     58.5742E-03
             333     2.67297E-03     102.121E-03    -116.540E+06    -163.813E+06    -86.8262E+06    -42.5836E+03    -298.577E-03     596.306E-03    -297.728E-03     97.6013E-03    -300.559E-03     597.544E-03    -297.756E-03     77.4199E-03
             334     3.34154E-03     102.283E-03    -109.046E+06    -133.226E+06    -67.4923E+06     163.305E+03    -299.132E-03     596.850E-03    -297.717E-03     121.655E-03    -302.151E-03     599.204E-03    -297.704E-03     96.2326E-03
             335     4.00961E-03     102.480E-03    -100.985E+06    -93.2981E+06    -46.8539E+06     455.067E+03    -299.761E-03     597.469E-03    -297.708E-03     145.732E-03    -304.082E-03     601.236E-03    -297.660E-03     114.950E-03
             336     4.67800E-03     102.712E-03    -91.7152E+06    -57.6942E+06    -25.1951E+06     802.437E+03    -300.452E-03     598.164E-03    -297.712E-03     169.501E-03    -306.321E-03     603.576E-03    -297.621E-03     133.257E-03
             337     5.34716E-03     102.978E-03    -81.1556E+06    -29.0797E+06    -5.23067E+06     602.287E+03    -301.216E-03     598.936E-03    -297.721E-03     192.911E-03    -308.877E-03     606.221E-03    -297.587E-03     151.112E-03
             338     6.01533E-03     103.279E-03    -70.7198E+06    -13.6038E+06     10.7284E+06    -177.818E+03    -301.998E-03     599.734E-03    -297.736E-03     215.282E-03    -311.637E-03     609.042E-03    -297.560E-03     168.024E-03
             339     6.68363E-03     103.611E-03    -61.8546E+06    -2.17925E+06     23.2682E+06    -549.163E+03    -302.760E-03     600.511E-03    -297.751E-03     236.135E-03    -314.513E-03     611.969E-03    -297.541E-03     183.670E-03
             340     7.35231E-03     103.972E-03    -53.8766E+06     7.53955E+06     34.1863E+06    -439.520E+03    -303.311E-03     601.077E-03    -297.766E-03     254.310E-03    -317.145E-03     614.647E-03    -297.528E-03     197.236E-03
             341     8.02070E-03     104.357E-03    -45.7994E+06     17.0197E+06     45.0741E+06    -572.372E+03    -303.359E-03     601.133E-03    -297.775E-03     267.637E-03    -318.971E-03     616.512E-03    -297.507E-03     206.996E-03
             342     8.69009E-03     104.756E-03    -38.0000E+06     27.2733E+06     55.7140E+06    -446.028E+03    -303.095E-03     600.869E-03    -297.774E-03     274.873E-03    -319.953E-03     617.527E-03    -297.479E-03     211.894E-03
             343     9.35687E-03     105.159E-03    -30.9840E+06     35.9212E+06     63.1968E+06    -218.624E+03    -302.281E-03     600.037E-03    -297.756E-03     275.010E-03    -319.621E-03     617.211E-03    -297.447E-03     211.189E-03
             344     10.0260E-03     105.556E-03    -25.0729E+06     39.8515E+06     66.7471E+06     609.749E+03    -301.214E-03     598.934E-03    -297.721E-03     268.514E-03    -318.211E-03     615.790E-03    -297.408E-03     205.303E-03
             345     10.6985E-03     105.938E-03    -21.1690E+06     40.5464E+06     67.3813E+06     849.540E+03    -300.746E-03     598.441E-03    -297.695E-03     256.593E-03    -316.682E-03     614.251E-03    -297.386E-03     195.192E-03
             346     11.3634E-03     106.292E-03    -15.9107E+06     44.9501E+06     66.7488E+06    -1.26146E+06    -299.946E-03     597.635E-03    -297.689E-03     233.787E-03    -313.689E-03     611.288E-03    -297.397E-03     176.557E-03
             347     12.0315E-03     106.605E-03    -10.0069E+06     58.5295E+06     70.9208E+06    -2.24166E+06    -298.185E-03     595.873E-03    -297.688E-03     214.701E-03    -310.218E-03     607.873E-03    -297.404E-03     160.809E-03
             348     12.7016E-03     106.903E-03    -4.90497E+06     69.4696E+06     76.8639E+06    -1.21498E+06    -296.513E-03     594.182E-03    -297.670E-03     156.484E-03    -304.213E-03     601.889E-03    -297.379E-03     114.643E-03
             349     667.728E-06     103.565E-03    -132.585E+06    -210.560E+06    -129.260E+06     725.824E+03    -298.311E-03     595.754E-03    -297.442E-03     27.3277E-03    -298.632E-03     595.232E-03    -297.591E-03     21.8539E-03
             350     1.33664E-03     103.622E-03    -129.328E+06    -197.584E+06    -120.656E+06     291.016E+03    -297.835E-03     595.617E-03    -297.782E-03     49.7404E-03    -298.484E-03     595.456E-03    -297.911E-03     39.6497E-03
             351     2.00465E-03     103.713E-03    -124.206E+06    -180.223E+06    -106.377E+06     55.1829E+03    -298.147E-03     595.868E-03    -297.722E-03     73.5790E-03    -299.352E-03     596.301E-03    -297.812E-03     58.5110E-03
             352     2.67292E-03     103.840E-03    -117.665E+06    -163.850E+06    -87.7436E+06    -44.8733E+03    -298.589E-03     596.308E-03    -297.719E-03     97.6746E-03    -300.576E-03     597.550E-03    -297.749E-03     77.4879E-03
             353     3.34109E-03     104.001E-03    -109.458E+06    -133.569E+06    -67.6962E+06    -283.970E+03    -299.125E-03     596.837E-03    -297.712E-03     121.802E-03    -302.148E-03     599.194E-03    -297.698E-03     96.3684E-03
             354     4.00999E-03     104.198E-03    -99.7713E+06    -94.2520E+06    -46.5421E+06    -268.611E+03    -299.789E-03     597.494E-03    -297.705E-03     145.767E-03    -304.104E-03     601.255E-03    -297.656E-03     114.963E-03
             355     4.67871E-03     104.431E-03    -89.4288E+06    -57.7129E+06    -24.0746E+06    -411.068E+03    -300.557E-03     598.278E-03    -297.721E-03     169.261E-03    -306.415E-03     603.684E-03    -297.628E-03     132.962E-03
             356     5.34648E-03     104.697E-03    -79.4151E+06    -28.5593E+06    -4.21619E+06    -884.522E+03    -301.287E-03     599.032E-03    -297.745E-03     192.533E-03    -308.935E-03     606.308E-03    -297.609E-03     150.692E-03
             357     6.01510E-03     104.998E-03    -70.0118E+06    -13.7840E+06     11.3508E+06    -516.302E+03    -302.000E-03     599.765E-03    -297.766E-03     215.243E-03    -311.640E-03     609.075E-03    -297.587E-03     167.948E-03
             358     6.68369E-03     105.329E-03    -61.0825E+06    -2.79986E+06     24.5107E+06    -74.2616E+03    -302.757E-03     600.537E-03    -297.780E-03     236.405E-03    -314.519E-03     612.001E-03    -297.565E-03     183.929E-03
             359     7.35201E-03     105.691E-03    -52.7983E+06     7.77086E+06     35.4549E+06     12.8927E+03    -303.217E-03     601.002E-03    -297.785E-03     254.296E-03    -317.045E-03     614.567E-03    -297.543E-03     197.267E-03
             360     8.02080E-03     106.075E-03    -45.0136E+06     17.7442E+06     45.4209E+06     54.4426E+03    -303.299E-03     601.080E-03    -297.781E-03     267.527E-03    -318.902E-03     616.455E-03    -297.514E-03     206.925E-03
             361     8.68878E-03     106.474E-03    -38.5294E+06     26.9774E+06     54.9364E+06    -61.8499E+03    -302.962E-03     600.730E-03    -297.768E-03     275.103E-03    -319.823E-03     617.391E-03    -297.477E-03     212.176E-03
             362     9.35917E-03     106.880E-03    -32.4825E+06     34.1778E+06     62.6439E+06     844.141E+03    -302.270E-03     600.015E-03    -297.745E-03     275.416E-03    -319.626E-03     617.196E-03    -297.435E-03     211.624E-03
             363     10.0281E-03     107.274E-03    -26.0310E+06     37.6230E+06     66.6544E+06     1.56202E+06    -301.768E-03     599.496E-03    -297.728E-03     268.652E-03    -318.780E-03     616.356E-03    -297.411E-03     205.318E-03
             364     10.6934E-03     107.654E-03    -18.6892E+06     42.1629E+06     68.7035E+06     515.060E+03    -301.213E-03     598.945E-03    -297.732E-03     256.144E-03    -317.127E-03     614.743E-03    -297.423E-03     194.655E-03
             365     11.3641E-03     108.016E-03    -12.1516E+06     51.9678E+06     69.0755E+06    -1.37640E+06    -299.928E-03     597.663E-03    -297.736E-03     233.813E-03    -313.690E-03     611.367E-03    -297.448E-03     176.525E-03
             366     12.0317E-03     108.324E-03    -7.41629E+06     58.5013E+06     73.4135E+06    -2.35478E+06    -298.148E-03     595.892E-03    -297.744E-03     215.166E-03    -310.237E-03     607.949E-03    -297.451E-03     161.121E-03
             367     12.6996E-03     108.619E-03    -3.54384E+06     64.5743E+06     78.2011E+06    -1.11357E+06    -296.274E-03     593.992E-03    -297.717E-03     158.168E-03    -304.015E-03     601.722E-03    -297.415E-03     116.253E-03
             368     668.029E-06     105.285E-03    -132.691E+06    -211.862E+06    -131.335E+06     146.105E+03    -298.652E-03     595.725E-03    -297.073E-03     27.1456E-03    -298.968E-03     595.200E-03    -297.230E-03     21.6204E-03
             369     1.33583E-03     105.340E-03    -129.201E+06    -197.835E+06    -121.295E+06     417.509E+03    -297.866E-03     595.642E-03    -297.776E-03     49.7123E-03    -298.513E-03     595.479E-03    -297.908E-03     39.6395E-03
             370     2.00462E-03     105.432E-03    -124.335E+06    -180.057E+06    -106.316E+06     167.187E+03    -298.110E-03     595.832E-03    -297.722E-03     73.4912E-03    -299.316E-03     596.265E-03    -297.812E-03     58.4222E-03
             371     2.67299E-03     105.558E-03    -117.208E+06    -162.587E+06    -87.1961E+06    -484.317E+03    -298.590E-03     596.306E-03    -297.716E-03     97.5926E-03    -300.578E-03     597.554E-03    -297.746E-03     77.3811E-03
             372     3.34173E-03     105.720E-03    -108.766E+06    -132.467E+06    -67.0605E+06    -1.30195E+06    -299.237E-03     596.960E-03    -297.722E-03     121.671E-03    -302.258E-03     599.318E-03    -297.708E-03     96.2041E-03
             373     4.00968E-03     105.917E-03    -100.147E+06    -93.9877E+06    -46.5061E+06    -2.06946E+06    -299.938E-03     597.676E-03    -297.738E-03     145.539E-03    -304.251E-03     601.435E-03    -297.689E-03     114.698E-03
             374     4.67760E-03     106.149E-03    -91.0830E+06    -57.3639E+06    -24.9378E+06    -2.35026E+06    -300.564E-03     598.326E-03    -297.762E-03     169.324E-03    -306.436E-03     603.744E-03    -297.671E-03     132.972E-03
             375     5.34643E-03     106.416E-03    -81.4524E+06    -28.9829E+06    -5.02258E+06    -2.10425E+06    -301.223E-03     599.001E-03    -297.779E-03     192.782E-03    -308.888E-03     606.289E-03    -297.643E-03     150.909E-03
             376     6.01495E-03     106.716E-03     -71.887E+06    -15.1462E+06     10.6040E+06    -2.05258E+06    -301.993E-03     599.784E-03    -297.792E-03     215.430E-03    -311.651E-03     609.103E-03    -297.613E-03     168.084E-03
             377     6.68352E-03     107.049E-03    -62.6868E+06    -4.79613E+06     22.2718E+06    -1.52562E+06    -302.669E-03     600.462E-03    -297.792E-03     236.392E-03    -314.437E-03     611.925E-03    -297.583E-03     183.889E-03
             378     7.35215E-03     107.410E-03    -54.3134E+06     5.56403E+06     32.9254E+06    -386.728E+03    -303.092E-03     600.878E-03    -297.786E-03     254.198E-03    -316.910E-03     614.428E-03    -297.551E-03     197.215E-03
             379     8.02064E-03     107.794E-03    -47.0570E+06     17.7533E+06     43.5841E+06     6.06409E+03    -303.169E-03     600.940E-03    -297.771E-03     267.597E-03    -318.772E-03     616.313E-03    -297.511E-03     207.054E-03
             380     8.69005E-03     108.194E-03    -39.1645E+06     26.2329E+06     54.1951E+06     99.5264E+03    -302.860E-03     600.615E-03    -297.754E-03     274.891E-03    -319.709E-03     617.260E-03    -297.465E-03     212.012E-03
             381     9.35808E-03     108.595E-03    -30.7789E+06     30.7030E+06     62.2494E+06     324.620E+03    -302.670E-03     600.419E-03    -297.749E-03     274.934E-03    -320.000E-03     617.568E-03    -297.437E-03     211.034E-03
             382     10.0262E-03     108.994E-03    -23.6730E+06     37.6275E+06     66.3880E+06    -27.2718E+03    -302.331E-03     600.093E-03    -297.763E-03     268.273E-03    -319.324E-03     616.943E-03    -297.451E-03     204.778E-03
             383     10.6961E-03     109.377E-03    -17.5549E+06     46.2794E+06     68.8218E+06    -961.056E+03    -300.852E-03     598.623E-03    -297.771E-03     256.548E-03    -316.801E-03     614.475E-03    -297.469E-03     195.031E-03
             384     11.3621E-03     109.732E-03    -12.5867E+06     54.8873E+06     68.1434E+06    -1.98756E+06    -298.602E-03     596.317E-03    -297.715E-03     235.465E-03    -312.422E-03     610.089E-03    -297.435E-03     178.370E-03
             385     12.0320E-03     110.044E-03    -8.55532E+06     56.2804E+06     70.4212E+06    -1.55678E+06    -297.928E-03     595.590E-03    -297.662E-03     217.689E-03    -310.085E-03     607.713E-03    -297.379E-03     163.690E-03
             386     12.7021E-03     110.336E-03    -4.37674E+06      61.448E+06     75.8974E+06    -452.603E+03    -297.408E-03     595.063E-03    -297.654E-03     159.112E-03    -305.202E-03     602.838E-03    -297.358E-03     116.974E-03
             387     668.357E-06     107.004E-03    -131.990E+06    -211.005E+06    -129.592E+06    -420.182E+03    -297.737E-03     595.404E-03    -297.666E-03     26.4618E-03    -298.052E-03     594.878E-03    -297.817E-03     20.9484E-03
             388     1.33671E-03     107.059E-03    -128.626E+06    -198.335E+06    -121.045E+06    -418.687E+03    -297.925E-03     595.586E-03    -297.661E-03     49.8108E-03    -298.573E-03     595.424E-03    -297.792E-03     39.6686E-03
             389     2.00451E-03     107.150E-03    -123.037E+06    -179.257E+06    -105.678E+06    -721.025E+03    -298.248E-03     595.925E-03    -297.677E-03     73.7843E-03    -299.453E-03     596.363E-03    -297.767E-03     58.6683E-03
             390     2.67298E-03     107.276E-03    -116.106E+06    -161.531E+06    -86.7812E+06    -867.078E+03    -298.776E-03     596.495E-03    -297.719E-03     97.6714E-03    -300.760E-03     597.745E-03    -297.750E-03     77.4497E-03
             391     3.34086E-03     107.438E-03    -108.859E+06    -131.543E+06    -66.7446E+06    -695.314E+03    -299.371E-03     597.128E-03    -297.758E-03     121.790E-03    -302.394E-03     599.492E-03    -297.743E-03     96.3295E-03
             392     4.00933E-03     107.636E-03    -100.845E+06    -91.1363E+06    -45.1440E+06    -849.700E+03    -299.908E-03     597.686E-03    -297.778E-03     145.830E-03    -304.235E-03     601.463E-03    -297.725E-03     115.015E-03
             393     4.67813E-03     107.868E-03    -91.9817E+06    -54.7942E+06    -23.3191E+06    -1.95793E+06    -300.502E-03     598.291E-03    -297.789E-03     169.633E-03    -306.392E-03     603.727E-03    -297.692E-03     133.286E-03
             394     5.34652E-03     108.135E-03    -82.2335E+06    -28.9003E+06    -4.93090E+06    -2.85513E+06    -301.239E-03     599.033E-03    -297.794E-03     192.847E-03    -308.914E-03     606.328E-03    -297.658E-03     150.941E-03
             395     6.01491E-03     108.435E-03    -72.5001E+06    -15.3633E+06     10.0932E+06    -3.09613E+06    -301.999E-03     599.803E-03    -297.804E-03     215.450E-03    -311.656E-03     609.118E-03    -297.626E-03     168.120E-03
             396     6.68319E-03     108.767E-03    -63.3591E+06    -7.18410E+06     20.7542E+06    -2.99059E+06    -302.607E-03     600.403E-03    -297.796E-03     236.492E-03    -314.357E-03     611.843E-03    -297.590E-03     184.061E-03
             397     7.35198E-03     109.128E-03    -54.0633E+06     1.77419E+06     30.8593E+06    -1.89674E+06    -303.041E-03     600.818E-03    -297.778E-03     254.357E-03    -316.844E-03     614.346E-03    -297.547E-03     197.407E-03
             398     8.02090E-03     109.513E-03    -44.5535E+06     16.2647E+06     43.6684E+06    -670.904E+03    -303.189E-03     600.953E-03    -297.765E-03     267.373E-03    -318.775E-03     616.313E-03    -297.505E-03     206.802E-03
             399     8.68945E-03     109.910E-03    -35.9938E+06     24.9216E+06     54.5433E+06    -326.574E+03    -303.327E-03     601.098E-03    -297.771E-03     274.470E-03    -320.157E-03     617.731E-03    -297.482E-03     211.448E-03
             400     9.35839E-03     110.316E-03    -29.3461E+06     30.5254E+06     61.5821E+06    -668.174E+03    -303.202E-03     601.001E-03    -297.799E-03     275.090E-03    -320.548E-03     618.172E-03    -297.492E-03     210.999E-03
             401     10.0259E-03     110.715E-03    -23.6597E+06     39.8371E+06     65.1329E+06    -1.03429E+06    -301.665E-03     599.465E-03    -297.799E-03     268.666E-03    -318.666E-03     616.334E-03    -297.497E-03     205.293E-03
             402     10.6929E-03     111.094E-03    -17.6115E+06     49.1152E+06     67.5799E+06    -1.10059E+06    -299.512E-03     597.247E-03    -297.735E-03     257.174E-03    -315.455E-03     613.106E-03    -297.443E-03     195.985E-03
             403     11.3655E-03     111.450E-03    -13.0385E+06     53.1872E+06     66.3619E+06    -472.001E+03    -298.476E-03     596.111E-03    -297.635E-03     235.203E-03    -312.247E-03     609.832E-03    -297.361E-03     178.283E-03
             404     12.0366E-03     111.758E-03    -9.54512E+06     55.9739E+06     69.6971E+06    -447.545E+03    -298.356E-03     595.958E-03    -297.602E-03     215.938E-03    -310.414E-03     607.979E-03    -297.321E-03     162.061E-03
             405     12.7022E-03     112.065E-03    -4.60676E+06     61.6369E+06     76.9419E+06    -1.51858E+06    -297.665E-03     595.295E-03    -297.631E-03     156.829E-03    -305.370E-03     602.980E-03    -297.329E-03     114.833E-03
             406     668.043E-06     108.722E-03    -129.916E+06    -210.364E+06    -126.719E+06     7.38524E+03    -297.062E-03     595.263E-03    -298.201E-03     26.9378E-03    -297.372E-03     594.734E-03    -298.342E-03     21.4323E-03
             407     1.33639E-03     108.777E-03    -125.999E+06    -197.424E+06    -117.771E+06    -362.139E+03    -297.921E-03     595.528E-03    -297.607E-03     49.5298E-03    -298.558E-03     595.358E-03    -297.727E-03     39.4138E-03
             408     2.00510E-03     108.869E-03    -121.198E+06    -179.013E+06    -103.684E+06    -364.074E+03    -298.379E-03     596.040E-03    -297.660E-03     73.4898E-03    -299.573E-03     596.468E-03    -297.744E-03     58.4096E-03
             409     2.67291E-03     108.995E-03    -115.151E+06    -161.815E+06    -84.9978E+06     42.1765E+03    -298.897E-03     596.640E-03    -297.743E-03     97.6482E-03    -300.880E-03     597.886E-03    -297.766E-03     77.4261E-03
             410     3.34136E-03     109.158E-03    -106.997E+06    -131.302E+06    -64.4304E+06     155.916E+03    -299.358E-03     597.148E-03    -297.790E-03     121.814E-03    -302.376E-03     599.508E-03    -297.767E-03     96.3667E-03
             411     4.00965E-03     109.355E-03    -97.3667E+06    -90.6773E+06    -42.7038E+06     261.708E+03    -299.868E-03     597.668E-03    -297.800E-03     145.693E-03    -304.181E-03     601.437E-03    -297.741E-03     114.894E-03
             412     4.67787E-03     109.587E-03    -87.4325E+06    -52.0671E+06    -19.9026E+06     385.366E+03    -300.505E-03     598.310E-03    -297.805E-03     169.388E-03    -306.370E-03     603.738E-03    -297.703E-03     133.108E-03
             413     5.34616E-03     109.854E-03    -78.2192E+06    -24.8509E+06    -792.755E+03    -928.551E+03    -301.183E-03     598.989E-03    -297.806E-03     192.908E-03    -308.842E-03     606.285E-03    -297.661E-03     151.096E-03
             414     6.01471E-03     110.154E-03    -68.8338E+06    -13.4657E+06     13.7525E+06    -2.08075E+06    -301.920E-03     599.724E-03    -297.804E-03     215.688E-03    -311.564E-03     609.036E-03    -297.616E-03     168.417E-03
             415     6.68380E-03     110.486E-03    -59.5657E+06    -6.56335E+06     24.5242E+06    -2.16900E+06    -302.585E-03     600.376E-03    -297.790E-03     236.524E-03    -314.324E-03     611.809E-03    -297.572E-03     184.111E-03
             416     7.35233E-03     110.847E-03    -51.4946E+06     1.53828E+06     34.1833E+06    -2.93573E+06    -303.095E-03     600.869E-03    -297.774E-03     254.390E-03    -316.895E-03     614.393E-03    -297.531E-03     197.410E-03
             417     8.02087E-03     111.231E-03    -44.0826E+06     12.9181E+06     44.8306E+06    -3.22221E+06    -303.594E-03     601.371E-03    -297.777E-03     267.600E-03    -319.188E-03     616.724E-03    -297.507E-03     206.914E-03
             418     8.68923E-03     111.630E-03    -37.2486E+06     21.1666E+06     53.1735E+06    -1.59498E+06    -303.782E-03     601.584E-03    -297.802E-03     275.142E-03    -320.647E-03     618.238E-03    -297.513E-03     211.972E-03
             419     9.35625E-03     112.036E-03    -30.7278E+06     31.8793E+06     59.5865E+06    -559.362E+03    -302.703E-03     600.509E-03    -297.806E-03     276.099E-03    -320.070E-03     617.707E-03    -297.510E-03     212.160E-03
             420     10.0254E-03     112.433E-03    -23.4954E+06     41.6235E+06     64.6963E+06    -1.08723E+06    -300.861E-03     598.615E-03    -297.754E-03     269.455E-03    -317.874E-03     615.505E-03    -297.457E-03     206.325E-03
             421     10.6979E-03     112.810E-03    -18.4543E+06     47.2769E+06     66.5355E+06    -1.22934E+06    -300.081E-03     597.768E-03    -297.687E-03     256.343E-03    -316.009E-03     613.605E-03    -297.396E-03     195.037E-03
             422     11.3656E-03     113.166E-03    -13.5565E+06     51.5308E+06     66.0057E+06    -882.407E+03    -299.957E-03     597.624E-03    -297.667E-03     233.063E-03    -313.689E-03     611.299E-03    -297.392E-03     175.778E-03
             423     12.0292E-03     113.483E-03    -6.72714E+06     57.9900E+06     72.5493E+06    -940.264E+03    -298.535E-03     596.240E-03    -297.705E-03     213.591E-03    -310.545E-03     608.222E-03    -297.416E-03     159.580E-03
             424     12.7012E-03     113.774E-03    -2.72538E+06     61.3653E+06     78.7404E+06    -525.903E+03    -296.809E-03     594.532E-03    -297.723E-03     156.012E-03    -304.473E-03     602.176E-03    -297.414E-03     114.194E-03
             425     668.521E-06     110.440E-03    -126.723E+06    -210.861E+06    -125.327E+06     153.701E+03    -297.791E-03     595.452E-03    -297.660E-03     26.8181E-03    -298.087E-03     594.913E-03    -297.798E-03     21.3326E-03
             426     1.33660E-03     110.496E-03    -124.139E+06    -197.807E+06    -115.882E+06     170.882E+03    -298.055E-03     595.765E-03    -297.710E-03     49.3926E-03    -298.683E-03     595.586E-03    -297.822E-03     39.2856E-03
             427     2.00423E-03     110.587E-03    -119.517E+06    -180.034E+06    -101.589E+06     554.383E+03    -298.345E-03     596.098E-03    -297.754E-03     73.3873E-03    -299.530E-03     596.515E-03    -297.827E-03     58.3374E-03
             428     2.67280E-03     110.714E-03    -112.379E+06    -161.879E+06    -82.1166E+06     644.280E+03    -298.826E-03     596.626E-03    -297.800E-03     97.6277E-03    -300.796E-03     597.860E-03    -297.813E-03     77.4448E-03
             429     3.34079E-03     110.876E-03    -103.887E+06    -130.884E+06    -61.5087E+06     246.149E+03    -299.358E-03     597.185E-03    -297.827E-03     121.626E-03    -302.360E-03     599.533E-03    -297.795E-03     96.1958E-03
             430     4.00921E-03     111.074E-03    -94.8155E+06    -90.9688E+06    -40.3699E+06    -238.559E+03    -299.868E-03     597.698E-03    -297.830E-03     145.700E-03    -304.170E-03     601.457E-03    -297.762E-03     114.903E-03
             431     4.67763E-03     111.306E-03    -84.8578E+06    -52.4531E+06    -18.3062E+06    -524.731E+03    -300.378E-03     598.195E-03    -297.817E-03     169.584E-03    -306.234E-03     603.617E-03    -297.709E-03     133.308E-03
             432     5.34664E-03     111.572E-03    -74.2867E+06    -22.1109E+06     2.25326E+06     209.834E+03    -301.032E-03     598.828E-03    -297.796E-03     193.027E-03    -308.680E-03     606.128E-03    -297.645E-03     151.252E-03
             433     6.01546E-03     111.873E-03    -65.1393E+06    -10.4923E+06     17.7910E+06     193.759E+03    -301.858E-03     599.645E-03    -297.787E-03     215.661E-03    -311.497E-03     608.964E-03    -297.588E-03     168.410E-03
             434     6.68349E-03     112.205E-03    -57.2260E+06    -4.53361E+06     28.4878E+06    -350.071E+03    -302.649E-03     600.428E-03    -297.779E-03     236.458E-03    -314.388E-03     611.865E-03    -297.547E-03     184.044E-03
             435     7.35231E-03     112.566E-03    -49.7250E+06     4.27448E+06     36.5682E+06    -417.168E+03    -303.349E-03     601.122E-03    -297.773E-03     254.215E-03    -317.146E-03     614.651E-03    -297.524E-03     197.210E-03
             436     8.02098E-03     112.950E-03    -43.5607E+06     13.6567E+06     44.6004E+06    -547.447E+03    -303.705E-03     601.488E-03    -297.783E-03     267.707E-03    -319.303E-03     616.851E-03    -297.517E-03     207.012E-03
             437     8.68878E-03     113.352E-03    -37.2919E+06     19.7216E+06     52.9037E+06    -1.24015E+06    -303.267E-03     601.058E-03    -297.791E-03     275.643E-03    -320.124E-03     617.699E-03    -297.501E-03     212.646E-03
             438     9.35862E-03     113.755E-03    -29.5567E+06     32.7067E+06     61.2034E+06    -1.86208E+06    -302.197E-03     599.955E-03    -297.759E-03     275.880E-03    -319.532E-03     617.124E-03    -297.457E-03     212.133E-03
             439     10.0290E-03     114.150E-03    -23.5696E+06     40.6597E+06     64.8509E+06    -1.62747E+06    -301.587E-03     599.310E-03    -297.723E-03     267.882E-03    -318.568E-03     616.164E-03    -297.424E-03     204.546E-03
             440     10.6946E-03     114.529E-03    -17.6476E+06     44.6061E+06     67.3883E+06    -1.15594E+06    -301.298E-03     599.038E-03    -297.740E-03     255.109E-03    -317.210E-03     614.851E-03    -297.443E-03     193.467E-03
             441     11.3604E-03     114.890E-03    -11.7928E+06     52.3460E+06     69.0028E+06    -580.643E+03    -299.768E-03     597.523E-03    -297.755E-03     234.575E-03    -313.555E-03     611.254E-03    -297.469E-03     177.295E-03
             442     12.0330E-03     115.199E-03    -9.33460E+06     59.0248E+06     71.5617E+06    -745.209E+03    -298.207E-03     595.953E-03    -297.746E-03     216.879E-03    -310.366E-03     608.081E-03    -297.460E-03     162.794E-03
             443     12.6987E-03     115.495E-03    -5.77239E+06     60.0221E+06     75.3561E+06    -927.663E+03    -296.864E-03     594.594E-03    -297.730E-03     159.622E-03    -304.665E-03     602.369E-03    -297.432E-03     117.556E-03
             444     667.826E-06     112.159E-03    -125.415E+06    -211.805E+06    -124.750E+06     110.024E+03    -298.109E-03     595.592E-03    -297.482E-03     26.8936E-03    -298.399E-03     595.046E-03    -297.617E-03     21.4198E-03
             445     1.33586E-03     112.215E-03    -123.361E+06    -198.532E+06    -115.394E+06     422.246E+03    -298.083E-03     595.848E-03    -297.765E-03     49.8104E-03    -298.710E-03     595.667E-03    -297.875E-03     39.6923E-03
             446     2.00463E-03     112.306E-03    -118.070E+06    -180.143E+06    -100.044E+06     68.4108E+03    -298.381E-03     596.180E-03    -297.798E-03     73.7163E-03    -299.566E-03     596.595E-03    -297.866E-03     58.6470E-03
             447     2.67266E-03     112.433E-03    -111.058E+06    -162.768E+06    -81.3266E+06    -174.020E+03    -298.807E-03     596.637E-03    -297.830E-03     97.8941E-03    -300.773E-03     597.867E-03    -297.840E-03     77.6874E-03
             448     3.34113E-03     112.596E-03    -103.016E+06    -131.128E+06    -60.7485E+06     359.219E+03    -299.270E-03     597.107E-03    -297.837E-03     121.889E-03    -302.275E-03     599.457E-03    -297.801E-03     96.4527E-03
             449     4.00934E-03     112.793E-03    -94.5156E+06    -89.1757E+06    -38.9326E+06     218.123E+03    -299.765E-03     597.586E-03    -297.820E-03     145.963E-03    -304.077E-03     601.358E-03    -297.749E-03     115.161E-03
             450     4.67814E-03     113.025E-03    -85.8385E+06    -50.5931E+06    -16.9490E+06    -680.526E+03    -300.373E-03     598.175E-03    -297.802E-03     169.627E-03    -306.244E-03     603.611E-03    -297.689E-03     133.323E-03
             451     5.34646E-03     113.291E-03    -76.9478E+06    -23.6897E+06     1.07161E+06    -1.39061E+06    -301.137E-03     598.926E-03    -297.789E-03     192.868E-03    -308.802E-03     606.230E-03    -297.637E-03     150.993E-03
             452     6.01492E-03     113.591E-03    -67.5460E+06    -12.4911E+06     14.8256E+06    -452.344E+03    -301.881E-03     599.667E-03    -297.786E-03     215.151E-03    -311.506E-03     608.965E-03    -297.596E-03     167.900E-03
             453     6.68425E-03     113.924E-03    -58.7634E+06    -4.62013E+06     25.1867E+06     994.811E+03    -302.665E-03     600.446E-03    -297.781E-03     235.902E-03    -314.381E-03     611.863E-03    -297.563E-03     183.538E-03
             454     7.35236E-03     114.285E-03    -51.6908E+06     4.66714E+06     33.8824E+06     1.08712E+06    -303.379E-03     601.162E-03    -297.783E-03     254.154E-03    -317.191E-03     614.708E-03    -297.545E-03     197.109E-03
             455     8.02003E-03     114.670E-03    -44.4023E+06     14.5022E+06     43.3078E+06     643.366E+03    -303.443E-03     601.232E-03    -297.789E-03     267.683E-03    -319.049E-03     616.606E-03    -297.529E-03     207.032E-03
             456     8.68979E-03     115.069E-03    -36.9129E+06     25.4572E+06     53.7236E+06    -955.772E+03    -302.956E-03     600.739E-03    -297.783E-03     274.571E-03    -319.778E-03     617.365E-03    -297.498E-03     211.658E-03
             457     9.35872E-03     115.472E-03    -30.9316E+06     34.0527E+06     61.7081E+06    -3.13497E+06    -302.585E-03     600.365E-03    -297.780E-03     273.998E-03    -319.878E-03     617.490E-03    -297.476E-03     210.107E-03
             458     10.0250E-03     115.870E-03    -24.3268E+06     37.0171E+06     65.8648E+06    -3.16967E+06    -302.002E-03     599.795E-03    -297.792E-03     267.849E-03    -318.975E-03     616.621E-03    -297.481E-03     204.400E-03
             459     10.6934E-03     116.252E-03    -18.3527E+06     43.1385E+06     68.1440E+06    -1.32477E+06    -300.636E-03     598.419E-03    -297.784E-03     257.213E-03    -316.598E-03     614.272E-03    -297.479E-03     195.753E-03
             460     11.3655E-03     116.606E-03    -14.7269E+06     49.3151E+06     66.0732E+06     297.830E+03    -298.942E-03     596.665E-03    -297.724E-03     235.339E-03    -312.734E-03     610.389E-03    -297.443E-03     178.319E-03
             461     12.0320E-03     116.918E-03    -9.32215E+06     62.1806E+06     70.7810E+06    -334.463E+03    -297.842E-03     595.514E-03    -297.672E-03     216.623E-03    -309.924E-03     607.579E-03    -297.395E-03     162.844E-03
             462     12.7032E-03     117.217E-03    -3.07653E+06     60.7313E+06     76.5660E+06    -1.74876E+06    -296.830E-03     594.486E-03    -297.656E-03     158.639E-03    -304.560E-03     602.199E-03    -297.357E-03     116.719E-03
             463     668.511E-06     113.878E-03    -127.270E+06    -212.431E+06    -124.141E+06     173.813E+03    -297.732E-03     595.545E-03    -297.813E-03     27.0474E-03    -298.031E-03     594.998E-03    -297.941E-03     21.5202E-03
             464     1.33686E-03     113.934E-03    -123.154E+06    -198.297E+06    -115.337E+06    -121.624E+03    -298.069E-03     595.814E-03    -297.745E-03     49.6734E-03    -298.694E-03     595.633E-03    -297.856E-03     39.5551E-03
             465     2.00441E-03     114.025E-03    -118.224E+06    -180.201E+06    -100.074E+06    -230.046E+03    -298.396E-03     596.183E-03    -297.787E-03     73.6546E-03    -299.582E-03     596.599E-03    -297.854E-03     58.5558E-03
             466     2.67268E-03     114.152E-03    -111.643E+06    -163.247E+06    -81.0428E+06    -194.588E+03    -298.737E-03     596.557E-03    -297.821E-03     97.8483E-03    -300.707E-03     597.787E-03    -297.827E-03     77.6348E-03
             467     3.34095E-03     114.314E-03    -103.727E+06    -131.993E+06    -61.3768E+06    -43.2021E+03    -299.154E-03     596.963E-03    -297.809E-03     121.919E-03    -302.165E-03     599.315E-03    -297.774E-03     96.4608E-03
             468     4.00974E-03     114.511E-03    -94.8394E+06    -89.7383E+06    -40.3302E+06     426.691E+03    -299.814E-03     597.602E-03    -297.787E-03     145.775E-03    -304.122E-03     601.371E-03    -297.721E-03     114.962E-03
             469     4.67793E-03     114.743E-03    -85.3736E+06    -49.8716E+06    -17.5835E+06     1.27940E+06    -300.542E-03     598.333E-03    -297.792E-03     169.368E-03    -306.405E-03     603.768E-03    -297.684E-03     133.081E-03
             470     5.34651E-03     115.010E-03    -76.2986E+06    -22.9323E+06     1.87886E+06     1.44781E+06    -301.289E-03     599.097E-03    -297.808E-03     192.711E-03    -308.946E-03     606.396E-03    -297.655E-03     150.880E-03
             471     6.01495E-03     115.310E-03    -68.4798E+06    -13.5290E+06     14.1375E+06     1.33157E+06    -302.084E-03     599.905E-03    -297.821E-03     215.103E-03    -311.714E-03     609.203E-03    -297.631E-03     167.848E-03
             472     6.68269E-03     115.642E-03    -61.1113E+06    -5.94164E+06     22.3915E+06     817.379E+03    -302.742E-03     600.561E-03    -297.819E-03     236.056E-03    -314.482E-03     611.998E-03    -297.610E-03     183.620E-03
             473     7.35154E-03     116.004E-03    -52.4378E+06     4.94131E+06     33.5051E+06     425.044E+03    -303.117E-03     600.934E-03    -297.817E-03     254.261E-03    -316.934E-03     614.485E-03    -297.580E-03     197.259E-03
             474     8.02115E-03     116.389E-03    -43.8384E+06     16.4076E+06     45.6605E+06    -70.5396E+03    -303.345E-03     601.159E-03    -297.815E-03     267.354E-03    -318.929E-03     616.514E-03    -297.547E-03     206.770E-03
             475     8.68880E-03     116.787E-03    -36.4026E+06     29.0722E+06     56.4443E+06    -775.279E+03    -303.381E-03     601.201E-03    -297.821E-03     274.583E-03    -320.217E-03     617.848E-03    -297.528E-03     211.584E-03
             476     9.35613E-03     117.192E-03    -29.7697E+06     36.9527E+06     64.5104E+06    -656.104E+03    -302.790E-03     600.619E-03    -297.829E-03     275.780E-03    -320.162E-03     617.829E-03    -297.517E-03     211.817E-03
             477     10.0259E-03     117.590E-03    -24.6468E+06     37.8721E+06     67.7251E+06    -695.258E+03    -301.442E-03     599.250E-03    -297.808E-03     269.528E-03    -318.475E-03     616.134E-03    -297.489E-03     206.229E-03
             478     10.6969E-03     117.968E-03    -19.8872E+06     41.7717E+06     68.5940E+06    -1.54769E+06    -300.034E-03     597.786E-03    -297.752E-03     256.757E-03    -315.965E-03     613.596E-03    -297.441E-03     195.493E-03
             479     11.3627E-03     118.327E-03    -12.6170E+06     47.7238E+06     67.6841E+06    -3.23034E+06    -298.870E-03     596.549E-03    -297.679E-03     234.643E-03    -312.630E-03     610.237E-03    -297.391E-03     177.575E-03
             480     12.0333E-03     118.635E-03    -5.54573E+06     60.7206E+06     72.5800E+06    -2.22099E+06    -297.943E-03     595.576E-03    -297.633E-03     216.555E-03    -310.025E-03     607.644E-03    -297.351E-03     162.645E-03
             481     12.7011E-03     118.933E-03    -2.35085E+06     58.9076E+06     77.1497E+06     740.079E+03    -297.125E-03     594.755E-03    -297.630E-03     158.182E-03    -304.848E-03     602.456E-03    -297.327E-03     116.238E-03
             482     667.874E-06     115.597E-03    -128.079E+06    -211.788E+06    -126.189E+06    -416.831E+03    -297.761E-03     595.642E-03    -297.881E-03     27.3399E-03    -298.061E-03     595.102E-03    -298.019E-03     21.8418E-03
             483     1.33574E-03     115.653E-03    -124.967E+06    -198.219E+06    -116.974E+06    -419.512E+03    -298.090E-03     595.878E-03    -297.788E-03     49.6179E-03    -298.724E-03     595.703E-03    -297.904E-03     39.4796E-03
             484     2.00454E-03     115.745E-03    -119.948E+06    -180.279E+06    -101.630E+06    -298.288E+03    -298.298E-03     596.106E-03    -297.807E-03     73.5457E-03    -299.490E-03     596.526E-03    -297.880E-03     58.4374E-03
             485     2.67280E-03     115.871E-03    -112.863E+06    -163.319E+06    -82.3019E+06    -31.0397E+03    -298.676E-03     596.495E-03    -297.819E-03     97.5528E-03    -300.646E-03     597.723E-03    -297.830E-03     77.3684E-03
             486     3.34140E-03     116.033E-03    -104.888E+06    -132.140E+06    -62.7029E+06    -283.959E+03    -299.270E-03     597.085E-03    -297.815E-03     121.616E-03    -302.277E-03     599.432E-03    -297.784E-03     96.1655E-03
             487     4.00942E-03     116.230E-03    -96.4311E+06    -91.4243E+06    -42.7207E+06    -277.300E+03    -299.910E-03     597.721E-03    -297.811E-03     145.439E-03    -304.209E-03     601.477E-03    -297.752E-03     114.641E-03
             488     4.67791E-03     116.463E-03    -87.4129E+06    -53.8824E+06    -21.6205E+06     586.544E+03    -300.555E-03     598.374E-03    -297.819E-03     169.204E-03    -306.416E-03     603.796E-03    -297.722E-03     132.893E-03
             489     5.34619E-03     116.729E-03    -77.9624E+06    -25.7913E+06    -2.73095E+06     2.45459E+06    -301.244E-03     599.069E-03    -297.825E-03     192.545E-03    -308.888E-03     606.352E-03    -297.688E-03     150.770E-03
             490     6.01464E-03     117.029E-03    -68.2339E+06    -12.7297E+06     12.5736E+06     2.84955E+06    -302.012E-03     599.845E-03    -297.833E-03     215.346E-03    -311.652E-03     609.161E-03    -297.653E-03     168.108E-03
             491     6.68352E-03     117.362E-03    -58.5808E+06    -2.46613E+06     25.3331E+06     1.73266E+06    -302.764E-03     600.601E-03    -297.837E-03     236.520E-03    -314.528E-03     612.075E-03    -297.622E-03     184.043E-03
             492     7.35190E-03     117.722E-03    -50.6009E+06     6.87332E+06     36.2514E+06     508.277E+03    -303.244E-03     601.082E-03    -297.838E-03     254.348E-03    -317.056E-03     614.634E-03    -297.594E-03     197.358E-03
             493     8.01983E-03     118.107E-03    -43.2307E+06     18.0745E+06     47.2662E+06    -457.585E+03    -303.391E-03     601.227E-03    -297.835E-03     267.714E-03    -318.982E-03     616.591E-03    -297.562E-03     207.129E-03
             494     8.68886E-03     118.507E-03    -35.9421E+06     28.4342E+06     57.8064E+06    -104.180E+03    -303.128E-03     600.954E-03    -297.826E-03     275.394E-03    -319.986E-03     617.618E-03    -297.526E-03     212.444E-03
             495     9.35884E-03     118.911E-03    -29.4267E+06     35.2397E+06     65.2591E+06     1.37336E+06    -302.330E-03     600.131E-03    -297.801E-03     275.803E-03    -319.678E-03     617.310E-03    -297.483E-03     212.024E-03
             496     10.0276E-03     119.308E-03    -22.4208E+06     41.5770E+06     69.2869E+06     1.03986E+06    -301.302E-03     599.058E-03    -297.756E-03     268.957E-03    -318.311E-03     615.934E-03    -297.438E-03     205.728E-03
             497     10.6934E-03     119.688E-03    -15.0830E+06     47.3444E+06     72.3192E+06    -1.61085E+06    -300.169E-03     597.879E-03    -297.711E-03     256.921E-03    -316.130E-03     613.746E-03    -297.396E-03     195.507E-03
             498     11.3658E-03     120.042E-03    -10.9362E+06     50.1048E+06     71.6028E+06    -2.65053E+06    -299.108E-03     596.769E-03    -297.662E-03     234.994E-03    -312.904E-03     610.497E-03    -297.361E-03     177.809E-03
             499     12.0338E-03     120.355E-03    -9.43966E+06     53.2625E+06     74.0717E+06    -979.848E+03    -298.368E-03     596.018E-03    -297.650E-03     215.762E-03    -310.464E-03     608.055E-03    -297.343E-03     161.727E-03
             500     12.7028E-03     120.653E-03    -6.15502E+06     54.9652E+06     78.3841E+06     707.487E+03    -297.268E-03     594.931E-03    -297.663E-03     157.885E-03    -305.001E-03     602.610E-03    -297.342E-03     115.900E-03
             501     668.346E-06     117.316E-03    -128.996E+06    -210.295E+06    -127.290E+06    -272.464E+03    -298.115E-03     595.644E-03    -297.529E-03     27.3277E-03    -298.421E-03     595.115E-03    -297.674E-03     21.8784E-03
             502     1.33667E-03     117.373E-03    -126.553E+06    -197.487E+06    -118.490E+06    -511.587E+03    -298.058E-03     595.836E-03    -297.778E-03     49.9492E-03    -298.700E-03     595.672E-03    -297.901E-03     39.8016E-03
             503     2.00421E-03     117.463E-03    -121.246E+06    -179.807E+06    -103.541E+06    -496.751E+03    -298.363E-03     596.162E-03    -297.799E-03     73.5450E-03    -299.558E-03     596.589E-03    -297.880E-03     58.4462E-03
             504     2.67269E-03     117.589E-03    -114.741E+06    -163.813E+06    -85.2500E+06    -608.070E+03    -298.836E-03     596.671E-03    -297.836E-03     97.5706E-03    -300.810E-03     597.904E-03    -297.858E-03     77.3629E-03
             505     3.34061E-03     117.752E-03    -107.098E+06    -132.661E+06    -65.7681E+06    -326.004E+03    -299.422E-03     597.281E-03    -297.859E-03     121.612E-03    -302.434E-03     599.632E-03    -297.840E-03     96.1528E-03
             506     4.00906E-03     117.949E-03    -98.7796E+06    -92.2951E+06    -45.0226E+06    -15.1556E+03    -299.902E-03     597.767E-03    -297.864E-03     145.463E-03    -304.212E-03     601.529E-03    -297.812E-03     114.660E-03
             507     4.67744E-03     118.181E-03    -90.0672E+06    -56.3100E+06    -24.2692E+06     36.5756E+03    -300.433E-03     598.288E-03    -297.855E-03     169.379E-03    -306.298E-03     603.703E-03    -297.764E-03     133.097E-03
             508     5.34600E-03     118.448E-03    -80.4098E+06    -28.2635E+06    -5.40749E+06    -48.4637E+03    -301.131E-03     598.968E-03    -297.837E-03     192.901E-03    -308.787E-03     606.253E-03    -297.706E-03     151.106E-03
             509     6.01472E-03     118.747E-03    -70.2134E+06    -13.8828E+06     10.2799E+06    -578.790E+03    -301.947E-03     599.776E-03    -297.829E-03     215.552E-03    -311.590E-03     609.091E-03    -297.656E-03     168.289E-03
             510     6.68322E-03     119.081E-03    -60.8653E+06    -2.82644E+06     22.9005E+06    -662.925E+03    -302.691E-03     600.515E-03    -297.824E-03     236.396E-03    -314.445E-03     611.977E-03    -297.617E-03     183.936E-03
             511     7.35165E-03     119.442E-03    -52.2154E+06     7.68041E+06     33.8822E+06    -662.763E+03    -303.213E-03     601.032E-03    -297.820E-03     254.401E-03    -317.039E-03     614.602E-03    -297.586E-03     197.356E-03
             512     8.02063E-03     119.826E-03    -44.6460E+06     18.1468E+06     44.6750E+06    -591.407E+03    -303.285E-03     601.096E-03    -297.811E-03     268.021E-03    -318.906E-03     616.494E-03    -297.549E-03     207.384E-03
             513     8.68953E-03     120.225E-03    -37.8418E+06     26.9927E+06     54.7427E+06    -254.356E+03    -302.915E-03     600.707E-03    -297.792E-03     275.149E-03    -319.764E-03     617.359E-03    -297.503E-03     212.242E-03
             514     9.35744E-03     120.629E-03    -30.1165E+06     34.0416E+06     62.1138E+06    -1.38961E+06    -302.282E-03     600.043E-03    -297.761E-03     275.417E-03    -319.619E-03     617.213E-03    -297.456E-03     211.592E-03
             515     10.0258E-03     121.026E-03    -22.2079E+06     42.0120E+06     67.1267E+06    -2.26946E+06    -301.185E-03     598.904E-03    -297.718E-03     268.763E-03    -318.187E-03     615.781E-03    -297.411E-03     205.488E-03
             516     10.6986E-03     121.406E-03    -17.0285E+06     48.0100E+06     69.8237E+06    -676.155E+03    -300.284E-03     597.964E-03    -297.681E-03     256.122E-03    -316.224E-03     613.812E-03    -297.377E-03     194.697E-03
             517     11.3640E-03     121.761E-03    -13.7108E+06     49.2601E+06     69.7716E+06     1.54600E+06    -299.607E-03     597.272E-03    -297.666E-03     233.877E-03    -313.363E-03     610.952E-03    -297.368E-03     176.711E-03
             518     12.0320E-03     122.075E-03    -9.18165E+06     52.2126E+06     74.7863E+06     1.51605E+06    -298.394E-03     596.074E-03    -297.681E-03     215.313E-03    -310.423E-03     608.039E-03    -297.369E-03     161.508E-03
             519     12.7002E-03     122.369E-03    -3.79505E+06     55.3467E+06     80.7195E+06     105.071E+03    -296.646E-03     594.323E-03    -297.677E-03     158.641E-03    -304.373E-03     601.999E-03    -297.348E-03     116.738E-03
             520     667.861E-06     119.034E-03    -129.418E+06    -209.316E+06    -127.755E+06    -425.159E+03    -298.281E-03     595.681E-03    -297.400E-03     26.8089E-03    -298.588E-03     595.156E-03    -297.547E-03     21.3300E-03
             521     1.33607E-03     119.092E-03    -126.998E+06    -196.705E+06    -119.237E+06    -407.753E+03    -298.012E-03     595.797E-03    -297.785E-03     49.6363E-03    -298.650E-03     595.632E-03    -297.912E-03     39.5717E-03
             522     2.00474E-03     119.182E-03    -122.288E+06    -179.580E+06    -105.102E+06    -342.121E+03    -298.408E-03     596.207E-03    -297.799E-03     73.3485E-03    -299.604E-03     596.636E-03    -297.887E-03     58.2716E-03
             523     2.67258E-03     119.309E-03    -115.931E+06    -163.396E+06    -86.5890E+06    -509.330E+03    -298.914E-03     596.765E-03    -297.851E-03     97.7228E-03    -300.895E-03     598.006E-03    -297.879E-03     77.5045E-03
             524     3.34087E-03     119.471E-03    -108.154E+06    -132.903E+06    -67.1989E+06    -619.019E+03    -299.311E-03     597.177E-03    -297.866E-03     121.987E-03    -302.332E-03     599.536E-03    -297.852E-03     96.5291E-03
             525     4.00905E-03     119.668E-03    -99.1159E+06    -93.2240E+06    -46.1586E+06    -389.761E+03    -299.823E-03     597.670E-03    -297.847E-03     146.107E-03    -304.145E-03     601.443E-03    -297.799E-03     115.285E-03
             526     4.67753E-03     119.900E-03    -89.1417E+06    -56.0919E+06    -23.4809E+06    -420.169E+03    -300.495E-03     598.331E-03    -297.835E-03     169.854E-03    -306.365E-03     603.753E-03    -297.742E-03     133.570E-03
             527     5.34641E-03     120.166E-03    -79.0590E+06    -27.3361E+06    -3.42214E+06    -1.08403E+06    -301.246E-03     599.077E-03    -297.831E-03     193.070E-03    -308.912E-03     606.375E-03    -297.694E-03     151.206E-03
             528     6.01480E-03     120.467E-03    -69.7373E+06    -13.4525E+06     11.4938E+06    -1.31740E+06    -302.017E-03     599.850E-03    -297.833E-03     215.443E-03    -311.651E-03     609.156E-03    -297.655E-03     168.174E-03
             529     6.68319E-03     120.799E-03    -61.1668E+06    -3.53366E+06     23.7947E+06    -1.74557E+06    -302.592E-03     600.419E-03    -297.827E-03     236.484E-03    -314.336E-03     611.864E-03    -297.615E-03     184.088E-03
             530     7.35205E-03     121.161E-03    -52.7766E+06     6.39892E+06     34.7308E+06    -1.70959E+06    -303.028E-03     600.837E-03    -297.809E-03     254.562E-03    -316.861E-03     614.405E-03    -297.568E-03     197.533E-03
             531     8.02063E-03     121.544E-03    -44.4607E+06     16.4952E+06     44.3445E+06    -523.672E+03    -303.237E-03     601.022E-03    -297.786E-03     267.760E-03    -318.841E-03     616.398E-03    -297.523E-03     207.158E-03
             532     8.68906E-03     121.944E-03    -36.1976E+06     29.3392E+06     54.5820E+06    -1.17696E+06    -302.973E-03     600.736E-03    -297.763E-03     275.221E-03    -319.825E-03     617.405E-03    -297.480E-03     212.280E-03
             533     9.35870E-03     122.347E-03    -29.1114E+06     37.0044E+06     62.1645E+06    -2.59001E+06    -302.238E-03     599.971E-03    -297.734E-03     275.739E-03    -319.601E-03     617.182E-03    -297.434E-03     211.859E-03
             534     10.0284E-03     122.745E-03    -24.6423E+06     38.8613E+06     65.6575E+06    -1.20240E+06    -301.292E-03     598.993E-03    -297.700E-03     268.720E-03    -318.295E-03     615.855E-03    -297.392E-03     205.452E-03
             535     10.6932E-03     123.122E-03    -19.7141E+06     43.2052E+06     68.5951E+06     715.163E+03    -300.697E-03     598.375E-03    -297.678E-03     257.197E-03    -316.665E-03     614.228E-03    -297.369E-03     195.766E-03
             536     11.3639E-03     123.484E-03    -13.4638E+06     47.0204E+06     68.1571E+06     717.144E+03    -299.658E-03     597.314E-03    -297.655E-03     235.527E-03    -313.481E-03     611.058E-03    -297.363E-03     178.286E-03
             537     12.0332E-03     123.791E-03    -8.39452E+06     54.2489E+06     70.4423E+06     438.134E+03    -298.282E-03     595.921E-03    -297.639E-03     216.402E-03    -310.372E-03     607.970E-03    -297.354E-03     162.476E-03
             538     12.7031E-03     124.091E-03    -4.15878E+06     56.7588E+06     74.4934E+06     101.490E+03    -296.825E-03     594.454E-03    -297.629E-03     158.045E-03    -304.559E-03     602.158E-03    -297.333E-03     116.072E-03
             539     668.289E-06     120.754E-03    -130.149E+06    -209.340E+06    -127.923E+06     192.654E+03    -298.700E-03     596.065E-03    -297.365E-03     26.6679E-03    -299.009E-03     595.540E-03    -297.512E-03     21.2056E-03
             540     1.33622E-03     120.810E-03    -126.954E+06    -196.426E+06    -118.953E+06     63.8364E+03    -297.949E-03     595.882E-03    -297.933E-03     49.2589E-03    -298.586E-03     595.716E-03    -298.059E-03     39.2074E-03
             541     2.00416E-03     120.901E-03    -122.287E+06    -179.076E+06    -104.701E+06    -161.633E+03    -298.229E-03     596.086E-03    -297.857E-03     73.5409E-03    -299.430E-03     596.521E-03    -297.944E-03     58.4330E-03
             542     2.67250E-03     121.028E-03    -115.573E+06    -162.473E+06    -85.8143E+06    -447.391E+03    -298.692E-03     596.535E-03    -297.843E-03     97.7829E-03    -300.675E-03     597.780E-03    -297.869E-03     77.5718E-03
             543     3.34089E-03     121.189E-03    -107.376E+06    -131.746E+06    -65.8030E+06    -999.087E+03    -299.174E-03     596.997E-03    -297.824E-03     122.007E-03    -302.195E-03     599.361E-03    -297.806E-03     96.5528E-03
             544     4.00976E-03     121.387E-03    -98.6852E+06    -92.4843E+06    -45.1126E+06    -1.68716E+06    -299.865E-03     597.670E-03    -297.805E-03     145.849E-03    -304.180E-03     601.437E-03    -297.754E-03     115.010E-03
             545     4.67831E-03     121.619E-03    -89.2868E+06    -55.8755E+06    -23.2480E+06    -2.16895E+06    -300.602E-03     598.416E-03    -297.814E-03     169.372E-03    -306.465E-03     603.831E-03    -297.720E-03     133.048E-03
             546     5.34607E-03     121.886E-03    -79.3441E+06    -27.6780E+06    -3.50696E+06    -2.13971E+06    -301.261E-03     599.086E-03    -297.825E-03     192.893E-03    -308.917E-03     606.372E-03    -297.687E-03     151.034E-03
             547     6.01447E-03     122.186E-03    -69.8315E+06    -13.4744E+06     11.3346E+06    -1.76749E+06    -301.873E-03     599.693E-03    -297.820E-03     215.671E-03    -311.520E-03     609.011E-03    -297.642E-03     168.395E-03
             548     6.68342E-03     122.518E-03    -60.9121E+06    -2.56358E+06     23.7297E+06    -1.26757E+06    -302.466E-03     600.265E-03    -297.799E-03     236.671E-03    -314.229E-03     611.734E-03    -297.588E-03     184.247E-03
             549     7.35216E-03     122.879E-03    -52.6117E+06     5.60017E+06     34.9441E+06    -1.11132E+06    -303.008E-03     600.785E-03    -297.777E-03     254.762E-03    -316.838E-03     614.347E-03    -297.534E-03     197.784E-03
             550     8.02079E-03     123.264E-03    -44.9167E+06     16.9653E+06     45.1118E+06    -2.53903E+06    -303.128E-03     600.877E-03    -297.749E-03     268.089E-03    -318.739E-03     616.257E-03    -297.482E-03     207.512E-03
             551     8.69006E-03     123.661E-03    -37.7106E+06     30.3186E+06     55.5169E+06    -3.17313E+06    -302.842E-03     600.558E-03    -297.716E-03     275.722E-03    -319.721E-03     617.250E-03    -297.428E-03     212.786E-03
             552     9.35827E-03     124.066E-03    -31.1155E+06     33.8770E+06     63.1294E+06    -1.25954E+06    -302.383E-03     600.074E-03    -297.691E-03     276.223E-03    -319.753E-03     617.271E-03    -297.379E-03     212.395E-03
             553     10.0261E-03     124.461E-03    -24.1238E+06     36.0993E+06     67.9815E+06     228.622E+03    -301.654E-03     599.328E-03    -297.673E-03     269.377E-03    -318.687E-03     616.205E-03    -297.351E-03     206.041E-03
             554     10.6988E-03     124.845E-03    -18.0182E+06     42.2816E+06     69.3179E+06     27.0197E+03    -300.712E-03     598.361E-03    -297.649E-03     257.431E-03    -316.688E-03     614.222E-03    -297.338E-03     195.963E-03
             555     11.3658E-03     125.201E-03    -13.1086E+06     47.0313E+06     66.4390E+06    -362.281E+03    -299.451E-03     597.064E-03    -297.613E-03     234.726E-03    -313.237E-03     610.778E-03    -297.330E-03     177.531E-03
             556     12.0336E-03     125.512E-03    -8.25118E+06     54.4399E+06     69.2339E+06    -326.002E+03    -298.705E-03     596.321E-03    -297.616E-03     215.429E-03    -310.823E-03     608.402E-03    -297.337E-03     161.247E-03
             557     12.7008E-03     125.807E-03    -4.28118E+06     56.5469E+06     72.6264E+06    -86.9359E+03    -297.532E-03     595.176E-03    -297.643E-03     156.444E-03    -305.238E-03     602.856E-03    -297.356E-03     114.459E-03
             558     667.230E-06     122.475E-03    -128.592E+06    -209.609E+06    -127.407E+06     234.759E+03    -298.508E-03     595.892E-03    -297.384E-03     26.7591E-03    -298.812E-03     595.366E-03    -297.531E-03     21.2332E-03
             559     1.33564E-03     122.529E-03    -126.222E+06    -196.749E+06    -118.000E+06     263.756E+03    -297.938E-03     595.798E-03    -297.860E-03     49.9126E-03    -298.583E-03     595.639E-03    -297.982E-03     39.7387E-03
             560     2.00440E-03     122.620E-03    -120.813E+06    -178.550E+06    -102.936E+06     74.3204E+03    -298.212E-03     596.014E-03    -297.801E-03     74.1541E-03    -299.416E-03     596.454E-03    -297.882E-03     59.0160E-03
             561     2.67285E-03     122.746E-03    -114.091E+06    -161.215E+06    -84.0189E+06    -283.535E+03    -298.691E-03     596.486E-03    -297.795E-03     97.8471E-03    -300.671E-03     597.732E-03    -297.816E-03     77.6488E-03
             562     3.34138E-03     122.908E-03    -106.355E+06    -130.427E+06    -64.0886E+06    -731.250E+03    -299.350E-03     597.153E-03    -297.803E-03     121.804E-03    -302.364E-03     599.512E-03    -297.780E-03     96.3612E-03
             563     4.00918E-03     123.106E-03    -98.0148E+06    -90.4480E+06    -43.1012E+06    -953.125E+03    -299.936E-03     597.749E-03    -297.813E-03     145.735E-03    -304.251E-03     601.520E-03    -297.755E-03     114.913E-03
             564     4.67708E-03     123.338E-03    -89.2001E+06    -53.3822E+06    -21.3407E+06    -1.69264E+06    -300.461E-03     598.276E-03    -297.816E-03     169.729E-03    -306.340E-03     603.712E-03    -297.716E-03     133.403E-03
             565     5.34628E-03     123.604E-03    -80.0259E+06    -26.6728E+06    -2.28074E+06    -2.45463E+06    -301.059E-03     598.861E-03    -297.802E-03     193.284E-03    -308.732E-03     606.162E-03    -297.658E-03     151.438E-03
             566     6.01532E-03     123.905E-03    -70.7341E+06    -14.3958E+06     12.2562E+06    -2.33984E+06    -301.745E-03     599.524E-03    -297.779E-03     215.847E-03    -311.401E-03     608.842E-03    -297.595E-03     168.585E-03
             567     6.68381E-03     124.237E-03    -61.5639E+06    -3.86352E+06     23.7496E+06    -1.87177E+06    -302.449E-03     600.198E-03    -297.749E-03     236.865E-03    -314.219E-03     611.666E-03    -297.535E-03     184.441E-03
             568     7.35250E-03     124.597E-03    -52.7817E+06     6.36075E+06     33.6424E+06    -2.32163E+06    -302.868E-03     600.579E-03    -297.712E-03     254.906E-03    -316.688E-03     614.137E-03    -297.476E-03     197.979E-03
             569     8.02169E-03     124.982E-03    -44.1818E+06     19.7720E+06     44.9145E+06    -3.00206E+06    -302.988E-03     600.662E-03    -297.674E-03     268.272E-03    -318.597E-03     616.054E-03    -297.414E-03     207.733E-03
             570     8.69040E-03     125.380E-03    -36.4606E+06     27.4389E+06     56.5641E+06    -1.80598E+06    -303.022E-03     600.684E-03    -297.661E-03     275.491E-03    -319.885E-03     617.350E-03    -297.365E-03     212.539E-03
             571     9.36020E-03     125.785E-03    -29.3290E+06     30.1972E+06     64.6528E+06    -3.20081E+03    -302.610E-03     600.273E-03    -297.663E-03     275.397E-03    -319.937E-03     617.416E-03    -297.341E-03     211.564E-03
             572     10.0298E-03     126.183E-03    -23.4906E+06     36.1975E+06     66.8846E+06    -336.012E+03    -301.911E-03     599.569E-03    -297.658E-03     268.396E-03    -318.914E-03     616.423E-03    -297.342E-03     204.970E-03
             573     10.6939E-03     126.561E-03    -18.2469E+06     42.2784E+06     66.7061E+06    -921.921E+03    -300.825E-03     598.479E-03    -297.654E-03     255.766E-03    -316.743E-03     614.289E-03    -297.355E-03     194.268E-03
             574     11.3639E-03     126.920E-03    -12.6005E+06     47.1851E+06     65.9800E+06    -506.864E+03    -299.443E-03     597.084E-03    -297.641E-03     233.744E-03    -313.179E-03     610.752E-03    -297.361E-03     176.594E-03
             575     12.0331E-03     127.231E-03    -7.73119E+06     53.1975E+06     69.9170E+06    -281.535E+03    -298.649E-03     596.299E-03    -297.650E-03     215.972E-03    -310.779E-03     608.388E-03    -297.366E-03     161.807E-03
             576     12.7008E-03     127.532E-03    -3.46032E+06     55.9557E+06     74.7455E+06     150.402E+03    -297.242E-03     594.911E-03    -297.668E-03     156.988E-03    -304.953E-03     602.591E-03    -297.371E-03     115.104E-03
             577     669.101E-06     124.193E-03    -128.235E+06    -210.529E+06    -124.861E+06     190.673E+03    -297.135E-03     594.944E-03    -297.809E-03     26.7294E-03    -297.441E-03     594.410E-03    -297.942E-03     21.1956E-03
             578     1.33719E-03     124.248E-03    -124.011E+06    -197.245E+06    -116.110E+06     277.833E+03    -298.075E-03     595.582E-03    -297.507E-03     50.0651E-03    -298.711E-03     595.414E-03    -297.622E-03     39.9015E-03
             579     2.00482E-03     124.339E-03    -119.255E+06    -178.619E+06    -101.564E+06     297.358E+03    -298.461E-03     596.097E-03    -297.636E-03     73.9538E-03    -299.654E-03     596.527E-03    -297.712E-03     58.8630E-03
             580     2.67300E-03     124.465E-03    -112.564E+06    -160.564E+06    -82.5513E+06     154.972E+03    -298.895E-03     596.626E-03    -297.731E-03     97.8709E-03    -300.870E-03     597.871E-03    -297.748E-03     77.6778E-03
             581     3.34074E-03     124.628E-03    -104.819E+06    -129.825E+06    -62.1437E+06     203.843E+03    -299.365E-03     597.141E-03    -297.776E-03     122.132E-03    -302.380E-03     599.503E-03    -297.746E-03     96.7098E-03
             582     4.00940E-03     124.825E-03    -95.6787E+06    -89.7858E+06    -40.3892E+06     299.093E+03    -299.783E-03     597.560E-03    -297.777E-03     146.289E-03    -304.106E-03     601.342E-03    -297.710E-03     115.473E-03
             583     4.67870E-03     125.057E-03    -85.8498E+06    -51.3636E+06    -17.5953E+06     423.903E+03    -300.348E-03     598.109E-03    -297.761E-03     170.037E-03    -306.225E-03     603.550E-03    -297.650E-03     133.751E-03
             584     5.34689E-03     125.323E-03    -76.5966E+06    -24.2149E+06     1.87303E+06     456.535E+03    -301.022E-03     598.765E-03    -297.743E-03     193.241E-03    -308.685E-03     606.065E-03    -297.587E-03     151.468E-03
             585     6.01518E-03     125.623E-03    -67.4529E+06    -12.7702E+06     16.6856E+06    -209.540E+03    -301.728E-03     599.455E-03    -297.727E-03     215.767E-03    -311.370E-03     608.764E-03    -297.527E-03     168.564E-03
             586     6.68428E-03     125.955E-03    -58.1379E+06    -1.48435E+06     27.9901E+06    -1.72510E+06    -302.373E-03     600.067E-03    -297.695E-03     236.899E-03    -314.130E-03     611.532E-03    -297.468E-03     184.503E-03
             587     7.35316E-03     126.316E-03    -49.1067E+06     9.07342E+06     38.8490E+06    -2.84828E+06    -302.856E-03     600.522E-03    -297.665E-03     254.606E-03    -316.666E-03     614.076E-03    -297.413E-03     197.652E-03
             588     8.02218E-03     126.699E-03    -41.1056E+06     16.9441E+06     49.4133E+06    -1.74889E+06    -303.351E-03     601.010E-03    -297.659E-03     267.623E-03    -318.923E-03     616.353E-03    -297.376E-03     207.060E-03
             589     8.69115E-03     127.100E-03    -34.4421E+06     23.5602E+06     57.4087E+06     564.267E+03    -303.463E-03     601.138E-03    -297.675E-03     274.357E-03    -320.283E-03     617.753E-03    -297.372E-03     211.344E-03
             590     9.35810E-03     127.502E-03    -28.3837E+06     30.7569E+06     62.2854E+06     861.648E+03    -302.869E-03     600.566E-03    -297.697E-03     274.331E-03    -320.185E-03     617.710E-03    -297.389E-03     210.350E-03
             591     10.0253E-03     127.900E-03    -22.5594E+06     37.7488E+06     64.7475E+06     382.075E+03    -301.833E-03     599.535E-03    -297.702E-03     268.184E-03    -318.804E-03     616.373E-03    -297.400E-03     204.828E-03
             592     10.6971E-03     128.284E-03    -17.0067E+06     43.3945E+06     67.1761E+06     384.385E+03    -300.602E-03     598.297E-03    -297.695E-03     256.149E-03    -316.502E-03     614.096E-03    -297.397E-03     194.800E-03
             593     11.3643E-03     128.636E-03    -12.4180E+06     47.0298E+06     66.9806E+06     176.446E+03    -299.412E-03     597.081E-03    -297.669E-03     235.064E-03    -313.193E-03     610.791E-03    -297.385E-03     177.920E-03
             594     12.0321E-03     128.952E-03    -8.67905E+06     52.4985E+06     69.9323E+06     36.9436E+03    -298.296E-03     595.950E-03    -297.654E-03     217.129E-03    -310.451E-03     608.058E-03    -297.368E-03     163.070E-03
             595     12.7023E-03     129.246E-03    -4.14925E+06     55.4501E+06     74.6382E+06    -294.091E+03    -297.099E-03     594.752E-03    -297.654E-03     156.657E-03    -304.824E-03     602.443E-03    -297.355E-03     114.704E-03
             596     668.342E-06     125.910E-03    -125.793E+06    -211.319E+06    -123.791E+06     12.4522E+03    -296.787E-03     594.851E-03    -298.064E-03     26.7261E-03    -297.080E-03     594.306E-03    -298.194E-03     21.2196E-03
             597     1.33660E-03     125.967E-03    -122.633E+06    -198.226E+06    -114.833E+06     189.980E+03    -298.022E-03     595.483E-03    -297.461E-03     49.3877E-03    -298.643E-03     595.298E-03    -297.570E-03     39.2961E-03
             598     2.00499E-03     126.058E-03    -117.568E+06    -179.229E+06    -100.016E+06     370.142E+03    -298.383E-03     595.973E-03    -297.590E-03     73.5226E-03    -299.564E-03     596.390E-03    -297.660E-03     58.4680E-03
             599     2.67298E-03     126.184E-03    -110.944E+06    -160.900E+06    -80.7424E+06     579.861E+03    -298.774E-03     596.448E-03    -297.674E-03     97.9710E-03    -300.743E-03     597.686E-03    -297.684E-03     77.7978E-03
             600     3.34175E-03     126.346E-03    -102.641E+06    -130.163E+06    -59.9130E+06     656.987E+03    -299.177E-03     596.877E-03    -297.700E-03     122.137E-03    -302.184E-03     599.231E-03    -297.662E-03     96.7362E-03
             601     4.01026E-03     126.543E-03    -93.6490E+06    -90.4513E+06    -38.3656E+06     612.877E+03    -299.727E-03     597.420E-03    -297.693E-03     146.108E-03    -304.038E-03     601.188E-03    -297.618E-03     115.310E-03
             602     4.67802E-03     126.775E-03    -84.5368E+06    -52.8229E+06    -16.4011E+06     1.09388E+06    -300.365E-03     598.052E-03    -297.687E-03     169.722E-03    -306.222E-03     603.469E-03    -297.570E-03     133.494E-03
             603     5.34702E-03     127.041E-03    -74.4853E+06    -23.8086E+06     2.95404E+06     1.26221E+06    -300.965E-03     598.638E-03    -297.674E-03     193.065E-03    -308.610E-03     605.927E-03    -297.516E-03     151.338E-03
             604     6.01621E-03     127.342E-03    -63.8299E+06    -8.93118E+06     19.1178E+06     85.7245E+03    -301.725E-03     599.387E-03    -297.662E-03     215.764E-03    -311.365E-03     608.714E-03    -297.461E-03     168.527E-03
             605     6.68465E-03     127.673E-03    -54.0486E+06     2.05679E+06     32.7296E+06    -1.01501E+06    -302.522E-03     600.180E-03    -297.658E-03     236.548E-03    -314.270E-03     611.648E-03    -297.419E-03     184.108E-03
             606     7.35361E-03     128.034E-03    -46.2797E+06     9.11426E+06     43.2554E+06     7.00534E+03    -303.338E-03     601.013E-03    -297.675E-03     253.900E-03    -317.139E-03     614.557E-03    -297.405E-03     196.845E-03
             607     8.02175E-03     128.418E-03    -40.5748E+06     14.2097E+06     50.5209E+06     1.78023E+06    -303.816E-03     601.527E-03    -297.712E-03     266.834E-03    -319.380E-03     616.851E-03    -297.421E-03     206.178E-03
             608     8.68899E-03     128.819E-03    -34.9008E+06     22.0501E+06     56.5826E+06     1.81107E+06    -303.510E-03     601.251E-03    -297.741E-03     274.317E-03    -320.324E-03     617.855E-03    -297.440E-03     211.324E-03
             609     9.35842E-03     129.222E-03    -28.2567E+06     31.5745E+06     62.5989E+06     1.21238E+06    -302.898E-03     600.654E-03    -297.756E-03     275.246E-03    -320.244E-03     617.830E-03    -297.448E-03     211.265E-03
             610     10.0277E-03     129.621E-03    -21.5699E+06     38.5362E+06     67.0826E+06     1.34756E+06    -301.636E-03     599.389E-03    -297.753E-03     268.533E-03    -318.622E-03     616.240E-03    -297.442E-03     205.228E-03
             611     10.6941E-03     129.998E-03    -16.4117E+06     43.4970E+06     68.8825E+06     1.70007E+06    -300.208E-03     597.929E-03    -297.721E-03     256.139E-03    -316.097E-03     613.715E-03    -297.416E-03     194.902E-03
             612     11.3642E-03     130.359E-03    -12.3212E+06     47.7884E+06     67.4660E+06     1.85468E+06    -299.137E-03     596.805E-03    -297.668E-03     234.441E-03    -312.858E-03     610.456E-03    -297.382E-03     177.502E-03
             613     12.0343E-03     130.667E-03    -7.59697E+06     54.5153E+06     71.5516E+06     1.24698E+06    -298.066E-03     595.707E-03    -297.641E-03     216.497E-03    -310.148E-03     607.748E-03    -297.352E-03     162.672E-03
             614     12.7010E-03     130.970E-03    -3.35267E+06     56.0815E+06     76.3304E+06     128.556E+03    -297.197E-03     594.836E-03    -297.639E-03     157.744E-03    -304.933E-03     602.538E-03    -297.334E-03     115.798E-03
             615     668.212E-06     127.628E-03    -124.703E+06    -212.037E+06    -122.507E+06    -59.5065E+03    -297.561E-03     595.348E-03    -297.786E-03     27.3416E-03    -297.851E-03     594.798E-03    -297.911E-03     21.8335E-03
             616     1.33643E-03     127.685E-03    -121.930E+06    -199.259E+06    -113.872E+06     369.348E+03    -297.828E-03     595.442E-03    -297.615E-03     49.8923E-03    -298.449E-03     595.254E-03    -297.718E-03     39.7804E-03
             617     2.00468E-03     127.776E-03    -116.697E+06    -180.055E+06    -98.3835E+06     445.080E+03    -298.132E-03     595.743E-03    -297.611E-03     73.7451E-03    -299.314E-03     596.156E-03    -297.673E-03     58.6750E-03
             618     2.67346E-03     127.903E-03    -109.618E+06    -161.966E+06    -79.1912E+06     550.618E+03    -298.584E-03     596.216E-03    -297.632E-03     97.8003E-03    -300.544E-03     597.442E-03    -297.634E-03     77.6431E-03
             619     3.34155E-03     128.065E-03    -101.462E+06    -131.485E+06    -59.0136E+06     795.982E+03    -299.132E-03     596.773E-03    -297.642E-03     121.797E-03    -302.124E-03     599.110E-03    -297.599E-03     96.4289E-03
             620     4.00995E-03     128.262E-03    -92.9615E+06    -91.0159E+06    -37.8534E+06     1.12162E+06    -299.726E-03     597.366E-03    -297.640E-03     145.901E-03    -304.023E-03     601.120E-03    -297.563E-03     115.151E-03
             621     4.67920E-03     128.494E-03    -83.3000E+06    -53.3104E+06    -15.4917E+06     1.05298E+06    -300.291E-03     597.931E-03    -297.640E-03     169.573E-03    -306.143E-03     603.343E-03    -297.519E-03     133.337E-03
             622     5.34761E-03     128.760E-03    -72.6900E+06    -22.7539E+06     4.48093E+06    -112.719E+03    -301.025E-03     598.660E-03    -297.635E-03     192.805E-03    -308.664E-03     605.948E-03    -297.474E-03     151.016E-03
             623     6.01602E-03     129.059E-03    -62.9177E+06    -6.99249E+06     20.6839E+06    -1.03944E+06    -301.975E-03     599.628E-03    -297.653E-03     215.149E-03    -311.602E-03     608.947E-03    -297.448E-03     167.848E-03
             624     6.68488E-03     129.392E-03    -55.4163E+06    -129.067E+03     32.0151E+06     516.314E+03    -302.917E-03     600.610E-03    -297.693E-03     235.561E-03    -314.649E-03     612.052E-03    -297.453E-03     183.050E-03
             625     7.35266E-03     129.753E-03    -49.2462E+06     4.78576E+06     38.8162E+06     2.98087E+06    -303.589E-03     601.323E-03    -297.735E-03     253.459E-03    -317.382E-03     614.846E-03    -297.476E-03     196.397E-03
             626     8.02027E-03     130.139E-03    -42.6517E+06     14.1756E+06     45.8963E+06     3.58149E+06    -303.667E-03     601.430E-03    -297.763E-03     267.080E-03    -319.241E-03     616.770E-03    -297.492E-03     206.465E-03
             627     8.68984E-03     130.536E-03    -34.9819E+06     25.0977E+06     55.8659E+06     2.32415E+06    -303.339E-03     601.122E-03    -297.783E-03     274.736E-03    -320.169E-03     617.754E-03    -297.489E-03     211.756E-03
             628     9.35780E-03     130.942E-03    -27.9880E+06     31.0709E+06     64.2849E+06     1.26134E+06    -302.628E-03     600.419E-03    -297.791E-03     275.236E-03    -319.948E-03     617.564E-03    -297.474E-03     211.380E-03
             629     10.0254E-03     131.338E-03    -22.5663E+06     36.3126E+06     68.2171E+06     2.00156E+06    -301.503E-03     599.277E-03    -297.774E-03     268.214E-03    -318.476E-03     616.101E-03    -297.453E-03     204.964E-03
             630     10.6963E-03     131.719E-03    -17.4188E+06     43.5336E+06     70.0252E+06     2.53048E+06    -300.569E-03     598.317E-03    -297.748E-03     256.124E-03    -316.486E-03     614.123E-03    -297.435E-03     194.770E-03
             631     11.3642E-03     132.075E-03    -11.9453E+06     48.9286E+06     69.4573E+06     2.04410E+06    -299.240E-03     596.953E-03    -297.713E-03     233.615E-03    -312.950E-03     610.592E-03    -297.419E-03     176.630E-03
             632     12.0316E-03     132.387E-03    -7.40037E+06     55.5078E+06     72.6461E+06     1.67010E+06    -297.600E-03     595.279E-03    -297.679E-03     215.054E-03    -309.626E-03     607.265E-03    -297.386E-03     161.339E-03
             633     12.7036E-03     132.684E-03    -3.89414E+06     57.7285E+06     76.5827E+06     1.27269E+06    -296.842E-03     594.497E-03    -297.655E-03     157.226E-03    -304.544E-03     602.168E-03    -297.350E-03     115.447E-03
             634     668.099E-06     129.347E-03    -124.324E+06    -213.185E+06    -122.755E+06     640.013E+03    -297.870E-03     595.393E-03    -297.522E-03     26.9622E-03    -298.155E-03     594.835E-03    -297.647E-03     21.4722E-03
             635     1.33658E-03     129.403E-03    -121.522E+06    -199.824E+06    -113.069E+06     253.663E+03    -297.750E-03     595.372E-03    -297.621E-03     49.8681E-03    -298.371E-03     595.179E-03    -297.721E-03     39.7587E-03
             636     2.00513E-03     129.494E-03    -116.178E+06    -181.081E+06    -98.1336E+06     362.078E+03    -298.109E-03     595.703E-03    -297.594E-03     73.7514E-03    -299.286E-03     596.110E-03    -297.654E-03     58.6810E-03
             637     2.67313E-03     129.621E-03    -109.535E+06    -163.272E+06    -79.3192E+06     560.190E+03    -298.632E-03     596.253E-03    -297.621E-03     97.7120E-03    -300.590E-03     597.473E-03    -297.622E-03     77.5474E-03
             638     3.34192E-03     129.783E-03    -101.748E+06    -132.496E+06    -59.1882E+06     766.158E+03    -299.162E-03     596.806E-03    -297.644E-03     121.600E-03    -302.154E-03     599.138E-03    -297.600E-03     96.2043E-03
             639     4.01049E-03     129.980E-03    -92.4480E+06    -91.7615E+06    -37.8365E+06     755.638E+03    -299.679E-03     597.325E-03    -297.646E-03     145.484E-03    -303.968E-03     601.070E-03    -297.568E-03     114.723E-03
             640     4.67848E-03     130.212E-03    -82.4275E+06    -52.0490E+06    -14.9626E+06         667.408    -300.364E-03     598.018E-03    -297.653E-03     169.013E-03    -306.205E-03     603.425E-03    -297.533E-03     132.731E-03
             641     5.34738E-03     130.478E-03    -73.4309E+06    -21.6989E+06     5.30933E+06    -116.335E+03    -301.299E-03     598.981E-03    -297.682E-03     192.128E-03    -308.932E-03     606.261E-03    -297.518E-03     150.291E-03
             642     6.01578E-03     130.779E-03    -66.2870E+06    -10.3100E+06     19.2532E+06     2.04096E+06    -302.247E-03     599.981E-03    -297.734E-03     214.576E-03    -311.865E-03     609.271E-03    -297.527E-03     167.311E-03
             643     6.68328E-03     131.111E-03    -59.7364E+06    -3.68668E+06     27.5000E+06     3.81292E+06    -302.940E-03     600.709E-03    -297.770E-03     235.750E-03    -314.675E-03     612.140E-03    -297.540E-03     183.331E-03
             644     7.35152E-03     131.473E-03    -52.2993E+06     4.04117E+06     34.5437E+06     3.07232E+06    -303.334E-03     601.114E-03    -297.780E-03     254.225E-03    -317.147E-03     614.655E-03    -297.537E-03     197.233E-03
             645     8.02118E-03     131.856E-03    -43.5926E+06     14.7885E+06     44.8552E+06     1.65953E+06    -303.534E-03     601.323E-03    -297.788E-03     267.629E-03    -319.132E-03     616.688E-03    -297.522E-03     206.991E-03
             646     8.68875E-03     132.257E-03    -35.6254E+06     24.5006E+06     55.2672E+06     1.81443E+06    -303.357E-03     601.158E-03    -297.801E-03     274.886E-03    -320.206E-03     617.807E-03    -297.509E-03     211.864E-03
             647     9.35754E-03     132.660E-03    -29.9436E+06     30.2327E+06     61.9748E+06     3.14599E+06    -302.547E-03     600.346E-03    -297.799E-03     275.274E-03    -319.874E-03     617.494E-03    -297.490E-03     211.460E-03
             648     10.0277E-03     133.058E-03    -25.0047E+06     36.6843E+06     65.8037E+06     2.54632E+06    -301.619E-03     599.399E-03    -297.780E-03     268.319E-03    -318.603E-03     616.234E-03    -297.468E-03     205.052E-03
             649     10.6942E-03     133.436E-03    -19.1967E+06     44.0162E+06     68.4822E+06     1.24005E+06    -300.813E-03     598.581E-03    -297.768E-03     256.112E-03    -316.755E-03     614.413E-03    -297.462E-03     194.629E-03
             650     11.3623E-03     133.796E-03    -13.8656E+06     48.8246E+06     68.1519E+06     940.947E+03    -299.462E-03     597.213E-03    -297.751E-03     233.855E-03    -313.239E-03     610.916E-03    -297.461E-03     176.630E-03
             651     12.0327E-03     134.102E-03    -9.53929E+06     55.3692E+06     71.7608E+06     1.04580E+06    -298.012E-03     595.751E-03    -297.739E-03     214.864E-03    -310.085E-03     607.779E-03    -297.447E-03     160.904E-03
             652     12.6993E-03     134.403E-03    -4.92506E+06     58.8943E+06     77.2057E+06     883.287E+03    -296.267E-03     593.982E-03    -297.715E-03     157.998E-03    -304.000E-03     601.683E-03    -297.408E-03     116.143E-03
             653     668.225E-06     131.065E-03    -125.052E+06    -214.150E+06    -123.087E+06    -219.987E+03    -297.821E-03     595.290E-03    -297.469E-03     26.8290E-03    -298.106E-03     594.728E-03    -297.593E-03     21.3785E-03
             654     1.33650E-03     131.121E-03    -121.516E+06    -200.710E+06    -113.630E+06     398.046E+03    -297.918E-03     595.531E-03    -297.613E-03     49.7401E-03    -298.535E-03     595.334E-03    -297.714E-03     39.6361E-03
             655     2.00473E-03     131.212E-03    -117.363E+06    -182.170E+06    -99.3091E+06     502.460E+03    -298.238E-03     595.883E-03    -297.645E-03     73.4409E-03    -299.416E-03     596.286E-03    -297.707E-03     58.3472E-03
             656     2.67349E-03     131.339E-03    -110.840E+06    -164.138E+06    -80.4427E+06     648.028E+03    -298.682E-03     596.371E-03    -297.689E-03     97.3276E-03    -300.640E-03     597.587E-03    -297.693E-03     77.1518E-03
             657     3.34129E-03     131.501E-03    -102.855E+06    -133.012E+06    -60.0857E+06     840.234E+03    -299.177E-03     596.889E-03    -297.712E-03     121.260E-03    -302.170E-03     599.219E-03    -297.670E-03     95.8512E-03
             658     4.00962E-03     131.698E-03    -94.7004E+06    -91.6088E+06    -38.9962E+06     586.345E+03    -299.808E-03     597.527E-03    -297.719E-03     145.196E-03    -304.104E-03     601.275E-03    -297.644E-03     114.402E-03
             659     4.67867E-03     131.931E-03    -86.7637E+06    -52.0154E+06    -17.4402E+06     682.323E+03    -300.588E-03     598.331E-03    -297.743E-03     168.842E-03    -306.445E-03     603.746E-03    -297.629E-03     132.533E-03
             660     5.34639E-03     132.197E-03    -79.2984E+06    -26.3261E+06     219.926E+03     2.91515E+06    -301.361E-03     599.138E-03    -297.776E-03     192.218E-03    -309.008E-03     606.408E-03    -297.622E-03     150.434E-03
             661     6.01440E-03     132.498E-03    -71.4714E+06    -16.1872E+06     12.9361E+06     4.86575E+06    -302.042E-03     599.840E-03    -297.798E-03     215.152E-03    -311.669E-03     609.119E-03    -297.606E-03     168.005E-03
             662     6.68356E-03     132.830E-03    -62.2836E+06    -2.27694E+06     24.3636E+06     3.80228E+06    -302.636E-03     600.426E-03    -297.790E-03     236.413E-03    -314.384E-03     611.874E-03    -297.575E-03     184.088E-03
             663     7.35287E-03     133.191E-03    -52.7492E+06     7.79267E+06     35.6117E+06     1.58154E+06    -303.322E-03     601.113E-03    -297.790E-03     254.431E-03    -317.149E-03     614.676E-03    -297.547E-03     197.424E-03
             664     8.02024E-03     133.576E-03    -44.9424E+06     13.8237E+06     45.4316E+06     983.383E+03    -303.648E-03     601.456E-03    -297.808E-03     267.489E-03    -319.245E-03     616.810E-03    -297.536E-03     206.833E-03
             665     8.68934E-03     133.976E-03    -39.5380E+06     21.1740E+06     53.5363E+06     2.03795E+06    -303.279E-03     601.099E-03    -297.820E-03     274.658E-03    -320.132E-03     617.731E-03    -297.526E-03     211.657E-03
             666     9.35802E-03     134.379E-03    -33.5151E+06     29.1958E+06     60.3064E+06     2.03973E+06    -302.585E-03     600.403E-03    -297.818E-03     274.814E-03    -319.928E-03     617.556E-03    -297.510E-03     210.913E-03
             667     10.0252E-03     134.776E-03    -25.9687E+06     38.8885E+06     65.2657E+06     1.38486E+06    -301.587E-03     599.387E-03    -297.800E-03     268.400E-03    -318.586E-03     616.243E-03    -297.492E-03     205.085E-03
             668     10.6950E-03     135.158E-03    -19.6173E+06     45.5098E+06     67.1378E+06     357.381E+03    -300.555E-03     598.325E-03    -297.770E-03     256.914E-03    -316.516E-03     614.183E-03    -297.472E-03     195.479E-03
             669     11.3644E-03     135.513E-03    -14.1304E+06     46.3998E+06     65.2314E+06     48.5352E+03    -299.492E-03     597.228E-03    -297.735E-03     234.712E-03    -313.298E-03     610.959E-03    -297.456E-03     177.448E-03
             670     12.0304E-03     135.825E-03    -8.65073E+06     54.0947E+06     70.8092E+06     795.978E+03    -298.080E-03     595.806E-03    -297.725E-03     216.254E-03    -310.211E-03     607.892E-03    -297.437E-03     162.203E-03
             671     12.7008E-03     136.119E-03    -3.55335E+06     60.7679E+06     78.8501E+06     500.989E+03    -295.865E-03     593.559E-03    -297.695E-03     159.389E-03    -303.654E-03     601.323E-03    -297.383E-03     117.424E-03
             672     668.498E-06     132.783E-03    -126.612E+06    -215.548E+06    -124.291E+06     758.516E+03    -298.135E-03     595.632E-03    -297.497E-03     26.5213E-03    -298.425E-03     595.068E-03    -297.622E-03     21.0192E-03
             673     1.33651E-03     132.840E-03    -123.909E+06    -202.248E+06    -115.352E+06     670.765E+03    -298.036E-03     595.818E-03    -297.782E-03     49.2409E-03    -298.658E-03     595.617E-03    -297.886E-03     39.1157E-03
             674     2.00459E-03     132.931E-03    -119.323E+06    -183.306E+06    -101.296E+06     919.814E+03    -298.276E-03     596.063E-03    -297.787E-03     73.3049E-03    -299.459E-03     596.465E-03    -297.855E-03     58.2197E-03
             675     2.67229E-03     133.058E-03    -112.989E+06    -165.395E+06    -82.3637E+06     1.31804E+06    -298.665E-03     596.464E-03    -297.799E-03     97.4128E-03    -300.629E-03     597.678E-03    -297.807E-03     77.2591E-03
             676     3.34126E-03     133.220E-03    -105.637E+06    -134.349E+06    -62.3325E+06     1.72276E+06    -299.221E-03     597.019E-03    -297.798E-03     121.432E-03    -302.223E-03     599.350E-03    -297.762E-03     96.0432E-03
             677     4.00974E-03     133.417E-03    -97.7596E+06    -93.4967E+06    -41.7903E+06     2.76557E+06    -299.933E-03     597.732E-03    -297.799E-03     145.476E-03    -304.239E-03     601.481E-03    -297.731E-03     114.708E-03
             678     4.67718E-03     133.650E-03    -89.7833E+06    -56.5486E+06    -21.0086E+06     4.95655E+06    -300.583E-03     598.395E-03    -297.812E-03     169.353E-03    -306.445E-03     603.798E-03    -297.705E-03     133.154E-03
             679     5.34613E-03     133.916E-03    -80.8310E+06    -29.7143E+06    -2.90192E+06     5.76445E+06    -301.204E-03     599.017E-03    -297.813E-03     192.868E-03    -308.857E-03     606.286E-03    -297.667E-03     151.173E-03
             680     6.01530E-03     134.216E-03    -70.2870E+06    -15.5807E+06     12.9458E+06     4.11514E+06    -301.917E-03     599.729E-03    -297.812E-03     215.389E-03    -311.544E-03     609.014E-03    -297.623E-03     168.246E-03
             681     6.68378E-03     134.548E-03    -60.3589E+06    -1.81468E+06     26.5561E+06     3.51362E+06    -302.807E-03     600.622E-03    -297.815E-03     236.098E-03    -314.542E-03     612.059E-03    -297.592E-03     183.738E-03
             682     7.35147E-03     134.910E-03    -53.2067E+06     11.6520E+06     36.9084E+06     3.45762E+06    -303.412E-03     601.238E-03    -297.826E-03     253.920E-03    -317.233E-03     614.804E-03    -297.581E-03     196.916E-03
             683     8.02057E-03     135.296E-03    -47.4603E+06     14.9173E+06     44.7454E+06     2.35470E+06    -303.439E-03     601.278E-03    -297.840E-03     267.172E-03    -319.038E-03     616.632E-03    -297.569E-03     206.567E-03
             684     8.68864E-03     135.694E-03    -39.6799E+06     18.7470E+06     53.6926E+06     1.93595E+06    -303.162E-03     601.006E-03    -297.845E-03     274.677E-03    -320.013E-03     617.628E-03    -297.546E-03     211.686E-03
             685     9.35682E-03     136.099E-03    -31.3102E+06     30.8514E+06     62.7967E+06     1.81361E+06    -302.525E-03     600.357E-03    -297.832E-03     275.565E-03    -319.887E-03     617.536E-03    -297.517E-03     211.676E-03
             686     10.0264E-03     136.495E-03    -24.7671E+06     39.4991E+06      67.707E+06     1.02774E+06    -301.587E-03     599.391E-03    -297.805E-03     269.190E-03    -318.606E-03     616.266E-03    -297.487E-03     205.896E-03
             687     10.6951E-03     136.874E-03    -18.9580E+06     46.2658E+06     69.9828E+06     585.549E+03    -300.337E-03     598.102E-03    -297.765E-03     256.854E-03    -316.278E-03     613.938E-03    -297.455E-03     195.536E-03
             688     11.3627E-03     137.235E-03    -14.2640E+06     47.1498E+06     68.2726E+06    -112.416E+03    -298.715E-03     596.417E-03    -297.701E-03     235.126E-03    -312.512E-03     610.132E-03    -297.408E-03     178.082E-03
             689     12.0340E-03     137.542E-03    -9.82144E+06      53.284E+06     72.0265E+06    -937.344E+03    -297.654E-03     595.305E-03    -297.651E-03     216.500E-03    -309.779E-03     607.376E-03    -297.354E-03     162.573E-03
             690     12.7032E-03     137.837E-03    -4.69216E+06     60.2180E+06     78.1385E+06    -581.270E+03    -296.657E-03     594.281E-03    -297.625E-03     157.572E-03    -304.399E-03     601.994E-03    -297.314E-03     115.618E-03
             691     667.395E-06     134.503E-03    -127.328E+06    -217.678E+06    -127.713E+06     264.131E+03    -298.410E-03     595.849E-03    -297.439E-03     27.2346E-03    -298.699E-03     595.284E-03    -297.577E-03     21.6838E-03
             692     1.33557E-03     134.559E-03    -126.138E+06    -204.230E+06    -118.330E+06     787.398E+03    -298.046E-03     595.904E-03    -297.858E-03     49.8663E-03    -298.676E-03     595.704E-03    -297.971E-03     39.7273E-03
             693     2.00408E-03     134.650E-03    -121.210E+06    -185.836E+06    -103.434E+06     1.45858E+06    -298.257E-03     596.086E-03    -297.830E-03     73.7786E-03    -299.442E-03     596.482E-03    -297.901E-03     58.7417E-03
             694     2.67307E-03     134.777E-03    -114.750E+06    -167.711E+06    -84.4534E+06     2.24291E+06    -298.712E-03     596.537E-03    -297.825E-03     97.7342E-03    -300.679E-03     597.746E-03    -297.837E-03     77.6178E-03
             695     3.34087E-03     134.938E-03    -107.080E+06    -137.532E+06    -64.6374E+06     3.12886E+06    -299.317E-03     597.142E-03    -297.825E-03     121.853E-03    -302.324E-03     599.468E-03    -297.793E-03     96.4772E-03
             696     4.00894E-03     135.136E-03    -98.6309E+06    -98.8920E+06    -44.2328E+06     4.41238E+06    -299.925E-03     597.748E-03    -297.823E-03     145.877E-03    -304.227E-03     601.477E-03    -297.758E-03     115.153E-03
             697     4.67837E-03     135.368E-03    -88.6325E+06    -62.9406E+06    -22.5230E+06     5.59644E+06    -300.540E-03     598.365E-03    -297.825E-03     169.449E-03    -306.383E-03     603.736E-03    -297.718E-03     133.289E-03
             698     5.34666E-03     135.635E-03    -77.7315E+06    -29.9857E+06    -1.67972E+06     5.45541E+06    -301.281E-03     599.109E-03    -297.828E-03     192.565E-03    -308.917E-03     606.368E-03    -297.680E-03     150.835E-03
             699     6.01466E-03     135.935E-03    -68.7154E+06    -12.5246E+06     15.3114E+06     5.24485E+06    -302.180E-03     600.034E-03    -297.854E-03     214.821E-03    -311.807E-03     609.328E-03    -297.660E-03     167.595E-03
             700     6.68294E-03     136.268E-03    -61.7097E+06    -2.86033E+06     26.9509E+06     4.99376E+06    -302.877E-03     600.756E-03    -297.878E-03     235.924E-03    -314.623E-03     612.193E-03    -297.650E-03     183.535E-03
             701     7.35153E-03     136.630E-03    -53.5285E+06     12.2571E+06     37.5826E+06     4.49716E+06    -303.145E-03     601.018E-03    -297.873E-03     254.183E-03    -316.976E-03     614.594E-03    -297.625E-03     197.236E-03
             702     8.01975E-03     137.013E-03    -44.2418E+06     18.0524E+06     47.7135E+06     4.31568E+06    -303.220E-03     601.079E-03    -297.859E-03     267.697E-03    -318.828E-03     616.456E-03    -297.583E-03     207.156E-03
             703     8.68883E-03     137.414E-03    -36.8634E+06     20.1843E+06     56.5561E+06     3.00009E+06    -303.018E-03     600.860E-03    -297.842E-03     275.301E-03    -319.868E-03     617.487E-03    -297.535E-03     212.394E-03
             704     9.35828E-03     137.816E-03    -30.5759E+06     31.1273E+06     64.5940E+06     1.94434E+06    -302.406E-03     600.219E-03    -297.813E-03     275.611E-03    -319.747E-03     617.375E-03    -297.491E-03     211.806E-03
             705     10.0269E-03     138.214E-03    -24.2402E+06     40.2523E+06     69.9176E+06     1.97198E+06    -301.409E-03     599.188E-03    -297.778E-03     269.120E-03    -318.421E-03     616.053E-03    -297.452E-03     205.888E-03
             706     10.6944E-03     138.596E-03    -18.8707E+06     47.2963E+06     73.1137E+06     1.82622E+06    -299.906E-03     597.631E-03    -297.725E-03     257.259E-03    -315.866E-03     613.480E-03    -297.401E-03     196.058E-03
             707     11.3656E-03     138.948E-03    -13.6470E+06     51.1523E+06     73.2012E+06     954.831E+03    -298.549E-03     596.197E-03    -297.647E-03     235.349E-03    -312.357E-03     609.925E-03    -297.336E-03     178.380E-03
             708     12.0341E-03     139.261E-03    -8.68825E+06     56.2289E+06     77.2289E+06    -505.425E+03    -298.112E-03     595.724E-03    -297.612E-03     216.079E-03    -310.248E-03     607.805E-03    -297.295E-03     162.029E-03
             709     12.7012E-03     139.557E-03    -4.60550E+06     57.8020E+06     81.2685E+06    -1.09485E+06    -297.351E-03     594.974E-03    -297.622E-03     156.832E-03    -305.083E-03     602.658E-03    -297.293E-03     114.824E-03
             710     668.920E-06     136.222E-03    -131.533E+06    -219.912E+06    -128.083E+06     520.107E+03    -297.733E-03     595.314E-03    -297.582E-03     27.0531E-03    -298.036E-03     594.742E-03    -297.712E-03     21.5997E-03
             711     1.33698E-03     136.278E-03    -127.626E+06    -207.293E+06    -120.160E+06     1.10922E+06    -298.017E-03     595.654E-03    -297.638E-03     50.0035E-03    -298.647E-03     595.444E-03    -297.753E-03     39.8985E-03
             712     2.00486E-03     136.369E-03    -123.026E+06    -188.651E+06    -105.022E+06     1.62862E+06    -298.418E-03     596.120E-03    -297.702E-03     73.9690E-03    -299.607E-03     596.507E-03    -297.775E-03     58.9376E-03
             713     2.67250E-03     136.495E-03    -116.164E+06    -171.498E+06    -86.5892E+06     2.19213E+06    -298.918E-03     596.691E-03    -297.773E-03     97.9000E-03    -300.887E-03     597.889E-03    -297.788E-03     77.7600E-03
             714     3.34118E-03     136.658E-03    -108.273E+06    -142.213E+06    -66.8627E+06     3.04412E+06    -299.448E-03     597.266E-03    -297.818E-03     121.848E-03    -302.452E-03     599.574E-03    -297.789E-03     96.4484E-03
             715     4.00992E-03     136.855E-03    -99.3746E+06    -103.255E+06    -45.6840E+06     3.71400E+06    -300.012E-03     597.853E-03    -297.841E-03     145.565E-03    -304.307E-03     601.560E-03    -297.775E-03     114.814E-03
             716     4.67731E-03     137.087E-03    -90.1989E+06    -65.8694E+06    -23.5466E+06     3.43956E+06    -300.673E-03     598.537E-03    -297.864E-03     169.069E-03    -306.520E-03     603.899E-03    -297.755E-03     132.810E-03
             717     5.34576E-03     137.354E-03    -81.5936E+06    -33.8233E+06    -3.86983E+06     4.23496E+06    -301.428E-03     599.313E-03    -297.885E-03     192.425E-03    -309.076E-03     606.562E-03    -297.737E-03     150.633E-03
             718     6.01428E-03     137.655E-03    -72.6488E+06    -15.9696E+06     11.7731E+06     5.98508E+06    -302.118E-03     600.021E-03    -297.903E-03     215.263E-03    -311.773E-03     609.327E-03    -297.715E-03     168.028E-03
             719     6.68235E-03     137.987E-03    -62.7874E+06     751.442E+03     25.3511E+06     5.33167E+06    -302.606E-03     600.501E-03    -297.894E-03     236.561E-03    -314.388E-03     611.989E-03    -297.678E-03     184.170E-03
             720     7.35144E-03     138.348E-03    -53.9965E+06     11.4996E+06     36.6540E+06     3.59615E+06    -302.962E-03     600.830E-03    -297.868E-03     254.542E-03    -316.798E-03     614.410E-03    -297.623E-03     197.626E-03
             721     8.02068E-03     138.734E-03    -47.6282E+06     16.3033E+06     45.7696E+06     3.33776E+06    -303.080E-03     600.919E-03    -297.839E-03     267.652E-03    -318.681E-03     616.276E-03    -297.565E-03     207.164E-03
             722     8.68953E-03     139.131E-03    -40.6685E+06     24.5734E+06     55.8945E+06     2.27969E+06    -302.901E-03     600.715E-03    -297.813E-03     274.986E-03    -319.749E-03     617.343E-03    -297.511E-03     212.124E-03
             723     9.35772E-03     139.536E-03    -33.0172E+06     31.5928E+06     64.9272E+06     380.275E+03    -302.330E-03     600.121E-03    -297.791E-03     275.633E-03    -319.688E-03     617.285E-03    -297.464E-03     211.802E-03
             724     10.0259E-03     139.932E-03    -25.9786E+06     37.7594E+06     70.0523E+06     385.012E+03    -300.934E-03     598.677E-03    -297.743E-03     269.040E-03    -317.946E-03     615.528E-03    -297.410E-03     205.891E-03
             725     10.6978E-03     140.311E-03    -18.4411E+06     46.3676E+06     73.2538E+06     914.932E+03    -299.882E-03     597.558E-03    -297.676E-03     256.263E-03    -315.797E-03     613.359E-03    -297.350E-03     195.082E-03
             726     11.3654E-03     140.667E-03    -12.2265E+06     52.3053E+06     73.1051E+06     1.30973E+06    -299.492E-03     597.125E-03    -297.633E-03     233.482E-03    -313.214E-03     610.777E-03    -297.326E-03     176.438E-03
             727     12.0335E-03     140.980E-03    -7.94351E+06     59.1727E+06     77.5656E+06     982.933E+03    -298.186E-03     595.826E-03    -297.640E-03     214.408E-03    -310.266E-03     607.863E-03    -297.327E-03     160.391E-03
             728     12.7037E-03     141.276E-03    -3.65737E+06     59.0726E+06     83.2011E+06     128.352E+03    -296.710E-03     594.362E-03    -297.652E-03     156.304E-03    -304.433E-03     602.040E-03    -297.316E-03     114.381E-03
             729     667.805E-06     137.940E-03    -133.153E+06    -223.176E+06    -130.813E+06     1.02016E+06    -297.671E-03     595.217E-03    -297.546E-03     27.1072E-03    -297.973E-03     594.634E-03    -297.683E-03     21.6050E-03
             730     1.33637E-03     137.996E-03    -130.162E+06    -210.594E+06    -121.804E+06     1.07237E+06    -297.981E-03     595.580E-03    -297.599E-03     49.4145E-03    -298.610E-03     595.353E-03    -297.714E-03     39.3619E-03
             731     2.00484E-03     138.088E-03    -124.600E+06    -191.669E+06    -107.036E+06     1.64580E+06    -298.489E-03     596.173E-03    -297.685E-03     73.3329E-03    -299.670E-03     596.542E-03    -297.761E-03     58.3446E-03
             732     2.67332E-03     138.214E-03    -118.431E+06    -174.778E+06    -88.5441E+06     2.06306E+06    -299.055E-03     596.849E-03    -297.794E-03     97.4254E-03    -301.023E-03     598.033E-03    -297.812E-03     77.2733E-03
             733     3.34093E-03     138.376E-03    -110.625E+06    -145.528E+06    -68.5555E+06     2.27262E+06    -299.569E-03     597.440E-03    -297.871E-03     121.408E-03    -302.574E-03     599.734E-03    -297.842E-03     95.9700E-03
             734     4.00851E-03     138.574E-03    -102.251E+06    -106.560E+06    -47.8067E+06     2.80070E+06    -300.050E-03     597.954E-03    -297.904E-03     145.407E-03    -304.353E-03     601.654E-03    -297.840E-03     114.611E-03
             735     4.67759E-03     138.806E-03    -93.7949E+06    -69.0432E+06    -25.9815E+06     4.44322E+06    -300.647E-03     598.566E-03    -297.919E-03     169.376E-03    -306.512E-03     603.928E-03    -297.812E-03     133.121E-03
             736     5.34573E-03     139.074E-03    -84.6077E+06    -36.3271E+06    -6.07885E+06     5.04760E+06    -301.270E-03     599.185E-03    -297.915E-03     192.994E-03    -308.940E-03     606.443E-03    -297.770E-03     151.229E-03
             737     6.01405E-03     139.373E-03    -74.6487E+06    -18.3906E+06     9.94995E+06     3.67010E+06    -301.842E-03     599.741E-03    -297.899E-03     215.663E-03    -311.503E-03     609.042E-03    -297.714E-03     168.462E-03
             738     6.68363E-03     139.706E-03    -65.2686E+06     333.798E+03     23.4471E+06     3.28839E+06    -302.455E-03     600.318E-03    -297.863E-03     236.627E-03    -314.238E-03     611.802E-03    -297.651E-03     184.259E-03
             739     7.35176E-03     140.068E-03    -57.4275E+06     11.0508E+06     34.0486E+06     3.89638E+06    -302.974E-03     600.805E-03    -297.830E-03     254.480E-03    -316.815E-03     614.382E-03    -297.593E-03     197.579E-03
             740     8.02024E-03     140.450E-03    -48.6892E+06     16.8539E+06     45.4157E+06     3.24620E+06    -303.218E-03     601.035E-03    -297.817E-03     267.643E-03    -318.831E-03     616.403E-03    -297.544E-03     207.114E-03
             741     8.68891E-03     140.850E-03    -39.7122E+06     29.0484E+06     58.0828E+06     1.35201E+06    -302.972E-03     600.780E-03    -297.808E-03     274.988E-03    -319.852E-03     617.454E-03    -297.502E-03     212.010E-03
             742     9.35828E-03     141.253E-03    -31.9300E+06     33.7206E+06     66.2639E+06     367.242E+03    -302.078E-03     599.863E-03    -297.784E-03     275.142E-03    -319.426E-03     617.024E-03    -297.456E-03     211.346E-03
             743     10.0286E-03     141.651E-03    -24.8409E+06     37.4946E+06     70.3695E+06    -457.095E+03    -301.175E-03     598.921E-03    -297.746E-03     267.482E-03    -318.127E-03     615.714E-03    -297.413E-03     204.291E-03
             744     10.6950E-03     142.027E-03    -19.0369E+06     44.1999E+06     72.3552E+06    -882.079E+03    -300.718E-03     598.445E-03    -297.726E-03     254.971E-03    -316.584E-03     614.189E-03    -297.401E-03     193.617E-03
             745     11.3636E-03     142.389E-03    -13.9635E+06     48.0543E+06     70.8842E+06     338.117E+03    -299.423E-03     597.133E-03    -297.710E-03     233.128E-03    -313.138E-03     610.764E-03    -297.405E-03     176.049E-03
             746     12.0317E-03     142.697E-03    -8.98729E+06     59.9444E+06     75.1465E+06     1.25561E+06    -297.574E-03     595.258E-03    -297.684E-03     214.625E-03    -309.630E-03     607.277E-03    -297.383E-03     160.825E-03
             747     12.6997E-03     142.992E-03    -4.48515E+06     61.6057E+06     79.7768E+06     588.958E+03    -296.074E-03     593.721E-03    -297.647E-03     157.641E-03    -303.809E-03     601.427E-03    -297.331E-03     115.770E-03
             748     668.590E-06     139.658E-03    -134.065E+06    -226.536E+06    -132.199E+06     580.527E+03    -298.340E-03     595.793E-03    -297.453E-03     26.5990E-03    -298.638E-03     595.195E-03    -297.592E-03     21.1322E-03
             749     1.33646E-03     139.715E-03    -131.258E+06    -213.362E+06    -123.202E+06     1.08920E+06    -298.156E-03     596.022E-03    -297.866E-03     49.3359E-03    -298.786E-03     595.785E-03    -297.982E-03     39.2501E-03
             750     2.00426E-03     139.806E-03    -126.828E+06    -195.179E+06    -109.015E+06     1.55931E+06    -298.496E-03     596.394E-03    -297.898E-03     73.1120E-03    -299.683E-03     596.754E-03    -297.976E-03     58.0675E-03
             751     2.67201E-03     139.934E-03    -120.060E+06    -177.496E+06    -89.8646E+06     2.23491E+06    -298.880E-03     596.819E-03    -297.939E-03     97.2907E-03    -300.849E-03     597.992E-03    -297.957E-03     77.1376E-03
             752     3.34036E-03     140.096E-03    -112.497E+06    -148.191E+06    -69.7970E+06     2.82891E+06    -299.387E-03     597.336E-03    -297.949E-03     121.681E-03    -302.397E-03     599.623E-03    -297.920E-03     96.2785E-03
             753     4.00921E-03     140.293E-03    -104.032E+06    -109.592E+06    -49.0294E+06     3.40814E+06    -299.962E-03     597.903E-03    -297.941E-03     145.795E-03    -304.274E-03     601.598E-03    -297.876E-03     115.016E-03
             754     4.67697E-03     140.526E-03    -94.0168E+06    -73.7015E+06    -27.3998E+06     4.02838E+06    -300.507E-03     598.435E-03    -297.928E-03     169.649E-03    -306.370E-03     603.782E-03    -297.822E-03     133.401E-03
             755     5.34584E-03     140.792E-03    -83.3207E+06    -37.9189E+06    -6.68961E+06     4.48002E+06    -301.059E-03     598.955E-03    -297.896E-03     192.966E-03    -308.712E-03     606.197E-03    -297.754E-03     151.248E-03
             756     6.01495E-03     141.092E-03    -73.6314E+06    -16.4666E+06     11.1352E+06     4.16438E+06    -301.769E-03     599.638E-03    -297.869E-03     215.540E-03    -311.422E-03     608.939E-03    -297.683E-03     168.370E-03
             757     6.68259E-03     141.424E-03    -64.4733E+06    -2.16743E+06     25.3337E+06     3.29617E+06    -302.490E-03     600.335E-03    -297.845E-03     236.549E-03    -314.264E-03     611.799E-03    -297.621E-03     184.176E-03
             758     7.35214E-03     141.785E-03    -54.3339E+06     8.62565E+06     37.0325E+06     3.72686E+06    -303.093E-03     600.919E-03    -297.826E-03     254.221E-03    -316.915E-03     614.471E-03    -297.574E-03     197.295E-03
             759     8.02099E-03     142.170E-03    -45.3308E+06     21.0262E+06     48.9838E+06     3.21435E+06    -303.327E-03     601.148E-03    -297.821E-03     267.323E-03    -318.938E-03     616.531E-03    -297.541E-03     206.725E-03
             760     8.68955E-03     142.569E-03    -37.5983E+06     33.0548E+06     60.4374E+06     1.38354E+06    -303.019E-03     600.840E-03    -297.821E-03     274.469E-03    -319.890E-03     617.520E-03    -297.512E-03     211.466E-03
             761     9.35786E-03     142.972E-03    -29.9926E+06     34.0834E+06     67.4013E+06     460.900E+03    -302.519E-03     600.342E-03    -297.823E-03     274.273E-03    -319.843E-03     617.485E-03    -297.492E-03     210.373E-03
             762     10.0251E-03     143.367E-03    -23.6759E+06     38.0946E+06     70.9087E+06     662.769E+03    -301.857E-03     599.682E-03    -297.825E-03     267.240E-03    -318.815E-03     616.485E-03    -297.492E-03     203.859E-03
             763     10.6946E-03     143.751E-03    -18.8521E+06     44.0890E+06     72.5462E+06     1.63737E+06    -300.452E-03     598.266E-03    -297.814E-03     255.482E-03    -316.332E-03     614.025E-03    -297.488E-03     194.203E-03
             764     11.3627E-03     144.105E-03    -14.2023E+06     47.1616E+06     71.0431E+06      1.2352E+06    -298.098E-03     595.838E-03    -297.741E-03     234.416E-03    -311.860E-03     609.512E-03    -297.433E-03     177.553E-03
             765     12.0334E-03     144.416E-03    -9.07003E+06     59.4463E+06     75.8866E+06     287.349E+03    -296.934E-03     594.582E-03    -297.648E-03     216.975E-03    -309.068E-03     606.674E-03    -297.341E-03     163.217E-03
             766     12.7042E-03     144.710E-03    -4.23928E+06     62.4924E+06     81.2921E+06     317.275E+03    -296.679E-03     594.278E-03    -297.600E-03     158.893E-03    -304.449E-03     602.020E-03    -297.278E-03     116.952E-03
             767     667.298E-06     141.378E-03    -134.931E+06    -230.316E+06    -132.925E+06     925.991E+03    -298.231E-03     596.338E-03    -298.106E-03     26.4455E-03    -298.528E-03     595.724E-03    -298.241E-03     20.9333E-03
             768     1.33541E-03     141.434E-03    -131.391E+06    -216.185E+06    -123.439E+06     1.40424E+06    -298.206E-03     596.299E-03    -298.093E-03     49.7290E-03    -298.837E-03     596.054E-03    -298.206E-03     39.6165E-03
             769     2.00363E-03     141.526E-03    -126.895E+06    -198.233E+06    -108.928E+06     1.99171E+06    -298.423E-03     596.462E-03    -298.039E-03     73.8595E-03    -299.615E-03     596.816E-03    -298.112E-03     58.7668E-03
             770     2.67216E-03     141.653E-03    -120.501E+06    -180.830E+06    -90.1179E+06     2.79754E+06    -298.751E-03     596.760E-03    -298.009E-03     97.8784E-03    -300.726E-03     597.927E-03    -298.023E-03     77.7150E-03
             771     3.34083E-03     141.815E-03    -112.415E+06    -151.209E+06    -69.8146E+06     3.39800E+06    -299.212E-03     597.181E-03    -297.968E-03     121.941E-03    -302.220E-03     599.455E-03    -297.935E-03     96.5670E-03
             772     4.00869E-03     142.013E-03    -103.227E+06    -112.362E+06    -48.7608E+06     3.56882E+06    -299.798E-03     597.723E-03    -297.925E-03     145.890E-03    -304.102E-03     601.402E-03    -297.856E-03     115.150E-03
             773     4.67767E-03     142.244E-03    -94.1099E+06    -75.1324E+06    -27.0213E+06     3.25859E+06    -300.437E-03     598.332E-03    -297.894E-03     169.801E-03    -306.299E-03     603.671E-03    -297.784E-03     133.564E-03
             774     5.34606E-03     142.511E-03    -84.8309E+06    -39.7459E+06    -6.76722E+06     2.70466E+06    -301.095E-03     598.958E-03    -297.863E-03     193.126E-03    -308.759E-03     606.199E-03    -297.716E-03     151.362E-03
             775     6.01431E-03     142.810E-03    -74.2318E+06    -17.2610E+06     10.9978E+06     2.01429E+06    -301.912E-03     599.759E-03    -297.847E-03     215.613E-03    -311.581E-03     609.072E-03    -297.660E-03     168.331E-03
             776     6.68415E-03     143.144E-03    -63.6423E+06    -3.67150E+06     25.6569E+06     1.90102E+06    -302.772E-03     600.624E-03    -297.853E-03     236.099E-03    -314.537E-03     612.076E-03    -297.627E-03     183.628E-03
             777     7.35177E-03     143.504E-03    -55.2644E+06     7.21191E+06     36.5586E+06     1.56738E+06    -303.289E-03     601.154E-03    -297.865E-03     253.502E-03    -317.107E-03     614.695E-03    -297.612E-03     196.454E-03
             778     8.01988E-03     143.889E-03    -46.8032E+06     21.8315E+06     48.0738E+06     813.594E+03    -303.319E-03     601.193E-03    -297.874E-03     266.470E-03    -318.916E-03     616.562E-03    -297.598E-03     205.807E-03
             779     8.68860E-03     144.287E-03    -38.9006E+06     34.2303E+06     59.5342E+06     837.618E+03    -303.096E-03     600.980E-03    -297.884E-03     273.546E-03    -319.922E-03     617.617E-03    -297.580E-03     210.570E-03
             780     9.35728E-03     144.691E-03    -33.1340E+06     34.6092E+06     65.8916E+06     651.777E+03    -302.692E-03     600.588E-03    -297.896E-03     274.249E-03    -320.013E-03     617.723E-03    -297.568E-03     210.330E-03
             781     10.0259E-03     145.089E-03    -27.3457E+06     35.4629E+06     69.0240E+06     339.064E+03    -301.498E-03     599.383E-03    -297.885E-03     268.151E-03    -318.480E-03     616.194E-03    -297.552E-03     204.886E-03
             782     10.6934E-03     145.467E-03    -20.5688E+06      43.198E+06     71.6856E+06     798.246E+03    -299.381E-03     597.199E-03    -297.818E-03     256.195E-03    -315.320E-03     613.011E-03    -297.493E-03     195.015E-03
             783     11.3647E-03     145.821E-03    -14.2084E+06     49.8921E+06     71.4619E+06     292.450E+03    -297.898E-03     595.604E-03    -297.705E-03     233.952E-03    -311.663E-03     609.287E-03    -297.400E-03     177.058E-03
             784     12.0349E-03     146.129E-03    -9.16625E+06     59.0806E+06     76.9548E+06    -278.667E+03    -297.376E-03     595.014E-03    -297.638E-03     214.531E-03    -309.405E-03     606.997E-03    -297.326E-03     160.802E-03
             785     12.7027E-03     146.431E-03    -4.41820E+06     60.7966E+06     84.0536E+06     472.671E+03    -296.608E-03     594.234E-03    -297.625E-03     156.306E-03    -304.281E-03     601.862E-03    -297.287E-03     114.605E-03
             786     668.184E-06     143.098E-03    -134.076E+06    -233.449E+06    -132.779E+06    -131.780E+03    -298.126E-03     596.080E-03    -297.954E-03     27.6356E-03    -298.419E-03     595.453E-03    -298.085E-03     22.0366E-03
             787     1.33615E-03     143.154E-03    -131.662E+06    -220.945E+06    -124.240E+06     1.54202E+06    -298.254E-03     596.242E-03    -297.988E-03     50.0947E-03    -298.880E-03     595.976E-03    -298.098E-03     39.9861E-03
             788     2.00437E-03     143.245E-03    -126.290E+06    -202.085E+06    -108.397E+06     2.49539E+06    -298.358E-03     596.329E-03    -297.972E-03     73.9160E-03    -299.541E-03     596.661E-03    -298.037E-03     58.8689E-03
             789     2.67248E-03     143.371E-03    -119.101E+06    -183.954E+06    -89.0693E+06     2.85552E+06    -298.774E-03     596.724E-03    -297.951E-03     97.9300E-03    -300.739E-03     597.872E-03    -297.957E-03     77.7757E-03
             790     3.34025E-03     143.534E-03    -110.797E+06    -154.041E+06    -68.7193E+06     3.34716E+06    -299.259E-03     597.185E-03    -297.926E-03     122.116E-03    -302.260E-03     599.445E-03    -297.886E-03     96.7320E-03
             791     4.00943E-03     143.731E-03    -102.195E+06    -114.572E+06    -47.4334E+06     3.77986E+06    -299.781E-03     597.672E-03    -297.891E-03     145.981E-03    -304.078E-03     601.338E-03    -297.814E-03     115.245E-03
             792     4.67768E-03     143.963E-03    -92.6925E+06    -76.0921E+06    -25.0008E+06     4.02802E+06    -300.446E-03     598.314E-03    -297.868E-03     169.512E-03    -306.295E-03     603.637E-03    -297.748E-03     133.288E-03
             793     5.34638E-03     144.229E-03    -82.1789E+06    -38.1045E+06    -3.00167E+06     3.26719E+06    -301.306E-03     599.169E-03    -297.863E-03     192.745E-03    -308.967E-03     606.411E-03    -297.703E-03     150.913E-03
             794     6.01533E-03     144.530E-03    -73.0349E+06    -15.7211E+06     14.3530E+06     1.76864E+06    -302.311E-03     600.202E-03    -297.891E-03     215.010E-03    -311.969E-03     609.503E-03    -297.690E-03     167.655E-03
             795     6.68208E-03     144.863E-03    -64.9770E+06    -5.16939E+06     25.1937E+06     1.33759E+06    -303.049E-03     600.975E-03    -297.926E-03     235.473E-03    -314.796E-03     612.399E-03    -297.698E-03     182.981E-03
             796     7.35080E-03     145.224E-03    -55.6879E+06     9.27632E+06     36.6327E+06     717.086E+03    -303.373E-03     601.324E-03    -297.951E-03     253.195E-03    -317.186E-03     614.866E-03    -297.700E-03     196.129E-03
             797     8.01949E-03     145.608E-03    -47.4216E+06     21.2896E+06     48.1257E+06     74.8234E+03    -303.424E-03     601.391E-03    -297.967E-03     266.455E-03    -319.015E-03     616.750E-03    -297.688E-03     205.784E-03
             798     8.68763E-03     146.006E-03    -40.5042E+06     30.1728E+06     58.3737E+06     1.72278E+06    -303.208E-03     601.184E-03    -297.976E-03     273.956E-03    -320.051E-03     617.821E-03    -297.669E-03     210.945E-03
             799     9.35583E-03     146.410E-03    -33.5266E+06     36.9195E+06     67.0809E+06     3.02667E+06    -302.211E-03     600.175E-03    -297.964E-03     274.537E-03    -319.539E-03     617.321E-03    -297.634E-03     210.757E-03
             800     10.0247E-03     146.807E-03    -26.8431E+06     39.2044E+06     71.2592E+06     1.79787E+06    -300.417E-03     598.314E-03    -297.898E-03     267.865E-03    -317.370E-03     615.105E-03    -297.559E-03     204.906E-03
             801     10.6961E-03     147.184E-03    -20.8334E+06     44.0899E+06     73.3236E+06    -975.482E+03    -299.427E-03     597.231E-03    -297.803E-03     255.247E-03    -315.323E-03     612.997E-03    -297.471E-03     194.086E-03
             802     11.3646E-03     147.536E-03    -15.2536E+06     49.6721E+06     73.0288E+06    -2.04287E+06    -299.192E-03     596.935E-03    -297.743E-03     232.781E-03    -312.943E-03     610.596E-03    -297.428E-03     175.590E-03
             803     12.0306E-03     147.852E-03    -9.66987E+06     56.2438E+06     77.9043E+06    -595.844E+03    -297.801E-03     595.534E-03    -297.733E-03     213.848E-03    -309.847E-03     607.519E-03    -297.411E-03     159.935E-03
             804     12.7004E-03     148.142E-03    -4.55313E+06     59.0401E+06     83.6604E+06     439.377E+03    -295.549E-03     593.244E-03    -297.694E-03     157.599E-03    -303.277E-03     600.922E-03    -297.355E-03     115.800E-03
             805     668.451E-06     144.818E-03    -134.180E+06    -237.034E+06    -131.543E+06     1.34027E+06    -297.953E-03     595.709E-03    -297.756E-03     26.7763E-03    -298.239E-03     595.060E-03    -297.876E-03     21.2913E-03
             806     1.33612E-03     144.873E-03    -131.512E+06    -224.895E+06    -122.880E+06     1.38774E+06    -298.165E-03     596.000E-03    -297.835E-03     49.6214E-03    -298.784E-03     595.710E-03    -297.933E-03     39.4998E-03
             807     2.00411E-03     144.964E-03    -125.622E+06    -205.474E+06    -107.751E+06     1.68859E+06    -298.412E-03     596.276E-03    -297.864E-03     73.6894E-03    -299.586E-03     596.587E-03    -297.923E-03     58.6424E-03
             808     2.67251E-03     145.091E-03    -118.439E+06    -187.472E+06    -88.7908E+06     2.07299E+06    -298.797E-03     596.679E-03    -297.882E-03     97.8615E-03    -300.754E-03     597.807E-03    -297.883E-03     77.6900E-03
             809     3.34149E-03     145.252E-03    -110.419E+06    -157.490E+06    -68.4536E+06     2.81293E+06    -299.348E-03     597.234E-03    -297.886E-03     121.783E-03    -302.338E-03     599.472E-03    -297.840E-03     96.3749E-03
             810     4.00916E-03     145.450E-03    -101.133E+06    -117.198E+06    -46.5642E+06     3.42875E+06    -300.013E-03     597.904E-03    -297.891E-03     145.580E-03    -304.300E-03     601.552E-03    -297.807E-03     114.794E-03
             811     4.67768E-03     145.682E-03    -91.0838E+06    -78.1250E+06    -23.5859E+06     3.43525E+06    -300.789E-03     598.708E-03    -297.918E-03     168.965E-03    -306.628E-03     604.014E-03    -297.791E-03     132.647E-03
             812     5.34601E-03     145.948E-03    -82.0386E+06    -38.8905E+06    -3.03977E+06     3.69891E+06    -301.651E-03     599.605E-03    -297.954E-03     192.063E-03    -309.294E-03     606.827E-03    -297.794E-03     150.184E-03
             813     6.01321E-03     146.250E-03    -73.1804E+06    -14.6322E+06     14.5881E+06     4.89325E+06    -302.393E-03     600.396E-03    -298.003E-03     214.499E-03    -312.028E-03     609.677E-03    -297.803E-03     167.225E-03
             814     6.68252E-03     146.582E-03    -64.4030E+06    -1.35715E+06     27.0150E+06     4.01135E+06    -302.939E-03     600.970E-03    -298.031E-03     235.393E-03    -314.679E-03     612.397E-03    -297.800E-03     182.989E-03
             815     7.35043E-03     146.944E-03    -57.1167E+06     13.7074E+06     37.4832E+06     1.27140E+06    -303.265E-03     601.297E-03    -298.032E-03     253.346E-03    -317.085E-03     614.854E-03    -297.782E-03     196.327E-03
             816     8.01850E-03     147.326E-03    -50.1526E+06     20.6277E+06     48.1465E+06     477.270E+03    -303.412E-03     601.450E-03    -298.038E-03     266.765E-03    -319.025E-03     616.819E-03    -297.755E-03     206.088E-03
             817     8.68734E-03     147.726E-03    -42.2804E+06     24.6688E+06     58.0850E+06     782.783E+03    -303.013E-03     601.048E-03    -298.034E-03     274.318E-03    -319.872E-03     617.675E-03    -297.718E-03     211.313E-03
             818     9.35620E-03     148.129E-03     -33.324E+06     35.3627E+06     68.0532E+06     1.32521E+06    -301.761E-03     599.753E-03    -297.993E-03     274.464E-03    -319.083E-03     616.886E-03    -297.655E-03     210.759E-03
             819     10.0261E-03     148.523E-03    -24.4224E+06     42.1482E+06     74.0247E+06     980.244E+03    -300.659E-03     598.581E-03    -297.921E-03     267.021E-03    -317.592E-03     615.362E-03    -297.577E-03     203.972E-03
             820     10.6945E-03     148.900E-03    -17.7830E+06     46.3528E+06     76.6766E+06     859.096E+03    -300.182E-03     598.050E-03    -297.868E-03     254.421E-03    -316.025E-03     613.772E-03    -297.526E-03     193.201E-03
             821     11.3616E-03     149.261E-03    -13.2365E+06     50.8601E+06     76.4472E+06     1.31774E+06    -298.750E-03     596.568E-03    -297.818E-03     233.298E-03    -312.506E-03     610.236E-03    -297.490E-03     176.262E-03
             822     12.0323E-03     149.566E-03    -9.46346E+06     56.4057E+06     79.7831E+06     355.036E+03    -297.068E-03     594.828E-03    -297.760E-03     215.494E-03    -309.183E-03     606.879E-03    -297.429E-03     161.659E-03
             823     12.7022E-03     149.862E-03    -5.11355E+06     58.7388E+06     84.0602E+06    -616.445E+03    -295.603E-03     593.292E-03    -297.689E-03     158.176E-03    -303.357E-03     600.993E-03    -297.347E-03     116.311E-03
             824     667.497E-06     146.536E-03    -134.484E+06    -241.010E+06    -132.588E+06     453.383E+03    -297.877E-03     595.749E-03    -297.872E-03     27.0895E-03    -298.160E-03     595.084E-03    -297.990E-03     21.5663E-03
             825     1.33648E-03     146.592E-03    -130.251E+06    -226.786E+06    -122.373E+06     833.050E+03    -297.996E-03     595.810E-03    -297.815E-03     49.7150E-03    -298.606E-03     595.508E-03    -297.909E-03     39.5880E-03
             826     2.00476E-03     146.683E-03    -125.664E+06    -208.160E+06    -107.999E+06     1.41637E+06    -298.474E-03     596.298E-03    -297.823E-03     73.4271E-03    -299.641E-03     596.592E-03    -297.879E-03     58.3746E-03
             827     2.67287E-03     146.809E-03    -119.510E+06    -190.323E+06    -89.1552E+06     2.01438E+06    -299.018E-03     596.910E-03    -297.892E-03     97.4048E-03    -300.968E-03     598.019E-03    -297.889E-03     77.2306E-03
             828     3.34035E-03     146.971E-03    -111.478E+06    -160.083E+06    -68.7921E+06     2.00226E+06    -299.614E-03     597.565E-03    -297.951E-03     121.256E-03    -302.600E-03     599.787E-03    -297.902E-03     95.7975E-03
             829     4.00909E-03     147.169E-03    -102.580E+06    -120.329E+06    -47.7383E+06     2.21793E+06    -300.313E-03     598.314E-03    -298.000E-03     145.012E-03    -304.594E-03     601.941E-03    -297.916E-03     114.156E-03
             830     4.67697E-03     147.402E-03    -94.0063E+06    -82.4395E+06    -26.3103E+06     3.47647E+06    -301.112E-03     599.173E-03    -298.061E-03     168.593E-03    -306.947E-03     604.458E-03    -297.937E-03     132.235E-03
             831     5.34435E-03     147.669E-03    -85.2546E+06    -42.3372E+06    -5.37472E+06     4.90621E+06    -301.726E-03     599.835E-03    -298.108E-03     191.969E-03    -309.368E-03     607.038E-03    -297.950E-03     150.127E-03
             832     6.01344E-03     147.969E-03    -76.0927E+06    -16.4715E+06     12.2621E+06     5.36420E+06    -302.184E-03     600.314E-03    -298.130E-03     214.582E-03    -311.827E-03     609.593E-03    -297.935E-03     167.338E-03
             833     6.68095E-03     148.302E-03    -67.2970E+06     2.99775E+06     26.0249E+06     4.68620E+06    -302.638E-03     600.756E-03    -298.117E-03     235.377E-03    -314.391E-03     612.205E-03    -297.894E-03     183.007E-03
             834     7.34978E-03     148.663E-03    -58.6030E+06     19.0302E+06     38.1551E+06     2.97184E+06    -303.136E-03     601.232E-03    -298.096E-03     253.323E-03    -316.961E-03     614.806E-03    -297.848E-03     196.357E-03
             835     8.01884E-03     149.046E-03    -49.5434E+06     21.3174E+06     48.9637E+06     1.27956E+06    -303.329E-03     601.422E-03    -298.093E-03     266.611E-03    -318.934E-03     616.785E-03    -297.807E-03     205.947E-03
             836     8.68684E-03     149.445E-03    -40.7185E+06     25.9065E+06     60.3463E+06    -105.706E+03    -302.697E-03     600.777E-03    -298.080E-03     273.557E-03    -319.509E-03     617.361E-03    -297.757E-03     210.657E-03
             837     9.35622E-03     149.845E-03    -32.3780E+06     33.6074E+06     69.5727E+06    -1.62464E+06    -301.893E-03     599.934E-03    -298.041E-03     273.256E-03    -319.157E-03     617.000E-03    -297.695E-03     209.518E-03
             838     10.0248E-03     150.241E-03    -25.7874E+06     38.9654E+06     73.7510E+06    -1.00987E+06    -301.259E-03     599.257E-03    -297.998E-03     266.530E-03    -318.196E-03     616.027E-03    -297.649E-03     203.256E-03
             839     10.6921E-03     150.622E-03    -20.0411E+06     44.1086E+06     75.4555E+06     500.966E+03    -299.663E-03     597.604E-03    -297.942E-03     255.035E-03    -315.555E-03     613.364E-03    -297.599E-03     193.821E-03
             840     11.3634E-03     150.974E-03    -13.6489E+06     49.6925E+06     74.4551E+06     1.14187E+06    -297.530E-03     595.356E-03    -297.826E-03     233.572E-03    -311.291E-03     609.028E-03    -297.506E-03     176.721E-03
             841     12.0332E-03     151.284E-03    -7.40535E+06     58.2394E+06     79.3128E+06     1.80352E+06    -296.860E-03     594.586E-03    -297.726E-03     215.100E-03    -308.949E-03     606.625E-03    -297.403E-03     161.332E-03
             842     12.7016E-03     151.580E-03    -3.23953E+06     60.6602E+06     84.9945E+06     1.38526E+06    -295.777E-03     593.442E-03    -297.665E-03     156.388E-03    -303.480E-03     601.102E-03    -297.323E-03     114.645E-03
             843     668.674E-06     148.255E-03    -133.089E+06    -242.345E+06    -131.494E+06     29.3887E+03    -298.381E-03     595.707E-03    -297.326E-03     26.7970E-03    -298.654E-03     595.029E-03    -297.439E-03     21.3241E-03
             844     1.33613E-03     148.311E-03    -131.084E+06    -229.900E+06    -123.450E+06     731.274E+03    -298.226E-03     596.065E-03    -297.839E-03     49.5758E-03    -298.832E-03     595.748E-03    -297.933E-03     39.4766E-03
             845     2.00421E-03     148.402E-03    -126.731E+06    -211.300E+06    -108.954E+06     1.54032E+06    -298.718E-03     596.644E-03    -297.927E-03     73.1591E-03    -299.881E-03     596.924E-03    -297.981E-03     58.0893E-03
             846     2.67209E-03     148.529E-03    -119.854E+06    -192.901E+06    -89.7069E+06     2.14581E+06    -299.277E-03     597.315E-03    -298.039E-03     97.0031E-03    -301.220E-03     598.408E-03    -298.034E-03     76.8154E-03
             847     3.34055E-03     148.691E-03    -112.163E+06    -162.393E+06    -69.5537E+06     3.02085E+06    -299.864E-03     597.987E-03    -298.123E-03     121.043E-03    -302.843E-03     600.193E-03    -298.072E-03     95.5964E-03
             848     4.00778E-03     148.889E-03    -104.562E+06    -123.572E+06    -49.0045E+06     3.96159E+06    -300.509E-03     598.691E-03    -298.182E-03     145.068E-03    -304.793E-03     602.308E-03    -298.096E-03     114.212E-03
             849     4.67561E-03     149.122E-03    -95.9474E+06    -86.6557E+06    -27.6237E+06     4.68166E+06    -301.077E-03     599.303E-03    -298.227E-03     168.968E-03    -306.919E-03     604.578E-03    -298.100E-03     132.624E-03
             850     5.34437E-03     149.389E-03    -85.9364E+06    -46.2913E+06    -6.46910E+06     5.69300E+06    -301.625E-03     599.863E-03    -298.239E-03     192.215E-03    -309.268E-03     607.056E-03    -298.079E-03     150.385E-03
             851     6.01189E-03     149.689E-03    -75.6598E+06    -17.7286E+06     12.4979E+06     5.78666E+06    -302.166E-03     600.405E-03    -298.239E-03     214.555E-03    -311.809E-03     609.680E-03    -298.041E-03     167.285E-03
             852     6.68114E-03     150.021E-03    -65.1214E+06     5.23818E+06      28.659E+06     5.02762E+06    -302.713E-03     600.938E-03    -298.225E-03     235.098E-03    -314.460E-03     612.389E-03    -297.995E-03     182.681E-03
             853     7.34975E-03     150.381E-03    -55.1948E+06     22.2633E+06     42.3966E+06     4.00826E+06    -303.162E-03     601.373E-03    -298.211E-03     252.602E-03    -316.953E-03     614.924E-03    -297.952E-03     195.643E-03
             854     8.01731E-03     150.767E-03    -46.4784E+06     25.2438E+06     53.3371E+06     2.19264E+06    -303.079E-03     601.280E-03    -298.201E-03     265.485E-03    -318.613E-03     616.585E-03    -297.904E-03     204.963E-03
             855     8.68674E-03     151.162E-03    -38.3132E+06     29.3792E+06     63.7383E+06     621.757E+03    -302.692E-03     600.872E-03    -298.180E-03     272.297E-03    -319.440E-03     617.404E-03    -297.849E-03     209.448E-03
             856     9.35511E-03     151.565E-03    -32.1386E+06     34.7606E+06     71.5896E+06     459.968E+03    -302.106E-03     600.258E-03    -298.151E-03     272.774E-03    -319.363E-03     617.316E-03    -297.797E-03     208.982E-03
             857     10.0228E-03     151.961E-03    -26.9074E+06     37.9126E+06     74.7379E+06     925.431E+03    -300.581E-03     598.670E-03    -298.089E-03     266.748E-03    -317.513E-03     615.425E-03    -297.731E-03     203.673E-03
             858     10.6939E-03     152.338E-03    -20.5728E+06     43.6571E+06     76.7160E+06     486.380E+03    -298.820E-03     596.798E-03    -297.978E-03     254.621E-03    -314.675E-03     612.512E-03    -297.628E-03     193.657E-03
             859     11.3627E-03     152.690E-03    -14.9428E+06     48.9557E+06     75.3246E+06    -368.395E+03    -297.913E-03     595.762E-03    -297.848E-03     232.694E-03    -311.630E-03     609.381E-03    -297.521E-03     175.839E-03
             860     12.0319E-03     153.001E-03    -10.6689E+06     54.5208E+06     77.0458E+06    -224.124E+03    -296.643E-03     594.393E-03    -297.751E-03     214.450E-03    -308.737E-03     606.420E-03    -297.429E-03     160.607E-03
             861     12.7019E-03     153.297E-03    -5.37830E+06     60.5662E+06     81.6505E+06     570.027E+03    -294.864E-03     592.516E-03    -297.653E-03     156.147E-03    -302.591E-03     600.203E-03    -297.324E-03     114.437E-03
             862     667.734E-06     149.974E-03    -133.540E+06    -245.672E+06    -132.521E+06     1.31827E+06    -298.563E-03     596.175E-03    -297.612E-03     26.1711E-03    -298.828E-03     595.479E-03    -297.724E-03     20.7267E-03
             863     1.33623E-03     150.030E-03    -132.095E+06    -232.892E+06    -123.603E+06     1.60973E+06    -298.474E-03     596.558E-03    -298.084E-03     49.1997E-03    -299.077E-03     596.224E-03    -298.173E-03     39.1526E-03
             864     2.00390E-03     150.122E-03    -126.877E+06    -214.300E+06    -108.905E+06     1.72395E+06    -298.861E-03     597.021E-03    -298.159E-03     73.2021E-03    -300.021E-03     597.285E-03    -298.209E-03     58.1351E-03
             865     2.67167E-03     150.249E-03    -120.482E+06    -197.131E+06    -90.6072E+06     2.68624E+06    -299.385E-03     597.625E-03    -298.240E-03     97.2019E-03    -301.327E-03     598.702E-03    -298.233E-03     77.0030E-03
             866     3.33901E-03     150.411E-03    -112.935E+06    -167.534E+06    -70.7089E+06     4.14796E+06    -299.946E-03     598.245E-03    -298.299E-03     121.392E-03    -302.927E-03     600.435E-03    -298.245E-03     95.9363E-03
             867     4.00746E-03     150.610E-03    -103.627E+06    -127.275E+06    -48.9622E+06     5.04829E+06    -300.480E-03     598.809E-03    -298.328E-03     145.460E-03    -304.761E-03     602.412E-03    -298.238E-03     114.620E-03
             868     4.67577E-03     150.842E-03    -93.4478E+06    -89.8451E+06    -26.2428E+06     5.74867E+06    -301.134E-03     599.486E-03    -298.352E-03     169.093E-03    -306.963E-03     604.740E-03    -298.217E-03     132.758E-03
             869     5.34343E-03     151.109E-03    -83.5527E+06    -49.7778E+06    -5.17260E+06     5.95780E+06    -301.792E-03     600.155E-03    -298.362E-03     191.976E-03    -309.421E-03     607.325E-03    -298.195E-03     150.087E-03
             870     6.01220E-03     151.409E-03    -73.5965E+06    -18.8811E+06     14.4807E+06     5.96900E+06    -302.390E-03     600.769E-03    -298.379E-03     213.792E-03    -312.009E-03     610.018E-03    -298.173E-03     166.463E-03
             871     6.67981E-03     151.740E-03    -64.4817E+06     8.23442E+06     30.8800E+06     4.68791E+06    -302.936E-03     601.321E-03    -298.385E-03     234.372E-03    -314.681E-03     612.776E-03    -298.149E-03     181.845E-03
             872     7.34723E-03     152.102E-03    -55.6530E+06     23.3198E+06     43.0107E+06     3.34822E+06    -303.176E-03     601.553E-03    -298.377E-03     251.946E-03    -316.961E-03     615.098E-03    -298.115E-03     194.911E-03
             873     8.01681E-03     152.484E-03    -47.3327E+06     28.5384E+06     54.3975E+06     2.73463E+06    -303.085E-03     601.451E-03    -298.366E-03     264.604E-03    -318.598E-03     616.740E-03    -298.067E-03     204.074E-03
             874     8.68478E-03     152.883E-03    -40.4642E+06     31.0261E+06     63.9760E+06     1.73307E+06    -302.667E-03     601.011E-03    -298.344E-03     271.592E-03    -319.409E-03     617.533E-03    -298.010E-03     208.711E-03
             875     9.35309E-03     153.283E-03    -33.2818E+06     32.0388E+06     70.8805E+06     2.78900E+06    -301.464E-03     599.753E-03    -298.289E-03     272.126E-03    -318.683E-03     616.761E-03    -297.932E-03     208.518E-03
             876     10.0238E-03     153.678E-03    -25.8968E+06     40.9504E+06     76.0939E+06     2.86848E+06    -299.764E-03     597.940E-03    -298.176E-03     265.338E-03    -316.613E-03     614.621E-03    -297.817E-03     202.551E-03
             877     10.6925E-03     154.052E-03    -19.4860E+06     46.5098E+06     78.2487E+06     1.53049E+06    -298.851E-03     596.897E-03    -298.046E-03     253.247E-03    -314.642E-03     612.558E-03    -297.694E-03     192.331E-03
             878     11.3624E-03     154.409E-03    -14.3938E+06     49.6640E+06     76.8152E+06     1.09528E+06    -298.043E-03     595.973E-03    -297.930E-03     231.921E-03    -311.727E-03     609.560E-03    -297.597E-03     175.097E-03
             879     12.0308E-03     154.718E-03    -9.41549E+06     54.0250E+06     79.7964E+06     165.815E+03    -295.853E-03     593.677E-03    -297.824E-03     212.669E-03    -307.858E-03     605.610E-03    -297.490E-03     159.097E-03
             880     12.7024E-03     155.007E-03    -4.37673E+06     60.2970E+06     85.0365E+06    -333.966E+03    -294.230E-03     591.926E-03    -297.695E-03     155.557E-03    -301.908E-03     599.555E-03    -297.351E-03     114.028E-03
             881     667.886E-06     151.694E-03    -136.644E+06    -251.145E+06    -134.174E+06     592.915E+03    -298.569E-03     596.789E-03    -298.219E-03     27.1829E-03    -298.846E-03     596.078E-03    -298.328E-03     21.5959E-03
             882     1.33504E-03     151.751E-03    -132.048E+06    -236.448E+06    -124.439E+06     1.37698E+06    -298.676E-03     597.042E-03    -298.366E-03     49.5302E-03    -299.275E-03     596.694E-03    -298.453E-03     39.4179E-03
             883     2.00316E-03     151.842E-03    -127.561E+06    -218.581E+06    -109.732E+06     2.44495E+06    -298.877E-03     597.260E-03    -298.384E-03     73.3906E-03    -300.034E-03     597.507E-03    -298.430E-03     58.3305E-03
             884     2.67123E-03     151.970E-03    -120.964E+06    -201.411E+06    -90.6121E+06     3.22191E+06    -299.408E-03     597.820E-03    -298.411E-03     97.4576E-03    -301.349E-03     598.879E-03    -298.397E-03     77.2539E-03
             885     3.33948E-03     152.132E-03    -112.436E+06    -171.190E+06    -70.1696E+06     3.26566E+06    -300.053E-03     598.499E-03    -298.446E-03     121.463E-03    -303.033E-03     600.676E-03    -298.386E-03     95.9364E-03
             886     4.00710E-03     152.330E-03    -103.304E+06    -131.952E+06    -49.5152E+06     3.71160E+06    -300.718E-03     599.198E-03    -298.480E-03     144.996E-03    -304.982E-03     602.771E-03    -298.387E-03     114.092E-03
             887     4.67482E-03     152.563E-03    -93.7956E+06    -95.1536E+06    -27.3564E+06     4.34802E+06    -301.413E-03     599.941E-03    -298.528E-03     168.279E-03    -307.221E-03     605.158E-03    -298.391E-03     131.867E-03
             888     5.34285E-03     152.830E-03    -83.7114E+06    -53.1791E+06    -4.76242E+06     5.25789E+06    -301.941E-03     600.503E-03    -298.562E-03     191.035E-03    -309.542E-03     607.632E-03    -298.387E-03     149.116E-03
             889     6.01010E-03     153.130E-03    -73.6846E+06    -20.1443E+06     14.5344E+06     5.62005E+06    -302.551E-03     601.131E-03    -298.580E-03     213.363E-03    -312.162E-03     610.366E-03    -298.371E-03     165.977E-03
             890     6.67805E-03     153.462E-03    -63.9560E+06     8.72675E+06     31.2475E+06     6.08509E+06    -303.114E-03     601.700E-03    -298.586E-03     234.109E-03    -314.851E-03     613.151E-03    -298.350E-03     181.529E-03
             891     7.34732E-03     153.821E-03    -55.7811E+06     26.3038E+06     44.4008E+06     5.99621E+06    -303.331E-03     601.916E-03    -298.585E-03     251.151E-03    -317.097E-03     615.449E-03    -298.320E-03     194.109E-03
             892     8.01433E-03     154.205E-03    -48.2157E+06     31.4356E+06     54.9337E+06     4.12933E+06    -303.120E-03     601.694E-03    -298.574E-03     263.907E-03    -318.633E-03     616.988E-03    -298.275E-03     203.317E-03
             893     8.68293E-03     154.600E-03    -39.9139E+06     31.5411E+06     64.3840E+06     3.84357E+06    -302.338E-03     600.872E-03    -298.534E-03     271.105E-03    -319.054E-03     617.372E-03    -298.200E-03     208.324E-03
             894     9.35257E-03     155.002E-03    -32.0447E+06     31.6998E+06     71.5531E+06     3.34645E+06    -301.163E-03     599.615E-03    -298.452E-03     271.011E-03    -318.330E-03     616.573E-03    -298.094E-03     207.487E-03
             895     10.0210E-03     155.393E-03    -24.4613E+06     41.7555E+06     77.0597E+06     2.67062E+06    -299.951E-03     598.291E-03    -298.340E-03     263.664E-03    -316.759E-03     614.937E-03    -297.980E-03     200.739E-03
             896     10.6912E-03     155.770E-03    -18.0018E+06     47.0274E+06     78.6186E+06     2.74656E+06    -298.691E-03     596.908E-03    -298.217E-03     251.806E-03    -314.433E-03     612.525E-03    -297.866E-03     190.872E-03
             897     11.3596E-03     156.125E-03    -12.6211E+06     50.1819E+06     76.6320E+06     2.77479E+06    -296.434E-03     594.480E-03    -298.046E-03     230.971E-03    -310.067E-03     608.024E-03    -297.718E-03     174.465E-03
             898     12.0309E-03     156.433E-03    -8.22298E+06     56.7982E+06     80.7997E+06     2.19722E+06    -295.101E-03     592.973E-03    -297.872E-03     213.016E-03    -307.104E-03     604.914E-03    -297.539E-03     159.647E-03
             899     12.7002E-03     156.720E-03    -4.17748E+06     62.4041E+06     87.6057E+06     999.535E+03    -294.260E-03     591.987E-03    -297.727E-03     156.628E-03    -301.986E-03     599.665E-03    -297.374E-03     114.956E-03
             900     667.754E-06     153.416E-03    -135.012E+06    -253.967E+06    -133.442E+06     489.830E+03    -298.771E-03     596.987E-03    -298.216E-03     27.7572E-03    -299.039E-03     596.261E-03    -298.319E-03     22.1053E-03
             901     1.33565E-03     153.471E-03    -132.965E+06    -241.606E+06    -125.108E+06     1.62069E+06    -298.906E-03     597.392E-03    -298.486E-03     49.6916E-03    -299.504E-03     597.023E-03    -298.568E-03     39.5392E-03
             902     2.00317E-03     153.563E-03    -127.583E+06    -222.607E+06    -109.463E+06     2.34565E+06    -299.234E-03     597.798E-03    -298.564E-03     73.3339E-03    -300.386E-03     598.024E-03    -298.603E-03     58.2442E-03
             903     2.67086E-03     153.690E-03    -120.359E+06    -204.688E+06    -90.3069E+06     2.41139E+06    -299.727E-03     598.363E-03    -298.636E-03     97.0747E-03    -301.660E-03     599.404E-03    -298.616E-03     76.8042E-03
             904     3.33830E-03     153.853E-03    -112.572E+06    -174.835E+06    -70.5202E+06     3.01968E+06    -300.342E-03     599.038E-03    -298.696E-03     120.653E-03    -303.303E-03     601.183E-03    -298.632E-03     95.0946E-03
             905     4.00590E-03     154.052E-03    -104.331E+06    -135.228E+06    -49.3678E+06     3.55031E+06    -301.009E-03     599.759E-03    -298.751E-03     144.428E-03    -305.270E-03     603.313E-03    -298.650E-03     113.459E-03
             906     4.67325E-03     154.284E-03    -95.4778E+06    -97.4805E+06    -27.4067E+06     3.74670E+06    -301.564E-03     600.363E-03    -298.799E-03     168.001E-03    -307.373E-03     605.567E-03    -298.656E-03     131.534E-03
             907     5.34072E-03     154.551E-03    -85.7762E+06    -56.6448E+06    -6.28298E+06     4.00023E+06    -302.067E-03     600.883E-03    -298.816E-03     190.960E-03    -309.675E-03     608.004E-03    -298.641E-03     148.959E-03
             908     6.00929E-03     154.851E-03    -75.4273E+06    -22.7390E+06     12.4825E+06     3.61226E+06    -302.781E-03     601.606E-03    -298.825E-03     213.081E-03    -312.386E-03     610.827E-03    -298.621E-03     165.588E-03
             909     6.67748E-03     155.183E-03    -65.3716E+06    -337.020E+03     27.9749E+06     5.16110E+06    -303.351E-03     602.193E-03    -298.842E-03     233.002E-03    -315.033E-03     613.561E-03    -298.607E-03     180.400E-03
             910     7.34377E-03     155.543E-03    -55.4848E+06     26.0246E+06     43.9249E+06     7.57391E+06    -303.352E-03     602.197E-03    -298.844E-03     250.064E-03    -317.091E-03     615.703E-03    -298.582E-03     192.987E-03
             911     8.01284E-03     155.924E-03    -46.3433E+06     37.7082E+06     56.9583E+06     6.64415E+06    -302.951E-03     601.771E-03    -298.821E-03     262.895E-03    -318.433E-03     617.058E-03    -298.524E-03     202.343E-03
             912     8.68170E-03     156.320E-03    -39.0145E+06     31.3652E+06     65.1955E+06     5.05833E+06    -302.228E-03     601.001E-03    -298.773E-03     269.377E-03    -318.874E-03     617.431E-03    -298.436E-03     206.636E-03
             913     9.35009E-03     156.719E-03    -32.1964E+06     35.7030E+06     72.9176E+06     4.19387E+06    -301.189E-03     599.880E-03    -298.691E-03     269.196E-03    -318.295E-03     616.787E-03    -298.332E-03     205.651E-03
             914     10.0194E-03     157.112E-03    -26.0956E+06     41.6954E+06     77.2838E+06     2.48142E+06    -299.828E-03     598.406E-03    -298.578E-03     262.867E-03    -316.609E-03     615.018E-03    -298.214E-03     199.954E-03
             915     10.6869E-03     157.487E-03    -20.4847E+06     45.2018E+06     78.5003E+06     2.35336E+06    -297.658E-03     596.070E-03    -298.412E-03     251.747E-03    -313.423E-03     611.695E-03    -298.055E-03     190.944E-03
             916     11.3589E-03     157.838E-03    -15.3557E+06     49.5665E+06     77.1796E+06     3.19444E+06    -295.209E-03     593.380E-03    -298.170E-03     230.288E-03    -308.845E-03     606.913E-03    -297.834E-03     173.957E-03
             917     12.0317E-03     158.141E-03    -10.4509E+06     59.2913E+06     81.4372E+06     2.90658E+06    -294.034E-03     591.957E-03    -297.923E-03     212.966E-03    -306.008E-03     603.868E-03    -297.586E-03     159.894E-03
             918     12.7019E-03     158.444E-03    -5.09307E+06     65.8767E+06     87.1338E+06     1.11828E+06    -293.083E-03     590.787E-03    -297.704E-03     156.403E-03    -300.780E-03     598.447E-03    -297.356E-03     115.048E-03
             919     667.638E-06     155.136E-03    -134.000E+06    -257.533E+06    -133.414E+06     1.33270E+06    -298.968E-03     597.603E-03    -298.636E-03     26.9080E-03    -299.221E-03     596.854E-03    -298.735E-03     21.3763E-03
             920     1.33515E-03     155.194E-03    -132.420E+06    -245.250E+06    -124.306E+06     1.49371E+06    -299.103E-03     597.883E-03    -298.780E-03     49.2066E-03    -299.691E-03     597.491E-03    -298.854E-03     39.0474E-03
             921     2.00247E-03     155.285E-03    -126.532E+06    -225.690E+06    -109.127E+06     1.60972E+06    -299.664E-03     598.524E-03    -298.860E-03     72.8340E-03    -300.804E-03     598.730E-03    -298.895E-03     57.6895E-03
             922     2.66966E-03     155.413E-03    -120.437E+06    -208.706E+06    -90.7991E+06     2.70765E+06    -300.150E-03     599.120E-03    -298.970E-03     96.8642E-03    -302.074E-03     600.138E-03    -298.946E-03     76.5674E-03
             923     3.33692E-03     155.576E-03    -112.732E+06    -178.687E+06    -70.0739E+06     3.70110E+06    -300.657E-03     599.699E-03    -299.042E-03     120.802E-03    -303.620E-03     601.831E-03    -298.970E-03     95.2020E-03
             924     4.00440E-03     155.774E-03    -103.449E+06    -137.810E+06    -48.2758E+06     4.22492E+06    -301.195E-03     600.277E-03    -299.082E-03     144.536E-03    -305.459E-03     603.824E-03    -298.973E-03     113.497E-03
             925     4.67218E-03     156.007E-03    -93.9062E+06    -99.6553E+06    -26.1300E+06     5.11339E+06    -301.753E-03     600.866E-03    -299.112E-03     167.553E-03    -307.544E-03     606.045E-03    -298.962E-03     131.059E-03
             926     5.34028E-03     156.273E-03    -84.3934E+06    -57.5945E+06    -4.27906E+06     4.96806E+06    -302.521E-03     601.663E-03    -299.142E-03     190.169E-03    -310.113E-03     608.763E-03    -298.957E-03     148.056E-03
             927     6.00706E-03     156.574E-03    -75.4778E+06    -22.7307E+06     14.6691E+06     4.74157E+06    -303.254E-03     602.439E-03    -299.185E-03     211.797E-03    -312.829E-03     611.623E-03    -298.970E-03     164.211E-03
             928     6.67357E-03     156.905E-03    -66.6252E+06    -6.67051E+06     27.7743E+06     4.45997E+06    -303.433E-03     602.648E-03    -299.215E-03     231.663E-03    -315.074E-03     613.948E-03    -298.970E-03     179.024E-03
             929     7.34279E-03     157.265E-03    -57.3361E+06     18.5512E+06     42.1844E+06     5.03897E+06    -303.253E-03     602.451E-03    -299.198E-03     248.694E-03    -316.942E-03     615.880E-03    -298.931E-03     191.566E-03
             930     8.01038E-03     157.644E-03    -48.8918E+06     38.5991E+06     55.6915E+06     6.71144E+06    -302.933E-03     602.088E-03    -299.155E-03     260.930E-03    -318.346E-03     617.303E-03    -298.861E-03     200.387E-03
             931     8.67801E-03     158.040E-03    -40.9054E+06     33.2381E+06     64.2654E+06     6.17473E+06    -302.231E-03     601.335E-03    -299.104E-03     267.588E-03    -318.819E-03     617.709E-03    -298.772E-03     204.836E-03
             932     9.34671E-03     158.436E-03    -33.9923E+06     35.9835E+06     72.6358E+06     5.36114E+06    -300.779E-03     599.788E-03    -299.009E-03     268.033E-03    -317.854E-03     616.659E-03    -298.648E-03     204.531E-03
             933     10.0155E-03     158.829E-03    -27.8366E+06     46.8554E+06     79.1798E+06     5.07394E+06    -298.448E-03     597.278E-03    -298.830E-03     262.046E-03    -315.198E-03     613.866E-03    -298.462E-03     199.462E-03
             934     10.6879E-03     159.202E-03    -22.0994E+06     46.6136E+06     80.1875E+06     3.00173E+06    -296.442E-03     595.021E-03    -298.579E-03     250.565E-03    -312.144E-03     610.577E-03    -298.213E-03     190.113E-03
             935     11.3585E-03     159.549E-03    -15.4158E+06     45.8291E+06     77.7512E+06     2.42978E+06    -295.349E-03     593.652E-03    -298.303E-03     229.178E-03    -308.954E-03     607.140E-03    -297.958E-03     172.783E-03
             936     12.0271E-03     159.856E-03    -8.85919E+06     62.4854E+06     83.8524E+06     2.72715E+06    -293.340E-03     591.385E-03    -298.045E-03     210.505E-03    -305.261E-03     603.253E-03    -297.703E-03     157.465E-03
             937     12.7022E-03     160.145E-03    -4.25195E+06     69.8960E+06     89.9775E+06     1.27302E+06    -291.127E-03     588.896E-03    -297.769E-03     153.730E-03    -298.740E-03     596.480E-03    -297.414E-03     112.746E-03
             938     666.819E-06     156.859E-03    -135.959E+06    -262.465E+06    -132.522E+06     623.143E+03    -299.398E-03     598.769E-03    -299.371E-03     26.6273E-03    -299.653E-03     597.995E-03    -299.456E-03     21.1339E-03
             939     1.33428E-03     156.915E-03    -130.997E+06    -247.830E+06    -123.789E+06     1.05234E+06    -299.501E-03     598.826E-03    -299.325E-03     49.1860E-03    -300.079E-03     598.418E-03    -299.395E-03     39.0088E-03
             940     2.00158E-03     157.009E-03    -127.336E+06    -230.125E+06    -109.952E+06     2.22952E+06    -299.866E-03     599.191E-03    -299.324E-03     72.7772E-03    -301.005E-03     599.379E-03    -299.356E-03     57.5903E-03
             941     2.66877E-03     157.135E-03    -120.474E+06    -212.220E+06    -90.1609E+06     2.74190E+06    -300.408E-03     599.788E-03    -299.380E-03     96.6517E-03    -302.328E-03     600.789E-03    -299.348E-03     76.2972E-03
             942     3.33628E-03     157.299E-03    -111.766E+06    -181.558E+06    -69.5576E+06     3.06569E+06    -301.022E-03     600.457E-03    -299.435E-03     120.353E-03    -303.974E-03     602.569E-03    -299.358E-03     94.6666E-03
             943     4.00333E-03     157.497E-03    -103.101E+06    -142.572E+06    -48.7870E+06     4.10297E+06    -301.654E-03     601.141E-03    -299.487E-03     143.544E-03    -305.887E-03     604.643E-03    -299.374E-03     112.455E-03
             944     4.67036E-03     157.730E-03    -93.6468E+06    -104.205E+06    -26.1221E+06     4.94342E+06    -302.371E-03     601.926E-03    -299.556E-03     166.307E-03    -308.139E-03     607.068E-03    -299.399E-03     129.655E-03
             945     5.33678E-03     157.997E-03    -83.9333E+06    -61.4795E+06    -3.72827E+06     6.45342E+06    -303.062E-03     602.686E-03    -299.625E-03     188.916E-03    -310.623E-03     609.742E-03    -299.432E-03     146.685E-03
             946     6.00379E-03     158.298E-03    -74.3430E+06    -24.0922E+06     15.9358E+06     8.20404E+06    -303.376E-03     603.046E-03    -299.670E-03     210.690E-03    -312.925E-03     612.199E-03    -299.448E-03     163.074E-03
             947     6.67190E-03     158.628E-03    -65.9031E+06    -3.70792E+06     29.5553E+06     7.98808E+06    -303.508E-03     603.184E-03    -299.676E-03     230.358E-03    -315.119E-03     614.462E-03    -299.428E-03     177.682E-03
             948     7.33825E-03     158.985E-03    -58.8415E+06     15.6717E+06     41.9405E+06     6.62611E+06    -303.459E-03     603.110E-03    -299.651E-03     247.153E-03    -317.085E-03     616.461E-03    -299.379E-03     190.020E-03
             949     8.00603E-03     159.366E-03    -50.9141E+06     33.2041E+06     55.0723E+06     6.98588E+06    -302.897E-03     602.496E-03    -299.599E-03     259.562E-03    -318.250E-03     617.627E-03    -299.298E-03     199.029E-03
             950     8.67492E-03     159.758E-03    -43.4278E+06     35.6199E+06     65.3540E+06     7.51578E+06    -301.741E-03     601.248E-03    -299.507E-03     266.550E-03    -318.288E-03     617.578E-03    -299.169E-03     203.922E-03
             951     9.34350E-03     160.157E-03    -35.8732E+06     38.4316E+06     74.2791E+06     5.57850E+06    -299.843E-03     599.189E-03    -299.346E-03     267.040E-03    -316.883E-03     616.023E-03    -298.978E-03     203.734E-03
             952     10.0143E-03     160.543E-03    -26.6484E+06     46.6621E+06     81.0596E+06     3.90641E+06    -297.633E-03     596.735E-03    -299.102E-03     260.122E-03    -314.314E-03     613.252E-03    -298.726E-03     197.662E-03
             953     10.6845E-03     160.913E-03    -18.0623E+06     47.7934E+06     83.1626E+06     4.53323E+06    -295.962E-03     594.776E-03    -298.813E-03     248.123E-03    -311.553E-03     610.231E-03    -298.441E-03     187.779E-03
             954     11.3551E-03     161.265E-03    -12.6041E+06     46.9537E+06     80.0745E+06     4.14404E+06    -294.048E-03     592.533E-03    -298.486E-03     227.929E-03    -307.580E-03     605.955E-03    -298.135E-03     171.811E-03
             955     12.0281E-03     161.569E-03    -8.70842E+06     63.3941E+06     84.6271E+06     3.22423E+06    -291.980E-03     590.123E-03    -298.143E-03     211.361E-03    -303.990E-03     602.082E-03    -297.799E-03     158.343E-03
             956     12.6970E-03     161.853E-03    -4.29375E+06     73.7714E+06     91.1312E+06     2.77068E+06    -289.934E-03     587.722E-03    -297.788E-03     156.836E-03    -297.690E-03     595.460E-03    -297.433E-03     115.722E-03
             957     667.021E-06     158.584E-03    -135.902E+06    -265.394E+06    -133.855E+06     438.217E+03    -300.034E-03     599.869E-03    -299.835E-03     26.5451E-03    -300.284E-03     599.083E-03    -299.922E-03     20.9512E-03
             958     1.33344E-03     158.641E-03    -133.198E+06    -252.300E+06    -125.209E+06     1.28819E+06    -300.095E-03     599.982E-03    -299.888E-03     49.0906E-03    -300.676E-03     599.558E-03    -299.955E-03     38.8720E-03
             959     2.00043E-03     158.732E-03    -128.220E+06    -233.504E+06    -110.025E+06     1.85961E+06    -300.400E-03     600.299E-03    -299.898E-03     72.4024E-03    -301.536E-03     600.470E-03    -299.924E-03     57.1539E-03
             960     2.66757E-03     158.860E-03    -120.887E+06    -215.259E+06    -90.9858E+06     2.05237E+06    -300.956E-03     600.908E-03    -299.952E-03     95.8166E-03    -302.867E-03     601.889E-03    -299.920E-03     75.3683E-03
             961     3.33385E-03     159.024E-03    -113.673E+06    -186.010E+06    -71.4794E+06     2.89163E+06    -301.550E-03     601.565E-03    -300.015E-03     119.271E-03    -304.488E-03     603.647E-03    -299.938E-03     93.4979E-03
             962     4.00063E-03     159.222E-03    -105.355E+06    -146.378E+06    -49.8827E+06     3.83041E+06    -302.209E-03     602.289E-03    -300.080E-03     142.582E-03    -306.432E-03     605.763E-03    -299.964E-03     111.383E-03
             963     4.66709E-03     159.456E-03    -96.2119E+06    -109.569E+06    -28.1400E+06     4.55749E+06    -302.955E-03     603.112E-03    -300.157E-03     165.806E-03    -308.726E-03     608.234E-03    -299.999E-03     128.994E-03
             964     5.33376E-03     159.723E-03    -87.0471E+06    -69.7771E+06    -7.58394E+06     6.62002E+06    -303.442E-03     603.659E-03    -300.218E-03     188.339E-03    -310.993E-03     610.676E-03    -300.028E-03     145.994E-03
             965     6.00081E-03     160.022E-03    -77.9822E+06    -30.4423E+06     11.8088E+06     8.71428E+06    -303.620E-03     603.863E-03    -300.243E-03     209.398E-03    -313.139E-03     612.963E-03    -300.027E-03     161.695E-03
             966     6.66722E-03     160.352E-03    -68.8074E+06    -4.91379E+06     26.6635E+06     9.52957E+06    -303.727E-03     603.961E-03    -300.234E-03     228.724E-03    -315.290E-03     615.186E-03    -299.994E-03     175.992E-03
             967     7.33506E-03     160.710E-03    -60.0154E+06     15.9957E+06     39.7854E+06     9.98605E+06    -303.479E-03     603.670E-03    -300.191E-03     245.384E-03    -317.036E-03     616.956E-03    -299.928E-03     188.287E-03
             968     8.00295E-03     161.087E-03    -52.4463E+06     31.6750E+06     52.9998E+06     9.74848E+06    -302.533E-03     602.639E-03    -300.106E-03     257.630E-03    -317.812E-03     617.690E-03    -299.811E-03     197.168E-03
             969     8.67061E-03     161.479E-03    -43.6585E+06     38.5912E+06     66.6865E+06     7.89666E+06    -300.948E-03     600.913E-03    -299.966E-03     264.222E-03    -317.404E-03     617.158E-03    -299.625E-03     201.744E-03
             970     9.34084E-03     161.872E-03    -34.6710E+06     44.8381E+06     77.7303E+06     5.00877E+06    -298.965E-03     598.711E-03    -299.746E-03     264.025E-03    -315.872E-03     615.429E-03    -299.372E-03     200.936E-03
             971     10.0107E-03     162.259E-03    -28.6010E+06     46.7569E+06     82.2715E+06     3.16362E+06    -297.056E-03     596.514E-03    -299.459E-03     257.575E-03    -313.639E-03     612.923E-03    -299.074E-03     195.209E-03
             972     10.6805E-03     162.627E-03    -23.5327E+06     45.6634E+06     82.3794E+06     2.04091E+06    -294.855E-03     593.969E-03    -299.114E-03     247.082E-03    -310.444E-03     609.397E-03    -298.734E-03     186.820E-03
             973     11.3530E-03     162.974E-03    -17.5084E+06     45.7668E+06     77.9336E+06     2.14464E+06    -291.736E-03     590.406E-03    -298.670E-03     226.851E-03    -305.239E-03     603.783E-03    -298.321E-03     171.107E-03
             974     12.0271E-03     163.273E-03    -11.1352E+06     61.5295E+06     83.3376E+06     2.90829E+06    -289.075E-03     587.252E-03    -298.178E-03     210.405E-03    -301.008E-03     599.123E-03    -297.834E-03     157.989E-03
             975     12.7052E-03     163.566E-03    -5.72691E+06     77.1977E+06     92.4529E+06     2.41243E+06    -287.799E-03     585.490E-03    -297.691E-03     155.883E-03    -295.492E-03     593.169E-03    -297.333E-03     115.307E-03
             976     666.088E-06     160.310E-03    -137.297E+06    -268.458E+06    -135.961E+06     532.333E+03    -300.938E-03     601.309E-03    -300.371E-03     26.0532E-03    -301.187E-03     600.513E-03    -300.463E-03     20.4419E-03
             977     1.33294E-03     160.367E-03    -135.391E+06    -255.609E+06    -127.002E+06     1.17584E+06    -300.856E-03     601.483E-03    -300.627E-03     48.4110E-03    -301.438E-03     601.045E-03    -300.695E-03     38.1129E-03
             978     1.99905E-03     160.459E-03    -130.347E+06    -236.832E+06    -112.696E+06     1.41699E+06    -301.213E-03     601.874E-03    -300.660E-03     71.7630E-03    -302.349E-03     602.032E-03    -300.691E-03     56.4233E-03
             979     2.66484E-03     160.587E-03    -124.301E+06    -219.422E+06    -94.1120E+06     2.78830E+06    -301.609E-03     602.328E-03    -300.719E-03     95.3431E-03    -303.522E-03     603.294E-03    -300.691E-03     74.8220E-03
             980     3.33154E-03     160.751E-03    -116.501E+06    -189.202E+06    -72.9318E+06     3.47318E+06    -302.143E-03     602.910E-03    -300.767E-03     118.952E-03    -305.089E-03     604.982E-03    -300.688E-03     93.0769E-03
             981     3.99776E-03     160.949E-03    -107.688E+06    -150.582E+06    -52.1288E+06     3.91463E+06    -302.866E-03     603.680E-03    -300.815E-03     142.272E-03    -307.099E-03     607.148E-03    -300.701E-03     110.871E-03
             982     4.66413E-03     161.183E-03    -99.0501E+06    -115.251E+06    -30.9991E+06     5.58195E+06    -303.472E-03     604.355E-03    -300.883E-03     164.767E-03    -309.221E-03     609.434E-03    -300.728E-03     127.872E-03
             983     5.33045E-03     161.450E-03    -90.3150E+06    -77.7780E+06    -11.1834E+06     7.13289E+06    -303.884E-03     604.818E-03    -300.934E-03     186.621E-03    -311.387E-03     611.756E-03    -300.746E-03     144.209E-03
             984     5.99624E-03     161.749E-03    -80.7025E+06    -36.9495E+06     8.12356E+06     8.34688E+06    -304.058E-03     605.009E-03    -300.950E-03     207.579E-03    -313.521E-03     614.030E-03    -300.739E-03     159.764E-03
             985     6.66309E-03     162.078E-03    -70.5563E+06    -7.71241E+06     25.1317E+06     8.52088E+06    -303.924E-03     604.856E-03    -300.932E-03     226.908E-03    -315.432E-03     616.013E-03    -300.693E-03     174.080E-03
             986     7.32968E-03     162.433E-03    -60.2563E+06     8.68348E+06     39.6741E+06     9.47122E+06    -303.340E-03     604.208E-03    -300.868E-03     243.145E-03    -316.809E-03     617.379E-03    -300.595E-03     186.019E-03
             987     7.99680E-03     162.810E-03    -49.6706E+06     29.5243E+06     55.5347E+06     11.3271E+06    -302.098E-03     602.834E-03    -300.736E-03     254.980E-03    -317.252E-03     617.756E-03    -300.429E-03     194.631E-03
             988     8.66634E-03     163.197E-03    -41.8882E+06     44.8653E+06     69.3738E+06     10.7180E+06    -300.332E-03     600.862E-03    -300.530E-03     261.390E-03    -316.667E-03     617.007E-03    -300.187E-03     199.077E-03
             989     9.33492E-03     163.589E-03    -36.9739E+06     50.7351E+06     79.1670E+06     8.91317E+06    -298.184E-03     598.432E-03    -300.249E-03     261.663E-03    -314.996E-03     615.064E-03    -299.873E-03     198.794E-03
             990     10.0053E-03     163.972E-03    -31.2720E+06     52.8526E+06     85.3736E+06     6.76605E+06    -295.518E-03     595.396E-03    -299.878E-03     256.115E-03    -312.030E-03     611.737E-03    -299.482E-03     194.159E-03
             991     10.6784E-03     164.339E-03    -24.1297E+06     53.6316E+06     88.0125E+06     2.56452E+06    -292.477E-03     591.878E-03    -299.401E-03     245.664E-03    -307.980E-03     607.231E-03    -299.004E-03     185.988E-03
             992     11.3517E-03     164.680E-03    -17.4570E+06     41.6209E+06     81.1641E+06     45.8882E+03    -289.633E-03     588.451E-03    -298.818E-03     226.029E-03    -303.072E-03     601.741E-03    -298.448E-03     170.699E-03
             993     12.0262E-03     164.977E-03    -11.3037E+06     56.4240E+06     85.2926E+06     2.15576E+06    -287.228E-03     585.434E-03    -298.206E-03     209.870E-03    -299.104E-03     597.223E-03    -297.845E-03     157.834E-03
             994     12.7005E-03     165.259E-03    -5.44635E+06     83.2307E+06     95.5111E+06     1.96212E+06    -284.507E-03     582.080E-03    -297.573E-03     155.583E-03    -292.178E-03     589.750E-03    -297.208E-03     115.365E-03
             995     665.795E-06     162.041E-03    -140.220E+06    -271.938E+06    -137.564E+06     888.449E+03    -301.848E-03     603.042E-03    -301.193E-03     26.0547E-03    -302.103E-03     602.232E-03    -301.284E-03     20.4557E-03
             996     1.33091E-03     162.097E-03    -136.813E+06    -259.377E+06    -129.013E+06     1.44153E+06    -301.738E-03     603.233E-03    -301.495E-03     48.4713E-03    -302.321E-03     602.784E-03    -301.565E-03     38.1420E-03
             997     1.99678E-03     162.189E-03    -132.805E+06    -240.915E+06    -114.909E+06     2.70861E+06    -301.965E-03     603.479E-03    -301.514E-03     71.9322E-03    -303.109E-03     603.630E-03    -301.547E-03     56.4873E-03
             998     2.66309E-03     162.316E-03    -126.162E+06    -222.316E+06    -95.0648E+06     3.03500E+06    -302.469E-03     604.034E-03    -301.565E-03     95.1909E-03    -304.391E-03     604.994E-03    -301.535E-03     74.5254E-03
             999     3.32872E-03     162.480E-03    -117.330E+06    -193.210E+06    -74.8677E+06     3.28166E+06    -303.154E-03     604.788E-03    -301.634E-03     118.272E-03    -306.091E-03     606.839E-03    -301.558E-03     92.2312E-03
            1000     3.99442E-03     162.679E-03    -109.030E+06    -156.902E+06    -54.7195E+06     4.66523E+06    -303.771E-03     605.485E-03    -301.714E-03     140.935E-03    -307.974E-03     608.903E-03    -301.602E-03     109.429E-03
            1001     4.65963E-03     162.913E-03    -99.7374E+06    -121.985E+06    -33.0294E+06     6.46376E+06    -304.244E-03     606.042E-03    -301.798E-03     163.152E-03    -309.951E-03     611.058E-03    -301.642E-03     126.123E-03
            1002     5.32492E-03     163.179E-03    -89.5419E+06    -83.8151E+06    -11.9710E+06     7.38908E+06    -304.457E-03     606.303E-03    -301.846E-03     184.852E-03    -311.905E-03     613.170E-03    -301.655E-03     142.299E-03
            1003     5.99121E-03     163.477E-03    -79.0469E+06    -41.6771E+06     8.75243E+06     7.80386E+06    -304.343E-03     606.185E-03    -301.841E-03     205.544E-03    -313.736E-03     615.124E-03    -301.622E-03     157.606E-03
            1004     6.65720E-03     163.805E-03    -69.0355E+06    -9.56507E+06     26.7426E+06     8.52768E+06    -303.988E-03     605.771E-03    -301.784E-03     224.643E-03    -315.414E-03     616.841E-03    -301.536E-03     171.742E-03
            1005     7.32394E-03     164.159E-03    -59.9767E+06     2.74907E+06     39.5622E+06     8.77551E+06    -303.084E-03     604.747E-03    -301.663E-03     240.741E-03    -316.440E-03     617.786E-03    -301.383E-03     183.652E-03
            1006     7.99225E-03     164.531E-03    -52.7736E+06     20.9342E+06     51.6882E+06     10.3212E+06    -301.551E-03     603.001E-03    -301.450E-03     252.585E-03    -316.572E-03     617.759E-03    -301.145E-03     192.404E-03
            1007     8.65973E-03     164.918E-03    -45.9698E+06     43.3171E+06     66.3692E+06     12.7768E+06    -299.456E-03     600.607E-03    -301.151E-03     259.337E-03    -315.671E-03     616.620E-03    -300.815E-03     197.329E-03
            1008     9.33043E-03     165.304E-03    -36.3662E+06     55.9846E+06     81.5239E+06     12.0265E+06    -296.647E-03     597.409E-03    -300.762E-03     260.199E-03    -313.346E-03     613.941E-03    -300.383E-03     197.812E-03
            1009     10.0024E-03     165.686E-03    -26.1343E+06     60.0509E+06     91.2959E+06     8.91981E+06    -293.121E-03     593.359E-03    -300.239E-03     255.119E-03    -309.508E-03     609.603E-03    -299.831E-03     193.850E-03
            1010     10.6750E-03     166.045E-03    -18.8043E+06     63.7607E+06     95.8096E+06     7.16866E+06    -289.484E-03     589.053E-03    -299.570E-03     245.738E-03    -304.891E-03     604.343E-03    -299.156E-03     186.923E-03
            1011     11.3514E-03     166.384E-03    -14.2293E+06     46.4083E+06     87.6286E+06     5.11020E+06    -286.741E-03     585.530E-03    -298.789E-03     228.231E-03    -300.157E-03     598.806E-03    -298.397E-03     173.725E-03
            1012     12.0283E-03     166.678E-03    -10.0057E+06     54.0951E+06     88.5523E+06     2.24249E+06    -284.337E-03     582.319E-03    -297.983E-03     214.872E-03    -296.325E-03     594.207E-03    -297.604E-03     163.350E-03
            1013     12.7065E-03     166.963E-03    -4.10928E+06     85.5395E+06     98.3306E+06     1.50642E+06    -280.961E-03     578.114E-03    -297.153E-03     161.905E-03    -288.821E-03     585.977E-03    -296.779E-03     121.804E-03
            1014     665.159E-06     163.774E-03    -142.473E+06    -276.040E+06    -139.916E+06     1.01141E+06    -302.352E-03     604.573E-03    -302.222E-03     26.3410E-03    -302.610E-03     603.752E-03    -302.314E-03     20.6662E-03
            1015     1.33068E-03     163.829E-03    -139.067E+06    -263.370E+06    -130.193E+06     1.52861E+06    -302.670E-03     604.971E-03    -302.300E-03     48.4299E-03    -303.258E-03     604.507E-03    -302.368E-03     38.0192E-03
            1016     1.99586E-03     163.921E-03    -133.112E+06    -244.521E+06    -115.523E+06     1.83242E+06    -303.125E-03     605.528E-03    -302.403E-03     71.4910E-03    -304.260E-03     605.657E-03    -302.433E-03     55.9626E-03
            1017     2.66052E-03     164.049E-03    -125.417E+06    -225.158E+06    -96.5789E+06     2.27227E+06    -303.845E-03     606.395E-03    -302.550E-03     94.3959E-03    -305.749E-03     607.334E-03    -302.525E-03     73.5792E-03
            1018     3.32511E-03     164.213E-03    -118.191E+06    -198.135E+06    -77.0618E+06     3.12553E+06    -304.489E-03     607.199E-03    -302.710E-03     117.148E-03    -307.406E-03     609.216E-03    -302.637E-03     90.9335E-03
            1019     3.98944E-03     164.412E-03    -109.022E+06    -163.232E+06    -55.7272E+06     4.19058E+06    -304.776E-03     607.609E-03    -302.833E-03     139.605E-03    -308.944E-03     610.972E-03    -302.717E-03     107.952E-03
            1020     4.65454E-03     164.645E-03    -99.1096E+06    -129.690E+06    -34.1949E+06     5.17490E+06    -304.977E-03     607.879E-03    -302.901E-03     161.958E-03    -310.651E-03     612.839E-03    -302.741E-03     124.714E-03
            1021     5.31972E-03     164.912E-03    -89.0092E+06    -89.0278E+06    -12.3596E+06     6.55282E+06    -305.028E-03     607.942E-03    -302.914E-03     183.322E-03    -312.426E-03     614.743E-03    -302.718E-03     140.607E-03
            1022     5.98460E-03     165.207E-03    -79.8004E+06    -47.6469E+06     8.85842E+06     7.84162E+06    -304.717E-03     607.588E-03    -302.871E-03     203.782E-03    -314.044E-03     616.437E-03    -302.642E-03     155.774E-03
            1023     6.65056E-03     165.534E-03    -71.4232E+06    -14.9286E+06     25.5263E+06     9.35672E+06    -303.894E-03     606.638E-03    -302.744E-03     222.587E-03    -315.225E-03     617.588E-03    -302.491E-03     169.755E-03
            1024     7.31748E-03     165.884E-03    -63.4840E+06     3.02772E+06     37.0554E+06     9.81758E+06    -302.509E-03     605.026E-03    -302.517E-03     238.449E-03    -315.738E-03     617.933E-03    -302.244E-03     181.619E-03
            1025     7.98453E-03     166.255E-03    -54.6099E+06     11.6818E+06     48.1273E+06     10.3147E+06    -300.523E-03     602.711E-03    -302.188E-03     250.676E-03    -315.384E-03     617.280E-03    -301.885E-03     190.872E-03
            1026     8.65513E-03     166.636E-03    -43.3986E+06     36.6541E+06     66.2293E+06     11.4594E+06    -297.635E-03     599.370E-03    -301.735E-03     258.039E-03    -313.649E-03     615.168E-03    -301.394E-03     196.700E-03
            1027     9.32571E-03     167.021E-03    -33.5187E+06     58.9939E+06     83.2481E+06     10.7809E+06    -293.863E-03     594.988E-03    -301.125E-03     260.071E-03    -310.379E-03     611.353E-03    -300.745E-03     198.654E-03
            1028     9.99907E-03     167.393E-03    -27.2238E+06     60.5236E+06     91.4239E+06     11.0951E+06    -289.715E-03     590.059E-03    -300.344E-03     256.514E-03    -305.974E-03     606.172E-03    -299.936E-03     196.423E-03
            1029     10.6772E-03     167.749E-03    -22.1060E+06     68.5882E+06     97.1636E+06     10.3384E+06    -286.047E-03     585.467E-03    -299.419E-03     248.452E-03    -301.405E-03     600.707E-03    -299.001E-03     190.785E-03
            1030     11.3559E-03     168.081E-03    -15.6607E+06     55.1522E+06     88.7066E+06     6.72149E+06    -282.930E-03     581.311E-03    -298.381E-03     231.982E-03    -296.318E-03     594.582E-03    -297.995E-03     178.639E-03
            1031     12.0363E-03     168.375E-03    -10.0527E+06     58.1979E+06     88.6637E+06     4.24019E+06    -279.881E-03     577.209E-03    -297.328E-03     218.339E-03    -291.848E-03     589.090E-03    -296.954E-03     167.930E-03
            1032     12.7209E-03     168.646E-03    -5.63914E+06     87.7849E+06     99.8138E+06     2.08041E+06    -278.886E-03     575.232E-03    -296.346E-03     163.714E-03    -286.759E-03     583.108E-03    -295.966E-03     124.049E-03
            1033     664.742E-06     165.508E-03    -141.958E+06    -278.387E+06    -140.515E+06    -126.001E+03    -303.340E-03     606.882E-03    -303.542E-03     25.8679E-03    -303.590E-03     606.048E-03    -303.635E-03     20.1347E-03
            1034     1.32903E-03     165.565E-03    -139.141E+06    -266.019E+06    -132.062E+06     560.679E+03    -304.028E-03     607.526E-03    -303.499E-03     47.2595E-03    -304.599E-03     607.042E-03    -303.572E-03     36.8073E-03
            1035     1.99298E-03     165.658E-03    -134.080E+06    -246.863E+06    -117.203E+06     943.074E+03    -304.554E-03     608.240E-03    -303.686E-03     69.9545E-03    -305.673E-03     608.347E-03    -303.720E-03     54.3544E-03
            1036     2.65699E-03     165.787E-03    -128.120E+06    -228.357E+06    -99.6952E+06     979.997E+03    -305.061E-03     608.923E-03    -303.862E-03     93.2813E-03    -306.955E-03     609.841E-03    -303.844E-03     72.3403E-03
            1037     3.32058E-03     165.951E-03    -119.747E+06    -201.711E+06    -79.2340E+06     1.18547E+06    -305.450E-03     609.447E-03    -303.997E-03     116.219E-03    -308.348E-03     611.434E-03    -303.927E-03     89.8704E-03
            1038     3.98471E-03     166.149E-03    -110.661E+06    -169.019E+06    -57.8340E+06     2.17581E+06    -305.733E-03     609.814E-03    -304.080E-03     138.741E-03    -309.883E-03     613.138E-03    -303.964E-03     106.894E-03
            1039     4.64867E-03     166.381E-03    -101.579E+06    -135.582E+06    -36.3843E+06     3.39529E+06    -305.783E-03     609.895E-03    -304.112E-03     160.687E-03    -311.410E-03     614.785E-03    -303.950E-03     123.356E-03
            1040     5.31300E-03     166.646E-03    -92.2678E+06    -96.7753E+06    -15.9464E+06     5.35898E+06    -305.422E-03     609.482E-03    -304.061E-03     181.883E-03    -312.753E-03     616.189E-03    -303.867E-03     139.179E-03
            1041     5.97829E-03     166.941E-03    -83.3224E+06    -58.0974E+06     3.51071E+06     9.02346E+06    -304.708E-03     608.627E-03    -303.919E-03     202.471E-03    -313.941E-03     617.347E-03    -303.696E-03     154.619E-03
            1042     6.64397E-03     167.265E-03     -74.316E+06    -19.4541E+06     21.7097E+06     10.8040E+06    -303.373E-03     607.036E-03    -303.662E-03     221.530E-03    -314.590E-03     617.857E-03    -303.418E-03     169.043E-03
            1043     7.31077E-03     167.612E-03    -64.4562E+06     3.40940E+06     37.0588E+06     9.57895E+06    -301.418E-03     604.699E-03    -303.281E-03     238.228E-03    -314.545E-03     617.502E-03    -303.007E-03     181.842E-03
            1044     7.98044E-03     167.978E-03    -54.8838E+06     7.73519E+06     48.3783E+06     7.95137E+06    -298.583E-03     601.332E-03    -302.749E-03     251.160E-03    -313.308E-03     615.750E-03    -302.439E-03     192.082E-03
            1045     8.65021E-03     168.354E-03    -47.1327E+06     30.7004E+06     61.5921E+06     7.98652E+06    -294.513E-03     596.518E-03    -302.006E-03     259.634E-03    -310.368E-03     612.137E-03    -301.674E-03     199.434E-03
            1046     9.32548E-03     168.730E-03    -40.4888E+06     53.5480E+06     76.7187E+06     10.4217E+06    -289.986E-03     591.050E-03    -301.064E-03     262.893E-03    -306.335E-03     607.224E-03    -300.699E-03     203.008E-03
            1047     10.0043E-03     169.097E-03    -33.0939E+06     57.5756E+06     87.6626E+06     11.6896E+06    -285.973E-03     585.948E-03    -299.976E-03     259.895E-03    -302.069E-03     601.878E-03    -299.573E-03     201.402E-03
            1048     10.6831E-03     169.445E-03    -24.2650E+06     74.0369E+06     97.9885E+06     10.1231E+06    -282.595E-03     581.387E-03    -298.792E-03     252.338E-03    -297.861E-03     596.545E-03    -298.374E-03     196.016E-03
            1049     11.3648E-03     169.775E-03    -18.0680E+06     63.2417E+06     90.6212E+06     6.94254E+06    -279.716E-03     577.264E-03    -297.548E-03     235.138E-03    -293.049E-03     590.495E-03    -297.160E-03     182.894E-03
            1050     12.0497E-03     170.057E-03    -12.9382E+06     64.8265E+06     89.4008E+06      3.7798E+06    -278.003E-03     574.369E-03    -296.366E-03     220.186E-03    -289.909E-03     586.200E-03    -295.994E-03     170.504E-03
            1051     12.7312E-03     170.335E-03    -5.13747E+06     91.3090E+06     100.961E+06     1.32016E+06    -278.343E-03     573.697E-03    -295.355E-03     167.154E-03    -286.250E-03     581.617E-03    -294.975E-03     127.537E-03
            1052     663.269E-06     167.248E-03    -141.834E+06    -279.466E+06    -141.303E+06     353.031E+03    -305.211E-03     610.369E-03    -305.158E-03     25.7534E-03    -305.456E-03     609.529E-03    -305.254E-03     20.0298E-03
            1053     1.32628E-03     167.307E-03    -140.540E+06    -267.394E+06    -133.488E+06     161.510E+03    -305.561E-03     610.759E-03    -305.198E-03     47.2238E-03    -306.136E-03     610.273E-03    -305.274E-03     36.6821E-03
            1054     1.98932E-03     167.399E-03    -136.153E+06    -249.150E+06    -118.973E+06     553.496E+03    -305.876E-03     611.173E-03    -305.297E-03     69.9483E-03    -306.999E-03     611.273E-03    -305.334E-03     54.2243E-03
            1055     2.65235E-03     167.528E-03    -129.235E+06    -227.152E+06    -100.093E+06    -74.6912E+03    -306.092E-03     611.461E-03    -305.369E-03     92.9402E-03    -307.980E-03     612.374E-03    -305.353E-03     71.9343E-03
            1056     3.31603E-03     167.692E-03    -120.977E+06    -204.754E+06    -80.3153E+06    -317.986E+03    -306.266E-03     611.661E-03    -305.394E-03     115.529E-03    -309.141E-03     613.611E-03    -305.324E-03     89.1408E-03
            1057     3.97940E-03     167.890E-03    -112.577E+06    -175.112E+06    -60.4631E+06     1.07660E+06    -306.450E-03     611.824E-03    -305.375E-03     138.010E-03    -310.558E-03     615.086E-03    -305.260E-03     106.158E-03
            1058     4.64274E-03     168.122E-03    -103.467E+06    -140.168E+06    -40.0665E+06     2.67369E+06    -306.197E-03     611.492E-03    -305.296E-03     160.029E-03    -311.761E-03     616.308E-03    -305.143E-03     122.821E-03
            1059     5.30700E-03     168.384E-03    -94.2591E+06    -106.806E+06    -20.8261E+06     4.74899E+06    -305.302E-03     610.411E-03    -305.109E-03     181.762E-03    -312.554E-03     617.010E-03    -304.922E-03     139.292E-03
            1060     5.97203E-03     168.677E-03    -84.1071E+06    -70.3996E+06    -2.12646E+06     7.47626E+06    -303.880E-03     608.653E-03    -304.773E-03     203.023E-03    -312.997E-03     617.228E-03    -304.560E-03     155.619E-03
            1061     6.63881E-03     168.996E-03    -73.3866E+06    -26.7793E+06     18.8035E+06     10.2358E+06    -301.825E-03     606.103E-03    -304.278E-03     222.841E-03    -312.904E-03     616.772E-03    -304.039E-03     171.095E-03
            1062     7.30794E-03     169.339E-03    -64.6882E+06     4.11278E+06     36.5938E+06     11.4068E+06    -298.944E-03     602.546E-03    -303.603E-03     240.715E-03    -311.926E-03     615.207E-03    -303.332E-03     185.476E-03
            1063     7.97794E-03     169.699E-03    -57.5660E+06      13.559E+06     47.6164E+06     9.09515E+06    -295.106E-03     597.819E-03    -302.712E-03     255.090E-03    -309.679E-03     612.098E-03    -302.410E-03     197.571E-03
            1064     8.65409E-03     170.065E-03    -49.7294E+06     23.5255E+06     58.8750E+06     8.46612E+06    -290.717E-03     592.322E-03    -301.605E-03     264.457E-03    -306.403E-03     607.744E-03    -301.273E-03     205.977E-03
            1065     9.33226E-03     170.433E-03    -40.9441E+06     43.5255E+06     74.8647E+06     11.5042E+06    -286.428E-03     586.766E-03    -300.338E-03     267.698E-03    -302.565E-03     602.694E-03    -299.967E-03     209.611E-03
            1066     10.0123E-03     170.793E-03    -32.4420E+06     61.1354E+06     89.1639E+06     11.5240E+06    -282.551E-03     581.521E-03    -298.970E-03     265.148E-03    -298.460E-03     597.273E-03    -298.566E-03     208.399E-03
            1067     10.6961E-03     171.138E-03    -24.8543E+06     75.8666E+06     99.1219E+06     10.0348E+06    -279.793E-03     577.365E-03    -297.572E-03     258.246E-03    -294.919E-03     592.385E-03    -297.150E-03     203.477E-03
            1068     11.3811E-03     171.460E-03    -17.2238E+06     70.0183E+06     95.3740E+06     8.13518E+06    -278.470E-03     574.690E-03    -296.219E-03     241.095E-03    -291.792E-03     587.922E-03    -295.819E-03     189.777E-03
            1069     12.0628E-03     171.744E-03    -9.64693E+06     74.5088E+06     95.4021E+06     4.00148E+06    -278.377E-03     573.410E-03    -295.033E-03     227.760E-03    -290.469E-03     585.455E-03    -294.650E-03     178.100E-03
            1070     12.7471E-03     172.018E-03    -4.16921E+06     93.3183E+06     102.423E+06     1.17227E+06    -279.468E-03     573.553E-03    -294.085E-03     175.026E-03    -287.603E-03     581.707E-03    -293.702E-03     134.918E-03
            1071     661.925E-06     168.997E-03    -147.744E+06    -279.493E+06    -145.582E+06    -439.999E+03    -307.097E-03     613.453E-03    -306.356E-03     26.6736E-03    -307.368E-03     612.630E-03    -306.465E-03     20.9178E-03
            1072     1.32424E-03     169.053E-03    -143.463E+06    -267.251E+06    -136.129E+06    -562.744E+03    -306.960E-03     613.667E-03    -306.707E-03     47.9531E-03    -307.549E-03     613.192E-03    -306.792E-03     37.3505E-03
            1073     1.98665E-03     169.147E-03    -138.360E+06    -249.616E+06    -121.558E+06    -1.32408E+06    -307.126E-03     613.860E-03    -306.734E-03     70.4781E-03    -308.253E-03     613.962E-03    -306.780E-03     54.7032E-03
            1074     2.64893E-03     169.274E-03    -131.126E+06    -226.538E+06    -103.616E+06    -1.28545E+06    -307.135E-03     613.853E-03    -306.717E-03     93.0824E-03    -309.014E-03     614.761E-03    -306.717E-03     72.0978E-03
            1075     3.31121E-03     169.437E-03    -124.025E+06    -205.468E+06    -84.3685E+06    -1.06352E+06    -306.959E-03     613.593E-03    -306.635E-03     115.968E-03    -309.820E-03     615.530E-03    -306.579E-03     89.6631E-03
            1076     3.97401E-03     169.635E-03    -115.388E+06    -178.917E+06    -64.7394E+06    -1.42486E+06    -306.454E-03     612.903E-03    -306.448E-03     138.920E-03    -310.525E-03     616.117E-03    -306.345E-03     107.305E-03
            1077     4.63808E-03     169.864E-03    -105.573E+06    -146.425E+06    -45.0829E+06    -260.075E+03    -305.449E-03     611.575E-03    -306.125E-03     161.670E-03    -310.961E-03     616.323E-03    -305.985E-03     124.858E-03
            1078     5.30286E-03     170.123E-03    -94.9510E+06    -115.751E+06    -24.6167E+06     1.63012E+06    -303.993E-03     609.650E-03    -305.657E-03     184.433E-03    -311.159E-03     616.139E-03    -305.475E-03     142.612E-03
            1079     5.96974E-03     170.411E-03    -84.4333E+06    -81.0677E+06    -5.10837E+06     3.61241E+06    -301.855E-03     606.857E-03    -305.003E-03     206.791E-03    -310.854E-03     615.285E-03    -304.788E-03     160.367E-03
            1080     6.63878E-03     170.725E-03    -74.5822E+06    -41.9729E+06     13.3724E+06     8.33226E+06    -298.894E-03     603.025E-03    -304.131E-03     227.834E-03    -309.821E-03     613.499E-03    -303.895E-03     177.475E-03
            1081     7.31002E-03     171.061E-03    -64.4572E+06    -1.27941E+06     32.0977E+06     13.2426E+06    -295.061E-03     598.089E-03    -303.028E-03     246.421E-03    -307.840E-03     610.541E-03    -302.772E-03     193.067E-03
            1082     7.98741E-03     171.412E-03    -56.1115E+06     21.4044E+06     48.0719E+06     13.6552E+06    -290.837E-03     592.556E-03    -301.719E-03     260.987E-03    -305.172E-03     606.629E-03    -301.429E-03     205.653E-03
            1083     8.66546E-03     171.771E-03    -49.8844E+06     22.0345E+06     58.4101E+06     11.2851E+06    -286.872E-03     587.131E-03    -300.259E-03     270.466E-03    -302.270E-03     602.261E-03    -299.927E-03     214.223E-03
            1084     9.34665E-03     172.132E-03    -43.5237E+06     38.0384E+06     69.9875E+06     10.5154E+06    -283.077E-03     581.772E-03    -298.695E-03     274.685E-03    -298.953E-03     597.425E-03    -298.337E-03     218.697E-03
            1085     10.0315E-03     172.485E-03    -36.1656E+06     63.0635E+06     87.1380E+06     10.4695E+06    -279.944E-03     577.067E-03    -297.123E-03     273.077E-03    -295.671E-03     592.637E-03    -296.726E-03     218.205E-03
            1086     10.7175E-03     172.822E-03    -27.3138E+06     78.1617E+06     102.253E+06     7.92925E+06    -278.440E-03     574.071E-03    -295.631E-03     266.575E-03    -293.461E-03     588.976E-03    -295.194E-03     213.246E-03
            1087     11.4023E-03     173.147E-03    -18.6133E+06     78.0233E+06     102.285E+06     3.78758E+06    -278.915E-03     573.200E-03    -294.285E-03     250.085E-03    -292.283E-03     586.482E-03    -293.859E-03     199.448E-03
            1088     12.0887E-03     173.427E-03    -10.3305E+06     77.0293E+06     97.8256E+06     1.25178E+06    -281.256E-03     574.473E-03    -293.217E-03     235.693E-03    -293.536E-03     586.707E-03    -292.825E-03     185.648E-03
            1089     12.7704E-03     173.708E-03    -3.98405E+06     92.0886E+06     103.638E+06     3.41376E+06    -284.318E-03     576.851E-03    -292.534E-03     179.543E-03    -292.615E-03     585.162E-03    -292.143E-03     138.554E-03
            1090     661.827E-06     170.747E-03    -150.596E+06    -275.463E+06    -149.127E+06    -1.17713E+06    -308.097E-03     615.525E-03    -307.428E-03     26.2442E-03    -308.378E-03     614.726E-03    -307.556E-03     20.5751E-03
            1091     1.32298E-03     170.806E-03    -147.449E+06    -263.352E+06    -140.406E+06    -2.90710E+06    -307.890E-03     615.597E-03    -307.707E-03     48.5289E-03    -308.490E-03     615.146E-03    -307.813E-03     38.0496E-03
            1092     1.98407E-03     170.897E-03    -141.428E+06    -246.727E+06    -126.349E+06    -3.65816E+06    -307.793E-03     615.441E-03    -307.648E-03     71.4511E-03    -308.924E-03     615.560E-03    -307.717E-03     55.7992E-03
            1093     2.64586E-03     171.025E-03    -135.630E+06    -226.914E+06    -110.633E+06    -3.72893E+06    -307.295E-03     614.767E-03    -307.472E-03     94.8987E-03    -309.177E-03     615.682E-03    -307.499E-03     74.1067E-03
            1094     3.30846E-03     171.185E-03    -127.770E+06    -204.295E+06    -91.3536E+06    -3.91541E+06    -306.505E-03     613.660E-03    -307.155E-03     118.866E-03    -309.362E-03     615.602E-03    -307.130E-03     92.9173E-03
            1095     3.97231E-03     171.380E-03    -118.998E+06    -177.407E+06    -69.7159E+06    -4.30207E+06    -305.177E-03     611.851E-03    -306.674E-03     142.802E-03    -309.229E-03     615.053E-03    -306.593E-03     111.816E-03
            1096     4.63734E-03     171.605E-03    -109.655E+06    -150.093E+06    -48.9518E+06    -4.94337E+06    -303.399E-03     609.400E-03    -306.001E-03     166.655E-03    -308.869E-03     614.090E-03    -305.869E-03     130.736E-03
            1097     5.30507E-03     171.860E-03    -99.8769E+06    -122.548E+06    -29.5373E+06    -4.19549E+06    -301.216E-03     606.350E-03    -305.134E-03     190.322E-03    -308.305E-03     612.735E-03    -304.959E-03     149.713E-03
            1098     5.97455E-03     172.142E-03    -90.1347E+06    -91.2958E+06    -11.4924E+06    -1.38499E+06    -298.272E-03     602.326E-03    -304.053E-03     213.268E-03    -307.141E-03     610.583E-03    -303.848E-03     168.472E-03
            1099     6.64722E-03     172.449E-03    -80.2726E+06    -58.3920E+06     4.90639E+06     1.88637E+06    -294.493E-03     597.223E-03    -302.731E-03     235.113E-03    -305.217E-03     607.441E-03    -302.505E-03     186.777E-03
            1100     7.32457E-03     172.776E-03    -70.5091E+06    -19.3612E+06     22.0182E+06     7.22178E+06    -290.474E-03     591.657E-03    -301.183E-03     254.212E-03    -302.984E-03     603.783E-03    -300.942E-03     203.177E-03
            1101     8.00269E-03     173.117E-03    -61.3945E+06     15.3279E+06     37.9416E+06     13.4094E+06    -286.621E-03     586.100E-03    -299.478E-03     269.394E-03    -300.649E-03     599.853E-03    -299.222E-03     216.609E-03
            1102     8.68608E-03     173.469E-03    -53.8503E+06     29.1797E+06     50.3757E+06     13.6956E+06    -283.089E-03     580.793E-03    -297.704E-03     279.874E-03    -298.170E-03     595.640E-03    -297.417E-03     226.286E-03
            1103     9.37236E-03     173.822E-03    -46.4179E+06     40.2185E+06     64.7209E+06     9.95513E+06    -280.393E-03     576.339E-03    -295.946E-03     284.364E-03    -295.962E-03     591.698E-03    -295.613E-03     230.763E-03
            1104     10.0597E-03     174.169E-03    -36.9189E+06     63.6990E+06     85.5310E+06     7.57650E+06    -279.053E-03     573.362E-03    -294.309E-03     282.670E-03    -294.529E-03     588.685E-03    -293.920E-03     229.654E-03
            1105     10.7466E-03     174.506E-03    -27.2358E+06     84.1806E+06     105.862E+06     5.25568E+06    -279.487E-03     572.379E-03    -292.892E-03     275.959E-03    -294.364E-03     587.151E-03    -292.445E-03     223.848E-03
            1106     11.4346E-03     174.827E-03    -19.0944E+06     85.7776E+06     112.984E+06     2.83557E+06    -282.240E-03     574.009E-03    -291.769E-03     259.260E-03    -295.608E-03     587.286E-03    -291.301E-03     209.049E-03
            1107     12.1140E-03     175.119E-03    -14.0214E+06     76.8213E+06     103.098E+06     1.79528E+06    -287.312E-03     578.326E-03    -291.013E-03     245.260E-03    -299.781E-03     590.719E-03    -290.589E-03     194.649E-03
            1108     12.7884E-03     175.403E-03    -8.76790E+06     89.1381E+06     104.879E+06     2.21374E+06    -292.088E-03     582.830E-03    -290.743E-03     188.181E-03    -300.649E-03     591.374E-03    -290.335E-03     145.906E-03
            1109     660.390E-06     172.501E-03    -149.106E+06    -268.428E+06    -147.775E+06    -1.82573E+06    -308.546E-03     616.161E-03    -307.616E-03     26.8661E-03    -308.829E-03     615.392E-03    -307.749E-03     21.3025E-03
            1110     1.32219E-03     172.560E-03    -147.148E+06    -255.724E+06    -139.900E+06    -3.06597E+06    -307.318E-03     615.138E-03    -307.820E-03     50.0736E-03    -307.924E-03     614.720E-03    -307.936E-03     39.8249E-03
            1111     1.98410E-03     172.651E-03    -143.632E+06    -241.377E+06    -128.193E+06    -4.42110E+06    -306.634E-03     614.017E-03    -307.383E-03     74.4365E-03    -307.774E-03     614.161E-03    -307.465E-03     59.1984E-03
            1112     2.64690E-03     172.775E-03    -137.437E+06    -223.081E+06    -111.770E+06    -5.45361E+06    -305.741E-03     612.604E-03    -306.863E-03     99.3045E-03    -307.623E-03     613.530E-03    -306.899E-03     79.1158E-03
            1113     3.31099E-03     172.933E-03    -130.017E+06    -201.099E+06    -92.9465E+06    -6.60598E+06    -304.309E-03     610.507E-03    -306.199E-03     124.235E-03    -307.148E-03     612.441E-03    -306.184E-03     99.1570E-03
            1114     3.97670E-03     173.122E-03    -121.045E+06    -174.987E+06    -72.9131E+06    -7.09869E+06    -302.313E-03     607.648E-03    -305.335E-03     149.048E-03    -306.323E-03     610.818E-03    -305.270E-03     119.215E-03
            1115     4.64523E-03     173.341E-03    -112.136E+06    -149.366E+06    -52.0665E+06    -6.96494E+06    -299.831E-03     604.094E-03    -304.263E-03     173.881E-03    -305.221E-03     608.705E-03    -304.144E-03     139.492E-03
            1116     5.31536E-03     173.590E-03    -104.048E+06    -124.002E+06    -33.2005E+06    -6.65184E+06    -296.729E-03     599.688E-03    -302.958E-03     198.749E-03    -303.698E-03     605.942E-03    -302.794E-03     160.102E-03
            1117     5.98921E-03     173.864E-03    -95.1063E+06    -97.0394E+06    -16.1506E+06    -5.84713E+06    -293.109E-03     594.518E-03    -301.410E-03     223.059E-03    -301.805E-03     602.577E-03    -301.212E-03     180.599E-03
            1118     6.66691E-03     174.161E-03    -85.7055E+06    -68.6821E+06      9.0965E+03    -3.87299E+06    -289.345E-03     588.992E-03    -299.647E-03     245.793E-03    -299.820E-03     598.917E-03    -299.423E-03     200.115E-03
            1119     7.34742E-03     174.479E-03    -76.0393E+06    -38.0616E+06     14.5185E+06     327.952E+03    -285.702E-03     583.423E-03    -297.720E-03     265.983E-03    -297.884E-03     595.155E-03    -297.482E-03     217.821E-03
            1120     8.03355E-03     174.814E-03    -64.3109E+06    -3.29151E+06     28.6044E+06     6.44348E+06    -282.572E-03     578.278E-03    -295.706E-03     282.026E-03    -296.212E-03     591.594E-03    -295.465E-03     232.187E-03
            1121     8.72106E-03     175.157E-03    -51.9208E+06     29.4959E+06     45.5031E+06     10.9733E+06    -280.492E-03     574.232E-03    -293.740E-03     292.460E-03    -295.181E-03     588.708E-03    -293.480E-03     241.653E-03
            1122     9.40993E-03     175.505E-03    -41.2670E+06     45.7010E+06     62.9773E+06     10.6782E+06    -279.859E-03     571.816E-03    -291.957E-03     296.624E-03    -295.048E-03     586.838E-03    -291.649E-03     245.424E-03
            1123     10.0983E-03     175.850E-03    -33.5316E+06     68.8313E+06     82.3078E+06     8.35762E+06    -280.951E-03     571.400E-03    -290.450E-03     294.674E-03    -296.122E-03     586.459E-03    -290.089E-03     243.445E-03
            1124     10.7865E-03     176.187E-03    -27.3914E+06     88.5832E+06     103.099E+06     7.20626E+06    -284.202E-03     573.537E-03    -289.335E-03     287.211E-03    -298.905E-03     588.159E-03    -288.908E-03     236.076E-03
            1125     11.4675E-03     176.515E-03    -21.7612E+06     90.0461E+06     118.944E+06     5.85147E+06    -289.098E-03     577.782E-03    -288.684E-03     270.482E-03    -302.516E-03     591.099E-03    -288.189E-03     220.273E-03
            1126     12.1476E-03     176.815E-03    -14.6402E+06     82.4186E+06     115.684E+06     3.44362E+06    -295.553E-03     583.998E-03    -288.445E-03     256.839E-03    -308.219E-03     596.572E-03    -287.965E-03     205.492E-03
            1127     12.8223E-03     177.118E-03    -5.73052E+06     89.3051E+06     111.971E+06     182.028E+03    -303.515E-03     592.239E-03    -288.724E-03     196.450E-03    -312.195E-03     600.894E-03    -288.286E-03     152.973E-03
            1128     661.950E-06     174.258E-03    -148.781E+06    -260.856E+06    -149.127E+06    -1.60273E+06    -306.685E-03     612.257E-03    -305.572E-03     28.5362E-03    -306.977E-03     611.527E-03    -305.724E-03     23.1404E-03
            1129     1.32396E-03     174.309E-03    -146.400E+06    -249.760E+06    -138.927E+06    -2.73331E+06    -304.744E-03     610.454E-03    -305.710E-03     53.2282E-03    -305.355E-03     610.060E-03    -305.830E-03     43.4134E-03
            1130     1.98861E-03     174.398E-03    -141.947E+06    -233.985E+06    -125.192E+06    -3.99975E+06    -303.411E-03     608.362E-03    -304.951E-03     79.0592E-03    -304.540E-03     608.518E-03    -305.032E-03     64.6186E-03
            1131     2.65395E-03     174.519E-03    -136.132E+06    -216.045E+06    -108.085E+06    -5.66219E+06    -302.002E-03     606.081E-03    -304.079E-03     104.990E-03    -303.854E-03     606.995E-03    -304.109E-03     85.9274E-03
            1132     3.32087E-03     174.672E-03    -128.725E+06    -194.333E+06    -89.6337E+06    -7.13533E+06    -299.947E-03     602.991E-03    -303.044E-03     131.237E-03    -302.729E-03     604.884E-03    -303.024E-03     107.645E-03
            1133     3.99033E-03     174.854E-03    -121.121E+06    -171.986E+06    -72.0074E+06    -8.23024E+06    -297.267E-03     599.041E-03    -301.774E-03     157.822E-03    -301.187E-03     602.127E-03    -301.709E-03     129.859E-03
            1134     4.66180E-03     175.067E-03    -112.574E+06    -148.394E+06    -53.3409E+06    -7.61239E+06    -294.039E-03     594.292E-03    -300.253E-03     184.722E-03    -299.295E-03     598.772E-03    -300.141E-03     152.661E-03
            1135     5.33796E-03     175.306E-03    -103.092E+06    -122.542E+06    -33.7804E+06    -6.46514E+06    -290.307E-03     588.785E-03    -298.478E-03     211.281E-03    -297.072E-03     594.844E-03    -298.320E-03     175.488E-03
            1136     6.01809E-03     175.571E-03    -94.3947E+06    -97.4845E+06    -15.8001E+06    -5.72931E+06    -286.729E-03     583.214E-03    -296.486E-03     237.316E-03    -295.156E-03     591.003E-03    -296.286E-03     198.079E-03
            1137     6.70154E-03     175.860E-03    -85.8655E+06    -71.6610E+06     754.525E+03    -4.09382E+06    -283.765E-03     578.131E-03    -294.366E-03     261.410E-03    -293.918E-03     587.718E-03    -294.134E-03     219.128E-03
            1138     7.38901E-03     176.170E-03    -77.0040E+06    -44.9294E+06     15.5039E+06    -2.98348E+06    -281.396E-03     573.609E-03    -292.213E-03     282.213E-03    -293.215E-03     584.947E-03    -291.958E-03     237.364E-03
            1139     8.07790E-03     176.496E-03    -68.6144E+06    -15.7977E+06     29.2817E+06    -1.87866E+06    -280.070E-03     570.197E-03    -290.128E-03     298.149E-03    -293.329E-03     583.070E-03    -289.859E-03     251.313E-03
            1140     8.76903E-03     176.837E-03    -59.3499E+06     18.1389E+06     42.7339E+06     244.827E+03    -280.339E-03     568.570E-03    -288.232E-03     308.156E-03    -294.650E-03     582.611E-03    -287.958E-03     259.906E-03
            1141     9.45962E-03     177.183E-03    -49.6798E+06     43.0008E+06     54.9585E+06     2.34313E+06    -282.406E-03     569.073E-03    -286.667E-03     311.363E-03    -297.239E-03     583.723E-03    -286.382E-03     262.210E-03
            1142     10.1493E-03     177.530E-03    -40.7962E+06     66.6354E+06     71.1728E+06     4.02402E+06    -286.478E-03     572.036E-03    -285.558E-03     308.238E-03    -301.335E-03     586.780E-03    -285.240E-03     258.426E-03
            1143     10.8320E-03     177.875E-03    -31.7071E+06     86.6224E+06     93.5257E+06     5.78683E+06    -292.413E-03     577.411E-03    -284.998E-03     300.350E-03    -306.948E-03     591.872E-03    -284.610E-03     249.771E-03
            1144     11.5128E-03     178.212E-03    -21.4601E+06     98.5260E+06     117.848E+06     4.76213E+06    -299.983E-03     585.011E-03    -285.028E-03     282.782E-03    -313.443E-03     598.407E-03    -284.550E-03     231.971E-03
            1145     12.1830E-03     178.523E-03    -11.4478E+06     86.4491E+06     120.261E+06     616.625E+03    -309.929E-03     595.532E-03    -285.603E-03     265.948E-03    -322.783E-03     608.309E-03    -285.110E-03     212.483E-03
            1146     12.8452E-03     178.839E-03    -5.52051E+06     87.0556E+06     116.928E+06    -5.28362E+03    -321.272E-03     608.079E-03    -286.807E-03     200.488E-03    -330.027E-03     616.790E-03    -286.341E-03     155.053E-03
            1147     665.089E-06     175.999E-03    -145.332E+06    -253.067E+06    -143.419E+06    -1.97310E+06    -300.489E-03     601.336E-03    -300.847E-03     30.6239E-03    -300.781E-03     600.626E-03    -300.986E-03     25.6247E-03
            1148     1.33194E-03     176.048E-03    -141.557E+06    -242.846E+06    -134.286E+06    -3.19733E+06    -299.562E-03     599.821E-03    -300.259E-03     57.0375E-03    -300.148E-03     599.428E-03    -300.373E-03     48.0237E-03
            1149     1.99871E-03     176.132E-03    -136.538E+06    -228.008E+06    -120.767E+06    -4.14972E+06    -297.857E-03     597.317E-03    -299.461E-03     84.9615E-03    -298.940E-03     597.452E-03    -299.536E-03     71.7366E-03
            1150     2.66816E-03     176.248E-03    -130.333E+06    -209.550E+06    -104.074E+06    -5.07307E+06    -295.450E-03     593.792E-03    -298.342E-03     112.885E-03    -297.224E-03     594.655E-03    -298.369E-03     95.5236E-03
            1151     3.34015E-03     176.394E-03    -123.127E+06    -189.114E+06    -84.9664E+06    -5.18023E+06    -292.525E-03     589.439E-03    -296.914E-03     141.370E-03    -295.187E-03     591.232E-03    -296.886E-03     120.026E-03
            1152     4.01508E-03     176.569E-03    -115.884E+06    -166.889E+06    -65.5016E+06    -4.88027E+06    -289.175E-03     584.370E-03    -295.194E-03     170.442E-03    -292.923E-03     587.296E-03    -295.112E-03     145.306E-03
            1153     4.69485E-03     176.773E-03    -108.643E+06    -143.946E+06    -47.4709E+06    -5.44362E+06    -285.567E-03     578.773E-03    -293.206E-03     199.603E-03    -290.592E-03     583.031E-03    -293.077E-03     170.865E-03
            1154     5.37765E-03     177.003E-03    -100.590E+06    -120.538E+06    -29.6811E+06    -5.24564E+06    -282.315E-03     573.337E-03    -291.022E-03     228.147E-03    -288.784E-03     579.100E-03    -290.850E-03     195.996E-03
            1155     6.06440E-03     177.258E-03    -91.5389E+06    -96.4828E+06    -11.4127E+06    -4.46461E+06    -279.857E-03     568.609E-03    -288.753E-03     255.617E-03    -287.917E-03     576.028E-03    -288.537E-03     220.226E-03
            1156     6.75491E-03     177.541E-03    -82.2531E+06    -71.5562E+06     6.24788E+06    -3.46273E+06    -278.423E-03     564.926E-03    -286.503E-03     280.554E-03    -288.158E-03     574.092E-03    -286.249E-03     242.083E-03
            1157     7.44694E-03     177.844E-03    -73.0211E+06    -44.8208E+06     23.2704E+06    -1.31575E+06    -278.486E-03     562.884E-03    -284.397E-03     301.610E-03    -289.858E-03     573.765E-03    -284.110E-03     260.344E-03
            1158     8.14059E-03     178.169E-03    -64.3484E+06    -14.9306E+06     39.6462E+06     379.107E+03    -280.280E-03     562.842E-03    -282.562E-03     317.787E-03    -293.115E-03     575.279E-03    -282.249E-03     274.031E-03
            1159     8.83302E-03     178.508E-03    -56.4966E+06     17.2396E+06     53.9609E+06     538.947E+03    -283.902E-03     565.013E-03    -281.111E-03     326.973E-03    -297.814E-03     578.630E-03    -280.784E-03     281.165E-03
            1160     9.52338E-03     178.860E-03    -48.8336E+06     43.3836E+06     66.0364E+06    -487.220E+03    -289.395E-03     569.556E-03    -280.161E-03     328.535E-03    -303.873E-03     583.827E-03    -279.823E-03     281.047E-03
            1161     10.2070E-03     179.214E-03    -39.1482E+06     60.8601E+06     78.2108E+06    -569.461E+03    -296.509E-03     576.306E-03    -279.797E-03     323.690E-03    -311.051E-03     590.703E-03    -279.438E-03     274.774E-03
            1162     10.8883E-03     179.569E-03    -27.2822E+06     81.7565E+06     95.3074E+06     695.234E+03    -305.713E-03     585.787E-03    -280.074E-03     313.442E-03    -319.995E-03     599.993E-03    -279.677E-03     262.820E-03
            1163     11.5586E-03     179.922E-03    -16.8888E+06     102.152E+06     117.659E+06     1.14322E+06    -317.531E-03     598.621E-03    -281.090E-03     292.600E-03    -330.929E-03     611.989E-03    -280.625E-03     240.225E-03
            1164     12.2201E-03     180.256E-03    -10.3961E+06     83.9231E+06     117.979E+06     1.90691E+06    -331.758E-03     614.592E-03    -282.834E-03     272.729E-03    -344.740E-03     627.502E-03    -282.351E-03     216.097E-03
            1165     12.8668E-03     180.602E-03    -5.45479E+06     89.0664E+06     120.155E+06     4.07147E+06    -343.437E-03     628.695E-03    -285.258E-03     204.221E-03    -352.288E-03     637.501E-03    -284.779E-03     156.143E-03
            1166     672.014E-06     177.715E-03    -137.515E+06    -245.446E+06    -134.274E+06    -1.43821E+06    -291.292E-03     582.936E-03    -291.644E-03     33.6643E-03    -291.563E-03     582.226E-03    -291.760E-03     29.3302E-03
            1167     1.34323E-03     177.763E-03    -134.473E+06    -236.607E+06    -127.376E+06    -2.50183E+06    -290.361E-03     581.361E-03    -291.000E-03     61.8575E-03    -290.902E-03     580.942E-03    -291.098E-03     54.0519E-03
            1168     2.01721E-03     177.842E-03    -130.693E+06    -223.355E+06    -115.489E+06    -3.45898E+06    -288.075E-03     578.122E-03    -290.047E-03     92.7717E-03    -289.084E-03     578.196E-03    -290.111E-03     81.3278E-03
            1169     2.69324E-03     177.951E-03    -125.256E+06    -205.460E+06    -99.2015E+06    -3.39077E+06    -284.944E-03     573.565E-03    -288.621E-03     124.046E-03    -286.603E-03     574.324E-03    -288.637E-03     109.080E-03
            1170     3.37320E-03     178.088E-03    -118.480E+06    -186.543E+06    -80.0318E+06    -3.28973E+06    -281.485E-03     568.296E-03    -286.811E-03     155.628E-03    -283.972E-03     569.918E-03    -286.769E-03     137.299E-03
            1171     4.05734E-03     178.255E-03    -110.070E+06    -164.265E+06    -59.1806E+06    -2.42596E+06    -278.141E-03     562.861E-03    -284.720E-03     187.226E-03    -281.631E-03     565.535E-03    -284.618E-03     165.674E-03
            1172     4.74453E-03     178.449E-03    -100.764E+06    -138.969E+06    -37.7634E+06    -1.83042E+06    -275.347E-03     557.809E-03    -282.462E-03     218.329E-03    -280.023E-03     561.731E-03    -282.304E-03     193.603E-03
            1173     5.43665E-03     178.671E-03    -91.1745E+06    -116.197E+06    -17.8643E+06    -2.19094E+06    -273.651E-03     553.813E-03    -280.162E-03     248.680E-03    -279.704E-03     559.170E-03    -279.950E-03     220.693E-03
            1174     6.13107E-03     178.922E-03    -81.6419E+06    -93.4111E+06     381.149E+03    -1.48416E+06    -273.353E-03     551.294E-03    -277.941E-03     277.329E-03    -280.937E-03     558.246E-03    -277.685E-03     246.097E-03
            1175     6.82711E-03     179.199E-03    -72.0583E+06    -70.7098E+06     17.3214E+06    -420.093E+03    -274.760E-03     550.684E-03    -275.924E-03     303.150E-03    -283.973E-03     559.334E-03    -275.631E-03     268.667E-03
            1176     7.52437E-03     179.504E-03    -62.5269E+06    -46.9096E+06     33.1910E+06     1.98720E+06    -278.294E-03     552.540E-03    -274.245E-03     324.293E-03    -289.135E-03     562.893E-03    -273.921E-03     286.561E-03
            1177     8.21979E-03     179.830E-03    -53.7730E+06    -15.5328E+06     50.4687E+06     5.59428E+06    -284.105E-03     557.153E-03    -273.048E-03     339.290E-03    -296.407E-03     569.064E-03    -272.695E-03     298.471E-03
            1178     8.91187E-03     180.179E-03    -45.9246E+06     24.6556E+06     70.0652E+06     8.01081E+06    -291.835E-03     564.279E-03    -272.444E-03     346.887E-03    -305.257E-03     577.427E-03    -272.063E-03     303.300E-03
            1179     9.59725E-03     180.539E-03    -38.3204E+06     52.6907E+06     84.5049E+06     6.46242E+06    -301.337E-03     573.837E-03    -272.500E-03     346.803E-03    -315.421E-03     587.735E-03    -272.099E-03     300.600E-03
            1180     10.2782E-03     180.909E-03    -31.5644E+06     67.5941E+06     95.0634E+06     2.92718E+06    -313.001E-03     586.293E-03    -273.292E-03     338.488E-03    -327.249E-03     600.405E-03    -272.869E-03     289.619E-03
            1181     10.9468E-03     181.279E-03    -25.9376E+06     83.4901E+06     105.033E+06    -170.200E+03    -327.007E-03     601.886E-03    -274.879E-03     323.502E-03    -341.096E-03     615.889E-03    -274.438E-03     271.461E-03
            1182     11.6057E-03     181.661E-03    -21.3048E+06     95.7473E+06     117.687E+06     325.651E+03    -342.402E-03     619.720E-03    -277.318E-03     298.866E-03    -355.739E-03     632.994E-03    -276.838E-03     243.709E-03
            1183     12.2473E-03     182.023E-03    -16.4433E+06     81.4455E+06     114.222E+06     2.32159E+06    -356.769E-03     637.238E-03    -280.469E-03     275.891E-03    -369.717E-03     650.095E-03    -279.992E-03     215.958E-03
            1184     12.8785E-03     182.401E-03    -9.39054E+06     92.0676E+06     117.463E+06     813.476E+03    -364.853E-03     648.967E-03    -284.114E-03     205.378E-03    -373.668E-03     657.741E-03    -283.646E-03     154.804E-03
            1185     680.024E-06     179.395E-03    -129.741E+06    -241.314E+06    -130.445E+06    -865.811E+03    -277.686E-03     555.130E-03    -277.444E-03     37.4045E-03    -277.922E-03     554.402E-03    -277.558E-03     33.9181E-03
            1186     1.36203E-03     179.440E-03    -128.550E+06    -232.966E+06    -120.962E+06    -1.43849E+06    -275.687E-03     552.575E-03    -276.888E-03     69.3510E-03    -276.178E-03     552.108E-03    -276.969E-03     63.0796E-03
            1187     2.04548E-03     179.512E-03    -123.630E+06    -219.170E+06    -106.763E+06    -1.73129E+06    -273.119E-03     548.731E-03    -275.612E-03     103.678E-03    -274.022E-03     548.700E-03    -275.649E-03     94.5345E-03
            1188     2.73301E-03     179.613E-03    -116.636E+06    -202.029E+06    -88.7642E+06    -1.83363E+06    -270.124E-03     544.065E-03    -273.941E-03     138.295E-03    -271.603E-03     544.645E-03    -273.922E-03     126.300E-03
            1189     3.42369E-03     179.742E-03    -108.454E+06    -183.874E+06    -68.9220E+06    -1.79568E+06    -267.341E-03     539.330E-03    -271.989E-03     172.820E-03    -269.555E-03     540.682E-03    -271.910E-03     158.043E-03
            1190     4.11804E-03     179.901E-03    -99.2522E+06    -161.934E+06    -48.3830E+06    -1.82686E+06    -265.261E-03     535.146E-03    -269.885E-03     206.818E-03    -268.385E-03     537.462E-03    -269.748E-03     189.225E-03
            1191     4.81655E-03     180.088E-03    -89.3233E+06    -138.101E+06    -27.9832E+06    -757.109E+03    -264.480E-03     532.250E-03    -267.770E-03     239.968E-03    -268.697E-03     535.722E-03    -267.581E-03     219.475E-03
            1192     5.51605E-03     180.307E-03    -79.8875E+06    -115.634E+06    -7.96909E+06     1.48058E+06    -265.438E-03     531.229E-03    -265.791E-03     272.019E-03    -270.954E-03     536.059E-03    -265.547E-03     248.419E-03
            1193     6.21777E-03     180.555E-03    -71.9124E+06    -91.4203E+06     10.7237E+06     3.85821E+06    -268.525E-03     532.604E-03    -264.079E-03     301.555E-03    -275.530E-03     538.989E-03    -263.788E-03     274.580E-03
            1194     6.91971E-03     180.836E-03    -65.5657E+06    -69.2107E+06     27.4580E+06     6.02114E+06    -274.020E-03     536.795E-03    -262.775E-03     327.208E-03    -282.628E-03     544.842E-03    -262.442E-03     296.661E-03
            1195     7.61900E-03     181.147E-03    -61.3847E+06    -48.3711E+06     41.7275E+06     7.46758E+06    -282.155E-03     544.170E-03    -262.014E-03     347.812E-03    -292.420E-03     553.926E-03    -261.647E-03     313.382E-03
            1196     8.31383E-03     181.487E-03    -56.5847E+06    -15.9804E+06     57.3508E+06     8.61048E+06    -292.723E-03     554.641E-03    -261.918E-03     361.376E-03    -304.510E-03     566.011E-03    -261.526E-03     323.016E-03
            1197     9.00192E-03     181.849E-03    -49.5123E+06     27.1358E+06     74.1774E+06     9.97884E+06    -305.225E-03     567.802E-03    -262.577E-03     366.035E-03    -318.203E-03     580.498E-03    -262.174E-03     323.858E-03
            1198     9.68334E-03     182.229E-03    -42.5168E+06     60.3680E+06     86.8997E+06     9.47242E+06    -320.088E-03     584.166E-03    -264.078E-03     361.132E-03    -333.765E-03     597.673E-03    -263.669E-03     315.168E-03
            1199     10.3503E-03     182.621E-03    -36.1791E+06     80.4929E+06     97.8192E+06     5.48822E+06    -337.172E-03     603.681E-03    -266.509E-03     347.521E-03    -351.083E-03     617.487E-03    -266.084E-03     297.467E-03
            1200     11.0047E-03     183.025E-03    -29.6616E+06     89.5404E+06     105.390E+06     2.88695E+06    -355.071E-03     624.925E-03    -269.854E-03     328.456E-03    -368.937E-03     638.718E-03    -269.414E-03     273.770E-03
            1201     11.6422E-03     183.434E-03    -21.5989E+06     95.0146E+06     114.883E+06     1.48167E+06    -370.513E-03     644.501E-03    -273.987E-03     302.064E-03    -383.695E-03     657.625E-03    -273.520E-03     243.590E-03
            1202     12.2691E-03     183.835E-03    -12.7403E+06     81.0617E+06     110.437E+06     211.447E+03    -380.138E-03     658.693E-03    -278.554E-03     278.329E-03    -392.965E-03     671.450E-03    -278.101E-03     215.389E-03
            1203     12.8883E-03     184.225E-03    -5.24842E+06     93.1044E+06     114.656E+06    -46.4943E+03    -383.342E-03     666.609E-03    -283.267E-03     209.271E-03    -392.102E-03     675.354E-03    -282.821E-03     156.927E-03
            1204     693.998E-06     181.018E-03    -122.094E+06    -237.804E+06    -121.494E+06    -1.24556E+06    -257.447E-03     514.905E-03    -257.458E-03     42.5561E-03    -257.656E-03     514.142E-03    -257.544E-03     39.9591E-03
            1205     1.38970E-03     181.059E-03    -119.656E+06    -229.482E+06    -112.217E+06    -1.70067E+06    -255.631E-03     512.378E-03    -256.747E-03     78.3697E-03    -256.045E-03     511.833E-03    -256.802E-03     73.8150E-03
            1206     2.08820E-03     181.126E-03    -113.990E+06    -216.184E+06    -97.5376E+06    -1.63006E+06    -253.733E-03     509.252E-03    -255.519E-03     115.897E-03    -254.484E-03     509.072E-03    -255.527E-03     109.221E-03
            1207     2.78872E-03     181.220E-03    -107.119E+06    -199.725E+06     -79.848E+06    -1.63392E+06    -252.011E-03     506.059E-03    -254.047E-03     153.658E-03    -253.242E-03     506.394E-03    -254.002E-03     144.814E-03
            1208     3.49252E-03     181.344E-03    -99.4685E+06    -181.867E+06    -60.7782E+06    -1.15721E+06    -251.128E-03     503.579E-03    -252.451E-03     191.023E-03    -252.992E-03     504.587E-03    -252.347E-03     179.920E-03
            1209     4.19877E-03     181.498E-03    -92.0757E+06    -160.481E+06    -41.9103E+06     191.714E+03    -251.637E-03     502.502E-03    -250.865E-03     227.577E-03    -254.313E-03     504.375E-03    -250.708E-03     214.035E-03
            1210     4.90596E-03     181.684E-03    -86.4782E+06    -139.730E+06    -23.7902E+06     3.05537E+06    -254.116E-03     503.557E-03    -249.441E-03     262.730E-03    -257.805E-03     506.492E-03    -249.232E-03     246.487E-03
            1211     5.61554E-03     181.904E-03    -82.2144E+06    -119.231E+06    -5.70460E+06     6.98048E+06    -259.127E-03     507.462E-03    -248.335E-03     295.719E-03    -264.041E-03     511.665E-03    -248.071E-03     276.424E-03
            1212     6.32323E-03     182.161E-03    -78.4571E+06    -94.1907E+06     11.9557E+06     11.1004E+06    -266.875E-03     514.559E-03    -247.684E-03     325.350E-03    -273.237E-03     520.268E-03    -247.374E-03     302.496E-03
            1213     7.02729E-03     182.451E-03    -75.8088E+06    -69.6405E+06     27.6900E+06     14.4713E+06    -277.573E-03     525.203E-03    -247.630E-03     350.469E-03    -285.563E-03     532.600E-03    -247.281E-03     323.489E-03
            1214     7.72663E-03     182.778E-03    -71.4687E+06    -42.1075E+06     43.3017E+06     14.1605E+06    -291.236E-03     539.539E-03    -248.302E-03     369.567E-03    -300.932E-03     548.717E-03    -247.921E-03     337.885E-03
            1215     8.41833E-03     183.139E-03    -64.6138E+06    -7.83549E+06     58.5751E+06     11.3477E+06    -307.399E-03     557.210E-03    -249.811E-03     379.636E-03    -318.671E-03     568.075E-03    -249.413E-03     342.890E-03
            1216     9.09991E-03     183.527E-03    -57.1155E+06     28.8301E+06     68.9304E+06     9.51800E+06    -326.022E-03     578.268E-03    -252.246E-03     379.370E-03    -338.528E-03     590.499E-03    -251.860E-03     337.418E-03
            1217     9.76551E-03     183.937E-03    -47.7173E+06     65.3523E+06     80.2908E+06     7.94049E+06    -346.575E-03     602.276E-03    -255.701E-03     369.419E-03    -359.811E-03     615.371E-03    -255.325E-03     322.313E-03
            1218     10.4174E-03     184.367E-03    -37.1822E+06     89.5975E+06     93.6255E+06     5.27790E+06    -366.932E-03     627.090E-03    -260.158E-03     351.663E-03    -380.403E-03     640.504E-03    -259.766E-03     299.494E-03
            1219     11.0518E-03     184.807E-03    -27.9892E+06     96.1714E+06     102.199E+06     1.27059E+06    -384.841E-03     650.257E-03    -265.416E-03     331.294E-03    -398.334E-03     663.717E-03    -265.004E-03     273.821E-03
            1220     11.6737E-03     185.256E-03    -19.4042E+06     98.9593E+06     111.514E+06    -1.48391E+06    -396.271E-03     667.436E-03    -271.165E-03     304.557E-03    -409.166E-03     680.304E-03    -270.722E-03     243.400E-03
            1221     12.2862E-03     185.672E-03    -11.5762E+06     81.5830E+06     107.170E+06    -3.67094E+06    -400.283E-03     677.254E-03    -276.971E-03     279.733E-03    -412.894E-03     689.811E-03    -276.536E-03     214.483E-03
            1222     12.8970E-03     186.078E-03    -6.88256E+06     89.1641E+06     111.047E+06    -3.45816E+06    -399.207E-03     681.798E-03    -282.591E-03     211.657E-03    -407.876E-03     690.442E-03    -282.155E-03     157.753E-03
            1223     713.408E-06     182.568E-03    -122.291E+06    -233.012E+06    -120.737E+06    -1.00546E+06    -231.567E-03     462.815E-03    -231.248E-03     47.1833E-03    -231.768E-03     462.038E-03    -231.337E-03     45.5564E-03
            1224     1.42705E-03     182.606E-03    -119.599E+06    -224.307E+06    -112.108E+06    -2.24617E+06    -231.206E-03     462.189E-03    -230.983E-03     86.8734E-03    -231.559E-03     461.583E-03    -231.045E-03     83.9804E-03
            1225     2.14177E-03     182.670E-03    -115.297E+06    -214.201E+06    -100.002E+06    -2.66910E+06    -231.101E-03     461.498E-03    -230.396E-03     128.121E-03    -231.708E-03     461.169E-03    -230.418E-03     123.764E-03
            1226     2.85867E-03     182.762E-03    -110.415E+06    -199.941E+06    -84.8975E+06    -1.06066E+06    -231.891E-03     461.587E-03    -229.695E-03     169.170E-03    -232.877E-03     461.669E-03    -229.670E-03     163.258E-03
            1227     3.57651E-03     182.886E-03    -106.292E+06    -182.801E+06    -67.3575E+06     1.61889E+06    -234.184E-03     463.214E-03    -229.031E-03     209.374E-03    -235.703E-03     463.865E-03    -228.948E-03     201.684E-03
            1228     4.29505E-03     183.042E-03    -103.505E+06    -165.086E+06    -48.5289E+06     6.02150E+06    -238.720E-03     467.278E-03    -228.558E-03     247.970E-03    -240.946E-03     468.664E-03    -228.412E-03     238.231E-03
            1229     5.01395E-03     183.235E-03    -100.648E+06    -145.171E+06    -28.9564E+06     11.3374E+06    -246.091E-03     474.532E-03    -228.441E-03     284.215E-03    -249.238E-03     476.874E-03    -228.229E-03     271.954E-03
            1230     5.72857E-03     183.466E-03    -97.2852E+06    -123.785E+06    -10.8446E+06     15.3874E+06    -256.420E-03     485.235E-03    -228.814E-03     317.260E-03    -260.718E-03     488.774E-03    -228.548E-03     301.854E-03
            1231     6.43973E-03     183.737E-03    -92.8377E+06    -99.2841E+06     5.48343E+06     18.7125E+06    -269.882E-03     499.682E-03    -229.801E-03     345.995E-03    -275.565E-03     504.674E-03    -229.495E-03     326.727E-03
            1232     7.14513E-03     184.049E-03    -85.1290E+06    -67.0650E+06     22.5784E+06     19.4548E+06    -286.768E-03     518.306E-03    -231.538E-03     369.125E-03    -294.080E-03     525.029E-03    -231.205E-03     345.022E-03
            1233     7.84051E-03     184.404E-03    -75.1397E+06    -31.4728E+06     39.1155E+06     16.8119E+06    -306.708E-03     540.872E-03    -234.164E-03     384.469E-03    -315.734E-03     549.432E-03    -233.814E-03     354.701E-03
            1234     8.52351E-03     184.796E-03    -64.3927E+06     2.51484E+06     54.3757E+06     13.1937E+06    -329.094E-03     566.883E-03    -237.788E-03     389.985E-03    -339.707E-03     577.151E-03    -237.427E-03     353.982E-03
            1235     9.19040E-03     185.221E-03    -53.3978E+06     37.2578E+06     65.5247E+06     8.88180E+06    -353.330E-03     595.785E-03    -242.455E-03     385.864E-03    -365.224E-03     607.469E-03    -242.104E-03     343.286E-03
            1236     9.84171E-03     185.676E-03    -43.3974E+06     75.1982E+06     76.8500E+06     4.99763E+06    -377.195E-03     625.341E-03    -248.146E-03     372.694E-03    -389.878E-03     637.950E-03    -247.808E-03     323.830E-03
            1237     10.4734E-03     186.149E-03    -34.7699E+06     99.9074E+06     90.6906E+06     819.736E+03    -397.630E-03     652.334E-03    -254.703E-03     352.740E-03    -410.600E-03     665.301E-03    -254.344E-03     298.161E-03
            1238     11.0921E-03     186.629E-03    -26.2575E+06     103.451E+06     101.290E+06    -3.41160E+06    -411.604E-03     673.364E-03    -261.760E-03     330.840E-03    -424.629E-03     686.389E-03    -261.365E-03     270.902E-03
            1239     11.7002E-03     187.107E-03    -18.2411E+06     99.9284E+06     110.176E+06    -4.83706E+06    -417.051E-03     685.944E-03    -268.893E-03     302.514E-03    -429.581E-03     698.457E-03    -268.461E-03     239.056E-03
            1240     12.3038E-03     187.540E-03    -10.3793E+06     78.4525E+06     104.935E+06    -3.43771E+06    -417.495E-03     693.232E-03    -275.737E-03     277.027E-03    -429.787E-03     705.470E-03    -275.311E-03     209.747E-03
            1241     12.9015E-03     187.959E-03    -2.84886E+06      84.637E+06     110.137E+06    -476.355E+03    -411.408E-03     693.521E-03    -282.112E-03     209.348E-03    -419.871E-03     701.957E-03    -281.680E-03     154.043E-03
            1242     735.376E-06     184.031E-03    -131.412E+06    -226.582E+06    -131.923E+06    -2.71568E+06    -202.196E-03     403.526E-03    -201.330E-03     51.5659E-03    -202.414E-03     402.777E-03    -201.470E-03     50.7191E-03
            1243     1.47061E-03     184.071E-03    -129.871E+06    -220.622E+06    -124.600E+06    -2.22535E+06    -203.738E-03     405.413E-03    -201.675E-03     94.6232E-03    -204.054E-03     404.775E-03    -201.790E-03     93.0668E-03
            1244     2.20565E-03     184.137E-03    -128.586E+06    -216.017E+06    -113.246E+06     289.648E+03    -206.701E-03     408.736E-03    -202.035E-03     139.603E-03    -207.196E-03     408.274E-03    -202.102E-03     137.193E-03
            1245     2.93948E-03     184.234E-03    -128.359E+06    -205.609E+06    -98.9833E+06     4.87080E+06    -211.454E-03     414.029E-03    -202.575E-03     183.609E-03    -212.240E-03     413.869E-03    -202.586E-03     180.165E-03
            1246     3.67237E-03     184.364E-03    -127.838E+06    -189.036E+06    -81.3287E+06     10.0853E+06    -218.604E-03     422.005E-03    -203.401E-03     225.719E-03    -219.816E-03     422.295E-03    -203.348E-03     220.962E-03
            1247     4.40277E-03     184.532E-03    -125.330E+06    -173.059E+06    -60.8959E+06     14.5316E+06    -228.724E-03     433.370E-03    -204.646E-03     265.115E-03    -230.524E-03     434.270E-03    -204.518E-03     258.581E-03
            1248     5.12771E-03     184.741E-03    -119.731E+06    -152.156E+06    -41.1410E+06     17.0774E+06    -241.955E-03     448.363E-03    -206.407E-03     301.235E-03    -244.556E-03     450.113E-03    -206.219E-03     292.260E-03
            1249     5.84824E-03     184.993E-03    -110.648E+06    -127.324E+06    -22.7021E+06     17.9520E+06    -258.523E-03     467.317E-03    -208.794E-03     333.093E-03    -262.167E-03     470.190E-03    -208.562E-03     320.855E-03
            1250     6.56012E-03     185.290E-03    -98.0244E+06    -100.342E+06    -4.65938E+06     16.9825E+06    -278.758E-03     490.701E-03    -211.943E-03     359.515E-03    -283.720E-03     494.994E-03    -211.679E-03     342.942E-03
            1251     7.26016E-03     185.636E-03    -83.2164E+06    -65.0234E+06     14.2451E+06     15.3171E+06    -302.281E-03     518.266E-03    -215.985E-03     378.815E-03    -308.790E-03     524.239E-03    -215.699E-03     356.806E-03
            1252     7.94692E-03     186.028E-03    -69.1947E+06    -24.1462E+06     33.1622E+06     13.5898E+06    -328.271E-03     549.288E-03    -221.017E-03     389.488E-03    -336.426E-03     557.055E-03    -220.716E-03     361.078E-03
            1253     8.61724E-03     186.464E-03    -57.8657E+06     14.0952E+06     51.0904E+06     10.0909E+06    -355.737E-03     582.834E-03    -227.097E-03     390.890E-03    -365.488E-03     592.325E-03    -226.778E-03     355.193E-03
            1254     9.26992E-03     186.940E-03    -48.8079E+06     49.2325E+06     63.4518E+06     6.29474E+06    -382.766E-03     616.928E-03    -234.163E-03     383.455E-03    -393.811E-03     627.833E-03    -233.846E-03     340.280E-03
            1255     9.90170E-03     187.446E-03    -41.0261E+06     90.0097E+06     76.0319E+06     2.00326E+06    -406.370E-03     648.416E-03    -242.047E-03     368.409E-03    -418.268E-03     660.305E-03    -241.737E-03     318.222E-03
            1256     10.5189E-03     187.966E-03    -33.1202E+06     113.409E+06     91.5927E+06    -2.53788E+06    -423.694E-03     674.168E-03    -250.474E-03     348.405E-03    -436.027E-03     686.548E-03    -250.132E-03     291.966E-03
            1257     11.1212E-03     188.484E-03    -25.1786E+06     107.502E+06     101.539E+06    -5.37188E+06    -433.009E-03     692.025E-03    -259.016E-03     326.081E-03    -445.466E-03     704.498E-03    -258.627E-03     264.354E-03
            1258     11.7179E-03     188.979E-03    -18.0939E+06     95.8107E+06     109.260E+06    -5.27804E+06    -434.453E-03     701.741E-03    -267.288E-03     297.837E-03    -446.615E-03     713.873E-03    -266.854E-03     232.131E-03
            1259     12.3102E-03     189.432E-03    -13.9533E+06     74.3900E+06     106.500E+06    -3.73310E+06    -430.261E-03     705.247E-03    -274.986E-03     273.077E-03    -442.390E-03     717.286E-03    -274.541E-03     203.468E-03
            1260     12.9030E-03     189.862E-03    -9.51100E+06     77.2064E+06     110.534E+06    -4.21526E+06    -417.717E-03     699.597E-03    -281.879E-03     203.400E-03    -426.008E-03     707.805E-03    -281.425E-03     147.146E-03
            1261     759.180E-06     185.407E-03    -151.579E+06    -227.737E+06    -146.805E+06     3.57536E+06    -172.749E-03     343.116E-03    -170.367E-03     55.4077E-03    -173.020E-03     342.393E-03    -170.551E-03     55.1225E-03
            1262     1.51699E-03     185.450E-03    -158.095E+06    -225.902E+06    -146.456E+06     7.44448E+06    -176.223E-03     348.079E-03    -171.856E-03     100.416E-03    -176.571E-03     347.425E-03    -172.031E-03     99.8684E-03
            1263     2.27229E-03     185.526E-03    -162.900E+06    -222.534E+06    -137.522E+06     10.3505E+06    -183.043E-03     356.397E-03    -173.354E-03     147.607E-03    -183.522E-03     355.854E-03    -173.483E-03     146.630E-03
            1264     3.02397E-03     185.636E-03    -162.355E+06    -213.337E+06    -120.912E+06     12.2762E+06    -193.000E-03     368.447E-03    -175.447E-03     193.219E-03    -193.674E-03     368.103E-03    -175.507E-03     191.566E-03
            1265     3.77011E-03     185.783E-03    -155.311E+06    -196.164E+06    -99.6713E+06     13.4349E+06    -206.181E-03     384.336E-03    -178.155E-03     236.173E-03    -207.146E-03     384.323E-03    -178.144E-03     233.503E-03
            1266     4.50894E-03     185.973E-03    -142.621E+06    -178.310E+06    -77.4589E+06     12.6603E+06    -222.588E-03     404.084E-03    -181.496E-03     275.723E-03    -223.992E-03     404.569E-03    -181.418E-03     271.450E-03
            1267     5.24066E-03     186.208E-03    -126.667E+06    -155.350E+06    -55.7833E+06     11.4507E+06    -242.527E-03     428.044E-03    -185.517E-03     310.724E-03    -244.584E-03     429.273E-03    -185.387E-03     304.089E-03
            1268     5.96094E-03     186.492E-03    -109.978E+06    -127.239E+06    -35.1459E+06     9.51427E+06    -266.185E-03     456.511E-03    -190.326E-03     339.493E-03    -269.149E-03     458.760E-03    -190.158E-03     329.540E-03
            1269     6.66843E-03     186.827E-03    -94.1547E+06    -97.8552E+06    -15.7774E+06     6.01661E+06    -293.161E-03     489.198E-03    -196.038E-03     361.492E-03    -297.316E-03     492.754E-03    -195.838E-03     346.989E-03
            1270     7.36103E-03     187.217E-03    -79.7075E+06    -65.4197E+06     3.35902E+06     2.90261E+06    -322.506E-03     525.228E-03    -202.722E-03     375.374E-03    -328.054E-03     530.295E-03    -202.494E-03     355.139E-03
            1271     8.03553E-03     187.658E-03    -67.3647E+06    -23.9055E+06     22.8343E+06     2.11004E+06    -352.969E-03     563.361E-03    -210.392E-03     380.379E-03    -360.026E-03     570.076E-03    -210.146E-03     353.289E-03
            1272     8.69063E-03     188.150E-03    -56.6275E+06     16.3678E+06     42.2056E+06     2.80495E+06    -382.641E-03     601.644E-03    -219.003E-03     377.137E-03    -391.176E-03     609.961E-03    -218.734E-03     342.291E-03
            1273     9.32451E-03     188.681E-03    -46.8504E+06     53.0482E+06     60.2310E+06     3.52453E+06    -408.799E-03     637.169E-03    -228.369E-03     366.821E-03    -418.575E-03     646.833E-03    -228.077E-03     324.045E-03
            1274     9.94305E-03     189.240E-03    -39.3870E+06     102.142E+06     77.9585E+06     4.04467E+06    -428.575E-03     666.737E-03    -238.162E-03     351.227E-03    -439.307E-03     677.498E-03    -237.863E-03     300.991E-03
            1275     10.5453E-03     189.806E-03    -34.2812E+06     129.504E+06     94.0820E+06     1.05335E+06    -440.563E-03     688.606E-03    -248.043E-03     331.820E-03    -451.930E-03     700.062E-03    -247.711E-03     274.888E-03
            1276     11.1411E-03     190.356E-03    -29.6147E+06     122.389E+06     108.089E+06    -5.60246E+06    -445.427E-03     703.103E-03    -257.676E-03     309.684E-03    -457.049E-03     714.756E-03    -257.270E-03     247.303E-03
            1277     11.7290E-03     190.880E-03    -23.1384E+06     89.2389E+06     113.560E+06    -9.30322E+06    -443.200E-03     709.920E-03    -266.719E-03     283.427E-03    -454.550E-03     721.183E-03    -266.247E-03     217.600E-03
            1278     12.3137E-03     191.345E-03    -13.2512E+06     69.0509E+06     115.536E+06    -8.53413E+06    -433.127E-03     707.976E-03    -274.849E-03     262.994E-03    -444.741E-03     719.454E-03    -274.353E-03     193.305E-03
            1279     12.9044E-03     191.763E-03    -4.04390E+06     71.4335E+06     120.943E+06    -6.24398E+06    -417.445E-03     699.324E-03    -281.879E-03     196.950E-03    -425.506E-03     707.271E-03    -281.372E-03     140.709E-03
            1280     781.371E-06     186.701E-03    -208.310E+06    -250.943E+06    -200.947E+06     13.2549E+06    -147.103E-03     290.286E-03    -143.182E-03     54.9854E-03    -147.517E-03     289.607E-03    -143.521E-03     55.0909E-03
            1281     1.55975E-03     186.755E-03    -204.183E+06    -241.290E+06    -185.763E+06     18.2548E+06    -152.680E-03     298.569E-03    -145.889E-03     100.387E-03    -153.121E-03     297.929E-03    -146.172E-03     100.457E-03
            1282     2.33318E-03     186.845E-03    -196.983E+06    -227.567E+06    -165.200E+06     17.5571E+06    -163.334E-03     311.902E-03    -148.568E-03     147.789E-03    -163.825E-03     311.337E-03    -148.778E-03     147.637E-03
            1283     3.09930E-03     186.975E-03    -185.852E+06    -212.911E+06    -141.424E+06     11.9427E+06    -178.285E-03     330.467E-03    -152.182E-03     193.775E-03    -178.868E-03     330.028E-03    -152.311E-03     193.133E-03
            1284     3.85589E-03     187.150E-03    -170.633E+06    -193.590E+06    -117.455E+06     4.55896E+06    -197.266E-03     353.976E-03    -156.710E-03     236.484E-03    -198.030E-03     353.785E-03    -156.769E-03     234.952E-03
            1285     4.60242E-03     187.371E-03    -153.454E+06    -173.669E+06    -95.8099E+06    -3.36272E+06    -220.248E-03     382.394E-03    -162.146E-03     274.360E-03    -221.334E-03     382.610E-03    -162.151E-03     271.370E-03
            1286     5.33511E-03     187.643E-03    -135.994E+06    -154.144E+06    -76.1789E+06    -10.1686E+06    -247.209E-03     415.745E-03    -168.536E-03     305.726E-03    -248.802E-03     416.556E-03    -168.496E-03     300.543E-03
            1287     6.05270E-03     187.971E-03    -118.501E+06    -129.304E+06    -56.0457E+06    -14.0935E+06    -277.511E-03     453.444E-03    -175.933E-03     329.423E-03    -279.842E-03     455.096E-03    -175.854E-03     321.079E-03
            1288     6.75217E-03     188.355E-03    -101.987E+06    -99.2067E+06    -34.9411E+06    -16.9122E+06    -310.121E-03     494.482E-03    -184.361E-03     344.685E-03    -313.413E-03     497.207E-03    -184.244E-03     332.001E-03
            1289     7.43171E-03     188.798E-03    -87.9613E+06    -72.1285E+06    -14.5025E+06    -18.1927E+06    -343.466E-03     537.260E-03    -193.794E-03     350.699E-03    -347.876E-03     541.194E-03    -193.634E-03     332.436E-03
            1290     8.09024E-03     189.296E-03    -76.3470E+06    -36.4809E+06     5.29088E+06    -16.4895E+06    -375.377E-03     579.485E-03    -204.108E-03     348.497E-03    -380.997E-03     584.737E-03    -203.918E-03     323.546E-03
            1291     8.72754E-03     189.845E-03    -64.9550E+06    -807.014E+03     25.2276E+06    -14.3747E+06    -403.339E-03     618.432E-03    -215.093E-03     340.027E-03    -410.137E-03     624.965E-03    -214.872E-03     307.604E-03
            1292     9.34773E-03     190.433E-03    -53.9757E+06     29.6362E+06     47.0349E+06    -10.4436E+06    -424.890E-03     651.328E-03    -226.438E-03     326.979E-03    -432.760E-03     659.008E-03    -226.167E-03     286.801E-03
            1293     9.95018E-03     191.040E-03    -43.6897E+06     84.0184E+06     69.2432E+06    -4.25501E+06    -438.181E-03     675.873E-03    -237.691E-03     311.018E-03    -446.993E-03     684.650E-03    -237.403E-03     263.450E-03
            1294     10.5454E-03     191.645E-03    -32.3694E+06     130.026E+06     92.4676E+06     865.471E+03    -443.933E-03     692.446E-03    -248.513E-03     294.184E-03    -453.488E-03     702.098E-03    -248.192E-03     239.950E-03
            1295     11.1302E-03     192.229E-03    -20.7742E+06     139.992E+06     120.224E+06     3.80305E+06    -443.322E-03     701.974E-03    -258.652E-03     278.573E-03    -453.449E-03     712.187E-03    -258.224E-03     218.668E-03
            1296     11.7140E-03     192.771E-03    -11.6416E+06     114.136E+06     135.875E+06     20.9979E+03    -435.820E-03     703.590E-03    -267.771E-03     260.823E-03    -446.025E-03     713.770E-03    -267.240E-03     197.788E-03
            1297     12.3047E-03     193.243E-03    -7.61620E+06     73.3297E+06     135.294E+06    -7.03008E+06    -422.340E-03     697.968E-03    -275.628E-03     244.589E-03    -432.727E-03     708.196E-03    -275.047E-03     179.380E-03
            1298     12.9029E-03     193.652E-03    -6.24315E+06     55.7969E+06     135.634E+06    -5.10300E+06    -408.519E-03     690.786E-03    -282.267E-03     187.795E-03    -415.823E-03     697.873E-03    -281.661E-03     135.095E-03
            1299     795.685E-06     187.936E-03    -313.791E+06    -268.876E+06    -309.252E+06    -325.978E+03    -130.610E-03     256.936E-03    -126.326E-03     49.1427E-03    -131.345E-03     256.489E-03    -127.027E-03     49.1499E-03
            1300     1.58785E-03     188.002E-03    -289.857E+06    -246.979E+06    -276.920E+06    -4.78048E+06    -137.448E-03     266.964E-03    -129.515E-03     90.3124E-03    -138.145E-03     266.548E-03    -130.121E-03     90.2397E-03
            1301     2.37341E-03     188.111E-03    -259.384E+06    -226.719E+06    -232.410E+06    -10.6698E+06    -150.442E-03     283.439E-03    -132.997E-03     133.655E-03    -151.095E-03     283.036E-03    -133.454E-03     133.404E-03
            1302     3.14967E-03     188.268E-03    -227.656E+06    -204.496E+06    -189.668E+06    -17.8092E+06    -168.328E-03     306.026E-03    -137.698E-03     175.782E-03    -168.969E-03     305.685E-03    -138.020E-03     175.173E-03
            1303     3.91416E-03     188.475E-03    -198.634E+06    -184.308E+06    -153.689E+06    -26.0994E+06    -191.401E-03     335.010E-03    -143.610E-03     214.555E-03    -192.105E-03     334.814E-03    -143.823E-03     213.261E-03
            1304     4.66247E-03     188.735E-03    -172.730E+06    -164.257E+06    -122.212E+06    -33.2723E+06    -219.702E-03     370.514E-03    -150.812E-03     247.825E-03    -220.585E-03     370.578E-03    -150.934E-03     245.404E-03
            1305     5.39252E-03     189.055E-03    -149.852E+06    -148.868E+06    -95.2540E+06    -39.6268E+06    -252.100E-03     411.438E-03    -159.338E-03     273.209E-03    -253.302E-03     411.889E-03    -159.381E-03     268.992E-03
            1306     6.10185E-03     189.432E-03    -129.413E+06    -131.865E+06    -69.8753E+06    -43.3844E+06    -287.189E-03     456.341E-03    -169.152E-03     288.967E-03    -288.880E-03     457.347E-03    -169.123E-03     282.035E-03
            1307     6.78888E-03     189.874E-03    -111.639E+06    -107.287E+06    -47.0754E+06    -43.3575E+06    -322.993E-03     503.144E-03    -180.151E-03     294.256E-03    -325.315E-03     504.867E-03    -180.069E-03     283.614E-03
            1308     7.45213E-03     190.375E-03    -97.1386E+06    -88.2159E+06    -26.4743E+06    -40.3468E+06    -356.765E-03     548.928E-03    -192.163E-03     290.224E-03    -359.802E-03     551.425E-03    -192.027E-03     274.808E-03
            1309     8.09202E-03     190.933E-03    -83.2581E+06    -56.8875E+06    -4.28757E+06    -36.9725E+06    -385.751E-03     590.610E-03    -204.859E-03     279.653E-03    -389.546E-03     593.954E-03    -204.677E-03     258.555E-03
            1310     8.71220E-03     191.536E-03    -70.4380E+06    -26.3610E+06     17.8369E+06    -32.1694E+06    -407.926E-03     625.755E-03    -217.829E-03     265.662E-03    -412.459E-03     629.919E-03    -217.599E-03     238.332E-03
            1311     9.31409E-03     192.173E-03    -59.0229E+06    -1.07452E+06     38.3352E+06    -26.5591E+06    -421.570E-03     652.156E-03    -230.585E-03     251.219E-03    -426.800E-03     657.081E-03    -230.306E-03     217.533E-03
            1312     9.90820E-03     192.820E-03    -46.3116E+06     46.2280E+06     60.7953E+06    -21.9880E+06    -426.699E-03     669.303E-03    -242.604E-03     239.287E-03    -432.644E-03     675.089E-03    -242.300E-03     199.400E-03
            1313     10.4942E-03     193.457E-03    -34.0193E+06     90.1080E+06     85.0882E+06    -14.8045E+06    -424.811E-03     678.312E-03    -253.500E-03     233.068E-03    -431.544E-03     685.014E-03    -253.156E-03     187.372E-03
            1314     11.0848E-03     194.067E-03    -25.3377E+06     114.623E+06     117.508E+06    -6.17249E+06    -417.300E-03     680.337E-03    -263.037E-03     233.365E-03    -425.038E-03     688.067E-03    -262.579E-03     182.141E-03
            1315     11.6817E-03     194.628E-03    -18.4100E+06     122.785E+06     143.402E+06    -213.353E+03    -405.958E-03     676.991E-03    -271.033E-03     233.168E-03    -414.715E-03     685.716E-03    -270.467E-03     177.089E-03
            1316     12.2832E-03     195.106E-03    -12.8342E+06     92.0807E+06     154.682E+06     2.96500E+06    -395.783E-03     673.429E-03    -277.645E-03     228.940E-03    -405.197E-03     682.684E-03    -276.987E-03     169.933E-03
            1317     12.8919E-03     195.508E-03    -5.98309E+06     54.4590E+06     162.876E+06     528.808E+03    -387.822E-03     671.038E-03    -283.216E-03     183.233E-03    -394.519E-03     677.438E-03    -282.472E-03     135.665E-03
            1318     796.738E-06     189.147E-03    -338.332E+06    -238.443E+06    -338.221E+06    -22.5361E+06    -130.082E-03     257.319E-03    -127.238E-03     34.3665E-03    -130.950E-03     257.102E-03    -128.092E-03     33.9907E-03
            1319     1.59029E-03     189.223E-03    -321.923E+06    -218.440E+06    -309.086E+06    -38.2762E+06    -137.086E-03     267.226E-03    -130.140E-03     62.5965E-03    -137.953E-03     267.049E-03    -130.902E-03     61.9202E-03
            1320     2.37688E-03     189.350E-03    -295.269E+06    -201.963E+06    -267.842E+06    -53.1623E+06    -149.034E-03     283.051E-03    -134.017E-03     92.4481E-03    -149.871E-03     282.881E-03    -134.635E-03     91.4069E-03
            1321     3.15275E-03     189.532E-03    -261.807E+06    -184.704E+06    -226.363E+06    -65.5119E+06    -166.017E-03     305.308E-03    -139.291E-03     121.163E-03    -166.814E-03     305.161E-03    -139.775E-03     119.665E-03
            1322     3.91483E-03     189.771E-03    -228.082E+06    -170.762E+06    -190.049E+06    -73.7073E+06    -188.469E-03     334.558E-03    -146.089E-03     147.148E-03    -189.248E-03     334.461E-03    -146.460E-03     145.048E-03
            1323     4.65879E-03     190.075E-03    -198.141E+06    -158.353E+06    -159.217E+06    -79.0846E+06    -215.884E-03     370.401E-03    -154.518E-03     167.513E-03    -216.701E-03     370.409E-03    -154.797E-03     164.521E-03
            1324     5.38103E-03     190.442E-03    -173.131E+06    -148.610E+06    -133.736E+06    -82.2772E+06    -247.245E-03     411.859E-03    -164.613E-03     179.565E-03    -248.170E-03     412.028E-03    -164.816E-03     175.253E-03
            1325     6.07752E-03     190.877E-03    -153.616E+06    -141.072E+06    -111.739E+06    -84.9635E+06    -280.398E-03     456.713E-03    -176.315E-03     181.607E-03    -281.504E-03     457.100E-03    -176.447E-03     175.366E-03
            1326     6.74636E-03     191.376E-03    -138.379E+06    -130.050E+06    -93.9429E+06    -85.6960E+06    -312.051E-03     501.410E-03    -189.358E-03     174.180E-03    -313.387E-03     502.069E-03    -189.439E-03     165.355E-03
            1327     7.38830E-03     191.936E-03    -124.609E+06    -122.311E+06    -77.4200E+06    -85.0074E+06    -339.203E-03     542.526E-03    -203.323E-03     160.253E-03    -340.773E-03     543.448E-03    -203.352E-03     148.206E-03
            1328     8.00747E-03     192.545E-03    -111.084E+06    -102.995E+06    -56.2859E+06    -84.1537E+06    -359.547E-03     577.186E-03    -217.639E-03     144.292E-03    -361.369E-03     578.417E-03    -217.610E-03     128.501E-03
            1329     8.60737E-03     193.195E-03    -98.3653E+06    -89.4701E+06    -35.9882E+06    -78.8630E+06    -371.850E-03     603.487E-03    -231.637E-03     131.493E-03    -373.912E-03     604.996E-03    -231.544E-03     111.947E-03
            1330     9.19849E-03     193.866E-03    -85.6607E+06    -62.0408E+06    -10.3228E+06    -74.3739E+06    -376.197E-03     620.829E-03    -244.632E-03     125.456E-03    -378.562E-03     622.723E-03    -244.470E-03     102.232E-03
            1331     9.78481E-03     194.538E-03    -72.2299E+06    -24.3874E+06     29.9974E+06    -70.4277E+06    -373.892E-03     629.986E-03    -256.094E-03     128.293E-03    -376.705E-03     632.407E-03    -255.804E-03     101.295E-03
            1332     10.3802E-03     195.196E-03    -59.9120E+06     3.97466E+06     72.6275E+06    -56.9129E+06    -366.728E-03     632.351E-03    -265.624E-03     138.965E-03    -370.204E-03     635.461E-03    -265.179E-03     108.012E-03
            1333     10.9865E-03     195.816E-03    -49.4430E+06     39.4754E+06     108.731E+06    -34.9961E+06    -355.586E-03     628.615E-03    -273.029E-03     154.064E-03    -360.059E-03     632.782E-03    -272.471E-03     118.598E-03
            1334     11.6072E-03     196.390E-03    -37.4631E+06     81.6718E+06     139.383E+06    -17.3450E+06    -343.703E-03     622.157E-03    -278.454E-03     169.550E-03    -349.533E-03     627.780E-03    -277.821E-03     128.601E-03
            1335     12.2432E-03     196.889E-03    -18.0339E+06     84.2445E+06     158.569E+06    -9.57532E+06    -337.781E-03     620.167E-03    -282.386E-03     187.354E-03    -345.269E-03     627.466E-03    -281.689E-03     140.016E-03
            1336     12.8751E-03     197.332E-03    -3.91731E+06     50.5349E+06     178.984E+06    -537.518E+03    -335.644E-03     621.091E-03    -285.448E-03     168.179E-03    -341.715E-03     626.831E-03    -284.620E-03     127.512E-03
            1337     779.261E-06     190.384E-03    -259.944E+06    -169.388E+06    -252.133E+06    -27.0153E+06    -157.380E-03     312.509E-03    -155.129E-03     2.05607E-03    -158.170E-03     312.295E-03    -155.767E-03     1.24631E-03
            1338     1.55268E-03     190.468E-03    -248.312E+06    -158.860E+06    -233.325E+06    -46.5310E+06    -160.679E-03     319.467E-03    -158.788E-03     791.125E-06    -161.445E-03     319.252E-03    -159.364E-03    -713.167E-06
            1339     2.31929E-03     190.607E-03    -232.337E+06    -146.197E+06    -207.107E+06    -65.0153E+06    -167.264E-03     330.224E-03    -162.960E-03     1.07620E-03    -167.994E-03     329.995E-03    -163.447E-03    -1.23048E-03
            1340     3.07595E-03     190.806E-03    -214.862E+06    -138.397E+06    -183.540E+06    -81.1041E+06    -176.806E-03     345.553E-03    -168.747E-03     538.878E-06    -177.476E-03     345.280E-03    -169.152E-03    -2.64631E-03
            1341     3.81647E-03     191.070E-03    -198.084E+06    -136.089E+06    -165.625E+06    -92.0355E+06    -189.363E-03     365.705E-03    -176.342E-03    -2.08449E-03    -189.951E-03     365.363E-03    -176.685E-03    -6.21120E-03
            1342     4.53733E-03     191.402E-03    -182.577E+06    -133.502E+06    -150.462E+06    -98.9513E+06    -204.002E-03     389.854E-03    -185.852E-03    -9.25044E-03    -204.500E-03     389.438E-03    -186.146E-03    -14.4485E-03
            1343     5.23389E-03     191.806E-03    -168.820E+06    -130.911E+06    -137.373E+06    -103.352E+06    -219.446E-03     416.685E-03    -197.239E-03    -21.4897E-03    -219.831E-03     416.178E-03    -197.491E-03    -27.9304E-03
            1344     5.90276E-03     192.281E-03    -155.550E+06    -128.767E+06    -124.160E+06    -105.886E+06    -233.726E-03     443.990E-03    -210.263E-03    -37.7037E-03    -233.968E-03     443.374E-03    -210.472E-03    -45.5221E-03
            1345     6.54405E-03     192.823E-03    -142.122E+06    -125.731E+06    -109.698E+06    -106.709E+06    -244.878E-03     469.313E-03    -224.434E-03    -55.3897E-03    -244.970E-03     468.591E-03    -224.595E-03    -64.6993E-03
            1346     7.16090E-03     193.421E-03    -128.466E+06    -121.754E+06    -93.3742E+06    -107.131E+06    -251.689E-03     490.755E-03    -239.066E-03    -70.6789E-03    -251.646E-03     489.955E-03    -239.170E-03    -81.5142E-03
            1347     7.75776E-03     194.065E-03    -115.650E+06    -115.316E+06    -72.7617E+06    -105.495E+06    -253.451E-03     506.778E-03    -253.327E-03    -79.0783E-03    -253.337E-03     505.973E-03    -253.356E-03    -91.3533E-03
            1348     8.34594E-03     194.738E-03    -104.268E+06    -109.358E+06    -50.4905E+06    -103.353E+06    -250.613E-03     516.925E-03    -266.312E-03    -77.0002E-03    -250.521E-03     516.200E-03    -266.255E-03    -90.4105E-03
            1349     8.93397E-03     195.426E-03    -93.2957E+06    -93.3450E+06    -23.1618E+06    -99.6306E+06    -244.355E-03     521.573E-03    -277.218E-03    -62.7921E-03    -244.421E-03     521.085E-03    -277.063E-03    -77.0111E-03
            1350     9.53510E-03     196.116E-03    -82.1413E+06    -66.2065E+06     19.5473E+06    -92.8930E+06    -236.716E-03     522.247E-03    -285.532E-03    -37.4328E-03    -237.111E-03     522.164E-03    -285.219E-03    -52.4737E-03
            1351     10.1521E-03     196.784E-03    -71.0404E+06    -56.8749E+06     59.6140E+06    -78.7194E+06    -230.292E-03     521.237E-03    -290.945E-03    -1.89472E-03    -231.132E-03     521.620E-03    -290.462E-03    -17.8875E-03
            1352     10.7867E-03     197.424E-03    -58.2214E+06    -45.5469E+06     84.9951E+06    -55.4768E+06    -228.347E-03     521.857E-03    -293.510E-03     39.9914E-03    -229.794E-03     522.884E-03    -292.934E-03     22.5085E-03
            1353     11.4446E-03     197.997E-03    -34.3899E+06     21.3786E+06     135.533E+06    -41.3867E+06    -231.214E-03     525.119E-03    -293.906E-03     81.3283E-03    -233.527E-03     527.166E-03    -293.209E-03     61.3550E-03
            1354     12.1148E-03     198.528E-03    -24.3548E+06     45.8861E+06     165.440E+06    -24.3887E+06    -231.243E-03     523.816E-03    -292.573E-03     132.019E-03    -235.034E-03     527.340E-03    -291.777E-03     107.682E-03
            1355     12.8094E-03     198.988E-03    -14.7093E+06     28.0496E+06     172.541E+06    -5.03540E+06    -238.167E-03     528.289E-03    -290.122E-03     169.993E-03    -242.822E-03     532.554E-03    -289.278E-03     144.043E-03
            1356     725.845E-06     191.736E-03    -162.846E+06    -90.3414E+06    -157.026E+06    -21.7812E+06    -232.539E-03     471.453E-03    -238.915E-03    -74.6759E-03    -233.578E-03     470.659E-03    -239.333E-03    -76.5790E-03
            1357     1.45003E-03     191.823E-03    -154.635E+06    -85.9626E+06    -144.169E+06    -38.8719E+06    -228.185E-03     469.273E-03    -241.088E-03    -134.853E-03    -229.026E-03     468.221E-03    -241.460E-03    -138.327E-03
            1358     2.16568E-03     191.966E-03    -146.026E+06    -80.9385E+06    -126.839E+06    -52.9482E+06    -219.896E-03     465.601E-03    -245.705E-03    -197.773E-03    -220.401E-03     464.205E-03    -246.010E-03    -202.606E-03
            1359     2.86844E-03     192.169E-03    -137.653E+06    -79.0451E+06    -110.350E+06    -62.7340E+06    -207.748E-03     459.993E-03    -252.245E-03    -257.218E-03    -207.822E-03     458.147E-03    -252.482E-03    -263.254E-03
            1360     3.55485E-03     192.438E-03    -129.984E+06    -81.4562E+06    -96.4848E+06    -69.7680E+06    -191.379E-03     451.997E-03    -260.618E-03    -310.383E-03    -190.952E-03     449.661E-03    -260.794E-03    -317.371E-03
            1361     4.21956E-03     192.774E-03    -122.105E+06    -83.0496E+06    -83.6017E+06    -74.0327E+06    -171.345E-03     441.994E-03    -270.649E-03    -353.476E-03    -170.394E-03     439.223E-03    -270.769E-03    -361.160E-03
            1362     4.85912E-03     193.180E-03    -112.158E+06    -81.8455E+06    -69.3119E+06    -76.3796E+06    -148.630E-03     430.648E-03    -282.019E-03    -383.138E-03    -147.198E-03     427.555E-03    -282.084E-03    -391.325E-03
            1363     5.47510E-03     193.652E-03    -101.792E+06     -80.196E+06    -53.6976E+06    -75.6276E+06    -124.633E-03     418.867E-03    -294.234E-03    -397.471E-03    -122.839E-03     415.602E-03    -294.238E-03    -405.954E-03
            1364     6.06976E-03     194.186E-03    -90.4054E+06    -76.3648E+06    -35.7943E+06    -73.9944E+06    -101.029E-03     407.664E-03    -306.635E-03    -396.276E-03    -99.0164E-03     404.409E-03    -306.573E-03    -404.883E-03
            1365     6.64901E-03     194.772E-03    -79.0349E+06    -69.2795E+06    -14.4708E+06    -71.2849E+06    -79.3431E-03     397.733E-03    -318.390E-03    -379.562E-03    -77.2945E-03     394.686E-03    -318.247E-03    -388.138E-03
            1366     7.22282E-03     195.401E-03    -68.1959E+06    -63.3321E+06     9.19961E+06    -67.1557E+06    -60.7563E-03     389.326E-03    -328.569E-03    -348.900E-03    -58.8736E-03     386.664E-03    -328.333E-03    -357.254E-03
            1367     7.80261E-03     196.059E-03    -58.6759E+06    -55.5659E+06     34.0323E+06    -61.3120E+06    -45.9330E-03     382.238E-03    -336.305E-03    -307.178E-03    -44.3775E-03     380.092E-03    -335.969E-03    -315.143E-03
            1368     8.39876E-03     196.736E-03    -48.2185E+06    -46.4797E+06     58.6584E+06    -57.4545E+06    -34.7558E-03     375.657E-03    -340.901E-03    -257.239E-03    -33.6155E-03     374.086E-03    -340.471E-03    -264.720E-03
            1369     9.02244E-03     197.412E-03    -43.8852E+06    -36.6282E+06     80.0531E+06    -49.4744E+06    -27.1215E-03     369.026E-03    -341.905E-03    -200.426E-03    -26.4695E-03     368.059E-03    -341.388E-03    -207.226E-03
            1370     9.68144E-03     198.090E-03    -38.8737E+06    -31.4954E+06     98.7388E+06    -46.5456E+06    -22.7446E-03     361.916E-03    -339.171E-03    -138.169E-03    -22.5732E-03     361.482E-03    -338.576E-03    -144.222E-03
            1371     10.3953E-03     198.739E-03    -34.7362E+06    -51.3537E+06     109.244E+06    -39.0324E+06    -25.8121E-03     359.011E-03    -333.199E-03    -74.7746E-03    -26.0116E-03     358.884E-03    -332.528E-03    -80.1356E-03
            1372     11.1356E-03     199.386E-03    -25.9822E+06    -14.1014E+06     145.386E+06    -39.5981E+06    -35.8066E-03     360.697E-03    -324.890E-03    -14.9538E-03    -36.3869E-03     361.048E-03    -324.105E-03    -20.1733E-03
            1373     11.9079E-03     199.950E-03    -20.0755E+06    -6.06769E+06     162.106E+06    -16.9092E+06    -49.3809E-03     364.628E-03    -315.248E-03     16.5481E-03    -50.4037E-03     365.296E-03    -314.399E-03     11.0494E-03
            1374     12.7292E-03     200.418E-03    -7.18033E+06    -746.498E+03     154.436E+06    -1.98794E+06    -37.9256E-03     341.664E-03    -303.738E-03     64.5275E-03    -39.7545E-03     343.398E-03    -302.955E-03     56.3674E-03
            1375     12.7020E-03     100.025E-03    -5.14567E+06     71.9869E+06     77.3397E+06     562.125E+03    -297.086E-03     594.689E-03    -297.604E-03     158.255E-03    -304.835E-03     602.452E-03    -297.314E-03     116.321E-03
            1376     12.0335E-03     99.7283E-03    -9.55115E+06     61.0055E+06     71.6778E+06    -37.4468E+03    -297.312E-03     594.947E-03    -297.635E-03     215.844E-03    -309.385E-03     606.995E-03    -297.352E-03     162.111E-03
            1377     11.3626E-03     99.4196E-03    -13.5419E+06     43.0342E+06     67.0907E+06    -745.056E+03    -298.565E-03     596.276E-03    -297.711E-03     234.850E-03    -312.324E-03     609.946E-03    -297.419E-03     177.885E-03
            1378     10.6960E-03     99.0652E-03    -18.1730E+06     42.6321E+06     68.4664E+06    -1.05873E+06    -300.707E-03     598.470E-03    -297.763E-03     256.290E-03    -316.623E-03     614.274E-03    -297.456E-03     194.869E-03
            1379     10.0257E-03     98.6800E-03    -23.7093E+06     40.7908E+06     66.5415E+06    -865.126E+03    -302.301E-03     600.050E-03    -297.749E-03     268.082E-03    -319.300E-03     616.917E-03    -297.441E-03     204.554E-03
            1380     9.35847E-03     98.2832E-03    -29.9141E+06     33.3498E+06     62.2834E+06    -372.937E+03    -302.947E-03     600.668E-03    -297.721E-03     274.948E-03    -320.292E-03     617.845E-03    -297.415E-03     210.942E-03
            1381     8.69027E-03     97.8799E-03    -36.9565E+06     25.5553E+06     54.8224E+06     407.815E+03    -303.128E-03     600.837E-03    -297.709E-03     274.934E-03    -319.977E-03     617.487E-03    -297.419E-03     211.983E-03
            1382     8.02138E-03     97.4804E-03    -44.0598E+06     14.3267E+06     45.2838E+06     559.117E+03    -303.234E-03     600.954E-03    -297.720E-03     267.875E-03    -318.824E-03     616.308E-03    -297.451E-03     207.357E-03
            1383     7.35285E-03     97.0984E-03    -50.9922E+06     5.01790E+06     34.8083E+06     17.0363E+03    -303.140E-03     600.871E-03    -297.731E-03     254.777E-03    -316.946E-03     614.413E-03    -297.490E-03     197.863E-03
            1384     6.68317E-03     96.7355E-03    -58.9237E+06    -3.81141E+06     24.7531E+06     462.772E+03    -302.637E-03     600.380E-03    -297.743E-03     236.790E-03    -314.386E-03     611.835E-03    -297.529E-03     184.404E-03
            1385     6.01511E-03     96.4038E-03    -67.3538E+06    -11.5321E+06     15.1646E+06     1.90243E+06    -301.779E-03     599.545E-03    -297.765E-03     215.538E-03    -311.418E-03     608.860E-03    -297.575E-03     168.337E-03
            1386     5.34680E-03     96.1047E-03    -76.5005E+06    -23.9862E+06     793.087E+03     2.76558E+06    -301.044E-03     598.827E-03    -297.782E-03     192.977E-03    -308.702E-03     606.126E-03    -297.633E-03     151.212E-03
            1387     4.67787E-03     95.8377E-03    -86.4893E+06    -51.1981E+06    -18.8261E+06     2.42600E+06    -300.524E-03     598.311E-03    -297.787E-03     169.650E-03    -306.395E-03     603.747E-03    -297.682E-03     133.380E-03
            1388     4.00959E-03     95.6060E-03    -96.1818E+06    -87.7803E+06    -41.2295E+06     1.72812E+06    -299.990E-03     597.758E-03    -297.768E-03     145.812E-03    -304.303E-03     601.538E-03    -297.707E-03     115.025E-03
            1389     3.34146E-03     95.4085E-03    -105.124E+06    -128.055E+06    -62.4969E+06     1.25159E+06    -299.374E-03     597.116E-03    -297.742E-03     121.776E-03    -302.388E-03     599.483E-03    -297.716E-03     96.3548E-03
            1390     2.67274E-03     95.2464E-03    -113.261E+06    -158.527E+06    -82.6693E+06     1.22188E+06    -298.752E-03     596.454E-03    -297.702E-03     97.4741E-03    -300.728E-03     597.705E-03    -297.721E-03     77.3122E-03
            1391     2.00481E-03     95.1198E-03    -119.945E+06    -176.218E+06    -101.839E+06     1.02537E+06    -298.237E-03     595.888E-03    -297.651E-03     73.3717E-03    -299.430E-03     596.326E-03    -297.731E-03     58.3149E-03
            1392     1.33663E-03     95.0290E-03    -124.652E+06    -194.908E+06    -116.535E+06     592.859E+03    -297.892E-03     595.523E-03    -297.630E-03     49.7053E-03    -298.529E-03     595.363E-03    -297.749E-03     39.6052E-03
            1393     668.855E-06     94.9730E-03    -129.433E+06    -209.032E+06    -125.447E+06     231.379E+03    -297.787E-03     595.341E-03    -297.554E-03     26.9868E-03    -298.099E-03     594.816E-03    -297.691E-03     21.4650E-03
            1394     12.7029E-03     98.3069E-03    -3.13112E+06     71.5670E+06     78.9414E+06     864.113E+03    -296.318E-03     593.942E-03    -297.624E-03     157.501E-03    -304.050E-03     601.688E-03    -297.329E-03     115.684E-03
            1395     12.0322E-03     98.0132E-03    -7.40422E+06     63.2563E+06     72.2554E+06     1.19051E+06    -297.318E-03     594.985E-03    -297.667E-03     215.854E-03    -309.392E-03     607.049E-03    -297.387E-03     162.102E-03
            1396     11.3637E-03     97.7024E-03    -12.7015E+06     47.9068E+06       66.62E+06    -192.321E+03    -299.613E-03     597.315E-03    -297.703E-03     234.191E-03    -313.358E-03     610.993E-03    -297.421E-03     177.029E-03
            1397     10.6942E-03     97.3410E-03    -17.8964E+06     42.0961E+06     67.2830E+06    -1.65428E+06    -301.303E-03     599.007E-03    -297.704E-03     256.108E-03    -317.212E-03     614.807E-03    -297.403E-03     194.573E-03
            1398     10.0289E-03     96.9629E-03    -23.0203E+06     36.9655E+06     65.5812E+06    -567.742E+03    -301.910E-03     599.599E-03    -297.689E-03     268.535E-03    -318.900E-03     616.449E-03    -297.382E-03     205.143E-03
            1399     9.35901E-03     96.5648E-03    -29.4707E+06     33.7938E+06     61.3296E+06     871.061E+03    -302.333E-03     600.028E-03    -297.695E-03     275.242E-03    -319.668E-03     617.200E-03    -297.394E-03     211.416E-03
            1400     8.68976E-03     96.1613E-03    -37.0213E+06     26.0941E+06     53.2907E+06     754.480E+03    -302.766E-03     600.488E-03    -297.722E-03     274.992E-03    -319.585E-03     617.114E-03    -297.440E-03     212.200E-03
            1401     8.02053E-03     95.7630E-03    -44.8524E+06     15.6556E+06     43.7923E+06     246.686E+03    -303.172E-03     600.926E-03    -297.754E-03     267.771E-03    -318.755E-03     616.278E-03    -297.493E-03     207.269E-03
            1402     7.35150E-03     95.3778E-03    -53.7051E+06     5.52166E+06     32.7371E+06    -170.554E+03    -303.192E-03     600.955E-03    -297.763E-03     254.312E-03    -317.016E-03     614.513E-03    -297.529E-03     197.290E-03
            1403     6.68439E-03     95.0176E-03    -62.3448E+06    -4.60828E+06     21.3712E+06    -749.254E+03    -302.517E-03     600.286E-03    -297.769E-03     236.415E-03    -314.274E-03     611.743E-03    -297.565E-03     183.986E-03
            1404     6.01501E-03     94.6857E-03    -71.4153E+06    -15.0241E+06     10.7368E+06    -690.201E+03    -301.811E-03     599.605E-03    -297.794E-03     215.614E-03    -311.457E-03     608.913E-03    -297.615E-03     168.385E-03
            1405     5.34601E-03     94.3854E-03    -80.6632E+06    -26.4292E+06    -2.52256E+06    -50.8622E+03    -301.284E-03     599.086E-03    -297.802E-03     192.933E-03    -308.947E-03     606.376E-03    -297.659E-03     151.124E-03
            1406     4.67790E-03     94.1190E-03    -89.2917E+06    -50.5583E+06    -20.6886E+06     436.925E+03    -300.642E-03     598.425E-03    -297.783E-03     169.353E-03    -306.511E-03     603.857E-03    -297.683E-03     133.080E-03
            1407     4.00945E-03     93.8864E-03    -98.0456E+06    -86.6931E+06    -42.3900E+06     579.918E+03    -299.990E-03     597.740E-03    -297.749E-03     145.460E-03    -304.304E-03     601.521E-03    -297.694E-03     114.671E-03
            1408     3.34119E-03     93.6895E-03    -106.629E+06    -127.258E+06    -63.7659E+06     599.017E+03    -299.328E-03     597.045E-03    -297.718E-03     121.553E-03    -302.348E-03     599.420E-03    -297.697E-03     96.1137E-03
            1409     2.67350E-03     93.5277E-03    -114.234E+06    -157.893E+06    -83.8642E+06     478.795E+03    -298.648E-03     596.337E-03    -297.689E-03     97.6737E-03    -300.633E-03     597.600E-03    -297.714E-03     77.4807E-03
            1410     2.00484E-03     93.4017E-03    -120.647E+06    -175.138E+06    -102.411E+06     373.329E+03    -298.126E-03     595.805E-03    -297.679E-03     73.7710E-03    -299.329E-03     596.255E-03    -297.762E-03     58.6878E-03
            1411     1.33627E-03     93.3106E-03    -125.874E+06    -194.005E+06    -117.511E+06     578.932E+03    -297.840E-03     595.559E-03    -297.719E-03     49.8764E-03    -298.485E-03     595.409E-03    -297.843E-03     39.7544E-03
            1412     667.209E-06     93.2548E-03    -127.486E+06    -206.842E+06    -127.274E+06     428.628E+03    -298.174E-03     595.594E-03    -297.420E-03     26.9235E-03    -298.477E-03     595.079E-03    -297.572E-03     21.4684E-03
            1413     12.7009E-03     96.5927E-03    -3.79207E+06     68.7878E+06     79.1072E+06    -692.864E+03    -296.584E-03     594.270E-03    -297.685E-03     158.357E-03    -304.376E-03     602.063E-03    -297.384E-03     116.213E-03
            1414     12.0319E-03     96.2946E-03    -7.71204E+06     62.9646E+06     72.2141E+06     396.546E+03    -298.802E-03     596.476E-03    -297.675E-03     215.887E-03    -310.911E-03     608.572E-03    -297.394E-03     161.780E-03
            1415     11.3644E-03     95.9803E-03    -11.5233E+06     51.9284E+06     66.9290E+06     562.768E+03    -299.964E-03     597.614E-03    -297.650E-03     234.346E-03    -313.717E-03     611.317E-03    -297.374E-03     177.130E-03
            1416     10.6979E-03     95.6247E-03    -16.9054E+06     43.8693E+06     67.2009E+06     680.398E+03    -300.728E-03     598.391E-03    -297.663E-03     256.762E-03    -316.651E-03     614.215E-03    -297.366E-03     195.365E-03
            1417     10.0260E-03     95.2419E-03    -24.4820E+06     35.8952E+06     64.3631E+06     353.723E+03    -301.431E-03     599.121E-03    -297.690E-03     269.066E-03    -318.439E-03     615.983E-03    -297.384E-03     205.793E-03
            1418     9.35845E-03     94.8467E-03    -31.6899E+06     31.7621E+06     60.4686E+06     3.97666E+03    -302.197E-03     599.925E-03    -297.727E-03     275.592E-03    -319.543E-03     617.095E-03    -297.425E-03     211.820E-03
            1419     8.68949E-03     94.4439E-03    -38.0618E+06     26.1587E+06     53.6529E+06     1.04851E+06    -303.016E-03     600.772E-03    -297.756E-03     275.187E-03    -319.867E-03     617.425E-03    -297.470E-03     212.295E-03
            1420     8.02092E-03     94.0444E-03    -45.3332E+06     16.8472E+06     43.7248E+06     1.44804E+06    -303.399E-03     601.163E-03    -297.764E-03     267.686E-03    -318.998E-03     616.534E-03    -297.504E-03     207.096E-03
            1421     7.35306E-03     93.6592E-03    -52.9501E+06     8.14709E+06     33.9113E+06     1.26087E+06    -302.974E-03     600.750E-03    -297.776E-03     254.296E-03    -316.784E-03     614.302E-03    -297.542E-03     197.373E-03
            1422     6.68279E-03     93.2992E-03    -61.6847E+06    -2.31735E+06     22.7781E+06     974.885E+03    -302.533E-03     600.331E-03    -297.797E-03     236.454E-03    -314.281E-03     611.785E-03    -297.591E-03     184.092E-03
            1423     6.01450E-03     92.9668E-03    -70.5904E+06    -14.2668E+06     10.9147E+06     29.0033E+03    -302.151E-03     599.951E-03    -297.800E-03     215.330E-03    -311.784E-03     609.252E-03    -297.623E-03     168.072E-03
            1424     5.34661E-03     92.6662E-03    -79.7294E+06    -26.4690E+06    -2.91797E+06    -997.377E+03    -301.437E-03     599.208E-03    -297.771E-03     192.380E-03    -309.079E-03     606.481E-03    -297.631E-03     150.553E-03
            1425     4.67820E-03     92.3997E-03    -89.3662E+06    -51.8869E+06    -21.8978E+06    -1.20936E+06    -300.603E-03     598.335E-03    -297.732E-03     169.028E-03    -306.465E-03     603.759E-03    -297.637E-03     132.732E-03
            1426     4.01006E-03     92.1679E-03    -98.1528E+06    -88.0951E+06    -43.4002E+06    -873.959E+03    -299.789E-03     597.500E-03    -297.710E-03     145.515E-03    -304.104E-03     601.279E-03    -297.657E-03     114.709E-03
            1427     3.34169E-03     91.9708E-03    -106.260E+06    -127.676E+06    -64.0047E+06    -322.158E+03    -299.088E-03     596.807E-03    -297.719E-03     121.704E-03    -302.107E-03     599.182E-03    -297.700E-03     96.2716E-03
            1428     2.67255E-03     91.8096E-03    -114.177E+06    -157.629E+06    -84.2021E+06     13.8863E+03    -298.583E-03     596.313E-03    -297.730E-03     97.7442E-03    -300.569E-03     597.578E-03    -297.757E-03     77.5392E-03
            1429     2.00428E-03     91.6830E-03    -121.242E+06    -175.136E+06    -103.483E+06     138.051E+03    -298.245E-03     595.962E-03    -297.717E-03     73.5558E-03    -299.449E-03     596.413E-03    -297.804E-03     58.4639E-03
            1430     1.33624E-03     91.5920E-03    -126.110E+06    -193.280E+06    -118.255E+06     89.6037E+03    -298.037E-03     595.718E-03    -297.681E-03     49.5048E-03    -298.679E-03     595.569E-03    -297.809E-03     39.4121E-03
            1431     669.060E-06     91.5353E-03    -128.258E+06    -205.734E+06    -126.513E+06     142.450E+03    -297.893E-03     595.403E-03    -297.510E-03     26.8959E-03    -298.201E-03     594.892E-03    -297.658E-03     21.4387E-03
            1432     12.6991E-03     94.8684E-03    -4.85133E+06     69.9735E+06     76.3390E+06    -1.08902E+06    -297.269E-03     594.946E-03    -297.677E-03     157.468E-03    -305.022E-03     602.708E-03    -297.389E-03     115.284E-03
            1433     12.0338E-03     94.5732E-03    -9.36060E+06     59.1199E+06     69.7393E+06    -1.54884E+06    -299.045E-03     596.691E-03    -297.646E-03     215.025E-03    -311.097E-03     608.718E-03    -297.370E-03     160.957E-03
            1434     11.3651E-03     94.2625E-03    -14.1792E+06     48.4921E+06     65.3091E+06     26.3034E+03    -299.532E-03     597.164E-03    -297.632E-03     234.825E-03    -313.300E-03     610.864E-03    -297.355E-03     177.684E-03
            1435     10.6941E-03     93.9040E-03    -19.8903E+06     44.1365E+06     66.1740E+06     1.27329E+06    -300.395E-03     598.062E-03    -297.667E-03     256.873E-03    -316.339E-03     613.900E-03    -297.371E-03     195.531E-03
            1436     10.0282E-03     93.5253E-03    -25.0963E+06     39.7158E+06     64.7775E+06     1.23584E+06    -301.054E-03     598.768E-03    -297.714E-03     268.574E-03    -318.041E-03     615.619E-03    -297.412E-03     205.437E-03
            1437     9.35773E-03     93.1288E-03    -31.2839E+06     32.0436E+06     60.7724E+06     722.936E+03    -302.258E-03     600.024E-03    -297.765E-03     275.548E-03    -319.600E-03     617.192E-03    -297.463E-03     211.764E-03
            1438     8.68902E-03     92.7245E-03    -38.6415E+06     23.7973E+06     53.0505E+06     601.319E+03    -303.351E-03     601.132E-03    -297.781E-03     275.235E-03    -320.219E-03     617.793E-03    -297.494E-03     212.198E-03
            1439     8.02103E-03     92.3243E-03    -45.2381E+06     17.1786E+06     44.3150E+06     756.151E+03    -303.348E-03     601.129E-03    -297.781E-03     267.662E-03    -318.933E-03     616.485E-03    -297.519E-03     207.129E-03
            1440     7.35121E-03     91.9420E-03    -52.3658E+06     7.89044E+06     35.3225E+06     777.685E+03    -303.147E-03     600.941E-03    -297.794E-03     254.226E-03    -316.938E-03     614.472E-03    -297.553E-03     197.336E-03
            1441     6.68353E-03     91.5800E-03    -59.9037E+06    -929.693E+03     24.9259E+06     904.143E+03    -302.946E-03     600.728E-03    -297.782E-03     235.806E-03    -314.669E-03     612.163E-03    -297.569E-03     183.395E-03
            1442     6.01545E-03     91.2471E-03    -68.0016E+06    -11.4424E+06     13.2383E+06     334.695E+03    -302.214E-03     599.958E-03    -297.745E-03     214.677E-03    -311.828E-03     609.252E-03    -297.563E-03     167.392E-03
            1443     5.34693E-03     90.9471E-03    -76.9715E+06    -24.3116E+06    -889.609E+03     36.4738E+03    -301.207E-03     598.920E-03    -297.713E-03     192.363E-03    -308.843E-03     606.199E-03    -297.570E-03     150.571E-03
            1444     4.67856E-03     90.6811E-03    -86.4889E+06    -51.9024E+06    -20.4848E+06     44.2951E+03    -300.328E-03     598.034E-03    -297.706E-03     169.334E-03    -306.182E-03     603.456E-03    -297.607E-03     133.091E-03
            1445     4.00974E-03     90.4494E-03    -96.4146E+06    -88.7435E+06    -42.7937E+06     109.141E+03    -299.626E-03     597.347E-03    -297.721E-03     145.810E-03    -303.938E-03     601.126E-03    -297.666E-03     115.035E-03
            1446     3.34088E-03     90.2527E-03    -105.850E+06    -127.951E+06    -63.9475E+06     143.955E+03    -299.130E-03     596.876E-03    -297.746E-03     121.749E-03    -302.146E-03     599.248E-03    -297.727E-03     96.3267E-03
            1447     2.67308E-03     90.0909E-03    -114.328E+06    -157.874E+06    -84.2423E+06     124.920E+03    -298.749E-03     596.483E-03    -297.734E-03     97.5252E-03    -300.733E-03     597.745E-03    -297.761E-03     77.3145E-03
            1448     2.00492E-03     89.9641E-03    -120.787E+06    -174.572E+06    -103.147E+06     133.899E+03    -298.317E-03     595.997E-03    -297.680E-03     73.4357E-03    -299.517E-03     596.447E-03    -297.768E-03     58.3563E-03
            1449     1.33673E-03     89.8731E-03    -125.391E+06    -192.522E+06    -117.684E+06    -199.120E+03    -297.910E-03     595.564E-03    -297.654E-03     49.8178E-03    -298.552E-03     595.418E-03    -297.781E-03     39.7084E-03
            1450     667.670E-06     89.8170E-03    -129.667E+06    -206.556E+06    -126.752E+06    -374.396E+03    -297.576E-03     595.401E-03    -297.826E-03     27.2759E-03    -297.892E-03     594.892E-03    -297.972E-03     21.7319E-03
            1451     12.7039E-03     93.1513E-03    -4.27170E+06     72.7461E+06     75.4153E+06     196.686E+03    -297.002E-03     594.594E-03    -297.592E-03     157.266E-03    -304.708E-03     602.325E-03    -297.315E-03     115.459E-03
            1452     12.0325E-03     92.8524E-03    -9.35632E+06     58.0846E+06     69.1316E+06     573.118E+03    -297.923E-03     595.533E-03    -297.610E-03     215.086E-03    -309.930E-03     607.513E-03    -297.335E-03     161.371E-03
            1453     11.3639E-03     92.5452E-03    -14.7034E+06     45.0466E+06     65.4997E+06     1.25373E+06    -299.285E-03     596.927E-03    -297.642E-03     234.305E-03    -313.020E-03     610.580E-03    -297.359E-03     177.286E-03
            1454     10.6975E-03     92.1852E-03    -19.6167E+06     46.1085E+06     67.6178E+06     868.904E+03    -300.033E-03     597.726E-03    -297.692E-03     256.763E-03    -315.977E-03     613.567E-03    -297.393E-03     195.501E-03
            1455     10.0259E-03     91.8081E-03    -25.0429E+06     40.5600E+06     65.8376E+06     261.863E+03    -301.232E-03     598.981E-03    -297.749E-03     269.006E-03    -318.239E-03     615.852E-03    -297.442E-03     205.808E-03
            1456     9.35760E-03     91.4103E-03    -30.9312E+06     31.7606E+06     61.2219E+06     616.773E+03    -302.736E-03     600.515E-03    -297.779E-03     275.688E-03    -320.080E-03     617.685E-03    -297.474E-03     211.792E-03
            1457     8.68970E-03     91.0041E-03    -36.8005E+06     23.7624E+06     53.9552E+06     186.367E+03    -303.216E-03     600.999E-03    -297.783E-03     274.664E-03    -320.016E-03     617.596E-03    -297.494E-03     211.777E-03
            1458     8.02020E-03     90.6076E-03    -43.5382E+06     16.4756E+06     45.3582E+06     312.171E+03    -303.424E-03     601.204E-03    -297.780E-03     267.028E-03    -318.985E-03     616.538E-03    -297.514E-03     206.468E-03
            1459     7.35246E-03     90.2221E-03    -50.8906E+06     8.12585E+06     36.3858E+06     641.686E+03    -303.556E-03     601.315E-03    -297.759E-03     253.620E-03    -317.343E-03     614.844E-03    -297.515E-03     196.599E-03
            1460     6.68428E-03     89.8600E-03    -58.5586E+06    -388.498E+03     25.8555E+06    -114.261E+03    -302.935E-03     600.651E-03    -297.716E-03     235.788E-03    -314.656E-03     612.088E-03    -297.501E-03     183.345E-03
            1461     6.01584E-03     89.5288E-03    -67.1061E+06    -10.9394E+06     13.8079E+06     109.084E+03    -301.901E-03     599.594E-03    -297.693E-03     215.135E-03    -311.520E-03     608.895E-03    -297.511E-03     167.914E-03
            1462     5.34717E-03     89.2288E-03    -76.9060E+06    -24.4249E+06    -989.777E+03     933.222E+03    -300.948E-03     598.646E-03    -297.697E-03     192.746E-03    -308.587E-03     605.927E-03    -297.555E-03     151.029E-03
            1463     4.67809E-03     88.9631E-03    -87.3189E+06    -51.5754E+06    -20.7197E+06     1.34275E+06    -300.230E-03     597.948E-03    -297.718E-03     169.404E-03    -306.087E-03     603.372E-03    -297.620E-03     133.202E-03
            1464     4.00952E-03     88.7310E-03    -96.9670E+06    -87.1488E+06    -42.4235E+06     1.09521E+06    -299.683E-03     597.421E-03    -297.737E-03     145.574E-03    -303.998E-03     601.204E-03    -297.682E-03     114.804E-03
            1465     3.34146E-03     88.5341E-03    -105.831E+06    -126.966E+06    -63.4313E+06     432.461E+03    -299.200E-03     596.949E-03    -297.749E-03     121.690E-03    -302.221E-03     599.328E-03    -297.729E-03     96.2339E-03
            1466     2.67288E-03     88.3716E-03    -113.436E+06    -157.575E+06    -83.2303E+06    -10.2320E+03    -298.698E-03     596.439E-03    -297.740E-03     97.7896E-03    -300.683E-03     597.703E-03    -297.763E-03     77.5789E-03
            1467     2.00462E-03     88.2459E-03    -120.072E+06    -174.378E+06    -101.897E+06    -132.205E+03    -298.226E-03     595.947E-03    -297.721E-03     73.8439E-03    -299.428E-03     596.399E-03    -297.804E-03     58.7564E-03
            1468     1.33610E-03     88.1546E-03    -125.145E+06    -192.622E+06    -116.725E+06     252.641E+03    -297.901E-03     595.644E-03    -297.743E-03     49.8582E-03    -298.545E-03     595.498E-03    -297.866E-03     39.7401E-03
            1469     668.288E-06     88.0990E-03    -127.943E+06    -206.344E+06    -126.513E+06     545.868E+03    -297.932E-03     595.623E-03    -297.691E-03     27.1618E-03    -298.240E-03     595.112E-03    -297.839E-03     21.6252E-03
            1470     12.7022E-03     91.4356E-03    -4.80168E+06     70.0527E+06     75.5612E+06     1.67439E+06    -297.185E-03     594.782E-03    -297.596E-03     158.812E-03    -304.959E-03     602.568E-03    -297.313E-03     116.849E-03
            1471     12.0337E-03     91.1371E-03    -9.17404E+06     59.5109E+06     70.8040E+06     2.25306E+06    -297.830E-03     595.448E-03    -297.618E-03     216.554E-03    -309.928E-03     607.520E-03    -297.337E-03     162.715E-03
            1472     11.3654E-03     90.8233E-03    -13.7665E+06     47.2444E+06     66.7128E+06     1.01589E+06    -298.760E-03     596.431E-03    -297.671E-03     235.140E-03    -312.538E-03     610.135E-03    -297.386E-03     178.153E-03
            1473     10.6938E-03     90.4700E-03    -18.1706E+06     47.6009E+06     68.5023E+06     579.355E+03    -300.285E-03     598.020E-03    -297.735E-03     257.336E-03    -316.253E-03     613.894E-03    -297.435E-03     195.985E-03
            1474     10.0262E-03     90.0885E-03    -23.4773E+06     40.1265E+06     66.1955E+06    -6.84022E+03    -301.964E-03     599.726E-03    -297.762E-03     268.734E-03    -318.954E-03     616.583E-03    -297.455E-03     205.363E-03
            1475     9.35858E-03     89.6895E-03    -29.0081E+06     30.1841E+06     62.2069E+06    -681.036E+03    -302.770E-03     600.534E-03    -297.764E-03     274.821E-03    -320.067E-03     617.655E-03    -297.455E-03     210.940E-03
            1476     8.68912E-03     89.2876E-03    -35.0089E+06     24.7374E+06     56.2902E+06     127.780E+03    -303.165E-03     600.928E-03    -297.763E-03     274.471E-03    -319.965E-03     617.528E-03    -297.467E-03     211.581E-03
            1477     8.02118E-03     88.8871E-03    -42.5015E+06     16.0842E+06     46.7179E+06     353.047E+03    -303.716E-03     601.462E-03    -297.746E-03     267.298E-03    -319.291E-03     616.808E-03    -297.474E-03     206.651E-03
            1478     7.35312E-03     88.5024E-03    -49.9224E+06     9.05863E+06     37.4141E+06     341.619E+03    -303.483E-03     601.197E-03    -297.714E-03     254.135E-03    -317.282E-03     614.742E-03    -297.468E-03     197.123E-03
            1479     6.68434E-03     88.1422E-03    -58.2284E+06    -466.838E+03     26.5451E+06     1.07061E+06    -302.622E-03     600.318E-03    -297.696E-03     236.216E-03    -314.346E-03     611.756E-03    -297.478E-03     183.880E-03
            1480     6.01543E-03     87.8097E-03    -68.2064E+06    -12.1875E+06     13.2755E+06     1.70121E+06    -301.743E-03     599.443E-03    -297.699E-03     215.168E-03    -311.360E-03     608.735E-03    -297.516E-03     168.027E-03
            1481     5.34660E-03     87.5111E-03    -78.3306E+06    -24.7046E+06    -1.64917E+06     1.65568E+06    -300.964E-03     598.674E-03    -297.710E-03     192.633E-03    -308.613E-03     605.962E-03    -297.569E-03     150.890E-03
            1482     4.67827E-03     87.2443E-03    -87.5425E+06    -49.2696E+06    -19.7673E+06     1.23699E+06    -300.306E-03     598.030E-03    -297.725E-03     169.335E-03    -306.175E-03     603.471E-03    -297.625E-03     133.093E-03
            1483     4.00992E-03     87.0127E-03    -96.4227E+06    -85.4775E+06    -41.3804E+06     274.246E+03    -299.740E-03     597.473E-03    -297.733E-03     145.731E-03    -304.058E-03     601.265E-03    -297.676E-03     114.937E-03
            1484     3.34117E-03     86.8151E-03    -104.638E+06    -126.464E+06    -62.3826E+06    -324.788E+03    -299.172E-03     596.917E-03    -297.744E-03     121.804E-03    -302.192E-03     599.297E-03    -297.721E-03     96.3367E-03
            1485     2.67285E-03     86.6538E-03    -112.387E+06    -157.398E+06    -82.2514E+06    -93.0265E+03    -298.593E-03     596.346E-03    -297.753E-03     97.5619E-03    -300.570E-03     597.604E-03    -297.773E-03     77.3699E-03
            1486     2.00427E-03     86.5267E-03    -119.315E+06    -174.893E+06    -101.423E+06     251.422E+03    -298.207E-03     595.958E-03    -297.751E-03     73.4846E-03    -299.402E-03     596.403E-03    -297.832E-03     58.4012E-03
            1487     1.33638E-03     86.4359E-03    -123.899E+06    -192.902E+06    -116.514E+06     106.167E+03    -298.046E-03     595.784E-03    -297.738E-03     49.6322E-03    -298.683E-03     595.634E-03    -297.861E-03     39.4991E-03
            1488     668.063E-06     86.3792E-03    -127.025E+06    -205.999E+06    -124.601E+06    -329.097E+03    -298.040E-03     595.547E-03    -297.507E-03     27.3628E-03    -298.347E-03     595.034E-03    -297.647E-03     21.8426E-03
            1489     12.7006E-03     89.7126E-03    -3.38440E+06     66.3997E+06     78.4888E+06     2.13681E+06    -297.150E-03     594.833E-03    -297.683E-03     158.211E-03    -304.908E-03     602.586E-03    -297.382E-03     116.189E-03
            1490     12.0333E-03     89.4179E-03     -7.5659E+06     62.3967E+06     73.4672E+06     1.97877E+06    -298.036E-03     595.728E-03    -297.691E-03     216.808E-03    -310.158E-03     607.831E-03    -297.404E-03     162.911E-03
            1491     11.3623E-03     89.1085E-03    -11.4208E+06     53.0155E+06     69.2144E+06     707.354E+03    -299.261E-03     596.983E-03    -297.722E-03     235.517E-03    -313.064E-03     610.734E-03    -297.437E-03     178.381E-03
            1492     10.6950E-03     88.7497E-03    -16.1859E+06     44.4892E+06     68.6769E+06    -375.512E+03    -301.244E-03     598.984E-03    -297.739E-03     256.188E-03    -317.166E-03     614.807E-03    -297.437E-03     194.602E-03
            1493     10.0274E-03     88.3672E-03    -20.9265E+06     40.1596E+06     67.1949E+06     455.262E+03    -301.846E-03     599.572E-03    -297.726E-03     267.797E-03    -318.803E-03     616.403E-03    -297.418E-03     204.438E-03
            1494     9.35819E-03     87.9726E-03    -27.3040E+06     33.2079E+06     63.1723E+06     1.12396E+06    -302.453E-03     600.187E-03    -297.734E-03     275.035E-03    -319.762E-03     617.334E-03    -297.427E-03     211.230E-03
            1495     8.69006E-03     87.5682E-03    -35.5221E+06     23.4098E+06     54.7295E+06     644.873E+03    -303.491E-03     601.221E-03    -297.730E-03     274.921E-03    -320.325E-03     617.853E-03    -297.439E-03     211.894E-03
            1496     8.02146E-03     87.1679E-03    -42.9350E+06     16.4818E+06     45.6406E+06     916.058E+03    -303.633E-03     601.338E-03    -297.705E-03     267.343E-03    -319.187E-03     616.665E-03    -297.438E-03     206.795E-03
            1497     7.35237E-03     86.7838E-03    -51.2741E+06     8.30511E+06     35.7136E+06     704.671E+03    -303.115E-03     600.806E-03    -297.691E-03     253.853E-03    -316.887E-03     614.323E-03    -297.450E-03     196.969E-03
            1498     6.68400E-03     86.4228E-03    -60.2525E+06    -1.83702E+06     24.9520E+06     1.25667E+06    -302.422E-03     600.120E-03    -297.698E-03     235.854E-03    -314.146E-03     611.551E-03    -297.483E-03     183.537E-03
            1499     6.01555E-03     86.0922E-03    -68.7294E+06    -11.6505E+06     13.8881E+06     1.74634E+06    -301.695E-03     599.411E-03    -297.716E-03     215.127E-03    -311.323E-03     608.713E-03    -297.530E-03     167.967E-03
            1500     5.34709E-03     85.7921E-03    -77.0516E+06    -22.3857E+06     546.444E+03     817.961E+03    -301.054E-03     598.782E-03    -297.728E-03     192.820E-03    -308.711E-03     606.084E-03    -297.581E-03     151.038E-03
            1501     4.67831E-03     85.5263E-03    -85.8594E+06    -47.8447E+06    -18.3364E+06    -170.813E+03    -300.418E-03     598.146E-03    -297.729E-03     169.487E-03    -306.286E-03     603.593E-03    -297.626E-03     133.212E-03
            1502     4.00947E-03     85.2939E-03    -94.5754E+06    -85.1190E+06    -40.3874E+06    -87.3075E+03    -299.769E-03     597.496E-03    -297.727E-03     145.675E-03    -304.078E-03     601.284E-03    -297.668E-03     114.880E-03
            1503     3.34135E-03     85.0966E-03    -103.403E+06    -126.099E+06    -61.6206E+06     319.645E+03    -299.163E-03     596.898E-03    -297.735E-03     121.588E-03    -302.171E-03     599.269E-03    -297.710E-03     96.1725E-03
            1504     2.67302E-03     84.9349E-03    -112.012E+06    -157.616E+06    -82.2333E+06     449.989E+03    -298.668E-03     596.397E-03    -297.729E-03     97.5599E-03    -300.641E-03     597.651E-03    -297.749E-03     77.3913E-03
            1505     2.00493E-03     84.8086E-03    -118.708E+06    -174.720E+06    -101.374E+06     300.158E+03    -298.272E-03     595.970E-03    -297.698E-03     73.6233E-03    -299.464E-03     596.414E-03    -297.779E-03     58.5683E-03
            1506     1.33634E-03     84.7166E-03    -123.669E+06    -192.199E+06    -115.738E+06     69.4331E+03    -297.978E-03     595.649E-03    -297.671E-03     49.7108E-03    -298.613E-03     595.499E-03    -297.792E-03     39.6082E-03
            1507     668.361E-06     84.6610E-03    -126.035E+06    -205.566E+06    -125.083E+06     106.843E+03    -297.782E-03     595.409E-03    -297.627E-03     27.1802E-03    -298.084E-03     594.898E-03    -297.772E-03     21.6215E-03
            1508     12.7013E-03     87.9939E-03    -3.27032E+06     64.1563E+06     78.2547E+06    -60.4689E+03    -296.276E-03     594.005E-03    -297.729E-03     158.299E-03    -304.029E-03     601.747E-03    -297.426E-03     116.332E-03
            1509     12.0304E-03     87.6999E-03    -6.72139E+06     63.1498E+06     73.6225E+06     380.846E+03    -298.532E-03     596.274E-03    -297.741E-03     215.620E-03    -310.604E-03     608.332E-03    -297.455E-03     161.661E-03
            1510     11.3637E-03     87.3887E-03    -11.3087E+06     54.8742E+06     68.8943E+06     300.293E+03    -300.512E-03     598.222E-03    -297.710E-03     234.334E-03    -314.292E-03     611.957E-03    -297.429E-03     176.935E-03
            1511     10.6963E-03     87.0261E-03    -16.7007E+06     45.7835E+06     69.0156E+06    -219.043E+03    -300.858E-03     598.558E-03    -297.700E-03     256.097E-03    -316.780E-03     614.383E-03    -297.397E-03     194.619E-03
            1512     10.0275E-03     86.6518E-03    -23.3973E+06     38.9299E+06     66.6568E+06     95.9833E+03    -301.430E-03     599.148E-03    -297.718E-03     268.804E-03    -318.437E-03     616.017E-03    -297.408E-03     205.532E-03
            1513     9.35819E-03     86.2538E-03    -30.6342E+06     32.2753E+06     61.4053E+06     1.02592E+06    -302.989E-03     600.711E-03    -297.723E-03     275.523E-03    -320.340E-03     617.890E-03    -297.418E-03     211.565E-03
            1514     8.68974E-03     85.8475E-03    -37.2048E+06     24.1942E+06     53.3479E+06     1.03907E+06    -303.595E-03     601.285E-03    -297.690E-03     274.402E-03    -320.401E-03     617.890E-03    -297.404E-03     211.428E-03
            1515     8.02163E-03     85.4499E-03    -44.3162E+06     15.9327E+06     43.6892E+06     334.999E+03    -303.376E-03     601.036E-03    -297.661E-03     266.930E-03    -318.929E-03     616.362E-03    -297.401E-03     206.386E-03
            1516     7.35350E-03     85.0653E-03    -51.7570E+06     7.87427E+06     34.4406E+06     1.17617E+06    -302.848E-03     600.512E-03    -297.664E-03     253.766E-03    -316.627E-03     614.035E-03    -297.428E-03     196.907E-03
            1517     6.68445E-03     84.7056E-03    -59.4407E+06    -674.168E+03     24.4074E+06     1.09182E+06    -302.262E-03     599.952E-03    -297.689E-03     235.994E-03    -313.982E-03     611.387E-03    -297.480E-03     183.723E-03
            1518     6.01532E-03     84.3735E-03    -67.2173E+06    -10.3244E+06     14.1710E+06    -426.317E+03    -301.753E-03     599.471E-03    -297.718E-03     215.259E-03    -311.374E-03     608.777E-03    -297.535E-03     168.070E-03
            1519     5.34637E-03     84.0736E-03    -75.7696E+06    -21.9327E+06     661.412E+03    -726.787E+03    -301.107E-03     598.833E-03    -297.726E-03     192.644E-03    -308.749E-03     606.126E-03    -297.581E-03     150.863E-03
            1520     4.67804E-03     83.8070E-03    -85.3115E+06    -48.8484E+06    -19.2866E+06    -281.051E+03    -300.435E-03     598.153E-03    -297.718E-03     169.272E-03    -306.290E-03     603.588E-03    -297.620E-03     132.999E-03
            1521     4.01016E-03     83.5754E-03    -95.1829E+06    -85.7632E+06    -41.3117E+06     368.913E+03    -299.763E-03     597.476E-03    -297.713E-03     145.649E-03    -304.074E-03     601.265E-03    -297.658E-03     114.851E-03
            1522     3.34139E-03     83.3782E-03    -104.270E+06    -125.752E+06    -62.0155E+06     956.666E+03    -299.148E-03     596.872E-03    -297.723E-03     121.698E-03    -302.159E-03     599.246E-03    -297.700E-03     96.3185E-03
            1523     2.67287E-03     83.2165E-03    -112.105E+06    -156.882E+06    -81.9775E+06     655.275E+03    -298.709E-03     596.424E-03    -297.715E-03     97.6968E-03    -300.685E-03     597.683E-03    -297.735E-03     77.5226E-03
            1524     2.00445E-03     83.0894E-03    -118.848E+06    -173.633E+06    -100.898E+06     225.299E+03    -298.297E-03     595.965E-03    -297.668E-03     73.6503E-03    -299.494E-03     596.416E-03    -297.749E-03     58.5676E-03
            1525     1.33658E-03     82.9985E-03    -123.953E+06    -191.676E+06    -115.847E+06     156.391E+03    -297.909E-03     595.548E-03    -297.639E-03     49.7865E-03    -298.548E-03     595.403E-03    -297.761E-03     39.6668E-03
            1526     668.095E-06     82.9418E-03    -126.757E+06    -204.310E+06    -124.014E+06     320.198E+03    -297.838E-03     595.362E-03    -297.524E-03     27.0909E-03    -298.148E-03     594.856E-03    -297.664E-03     21.5616E-03
            1527     12.6993E-03     86.2770E-03    -4.66993E+06     65.0875E+06     74.7153E+06    -686.535E+03    -296.912E-03     594.588E-03    -297.676E-03     156.597E-03    -304.613E-03     602.287E-03    -297.390E-03     114.595E-03
            1528     12.0321E-03     85.9804E-03    -9.78240E+06     62.0548E+06     69.0686E+06    -1.12652E+06    -298.746E-03     596.400E-03    -297.654E-03     214.139E-03    -310.751E-03     608.391E-03    -297.385E-03     160.188E-03
            1529     11.3651E-03     85.6627E-03    -14.6733E+06     53.6142E+06     65.4182E+06    -1.12513E+06    -299.441E-03     597.087E-03    -297.646E-03     234.012E-03    -313.190E-03     610.785E-03    -297.376E-03     176.873E-03
            1530     10.6958E-03     85.3133E-03    -19.8053E+06     47.0787E+06     66.2000E+06    -85.3931E+03    -300.216E-03     597.902E-03    -297.686E-03     256.349E-03    -316.155E-03     613.746E-03    -297.395E-03     195.005E-03
            1531     10.0252E-03     84.9308E-03    -26.1490E+06     37.5041E+06     63.2737E+06    -17.9792E+03    -301.963E-03     599.669E-03    -297.706E-03     268.262E-03    -318.943E-03     616.506E-03    -297.406E-03     204.906E-03
            1532     9.35880E-03     84.5320E-03    -32.0909E+06     30.2305E+06     59.9471E+06    -832.466E+03    -303.049E-03     600.738E-03    -297.689E-03     274.729E-03    -320.370E-03     617.878E-03    -297.387E-03     210.749E-03
            1533     8.69111E-03     84.1304E-03    -37.6679E+06     24.8821E+06     54.0762E+06    -596.822E+03    -303.232E-03     600.900E-03    -297.668E-03     274.615E-03    -320.054E-03     617.519E-03    -297.379E-03     211.693E-03
            1534     8.02215E-03     83.7305E-03    -43.9809E+06     15.7056E+06     45.3183E+06    -662.195E+03    -303.144E-03     600.816E-03    -297.672E-03     267.714E-03    -318.727E-03     616.168E-03    -297.405E-03     207.201E-03
            1535     7.35281E-03     83.3482E-03    -50.5084E+06     5.81124E+06     35.9969E+06    -624.953E+03    -302.910E-03     600.606E-03    -297.697E-03     254.558E-03    -316.711E-03     614.144E-03    -297.452E-03     197.674E-03
            1536     6.68377E-03     82.9870E-03    -57.0973E+06    -570.105E+03     26.8881E+06    -301.041E+03    -302.527E-03     600.245E-03    -297.717E-03     236.387E-03    -314.247E-03     611.681E-03    -297.499E-03     184.075E-03
            1537     6.01545E-03     82.6551E-03    -65.5069E+06    -9.27390E+06     15.0177E+06     174.984E+03    -301.929E-03     599.649E-03    -297.720E-03     215.333E-03    -311.549E-03     608.961E-03    -297.537E-03     168.110E-03
            1538     5.34736E-03     82.3550E-03    -75.9267E+06    -22.5475E+06    -839.766E+03     786.500E+03    -301.180E-03     598.887E-03    -297.707E-03     192.701E-03    -308.822E-03     606.182E-03    -297.569E-03     150.924E-03
            1539     4.67865E-03     82.0890E-03    -86.5843E+06    -48.9957E+06    -19.9491E+06     1.13828E+06    -300.410E-03     598.111E-03    -297.701E-03     169.324E-03    -306.268E-03     603.546E-03    -297.604E-03     133.093E-03
            1540     4.00945E-03     81.8565E-03    -96.3295E+06    -85.2306E+06    -41.8485E+06     827.644E+03    -299.715E-03     597.414E-03    -297.699E-03     145.508E-03    -304.027E-03     601.203E-03    -297.645E-03     114.748E-03
            1541     3.34124E-03     81.6600E-03    -104.942E+06    -125.540E+06    -62.6829E+06     244.756E+03    -299.193E-03     596.895E-03    -297.702E-03     121.595E-03    -302.208E-03     599.274E-03    -297.681E-03     96.1653E-03
            1542     2.67310E-03     81.4974E-03    -112.682E+06    -155.966E+06    -82.1200E+06     172.111E+03    -298.696E-03     596.379E-03    -297.682E-03     97.5692E-03    -300.678E-03     597.644E-03    -297.704E-03     77.3802E-03
            1543     2.00504E-03     81.3711E-03    -119.353E+06    -172.962E+06    -101.035E+06     153.085E+03    -298.205E-03     595.846E-03    -297.642E-03     73.5980E-03    -299.405E-03     596.302E-03    -297.723E-03     58.5018E-03
            1544     1.33639E-03     81.2797E-03    -124.369E+06    -191.370E+06    -116.766E+06    -64.0410E+03    -297.916E-03     595.525E-03    -297.609E-03     49.7869E-03    -298.561E-03     595.387E-03    -297.735E-03     39.6114E-03
            1545     668.259E-06     81.2240E-03    -126.916E+06    -204.829E+06    -125.985E+06    -644.993E+03    -298.045E-03     595.284E-03    -297.239E-03     26.9667E-03    -298.350E-03     594.777E-03    -297.388E-03     21.4833E-03
            1546     12.7040E-03     84.5597E-03    -4.25066E+06     65.9923E+06      75.712E+06     387.421E+03    -297.896E-03     595.511E-03    -297.615E-03     157.694E-03    -305.651E-03     603.266E-03    -297.326E-03     115.575E-03
            1547     12.0358E-03     84.2589E-03    -8.04925E+06     63.8993E+06     70.6223E+06     473.191E+03    -298.198E-03     595.788E-03    -297.589E-03     216.171E-03    -310.286E-03     607.868E-03    -297.317E-03     162.270E-03
            1548     11.3644E-03     83.9513E-03    -12.3811E+06     53.1883E+06     66.6387E+06     1.14111E+06    -298.780E-03     596.404E-03    -297.624E-03     234.416E-03    -312.511E-03     610.086E-03    -297.350E-03     177.497E-03
            1549     10.6941E-03     83.5914E-03    -18.6579E+06     45.5229E+06     65.8792E+06     1.19447E+06    -300.776E-03     598.437E-03    -297.660E-03     255.793E-03    -316.674E-03     614.239E-03    -297.370E-03     194.380E-03
            1550     10.0296E-03     83.2112E-03    -23.5897E+06     40.1422E+06     64.2405E+06     327.285E+03    -302.032E-03     599.684E-03    -297.652E-03     267.977E-03    -319.004E-03     616.528E-03    -297.355E-03     204.570E-03
            1551     9.35949E-03     82.8156E-03    -28.6857E+06     32.3616E+06     60.6570E+06    -449.931E+03    -302.367E-03     600.021E-03    -297.654E-03     275.085E-03    -319.679E-03     617.171E-03    -297.356E-03     211.264E-03
            1552     8.68963E-03     82.4097E-03    -35.3948E+06     24.1228E+06     53.3240E+06    -908.067E+03    -302.760E-03     600.441E-03    -297.680E-03     275.059E-03    -319.576E-03     617.062E-03    -297.397E-03     212.224E-03
            1553     8.02077E-03     82.0137E-03    -42.2503E+06     15.9741E+06     45.1016E+06    -617.532E+03    -303.061E-03     600.775E-03    -297.715E-03     267.661E-03    -318.638E-03     616.129E-03    -297.451E-03     207.146E-03
            1554     7.35206E-03     81.6284E-03    -50.1816E+06     6.33001E+06     35.3167E+06    -1.12412E+06    -303.059E-03     600.796E-03    -297.736E-03     254.192E-03    -316.838E-03     614.317E-03    -297.496E-03     197.302E-03
            1555     6.68413E-03     81.2686E-03    -59.6227E+06    -2.99885E+06     24.6577E+06    -1.82783E+06    -302.709E-03     600.451E-03    -297.742E-03     236.447E-03    -314.448E-03     611.896E-03    -297.528E-03     184.022E-03
            1556     6.01544E-03     80.9360E-03    -69.1737E+06    -12.6837E+06     13.2222E+06    -264.156E+03    -302.077E-03     599.811E-03    -297.734E-03     215.528E-03    -311.723E-03     609.128E-03    -297.549E-03     168.252E-03
            1557     5.34642E-03     80.6363E-03    -78.2185E+06    -23.4656E+06    -640.560E+03     1.23383E+06    -301.234E-03     598.948E-03    -297.714E-03     192.687E-03    -308.884E-03     606.239E-03    -297.570E-03     150.922E-03
            1558     4.67806E-03     80.3698E-03    -87.3567E+06    -47.7034E+06    -19.0583E+06     1.06570E+06    -300.424E-03     598.124E-03    -297.700E-03     169.267E-03    -306.291E-03     603.567E-03    -297.599E-03     133.031E-03
            1559     4.01031E-03     80.1387E-03    -96.2507E+06    -83.6013E+06    -41.0348E+06     600.174E+03    -299.780E-03     597.468E-03    -297.687E-03     145.556E-03    -304.094E-03     601.262E-03    -297.632E-03     114.798E-03
            1560     3.34168E-03     79.9411E-03    -105.177E+06    -124.778E+06    -62.7660E+06     71.8551E+03    -299.200E-03     596.879E-03    -297.679E-03     121.785E-03    -302.224E-03     599.268E-03    -297.659E-03     96.3292E-03
            1561     2.67326E-03     79.7791E-03    -113.331E+06    -155.704E+06    -83.1556E+06    -120.343E+03    -298.631E-03     596.292E-03    -297.661E-03     97.7609E-03    -300.615E-03     597.562E-03    -297.687E-03     77.5788E-03
            1562     2.00454E-03     79.6528E-03    -119.916E+06    -172.972E+06    -101.978E+06    -285.365E+03    -298.180E-03     595.813E-03    -297.633E-03     73.7506E-03    -299.382E-03     596.271E-03    -297.718E-03     58.6662E-03
            1563     1.33655E-03     79.5612E-03    -125.063E+06    -191.301E+06    -116.590E+06    -181.904E+03    -297.902E-03     595.519E-03    -297.617E-03     49.8961E-03    -298.548E-03     595.380E-03    -297.741E-03     39.7696E-03
            1564     668.456E-06     79.5051E-03    -129.214E+06    -205.579E+06    -126.278E+06     418.205E+03    -297.563E-03     595.307E-03    -297.744E-03     27.4869E-03    -297.880E-03     594.803E-03    -297.890E-03     21.9261E-03
            1565     12.7006E-03     82.8352E-03    -3.34858E+06     65.2644E+06     77.7090E+06    -27.2335E+03    -297.059E-03     594.694E-03    -297.635E-03     158.419E-03    -304.820E-03     602.450E-03    -297.336E-03     116.437E-03
            1566     12.0314E-03     82.5427E-03    -8.18487E+06     62.2605E+06     71.9983E+06     473.955E+03    -298.259E-03     595.892E-03    -297.632E-03     216.502E-03    -310.388E-03     608.004E-03    -297.351E-03     162.473E-03
            1567     11.3642E-03     82.2310E-03    -13.7405E+06     52.3678E+06     66.4290E+06     923.189E+03    -299.873E-03     597.500E-03    -297.626E-03     234.867E-03    -313.671E-03     611.242E-03    -297.350E-03     177.587E-03
            1568     10.6986E-03     81.8729E-03    -17.1302E+06     46.4049E+06     68.1501E+06     716.224E+03    -300.960E-03     598.596E-03    -297.636E-03     256.945E-03    -316.896E-03     614.438E-03    -297.337E-03     195.500E-03
            1569     10.0263E-03     81.4919E-03    -21.6079E+06     42.1564E+06     67.1176E+06     350.280E+03    -301.430E-03     599.083E-03    -297.652E-03     268.893E-03    -318.421E-03     615.951E-03    -297.347E-03     205.650E-03
            1570     9.35875E-03     81.0959E-03    -28.2273E+06     34.1006E+06     62.4266E+06    -83.7406E+03    -302.201E-03     599.888E-03    -297.687E-03     275.549E-03    -319.537E-03     617.065E-03    -297.384E-03     211.754E-03
            1571     8.69028E-03     80.6948E-03    -35.3864E+06     24.3429E+06     54.0834E+06    -92.6421E+03    -302.909E-03     600.624E-03    -297.715E-03     274.988E-03    -319.737E-03     617.256E-03    -297.429E-03     212.099E-03
            1572     8.02120E-03     80.2936E-03    -43.6978E+06     16.0145E+06     43.4331E+06     63.1747E+03    -303.189E-03     600.916E-03    -297.727E-03     267.301E-03    -318.756E-03     616.259E-03    -297.470E-03     206.780E-03
            1573     7.35289E-03     79.9113E-03    -52.4074E+06     8.27844E+06     32.9329E+06     243.230E+03    -303.129E-03     600.860E-03    -297.732E-03     254.119E-03    -316.928E-03     614.407E-03    -297.503E-03     197.172E-03
            1574     6.68332E-03     79.5491E-03    -61.4516E+06    -2.06498E+06     22.4665E+06     380.660E+03    -302.747E-03     600.476E-03    -297.729E-03     236.132E-03    -314.491E-03     611.930E-03    -297.525E-03     183.699E-03
            1575     6.01508E-03     79.2170E-03    -70.7666E+06    -13.8215E+06     11.1212E+06    -745.598E+03    -301.978E-03     599.698E-03    -297.720E-03     214.938E-03    -311.606E-03     608.993E-03    -297.541E-03     167.682E-03
            1576     5.34733E-03     78.9174E-03    -79.4887E+06    -25.1742E+06    -1.95804E+06    -1.80871E+06    -301.118E-03     598.828E-03    -297.710E-03     192.539E-03    -308.769E-03     606.113E-03    -297.568E-03     150.734E-03
            1577     4.67872E-03     78.6518E-03    -88.0863E+06    -48.6336E+06    -19.5312E+06    -1.11026E+06    -300.391E-03     598.097E-03    -297.706E-03     169.367E-03    -306.262E-03     603.539E-03    -297.605E-03     133.102E-03
            1578     4.00948E-03     78.4195E-03    -97.1996E+06    -84.2557E+06    -41.7367E+06    -509.972E+03    -299.765E-03     597.464E-03    -297.698E-03     145.821E-03    -304.090E-03     601.265E-03    -297.644E-03     115.011E-03
            1579     3.34136E-03     78.2227E-03    -105.541E+06    -124.812E+06    -62.9604E+06    -269.882E+03    -299.158E-03     596.860E-03    -297.702E-03     121.897E-03    -302.183E-03     599.250E-03    -297.683E-03     96.4574E-03
            1580     2.67288E-03     78.0610E-03    -113.294E+06    -155.359E+06    -83.4758E+06    -266.845E+03    -298.682E-03     596.370E-03    -297.688E-03     97.8958E-03    -300.667E-03     597.644E-03    -297.716E-03     77.6996E-03
            1581     2.00495E-03     77.9340E-03    -120.315E+06    -173.435E+06    -102.656E+06    -285.601E+03    -298.281E-03     595.924E-03    -297.644E-03     73.6694E-03    -299.483E-03     596.382E-03    -297.731E-03     58.5806E-03
            1582     1.33642E-03     77.8431E-03    -125.324E+06    -192.107E+06    -117.115E+06     13.3067E+03    -297.831E-03     595.466E-03    -297.635E-03     49.7511E-03    -298.474E-03     595.322E-03    -297.760E-03     39.6290E-03
            1583     667.799E-06     77.7866E-03    -128.387E+06    -204.521E+06    -125.906E+06     210.093E+03    -297.492E-03     595.383E-03    -297.891E-03     26.9023E-03    -297.806E-03     594.882E-03    -298.038E-03     21.3639E-03
            1584     12.7025E-03     81.1233E-03    -4.49386E+06     64.1459E+06     76.5241E+06     283.320E+03    -296.825E-03     594.480E-03    -297.655E-03     157.595E-03    -304.565E-03     602.210E-03    -297.359E-03     115.633E-03
            1585     12.0334E-03     80.8210E-03    -9.06007E+06     61.4692E+06     71.1550E+06    -168.163E+03    -298.626E-03     596.274E-03    -297.647E-03     215.892E-03    -310.719E-03     608.346E-03    -297.367E-03     161.855E-03
            1586     11.3653E-03     80.5113E-03    -11.9685E+06     53.5267E+06     68.7103E+06    -1.12352E+06    -299.900E-03     597.537E-03    -297.637E-03     234.715E-03    -313.694E-03     611.280E-03    -297.354E-03     177.385E-03
            1587     10.6940E-03     80.1522E-03    -16.6426E+06     45.2162E+06     69.0685E+06    -422.478E+03    -300.529E-03     598.185E-03    -297.656E-03     256.802E-03    -316.469E-03     614.026E-03    -297.352E-03     195.398E-03
            1588     10.0286E-03     79.7750E-03    -23.0814E+06     41.9311E+06     66.6979E+06     388.668E+03    -301.165E-03     598.854E-03    -297.689E-03     268.529E-03    -318.145E-03     615.707E-03    -297.383E-03     205.362E-03
            1589     9.35807E-03     79.3784E-03    -29.8680E+06     34.9473E+06     62.5159E+06     707.236E+03    -302.291E-03     600.021E-03    -297.730E-03     275.322E-03    -319.633E-03     617.199E-03    -297.424E-03     211.515E-03
            1590     8.68925E-03     78.9737E-03    -37.7580E+06     24.1856E+06     54.1907E+06     828.083E+03    -303.129E-03     600.878E-03    -297.749E-03     275.044E-03    -319.973E-03     617.517E-03    -297.459E-03     212.133E-03
            1591     8.02121E-03     78.5763E-03    -45.4278E+06     17.5356E+06     44.6038E+06     483.197E+03    -303.452E-03     601.200E-03    -297.748E-03     267.748E-03    -319.047E-03     616.566E-03    -297.485E-03     207.195E-03
            1592     7.35178E-03     78.1918E-03    -52.1724E+06     6.90537E+06     34.2562E+06    -189.714E+03    -303.426E-03     601.160E-03    -297.734E-03     254.236E-03    -317.237E-03     614.711E-03    -297.497E-03     197.210E-03
            1593     6.68468E-03     77.8299E-03    -58.6051E+06    -2.06131E+06     25.5379E+06     749.069E+03    -302.739E-03     600.460E-03    -297.721E-03     236.057E-03    -314.462E-03     611.894E-03    -297.506E-03     183.683E-03
            1594     6.01612E-03     77.4992E-03    -66.1214E+06    -9.07654E+06     15.4222E+06     1.03761E+06    -301.813E-03     599.535E-03    -297.722E-03     215.383E-03    -311.440E-03     608.851E-03    -297.536E-03     168.188E-03
            1595     5.34647E-03     77.1988E-03    -76.3071E+06    -22.8410E+06    -791.672E+03    -38.4706E+03    -301.083E-03     598.806E-03    -297.723E-03     192.910E-03    -308.732E-03     606.105E-03    -297.583E-03     151.141E-03
            1596     4.67787E-03     76.9330E-03    -87.0583E+06    -50.5310E+06    -20.6741E+06    -1.01750E+06    -300.423E-03     598.148E-03    -297.725E-03     169.491E-03    -306.285E-03     603.581E-03    -297.629E-03     133.216E-03
            1597     4.01010E-03     76.7012E-03    -96.3982E+06    -85.8317E+06    -42.2867E+06    -853.042E+03    -299.762E-03     597.486E-03    -297.724E-03     145.726E-03    -304.080E-03     601.279E-03    -297.671E-03     114.914E-03
            1598     3.34127E-03     76.5042E-03    -105.347E+06    -125.450E+06    -63.5118E+06    -237.230E+03    -299.229E-03     596.952E-03    -297.723E-03     121.701E-03    -302.245E-03     599.333E-03    -297.706E-03     96.2797E-03
            1599     2.67302E-03     76.3423E-03    -113.668E+06    -155.879E+06    -83.6676E+06    -52.4382E+03    -298.808E-03     596.497E-03    -297.689E-03     97.6859E-03    -300.793E-03     597.768E-03    -297.717E-03     77.4775E-03
            1600     2.00457E-03     76.2149E-03    -120.605E+06    -173.308E+06    -102.717E+06     334.134E+03    -298.324E-03     595.935E-03    -297.612E-03     73.3325E-03    -299.523E-03     596.389E-03    -297.699E-03     58.2818E-03
            1601     1.33661E-03     76.1251E-03    -125.823E+06    -191.848E+06    -118.150E+06     160.279E+03    -297.965E-03     595.483E-03    -297.519E-03     49.3602E-03    -298.606E-03     595.340E-03    -297.649E-03     39.2566E-03
            1602     668.507E-06     76.0681E-03    -126.778E+06    -204.179E+06    -127.192E+06    -203.531E+03    -297.490E-03     595.031E-03    -297.541E-03     27.0382E-03    -297.793E-03     594.532E-03    -297.697E-03     21.5089E-03
            1603     12.7003E-03     79.4009E-03    -3.68310E+06     64.8708E+06     77.0498E+06    -381.612E+03    -297.307E-03     594.956E-03    -297.650E-03     157.570E-03    -305.055E-03     602.699E-03    -297.353E-03     115.530E-03
            1604     12.0328E-03     79.1027E-03    -6.72222E+06     63.7497E+06     73.1069E+06    -1.06129E+06    -298.573E-03     596.207E-03    -297.635E-03     216.329E-03    -310.666E-03     608.291E-03    -297.352E-03     162.331E-03
            1605     11.3637E-03     78.7906E-03    -12.3149E+06     51.4416E+06     67.8185E+06    -489.832E+03    -299.299E-03     596.941E-03    -297.642E-03     234.509E-03    -313.064E-03     610.648E-03    -297.359E-03     177.364E-03
            1606     10.6980E-03     78.4359E-03    -18.8436E+06     44.1840E+06     67.6015E+06     28.8107E+03    -300.252E-03     597.937E-03    -297.685E-03     256.606E-03    -316.200E-03     613.779E-03    -297.384E-03     195.231E-03
            1607     10.0256E-03     78.0559E-03    -24.9327E+06     41.4191E+06     65.8372E+06     197.550E+03    -301.392E-03     599.113E-03    -297.721E-03     268.759E-03    -318.399E-03     615.988E-03    -297.416E-03     205.510E-03
            1608     9.35838E-03     77.6595E-03    -31.7265E+06     33.6641E+06     60.8662E+06     1.04652E+06    -302.425E-03     600.174E-03    -297.749E-03     275.269E-03    -319.760E-03     617.340E-03    -297.448E-03     211.476E-03
            1609     8.68977E-03     77.2561E-03    -37.9469E+06     26.1818E+06     53.0318E+06     639.157E+03    -303.185E-03     600.943E-03    -297.758E-03     274.835E-03    -320.015E-03     617.578E-03    -297.476E-03     211.925E-03
            1610     8.02014E-03     76.8572E-03    -43.8211E+06     18.2634E+06     44.3017E+06    -464.128E+03    -303.647E-03     601.392E-03    -297.745E-03     267.300E-03    -319.236E-03     616.762E-03    -297.487E-03     206.617E-03
            1611     7.35333E-03     76.4712E-03    -51.1884E+06     7.31395E+06     34.0095E+06    -501.042E+03    -303.219E-03     600.947E-03    -297.729E-03     254.055E-03    -317.014E-03     614.488E-03    -297.495E-03     197.074E-03
            1612     6.68370E-03     76.1125E-03    -59.8031E+06    -2.89495E+06     23.0163E+06    -1.37429E+06    -302.516E-03     600.250E-03    -297.734E-03     236.565E-03    -314.258E-03     611.702E-03    -297.528E-03     184.183E-03
            1613     6.01443E-03     75.7795E-03    -68.8835E+06    -11.5788E+06     12.9657E+06    -1.12747E+06    -301.916E-03     599.668E-03    -297.752E-03     215.489E-03    -311.549E-03     608.978E-03    -297.570E-03     168.274E-03
            1614     5.34689E-03     75.4805E-03    -77.6055E+06    -22.5788E+06    -742.973E+03     442.475E+03    -301.146E-03     598.898E-03    -297.752E-03     192.648E-03    -308.785E-03     606.184E-03    -297.611E-03     150.913E-03
            1615     4.67840E-03     75.2142E-03    -86.8758E+06    -49.0118E+06    -20.7298E+06     576.001E+03    -300.425E-03     598.172E-03    -297.747E-03     169.405E-03    -306.287E-03     603.612E-03    -297.654E-03     133.156E-03
            1616     4.00934E-03     74.9823E-03    -97.0085E+06    -85.9682E+06    -43.1329E+06     320.676E+03    -299.859E-03     597.599E-03    -297.741E-03     145.663E-03    -304.172E-03     601.388E-03    -297.691E-03     114.890E-03
            1617     3.34127E-03     74.7857E-03    -106.416E+06    -125.371E+06    -64.2028E+06     363.384E+03    -299.374E-03     597.094E-03    -297.720E-03     121.763E-03    -302.397E-03     599.481E-03    -297.705E-03     96.3223E-03
            1618     2.67320E-03     74.6228E-03    -114.730E+06    -155.982E+06    -84.3338E+06     431.252E+03    -298.795E-03     596.466E-03    -297.671E-03     97.6718E-03    -300.784E-03     597.738E-03    -297.700E-03     77.4854E-03
            1619     2.00517E-03     74.4973E-03    -121.433E+06    -172.844E+06    -103.305E+06     347.861E+03    -298.268E-03     595.868E-03    -297.600E-03     73.5880E-03    -299.474E-03     596.329E-03    -297.690E-03     58.5189E-03
            1620     1.33673E-03     74.4056E-03    -126.205E+06    -190.677E+06    -118.319E+06     127.372E+03    -297.974E-03     595.490E-03    -297.516E-03     49.8237E-03    -298.624E-03     595.358E-03    -297.649E-03     39.6908E-03
            1621     668.784E-06     74.3508E-03    -130.480E+06    -204.848E+06    -127.116E+06    -80.7555E+03    -296.993E-03     595.024E-03    -298.031E-03     27.2477E-03    -297.315E-03     594.529E-03    -298.180E-03     21.6509E-03
            1622     12.7030E-03     77.6822E-03    -3.97974E+06     67.1365E+06     77.2186E+06    -1.17494E+06    -297.242E-03     594.883E-03    -297.641E-03     157.898E-03    -304.961E-03     602.603E-03    -297.347E-03     115.978E-03
            1623     12.0336E-03     77.3842E-03    -9.78232E+06     61.2447E+06     70.7061E+06    -725.551E+03    -298.282E-03     595.917E-03    -297.635E-03     216.334E-03    -310.377E-03     607.990E-03    -297.356E-03     162.382E-03
            1624     11.3654E-03     77.0726E-03    -14.8884E+06     50.6271E+06     66.1856E+06     96.2902E+03    -299.038E-03     596.699E-03    -297.661E-03     234.917E-03    -312.833E-03     610.429E-03    -297.382E-03     177.796E-03
            1625     10.6930E-03     76.7166E-03    -19.1476E+06     44.9403E+06     67.2056E+06    -214.335E+03    -300.348E-03     598.059E-03    -297.711E-03     256.490E-03    -316.293E-03     613.901E-03    -297.413E-03     195.095E-03
            1626     10.0276E-03     76.3370E-03    -24.6161E+06     39.0661E+06     65.0276E+06     470.806E+03    -301.409E-03     599.154E-03    -297.745E-03     268.420E-03    -318.393E-03     616.001E-03    -297.441E-03     205.173E-03
            1627     9.35799E-03     75.9408E-03    -29.9468E+06     34.4642E+06     61.7363E+06     269.314E+03    -302.634E-03     600.401E-03    -297.767E-03     275.361E-03    -319.975E-03     617.579E-03    -297.465E-03     211.483E-03
            1628     8.68879E-03     75.5377E-03    -35.6116E+06     26.8160E+06     54.7542E+06    -251.203E+03    -303.580E-03     601.336E-03    -297.756E-03     274.879E-03    -320.432E-03     617.998E-03    -297.470E-03     211.786E-03
            1629     8.02226E-03     75.1358E-03    -43.2846E+06     18.3767E+06     45.0338E+06     642.782E+03    -303.359E-03     601.097E-03    -297.738E-03     267.391E-03    -318.939E-03     616.459E-03    -297.477E-03     206.817E-03
            1630     7.35198E-03     74.7554E-03    -52.2220E+06     9.78131E+06     34.7427E+06     780.037E+03    -302.961E-03     600.710E-03    -297.748E-03     254.352E-03    -316.777E-03     614.274E-03    -297.513E-03     197.429E-03
            1631     6.68331E-03     74.3927E-03    -61.4716E+06    -327.696E+03     22.2393E+06     125.490E+03    -302.660E-03     600.411E-03    -297.751E-03     236.127E-03    -314.398E-03     611.865E-03    -297.550E-03     183.748E-03
            1632     6.01587E-03     74.0614E-03    -70.9396E+06    -12.4279E+06     8.91988E+06    -1.07929E+06    -301.919E-03     599.665E-03    -297.746E-03     214.948E-03    -311.530E-03     608.954E-03    -297.580E-03     167.761E-03
            1633     5.34638E-03     73.7615E-03    -80.9106E+06    -25.9815E+06    -4.81966E+06    -1.67318E+06    -301.130E-03     598.878E-03    -297.749E-03     192.637E-03    -308.776E-03     606.159E-03    -297.618E-03     150.864E-03
            1634     4.67775E-03     73.4954E-03    -90.4494E+06    -50.3389E+06    -22.6449E+06    -548.198E+03    -300.440E-03     598.190E-03    -297.750E-03     169.263E-03    -306.312E-03     603.627E-03    -297.659E-03     133.001E-03
            1635     4.00976E-03     73.2638E-03    -99.2430E+06    -85.4139E+06    -44.1791E+06     121.650E+03    -299.851E-03     597.590E-03    -297.739E-03     145.588E-03    -304.175E-03     601.387E-03    -297.692E-03     114.793E-03
            1636     3.34144E-03     73.0660E-03    -107.673E+06    -125.664E+06    -65.1292E+06     46.2092E+03    -299.287E-03     597.014E-03    -297.727E-03     121.776E-03    -302.315E-03     599.402E-03    -297.714E-03     96.3388E-03
            1637     2.67301E-03     72.9049E-03    -115.271E+06    -155.412E+06    -84.9826E+06     173.820E+03    -298.662E-03     596.370E-03    -297.708E-03     97.7870E-03    -300.654E-03     597.648E-03    -297.740E-03     77.5955E-03
            1638     2.00436E-03     72.7781E-03    -121.919E+06    -172.466E+06    -103.862E+06    -92.4404E+03    -298.162E-03     595.857E-03    -297.695E-03     73.8726E-03    -299.375E-03     596.326E-03    -297.788E-03     58.7579E-03
            1639     1.33629E-03     72.6877E-03    -127.056E+06    -190.705E+06    -118.546E+06     160.514E+03    -297.840E-03     595.578E-03    -297.737E-03     49.9457E-03    -298.496E-03     595.449E-03    -297.869E-03     39.7870E-03
            1640     667.530E-06     72.6321E-03    -130.441E+06    -204.260E+06    -128.515E+06     460.322E+03    -298.014E-03     595.630E-03    -297.616E-03     26.4364E-03    -298.333E-03     595.136E-03    -297.773E-03     20.9529E-03
            1641     12.7002E-03     75.9621E-03    -4.94437E+06     66.9915E+06     76.0763E+06     258.545E+03    -297.079E-03     594.736E-03    -297.657E-03     158.864E-03    -304.832E-03     602.490E-03    -297.367E-03     116.886E-03
            1642     12.0326E-03     75.6642E-03    -9.12221E+06      60.077E+06     70.5777E+06     887.786E+03    -298.273E-03     595.936E-03    -297.662E-03     216.212E-03    -310.366E-03     608.004E-03    -297.383E-03     162.277E-03
            1643     11.3625E-03     75.3559E-03    -13.0664E+06     52.1409E+06     67.2681E+06    -63.9957E+03    -299.243E-03     596.924E-03    -297.681E-03     234.487E-03    -313.030E-03     610.654E-03    -297.402E-03     177.294E-03
            1644     10.6974E-03     74.9966E-03    -18.2245E+06     44.6849E+06     67.5548E+06    -189.980E+03    -300.327E-03     598.052E-03    -297.725E-03     256.200E-03    -316.242E-03     613.865E-03    -297.426E-03     194.858E-03
            1645     10.0261E-03     74.6198E-03    -23.2033E+06     38.6917E+06     65.8438E+06    -373.102E+03    -301.599E-03     599.354E-03    -297.755E-03     268.444E-03    -318.585E-03     616.204E-03    -297.448E-03     205.138E-03
            1646     9.35715E-03     74.2220E-03    -29.3025E+06     34.5262E+06     61.9120E+06    -454.545E+03    -302.917E-03     600.672E-03    -297.755E-03     275.077E-03    -320.251E-03     617.846E-03    -297.453E-03     211.098E-03
            1647     8.69079E-03     73.8152E-03    -37.5472E+06     25.0620E+06     53.2832E+06     226.007E+03    -303.087E-03     600.834E-03    -297.747E-03     274.533E-03    -319.904E-03     617.452E-03    -297.463E-03     211.618E-03
            1648     8.02008E-03     73.4209E-03    -45.6078E+06     17.4851E+06     43.7944E+06     756.831E+03    -303.144E-03     600.903E-03    -297.760E-03     267.650E-03    -318.737E-03     616.269E-03    -297.500E-03     207.137E-03
            1649     7.35193E-03     73.0345E-03    -52.7119E+06     10.4144E+06     35.2238E+06     845.524E+03    -303.341E-03     601.108E-03    -297.767E-03     254.182E-03    -317.155E-03     614.670E-03    -297.530E-03     197.201E-03
            1650     6.68445E-03     72.6740E-03    -60.0956E+06     698.433E+03     25.3270E+06     1.15352E+06    -302.722E-03     600.480E-03    -297.758E-03     235.907E-03    -314.444E-03     611.918E-03    -297.545E-03     183.564E-03
            1651     6.01461E-03     72.3429E-03    -68.7824E+06    -9.77650E+06     12.7089E+06     1.62179E+06    -301.901E-03     599.652E-03    -297.750E-03     215.134E-03    -311.525E-03     608.959E-03    -297.573E-03     167.953E-03
            1652     5.34674E-03     72.0428E-03    -78.5995E+06    -23.4679E+06    -2.86685E+06     1.08593E+06    -301.171E-03     598.912E-03    -297.741E-03     192.447E-03    -308.814E-03     606.201E-03    -297.607E-03     150.687E-03
            1653     4.67845E-03     71.7769E-03    -88.7739E+06    -50.6850E+06    -22.2551E+06    -308.268E+03    -300.435E-03     598.168E-03    -297.733E-03     169.169E-03    -306.296E-03     603.599E-03    -297.642E-03     132.902E-03
            1654     4.00968E-03     71.5448E-03    -98.3268E+06    -86.5326E+06    -43.8892E+06    -591.185E+03    -299.787E-03     597.515E-03    -297.728E-03     145.682E-03    -304.108E-03     601.307E-03    -297.680E-03     114.870E-03
            1655     3.34111E-03     71.3478E-03    -107.071E+06    -125.775E+06    -64.9470E+06    -63.2479E+03    -299.180E-03     596.911E-03    -297.731E-03     121.613E-03    -302.199E-03     599.292E-03    -297.718E-03     96.2006E-03
            1656     2.67275E-03     71.1861E-03    -115.019E+06    -155.514E+06    -84.9835E+06    -244.600E+03    -298.669E-03     596.389E-03    -297.720E-03     97.3655E-03    -300.655E-03     597.661E-03    -297.752E-03     77.1664E-03
            1657     2.00467E-03     71.0600E-03    -121.797E+06    -172.562E+06    -103.727E+06    -16.2390E+03    -298.199E-03     595.893E-03    -297.694E-03     73.1072E-03    -299.402E-03     596.352E-03    -297.785E-03     58.0501E-03
            1658     1.33600E-03     70.9688E-03    -127.043E+06    -191.063E+06    -118.946E+06     7.98048E+03    -297.871E-03     595.571E-03    -297.700E-03     49.1251E-03    -298.517E-03     595.433E-03    -297.834E-03     39.0233E-03
            1659     668.335E-06     70.9128E-03    -128.959E+06    -203.114E+06    -127.432E+06    -59.0177E+03    -298.539E-03     595.519E-03    -296.980E-03     26.7698E-03    -298.853E-03     595.024E-03    -297.136E-03     21.3032E-03
            1660     12.7021E-03     74.2427E-03    -3.84506E+06     65.5101E+06     76.6938E+06     548.819E+03    -297.048E-03     594.719E-03    -297.671E-03     157.900E-03    -304.771E-03     602.438E-03    -297.377E-03     115.960E-03
            1661     12.0321E-03     73.9472E-03    -7.72278E+06     61.1215E+06     71.8480E+06     261.525E+03    -298.323E-03     595.992E-03    -297.669E-03     215.237E-03    -310.368E-03     608.019E-03    -297.388E-03     161.341E-03
            1662     11.3657E-03     73.6343E-03    -12.5141E+06     52.2072E+06     67.0530E+06     286.812E+03    -299.223E-03     596.902E-03    -297.679E-03     234.103E-03    -312.986E-03     610.612E-03    -297.401E-03     176.941E-03
            1663     10.6935E-03     73.2803E-03    -17.1726E+06     46.2535E+06     68.1179E+06     564.140E+03    -300.416E-03     598.136E-03    -297.720E-03     256.120E-03    -316.318E-03     613.944E-03    -297.422E-03     194.797E-03
            1664     10.0262E-03     72.8994E-03    -23.8726E+06     40.1216E+06     65.6760E+06    -94.8433E+03    -301.880E-03     599.616E-03    -297.736E-03     268.233E-03    -318.846E-03     616.449E-03    -297.431E-03     204.925E-03
            1665     9.36010E-03     72.5007E-03    -31.3663E+06     31.4734E+06     61.0032E+06     39.1599E+03    -302.466E-03     600.215E-03    -297.748E-03     275.219E-03    -319.790E-03     617.361E-03    -297.444E-03     211.398E-03
            1666     8.68868E-03     72.1009E-03    -37.7008E+06     25.5109E+06     54.0422E+06     1.15344E+06    -302.930E-03     600.699E-03    -297.769E-03     274.993E-03    -319.758E-03     617.327E-03    -297.481E-03     212.157E-03
            1667     8.02069E-03     71.7004E-03    -44.5234E+06     18.0411E+06     44.2879E+06     835.332E+03    -303.669E-03     601.434E-03    -297.764E-03     267.305E-03    -319.250E-03     616.792E-03    -297.505E-03     206.681E-03
            1668     7.35289E-03     71.3150E-03    -51.9430E+06     10.1811E+06     34.7263E+06     540.000E+03    -303.273E-03     601.016E-03    -297.743E-03     253.596E-03    -317.052E-03     614.546E-03    -297.509E-03     196.648E-03
            1669     6.68308E-03     70.9561E-03    -60.5821E+06     103.444E+03     24.2448E+06     432.596E+03    -302.524E-03     600.262E-03    -297.739E-03     235.742E-03    -314.250E-03     611.703E-03    -297.530E-03     183.371E-03
            1670     6.01564E-03     70.6234E-03    -69.5821E+06    -10.3731E+06     13.2437E+06     833.635E+03    -301.911E-03     599.653E-03    -297.742E-03     214.929E-03    -311.539E-03     608.959E-03    -297.560E-03     167.710E-03
            1671     5.34685E-03     70.3241E-03    -78.0070E+06    -21.0220E+06    -596.830E+03     1.13070E+06    -301.154E-03     598.886E-03    -297.732E-03     192.515E-03    -308.797E-03     606.179E-03    -297.592E-03     150.775E-03
            1672     4.67799E-03     70.0582E-03    -87.3331E+06    -48.1080E+06    -20.5214E+06     1.19155E+06    -300.527E-03     598.241E-03    -297.714E-03     169.186E-03    -306.384E-03     603.677E-03    -297.621E-03     132.954E-03
            1673     4.00974E-03     69.8262E-03    -97.3660E+06    -86.0706E+06    -43.2271E+06     757.653E+03    -299.882E-03     597.568E-03    -297.687E-03     145.197E-03    -304.186E-03     601.347E-03    -297.637E-03     114.435E-03
            1674     3.34148E-03     69.6293E-03    -106.497E+06    -125.562E+06    -64.3086E+06     46.6594E+03    -299.266E-03     596.922E-03    -297.655E-03     121.055E-03    -302.277E-03     599.295E-03    -297.640E-03     95.6368E-03
            1675     2.67323E-03     69.4673E-03    -114.534E+06    -155.565E+06    -84.4523E+06     109.186E+03    -298.718E-03     596.316E-03    -297.598E-03     96.8014E-03    -300.693E-03     597.577E-03    -297.628E-03     76.6481E-03
            1676     2.00492E-03     69.3412E-03    -121.399E+06    -172.843E+06    -103.652E+06     51.8630E+03    -298.211E-03     595.721E-03    -297.510E-03     72.7683E-03    -299.405E-03     596.172E-03    -297.602E-03     57.7570E-03
            1677     1.33714E-03     69.2506E-03    -126.009E+06    -190.607E+06    -118.080E+06    -214.376E+03    -297.801E-03     595.238E-03    -297.437E-03     49.1982E-03    -298.444E-03     595.099E-03    -297.568E-03     39.1040E-03
            1678     668.317E-06     69.1945E-03    -129.306E+06    -203.891E+06    -127.172E+06    -614.689E+03    -297.804E-03     594.896E-03    -297.092E-03     27.0204E-03    -298.122E-03     594.400E-03    -297.245E-03     21.4669E-03
            1679     12.7006E-03     72.5255E-03    -4.30787E+06     67.1065E+06     76.6567E+06     101.044E+03    -297.110E-03     594.766E-03    -297.656E-03     158.130E-03    -304.850E-03     602.507E-03    -297.364E-03     116.159E-03
            1680     12.0336E-03     72.2259E-03    -8.65459E+06     60.8015E+06     70.7360E+06    -217.281E+03    -298.173E-03     595.831E-03    -297.658E-03     215.883E-03    -310.242E-03     607.880E-03    -297.380E-03     161.982E-03
            1681     11.3626E-03     71.9178E-03    -12.8463E+06     50.4945E+06     67.0487E+06     518.306E+03    -299.307E-03     596.985E-03    -297.678E-03     233.994E-03    -313.048E-03     610.665E-03    -297.397E-03     176.903E-03
            1682     10.6966E-03     71.5613E-03    -19.0371E+06     46.1932E+06     67.0319E+06     840.213E+03    -300.740E-03     598.440E-03    -297.700E-03     256.010E-03    -316.638E-03     614.241E-03    -297.405E-03     194.654E-03
            1683     10.0284E-03     71.1793E-03    -24.6687E+06     40.6667E+06     65.1031E+06     1.49603E+06    -301.389E-03     599.115E-03    -297.726E-03     268.707E-03    -318.351E-03     615.945E-03    -297.423E-03     205.581E-03
            1684     9.35629E-03     70.7848E-03    -30.3052E+06     33.7598E+06     61.4321E+06     1.04519E+06    -302.304E-03     600.069E-03    -297.765E-03     275.298E-03    -319.631E-03     617.230E-03    -297.463E-03     211.517E-03
            1685     8.68907E-03     70.3806E-03    -37.8043E+06     25.4390E+06     53.6436E+06    -327.925E+03    -303.587E-03     601.349E-03    -297.762E-03     274.463E-03    -320.422E-03     617.985E-03    -297.476E-03     211.386E-03
            1686     8.02155E-03     69.9792E-03    -45.0362E+06     17.9420E+06     44.5439E+06    -23.8342E+03    -303.560E-03     601.291E-03    -297.731E-03     266.819E-03    -319.109E-03     616.615E-03    -297.469E-03     206.262E-03
            1687     7.35232E-03     69.5985E-03    -52.6755E+06     9.28231E+06     34.9875E+06     179.786E+03    -303.022E-03     600.746E-03    -297.724E-03     253.809E-03    -316.808E-03     614.277E-03    -297.486E-03     196.903E-03
            1688     6.68464E-03     69.2364E-03    -60.5504E+06     497.507E+03     24.3347E+06     621.068E+03    -302.671E-03     600.393E-03    -297.721E-03     236.028E-03    -314.408E-03     611.846E-03    -297.513E-03     183.640E-03
            1689     6.01532E-03     68.9054E-03    -69.1063E+06    -9.61304E+06     12.3386E+06     430.684E+03    -301.995E-03     599.702E-03    -297.707E-03     214.825E-03    -311.607E-03     608.999E-03    -297.531E-03     167.633E-03
            1690     5.34653E-03     68.6058E-03    -78.9769E+06    -22.3038E+06    -1.94544E+06     142.835E+03    -301.293E-03     598.971E-03    -297.678E-03     192.065E-03    -308.928E-03     606.252E-03    -297.541E-03     150.285E-03
            1691     4.67855E-03     68.3387E-03    -88.8120E+06    -48.2471E+06    -20.9217E+06     637.417E+03    -300.638E-03     598.265E-03    -297.627E-03     168.348E-03    -306.485E-03     603.686E-03    -297.533E-03     132.107E-03
            1692     4.01036E-03     68.1077E-03    -97.5631E+06    -84.4079E+06    -42.6163E+06     657.304E+03    -299.916E-03     597.475E-03    -297.559E-03     144.509E-03    -304.209E-03     601.246E-03    -297.508E-03     113.775E-03
            1693     3.34208E-03     67.9105E-03    -105.920E+06    -124.666E+06    -63.5301E+06     359.815E+03    -299.175E-03     596.676E-03    -297.501E-03     120.798E-03    -302.179E-03     599.045E-03    -297.484E-03     95.4106E-03
            1694     2.67390E-03     67.7492E-03    -113.987E+06    -155.072E+06    -83.6930E+06     395.131E+03    -298.478E-03     595.926E-03    -297.448E-03     96.9332E-03    -300.451E-03     597.187E-03    -297.477E-03     76.8294E-03
            1695     2.00553E-03     67.6234E-03    -120.635E+06    -172.291E+06    -102.726E+06     174.213E+03    -297.964E-03     595.364E-03    -297.400E-03     73.2741E-03    -299.162E-03     595.820E-03    -297.489E-03     58.2412E-03
            1696     1.33663E-03     67.5328E-03    -125.749E+06    -190.835E+06    -117.711E+06    -68.8506E+03    -297.685E-03     595.051E-03    -297.366E-03     49.6235E-03    -298.332E-03     594.915E-03    -297.495E-03     39.5266E-03
            1697     668.572E-06     67.4775E-03    -129.963E+06    -204.331E+06    -126.862E+06     384.837E+03    -297.840E-03     594.782E-03    -296.942E-03     26.9475E-03    -298.159E-03     594.283E-03    -297.091E-03     21.4332E-03
            1698     12.7024E-03     70.8051E-03    -3.81872E+06     67.4807E+06     76.2721E+06     303.231E+03    -296.896E-03     594.546E-03    -297.650E-03     157.953E-03    -304.643E-03     602.298E-03    -297.361E-03     115.986E-03
            1699     12.0317E-03     70.5094E-03    -8.78168E+06     60.5782E+06     70.4192E+06     1.03905E+06    -298.145E-03     595.804E-03    -297.659E-03     215.665E-03    -310.206E-03     607.845E-03    -297.382E-03     161.807E-03
            1700     11.3651E-03     70.1979E-03    -14.3499E+06     49.1756E+06     65.6266E+06     1.13654E+06    -299.429E-03     597.104E-03    -297.675E-03     234.190E-03    -313.161E-03     610.770E-03    -297.398E-03     177.142E-03
            1701     10.6953E-03     69.8402E-03    -18.8995E+06     45.9534E+06     67.2699E+06     860.179E+03    -300.455E-03     598.170E-03    -297.714E-03     256.883E-03    -316.378E-03     613.993E-03    -297.417E-03     195.582E-03
            1702     10.0252E-03     69.4631E-03    -24.4183E+06     41.2412E+06     65.7659E+06     851.856E+03    -301.613E-03     599.358E-03    -297.745E-03     268.573E-03    -318.601E-03     616.215E-03    -297.441E-03     205.307E-03
            1703     9.35873E-03     69.0658E-03    -30.6824E+06     36.2931E+06     61.7010E+06     543.368E+03    -303.010E-03     600.749E-03    -297.739E-03     274.603E-03    -320.339E-03     617.919E-03    -297.438E-03     210.611E-03
            1704     8.69074E-03     68.6591E-03    -37.0573E+06     26.2861E+06     53.7869E+06     344.283E+03    -303.319E-03     601.032E-03    -297.713E-03     274.181E-03    -320.113E-03     617.632E-03    -297.429E-03     211.258E-03
            1705     8.02128E-03     68.2637E-03    -44.1262E+06     17.2132E+06     44.4256E+06     305.780E+03    -303.156E-03     600.866E-03    -297.710E-03     267.133E-03    -318.707E-03     616.192E-03    -297.449E-03     206.660E-03
            1706     7.35258E-03     67.8784E-03    -51.8215E+06     9.34938E+06     35.2428E+06     583.444E+03    -303.277E-03     600.987E-03    -297.711E-03     253.917E-03    -317.066E-03     614.524E-03    -297.473E-03     196.965E-03
            1707     6.68344E-03     67.5177E-03    -60.2416E+06    -532.755E+03     24.1082E+06     491.111E+03    -302.915E-03     600.594E-03    -297.679E-03     235.339E-03    -314.616E-03     612.009E-03    -297.470E-03     182.965E-03
            1708     6.01556E-03     67.1864E-03    -68.9272E+06    -9.75513E+06     12.7171E+06     548.519E+03    -302.219E-03     599.843E-03    -297.624E-03     213.938E-03    -311.802E-03     609.110E-03    -297.446E-03     166.740E-03
            1709     5.34804E-03     66.8863E-03    -77.9702E+06    -21.4032E+06    -882.438E+03     765.612E+03    -301.379E-03     598.934E-03    -297.555E-03     191.488E-03    -308.998E-03     606.202E-03    -297.415E-03     149.719E-03
            1710     4.67959E-03     66.6207E-03    -87.1580E+06    -47.4651E+06    -19.7490E+06     391.899E+03    -300.451E-03     597.941E-03    -297.490E-03     168.411E-03    -306.288E-03     603.358E-03    -297.394E-03     132.221E-03
            1711     4.01117E-03     66.3889E-03    -96.3836E+06    -84.0985E+06    -41.5222E+06     235.926E+03    -299.645E-03     597.090E-03    -297.445E-03     144.991E-03    -303.941E-03     600.866E-03    -297.391E-03     114.280E-03
            1712     3.34275E-03     66.1931E-03    -105.303E+06    -123.800E+06    -62.7536E+06     592.567E+03    -298.890E-03     596.318E-03    -297.428E-03     121.372E-03    -301.903E-03     598.700E-03    -297.410E-03     96.0138E-03
            1713     2.67379E-03     66.0317E-03    -113.405E+06    -154.632E+06    -83.1775E+06     448.135E+03    -298.276E-03     595.704E-03    -297.428E-03     97.5055E-03    -300.255E-03     596.972E-03    -297.455E-03     77.4035E-03
            1714     2.00495E-03     65.9062E-03    -120.240E+06    -172.141E+06    -102.230E+06     363.569E+03    -297.890E-03     595.316E-03    -297.426E-03     73.5620E-03    -299.092E-03     595.776E-03    -297.513E-03     58.5086E-03
            1715     1.33679E-03     65.8149E-03    -125.350E+06    -190.321E+06    -117.163E+06     638.732E+03    -297.634E-03     595.076E-03    -297.442E-03     49.6303E-03    -298.279E-03     594.941E-03    -297.570E-03     39.5532E-03
            1716     668.273E-06     65.7594E-03    -126.840E+06    -202.990E+06    -126.555E+06     184.415E+03    -297.960E-03     595.008E-03    -297.048E-03     27.1840E-03    -298.266E-03     594.511E-03    -297.202E-03     21.6969E-03
            1717     12.7008E-03     69.0894E-03    -4.41419E+06     64.5965E+06     76.6046E+06     888.352E+03    -297.180E-03     594.856E-03    -297.676E-03     158.728E-03    -304.948E-03     602.616E-03    -297.380E-03     116.686E-03
            1718     12.0334E-03     68.7889E-03    -8.75345E+06     60.1290E+06     71.2468E+06     1.88263E+06    -298.453E-03     596.124E-03    -297.670E-03     216.047E-03    -310.521E-03     608.167E-03    -297.389E-03     162.149E-03
            1719     11.3636E-03     68.4790E-03    -12.3625E+06     51.7333E+06     67.8022E+06     1.67960E+06    -299.185E-03     596.873E-03    -297.687E-03     234.231E-03    -312.914E-03     610.544E-03    -297.405E-03     177.223E-03
            1720     10.6945E-03     68.1239E-03    -17.4650E+06     46.8937E+06     68.6617E+06     1.12213E+06    -300.593E-03     598.316E-03    -297.723E-03     255.961E-03    -316.513E-03     614.141E-03    -297.422E-03     194.532E-03
            1721     10.0275E-03     67.7423E-03    -23.8258E+06     42.2094E+06     66.0665E+06     207.100E+03    -302.134E-03     599.849E-03    -297.715E-03     267.794E-03    -319.114E-03     616.702E-03    -297.411E-03     204.328E-03
            1722     9.35903E-03     67.3443E-03    -30.0314E+06     35.5190E+06     61.6006E+06     290.436E+03    -302.708E-03     600.406E-03    -297.697E-03     274.825E-03    -320.017E-03     617.555E-03    -297.397E-03     210.964E-03
            1723     8.68969E-03     66.9430E-03    -36.2542E+06     26.2187E+06     54.4337E+06     1.29630E+06    -302.951E-03     600.655E-03    -297.704E-03     274.746E-03    -319.757E-03     617.268E-03    -297.418E-03     211.933E-03
            1724     8.02088E-03     66.5441E-03    -43.4484E+06     17.9831E+06     45.1370E+06     1.32608E+06    -303.700E-03     601.394E-03    -297.695E-03     267.112E-03    -319.258E-03     616.731E-03    -297.432E-03     206.523E-03
            1725     7.35282E-03     66.1594E-03    -51.5646E+06     9.81153E+06     35.4159E+06     1.15581E+06    -303.735E-03     601.374E-03    -297.639E-03     252.860E-03    -317.485E-03     614.872E-03    -297.401E-03     195.875E-03
            1726     6.68545E-03     65.7990E-03    -59.8518E+06     206.567E+03     24.4997E+06     941.078E+03    -302.937E-03     600.500E-03    -297.563E-03     234.464E-03    -314.597E-03     611.877E-03    -297.354E-03     182.159E-03
            1727     6.01733E-03     65.4671E-03    -68.2796E+06    -9.20742E+06     13.1417E+06     301.863E+03    -302.011E-03     599.514E-03    -297.503E-03     214.105E-03    -311.591E-03     608.781E-03    -297.325E-03     166.957E-03
            1728     5.34834E-03     65.1684E-03    -77.2905E+06    -20.9930E+06    -508.313E+03    -95.3040E+03    -301.017E-03     598.479E-03    -297.462E-03     192.140E-03    -308.642E-03     605.757E-03    -297.322E-03     150.444E-03
            1729     4.67970E-03     64.9025E-03    -86.7943E+06    -47.4464E+06    -19.4439E+06     222.940E+03    -300.120E-03     597.568E-03    -297.448E-03     169.208E-03    -305.971E-03     602.999E-03    -297.351E-03     133.050E-03
            1730     4.01084E-03     64.6717E-03    -96.1252E+06    -83.8936E+06    -41.3653E+06     621.766E+03    -299.378E-03     596.836E-03    -297.458E-03     145.645E-03    -303.688E-03     600.627E-03    -297.404E-03     114.946E-03
            1731     3.34185E-03     64.4752E-03    -104.919E+06    -123.659E+06    -62.7051E+06     595.073E+03    -298.822E-03     596.305E-03    -297.484E-03     121.632E-03    -301.835E-03     598.689E-03    -297.466E-03     96.2913E-03
            1732     2.67347E-03     64.3148E-03    -112.815E+06    -154.273E+06    -82.7598E+06     390.156E+03    -298.408E-03     595.899E-03    -297.491E-03     97.6085E-03    -300.389E-03     597.172E-03    -297.518E-03     77.4578E-03
            1733     2.00526E-03     64.1878E-03    -119.491E+06    -171.247E+06    -101.599E+06     493.280E+03    -298.038E-03     595.501E-03    -297.462E-03     73.4832E-03    -299.238E-03     595.963E-03    -297.549E-03     58.4498E-03
            1734     1.33665E-03     64.0976E-03    -124.416E+06    -189.062E+06    -116.104E+06     424.260E+03    -297.748E-03     595.176E-03    -297.428E-03     49.4089E-03    -298.389E-03     595.041E-03    -297.554E-03     39.3386E-03
            1735     668.090E-06     64.0414E-03    -127.346E+06    -202.390E+06    -125.241E+06     142.612E+03    -297.400E-03     594.904E-03    -297.504E-03     26.8909E-03    -297.711E-03     594.408E-03    -297.652E-03     21.3989E-03
            1736     12.7007E-03     67.3657E-03    -4.33817E+06     62.9879E+06     76.2630E+06     951.639E+03    -297.415E-03     595.103E-03    -297.688E-03     158.135E-03    -305.157E-03     602.831E-03    -297.391E-03     116.066E-03
            1737     12.0321E-03     67.0706E-03    -8.07844E+06     59.5247E+06     72.3242E+06     797.427E+03    -298.344E-03     596.021E-03    -297.677E-03     214.848E-03    -310.382E-03     608.032E-03    -297.390E-03     160.947E-03
            1738     11.3639E-03     66.7613E-03    -13.3237E+06     52.8585E+06     68.3488E+06     1.22999E+06    -299.510E-03     597.187E-03    -297.677E-03     233.865E-03    -313.253E-03     610.872E-03    -297.393E-03     176.755E-03
            1739     10.6963E-03     66.4032E-03    -18.3723E+06     48.0756E+06     68.5073E+06     225.368E+03    -301.131E-03     598.810E-03    -297.679E-03     256.040E-03    -317.064E-03     614.649E-03    -297.379E-03     194.480E-03
            1740     10.0277E-03     66.0224E-03    -22.6974E+06     41.3645E+06     66.5421E+06     48.0822E+03    -301.546E-03     599.224E-03    -297.678E-03     268.218E-03    -318.496E-03     616.047E-03    -297.373E-03     204.994E-03
            1741     9.35857E-03     65.6273E-03    -28.9096E+06     33.8688E+06     62.0859E+06     1.69808E+06    -302.313E-03     600.016E-03    -297.703E-03     275.102E-03    -319.601E-03     617.142E-03    -297.400E-03     211.410E-03
            1742     8.68965E-03     65.2248E-03    -36.4701E+06     26.7466E+06     54.3460E+06     1.71631E+06    -303.756E-03     601.443E-03    -297.688E-03     274.279E-03    -320.566E-03     618.061E-03    -297.402E-03     211.246E-03
            1743     8.02192E-03     64.8236E-03    -44.1011E+06     19.0670E+06     44.9200E+06     1.36669E+06    -304.199E-03     601.809E-03    -297.610E-03     266.154E-03    -319.729E-03     617.119E-03    -297.349E-03     205.494E-03
            1744     7.35459E-03     64.4397E-03    -51.3663E+06     10.7556E+06     36.0780E+06     989.012E+03    -303.486E-03     601.018E-03    -297.532E-03     252.707E-03    -317.220E-03     614.503E-03    -297.293E-03     195.819E-03
            1745     6.68591E-03     64.0803E-03    -58.8894E+06     1.58542E+06     25.7799E+06     441.974E+03    -302.566E-03     600.052E-03    -297.486E-03     235.471E-03    -314.256E-03     611.464E-03    -297.274E-03     183.211E-03
            1746     6.01679E-03     63.7496E-03    -67.3245E+06    -8.35958E+06     13.8533E+06     285.419E+03    -301.651E-03     599.122E-03    -297.471E-03     215.104E-03    -311.261E-03     608.423E-03    -297.292E-03     167.988E-03
            1747     5.34824E-03     63.4502E-03    -76.7463E+06    -21.0363E+06    -416.451E+03     707.046E+03    -300.799E-03     598.272E-03    -297.473E-03     192.572E-03    -308.431E-03     605.559E-03    -297.333E-03     150.917E-03
            1748     4.67923E-03     63.1855E-03    -86.6035E+06    -47.6342E+06    -19.9634E+06     574.804E+03    -300.031E-03     597.515E-03    -297.484E-03     169.175E-03    -305.882E-03     602.947E-03    -297.389E-03     133.014E-03
            1749     4.01045E-03     62.9538E-03    -95.9151E+06    -83.6965E+06    -41.8842E+06     243.448E+03    -299.384E-03     596.887E-03    -297.503E-03     145.366E-03    -303.688E-03     600.675E-03    -297.452E-03     114.662E-03
            1750     3.34202E-03     62.7580E-03    -104.347E+06    -123.364E+06    -62.2276E+06     152.336E+03    -298.940E-03     596.464E-03    -297.524E-03     121.306E-03    -301.945E-03     598.842E-03    -297.505E-03     95.9534E-03
            1751     2.67347E-03     62.5959E-03    -112.067E+06    -153.817E+06    -81.5675E+06     138.915E+03    -298.526E-03     596.036E-03    -297.509E-03     97.3078E-03    -300.501E-03     597.304E-03    -297.532E-03     77.1545E-03
            1752     2.00495E-03     62.4704E-03    -118.747E+06    -170.348E+06    -100.608E+06     321.515E+03    -298.052E-03     595.512E-03    -297.460E-03     73.3123E-03    -299.248E-03     595.973E-03    -297.544E-03     58.2961E-03
            1753     1.33681E-03     62.3790E-03    -123.586E+06    -188.360E+06    -115.718E+06     1.93630E+03    -297.757E-03     595.172E-03    -297.416E-03     49.6541E-03    -298.396E-03     595.040E-03    -297.542E-03     39.5772E-03
            1754     669.111E-06     62.3237E-03    -128.416E+06    -202.427E+06    -124.627E+06     65.5549E+03    -297.339E-03     594.873E-03    -297.533E-03     26.7108E-03    -297.657E-03     594.378E-03    -297.677E-03     21.2174E-03
            1755     12.7018E-03     65.6462E-03    -3.54171E+06     61.7140E+06     76.0635E+06     825.451E+03    -297.072E-03     594.727E-03    -297.655E-03     157.436E-03    -304.798E-03     602.439E-03    -297.359E-03     115.437E-03
            1756     12.0334E-03     65.3525E-03    -8.11250E+06     59.4030E+06     71.4251E+06     1.12024E+06    -298.178E-03     595.829E-03    -297.650E-03     214.791E-03    -310.216E-03     607.841E-03    -297.368E-03     160.915E-03
            1757     11.3644E-03     65.0424E-03    -12.2544E+06     54.7378E+06     67.6707E+06     202.004E+03    -299.892E-03     597.534E-03    -297.642E-03     234.458E-03    -313.637E-03     611.234E-03    -297.365E-03     177.270E-03
            1758     10.6960E-03     64.6813E-03    -16.0306E+06     49.0612E+06     68.7545E+06     60.3408E+03    -300.569E-03     598.228E-03    -297.659E-03     256.402E-03    -316.465E-03     614.042E-03    -297.363E-03     195.069E-03
            1759     10.0275E-03     64.3065E-03    -22.6833E+06     39.1399E+06     66.0426E+06     2.10637E+06    -301.485E-03     599.173E-03    -297.688E-03     268.262E-03    -318.430E-03     615.985E-03    -297.381E-03     205.114E-03
            1760     9.35778E-03     63.9093E-03    -30.5061E+06     33.6368E+06     61.8793E+06     2.17380E+06    -303.296E-03     600.971E-03    -297.676E-03     274.519E-03    -320.580E-03     618.087E-03    -297.371E-03     210.611E-03
            1761     8.69073E-03     63.5022E-03    -36.9248E+06     28.3726E+06     55.4294E+06     995.764E+03    -304.123E-03     601.723E-03    -297.599E-03     273.480E-03    -320.895E-03     618.303E-03    -297.310E-03     210.432E-03
            1762     8.02375E-03     63.1044E-03    -43.1828E+06     20.2867E+06     46.6883E+06     482.442E+03    -303.631E-03     601.154E-03    -297.523E-03     266.325E-03    -319.154E-03     616.461E-03    -297.256E-03     205.813E-03
            1763     7.35432E-03     62.7220E-03    -50.4335E+06     10.9171E+06     36.9749E+06     103.013E+03    -302.873E-03     600.369E-03    -297.497E-03     253.553E-03    -316.624E-03     613.873E-03    -297.255E-03     196.770E-03
            1764     6.68523E-03     62.3624E-03    -58.1012E+06     1.81403E+06     26.1323E+06     130.632E+03    -302.264E-03     599.763E-03    -297.499E-03     235.833E-03    -313.970E-03     611.193E-03    -297.287E-03     183.574E-03
            1765     6.01683E-03     62.0316E-03    -66.9678E+06    -8.81216E+06     14.1827E+06     836.914E+03    -301.614E-03     599.120E-03    -297.507E-03     214.955E-03    -311.217E-03     608.414E-03    -297.326E-03     167.857E-03
            1766     5.34773E-03     61.7327E-03    -76.5276E+06    -21.0803E+06    -197.844E+03     1.18542E+06    -300.834E-03     598.344E-03    -297.509E-03     192.345E-03    -308.460E-03     605.624E-03    -297.369E-03     150.683E-03
            1767     4.67930E-03     61.4672E-03    -85.7079E+06    -45.9306E+06    -18.9471E+06     961.797E+03    -300.103E-03     597.617E-03    -297.514E-03     168.965E-03    -305.948E-03     603.050E-03    -297.418E-03     132.815E-03
            1768     4.01070E-03     61.2367E-03    -95.0086E+06    -82.3045E+06    -40.6403E+06     425.864E+03    -299.538E-03     597.057E-03    -297.520E-03     145.374E-03    -303.836E-03     600.844E-03    -297.466E-03     114.682E-03
            1769     3.34198E-03     61.0393E-03    -103.867E+06    -123.199E+06    -61.6793E+06    -107.004E+03    -299.064E-03     596.581E-03    -297.517E-03     121.446E-03    -302.069E-03     598.959E-03    -297.496E-03     96.0817E-03
            1770     2.67370E-03     60.8786E-03    -111.872E+06    -154.202E+06    -81.7970E+06    -142.600E+03    -298.547E-03     596.029E-03    -297.483E-03     97.2805E-03    -300.518E-03     597.293E-03    -297.506E-03     77.1424E-03
            1771     2.00538E-03     60.7520E-03    -118.384E+06    -170.454E+06    -100.374E+06    -213.948E+03    -297.986E-03     595.421E-03    -297.436E-03     73.2406E-03    -299.179E-03     595.880E-03    -297.519E-03     58.2031E-03
            1772     1.33663E-03     60.6620E-03    -123.285E+06    -188.191E+06    -115.350E+06     117.045E+03    -297.552E-03     595.012E-03    -297.460E-03     49.5950E-03    -298.190E-03     594.879E-03    -297.585E-03     39.5281E-03
            1773     667.370E-06     60.6050E-03    -125.794E+06    -201.346E+06    -124.719E+06     226.595E+03    -297.951E-03     595.087E-03    -297.136E-03     26.6497E-03    -298.256E-03     594.593E-03    -297.286E-03     21.1925E-03
            1774     12.7024E-03     63.9306E-03    -4.13069E+06     59.7252E+06     76.8847E+06     391.591E+03    -296.988E-03     594.619E-03    -297.631E-03     157.013E-03    -304.684E-03     602.289E-03    -297.327E-03     115.074E-03
            1775     12.0320E-03     63.6343E-03    -7.53606E+06     59.4242E+06     70.7289E+06     39.0369E+03    -298.421E-03     596.035E-03    -297.614E-03     215.264E-03    -310.409E-03     608.002E-03    -297.335E-03     161.482E-03
            1776     11.3650E-03     63.3191E-03    -11.2233E+06     56.0855E+06     67.1808E+06     3.84786E+03    -299.382E-03     596.995E-03    -297.613E-03     233.994E-03    -313.082E-03     610.660E-03    -297.343E-03     176.965E-03
            1777     10.6961E-03     62.9673E-03    -18.3995E+06     46.9227E+06     66.5829E+06     2.18970E+06    -300.397E-03     598.045E-03    -297.648E-03     255.671E-03    -316.262E-03     613.818E-03    -297.356E-03     194.446E-03
            1778     10.0259E-03     62.5855E-03    -25.4652E+06     38.5906E+06     64.1882E+06     1.88603E+06    -302.347E-03     599.989E-03    -297.642E-03     267.342E-03    -319.267E-03     616.770E-03    -297.340E-03     204.002E-03
            1779     9.36066E-03     62.1875E-03    -29.9918E+06     36.9021E+06     62.3494E+06     153.442E+03    -303.645E-03     601.221E-03    -297.576E-03     274.097E-03    -320.935E-03     618.355E-03    -297.274E-03     210.030E-03
            1780     8.69280E-03     61.7839E-03    -35.3457E+06     29.0992E+06     55.6227E+06    -236.858E+03    -303.378E-03     600.886E-03    -297.508E-03     273.715E-03    -320.140E-03     617.464E-03    -297.221E-03     210.839E-03
            1781     8.02251E-03     61.3866E-03    -42.4258E+06     19.9678E+06     46.0978E+06    -187.312E+03    -302.841E-03     600.335E-03    -297.494E-03     266.546E-03    -318.327E-03     615.608E-03    -297.231E-03     206.285E-03
            1782     7.35400E-03     61.0041E-03    -49.6931E+06     11.0513E+06     37.2295E+06    -140.009E+03    -302.669E-03     600.189E-03    -297.520E-03     253.747E-03    -316.418E-03     613.693E-03    -297.277E-03     196.998E-03
            1783     6.68551E-03     60.6446E-03    -58.1765E+06     1.03397E+06     26.2644E+06     584.988E+03    -302.330E-03     599.865E-03    -297.535E-03     235.847E-03    -314.030E-03     611.286E-03    -297.321E-03     183.608E-03
            1784     6.01634E-03     60.3136E-03    -67.1161E+06    -9.43372E+06     14.1187E+06     1.03862E+06    -301.684E-03     599.223E-03    -297.539E-03     214.956E-03    -311.284E-03     608.510E-03    -297.357E-03     167.856E-03
            1785     5.34811E-03     60.0146E-03    -75.9985E+06    -20.5976E+06     662.209E+03     632.946E+03    -300.893E-03     598.433E-03    -297.540E-03     192.392E-03    -308.521E-03     605.717E-03    -297.397E-03     150.707E-03
            1786     4.67903E-03     59.7498E-03    -85.4376E+06    -44.9457E+06    -17.8324E+06     496.218E+03    -300.231E-03     597.768E-03    -297.537E-03     169.012E-03    -306.074E-03     603.200E-03    -297.437E-03     132.863E-03
            1787     4.01033E-03     59.5181E-03    -94.4994E+06    -81.5306E+06    -39.7767E+06     408.929E+03    -299.672E-03     597.194E-03    -297.522E-03     145.279E-03    -303.968E-03     600.981E-03    -297.466E-03     114.572E-03
            1788     3.34206E-03     59.3217E-03    -103.061E+06    -122.717E+06    -61.2611E+06     404.645E+03    -299.061E-03     596.565E-03    -297.504E-03     121.310E-03    -302.059E-03     598.939E-03    -297.483E-03     95.9648E-03
            1789     2.67358E-03     59.1599E-03    -111.148E+06    -153.690E+06    -81.6602E+06     268.445E+03    -298.466E-03     595.943E-03    -297.477E-03     97.2730E-03    -300.433E-03     597.207E-03    -297.501E-03     77.1579E-03
            1790     2.00509E-03     59.0349E-03    -118.332E+06    -170.754E+06    -100.872E+06     113.334E+03    -298.004E-03     595.441E-03    -297.438E-03     73.3062E-03    -299.195E-03     595.899E-03    -297.523E-03     58.2877E-03
            1791     1.33682E-03     58.9439E-03    -123.539E+06    -188.160E+06    -115.618E+06     172.610E+03    -297.724E-03     595.128E-03    -297.404E-03     49.4728E-03    -298.363E-03     594.996E-03    -297.530E-03     39.4127E-03
            1792     669.003E-06     58.8883E-03    -125.055E+06    -200.082E+06    -124.098E+06     177.661E+03    -297.585E-03     594.868E-03    -297.283E-03     27.0650E-03    -297.889E-03     594.378E-03    -297.432E-03     21.6141E-03
            1793     12.7012E-03     62.2137E-03    -3.33640E+06     60.5469E+06     75.4766E+06    -862.911E+03    -297.440E-03     595.084E-03    -297.644E-03     158.482E-03    -305.189E-03     602.818E-03    -297.350E-03     116.348E-03
            1794     12.0352E-03     61.9121E-03    -8.40661E+06     59.0818E+06     70.7720E+06    -242.622E+03    -298.796E-03     596.419E-03    -297.624E-03     216.760E-03    -310.876E-03     608.475E-03    -297.343E-03     162.779E-03
            1795     11.3650E-03     61.6055E-03    -14.6084E+06     51.6731E+06     66.6314E+06     2.28195E+06    -299.704E-03     597.317E-03    -297.614E-03     234.184E-03    -313.437E-03     610.988E-03    -297.334E-03     177.131E-03
            1796     10.6954E-03     61.2460E-03    -19.4788E+06     46.8507E+06     68.1533E+06     2.01509E+06    -301.383E-03     598.987E-03    -297.604E-03     255.351E-03    -317.255E-03     614.759E-03    -297.303E-03     193.908E-03
            1797     10.0306E-03     60.8662E-03    -22.8836E+06     42.9248E+06     67.8240E+06    -263.032E+03    -302.637E-03     600.188E-03    -297.551E-03     267.686E-03    -319.564E-03     616.989E-03    -297.241E-03     204.258E-03
            1798     9.36039E-03     60.4676E-03    -27.8297E+06     37.2746E+06     64.0896E+06    -1.15519E+06    -302.842E-03     600.342E-03    -297.500E-03     274.318E-03    -320.099E-03     617.447E-03    -297.193E-03     210.499E-03
            1799     8.69131E-03     60.0652E-03    -34.6439E+06     27.7519E+06     55.6283E+06    -756.002E+03    -302.618E-03     600.105E-03    -297.487E-03     273.680E-03    -319.350E-03     616.651E-03    -297.199E-03     211.014E-03
            1800     8.02354E-03     59.6706E-03    -41.2550E+06     19.7138E+06     46.0915E+06    -110.297E+03    -302.744E-03     600.251E-03    -297.507E-03     266.784E-03    -318.235E-03     615.531E-03    -297.245E-03     206.514E-03
            1801     7.35388E-03     59.2863E-03    -49.1193E+06     10.3404E+06     36.2387E+06     818.648E+03    -302.748E-03     600.282E-03    -297.534E-03     253.729E-03    -316.476E-03     613.768E-03    -297.296E-03     197.017E-03
            1802     6.68470E-03     58.9263E-03    -57.7596E+06     357.581E+03     25.1232E+06     1.09980E+06    -302.309E-03     599.858E-03    -297.549E-03     235.656E-03    -313.984E-03     611.257E-03    -297.340E-03     183.465E-03
            1803     6.01652E-03     58.5954E-03    -66.1555E+06    -8.44533E+06     14.3775E+06     519.865E+03    -301.623E-03     599.186E-03    -297.563E-03     214.833E-03    -311.214E-03     608.471E-03    -297.383E-03     167.739E-03
            1804     5.34727E-03     58.2967E-03    -75.1964E+06    -19.7457E+06     1.40193E+06     450.702E+03    -300.963E-03     598.532E-03    -297.569E-03     192.341E-03    -308.580E-03     605.808E-03    -297.424E-03     150.680E-03
            1805     4.67904E-03     58.0312E-03    -84.7910E+06    -45.1505E+06    -18.0290E+06     580.801E+03    -300.422E-03     597.970E-03    -297.548E-03     168.968E-03    -306.260E-03     603.399E-03    -297.450E-03     132.796E-03
            1806     4.01085E-03     57.8000E-03    -94.2056E+06    -81.4939E+06    -40.3910E+06     880.017E+03    -299.733E-03     597.245E-03    -297.513E-03     145.166E-03    -304.023E-03     601.029E-03    -297.460E-03     114.475E-03
            1807     3.34224E-03     57.6037E-03    -103.336E+06    -121.810E+06    -61.4261E+06     1.00156E+06    -298.974E-03     596.473E-03    -297.499E-03     121.311E-03    -301.974E-03     598.851E-03    -297.479E-03     95.9909E-03
            1808     2.67364E-03     57.4426E-03    -111.617E+06    -152.887E+06    -81.4946E+06     1.10637E+06    -298.395E-03     595.887E-03    -297.493E-03     97.2944E-03    -300.365E-03     597.154E-03    -297.516E-03     77.2165E-03
            1809     2.00509E-03     57.3167E-03    -118.582E+06    -169.518E+06    -101.031E+06     974.720E+03    -298.055E-03     595.512E-03    -297.457E-03     73.2890E-03    -299.248E-03     595.975E-03    -297.544E-03     58.3008E-03
            1810     1.33674E-03     57.2259E-03    -123.559E+06    -186.991E+06    -115.833E+06     234.285E+03    -297.822E-03     595.213E-03    -297.391E-03     49.6548E-03    -298.464E-03     595.088E-03    -297.520E-03     39.5644E-03
            1811     668.261E-06     57.1698E-03    -127.380E+06    -200.053E+06    -124.503E+06    -57.4611E+03    -297.252E-03     594.784E-03    -297.533E-03     26.8709E-03    -297.567E-03     594.299E-03    -297.680E-03     21.4038E-03
            1812     12.7012E-03     60.4887E-03    -4.78072E+06     60.9658E+06     73.1475E+06    -245.646E+03    -297.344E-03     595.005E-03    -297.661E-03     157.693E-03    -305.079E-03     602.727E-03    -297.377E-03     115.611E-03
            1813     12.0306E-03     60.1952E-03    -9.53000E+06     56.4812E+06     69.5861E+06     1.50486E+06    -298.926E-03     596.569E-03    -297.643E-03     215.680E-03    -311.002E-03     608.610E-03    -297.363E-03     161.628E-03
            1814     11.3638E-03     59.8813E-03    -13.3810E+06     49.4242E+06     67.5018E+06     909.427E+03    -300.577E-03     598.179E-03    -297.602E-03     233.790E-03    -314.314E-03     611.848E-03    -297.317E-03     176.469E-03
            1815     10.6989E-03     59.5268E-03    -15.9257E+06     49.2086E+06     70.3913E+06    -602.724E+03    -301.865E-03     599.410E-03    -297.545E-03     255.746E-03    -317.750E-03     615.209E-03    -297.241E-03     194.130E-03
            1816     10.0279E-03     59.1451E-03    -21.2212E+06     45.5987E+06     68.6133E+06    -843.331E+03    -302.053E-03     599.544E-03    -297.491E-03     267.960E-03    -318.984E-03     616.363E-03    -297.183E-03     204.656E-03
            1817     9.36150E-03     58.7493E-03    -28.2616E+06     36.4766E+06     63.3491E+06    -772.317E+03    -301.936E-03     599.431E-03    -297.495E-03     274.528E-03    -319.162E-03     616.503E-03    -297.190E-03     211.020E-03
            1818     8.69250E-03     58.3504E-03    -34.4498E+06     27.4940E+06     56.3930E+06    -959.370E+03    -302.499E-03     600.038E-03    -297.539E-03     274.702E-03    -319.247E-03     616.598E-03    -297.247E-03     212.101E-03
            1819     8.02192E-03     57.9511E-03    -42.0271E+06     17.9573E+06     46.9650E+06    -733.071E+03    -303.188E-03     600.753E-03    -297.565E-03     267.506E-03    -318.716E-03     616.059E-03    -297.296E-03     207.108E-03
            1820     7.35398E-03     57.5691E-03    -49.8609E+06     7.14124E+06     35.8697E+06     227.952E+03    -303.039E-03     600.605E-03    -297.566E-03     253.935E-03    -316.772E-03     614.082E-03    -297.325E-03     197.182E-03
            1821     6.68552E-03     57.2084E-03    -56.8730E+06     284.486E+03     25.7256E+06     626.344E+03    -302.418E-03     599.985E-03    -297.567E-03     235.853E-03    -314.084E-03     611.376E-03    -297.356E-03     183.688E-03
            1822     6.01608E-03     56.8778E-03    -65.1479E+06    -7.31144E+06     15.3059E+06     1.03959E+06    -301.763E-03     599.334E-03    -297.571E-03     214.631E-03    -311.330E-03     608.600E-03    -297.390E-03     167.598E-03
            1823     5.34778E-03     56.5785E-03    -74.9917E+06    -19.5325E+06     467.246E+03     1.42979E+06    -301.110E-03     598.661E-03    -297.551E-03     191.985E-03    -308.712E-03     605.927E-03    -297.412E-03     150.337E-03
            1824     4.67904E-03     56.3125E-03    -85.4536E+06    -44.9689E+06    -19.3561E+06     1.79312E+06    -300.372E-03     597.889E-03    -297.516E-03     168.540E-03    -306.201E-03     603.310E-03    -297.424E-03     132.405E-03
            1825     4.01042E-03     56.0816E-03    -95.4761E+06    -80.2908E+06    -41.4597E+06     1.71456E+06    -299.583E-03     597.071E-03    -297.488E-03     144.778E-03    -303.871E-03     600.855E-03    -297.440E-03     114.132E-03
            1826     3.34191E-03     55.8860E-03    -104.412E+06    -120.475E+06    -62.2264E+06     1.33514E+06    -298.938E-03     596.420E-03    -297.482E-03     121.007E-03    -301.941E-03     598.805E-03    -297.467E-03     95.6917E-03
            1827     2.67342E-03     55.7246E-03    -112.457E+06    -151.776E+06    -81.9175E+06     1.19012E+06    -298.434E-03     595.899E-03    -297.466E-03     97.0178E-03    -300.406E-03     597.171E-03    -297.492E-03     76.9401E-03
            1828     2.00510E-03     55.5988E-03    -119.135E+06    -167.741E+06    -100.801E+06     936.785E+03    -297.995E-03     595.418E-03    -297.423E-03     73.1374E-03    -299.191E-03     595.888E-03    -297.511E-03     58.1488E-03
            1829     1.33678E-03     55.5077E-03    -124.377E+06    -185.617E+06    -115.849E+06     699.119E+03    -297.616E-03     595.029E-03    -297.413E-03     49.3732E-03    -298.264E-03     594.912E-03    -297.543E-03     39.2795E-03
            1830     668.342E-06     55.4530E-03    -127.321E+06    -199.048E+06    -125.908E+06     460.586E+03    -298.003E-03     594.921E-03    -296.919E-03     26.5418E-03    -298.316E-03     594.443E-03    -297.075E-03     21.0580E-03
            1831     12.7015E-03     58.7743E-03    -4.19499E+06     59.1370E+06     76.5360E+06     1.04802E+06    -297.690E-03     595.324E-03    -297.634E-03     156.626E-03    -305.379E-03     602.986E-03    -297.331E-03     114.633E-03
            1832     12.0349E-03     58.4735E-03    -7.16054E+06     56.5478E+06     72.3292E+06     118.019E+03    -299.210E-03     596.791E-03    -297.581E-03     214.035E-03    -311.182E-03     608.729E-03    -297.291E-03     160.074E-03
            1833     11.3668E-03     58.1629E-03    -10.4163E+06     52.5148E+06     68.7128E+06    -1.56884E+06    -300.178E-03     597.699E-03    -297.521E-03     232.888E-03    -313.831E-03     611.302E-03    -297.238E-03     175.707E-03
            1834     10.6960E-03     57.8040E-03    -16.5684E+06     48.3907E+06     67.6712E+06    -1.84932E+06    -300.868E-03     598.360E-03    -297.492E-03     255.612E-03    -316.738E-03     614.147E-03    -297.200E-03     194.144E-03
            1835     10.0315E-03     57.4269E-03    -22.0186E+06     44.3412E+06     65.6088E+06    -796.717E+03    -300.959E-03     598.465E-03    -297.506E-03     268.152E-03    -317.884E-03     615.279E-03    -297.211E-03     205.095E-03
            1836     9.35956E-03     57.0346E-03    -27.5640E+06     37.7303E+06     61.9050E+06    -110.460E+03    -301.704E-03     599.274E-03    -297.570E-03     275.625E-03    -318.969E-03     616.395E-03    -297.275E-03     212.133E-03
            1837     8.68919E-03     56.6304E-03    -35.5572E+06     27.3708E+06     53.3163E+06     170.726E+03    -303.046E-03     600.660E-03    -297.613E-03     275.197E-03    -319.816E-03     617.245E-03    -297.335E-03     212.465E-03
            1838     8.02238E-03     56.2327E-03    -43.7443E+06     17.0992E+06     43.3755E+06    -30.6826E+03    -303.459E-03     601.072E-03    -297.614E-03     267.143E-03    -318.971E-03     616.364E-03    -297.358E-03     206.723E-03
            1839     7.35327E-03     55.8500E-03    -51.3949E+06     7.45406E+06     33.7585E+06    -1.21704E+06    -303.211E-03     600.811E-03    -297.601E-03     253.796E-03    -316.954E-03     614.301E-03    -297.368E-03     196.956E-03
            1840     6.68431E-03     55.4903E-03    -59.8399E+06    -1.30352E+06     23.6246E+06    -1.37047E+06    -302.805E-03     600.382E-03    -297.577E-03     235.659E-03    -314.486E-03     611.777E-03    -297.370E-03     183.385E-03
            1841     6.01644E-03     55.1589E-03     -69.006E+06    -10.8692E+06     12.1459E+06    -211.451E+03    -302.139E-03     599.670E-03    -297.531E-03     214.142E-03    -311.706E-03     608.918E-03    -297.355E-03     167.037E-03
            1842     5.34793E-03     54.8600E-03    -78.2252E+06    -22.1324E+06    -1.84088E+06     1.11818E+06    -301.190E-03     598.661E-03    -297.470E-03     191.373E-03    -308.788E-03     605.907E-03    -297.334E-03     149.715E-03
            1843     4.67966E-03     54.5945E-03    -87.3368E+06    -44.1236E+06    -19.8157E+06     1.83288E+06    -300.153E-03     597.580E-03    -297.427E-03     167.973E-03    -305.975E-03     602.993E-03    -297.335E-03     131.894E-03
            1844     4.01106E-03     54.3642E-03    -96.4370E+06    -77.8691E+06    -41.4225E+06     1.48790E+06    -299.420E-03     596.825E-03    -297.405E-03     144.336E-03    -303.707E-03     600.613E-03    -297.359E-03     113.712E-03
            1845     3.34243E-03     54.1681E-03    -105.222E+06    -119.218E+06    -62.8032E+06     1.02686E+06    -298.908E-03     596.298E-03    -297.389E-03     120.567E-03    -301.909E-03     598.684E-03    -297.378E-03     95.2639E-03
            1846     2.67406E-03     54.0070E-03    -112.948E+06    -150.458E+06    -82.4732E+06     616.125E+03    -298.355E-03     595.712E-03    -297.357E-03     96.7268E-03    -300.325E-03     596.986E-03    -297.388E-03     76.6564E-03
            1847     2.00547E-03     53.8812E-03    -119.429E+06    -166.748E+06    -101.001E+06     433.023E+03    -297.823E-03     595.144E-03    -297.321E-03     73.0140E-03    -299.022E-03     595.620E-03    -297.411E-03     58.0134E-03
            1848     1.33681E-03     53.7903E-03    -124.318E+06    -184.453E+06    -116.246E+06     336.348E+03    -297.514E-03     594.835E-03    -297.322E-03     49.2853E-03    -298.162E-03     594.725E-03    -297.455E-03     39.1920E-03
            1849     668.291E-06     53.7351E-03    -128.129E+06    -197.893E+06    -124.877E+06     174.466E+03    -297.811E-03     594.755E-03    -296.944E-03     27.2459E-03    -298.134E-03     594.283E-03    -297.095E-03     21.7359E-03
            1850     12.7028E-03     57.0512E-03    -2.93281E+06     60.6906E+06     78.0147E+06    -476.253E+03    -298.317E-03     595.892E-03    -297.575E-03     157.015E-03    -306.020E-03     603.574E-03    -297.269E-03     114.963E-03
            1851     12.0347E-03     56.7530E-03    -6.97028E+06     58.9183E+06     72.6480E+06    -1.89299E+06    -299.004E-03     596.513E-03    -297.509E-03     215.658E-03    -311.033E-03     608.516E-03    -297.221E-03     161.677E-03
            1852     11.3663E-03     56.4441E-03    -12.0069E+06     51.8902E+06     67.6175E+06    -1.79608E+06    -299.454E-03     596.941E-03    -297.487E-03     234.881E-03    -313.174E-03     610.607E-03    -297.207E-03     177.814E-03
            1853     10.7003E-03     56.0865E-03    -16.4983E+06     48.5239E+06     68.4004E+06     -904.56E+03    -299.720E-03     597.260E-03    -297.540E-03     257.285E-03    -315.622E-03     613.077E-03    -297.245E-03     196.135E-03
            1854     10.0260E-03     55.7107E-03    -22.1878E+06     42.8218E+06     66.1066E+06    -749.166E+03    -300.778E-03     598.395E-03    -297.618E-03     268.981E-03    -317.718E-03     615.217E-03    -297.317E-03     205.982E-03
            1855     9.35815E-03     55.3158E-03    -30.0265E+06     35.1476E+06     60.2023E+06    -76.0515E+03    -302.684E-03     600.336E-03    -297.652E-03     275.002E-03    -319.961E-03     617.456E-03    -297.358E-03     211.215E-03
            1856     8.69139E-03     54.9118E-03    -37.5500E+06     26.7421E+06     51.4291E+06     841.536E+03    -303.410E-03     601.040E-03    -297.630E-03     273.688E-03    -320.128E-03     617.571E-03    -297.357E-03     210.919E-03
            1857     8.02139E-03     54.5138E-03    -43.8089E+06     18.7190E+06     42.3613E+06     455.565E+03    -303.395E-03     600.996E-03    -297.601E-03     266.062E-03    -318.855E-03     616.244E-03    -297.353E-03     205.701E-03
            1858     7.35311E-03     54.1316E-03    -51.6703E+06     10.1927E+06     32.7946E+06     506.643E+03    -303.423E-03     600.985E-03    -297.562E-03     252.612E-03    -317.139E-03     614.459E-03    -297.338E-03     195.736E-03
            1859     6.68540E-03     53.7708E-03    -61.2621E+06    -957.449E+03     20.6157E+06     469.091E+03    -302.971E-03     600.461E-03    -297.490E-03     234.293E-03    -314.624E-03     611.833E-03    -297.297E-03     181.978E-03
            1860     6.01705E-03     53.4401E-03    -70.6327E+06    -12.5987E+06     8.84098E+06    -230.189E+03    -302.047E-03     599.463E-03    -297.416E-03     213.425E-03    -311.599E-03     608.693E-03    -297.251E-03     166.309E-03
            1861     5.34907E-03     53.1416E-03    -79.7816E+06    -23.8524E+06    -3.36447E+06    -467.003E+03    -300.975E-03     598.337E-03    -297.361E-03     191.114E-03    -308.566E-03     605.569E-03    -297.228E-03     149.490E-03
            1862     4.68021E-03     52.8776E-03    -88.5889E+06    -44.9533E+06    -20.6025E+06    -641.071E+03    -300.037E-03     597.363E-03    -297.326E-03     168.092E-03    -305.863E-03     602.775E-03    -297.235E-03     132.000E-03
            1863     4.01134E-03     52.6466E-03    -97.1097E+06    -77.9149E+06    -41.6883E+06    -213.928E+03    -299.368E-03     596.672E-03    -297.305E-03     144.658E-03    -303.659E-03     600.463E-03    -297.259E-03     114.039E-03
            1864     3.34291E-03     52.4505E-03    -105.128E+06    -118.605E+06    -62.3406E+06     154.326E+03    -298.782E-03     596.078E-03    -297.296E-03     120.849E-03    -301.782E-03     598.464E-03    -297.283E-03     95.5838E-03
            1865     2.67418E-03     52.2900E-03    -112.857E+06    -149.762E+06    -82.4557E+06     40.3181E+03    -298.238E-03     595.513E-03    -297.275E-03     97.0843E-03    -300.212E-03     596.793E-03    -297.306E-03     77.0219E-03
            1866     2.00560E-03     52.1640E-03    -119.459E+06    -166.867E+06    -101.543E+06    -266.123E+03    -297.792E-03     595.031E-03    -297.239E-03     73.2130E-03    -298.991E-03     595.508E-03    -297.331E-03     58.2196E-03
            1867     1.33703E-03     52.0735E-03    -124.112E+06    -184.400E+06    -116.287E+06    -219.346E+03    -297.508E-03     594.719E-03    -297.211E-03     49.4561E-03    -298.154E-03     594.607E-03    -297.345E-03     39.3819E-03
            1868     668.670E-06     52.0170E-03    -126.096E+06    -197.338E+06    -125.157E+06    -264.026E+03    -296.860E-03     594.491E-03    -297.632E-03     26.9798E-03    -297.173E-03     594.020E-03    -297.789E-03     21.4637E-03
            1869     12.7038E-03     55.3316E-03    -5.01548E+06     62.5874E+06     73.4202E+06    -1.25875E+06    -297.644E-03     595.220E-03    -297.575E-03     158.690E-03    -305.384E-03     602.951E-03    -297.292E-03     116.656E-03
            1870     12.0346E-03     55.0357E-03    -9.66079E+06     59.4256E+06     67.8834E+06    -1.98423E+06    -298.459E-03     596.017E-03    -297.559E-03     217.716E-03    -310.554E-03     608.093E-03    -297.291E-03     163.803E-03
            1871     11.3661E-03     54.7234E-03    -13.9778E+06     52.5015E+06     65.2045E+06    -2.31968E+06    -299.028E-03     596.620E-03    -297.592E-03     236.320E-03    -312.827E-03     610.367E-03    -297.322E-03     179.241E-03
            1872     10.6931E-03     54.3707E-03    -19.6001E+06     47.3652E+06     66.3063E+06    -2.34493E+06    -300.229E-03     597.885E-03    -297.656E-03     257.023E-03    -316.152E-03     613.715E-03    -297.365E-03     195.717E-03
            1873     10.0274E-03     53.9924E-03    -25.8780E+06     38.9676E+06     63.4766E+06    -1.95827E+06    -301.971E-03     599.645E-03    -297.674E-03     267.559E-03    -318.878E-03     616.414E-03    -297.376E-03     204.286E-03
            1874     9.35953E-03     53.5943E-03    -31.1925E+06     31.7953E+06     60.1070E+06    -742.228E+03    -303.144E-03     600.791E-03    -297.647E-03     273.735E-03    -320.357E-03     617.831E-03    -297.347E-03     209.937E-03
            1875     8.69039E-03     53.1929E-03    -36.6186E+06     25.7356E+06     53.8453E+06    -81.6371E+03    -303.569E-03     601.166E-03    -297.596E-03     273.261E-03    -320.271E-03     617.673E-03    -297.311E-03     210.465E-03
            1876     8.02288E-03     52.7967E-03    -43.8997E+06     18.1823E+06     44.0653E+06     837.375E+03    -303.864E-03     601.391E-03    -297.527E-03     265.605E-03    -319.319E-03     616.627E-03    -297.270E-03     205.157E-03
            1877     7.35478E-03     52.4114E-03    -51.5054E+06     9.03834E+06     33.1005E+06     1.85765E+06    -303.565E-03     601.005E-03    -297.440E-03     251.984E-03    -317.247E-03     614.440E-03    -297.213E-03     195.159E-03
            1878     6.68661E-03     52.0527E-03    -58.6406E+06     523.362E+03     22.9224E+06     2.49926E+06    -302.691E-03     600.055E-03    -297.363E-03     234.207E-03    -314.308E-03     611.399E-03    -297.164E-03     182.060E-03
            1879     6.01822E-03     51.7223E-03    -66.5932E+06    -8.73024E+06     13.0621E+06     2.17227E+06    -301.668E-03     598.990E-03    -297.322E-03     213.708E-03    -311.203E-03     608.220E-03    -297.148E-03     166.747E-03
            1880     5.34894E-03     51.4244E-03    -75.7158E+06    -20.3101E+06    -433.695E+03     803.341E+03    -300.742E-03     598.037E-03    -297.295E-03     191.379E-03    -308.319E-03     605.275E-03    -297.158E-03     149.835E-03
            1881     4.68027E-03     51.1602E-03    -85.5664E+06    -44.2854E+06    -19.2553E+06    -280.904E+03    -300.066E-03     597.334E-03    -297.268E-03     168.264E-03    -305.880E-03     602.743E-03    -297.176E-03     132.193E-03
            1882     4.01179E-03     50.9295E-03    -95.2006E+06    -78.9470E+06    -40.8944E+06    -611.430E+03    -299.369E-03     596.609E-03    -297.240E-03     144.633E-03    -303.647E-03     600.388E-03    -297.192E-03     114.027E-03
            1883     3.34276E-03     50.7336E-03    -104.063E+06    -119.351E+06    -61.7837E+06    -522.781E+03    -298.707E-03     595.933E-03    -297.226E-03     120.661E-03    -301.694E-03     598.306E-03    -297.211E-03     95.4225E-03
            1884     2.67412E-03     50.5728E-03    -112.014E+06    -150.137E+06    -81.8642E+06    -327.502E+03    -298.198E-03     595.396E-03    -297.198E-03     96.7026E-03    -300.161E-03     596.666E-03    -297.228E-03     76.6577E-03
            1885     2.00554E-03     50.4468E-03    -118.786E+06    -166.888E+06    -101.163E+06    -92.4187E+03    -297.715E-03     594.864E-03    -297.149E-03     72.8477E-03    -298.907E-03     595.335E-03    -297.241E-03     57.8861E-03
            1886     1.33712E-03     50.3563E-03    -123.320E+06    -184.331E+06    -115.707E+06    -239.144E+03    -297.337E-03     594.481E-03    -297.144E-03     49.5018E-03    -297.980E-03     594.368E-03    -297.276E-03     39.4295E-03
            1887     668.464E-06     50.3002E-03    -126.839E+06    -197.978E+06    -124.514E+06    -318.025E+03    -296.984E-03     594.406E-03    -297.422E-03     26.8796E-03    -297.303E-03     593.933E-03    -297.573E-03     21.3085E-03
            1888     12.6994E-03     53.6113E-03    -3.69118E+06     64.3973E+06     73.8124E+06     1.58310E+03    -296.812E-03     594.487E-03    -297.675E-03     159.501E-03    -304.570E-03     602.247E-03    -297.394E-03     117.476E-03
            1889     12.0316E-03     53.3143E-03     -8.4283E+06     61.1524E+06     68.5380E+06    -459.499E+03    -298.432E-03     596.117E-03    -297.685E-03     216.856E-03    -310.517E-03     608.191E-03    -297.419E-03     162.900E-03
            1890     11.3615E-03     53.0069E-03    -13.6607E+06     54.5384E+06     64.4653E+06    -1.07492E+06    -299.739E-03     597.423E-03    -297.684E-03     234.078E-03    -313.483E-03     611.126E-03    -297.421E-03     176.833E-03
            1891     10.6967E-03     52.6502E-03    -18.7582E+06     46.4856E+06     64.8139E+06    -1.68792E+06    -301.327E-03     599.001E-03    -297.675E-03     254.718E-03    -317.174E-03     614.759E-03    -297.391E-03     193.181E-03
            1892     10.0279E-03     52.2706E-03    -23.6375E+06     36.7873E+06     63.1331E+06    -1.10451E+06    -302.380E-03     600.017E-03    -297.637E-03     267.096E-03    -319.250E-03     616.750E-03    -297.340E-03     203.783E-03
            1893     9.35947E-03     51.8765E-03    -29.8633E+06     31.1573E+06     59.6632E+06    -370.634E+03    -303.140E-03     600.730E-03    -297.590E-03     273.644E-03    -320.327E-03     617.748E-03    -297.293E-03     209.898E-03
            1894     8.69141E-03     51.4740E-03    -37.6806E+06     24.1836E+06     51.9172E+06     4.56162E+03    -303.862E-03     601.380E-03    -297.518E-03     272.785E-03    -320.554E-03     617.873E-03    -297.239E-03     209.915E-03
            1895     8.02345E-03     51.0751E-03    -45.2616E+06     16.2869E+06     42.5252E+06     278.508E+03    -303.964E-03     601.389E-03    -297.424E-03     265.533E-03    -319.422E-03     616.621E-03    -297.170E-03     205.045E-03
            1896     7.35581E-03     50.6938E-03    -52.2118E+06     7.58314E+06     31.8392E+06         7.78906    -303.287E-03     600.628E-03    -297.341E-03     252.607E-03    -316.965E-03     614.055E-03    -297.118E-03     195.882E-03
            1897     6.68683E-03     50.3349E-03    -59.1480E+06    -178.500E+03     22.6785E+06    -215.828E+03    -302.439E-03     599.738E-03    -297.299E-03     234.845E-03    -314.056E-03     611.079E-03    -297.100E-03     182.780E-03
            1898     6.01779E-03     50.0046E-03    -66.5826E+06    -8.53622E+06     14.5849E+06     71.7531E+03    -301.586E-03     598.870E-03    -297.284E-03     213.809E-03    -311.111E-03     608.086E-03    -297.102E-03     166.901E-03
            1899     5.34933E-03     49.7076E-03    -75.0068E+06    -19.3755E+06     1.47035E+06     631.421E+03    -300.827E-03     598.079E-03    -297.252E-03     191.208E-03    -308.393E-03     605.306E-03    -297.108E-03     149.678E-03
            1900     4.68056E-03     49.4422E-03    -84.3468E+06    -42.4633E+06    -17.4096E+06     1.10571E+06    -300.142E-03     597.342E-03    -297.200E-03     167.754E-03    -305.937E-03     602.737E-03    -297.103E-03     131.746E-03
            1901     4.01183E-03     49.2125E-03    -94.1205E+06    -77.7433E+06    -39.7036E+06     716.201E+03    -299.409E-03     596.549E-03    -297.140E-03     143.968E-03    -303.667E-03     600.312E-03    -297.090E-03     113.424E-03
            1902     3.34347E-03     49.0167E-03    -103.437E+06    -119.298E+06    -61.5480E+06     217.312E+03    -298.738E-03     595.825E-03    -297.087E-03     120.185E-03    -301.718E-03     598.193E-03    -297.072E-03     94.9504E-03
            1903     2.67496E-03     48.8559E-03    -111.734E+06    -150.302E+06    -82.1013E+06     50.2601E+03    -298.077E-03     595.106E-03    -297.029E-03     96.3396E-03    -300.032E-03     596.369E-03    -297.059E-03     76.3309E-03
            1904     2.00630E-03     48.7304E-03    -118.438E+06    -166.492E+06    -100.845E+06    -28.5415E+03    -297.515E-03     594.491E-03    -296.976E-03     72.6983E-03    -298.706E-03     594.963E-03    -297.067E-03     57.7332E-03
            1905     1.33721E-03     48.6400E-03    -123.999E+06    -184.338E+06    -115.521E+06     193.597E+03    -297.176E-03     594.142E-03    -296.967E-03     49.1868E-03    -297.823E-03     594.030E-03    -297.097E-03     39.1002E-03
            1906     668.348E-06     48.5835E-03    -127.954E+06    -198.363E+06    -125.152E+06     368.672E+03    -297.495E-03     594.021E-03    -296.526E-03     26.7477E-03    -297.816E-03     593.547E-03    -296.678E-03     21.2174E-03
            1907     12.7011E-03     51.8909E-03    -3.61286E+06     64.2392E+06     75.3028E+06    -100.983E+03    -296.974E-03     594.694E-03    -297.720E-03     157.666E-03    -304.686E-03     602.403E-03    -297.432E-03     115.684E-03
            1908     12.0312E-03     51.5981E-03    -7.57632E+06     62.0080E+06     69.8251E+06     328.136E+03    -298.821E-03     596.520E-03    -297.699E-03     214.215E-03    -310.824E-03     608.514E-03    -297.429E-03     160.206E-03
            1909     11.3654E-03     51.2833E-03    -12.0382E+06     55.9155E+06     65.1410E+06     288.536E+03    -300.260E-03     597.912E-03    -297.652E-03     232.687E-03    -313.939E-03     611.558E-03    -297.390E-03     175.420E-03
            1910     10.6959E-03     50.9302E-03    -17.5013E+06     48.1996E+06     65.2872E+06     336.590E+03    -301.370E-03     598.990E-03    -297.620E-03     254.932E-03    -317.201E-03     614.741E-03    -297.338E-03     193.459E-03
            1911     10.0279E-03     50.5517E-03    -24.9316E+06     37.0308E+06     61.7269E+06     448.894E+03    -302.306E-03     599.882E-03    -297.577E-03     266.702E-03    -319.151E-03     616.592E-03    -297.286E-03     203.465E-03
            1912     9.35990E-03     50.1562E-03    -32.4534E+06     31.2799E+06     56.9007E+06     204.537E+03    -303.307E-03     600.819E-03    -297.512E-03     273.190E-03    -320.501E-03     617.844E-03    -297.226E-03     209.352E-03
            1913     8.69264E-03     49.7535E-03    -38.9744E+06     24.6675E+06     49.7051E+06    -51.2737E+03    -303.811E-03     601.239E-03    -297.428E-03     272.953E-03    -320.498E-03     617.732E-03    -297.159E-03     210.114E-03
            1914     8.02461E-03     49.3576E-03    -45.3112E+06     16.5919E+06     41.5524E+06    -775.793E+03    -303.526E-03     600.886E-03    -297.360E-03     265.728E-03    -318.951E-03     616.088E-03    -297.110E-03     205.418E-03
            1915     7.35503E-03     48.9754E-03    -52.3198E+06     8.74125E+06     32.6094E+06    -1.31841E+06    -303.103E-03     600.413E-03    -297.311E-03     252.520E-03    -316.769E-03     613.831E-03    -297.084E-03     195.839E-03
            1916     6.68676E-03     48.6170E-03    -60.3084E+06    -368.937E+03     21.8354E+06    -1.90309E+06    -302.532E-03     599.791E-03    -297.259E-03     234.279E-03    -314.134E-03     611.115E-03    -297.062E-03     182.185E-03
            1917     6.01841E-03     48.2877E-03    -69.1979E+06    -11.1240E+06     11.0197E+06    -2.29151E+06    -301.783E-03     598.987E-03    -297.205E-03     213.090E-03    -311.287E-03     608.175E-03    -297.033E-03     166.142E-03
            1918     5.34964E-03     47.9895E-03    -78.6416E+06    -22.8800E+06    -1.97519E+06    -1.96935E+06    -300.973E-03     598.106E-03    -297.133E-03     190.515E-03    -308.528E-03     605.307E-03    -296.996E-03     148.950E-03
            1919     4.68136E-03     47.7252E-03    -87.9669E+06    -44.7830E+06    -20.1446E+06    -988.777E+03    -300.068E-03     597.119E-03    -297.051E-03     167.122E-03    -305.855E-03     602.493E-03    -296.959E-03     131.136E-03
            1920     4.01286E-03     47.4956E-03    -96.4464E+06    -77.9419E+06    -41.5355E+06    -160.555E+03    -299.232E-03     596.211E-03    -296.979E-03     143.687E-03    -303.488E-03     599.969E-03    -296.934E-03     113.183E-03
            1921     3.34412E-03     47.2999E-03    -104.683E+06    -118.813E+06    -62.2333E+06     72.6078E+03    -298.528E-03     595.463E-03    -296.935E-03     120.340E-03    -301.515E-03     597.837E-03    -296.922E-03     95.1196E-03
            1922     2.67527E-03     47.1401E-03    -112.640E+06    -149.649E+06    -82.0973E+06     448.220E+03    -297.963E-03     594.847E-03    -296.884E-03     96.6225E-03    -299.926E-03     596.117E-03    -296.914E-03     76.6383E-03
            1923     2.00621E-03     47.0146E-03    -120.056E+06    -166.766E+06    -101.716E+06     535.286E+03    -297.529E-03     594.325E-03    -296.796E-03     72.7453E-03    -298.724E-03     594.796E-03    -296.888E-03     57.8315E-03
            1924     1.33785E-03     46.9238E-03    -124.981E+06    -184.513E+06    -116.686E+06     419.068E+03    -297.154E-03     593.843E-03    -296.689E-03     49.1209E-03    -297.801E-03     593.730E-03    -296.824E-03     39.0882E-03
            1925     669.379E-06     46.8680E-03    -126.443E+06    -196.849E+06    -125.924E+06     155.544E+03    -296.725E-03     593.355E-03    -296.630E-03     27.3422E-03    -297.039E-03     592.887E-03    -296.791E-03     21.8666E-03
            1926     12.7002E-03     50.1765E-03    -4.74986E+06     63.6449E+06     73.5431E+06    -2.79592E+03    -297.697E-03     595.375E-03    -297.678E-03     158.361E-03    -305.425E-03     603.099E-03    -297.396E-03     116.254E-03
            1927     12.0339E-03     49.8725E-03    -9.15942E+06     61.2485E+06     67.8758E+06     91.4699E+03    -299.313E-03     596.939E-03    -297.627E-03     214.971E-03    -311.314E-03     608.929E-03    -297.363E-03     160.970E-03
            1928     11.3643E-03     49.5675E-03    -14.2379E+06     54.8245E+06     64.1180E+06     770.014E+03    -300.107E-03     597.685E-03    -297.578E-03     232.661E-03    -313.765E-03     611.301E-03    -297.316E-03     175.518E-03
            1929     10.6964E-03     49.2082E-03    -20.3638E+06     48.5942E+06     64.0917E+06     1.54609E+06    -301.107E-03     598.657E-03    -297.550E-03     254.101E-03    -316.892E-03     614.356E-03    -297.270E-03     192.768E-03
            1930     10.0293E-03     48.8321E-03    -25.9560E+06     39.3590E+06     61.2920E+06     1.47362E+06    -302.299E-03     599.802E-03    -297.503E-03     266.279E-03    -319.127E-03     616.500E-03    -297.216E-03     203.070E-03
            1931     9.36148E-03     48.4369E-03    -31.4030E+06     32.4768E+06     57.7020E+06     186.066E+03    -303.175E-03     600.619E-03    -297.445E-03     273.445E-03    -320.343E-03     617.624E-03    -297.158E-03     209.711E-03
            1932     8.69257E-03     48.0345E-03    -36.9362E+06     25.6131E+06     51.9341E+06    -895.469E+03    -303.433E-03     600.821E-03    -297.387E-03     272.959E-03    -320.082E-03     617.279E-03    -297.111E-03     210.265E-03
            1933     8.02360E-03     47.6391E-03    -43.5205E+06     17.6423E+06     43.9568E+06    -600.846E+03    -303.572E-03     600.901E-03    -297.329E-03     265.307E-03    -318.974E-03     616.083E-03    -297.071E-03     205.012E-03
            1934     7.35613E-03     47.2575E-03    -51.3021E+06     10.0404E+06     34.7721E+06    -599.624E+03    -303.327E-03     600.581E-03    -297.254E-03     251.633E-03    -316.960E-03     613.966E-03    -297.020E-03     194.945E-03
            1935     6.68760E-03     46.8991E-03    -59.5683E+06     45.7548E+03     23.5103E+06    -960.785E+03    -302.671E-03     599.835E-03    -297.165E-03     233.395E-03    -314.236E-03     611.121E-03    -296.961E-03     181.324E-03
            1936     6.01915E-03     46.5699E-03    -68.4574E+06    -11.0725E+06     11.2986E+06    -957.349E+03    -301.862E-03     598.933E-03    -297.070E-03     212.578E-03    -311.347E-03     608.102E-03    -296.898E-03     165.649E-03
            1937     5.35116E-03     46.2722E-03    -77.8662E+06    -22.9247E+06    -2.76627E+06    -1.16630E+06    -300.823E-03     597.801E-03    -296.978E-03     190.290E-03    -308.359E-03     604.987E-03    -296.846E-03     148.815E-03
            1938     4.68231E-03     46.0089E-03    -87.6034E+06    -46.5406E+06    -21.4871E+06    -1.42465E+06    -299.797E-03     596.705E-03    -296.907E-03     167.363E-03    -305.576E-03     602.069E-03    -296.820E-03     131.434E-03
            1939     4.01330E-03     45.7792E-03    -97.1382E+06    -80.0918E+06    -43.0729E+06    -1.01623E+06    -299.011E-03     595.873E-03    -296.862E-03     144.119E-03    -303.271E-03     599.629E-03    -296.821E-03     113.641E-03
            1940     3.34417E-03     45.5847E-03    -106.053E+06    -120.157E+06    -64.0122E+06    -623.369E+03    -298.465E-03     595.291E-03    -296.827E-03     120.360E-03    -301.447E-03     597.656E-03    -296.819E-03     95.1946E-03
            1941     2.67520E-03     45.4238E-03    -113.995E+06    -151.049E+06    -83.5059E+06    -416.636E+03    -298.033E-03     594.779E-03    -296.746E-03     96.2978E-03    -299.993E-03     596.041E-03    -296.780E-03     76.3185E-03
            1942     2.00699E-03     45.2985E-03    -119.889E+06    -166.451E+06    -101.777E+06    -32.8146E+03    -297.503E-03     594.105E-03    -296.601E-03     72.2882E-03    -298.690E-03     594.570E-03    -296.695E-03     57.4146E-03
            1943     1.33793E-03     45.2086E-03    -124.347E+06    -183.489E+06    -116.867E+06    -188.470E+03    -296.950E-03     593.403E-03    -296.453E-03     48.8362E-03    -297.591E-03     593.291E-03    -296.591E-03     38.8272E-03
            1944     668.682E-06     45.1531E-03    -127.904E+06    -196.965E+06    -125.075E+06    -266.588E+03    -296.149E-03     592.859E-03    -296.710E-03     26.3854E-03    -296.470E-03     592.391E-03    -296.864E-03     20.9021E-03
            1945     12.7019E-03     48.4506E-03    -3.91646E+06     64.3862E+06     75.0033E+06     892.710E+03    -298.309E-03     595.920E-03    -297.611E-03     156.844E-03    -305.953E-03     603.561E-03    -297.324E-03     114.902E-03
            1946     12.0327E-03     48.1564E-03    -8.90623E+06     60.8459E+06     68.8984E+06     1.70927E+06    -298.863E-03     596.410E-03    -297.547E-03     213.402E-03    -310.771E-03     608.302E-03    -297.277E-03     159.685E-03
            1947     11.3662E-03     47.8435E-03    -13.8673E+06     52.5073E+06     64.5160E+06     2.43462E+06    -299.791E-03     597.302E-03    -297.511E-03     232.377E-03    -313.414E-03     610.876E-03    -297.245E-03     175.384E-03
            1948     10.6990E-03     47.4919E-03    -17.3131E+06     49.0588E+06     66.4956E+06     2.79834E+06    -301.221E-03     598.715E-03    -297.493E-03     254.902E-03    -316.989E-03     614.402E-03    -297.207E-03     193.676E-03
            1949     10.0291E-03     47.1121E-03    -21.9330E+06     41.8820E+06     65.1836E+06     1.84158E+06    -302.262E-03     599.717E-03    -297.455E-03     266.751E-03    -319.054E-03     616.391E-03    -297.158E-03     203.667E-03
            1950     9.36095E-03     46.7166E-03    -27.2569E+06     34.9136E+06     62.3147E+06     819.071E+03    -303.022E-03     600.429E-03    -297.407E-03     272.976E-03    -320.132E-03     617.386E-03    -297.106E-03     209.373E-03
            1951     8.69293E-03     46.3175E-03    -34.0678E+06     27.6507E+06     55.4305E+06     811.422E+03    -303.557E-03     600.895E-03    -297.338E-03     272.129E-03    -320.158E-03     617.312E-03    -297.052E-03     209.479E-03
            1952     8.02520E-03     45.9197E-03    -42.1912E+06     18.4592E+06     45.2349E+06     348.948E+03    -303.730E-03     600.976E-03    -297.245E-03     264.487E-03    -319.092E-03     616.122E-03    -296.985E-03     204.197E-03
            1953     7.35671E-03     45.5391E-03    -49.8214E+06     10.2658E+06     35.9579E+06     273.568E+03    -303.379E-03     600.524E-03    -297.146E-03     251.065E-03    -316.967E-03     613.868E-03    -296.908E-03     194.459E-03
            1954     6.68866E-03     45.1814E-03    -57.9124E+06     566.699E+03     25.0797E+06     586.433E+03    -302.646E-03     599.690E-03    -297.044E-03     233.364E-03    -314.191E-03     610.958E-03    -296.835E-03     181.376E-03
            1955     6.02043E-03     44.8524E-03    -66.5345E+06    -9.94865E+06     13.2360E+06     592.062E+03    -301.629E-03     598.585E-03    -296.956E-03     212.801E-03    -311.106E-03     607.751E-03    -296.778E-03     165.971E-03
            1956     5.35125E-03     44.5558E-03    -75.9711E+06    -21.5600E+06    -920.118E+03     754.462E+03    -300.580E-03     597.465E-03    -296.884E-03     190.525E-03    -308.106E-03     604.646E-03    -296.747E-03     149.165E-03
            1957     4.68223E-03     44.2930E-03    -85.8983E+06    -45.6897E+06    -20.0541E+06     471.726E+03    -299.775E-03     596.596E-03    -296.821E-03     167.269E-03    -305.540E-03     601.953E-03    -296.731E-03     131.400E-03
            1958     4.01318E-03     44.0637E-03    -95.5993E+06    -80.3653E+06    -41.8649E+06     76.1983E+03    -299.176E-03     595.921E-03    -296.745E-03     143.439E-03    -303.415E-03     599.657E-03    -296.699E-03     112.990E-03
            1959     3.34461E-03     43.8683E-03    -104.377E+06    -120.300E+06    -63.0675E+06     95.8644E+03    -298.598E-03     595.240E-03    -296.642E-03     119.445E-03    -301.554E-03     597.582E-03    -296.632E-03     94.3261E-03
            1960     2.67641E-03     43.7080E-03    -112.190E+06    -150.993E+06    -83.0463E+06    -493.217E+03    -297.885E-03     594.391E-03    -296.506E-03     95.6516E-03    -299.826E-03     595.638E-03    -296.539E-03     75.7123E-03
            1961     2.00719E-03     43.5834E-03    -119.305E+06    -166.909E+06    -101.758E+06    -758.099E+03    -297.214E-03     593.563E-03    -296.349E-03     71.9531E-03    -298.395E-03     594.023E-03    -296.443E-03     57.0690E-03
            1962     1.33846E-03     43.4941E-03    -124.724E+06    -183.859E+06    -116.736E+06    -130.030E+03    -296.706E-03     592.906E-03    -296.201E-03     48.3966E-03    -297.346E-03     592.790E-03    -296.337E-03     38.4142E-03
            1963     669.648E-06     43.4394E-03    -127.358E+06    -197.336E+06    -125.874E+06     114.559E+03    -296.144E-03     592.333E-03    -296.188E-03     26.2512E-03    -296.458E-03     591.862E-03    -296.347E-03     20.8059E-03
            1964     12.7041E-03     46.7355E-03    -3.49361E+06     61.7334E+06     77.2811E+06     621.379E+03    -298.579E-03     596.148E-03    -297.569E-03     156.933E-03    -306.268E-03     603.820E-03    -297.267E-03     114.931E-03
            1965     12.0369E-03     46.4348E-03    -7.18160E+06     58.5164E+06     72.2509E+06     1.95840E+06    -298.597E-03     596.110E-03    -297.513E-03     215.591E-03    -310.590E-03     608.076E-03    -297.226E-03     161.828E-03
            1966     11.3665E-03     46.1294E-03    -10.5877E+06     52.6433E+06     68.7566E+06     2.59619E+06    -299.950E-03     597.441E-03    -297.491E-03     233.691E-03    -313.553E-03     610.995E-03    -297.209E-03     176.815E-03
            1967     10.6960E-03     45.7682E-03    -15.3191E+06     49.3106E+06     69.9993E+06     1.82447E+06    -301.371E-03     598.839E-03    -297.468E-03     254.720E-03    -317.092E-03     614.478E-03    -297.167E-03     193.547E-03
            1968     10.0305E-03     45.3930E-03    -20.5339E+06     44.1190E+06     68.7279E+06     1.34863E+06    -302.304E-03     599.720E-03    -297.416E-03     266.005E-03    -319.056E-03     616.356E-03    -297.107E-03     202.967E-03
            1969     9.36212E-03     44.9990E-03    -27.1113E+06     36.4054E+06     64.2685E+06     1.63311E+06    -303.184E-03     600.529E-03    -297.346E-03     272.448E-03    -320.267E-03     617.459E-03    -297.038E-03     208.868E-03
            1970     8.69409E-03     44.5970E-03    -34.4932E+06     28.3295E+06     55.8388E+06     1.53621E+06    -303.809E-03     601.055E-03    -297.246E-03     271.784E-03    -320.383E-03     617.445E-03    -296.957E-03     209.148E-03
            1971     8.02597E-03     44.2020E-03    -41.2565E+06     20.0892E+06     46.0963E+06     1.25932E+06    -303.696E-03     600.830E-03    -297.135E-03     264.293E-03    -319.020E-03     615.946E-03    -296.873E-03     204.126E-03
            1972     7.35778E-03     43.8210E-03    -49.0212E+06     10.4077E+06     36.1792E+06     1.29746E+06    -303.135E-03     600.176E-03    -297.041E-03     251.130E-03    -316.694E-03     613.493E-03    -296.804E-03     194.672E-03
            1973     6.68921E-03     43.4638E-03    -57.4529E+06     987.520E+03     25.1401E+06     1.36670E+06    -302.426E-03     599.381E-03    -296.956E-03     233.483E-03    -313.964E-03     610.646E-03    -296.748E-03     181.574E-03
            1974     6.02018E-03     43.1357E-03    -66.5114E+06    -9.24558E+06     13.3449E+06     1.47657E+06    -301.541E-03     598.417E-03    -296.876E-03     212.514E-03    -310.998E-03     607.566E-03    -296.699E-03     165.772E-03
            1975     5.35153E-03     42.8398E-03    -76.0445E+06    -21.0717E+06    -436.881E+03     1.33657E+06    -300.730E-03     597.516E-03    -296.786E-03     189.755E-03    -308.230E-03     604.672E-03    -296.647E-03     148.421E-03
            1976     4.68289E-03     42.5765E-03    -85.4389E+06    -44.5367E+06    -19.2398E+06     980.074E+03    -300.059E-03     596.722E-03    -296.663E-03     166.209E-03    -305.800E-03     602.057E-03    -296.570E-03     130.349E-03
            1977     4.01478E-03     42.3475E-03    -94.5454E+06    -79.1571E+06    -40.7499E+06     724.738E+03    -299.286E-03     595.798E-03    -296.513E-03     142.614E-03    -303.502E-03     599.516E-03    -296.464E-03     112.201E-03
            1978     3.34628E-03     42.1527E-03    -103.131E+06    -119.299E+06    -61.3074E+06     566.073E+03    -298.379E-03     594.750E-03    -296.370E-03     119.111E-03    -301.327E-03     597.085E-03    -296.354E-03     94.0300E-03
            1979     2.67688E-03     41.9937E-03    -111.371E+06    -149.764E+06    -81.1179E+06     859.560E+03    -297.514E-03     593.753E-03    -296.238E-03     95.4367E-03    -299.449E-03     594.996E-03    -296.265E-03     75.5813E-03
            1980     2.00798E-03     41.8693E-03    -118.655E+06    -166.419E+06    -100.761E+06     880.353E+03    -296.819E-03     592.936E-03    -296.116E-03     71.8573E-03    -297.996E-03     593.392E-03    -296.207E-03     57.0518E-03
            1981     1.33868E-03     41.7802E-03    -123.817E+06    -183.900E+06    -116.231E+06     247.313E+03    -296.375E-03     592.410E-03    -296.035E-03     48.4614E-03    -297.010E-03     592.290E-03    -296.170E-03     38.5202E-03
            1982     669.156E-06     41.7268E-03    -126.935E+06    -196.987E+06    -124.823E+06     195.667E+03    -295.949E-03     592.092E-03    -296.143E-03     26.1981E-03    -296.262E-03     591.621E-03    -296.297E-03     20.7760E-03
            1983     12.7022E-03     45.0121E-03    -3.93725E+06     60.4996E+06     74.1007E+06    -99.8119E+03    -298.079E-03     595.698E-03    -297.619E-03     158.113E-03    -305.827E-03     603.431E-03    -297.330E-03     115.909E-03
            1984     12.0318E-03     44.7187E-03    -8.35879E+06     56.9531E+06     71.0737E+06    -750.867E+03    -299.711E-03     597.275E-03    -297.564E-03     216.637E-03    -311.762E-03     609.292E-03    -297.279E-03     162.523E-03
            1985     11.3654E-03     44.4043E-03    -12.7913E+06     50.7977E+06     68.7534E+06    -986.257E+03    -300.881E-03     598.372E-03    -297.491E-03     233.492E-03    -314.523E-03     611.950E-03    -297.203E-03     176.260E-03
            1986     10.7010E-03     44.0523E-03    -17.0542E+06     48.3217E+06     70.1192E+06    -45.7651E+03    -301.529E-03     598.956E-03    -297.427E-03     254.415E-03    -317.264E-03     614.598E-03    -297.121E-03     193.145E-03
            1987     10.0300E-03     43.6725E-03    -22.3078E+06     43.7697E+06     68.0418E+06     634.525E+03    -302.345E-03     599.704E-03    -297.360E-03     266.288E-03    -319.099E-03     616.337E-03    -297.051E-03     203.257E-03
            1988     9.36268E-03     43.2791E-03    -28.5125E+06     35.6747E+06     62.9055E+06     837.106E+03    -303.516E-03     600.787E-03    -297.271E-03     272.627E-03    -320.595E-03     617.709E-03    -296.967E-03     208.996E-03
            1989     8.69478E-03     42.8783E-03    -34.6029E+06     27.9805E+06     55.4783E+06     1.18602E+06    -303.783E-03     600.943E-03    -297.160E-03     271.619E-03    -320.321E-03     617.296E-03    -296.873E-03     209.091E-03
            1990     8.02674E-03     42.4832E-03    -42.0869E+06     20.2817E+06     45.9721E+06     1.72369E+06    -303.442E-03     600.500E-03    -297.058E-03     264.208E-03    -318.734E-03     615.581E-03    -296.796E-03     204.209E-03
            1991     7.35816E-03     42.1042E-03    -49.9539E+06     10.8767E+06     36.2132E+06     1.64873E+06    -303.098E-03     600.071E-03    -296.973E-03     251.336E-03    -316.663E-03     613.392E-03    -296.736E-03     194.900E-03
            1992     6.68933E-03     41.7467E-03    -58.0894E+06     1.49131E+06     25.3493E+06     1.69184E+06    -302.568E-03     599.442E-03    -296.875E-03     232.979E-03    -314.084E-03     610.684E-03    -296.666E-03     181.101E-03
            1993     6.02113E-03     41.4191E-03    -66.7633E+06    -8.64277E+06     13.6241E+06     1.74280E+06    -301.831E-03     598.582E-03    -296.751E-03     211.458E-03    -311.246E-03     607.690E-03    -296.573E-03     164.748E-03
            1994     5.35277E-03     41.1230E-03    -75.5832E+06    -20.0814E+06    -190.535E+03     1.33739E+06    -300.954E-03     597.552E-03    -296.598E-03     188.929E-03    -308.424E-03     604.683E-03    -296.460E-03     147.620E-03
            1995     4.68462E-03     40.8602E-03    -85.0452E+06    -43.3460E+06    -19.0733E+06     1.36963E+06    -299.997E-03     596.427E-03    -296.430E-03     165.955E-03    -305.719E-03     601.748E-03    -296.339E-03     130.174E-03
            1996     4.01569E-03     40.6320E-03    -94.7524E+06    -77.8128E+06    -40.7592E+06     1.08692E+06    -299.018E-03     595.288E-03    -296.271E-03     142.623E-03    -303.228E-03     599.004E-03    -296.224E-03     112.303E-03
            1997     3.34642E-03     40.4386E-03    -103.755E+06    -118.635E+06    -61.5583E+06     846.954E+03    -298.069E-03     594.210E-03    -296.141E-03     119.032E-03    -301.012E-03     596.542E-03    -296.126E-03     94.0324E-03
            1998     2.67768E-03     40.2798E-03    -111.606E+06    -149.743E+06    -81.2479E+06     838.802E+03    -297.226E-03     593.254E-03    -296.027E-03     95.3333E-03    -299.159E-03     594.494E-03    -296.055E-03     75.5269E-03
            1999     2.00817E-03     40.1564E-03    -117.885E+06    -165.218E+06    -99.6759E+06     893.326E+03    -296.524E-03     592.460E-03    -295.936E-03     71.7097E-03    -297.696E-03     592.916E-03    -296.024E-03     56.9615E-03
            2000     1.33855E-03     40.0677E-03    -122.819E+06    -182.151E+06    -114.559E+06     922.910E+03    -296.089E-03     592.003E-03    -295.914E-03     48.2259E-03    -296.723E-03     591.886E-03    -296.044E-03     38.3212E-03
            2001     669.334E-06     40.0133E-03    -125.525E+06    -195.746E+06    -124.100E+06     547.275E+03    -296.246E-03     591.916E-03    -295.670E-03     25.7704E-03    -296.553E-03     591.446E-03    -295.824E-03     20.4071E-03
            2002     12.6988E-03     43.2909E-03    -3.96821E+06     60.4296E+06     74.7994E+06     9.57261E+03    -298.313E-03     595.999E-03    -297.686E-03     157.310E-03    -306.007E-03     603.677E-03    -297.394E-03     115.105E-03
            2003     12.0349E-03     42.9942E-03    -7.52025E+06     59.9168E+06     71.1784E+06    -967.971E+03    -300.623E-03     598.205E-03    -297.583E-03     214.524E-03    -312.606E-03     610.168E-03    -297.303E-03     160.253E-03
            2004     11.3678E-03     42.6845E-03    -11.6667E+06     51.4434E+06     67.5963E+06    -1.41197E+06    -300.881E-03     598.354E-03    -297.472E-03     233.003E-03    -314.517E-03     611.934E-03    -297.192E-03     175.735E-03
            2005     10.6967E-03     42.3296E-03    -17.6812E+06     45.8488E+06     67.2931E+06    -587.142E+03    -301.650E-03     599.051E-03    -297.401E-03     254.883E-03    -317.418E-03     614.724E-03    -297.105E-03     193.505E-03
            2006     10.0315E-03     41.9545E-03    -23.6158E+06     42.2674E+06     64.8611E+06    -395.821E+03    -302.908E-03     600.217E-03    -297.309E-03     266.478E-03    -319.668E-03     616.855E-03    -297.012E-03     203.298E-03
            2007     9.36303E-03     41.5583E-03    -29.3545E+06     34.1678E+06     60.7314E+06     9.68004E+03    -303.484E-03     600.688E-03    -297.204E-03     272.085E-03    -320.505E-03     617.550E-03    -296.907E-03     208.569E-03
            2008     8.69561E-03     41.1591E-03    -36.6339E+06     26.2420E+06     53.2247E+06     673.891E+03    -303.448E-03     600.550E-03    -297.102E-03     271.393E-03    -319.959E-03     616.870E-03    -296.821E-03     208.983E-03
            2009     8.02682E-03     40.7668E-03    -43.8910E+06     19.6821E+06     44.1914E+06     959.620E+03    -303.546E-03     600.550E-03    -297.004E-03     264.271E-03    -318.844E-03     615.634E-03    -296.748E-03     204.226E-03
            2010     7.35815E-03     40.3858E-03    -51.1718E+06     11.1613E+06     35.1534E+06     872.029E+03    -303.503E-03     600.390E-03    -296.888E-03     250.626E-03    -317.044E-03     613.688E-03    -296.654E-03     194.128E-03
            2011     6.69054E-03     40.0291E-03    -58.8280E+06     1.54276E+06     24.8424E+06     797.498E+03    -302.849E-03     599.588E-03    -296.738E-03     231.996E-03    -314.314E-03     610.777E-03    -296.531E-03     180.161E-03
            2012     6.02238E-03     39.7018E-03    -66.9816E+06    -8.87960E+06     13.2940E+06     739.729E+03    -301.900E-03     598.473E-03    -296.573E-03     211.133E-03    -311.287E-03     607.553E-03    -296.397E-03     164.482E-03
            2013     5.35422E-03     39.4065E-03    -76.2739E+06    -20.6945E+06    -763.249E+03     1.27291E+06    -300.852E-03     597.253E-03    -296.401E-03     188.932E-03    -308.313E-03     604.371E-03    -296.264E-03     147.696E-03
            2014     4.68506E-03     39.1452E-03    -85.8791E+06    -42.7278E+06    -19.5355E+06     1.58721E+06    -299.763E-03     595.993E-03    -296.230E-03     165.779E-03    -305.473E-03     601.303E-03    -296.141E-03     130.105E-03
            2015     4.01619E-03     38.9171E-03    -94.7056E+06    -75.7911E+06    -40.7454E+06     1.26370E+06    -298.740E-03     594.816E-03    -296.077E-03     142.179E-03    -302.936E-03     598.526E-03    -296.033E-03     111.950E-03
            2016     3.34751E-03     38.7250E-03    -103.289E+06    -117.678E+06    -61.8796E+06     787.590E+03    -297.820E-03     593.774E-03    -295.954E-03     118.539E-03    -300.751E-03     596.100E-03    -295.943E-03     93.6034E-03
            2017     2.67786E-03     38.5668E-03    -111.057E+06    -149.514E+06    -81.6494E+06     534.431E+03    -297.003E-03     592.852E-03    -295.849E-03     95.0031E-03    -298.926E-03     594.087E-03    -295.880E-03     75.2389E-03
            2018     2.00852E-03     38.4442E-03    -117.422E+06    -164.715E+06    -100.008E+06     553.325E+03    -296.432E-03     592.177E-03    -295.745E-03     71.4432E-03    -297.598E-03     592.631E-03    -295.836E-03     56.7204E-03
            2019     1.33927E-03     38.3551E-03    -122.301E+06    -180.594E+06    -114.554E+06     494.920E+03    -296.012E-03     591.673E-03    -295.661E-03     47.9414E-03    -296.641E-03     591.560E-03    -295.795E-03     38.0643E-03
            2020     669.494E-06     38.3015E-03    -125.969E+06    -193.975E+06    -123.673E+06     352.593E+03    -295.771E-03     591.326E-03    -295.555E-03     26.2317E-03    -296.085E-03     590.864E-03    -295.709E-03     20.8565E-03
            2021     12.7025E-03     41.5675E-03    -3.85699E+06     61.5228E+06     76.8866E+06    -1.32382E+06    -298.729E-03     596.392E-03    -297.664E-03     157.059E-03    -306.382E-03     604.027E-03    -297.363E-03     115.034E-03
            2022     12.0333E-03     41.2701E-03    -7.94439E+06     59.5096E+06     71.1974E+06    -1.23262E+06    -299.732E-03     597.301E-03    -297.569E-03     214.918E-03    -311.707E-03     609.253E-03    -297.288E-03     160.849E-03
            2023     11.3653E-03     40.9639E-03    -13.0260E+06     50.2646E+06     65.4189E+06    -139.406E+03    -300.949E-03     598.424E-03    -297.475E-03     233.027E-03    -314.591E-03     612.008E-03    -297.202E-03     175.723E-03
            2024     10.7001E-03     40.6114E-03    -18.1065E+06     45.1319E+06     65.2537E+06    -642.646E+03    -302.267E-03     599.643E-03    -297.376E-03     254.031E-03    -318.000E-03     615.282E-03    -297.089E-03     192.519E-03
            2025     10.0307E-03     40.2308E-03    -23.9891E+06     41.1636E+06     63.2989E+06    -274.204E+03    -302.884E-03     600.142E-03    -297.258E-03     265.600E-03    -319.600E-03     616.735E-03    -296.967E-03     202.452E-03
            2026     9.36454E-03     39.8398E-03    -30.8695E+06     34.0154E+06     59.2588E+06     713.537E+03    -303.090E-03     600.252E-03    -297.162E-03     272.018E-03    -320.097E-03     617.098E-03    -296.870E-03     208.628E-03
            2027     8.69501E-03     39.4421E-03    -37.4456E+06     26.4053E+06     52.2745E+06     59.9785E+03    -303.612E-03     600.679E-03    -297.067E-03     271.366E-03    -320.112E-03     616.988E-03    -296.789E-03     208.933E-03
            2028     8.02693E-03     39.0474E-03    -43.8158E+06     18.8831E+06     43.6156E+06    -356.314E+03    -304.152E-03     601.084E-03    -296.931E-03     263.612E-03    -319.413E-03     616.129E-03    -296.677E-03     203.465E-03
            2029     7.36008E-03     38.6673E-03    -51.0726E+06     10.9984E+06     34.7039E+06     239.485E+03    -303.760E-03     600.522E-03    -296.762E-03     249.899E-03    -317.249E-03     613.768E-03    -296.530E-03     193.460E-03
            2030     6.69181E-03     38.3120E-03    -59.1841E+06     938.185E+03     23.3451E+06     259.302E+03    -302.821E-03     599.403E-03    -296.582E-03     231.896E-03    -314.258E-03     610.566E-03    -296.381E-03     180.147E-03
            2031     6.02335E-03     37.9853E-03    -67.7831E+06    -10.0100E+06     11.2080E+06     434.916E+03    -301.841E-03     598.247E-03    -296.406E-03     211.006E-03    -311.208E-03     607.305E-03    -296.237E-03     164.426E-03
            2032     5.35436E-03     37.6908E-03    -76.7176E+06    -21.4404E+06    -2.06684E+06     802.227E+03    -300.753E-03     596.977E-03    -296.224E-03     188.326E-03    -308.182E-03     604.064E-03    -296.092E-03     147.176E-03
            2033     4.68623E-03     37.4298E-03    -85.5610E+06    -42.2378E+06    -19.9016E+06     815.880E+03    -299.655E-03     595.691E-03    -296.036E-03     165.020E-03    -305.339E-03     600.979E-03    -295.950E-03     129.404E-03
            2034     4.01731E-03     37.2038E-03    -94.4348E+06    -74.6973E+06    -41.1650E+06     880.040E+03    -298.611E-03     594.471E-03    -295.860E-03     141.457E-03    -302.785E-03     598.164E-03    -295.821E-03     111.300E-03
            2035     3.34764E-03     37.0114E-03    -102.771E+06    -116.677E+06    -61.7590E+06     795.666E+03    -297.661E-03     593.376E-03    -295.715E-03     117.588E-03    -300.569E-03     595.684E-03    -295.706E-03     92.7417E-03
            2036     2.67856E-03     36.8552E-03    -110.750E+06    -149.164E+06    -81.2556E+06     820.776E+03    -296.841E-03     592.420E-03    -295.579E-03     94.0068E-03    -298.745E-03     593.637E-03    -295.608E-03     74.3210E-03
            2037     2.00896E-03     36.7315E-03    -117.833E+06    -164.005E+06    -99.9506E+06     861.372E+03    -296.125E-03     591.575E-03    -295.450E-03     70.7526E-03    -297.285E-03     592.024E-03    -295.541E-03     56.0839E-03
            2038     1.33937E-03     36.6438E-03    -122.667E+06    -179.004E+06    -114.528E+06     785.986E+03    -295.634E-03     591.018E-03    -295.383E-03     47.7959E-03    -296.266E-03     590.911E-03    -295.519E-03     37.9419E-03
            2039     669.941E-06     36.5903E-03    -126.386E+06    -192.440E+06    -124.261E+06     367.021E+03    -295.297E-03     590.809E-03    -295.512E-03     26.0222E-03    -295.615E-03     590.356E-03    -295.671E-03     20.6284E-03
            2040     12.7022E-03     39.8489E-03    -4.85110E+06     63.5463E+06     73.0205E+06    -152.708E+03    -298.631E-03     596.246E-03    -297.615E-03     157.626E-03    -306.275E-03     603.887E-03    -297.335E-03     115.657E-03
            2041     12.0339E-03     39.5519E-03    -10.8029E+06     58.3272E+06     67.1011E+06    -493.332E+03    -299.662E-03     597.193E-03    -297.531E-03     214.154E-03    -311.570E-03     609.075E-03    -297.264E-03     160.256E-03
            2042     11.3663E-03     39.2410E-03    -15.6433E+06     49.5119E+06     63.2118E+06    -2.06815E+06    -301.021E-03     598.459E-03    -297.438E-03     231.665E-03    -314.597E-03     611.972E-03    -297.171E-03     174.395E-03
            2043     10.6984E-03     38.8862E-03    -19.9914E+06     44.1163E+06     64.4122E+06    -1.90480E+06    -302.059E-03     599.402E-03    -297.342E-03     253.810E-03    -317.776E-03     615.017E-03    -297.055E-03     192.355E-03
            2044     10.0332E-03     38.5134E-03    -25.0481E+06     38.6210E+06     62.9696E+06    -314.535E+03    -302.433E-03     599.683E-03    -297.251E-03     266.110E-03    -319.160E-03     616.276E-03    -296.955E-03     203.065E-03
            2045     9.36259E-03     38.1209E-03    -30.1587E+06     34.1793E+06     59.7217E+06    -338.066E+03    -303.381E-03     600.540E-03    -297.160E-03     272.134E-03    -320.384E-03     617.385E-03    -296.867E-03     208.663E-03
            2046     8.69572E-03     37.7225E-03    -36.0549E+06     26.5975E+06     52.7527E+06    -131.439E+03    -304.421E-03     601.439E-03    -297.019E-03     270.884E-03    -320.885E-03     617.717E-03    -296.741E-03     208.323E-03
            2047     8.02889E-03     37.3277E-03    -43.3362E+06     18.1604E+06     43.1973E+06     416.719E+03    -304.424E-03     601.254E-03    -296.830E-03     263.124E-03    -319.631E-03     616.246E-03    -296.578E-03     203.057E-03
            2048     7.36032E-03     36.9495E-03    -50.9960E+06     10.3272E+06     33.3981E+06     199.999E+03    -303.702E-03     600.339E-03    -296.637E-03     249.589E-03    -317.149E-03     613.545E-03    -296.411E-03     193.253E-03
            2049     6.69209E-03     36.5947E-03    -58.7966E+06     516.182E+03     22.4051E+06     347.791E+03    -302.935E-03     599.375E-03    -296.441E-03     231.353E-03    -314.337E-03     610.506E-03    -296.244E-03     179.638E-03
            2050     6.02398E-03     36.2686E-03    -66.8292E+06    -9.93702E+06     11.2052E+06     590.607E+03    -301.926E-03     598.157E-03    -296.231E-03     209.993E-03    -311.250E-03     607.176E-03    -296.064E-03     163.459E-03
            2051     5.35628E-03     35.9753E-03    -75.5375E+06    -21.1118E+06    -1.93890E+06     774.076E+03    -300.703E-03     596.716E-03    -296.013E-03     187.308E-03    -308.080E-03     603.756E-03    -295.883E-03     146.279E-03
            2052     4.68701E-03     35.7157E-03    -85.1831E+06    -42.1635E+06    -20.4454E+06     961.788E+03    -299.556E-03     595.349E-03    -295.793E-03     164.076E-03    -305.203E-03     600.603E-03    -295.711E-03     128.556E-03
            2053     4.01802E-03     35.4899E-03    -94.5327E+06    -73.9726E+06    -41.6317E+06     974.353E+03    -298.482E-03     594.065E-03    -295.583E-03     140.465E-03    -302.629E-03     597.735E-03    -295.547E-03     110.403E-03
            2054     3.34945E-03     35.2994E-03    -103.192E+06    -116.094E+06    -61.7678E+06     979.406E+03    -297.518E-03     592.920E-03    -295.402E-03     116.849E-03    -300.406E-03     595.209E-03    -295.393E-03     92.1071E-03
            2055     2.67987E-03     35.1433E-03    -111.271E+06    -148.841E+06    -80.9227E+06     1.04649E+06    -296.653E-03     591.875E-03    -295.222E-03     93.5664E-03    -298.551E-03     593.085E-03    -295.250E-03     73.9461E-03
            2056     2.01031E-03     35.0214E-03    -118.286E+06    -162.852E+06    -99.9405E+06     998.019E+03    -295.795E-03     590.846E-03    -295.051E-03     70.2946E-03    -296.953E-03     591.296E-03    -295.143E-03     55.6766E-03
            2057     1.33988E-03     34.9342E-03    -123.499E+06    -177.895E+06    -115.093E+06     752.356E+03    -295.257E-03     590.206E-03    -294.949E-03     47.2421E-03    -295.888E-03     590.101E-03    -295.087E-03     37.4648E-03
            2058     669.501E-06     34.8790E-03    -124.993E+06    -189.589E+06    -123.249E+06     749.693E+03    -295.459E-03     589.902E-03    -294.443E-03     25.1313E-03    -295.770E-03     589.454E-03    -294.603E-03     19.8413E-03
            2059     12.7007E-03     38.1253E-03    -3.64068E+06     62.0447E+06     73.2752E+06     1.87007E+06    -299.161E-03     596.769E-03    -297.608E-03     156.891E-03    -306.787E-03     604.391E-03    -297.327E-03     114.831E-03
            2060     12.0351E-03     37.8290E-03    -7.08962E+06     63.6213E+06     68.4066E+06     1.82039E+06    -300.348E-03     597.827E-03    -297.480E-03     213.938E-03    -312.228E-03     609.710E-03    -297.220E-03     160.012E-03
            2061     11.3682E-03     37.5213E-03    -11.5039E+06     53.5171E+06     64.7962E+06     379.872E+03    -300.570E-03     597.957E-03    -297.387E-03     232.317E-03    -314.095E-03     611.443E-03    -297.124E-03     175.357E-03
            2062     10.7005E-03     37.1671E-03    -16.8473E+06     42.5042E+06     66.0594E+06     54.5965E+03    -301.238E-03     598.588E-03    -297.350E-03     254.235E-03    -316.893E-03     614.143E-03    -297.057E-03     193.134E-03
            2063     10.0293E-03     36.7928E-03    -22.1472E+06     39.3748E+06     65.0246E+06    -538.671E+03    -302.774E-03     600.051E-03    -297.277E-03     265.654E-03    -319.457E-03     616.607E-03    -296.977E-03     202.574E-03
            2064     9.36410E-03     36.4005E-03    -28.8536E+06     32.3188E+06     60.2158E+06    -405.260E+03    -304.206E-03     601.345E-03    -297.138E-03     271.312E-03    -321.148E-03     618.124E-03    -296.842E-03     207.739E-03
            2065     8.69670E-03     36.0014E-03    -36.2299E+06     24.9052E+06     52.3381E+06     581.582E+03    -304.655E-03     601.603E-03    -296.948E-03     270.420E-03    -321.068E-03     617.824E-03    -296.670E-03     207.919E-03
            2066     8.02863E-03     35.6086E-03    -43.0234E+06     18.7787E+06     43.4169E+06     515.057E+03    -304.460E-03     601.198E-03    -296.738E-03     262.641E-03    -319.637E-03     616.162E-03    -296.485E-03     202.601E-03
            2067     7.36128E-03     35.2318E-03    -50.0015E+06     10.2204E+06     33.8284E+06     402.502E+03    -303.988E-03     600.502E-03    -296.514E-03     248.700E-03    -317.386E-03     613.661E-03    -296.287E-03     192.362E-03
            2068     6.69374E-03     34.8769E-03    -57.6499E+06     440.793E+03     22.8593E+06     459.354E+03    -303.169E-03     599.436E-03    -296.267E-03     230.307E-03    -314.514E-03     610.512E-03    -296.070E-03     178.630E-03
            2069     6.02602E-03     34.5524E-03    -66.4598E+06    -9.97821E+06     11.4577E+06     779.898E+03    -301.964E-03     597.976E-03    -296.012E-03     208.999E-03    -311.231E-03     606.939E-03    -295.844E-03     162.584E-03
            2070     5.35686E-03     34.2604E-03    -75.9210E+06    -21.8607E+06    -1.99107E+06     1.45528E+06    -300.727E-03     596.478E-03    -295.752E-03     186.271E-03    -308.059E-03     603.470E-03    -295.620E-03     145.353E-03
            2071     4.68873E-03     34.0016E-03    -85.2499E+06    -41.5307E+06    -20.0253E+06     1.65898E+06    -299.449E-03     594.936E-03    -295.486E-03     162.868E-03    -305.054E-03     600.149E-03    -295.403E-03     127.490E-03
            2072     4.01993E-03     33.7775E-03    -94.4111E+06    -72.3099E+06    -41.0123E+06     1.29597E+06    -298.164E-03     593.411E-03    -295.247E-03     139.471E-03    -302.282E-03     597.055E-03    -295.210E-03     109.539E-03
            2073     3.34986E-03     33.5879E-03    -103.299E+06    -115.547E+06    -61.8218E+06     1.07445E+06    -297.168E-03     592.221E-03    -295.053E-03     116.217E-03    -300.036E-03     594.492E-03    -295.045E-03     91.5985E-03
            2074     2.68045E-03     33.4325E-03    -110.949E+06    -148.464E+06    -80.9728E+06     1.03068E+06    -296.352E-03     591.212E-03    -294.860E-03     92.9267E-03    -298.232E-03     592.406E-03    -294.889E-03     73.4254E-03
            2075     2.01046E-03     33.3121E-03    -117.117E+06    -161.656E+06    -99.6133E+06     835.323E+03    -295.634E-03     590.268E-03    -294.634E-03     69.7865E-03    -296.777E-03     590.711E-03    -294.728E-03     55.2565E-03
            2076     1.34101E-03     33.2248E-03    -121.454E+06    -176.081E+06    -114.550E+06     433.911E+03    -295.030E-03     589.442E-03    -294.412E-03     47.0367E-03    -295.648E-03     589.337E-03    -294.554E-03     37.3495E-03
            2077     671.294E-06     33.1714E-03    -123.487E+06    -188.201E+06    -122.773E+06    -256.603E+03    -295.004E-03     588.693E-03    -293.689E-03     25.3662E-03    -295.308E-03     588.248E-03    -293.851E-03     20.1533E-03
            2078     12.7037E-03     36.4043E-03    -2.86928E+06     59.6602E+06     74.8624E+06    -181.601E+03    -299.444E-03     597.065E-03    -297.620E-03     157.214E-03    -307.056E-03     604.661E-03    -297.328E-03     115.232E-03
            2079     12.0348E-03     36.1065E-03    -6.28704E+06     62.8202E+06     70.4273E+06     1.17827E+06    -299.736E-03     597.245E-03    -297.509E-03     215.151E-03    -311.636E-03     609.141E-03    -297.239E-03     161.361E-03
            2080     11.3667E-03     35.8000E-03    -10.8770E+06     55.3221E+06     65.9932E+06     2.89314E+06    -300.503E-03     597.942E-03    -297.439E-03     233.448E-03    -314.079E-03     611.484E-03    -297.174E-03     176.490E-03
            2081     10.6974E-03     35.4490E-03    -16.2622E+06     46.5478E+06     66.1116E+06     1.72669E+06    -302.184E-03     599.557E-03    -297.373E-03     254.517E-03    -317.864E-03     615.153E-03    -297.087E-03     193.208E-03
            2082     10.0326E-03     35.0708E-03    -22.9176E+06     40.2313E+06     63.2733E+06     115.821E+03    -303.515E-03     600.755E-03    -297.241E-03     264.784E-03    -320.134E-03     617.253E-03    -296.949E-03     201.649E-03
            2083     9.36434E-03     34.6791E-03    -29.3468E+06     30.9492E+06     58.8997E+06     200.537E+03    -304.360E-03     601.428E-03    -297.068E-03     270.695E-03    -321.240E-03     618.143E-03    -296.776E-03     207.188E-03
            2084     8.69694E-03     34.2817E-03    -35.0283E+06     25.0739E+06     52.3732E+06     344.314E+03    -304.749E-03     601.609E-03    -296.860E-03     269.689E-03    -321.101E-03     617.774E-03    -296.584E-03     207.236E-03
            2085     8.02991E-03     33.8893E-03    -41.6552E+06     18.8447E+06     43.3098E+06     503.878E+03    -304.696E-03     601.315E-03    -296.619E-03     261.521E-03    -319.786E-03     616.199E-03    -296.370E-03     201.540E-03
            2086     7.36255E-03     33.5125E-03    -49.3458E+06     10.4458E+06     34.4740E+06     806.850E+03    -304.319E-03     600.673E-03    -296.354E-03     247.870E-03    -317.658E-03     613.775E-03    -296.125E-03     191.562E-03
            2087     6.69503E-03     33.1596E-03    -57.9070E+06     146.290E+03     23.2423E+06     1.33465E+06    -303.395E-03     599.449E-03    -296.054E-03     229.201E-03    -314.672E-03     610.454E-03    -295.854E-03     177.642E-03
            2088     6.02665E-03     32.8365E-03    -66.7901E+06    -10.4263E+06     11.0260E+06     1.88705E+06    -302.092E-03     597.831E-03    -295.739E-03     207.560E-03    -311.280E-03     606.713E-03    -295.572E-03     161.317E-03
            2089     5.35935E-03     32.5454E-03    -75.5530E+06    -21.8399E+06    -2.20113E+06     1.65927E+06    -300.676E-03     596.100E-03    -295.424E-03     184.882E-03    -307.946E-03     603.030E-03    -295.294E-03     144.105E-03
            2090     4.69047E-03     32.2885E-03    -84.4350E+06    -40.5112E+06    -19.8507E+06     1.58001E+06    -299.239E-03     594.356E-03    -295.117E-03     161.622E-03    -304.783E-03     599.514E-03    -295.035E-03     126.438E-03
            2091     4.02092E-03     32.0664E-03    -93.2672E+06    -70.7292E+06    -40.4494E+06     1.45950E+06    -297.944E-03     592.784E-03    -294.839E-03     138.168E-03    -302.007E-03     596.381E-03    -294.804E-03     108.447E-03
            2092     3.35187E-03     31.8778E-03    -101.326E+06    -114.102E+06    -60.6166E+06     1.07077E+06    -296.896E-03     591.498E-03    -294.602E-03     114.829E-03    -299.718E-03     593.731E-03    -294.593E-03     90.3808E-03
            2093     2.68180E-03     31.7234E-03    -108.745E+06    -147.633E+06    -79.7086E+06     761.972E+03    -295.982E-03     590.343E-03    -294.361E-03     91.4265E-03    -297.820E-03     591.502E-03    -294.388E-03     72.1010E-03
            2094     2.01195E-03     31.6035E-03    -115.069E+06    -161.013E+06    -97.9469E+06     679.061E+03    -295.088E-03     589.200E-03    -294.111E-03     68.5836E-03    -296.204E-03     589.619E-03    -294.201E-03     54.2048E-03
            2095     1.34124E-03     31.5172E-03    -119.582E+06    -174.108E+06    -112.086E+06     733.239E+03    -294.345E-03     588.280E-03    -293.936E-03     46.3907E-03    -294.954E-03     588.172E-03    -294.070E-03     36.7544E-03
            2096     670.023E-06     31.4654E-03    -123.807E+06    -187.459E+06    -121.224E+06     589.407E+03    -294.143E-03     587.816E-03    -293.673E-03     25.2000E-03    -294.451E-03     587.372E-03    -293.828E-03     20.0039E-03
            2097     12.7002E-03     34.6804E-03    -5.20264E+06     60.0019E+06     73.5417E+06    -594.748E+03    -298.970E-03     596.677E-03    -297.707E-03     158.806E-03    -306.655E-03     604.343E-03    -297.419E-03     116.721E-03
            2098     12.0335E-03     34.3864E-03    -10.3092E+06     57.2370E+06     68.4987E+06    -452.909E+03    -300.030E-03     597.645E-03    -297.615E-03     215.555E-03    -311.980E-03     609.563E-03    -297.340E-03     161.578E-03
            2099     11.3646E-03     34.0807E-03    -13.6543E+06     52.8394E+06     65.6166E+06     306.390E+03    -301.481E-03     598.990E-03    -297.509E-03     232.593E-03    -315.045E-03     612.503E-03    -297.238E-03     175.398E-03
            2100     10.6997E-03     33.7234E-03    -17.7512E+06     50.3473E+06     66.3363E+06     670.926E+03    -303.040E-03     600.413E-03    -297.373E-03     253.701E-03    -318.699E-03     615.996E-03    -297.089E-03     192.207E-03
            2101     10.0317E-03     33.3493E-03    -22.6093E+06     41.1514E+06     63.8386E+06     760.353E+03    -303.883E-03     601.084E-03    -297.200E-03     264.865E-03    -320.489E-03     617.570E-03    -296.908E-03     201.707E-03
            2102     9.36500E-03     32.9591E-03    -27.8655E+06     31.6375E+06     59.8318E+06     372.236E+03    -304.712E-03     601.713E-03    -297.001E-03     270.514E-03    -321.559E-03     618.400E-03    -296.707E-03     206.986E-03
            2103     8.69829E-03     32.5600E-03    -34.6653E+06     24.4313E+06     52.6181E+06     37.7332E+03    -305.168E-03     601.923E-03    -296.755E-03     268.903E-03    -321.442E-03     618.008E-03    -296.478E-03     206.482E-03
            2104     8.03120E-03     32.1707E-03    -41.6886E+06     16.2063E+06     43.8484E+06     513.581E+03    -305.218E-03     601.684E-03    -296.466E-03     260.695E-03    -320.225E-03     616.474E-03    -296.210E-03     200.757E-03
            2105     7.36380E-03     31.7932E-03    -49.2858E+06     9.40197E+06     34.5979E+06     1.67982E+06    -304.656E-03     600.788E-03    -296.133E-03     246.229E-03    -317.879E-03     613.770E-03    -295.902E-03     190.072E-03
            2106     6.69663E-03     31.4421E-03    -57.0888E+06     851.444E+03     23.3276E+06     2.45878E+06    -303.509E-03     599.275E-03    -295.766E-03     227.178E-03    -314.661E-03     610.159E-03    -295.568E-03     175.835E-03
            2107     6.02988E-03     31.1204E-03    -64.8204E+06    -9.34652E+06     11.6413E+06     2.37588E+06    -302.154E-03     597.545E-03    -295.391E-03     205.889E-03    -311.235E-03     606.329E-03    -295.225E-03     159.859E-03
            2108     5.36098E-03     30.8318E-03    -73.2278E+06    -20.5291E+06    -1.69916E+06     2.33824E+06    -300.591E-03     595.609E-03    -295.018E-03     183.138E-03    -307.749E-03     602.439E-03    -294.890E-03     142.650E-03
            2109     4.69220E-03     30.5767E-03    -82.3596E+06    -39.0859E+06    -19.5275E+06     2.17330E+06    -299.128E-03     593.778E-03    -294.650E-03     159.742E-03    -304.581E-03     598.856E-03    -294.571E-03     124.813E-03
            2110     4.02351E-03     30.3557E-03    -90.9521E+06    -68.3381E+06    -39.4611E+06     1.60231E+06    -297.881E-03     592.172E-03    -294.291E-03     136.174E-03    -301.864E-03     595.704E-03    -294.257E-03     106.705E-03
            2111     3.35356E-03     30.1690E-03    -98.9767E+06    -112.401E+06    -58.7410E+06     801.381E+03    -296.641E-03     590.603E-03    -293.961E-03     113.023E-03    -299.406E-03     592.787E-03    -293.948E-03     88.7758E-03
            2112     2.68392E-03     30.0156E-03    -106.631E+06    -146.981E+06    -77.0968E+06     1.01300E+06    -295.402E-03     589.056E-03    -293.654E-03     89.9962E-03    -297.199E-03     590.177E-03    -293.672E-03     70.8895E-03
            2113     2.01326E-03     29.8977E-03    -113.446E+06    -160.560E+06    -95.6499E+06     1.31911E+06    -294.360E-03     587.732E-03    -293.372E-03     67.3353E-03    -295.448E-03     588.124E-03    -293.453E-03     53.1539E-03
            2114     1.34231E-03     29.8127E-03    -119.001E+06    -173.157E+06    -110.559E+06     1.20855E+06    -293.615E-03     586.780E-03    -293.165E-03     45.0775E-03    -294.212E-03     586.661E-03    -293.295E-03     35.5911E-03
            2115     671.627E-06     29.7602E-03    -121.624E+06    -184.033E+06    -119.809E+06     1.16553E+06    -293.453E-03     586.212E-03    -292.759E-03     23.9585E-03    -293.751E-03     585.773E-03    -292.915E-03     18.8601E-03
            2116     12.6990E-03     32.9565E-03    -4.22562E+06     63.3425E+06     74.1963E+06     1.07418E+06    -298.888E-03     596.658E-03    -297.769E-03     155.868E-03    -306.476E-03     604.240E-03    -297.484E-03     113.954E-03
            2117     12.0309E-03     32.6640E-03    -7.61694E+06     59.4151E+06     69.7433E+06    -678.227E+03    -300.506E-03     598.162E-03    -297.656E-03     213.068E-03    -312.355E-03     609.993E-03    -297.383E-03     159.068E-03
            2118     11.3668E-03     32.3546E-03    -11.6925E+06     48.2705E+06     65.4221E+06    -881.213E+03    -302.009E-03     599.527E-03    -297.519E-03     232.379E-03    -315.551E-03     613.009E-03    -297.244E-03     175.024E-03
            2119     10.6988E-03     32.0021E-03    -16.1518E+06     48.5344E+06     66.7793E+06     372.630E+03    -303.089E-03     600.455E-03    -297.366E-03     253.902E-03    -318.723E-03     616.010E-03    -297.080E-03     192.432E-03
            2120     10.0320E-03     31.6273E-03    -21.8944E+06     41.6546E+06     64.1911E+06     880.089E+03    -304.231E-03     601.411E-03    -297.180E-03     264.643E-03    -320.789E-03     617.852E-03    -296.887E-03     201.496E-03
            2121     9.36583E-03     31.2350E-03    -28.7279E+06     32.7696E+06     59.6602E+06     733.216E+03    -305.355E-03     602.297E-03    -296.942E-03     270.116E-03    -322.155E-03     618.938E-03    -296.649E-03     206.538E-03
            2122     8.69900E-03     30.8410E-03    -35.1562E+06     24.8170E+06     53.3133E+06     457.472E+03    -306.051E-03     602.685E-03    -296.634E-03     268.224E-03    -322.262E-03     618.705E-03    -296.353E-03     205.732E-03
            2123     8.03233E-03     30.4484E-03    -42.3015E+06     14.9981E+06     43.8726E+06     160.859E+03    -306.024E-03     602.277E-03    -296.252E-03     259.008E-03    -320.918E-03     616.946E-03    -295.993E-03     199.080E-03
            2124     7.36680E-03     30.0747E-03    -49.0094E+06     6.68039E+06     33.5252E+06     714.097E+03    -305.029E-03     600.854E-03    -295.825E-03     244.200E-03    -318.087E-03     613.664E-03    -295.596E-03     188.274E-03
            2125     6.69980E-03     29.7254E-03    -55.7100E+06    -690.062E+03     22.6261E+06     1.58360E+06    -303.699E-03     599.083E-03    -295.384E-03     225.470E-03    -314.700E-03     609.818E-03    -295.189E-03     174.393E-03
            2126     6.03126E-03     29.4051E-03    -63.4159E+06    -8.84199E+06     12.3328E+06     2.23119E+06    -302.272E-03     597.210E-03    -294.938E-03     203.611E-03    -311.203E-03     605.850E-03    -294.772E-03     157.883E-03
            2127     5.36393E-03     29.1187E-03    -71.9403E+06    -20.0661E+06    -383.802E+03     2.73107E+06    -300.725E-03     595.196E-03    -294.472E-03     180.293E-03    -307.737E-03     601.884E-03    -294.340E-03     140.136E-03
            2128     4.69557E-03     28.8658E-03    -80.6861E+06    -36.5972E+06    -17.4574E+06     2.65170E+06    -299.133E-03     593.117E-03    -293.984E-03     156.847E-03    -304.467E-03     598.086E-03    -293.902E-03     122.236E-03
            2129     4.02608E-03     28.6464E-03    -89.5265E+06    -64.9884E+06    -38.0250E+06     1.87826E+06    -297.567E-03     591.072E-03    -293.505E-03     133.500E-03    -301.459E-03     594.525E-03    -293.471E-03     104.339E-03
            2130     3.35701E-03     28.4617E-03    -97.9410E+06    -111.221E+06    -58.0003E+06     1.40658E+06    -296.048E-03     589.128E-03    -293.080E-03     110.478E-03    -298.738E-03     591.243E-03    -293.066E-03     86.5666E-03
            2131     2.68621E-03     28.3113E-03    -105.834E+06    -146.854E+06    -76.3429E+06     1.44823E+06    -294.626E-03     587.325E-03    -292.699E-03     87.8559E-03    -296.372E-03     588.396E-03    -292.714E-03     69.0314E-03
            2132     2.01515E-03     28.1942E-03    -112.549E+06    -159.403E+06    -94.3439E+06     1.69390E+06    -293.523E-03     585.865E-03    -292.342E-03     65.6180E-03    -294.581E-03     586.231E-03    -292.419E-03     51.6717E-03
            2133     1.34409E-03     28.1101E-03    -117.183E+06    -170.325E+06    -109.251E+06     1.49655E+06    -292.678E-03     584.716E-03    -292.038E-03     43.9695E-03    -293.256E-03     584.590E-03    -292.167E-03     34.6870E-03
            2134     671.952E-06     28.0597E-03    -119.569E+06    -180.381E+06    -118.603E+06     323.716E+03    -292.174E-03     583.856E-03    -291.683E-03     24.0225E-03    -292.465E-03     583.427E-03    -291.841E-03     19.0179E-03
            2135     12.7013E-03     31.2370E-03    -2.22010E+06     64.2752E+06     75.1016E+06     300.329E+03    -299.304E-03     597.073E-03    -297.769E-03     156.163E-03    -306.903E-03     604.675E-03    -297.484E-03     114.229E-03
            2136     12.0348E-03     30.9409E-03    -6.62226E+06     62.5036E+06     69.3625E+06     152.127E+03    -300.476E-03     598.123E-03    -297.647E-03     214.707E-03    -312.367E-03     610.011E-03    -297.381E-03     160.715E-03
            2137     11.3649E-03     30.6328E-03    -11.7946E+06     47.8411E+06     64.6359E+06    -374.271E+03    -301.892E-03     599.420E-03    -297.528E-03     232.948E-03    -315.427E-03     612.895E-03    -297.257E-03     175.688E-03
            2138     10.6987E-03     30.2784E-03    -17.4057E+06     46.1328E+06     64.7896E+06     124.162E+03    -303.420E-03     600.791E-03    -297.371E-03     253.994E-03    -319.059E-03     616.344E-03    -297.089E-03     192.409E-03
            2139     10.0327E-03     29.9034E-03    -22.5873E+06     40.6854E+06     62.3522E+06     986.406E+03    -304.992E-03     602.138E-03    -297.146E-03     264.483E-03    -321.524E-03     618.553E-03    -296.860E-03     201.159E-03
            2140     9.36564E-03     29.5135E-03    -28.1545E+06     34.1563E+06     58.2303E+06     1.35809E+06    -306.416E-03     603.246E-03    -296.830E-03     268.772E-03    -323.114E-03     619.797E-03    -296.548E-03     205.068E-03
            2141     8.70016E-03     29.1160E-03    -34.9826E+06     25.5359E+06     50.6973E+06     982.526E+03    -307.000E-03     603.415E-03    -296.415E-03     265.876E-03    -323.055E-03     619.289E-03    -296.148E-03     203.340E-03
            2142     8.03595E-03     28.7270E-03    -41.6427E+06     16.6820E+06     42.0953E+06     932.122E+03    -306.412E-03     602.354E-03    -295.942E-03     256.797E-03    -321.110E-03     616.842E-03    -295.695E-03     197.115E-03
            2143     7.36883E-03     28.3563E-03    -49.3461E+06     6.57140E+06     31.1518E+06     342.574E+03    -305.540E-03     600.972E-03    -295.432E-03     242.222E-03    -318.422E-03     613.612E-03    -295.214E-03     186.514E-03
            2144     6.70198E-03     28.0079E-03    -57.3672E+06    -2.98260E+06     19.9398E+06    -190.479E+03    -304.469E-03     599.339E-03    -294.870E-03     222.461E-03    -315.272E-03     609.870E-03    -294.683E-03     171.623E-03
            2145     6.03613E-03     27.6911E-03    -64.8687E+06    -11.2265E+06     11.2060E+06     245.407E+03    -302.812E-03     597.080E-03    -294.268E-03     199.679E-03    -311.529E-03     605.495E-03    -294.102E-03     154.294E-03
            2146     5.36806E-03     27.4061E-03    -72.7080E+06    -21.6632E+06    -348.219E+03     1.13370E+06    -300.917E-03     594.549E-03    -293.632E-03     176.122E-03    -307.737E-03     601.035E-03    -293.497E-03     136.375E-03
            2147     4.69985E-03     27.1561E-03     -81.104E+06    -35.8905E+06    -17.3680E+06     1.82083E+06    -298.931E-03     591.908E-03    -292.977E-03     152.599E-03    -304.091E-03     596.702E-03    -292.894E-03     118.486E-03
            2148     4.03117E-03     26.9399E-03    -89.5756E+06    -62.5744E+06    -37.4380E+06     1.92499E+06    -296.904E-03     589.261E-03    -292.357E-03     129.532E-03    -300.661E-03     592.587E-03    -292.324E-03     100.882E-03
            2149     3.36040E-03     26.7577E-03    -97.9000E+06    -109.613E+06    -57.7093E+06     1.80277E+06    -295.123E-03     586.942E-03    -291.819E-03     106.787E-03    -297.707E-03     588.957E-03    -291.807E-03     83.3941E-03
            2150     2.68986E-03     26.6099E-03    -105.393E+06    -145.727E+06    -76.1955E+06     1.27988E+06    -293.601E-03     584.928E-03    -291.327E-03     84.7312E-03    -295.275E-03     585.932E-03    -291.344E-03     66.3227E-03
            2151     2.01836E-03     26.4944E-03    -111.591E+06    -157.625E+06    -93.0958E+06     688.186E+03    -292.202E-03     583.080E-03    -290.878E-03     63.2430E-03    -293.218E-03     583.410E-03    -290.953E-03     49.6028E-03
            2152     1.34560E-03     26.4126E-03    -116.318E+06    -167.825E+06    -107.820E+06     431.678E+03    -291.118E-03     581.660E-03    -290.542E-03     42.2084E-03    -291.678E-03     581.524E-03    -290.669E-03     33.1297E-03
            2153     673.066E-06     26.3624E-03    -119.385E+06    -178.652E+06    -116.856E+06     408.199E+03    -290.267E-03     580.854E-03    -290.588E-03     22.7041E-03    -290.555E-03     580.424E-03    -290.740E-03     17.7883E-03
            2154     12.6985E-03     29.5135E-03    -4.94755E+06     61.8915E+06     73.2444E+06    -1.28862E+06    -299.162E-03     597.012E-03    -297.850E-03     158.269E-03    -306.829E-03     604.668E-03    -297.566E-03     116.237E-03
            2155     12.0300E-03     29.2170E-03    -8.84608E+06     61.4960E+06     68.1563E+06    -513.363E+03    -300.963E-03     598.694E-03    -297.731E-03     216.468E-03    -312.959E-03     610.680E-03    -297.467E-03     162.252E-03
            2156     11.3657E-03     28.9092E-03    -12.8867E+06     49.2397E+06     63.1657E+06    -96.5684E+03    -302.600E-03     600.183E-03    -297.583E-03     234.096E-03    -316.208E-03     613.737E-03    -297.320E-03     176.601E-03
            2157     10.6988E-03     28.5548E-03    -16.7565E+06     43.6466E+06     64.3001E+06     49.1512E+03    -304.663E-03     602.046E-03    -297.383E-03     254.362E-03    -320.290E-03     617.582E-03    -297.101E-03     192.549E-03
            2158     10.0320E-03     28.1789E-03    -21.6203E+06     40.0786E+06     63.1099E+06     793.486E+03    -306.553E-03     603.617E-03    -297.064E-03     263.244E-03    -323.009E-03     619.956E-03    -296.775E-03     199.629E-03
            2159     9.36839E-03     27.7870E-03    -27.6849E+06     32.7275E+06     58.2631E+06     990.466E+03    -307.638E-03     604.265E-03    -296.627E-03     266.697E-03    -324.176E-03     620.651E-03    -296.342E-03     202.894E-03
            2160     8.70469E-03     27.3925E-03    -33.7086E+06     25.2076E+06     50.3272E+06     1.87738E+06    -307.577E-03     603.685E-03    -296.109E-03     263.921E-03    -323.402E-03     619.335E-03    -295.845E-03     201.644E-03
            2161     8.03749E-03     27.0074E-03    -40.6599E+06     18.3314E+06     40.6454E+06     2.46666E+06    -307.421E-03     602.943E-03    -295.522E-03     254.120E-03    -321.875E-03     617.199E-03    -295.286E-03     194.634E-03
            2162     7.37246E-03     26.6359E-03    -47.6630E+06     9.67077E+06     32.5535E+06     2.26489E+06    -306.986E-03     601.826E-03    -294.840E-03     237.493E-03    -319.552E-03     614.163E-03    -294.622E-03     182.049E-03
            2163     6.70790E-03     26.2907E-03    -55.1235E+06    -41.1383E+03     22.7233E+06     1.56209E+06    -305.495E-03     599.543E-03    -294.048E-03     216.410E-03    -315.938E-03     609.725E-03    -293.854E-03     166.063E-03
            2164     6.04127E-03     25.9762E-03    -63.9120E+06    -11.2159E+06     10.6002E+06     477.002E+03    -303.322E-03     596.517E-03    -293.195E-03     193.509E-03    -311.706E-03     604.605E-03    -293.034E-03     148.728E-03
            2165     5.37510E-03     25.6960E-03    -72.8716E+06    -22.7586E+06    -2.55020E+06     118.671E+03    -300.884E-03     593.214E-03    -292.330E-03     170.068E-03    -307.404E-03     599.402E-03    -292.204E-03     131.028E-03
            2166     4.70706E-03     25.4492E-03    -81.1520E+06    -37.1309E+06    -19.1482E+06     162.115E+03    -298.396E-03     589.869E-03    -291.473E-03     146.778E-03    -303.304E-03     594.413E-03    -291.397E-03     113.413E-03
            2167     4.03721E-03     25.2372E-03    -88.8494E+06    -62.5450E+06    -37.7004E+06     753.741E+03    -296.037E-03     586.705E-03    -290.668E-03     123.875E-03    -299.584E-03     589.824E-03    -290.637E-03     96.0004E-03
            2168     3.36708E-03     25.0585E-03    -96.3443E+06    -107.574E+06    -55.4953E+06     1.05750E+06    -293.864E-03     583.822E-03    -289.958E-03     101.577E-03    -296.291E-03     585.686E-03    -289.940E-03     78.9094E-03
            2169     2.69509E-03     24.9131E-03    -103.683E+06    -143.426E+06    -72.6928E+06     412.486E+03    -291.917E-03     581.242E-03    -289.325E-03     80.2704E-03    -293.484E-03     582.142E-03    -289.330E-03     62.5031E-03
            2170     2.02216E-03     24.8009E-03    -110.065E+06    -156.511E+06    -90.6263E+06    -376.497E+03    -290.259E-03     579.022E-03    -288.763E-03     59.7194E-03    -291.213E-03     579.291E-03    -288.829E-03     46.5563E-03
            2171     1.34892E-03     24.7206E-03    -115.222E+06    -168.179E+06    -106.961E+06    -563.199E+03    -288.990E-03     577.335E-03    -288.345E-03     39.7559E-03    -289.516E-03     577.164E-03    -288.469E-03     31.0157E-03
            2172     674.447E-06     24.6720E-03    -118.608E+06    -178.516E+06    -116.363E+06    -182.686E+03    -288.030E-03     576.383E-03    -288.353E-03     21.5059E-03    -288.306E-03     575.942E-03    -288.504E-03     16.8190E-03
            2173     12.6966E-03     27.7881E-03    -3.83576E+06     63.8379E+06     73.4294E+06    -277.788E+03    -299.096E-03     597.046E-03    -297.951E-03     157.857E-03    -306.727E-03     604.677E-03    -297.670E-03     115.914E-03
            2174     12.0317E-03     27.4940E-03    -7.64310E+06     59.5799E+06     68.7220E+06    -1.31211E+06    -301.274E-03     599.108E-03    -297.834E-03     215.718E-03    -313.248E-03     611.067E-03    -297.565E-03     161.437E-03
            2175     11.3627E-03     27.1832E-03    -11.5691E+06     46.8080E+06     64.3119E+06    -408.507E+03    -303.736E-03     601.383E-03    -297.647E-03     234.053E-03    -317.370E-03     614.955E-03    -297.376E-03     176.182E-03
            2176     10.6977E-03     26.8274E-03    -17.0808E+06     43.0534E+06     63.9491E+06     355.932E+03    -306.461E-03     603.804E-03    -297.343E-03     253.408E-03    -322.049E-03     619.299E-03    -297.061E-03     191.192E-03
            2177     10.0355E-03     26.4500E-03    -23.0834E+06     38.8362E+06     61.5293E+06    -212.168E+03    -307.985E-03     604.888E-03    -296.903E-03     262.173E-03    -324.310E-03     621.090E-03    -296.618E-03     198.438E-03
            2178     9.37152E-03     26.0607E-03    -28.0682E+06     31.6702E+06     58.9853E+06    -143.245E+03    -308.798E-03     605.170E-03    -296.372E-03     265.593E-03    -325.121E-03     621.335E-03    -296.082E-03     201.940E-03
            2179     8.70520E-03     25.6699E-03    -33.5483E+06     23.3342E+06     53.1485E+06     546.250E+03    -309.789E-03     605.495E-03    -295.706E-03     260.763E-03    -325.310E-03     620.826E-03    -295.425E-03     198.521E-03
            2180     8.04289E-03     25.2829E-03    -39.3159E+06     16.4840E+06     43.6024E+06     1.50204E+06    -310.134E-03     604.972E-03    -294.838E-03     247.884E-03    -324.127E-03     618.758E-03    -294.587E-03     188.605E-03
            2181     7.38051E-03     24.9147E-03    -45.3942E+06     10.1485E+06     35.6940E+06     2.50851E+06    -308.835E-03     602.655E-03    -293.819E-03     229.716E-03    -320.860E-03     614.451E-03    -293.590E-03     174.911E-03
            2182     6.71633E-03     24.5738E-03    -52.5653E+06     1.94088E+06     26.2123E+06     3.00565E+06    -306.510E-03     599.218E-03    -292.709E-03     208.285E-03    -316.428E-03     608.881E-03    -292.504E-03     158.830E-03
            2183     6.05215E-03     24.2645E-03    -60.2241E+06    -7.97666E+06     14.2225E+06     3.05113E+06    -303.717E-03     595.267E-03    -291.550E-03     184.952E-03    -311.604E-03     602.871E-03    -291.380E-03     141.257E-03
            2184     5.38501E-03     23.9887E-03    -68.7328E+06    -19.3418E+06     798.298E+03     2.15485E+06    -300.655E-03     591.042E-03    -290.387E-03     161.290E-03    -306.726E-03     596.798E-03    -290.255E-03     123.448E-03
            2185     4.71669E-03     23.7473E-03    -77.7941E+06    -35.6471E+06    -16.8856E+06     1.08694E+06    -297.642E-03     586.882E-03    -289.240E-03     138.090E-03    -302.171E-03     591.058E-03    -289.160E-03     105.926E-03
            2186     4.04738E-03     23.5395E-03    -87.0326E+06    -63.5224E+06    -36.5449E+06     992.500E+03    -294.722E-03     582.875E-03    -288.153E-03     115.487E-03    -297.969E-03     585.693E-03    -288.117E-03     88.7600E-03
            2187     3.37573E-03     23.3654E-03    -95.6644E+06    -104.028E+06    -55.4612E+06     549.951E+03    -291.878E-03     579.059E-03    -287.181E-03     94.0562E-03    -294.092E-03     580.725E-03    -287.169E-03     72.4393E-03
            2188     2.70288E-03     23.2249E-03    -102.965E+06    -140.111E+06    -72.7397E+06    -1.31368E+06    -289.379E-03     575.729E-03    -286.350E-03     74.0735E-03    -290.808E-03     576.505E-03    -286.361E-03     57.1743E-03
            2189     2.02861E-03     23.1149E-03    -109.546E+06    -158.764E+06    -90.1988E+06    -1.61818E+06    -287.375E-03     573.030E-03    -285.655E-03     54.8308E-03    -288.241E-03     573.204E-03    -285.717E-03     42.3774E-03
            2190     1.35277E-03     23.0379E-03    -115.059E+06    -169.554E+06    -105.905E+06    -464.814E+03    -285.904E-03     571.032E-03    -285.129E-03     36.3718E-03    -286.388E-03     570.812E-03    -285.246E-03     28.1381E-03
            2191     676.611E-06     22.9904E-03    -117.843E+06    -179.175E+06    -116.450E+06    -54.1974E+03    -284.610E-03     569.820E-03    -285.209E-03     19.7444E-03    -284.869E-03     569.361E-03    -285.361E-03     15.3327E-03
            2192     12.6976E-03     26.0661E-03    -3.60438E+06     66.4235E+06     71.6510E+06    -643.227E+03    -299.018E-03     596.991E-03    -297.973E-03     157.523E-03    -306.668E-03     604.656E-03    -297.706E-03     115.509E-03
            2193     12.0280E-03     25.7690E-03    -8.21307E+06     59.6116E+06     66.0267E+06    -341.679E+03    -301.692E-03     599.541E-03    -297.849E-03     216.130E-03    -313.690E-03     611.530E-03    -297.593E-03     161.725E-03
            2194     11.3646E-03     25.4567E-03    -13.2054E+06     44.1999E+06     62.2544E+06    -512.389E+03    -305.278E-03     602.893E-03    -297.615E-03     234.047E-03    -318.895E-03     616.439E-03    -297.348E-03     175.898E-03
            2195     10.7011E-03     25.0967E-03    -17.3549E+06     42.6016E+06     63.5545E+06    -822.906E+03    -307.856E-03     605.078E-03    -297.222E-03     252.887E-03    -323.329E-03     620.456E-03    -296.941E-03     190.525E-03
            2196     10.0363E-03     24.7212E-03    -21.1822E+06     38.5103E+06     62.3035E+06    -94.3485E+03    -309.723E-03     606.393E-03    -296.670E-03     260.132E-03    -325.779E-03     622.330E-03    -296.384E-03     196.424E-03
            2197     9.37182E-03     24.3340E-03    -26.9479E+06     32.1264E+06     58.7247E+06     353.023E+03    -312.082E-03     607.994E-03    -295.911E-03     260.094E-03    -327.959E-03     623.718E-03    -295.625E-03     196.334E-03
            2198     8.71269E-03     23.9392E-03    -34.0258E+06     22.9643E+06     51.9112E+06    -286.595E+03    -313.490E-03     608.369E-03    -294.879E-03     252.054E-03    -328.363E-03     623.052E-03    -294.603E-03     189.986E-03
            2199     8.05306E-03     23.5563E-03    -40.8447E+06     13.9989E+06     42.7938E+06    -950.674E+03    -312.729E-03     606.339E-03    -293.610E-03     238.204E-03    -325.977E-03     619.368E-03    -293.357E-03     179.694E-03
            2200     7.39181E-03     23.1942E-03    -47.3483E+06     6.06523E+06     33.0366E+06    -987.619E+03    -310.590E-03     602.787E-03    -292.196E-03     219.863E-03    -321.884E-03     613.839E-03    -291.971E-03     166.120E-03
            2201     6.73001E-03     22.8586E-03    -53.2775E+06    -979.115E+03     24.4226E+06     13.9872E+03    -307.715E-03     598.409E-03    -290.694E-03     197.712E-03    -316.927E-03     607.359E-03    -290.493E-03     149.564E-03
            2202     6.06553E-03     22.5553E-03    -59.5678E+06    -8.11535E+06     16.4379E+06     1.16694E+06    -304.242E-03     593.381E-03    -289.140E-03     173.774E-03    -311.484E-03     600.337E-03    -288.959E-03     131.551E-03
            2203     5.40033E-03     22.2869E-03    -67.2108E+06    -18.3931E+06     4.55186E+06     2.45956E+06    -300.492E-03     588.049E-03    -287.557E-03     149.750E-03    -306.009E-03     593.249E-03    -287.410E-03     113.460E-03
            2204     4.73259E-03     22.0517E-03    -76.1956E+06    -33.0508E+06    -13.0057E+06     3.40962E+06    -296.528E-03     582.516E-03    -285.989E-03     126.724E-03    -300.603E-03     586.242E-03    -285.896E-03     96.1399E-03
            2205     4.06206E-03     21.8502E-03    -85.4066E+06    -61.0431E+06    -33.2135E+06     2.85419E+06    -292.494E-03     577.028E-03    -284.533E-03     105.088E-03    -295.401E-03     579.511E-03    -284.487E-03     79.8333E-03
            2206     3.38956E-03     21.6831E-03    -93.7726E+06    -97.4079E+06    -54.8667E+06     1.11326E+06    -288.890E-03     572.134E-03    -283.244E-03     85.0747E-03    -290.864E-03     573.588E-03    -283.242E-03     64.7710E-03
            2207     2.71436E-03     21.5471E-03    -101.537E+06    -136.035E+06    -74.1207E+06    -917.460E+03    -285.850E-03     568.010E-03    -282.160E-03     66.6448E-03    -287.119E-03     568.650E-03    -282.186E-03     50.8373E-03
            2208     2.03731E-03     21.4420E-03    -109.011E+06    -162.708E+06    -91.1846E+06    -1.17657E+06    -283.318E-03     564.608E-03    -281.290E-03     49.0699E-03    -284.083E-03     564.671E-03    -281.352E-03     37.4879E-03
            2209     1.35921E-03     21.3674E-03    -114.453E+06    -171.591E+06    -105.961E+06    -328.621E+03    -281.560E-03     562.194E-03    -280.635E-03     32.5711E-03    -281.996E-03     561.921E-03    -280.750E-03     24.9320E-03
            2210     679.987E-06     21.3217E-03    -117.950E+06    -179.261E+06    -115.199E+06     106.195E+03    -280.154E-03     560.696E-03    -280.542E-03     17.3571E-03    -280.402E-03     560.221E-03    -280.687E-03     13.2504E-03
            2211     12.6964E-03     24.3460E-03    -3.96492E+06     65.7986E+06     71.0195E+06    -325.505E+03    -299.444E-03     597.439E-03    -297.995E-03     158.683E-03    -307.163E-03     605.172E-03    -297.730E-03     116.499E-03
            2212     12.0311E-03     24.0449E-03    -8.06250E+06     58.9444E+06     65.5840E+06     613.384E+03    -303.178E-03     601.006E-03    -297.828E-03     218.132E-03    -315.263E-03     613.081E-03    -297.574E-03     163.369E-03
            2213     11.3647E-03     23.7247E-03    -12.2335E+06     47.3724E+06     60.5988E+06     325.009E+03    -306.998E-03     604.494E-03    -297.496E-03     234.638E-03    -320.580E-03     618.024E-03    -297.244E-03     176.188E-03
            2214     10.7010E-03     23.3660E-03    -16.9036E+06     43.1582E+06     61.5885E+06    -1.26078E+06    -310.543E-03     607.502E-03    -296.959E-03     250.503E-03    -325.762E-03     622.636E-03    -296.689E-03     187.893E-03
            2215     10.0394E-03     22.9902E-03    -23.1459E+06     36.1345E+06     59.6321E+06    -1.52505E+06    -314.411E-03     610.527E-03    -296.116E-03     253.531E-03    -329.950E-03     625.940E-03    -295.837E-03     189.476E-03
            2216     9.38339E-03     22.5978E-03    -29.2032E+06     29.8968E+06     55.8230E+06    -1.11072E+06    -316.968E-03     611.881E-03    -294.913E-03     250.417E-03    -332.081E-03     626.836E-03    -294.635E-03     186.728E-03
            2217     8.72612E-03     22.2078E-03    -34.7583E+06     23.0803E+06     49.2963E+06    -658.547E+03    -316.864E-03     610.273E-03    -293.409E-03     241.281E-03    -330.826E-03     624.052E-03    -293.145E-03     180.085E-03
            2218     8.06762E-03     21.8309E-03    -40.6838E+06     15.3700E+06     40.3374E+06    -1.08445E+06    -315.150E-03     606.843E-03    -291.693E-03     226.361E-03    -327.464E-03     618.952E-03    -291.455E-03     169.079E-03
            2219     7.40900E-03     21.4740E-03    -47.0872E+06     5.96614E+06     30.4175E+06    -2.11364E+06    -312.527E-03     602.339E-03    -289.813E-03     206.682E-03    -322.898E-03     612.478E-03    -289.601E-03     154.412E-03
            2220     6.74853E-03     21.1460E-03    -54.2557E+06    -3.53589E+06     20.7465E+06    -2.66079E+06    -308.981E-03     596.782E-03    -287.801E-03     183.678E-03    -317.339E-03     604.877E-03    -287.613E-03     137.173E-03
            2221     6.08675E-03     20.8515E-03    -62.2873E+06    -12.2698E+06     12.3569E+06    -2.01960E+06    -304.602E-03     590.319E-03    -285.717E-03     159.321E-03    -311.100E-03     596.518E-03    -285.547E-03     118.871E-03
            2222     5.42142E-03     20.5907E-03    -70.4309E+06    -22.7062E+06     1.60693E+06    -469.498E+03    -299.656E-03     583.276E-03    -283.620E-03     135.885E-03    -304.565E-03     587.851E-03    -283.477E-03     101.407E-03
            2223     4.75350E-03     20.3652E-03    -78.1373E+06    -34.2404E+06    -14.2236E+06     1.08082E+06    -294.363E-03     575.955E-03    -281.592E-03     114.086E-03    -297.974E-03     579.209E-03    -281.500E-03     85.2755E-03
            2224     4.08202E-03     20.1736E-03    -85.5024E+06    -58.0914E+06    -33.7014E+06     1.97632E+06    -289.293E-03     569.037E-03    -279.745E-03     94.0450E-03    -291.853E-03     571.185E-03    -279.705E-03     70.4837E-03
            2225     3.40667E-03     20.0138E-03     -93.281E+06     -91.866E+06    -54.5656E+06     1.76972E+06    -284.967E-03     563.090E-03    -278.123E-03     75.7242E-03    -286.710E-03     564.332E-03    -278.127E-03     56.8764E-03
            2226     2.72920E-03     19.8845E-03    -101.094E+06    -132.485E+06    -73.5705E+06     1.22537E+06    -281.250E-03     558.003E-03    -276.753E-03     58.6906E-03    -282.368E-03     558.503E-03    -276.782E-03     44.1232E-03
            2227     2.04926E-03     19.7853E-03    -107.677E+06    -163.052E+06    -90.5913E+06     725.837E+03    -278.142E-03     553.795E-03    -275.653E-03     43.0168E-03    -278.812E-03     553.765E-03    -275.713E-03     32.3887E-03
            2228     1.36693E-03     19.7142E-03    -112.766E+06    -172.070E+06    -105.093E+06     208.902E+03    -275.917E-03     550.762E-03    -274.845E-03     28.5826E-03    -276.306E-03     550.441E-03    -274.957E-03     21.5983E-03
            2229     683.682E-06     19.6705E-03    -116.580E+06    -179.188E+06    -114.655E+06    -200.444E+03    -274.420E-03     548.989E-03    -274.568E-03     15.2611E-03    -274.650E-03     548.498E-03    -274.713E-03     11.4832E-03
            2230     12.6958E-03     22.6229E-03    -3.68415E+06     63.6133E+06     72.1952E+06     737.542E+03    -300.775E-03     598.817E-03    -298.042E-03     160.702E-03    -308.595E-03     606.640E-03    -297.768E-03     118.102E-03
            2231     12.0290E-03     22.3145E-03    -7.69109E+06     58.7174E+06     66.3993E+06     235.582E+03    -305.800E-03     603.568E-03    -297.768E-03     219.866E-03    -317.994E-03     615.751E-03    -297.510E-03     164.331E-03
            2232     11.3672E-03     21.9940E-03    -11.8467E+06     50.3232E+06     62.3464E+06     30.9250E+03    -310.902E-03     608.139E-03    -297.237E-03     232.865E-03    -324.339E-03     621.532E-03    -296.981E-03     173.752E-03
            2233     10.7068E-03     21.6311E-03    -17.0563E+06     46.1043E+06     62.1392E+06     755.918E+03    -316.570E-03     612.912E-03    -296.342E-03     244.467E-03    -331.314E-03     627.579E-03    -296.073E-03     181.282E-03
            2234     10.0524E-03     21.2473E-03    -22.2813E+06     36.6569E+06     59.5302E+06    -550.672E+03    -320.446E-03     615.455E-03    -295.009E-03     244.721E-03    -335.211E-03     630.099E-03    -294.732E-03     180.613E-03
            2235     9.39780E-03     20.8591E-03    -27.2557E+06     28.8481E+06     56.7366E+06    -1.06488E+06    -321.478E-03     614.781E-03    -293.303E-03     239.822E-03    -335.602E-03     628.747E-03    -293.022E-03     176.960E-03
            2236     8.74339E-03     20.4757E-03    -32.3809E+06     24.2357E+06     51.5018E+06    -1.31802E+06    -320.617E-03     611.908E-03    -291.291E-03     228.761E-03    -333.530E-03     624.645E-03    -291.022E-03     168.731E-03
            2237     8.08951E-03     20.1041E-03    -38.2767E+06     15.6369E+06     43.1525E+06    -1.42168E+06    -318.422E-03     607.441E-03    -289.019E-03     211.874E-03    -329.655E-03     618.470E-03    -288.770E-03     156.110E-03
            2238     7.43357E-03     19.7574E-03    -45.3799E+06     7.76245E+06     34.1111E+06    -601.642E+03    -314.950E-03     601.477E-03    -286.527E-03     190.848E-03    -324.282E-03     610.579E-03    -286.302E-03     140.442E-03
            2239     6.77561E-03     19.4379E-03    -53.6612E+06    -1.85199E+06     22.4970E+06    -567.426E+03    -310.143E-03     594.017E-03    -283.873E-03     166.942E-03    -317.561E-03     601.174E-03    -283.681E-03     122.553E-03
            2240     6.11434E-03     19.1540E-03    -61.9955E+06    -13.2097E+06     10.5107E+06    -1.01822E+06    -304.170E-03     585.340E-03    -281.169E-03     142.840E-03    -309.857E-03     590.731E-03    -281.008E-03     104.652E-03
            2241     5.44978E-03     18.9060E-03    -70.1882E+06    -24.7831E+06    -2.21221E+06    -1.60451E+06    -297.598E-03     576.130E-03    -278.532E-03     120.489E-03    -301.857E-03     580.059E-03    -278.405E-03     88.2248E-03
            2242     4.77996E-03     18.6922E-03    -78.4679E+06    -37.3579E+06    -19.0431E+06    -1.23590E+06    -291.082E-03     567.128E-03    -276.046E-03     99.8622E-03    -294.184E-03     569.875E-03    -275.974E-03     73.1651E-03
            2243     4.10576E-03     18.5120E-03    -86.6626E+06    -59.4190E+06    -38.2920E+06     395.305E+03    -285.201E-03     558.989E-03    -273.788E-03     81.3597E-03    -287.395E-03     560.775E-03    -273.768E-03     59.6727E-03
            2244     3.42849E-03     18.3612E-03    -94.0825E+06    -89.6688E+06    -57.8164E+06     1.43260E+06    -279.935E-03     551.734E-03    -271.800E-03     64.7864E-03    -281.433E-03     552.746E-03    -271.822E-03     47.5427E-03
            2245     2.74728E-03     18.2405E-03    -100.760E+06    -129.401E+06    -73.6342E+06     1.42582E+06    -275.404E-03     545.552E-03    -270.147E-03     49.8081E-03    -276.369E-03     545.909E-03    -270.182E-03     36.5609E-03
            2246     2.06303E-03     18.1482E-03    -107.009E+06    -160.740E+06    -87.8800E+06     891.255E+03    -271.893E-03     540.701E-03    -268.808E-03     36.3757E-03    -272.481E-03     540.590E-03    -268.860E-03     26.7473E-03
            2247     1.37694E-03     18.0818E-03    -112.074E+06    -170.954E+06    -102.534E+06     550.938E+03    -269.204E-03     536.964E-03    -267.760E-03     23.8025E-03    -269.554E-03     536.602E-03    -267.863E-03     17.4956E-03
            2248     688.866E-06     18.0413E-03    -115.412E+06    -178.678E+06    -113.265E+06     362.712E+03    -267.181E-03     534.550E-03    -267.369E-03     12.6359E-03    -267.395E-03     534.044E-03    -267.509E-03     9.24135E-03
            2249     12.6947E-03     20.8945E-03    -4.33945E+06     63.0835E+06     71.7642E+06     346.545E+03    -303.310E-03     601.314E-03    -298.005E-03     162.276E-03    -311.194E-03     609.200E-03    -297.731E-03     119.029E-03
            2250     12.0328E-03     20.5830E-03    -7.89606E+06     61.0088E+06     67.1015E+06    -17.3705E+03    -310.646E-03     608.162E-03    -297.517E-03     218.299E-03    -322.781E-03     620.292E-03    -297.258E-03     161.827E-03
            2251     11.3720E-03     20.2541E-03    -11.3261E+06     48.8696E+06     62.8547E+06    -318.294E+03    -318.089E-03     614.688E-03    -296.599E-03     228.181E-03    -331.161E-03     627.711E-03    -296.339E-03     168.153E-03
            2252     10.7199E-03     19.8820E-03    -15.3658E+06     44.2541E+06     63.3068E+06    -163.869E+03    -323.561E-03     618.753E-03    -295.192E-03     236.643E-03    -337.583E-03     632.694E-03    -294.917E-03     173.168E-03
            2253     10.0686E-03     19.5013E-03    -19.7292E+06     40.0388E+06     62.0977E+06     580.263E+03    -325.866E-03     619.191E-03    -293.326E-03     234.646E-03    -339.692E-03     632.911E-03    -293.045E-03     171.110E-03
            2254     9.41846E-03     19.1189E-03    -24.7379E+06     31.4396E+06     59.1187E+06    -397.268E+03    -326.537E-03     617.603E-03    -291.065E-03     226.985E-03    -339.574E-03     630.494E-03    -290.779E-03     165.099E-03
            2255     8.76922E-03     18.7395E-03    -31.3090E+06     25.2399E+06     52.7768E+06    -1.32832E+06    -325.273E-03     613.695E-03    -288.422E-03     213.285E-03    -336.994E-03     625.244E-03    -288.149E-03     154.715E-03
            2256     8.11801E-03     18.3799E-03    -38.6052E+06     15.3500E+06     43.5695E+06    -1.02767E+06    -322.304E-03     607.754E-03    -285.450E-03     194.878E-03    -332.346E-03     617.591E-03    -285.199E-03     141.025E-03
            2257     7.46537E-03     18.0412E-03    -45.5725E+06     6.63390E+06     34.6076E+06    -853.247E+03    -317.585E-03     599.807E-03    -282.222E-03     172.461E-03    -325.796E-03     607.783E-03    -281.992E-03     124.286E-03
            2258     6.81003E-03     17.7363E-03    -51.7880E+06    -2.01415E+06     25.1352E+06     24.6271E+03    -310.728E-03     589.586E-03    -278.858E-03     147.872E-03    -317.126E-03     595.724E-03    -278.655E-03     106.089E-03
            2259     6.14963E-03     17.4679E-03    -58.5367E+06    -11.6353E+06     14.4294E+06     491.300E+03    -302.770E-03     578.289E-03    -275.519E-03     124.367E-03    -307.612E-03     582.843E-03    -275.345E-03     88.8528E-03
            2260     5.48318E-03     17.2344E-03    -66.6925E+06    -23.5263E+06    -249.792E+03     630.374E+03    -294.649E-03     566.966E-03    -272.317E-03     102.682E-03    -298.223E-03     570.222E-03    -272.187E-03     73.0389E-03
            2261     4.81197E-03     17.0363E-03    -76.1473E+06    -37.9964E+06    -19.7561E+06     1.20046E+06    -286.927E-03     556.256E-03    -269.329E-03     83.6412E-03    -289.506E-03     558.487E-03    -269.262E-03     59.3435E-03
            2262     4.13596E-03     16.8679E-03    -84.9196E+06    -59.8853E+06    -39.3989E+06     1.35285E+06    -279.936E-03     546.571E-03    -266.635E-03     67.2718E-03    -281.761E-03     547.995E-03    -266.622E-03     47.6368E-03
            2263     3.45461E-03     16.7298E-03    -92.4356E+06    -89.8594E+06    -59.1150E+06     2.12817E+06    -273.685E-03     537.969E-03    -264.283E-03     52.8623E-03    -274.929E-03     538.733E-03    -264.314E-03     37.3820E-03
            2264     2.76889E-03     16.6192E-03    -99.6719E+06    -125.095E+06    -76.5669E+06     2.65336E+06    -268.467E-03     530.784E-03    -262.317E-03     40.1519E-03    -269.275E-03     531.012E-03    -262.374E-03     28.3416E-03
            2265     2.08003E-03     16.5340E-03    -105.685E+06    -155.803E+06    -89.2810E+06     917.909E+03    -264.341E-03     525.081E-03    -260.740E-03     29.0297E-03    -264.842E-03     524.908E-03    -260.807E-03     20.4494E-03
            2266     1.38848E-03     16.4734E-03    -111.054E+06    -171.202E+06    -101.790E+06    -468.043E+03    -261.220E-03     520.746E-03    -259.526E-03     19.0343E-03    -261.529E-03     520.342E-03    -259.626E-03     13.3742E-03
            2267     694.917E-06     16.4383E-03    -114.827E+06    -178.144E+06    -112.216E+06    -49.2829E+03    -259.045E-03     517.910E-03    -258.864E-03     10.2314E-03    -259.248E-03     517.391E-03    -259.000E-03     7.22525E-03
            2268     12.6979E-03     19.1608E-03    -2.94156E+06     65.0671E+06     73.6568E+06    -31.3774E+03    -309.065E-03     606.830E-03    -297.765E-03     162.664E-03    -316.965E-03     614.737E-03    -297.486E-03     118.341E-03
            2269     12.0373E-03     18.8434E-03    -6.29214E+06     62.5608E+06     69.0034E+06    -574.425E+03    -318.182E-03     615.063E-03    -296.881E-03     215.179E-03    -330.105E-03     626.986E-03    -296.618E-03     157.588E-03
            2270     11.3874E-03     18.4992E-03    -10.9024E+06     47.5410E+06     63.6087E+06    -509.608E+03    -325.716E-03     621.177E-03    -295.461E-03     222.949E-03    -338.331E-03     633.738E-03    -295.196E-03     162.154E-03
            2271     10.7386E-03     18.1304E-03    -15.7334E+06     43.4327E+06     63.7364E+06    -650.309E+03    -330.139E-03     623.647E-03    -293.508E-03     227.984E-03    -343.409E-03     636.832E-03    -293.230E-03     164.505E-03
            2272     10.0912E-03     17.7520E-03    -20.6591E+06     40.2881E+06     62.1771E+06    -1.07781E+06    -332.401E-03     623.443E-03    -291.042E-03     222.855E-03    -345.254E-03     636.188E-03    -290.760E-03     159.853E-03
            2273     9.44641E-03     17.3712E-03    -26.6277E+06     32.9074E+06     58.3162E+06    -1.62267E+06    -332.618E-03     620.710E-03    -288.092E-03     211.625E-03    -344.497E-03     632.446E-03    -287.810E-03     150.874E-03
            2274     8.80105E-03     17.0040E-03    -32.6701E+06     24.6126E+06     51.5721E+06    -1.46864E+06    -330.597E-03     615.285E-03    -284.687E-03     195.266E-03    -341.052E-03     625.565E-03    -284.418E-03     138.481E-03
            2275     8.15483E-03     16.6542E-03    -38.0828E+06     15.2855E+06     42.7405E+06    -1.70064E+06    -326.575E-03     607.465E-03    -280.890E-03     174.826E-03    -335.371E-03     616.061E-03    -280.643E-03     123.094E-03
            2276     7.50641E-03     16.3300E-03    -43.4434E+06     5.87514E+06     33.7043E+06    -1.69695E+06    -319.601E-03     596.434E-03    -276.832E-03     150.619E-03    -326.632E-03     603.239E-03    -276.609E-03     105.023E-03
            2277     6.85191E-03     16.0447E-03    -49.9860E+06    -4.37313E+06     22.9127E+06    -1.06685E+06    -310.484E-03     583.189E-03    -272.705E-03     125.720E-03    -315.844E-03     588.294E-03    -272.511E-03     86.7818E-03
            2278     6.19130E-03     15.7941E-03    -57.4100E+06    -13.3185E+06     13.8937E+06     341.887E+03    -300.556E-03     569.255E-03    -268.698E-03     102.779E-03    -304.543E-03     572.954E-03    -268.526E-03     70.1858E-03
            2279     5.52474E-03     15.5807E-03    -65.4596E+06    -24.4205E+06     2.86023E+06     2.21701E+06    -290.669E-03     555.597E-03    -264.928E-03     82.7295E-03    -293.575E-03     558.177E-03    -264.783E-03     55.9271E-03
            2280     4.85084E-03     15.3989E-03    -73.5761E+06    -37.4958E+06    -15.5674E+06     3.48506E+06    -281.574E-03     543.021E-03    -261.447E-03     66.1594E-03    -283.665E-03     544.762E-03    -261.363E-03     44.3905E-03
            2281     4.17032E-03     15.2469E-03    -82.3202E+06    -58.2966E+06    -37.4462E+06     4.91424E+06    -273.325E-03     531.661E-03    -258.336E-03     52.0808E-03    -274.798E-03     532.741E-03    -258.319E-03     34.7120E-03
            2282     3.48440E-03     15.1223E-03    -91.6050E+06    -88.7603E+06    -59.3551E+06     6.18219E+06    -266.220E-03     521.872E-03    -255.652E-03     40.1903E-03    -267.229E-03     522.409E-03    -255.688E-03     26.6225E-03
            2283     2.79404E-03     15.0229E-03    -99.1675E+06    -118.580E+06    -79.3152E+06     6.00606E+06    -260.356E-03     513.756E-03    -253.400E-03     30.2233E-03    -261.025E-03     513.877E-03    -253.481E-03     19.9209E-03
            2284     2.09941E-03     14.9470E-03    -105.278E+06    -146.236E+06    -95.3394E+06     3.70159E+06    -255.578E-03     507.191E-03    -251.613E-03     21.6178E-03    -256.004E-03     506.995E-03    -251.725E-03     14.1729E-03
            2285     1.40104E-03     14.8942E-03    -110.369E+06    -169.052E+06    -104.621E+06     703.968E+03    -252.101E-03     502.433E-03    -250.333E-03     13.9578E-03    -252.370E-03     502.007E-03    -250.451E-03     9.06799E-03
            2286     701.007E-06     14.8608E-03    -113.494E+06    -179.122E+06    -111.180E+06    -275.969E+03    -250.015E-03     499.507E-03    -249.492E-03     7.22903E-03    -250.200E-03     498.968E-03    -249.623E-03     4.61459E-03
            2287     12.7034E-03     17.4189E-03    -3.62394E+06     65.4021E+06     74.3144E+06    -1.63233E+06    -317.527E-03     614.826E-03    -297.299E-03     165.415E-03    -325.568E-03     622.871E-03    -297.017E-03     119.341E-03
            2288     12.0539E-03     17.0887E-03    -8.57073E+06     61.0578E+06     67.7439E+06    -1.42677E+06    -327.200E-03     623.111E-03    -295.910E-03     216.009E-03    -339.135E-03     635.036E-03    -295.648E-03     156.714E-03
            2289     11.4044E-03     16.7405E-03    -12.6830E+06     49.3386E+06     64.1202E+06    -803.483E+03    -334.031E-03     627.964E-03    -293.933E-03     219.719E-03    -346.354E-03     640.233E-03    -293.666E-03     158.021E-03
            2290     10.7604E-03     16.3694E-03    -16.2982E+06     45.4062E+06     65.3178E+06    -1.30811E+06    -338.530E-03     629.879E-03    -291.349E-03     219.435E-03    -351.167E-03     642.432E-03    -291.065E-03     155.610E-03
            2291     10.1211E-03     15.9930E-03    -20.4689E+06     39.2544E+06     63.2798E+06    -2.19089E+06    -340.594E-03     628.734E-03    -288.141E-03     210.001E-03    -352.557E-03     640.585E-03    -287.852E-03     147.207E-03
            2292     9.48208E-03     15.6218E-03    -25.3779E+06     32.5537E+06     59.4798E+06    -1.90747E+06    -339.937E-03     624.291E-03    -284.354E-03     194.779E-03    -350.702E-03     634.914E-03    -284.067E-03     135.068E-03
            2293     8.84234E-03     15.2662E-03    -30.4569E+06     25.1250E+06     52.4380E+06    -2.21523E+06    -337.080E-03     617.109E-03    -280.030E-03     175.272E-03    -346.356E-03     626.221E-03    -279.760E-03     119.932E-03
            2294     8.20152E-03     14.9283E-03    -36.1962E+06     15.5206E+06     42.5899E+06    -2.42488E+06    -330.794E-03     606.069E-03    -275.276E-03     151.518E-03    -338.379E-03     613.466E-03    -275.033E-03     101.965E-03
            2295     7.55517E-03     14.6279E-03    -43.0136E+06     4.42482E+06     31.8637E+06    -2.18890E+06    -320.872E-03     591.197E-03    -270.325E-03     125.559E-03    -326.744E-03     596.848E-03    -270.110E-03     82.8110E-03
            2296     6.90254E-03     14.3631E-03    -49.6643E+06    -6.82538E+06     19.9712E+06    -1.05976E+06    -309.238E-03     574.654E-03    -265.416E-03     101.189E-03    -313.619E-03     578.783E-03    -265.234E-03     65.2907E-03
            2297     6.24224E-03     14.1379E-03    -56.9024E+06    -16.4603E+06     9.27759E+06     1.00361E+06    -297.149E-03     557.891E-03    -260.742E-03     79.9201E-03    -300.347E-03     560.805E-03    -260.589E-03     50.3779E-03
            2298     5.57207E-03     13.9464E-03    -65.0704E+06    -27.0650E+06     29.5501E+03     3.00882E+06    -285.567E-03     541.997E-03    -256.430E-03     62.4733E-03    -287.887E-03     543.991E-03    -256.296E-03     38.4477E-03
            2299     4.89458E-03     13.7850E-03    -74.3194E+06    -40.4050E+06    -15.0578E+06     5.71947E+06    -275.009E-03     527.525E-03    -252.516E-03     48.2717E-03    -276.680E-03     528.832E-03    -252.425E-03     28.9938E-03
            2300     4.21009E-03     13.6511E-03    -84.3568E+06    -58.7512E+06    -36.9537E+06     9.08408E+06    -265.667E-03     514.705E-03    -249.038E-03     36.6109E-03    -266.854E-03     515.489E-03    -249.015E-03     21.4366E-03
            2301     3.51873E-03     13.5423E-03    -93.0569E+06    -83.1241E+06    -59.2651E+06     10.4663E+06    -257.632E-03     503.690E-03    -246.058E-03     27.3478E-03    -258.460E-03     504.059E-03    -246.099E-03     15.6312E-03
            2302     2.82156E-03     13.4549E-03    -100.152E+06    -110.020E+06    -78.9224E+06     9.56006E+06    -251.016E-03     494.625E-03    -243.608E-03     20.0066E-03    -251.582E-03     494.667E-03    -243.698E-03     11.1915E-03
            2303     2.11992E-03     13.3901E-03    -106.204E+06    -134.701E+06    -96.5703E+06     7.91580E+06    -245.922E-03     487.601E-03    -241.679E-03     13.8023E-03    -246.300E-03     487.397E-03    -241.813E-03     7.50667E-03
            2304     1.41571E-03     13.3431E-03    -110.413E+06    -158.357E+06    -108.887E+06     4.66704E+06    -242.191E-03     482.487E-03    -240.296E-03     8.74636E-03    -242.438E-03     482.087E-03    -240.451E-03     4.65977E-03
            2305     708.486E-06     13.3167E-03    -112.568E+06    -177.553E+06    -112.923E+06     914.433E+03    -240.099E-03     479.428E-03    -239.328E-03     4.54160E-03    -240.269E-03     478.887E-03    -239.472E-03     2.36857E-03
            2306     12.7115E-03     15.6584E-03    -4.34594E+06     64.4328E+06     71.9649E+06    -1.69618E+06    -327.208E-03     623.963E-03    -296.756E-03     172.711E-03    -335.627E-03     632.387E-03    -296.483E-03     124.380E-03
            2307     12.0631E-03     15.3206E-03    -7.95887E+06     58.1248E+06     68.1753E+06    -939.514E+03    -337.648E-03     632.466E-03    -294.818E-03     218.312E-03    -349.846E-03     644.644E-03    -294.550E-03     156.633E-03
            2308     11.4245E-03     14.9671E-03    -11.6229E+06     52.2314E+06     64.5401E+06    -930.760E+03    -344.802E-03     636.953E-03    -292.150E-03     216.561E-03    -357.048E-03     649.156E-03    -291.886E-03     153.055E-03
            2309     10.7899E-03     14.5970E-03    -16.2656E+06     47.8452E+06     64.1466E+06    -2.99662E+06    -349.124E-03     637.891E-03    -288.766E-03     211.663E-03    -361.388E-03     650.083E-03    -288.491E-03     146.564E-03
            2310     10.1565E-03     14.2248E-03    -21.2592E+06     40.5930E+06     61.6333E+06    -3.91197E+06    -350.408E-03     635.077E-03    -284.669E-03     197.549E-03    -361.732E-03     646.296E-03    -284.389E-03     134.243E-03
            2311     9.52408E-03     13.8661E-03    -26.1004E+06     31.2680E+06     57.8948E+06    -4.33552E+06    -349.558E-03     629.443E-03    -279.885E-03     178.347E-03    -359.495E-03     639.238E-03    -279.603E-03     118.669E-03
            2312     8.89232E-03     13.5208E-03    -31.7488E+06     23.4610E+06     50.5930E+06    -4.05363E+06    -344.790E-03     619.260E-03    -274.470E-03     153.646E-03    -353.059E-03     627.364E-03    -274.205E-03     99.2881E-03
            2313     8.25655E-03     13.2079E-03    -37.9703E+06     13.9992E+06     39.7504E+06    -2.85782E+06    -334.631E-03     603.304E-03    -268.673E-03     126.251E-03    -341.127E-03     609.611E-03    -268.439E-03     78.8595E-03
            2314     7.61379E-03     12.9329E-03    -44.4406E+06     2.90890E+06     27.8703E+06    -1.73753E+06    -321.243E-03     584.073E-03    -262.830E-03     100.075E-03    -326.136E-03     588.748E-03    -262.631E-03     60.0634E-03
            2315     6.96111E-03     12.6986E-03    -51.4126E+06    -9.61228E+06     14.8025E+06    -476.571E+03    -306.755E-03     563.952E-03    -257.198E-03     77.2168E-03    -310.345E-03     567.291E-03    -257.035E-03     44.1764E-03
            2316     6.29721E-03     12.5003E-03    -58.4965E+06    -20.7457E+06     2.74106E+06     1.50108E+06    -292.667E-03     544.603E-03    -251.937E-03     58.2640E-03    -295.261E-03     546.913E-03    -251.808E-03     31.3818E-03
            2317     5.62517E-03     12.3349E-03    -66.4499E+06    -31.8939E+06    -7.85855E+06      5.0752E+06    -279.647E-03     526.776E-03    -247.130E-03     42.9847E-03    -281.516E-03     528.322E-03    -247.026E-03     21.3560E-03
            2318     4.94330E-03     12.1968E-03    -75.4778E+06    -44.9124E+06    -19.5599E+06     9.31994E+06    -267.691E-03     510.515E-03    -242.824E-03     31.0931E-03    -269.040E-03     511.494E-03    -242.748E-03     13.9499E-03
            2319     4.25261E-03     12.0832E-03    -84.3597E+06    -58.4273E+06    -34.4855E+06     11.9147E+06    -257.194E-03     496.250E-03    -239.056E-03     22.1757E-03    -258.173E-03     496.819E-03    -239.021E-03     8.79828E-03
            2320     3.55527E-03     11.9907E-03    -92.6436E+06    -75.9321E+06    -54.2899E+06     12.6113E+06    -248.362E-03     484.200E-03    -235.838E-03     15.3933E-03    -249.067E-03     484.460E-03    -235.866E-03     5.14740E-03
            2321     2.85156E-03     11.9193E-03    -100.268E+06    -99.6339E+06    -74.9645E+06     11.7882E+06    -241.093E-03     474.303E-03    -233.210E-03     10.4399E-03    -241.595E-03     474.305E-03    -233.295E-03     2.81772E-03
            2322     2.14327E-03     11.8624E-03    -106.442E+06    -123.569E+06    -91.9904E+06     9.98997E+06    -235.429E-03     466.643E-03    -231.214E-03     6.83141E-03    -235.786E-03     466.441E-03    -231.340E-03     1.42595E-03
            2323     1.43039E-03     11.8264E-03    -110.432E+06    -143.304E+06    -106.005E+06     8.06358E+06    -231.575E-03     461.425E-03    -229.850E-03     4.46414E-03    -231.829E-03     461.077E-03    -230.012E-03     980.304E-06
            2324     715.679E-06     11.8009E-03    -112.379E+06    -165.529E+06    -114.021E+06     4.97064E+06    -229.578E-03     458.591E-03    -229.013E-03     2.74163E-03    -229.758E-03     458.107E-03    -229.180E-03     895.956E-06
            2325     12.7156E-03     13.8856E-03    -3.66362E+06     66.6202E+06     73.2532E+06    -183.665E+03    -338.409E-03     634.645E-03    -296.236E-03     178.880E-03    -347.257E-03     643.503E-03    -295.961E-03     128.153E-03
            2326     12.0803E-03     13.5311E-03    -8.36124E+06     59.1838E+06     67.6239E+06    -1.38902E+06    -349.661E-03     643.306E-03    -293.644E-03     220.670E-03    -362.290E-03     655.918E-03    -293.380E-03     156.050E-03
            2327     11.4475E-03     13.1800E-03    -12.6395E+06     54.0702E+06     62.8128E+06    -3.10118E+06    -357.347E-03     647.540E-03    -290.193E-03     214.890E-03    -369.806E-03     659.965E-03    -289.939E-03     148.651E-03
            2328     10.8198E-03     12.8031E-03    -16.0917E+06     50.0346E+06     62.2727E+06    -3.52121E+06    -361.661E-03     647.564E-03    -285.904E-03     205.726E-03    -373.853E-03     659.701E-03    -285.642E-03     138.488E-03
            2329     10.1958E-03     12.4476E-03    -20.6700E+06     42.7874E+06     59.1092E+06    -3.68620E+06    -363.641E-03     644.381E-03    -280.740E-03     185.653E-03    -374.580E-03     655.234E-03    -280.476E-03     120.661E-03
            2330     9.57317E-03     12.0938E-03    -26.5643E+06     31.7800E+06     53.8242E+06    -4.38983E+06    -361.346E-03     636.087E-03    -274.741E-03     159.811E-03    -370.618E-03     645.234E-03    -274.480E-03     99.3787E-03
            2331     8.94985E-03     11.7710E-03    -32.5054E+06     20.0415E+06     45.2801E+06    -3.78171E+06    -351.795E-03     619.951E-03    -268.156E-03     129.717E-03    -359.154E-03     627.149E-03    -267.912E-03     76.3047E-03
            2332     8.31896E-03     11.4903E-03    -38.4499E+06     10.7071E+06     34.5061E+06    -2.28568E+06    -337.026E-03     598.420E-03    -261.395E-03     102.087E-03    -342.660E-03     603.871E-03    -261.182E-03     56.5889E-03
            2333     7.67654E-03     11.2500E-03    -45.0153E+06     569.116E+03     23.0657E+06    -125.522E+03    -320.198E-03     575.008E-03    -254.810E-03     77.6744E-03    -324.388E-03     578.986E-03    -254.631E-03     39.9428E-03
            2334     7.02229E-03     11.0504E-03    -52.1915E+06    -11.7013E+06     10.0432E+06     2.12747E+06    -303.365E-03     551.969E-03    -248.604E-03     57.2611E-03    -306.420E-03     554.778E-03    -248.461E-03     26.4745E-03
            2335     6.35734E-03     10.8845E-03    -60.2471E+06    -24.7567E+06    -4.11360E+06     4.60233E+06    -287.643E-03     530.517E-03    -242.875E-03     41.1578E-03    -289.866E-03     532.456E-03    -242.772E-03     16.2334E-03
            2336     5.68009E-03     10.7466E-03    -67.9665E+06    -36.9960E+06    -15.4585E+06     7.29331E+06    -273.277E-03     510.962E-03    -237.685E-03     28.4846E-03    -274.889E-03     512.249E-03    -237.610E-03     8.53022E-03
            2337     4.99331E-03     10.6353E-03    -74.2869E+06    -47.2844E+06    -24.2356E+06     9.40360E+06    -260.376E-03     493.440E-03    -233.064E-03     18.8298E-03    -261.550E-03     494.253E-03    -233.009E-03     3.01164E-03
            2338     4.29754E-03     10.5437E-03    -80.1842E+06    -57.1900E+06    -33.6241E+06     11.1958E+06    -248.841E-03     477.887E-03    -229.046E-03     11.7621E-03    -249.702E-03     478.356E-03    -229.015E-03    -596.757E-06
            2339     3.59297E-03     10.4705E-03    -86.5904E+06    -70.5999E+06    -46.3005E+06     12.4681E+06    -239.077E-03     464.741E-03    -225.665E-03     7.11084E-03    -239.713E-03     464.950E-03    -225.668E-03    -2.36503E-03
            2340     2.88252E-03     10.4121E-03    -93.4899E+06    -89.4137E+06    -63.3327E+06     12.3257E+06    -231.221E-03     454.154E-03    -222.933E-03     4.06397E-03    -231.690E-03     454.151E-03    -222.984E-03    -3.00047E-03
            2341     2.16570E-03     10.3705E-03    -100.114E+06    -111.009E+06    -81.4375E+06     10.4620E+06    -225.227E-03     446.098E-03    -220.872E-03     2.31938E-03    -225.570E-03     445.921E-03    -220.973E-03    -2.70413E-03
            2342     1.44570E-03     10.3381E-03    -105.156E+06    -130.029E+06    -95.3537E+06     8.17069E+06    -221.376E-03     440.811E-03    -219.435E-03     1.23736E-03    -221.632E-03     440.501E-03    -219.570E-03    -2.00547E-03
            2343     723.299E-06     10.3203E-03    -107.918E+06    -145.714E+06    -104.020E+06     6.07434E+06    -219.003E-03     437.586E-03    -218.583E-03     376.661E-06    -219.202E-03     437.177E-03    -218.735E-03    -1.32493E-03
            2344     12.7252E-03     12.0927E-03    -4.12903E+06     68.4279E+06     72.6706E+06     115.286E+03    -350.676E-03     646.400E-03    -295.724E-03     185.969E-03    -360.041E-03     655.782E-03    -295.454E-03     132.460E-03
            2345     12.0915E-03     11.7235E-03    -7.37579E+06     66.5681E+06     67.7625E+06    -2.02450E+06    -362.439E-03     654.889E-03    -292.449E-03     226.005E-03    -375.733E-03     668.195E-03    -292.196E-03     157.997E-03
            2346     11.4700E-03     11.3647E-03    -9.76778E+06     56.7184E+06     63.6082E+06    -3.58609E+06    -371.822E-03     659.996E-03    -288.174E-03     215.056E-03    -384.699E-03     672.856E-03    -287.924E-03     145.360E-03
            2347     10.8526E-03     10.9979E-03    -13.6136E+06     47.4572E+06     62.1382E+06    -2.47207E+06    -378.685E-03     661.483E-03    -282.798E-03     198.208E-03    -390.923E-03     673.665E-03    -282.536E-03     127.515E-03
            2348     10.2391E-03     10.6403E-03    -18.3215E+06     42.4608E+06     58.2720E+06    -1.36765E+06    -379.912E-03     656.216E-03    -276.303E-03     168.734E-03    -390.442E-03     666.674E-03    -276.047E-03     101.306E-03
            2349     9.63037E-03     10.3058E-03    -23.5366E+06     33.9158E+06     51.7882E+06    -279.007E+03    -371.322E-03     640.340E-03    -269.018E-03     136.451E-03    -379.813E-03     648.735E-03    -268.774E-03     75.9172E-03
            2350     9.01253E-03     10.0211E-03    -29.9103E+06     20.7206E+06     41.4788E+06     467.420E+03    -355.238E-03     616.702E-03    -261.465E-03     107.233E-03    -361.811E-03     623.139E-03    -261.244E-03     55.3307E-03
            2351     8.38205E-03     9.77919E-03    -37.2571E+06     8.48089E+06     29.5558E+06     1.77749E+06    -336.523E-03     590.579E-03    -254.056E-03     82.4405E-03    -341.521E-03     595.405E-03    -253.867E-03     38.9899E-03
            2352     7.73897E-03     9.58129E-03    -44.6331E+06    -2.39575E+06     17.9941E+06     4.02297E+06    -317.208E-03     564.243E-03    -247.035E-03     61.7145E-03    -320.952E-03     567.780E-03    -246.877E-03     25.9719E-03
            2353     7.08201E-03     9.41984E-03    -52.2465E+06    -14.2228E+06     6.51528E+06     6.42247E+06    -298.890E-03     539.418E-03    -240.528E-03     45.2569E-03    -301.684E-03     541.966E-03    -240.399E-03     16.0596E-03
            2354     6.41171E-03     9.28788E-03    -59.1168E+06    -25.9646E+06    -5.33228E+06     8.15097E+06    -281.971E-03     516.556E-03    -234.585E-03     32.4615E-03    -284.051E-03     518.355E-03    -234.488E-03     8.77366E-03
            2355     5.73055E-03     9.18296E-03    -65.1539E+06    -36.3709E+06    -15.0184E+06     8.26861E+06    -266.583E-03     495.837E-03    -229.255E-03     22.8247E-03    -268.131E-03     497.072E-03    -229.182E-03     3.71335E-03
            2356     5.03841E-03     9.09676E-03    -71.0725E+06    -46.2183E+06    -24.0231E+06     7.82964E+06    -252.969E-03     477.525E-03    -224.556E-03     16.0783E-03    -254.132E-03     478.343E-03    -224.506E-03     733.431E-06
            2357     4.33687E-03     9.03075E-03    -76.8995E+06    -56.3002E+06    -34.7507E+06     7.96648E+06    -241.325E-03     461.799E-03    -220.474E-03     11.4017E-03    -242.200E-03     462.303E-03    -220.455E-03    -774.391E-06
            2358     3.62708E-03     8.97749E-03    -82.1212E+06    -67.3150E+06     -45.052E+06     8.53230E+06    -231.345E-03     448.370E-03    -217.024E-03     7.69756E-03    -231.998E-03     448.622E-03    -217.033E-03    -1.74428E-03
            2359     2.90910E-03     8.93587E-03    -86.1258E+06    -81.7076E+06    -55.0563E+06     8.40780E+06    -223.169E-03     437.398E-03    -214.229E-03     4.59397E-03    -223.646E-03     437.437E-03    -214.261E-03    -2.51364E-03
            2360     2.18683E-03     8.90480E-03    -89.5429E+06    -100.056E+06    -67.5385E+06     7.33532E+06    -217.114E-03     429.160E-03    -212.046E-03     2.69221E-03    -217.453E-03     429.018E-03    -212.109E-03    -2.40767E-03
            2361     1.46025E-03     8.88159E-03    -92.7424E+06    -118.406E+06    -81.7635E+06     5.13437E+06    -212.708E-03     423.153E-03    -210.446E-03     1.87688E-03    -212.944E-03     422.873E-03    -210.548E-03    -1.44945E-03
            2362     731.636E-06     8.86645E-03    -94.6889E+06    -130.853E+06    -91.9642E+06     2.29553E+06    -209.980E-03     419.492E-03    -209.512E-03     1.23536E-03    -210.152E-03     419.125E-03    -209.645E-03    -534.080E-06
            2363     12.7271E-03     10.2699E-03    -1.92037E+06     71.3038E+06     71.2396E+06    -501.593E+03    -364.143E-03     659.463E-03    -295.320E-03     195.170E-03    -374.233E-03     669.590E-03    -295.064E-03     138.264E-03
            2364     12.1079E-03     9.90139E-03    -4.54161E+06     72.5487E+06     65.6664E+06    -2.27429E+06    -378.981E-03     670.220E-03    -291.239E-03     231.891E-03    -393.200E-03     684.487E-03    -291.009E-03     158.900E-03
            2365     11.4916E-03     9.52384E-03    -9.59145E+06     57.0489E+06     58.2488E+06    -2.35469E+06    -392.859E-03     678.678E-03    -285.818E-03     208.396E-03    -405.979E-03     691.799E-03    -285.596E-03     133.656E-03
            2366     10.8888E-03     9.15550E-03    -15.0656E+06     46.2629E+06     55.4608E+06    -2.10224E+06    -398.640E-03     677.642E-03    -279.001E-03     177.830E-03    -410.363E-03     689.325E-03    -278.769E-03     103.727E-03
            2367     10.2956E-03     8.80229E-03    -19.9240E+06     39.5999E+06     51.1495E+06    -1.75385E+06    -391.622E-03     662.792E-03    -271.171E-03     142.962E-03    -401.229E-03     672.338E-03    -270.943E-03     75.2099E-03
            2368     9.69127E-03     8.51794E-03    -24.9140E+06     29.8135E+06     44.4144E+06     835.025E+03    -374.393E-03     637.387E-03    -262.994E-03     111.660E-03    -381.864E-03     644.765E-03    -262.779E-03     53.3212E-03
            2369     9.07219E-03     8.27460E-03    -30.4027E+06     18.6945E+06     35.0530E+06     4.51462E+06    -353.320E-03     608.305E-03    -254.984E-03     87.9479E-03    -359.133E-03     613.991E-03    -254.792E-03     38.8839E-03
            2370     8.43995E-03     8.08149E-03    -36.5959E+06     6.76489E+06     24.4739E+06     7.39828E+06    -331.580E-03     579.001E-03    -247.421E-03     68.0482E-03    -336.041E-03     583.299E-03    -247.255E-03     27.3740E-03
            2371     7.79135E-03     7.92772E-03    -43.2061E+06    -4.19216E+06     15.0732E+06     9.39766E+06    -310.653E-03     551.103E-03    -240.450E-03     53.6593E-03    -314.114E-03     554.363E-03    -240.306E-03     20.0614E-03
            2372     7.12948E-03     7.80597E-03    -49.3582E+06    -13.6487E+06     7.73088E+06     10.0611E+06    -291.452E-03     525.589E-03    -234.137E-03     43.3583E-03    -294.157E-03     528.056E-03    -234.007E-03     15.6453E-03
            2373     6.45486E-03     7.71226E-03    -55.0190E+06    -22.8496E+06     906.506E+03     9.13439E+06    -274.041E-03     502.542E-03    -228.502E-03     36.1924E-03    -276.155E-03     504.384E-03    -228.384E-03     13.4310E-03
            2374     5.76739E-03     7.63760E-03    -60.6537E+06    -32.2737E+06    -7.59116E+06     7.98640E+06    -258.738E-03     482.279E-03    -223.541E-03     31.4111E-03    -260.395E-03     483.633E-03    -223.444E-03     12.7911E-03
            2375     5.06885E-03     7.58274E-03    -66.7770E+06    -42.3953E+06    -17.8151E+06     6.94292E+06    -245.713E-03     464.944E-03    -219.231E-03     27.3442E-03    -246.996E-03     465.894E-03    -219.162E-03     12.2475E-03
            2376     4.36060E-03     7.53730E-03    -73.0222E+06    -52.6928E+06    -29.0519E+06     5.54077E+06    -234.781E-03     450.312E-03    -215.531E-03     23.8335E-03    -235.762E-03     450.934E-03    -215.494E-03     11.7400E-03
            2377     3.64598E-03     7.50397E-03    -78.5594E+06    -62.8561E+06    -41.9316E+06     3.46961E+06    -225.834E-03     438.222E-03    -212.388E-03     20.5819E-03    -226.574E-03     438.583E-03    -212.393E-03     11.0595E-03
            2378     2.92569E-03     7.47947E-03    -82.9300E+06    -75.2037E+06    -54.2714E+06     744.548E+03    -218.607E-03     428.373E-03    -209.766E-03     17.2411E-03    -219.148E-03     428.511E-03    -209.808E-03     9.97699E-03
            2379     2.19909E-03     7.45946E-03    -85.5727E+06    -96.0965E+06    -64.9253E+06    -1.28867E+06    -212.873E-03     420.527E-03    -207.655E-03     13.4106E-03    -213.243E-03     420.441E-03    -207.716E-03     8.16300E-03
            2380     1.46879E-03     7.44674E-03    -87.2727E+06    -115.131E+06    -76.5829E+06    -571.492E+03    -208.512E-03     414.558E-03    -206.046E-03     9.10054E-03    -208.751E-03     414.300E-03    -206.136E-03     5.68517E-03
            2381     733.522E-06     7.43815E-03    -89.0154E+06    -125.163E+06    -85.7510E+06     526.557E+03    -205.790E-03     410.674E-03    -204.884E-03     4.72991E-03    -205.955E-03     410.326E-03    -205.002E-03     2.92587E-03
            2382     12.7327E-03     8.43682E-03    -3.64787E+06     73.8100E+06     66.3858E+06    -3.39256E+06    -381.414E-03     676.324E-03    -294.911E-03     203.248E-03    -392.217E-03     687.176E-03    -294.680E-03     142.109E-03
            2383     12.1168E-03     8.03714E-03    -7.57177E+06     71.5259E+06     60.0674E+06    -2.34897E+06    -406.647E-03     696.293E-03    -289.646E-03     229.911E-03    -421.223E-03     710.918E-03    -289.439E-03     150.458E-03
            2384     11.5286E-03     7.63718E-03    -11.3267E+06     56.2514E+06     52.7785E+06    -1.17862E+06    -419.262E-03     701.853E-03    -282.591E-03     188.187E-03    -431.764E-03     714.370E-03    -282.393E-03     108.921E-03
            2385     10.9497E-03     7.27632E-03    -14.1647E+06     48.8486E+06     48.9604E+06    -557.504E+03    -413.747E-03     688.025E-03    -274.278E-03     148.831E-03    -424.094E-03     698.372E-03    -274.084E-03     75.1737E-03
            2386     10.3562E-03     6.97129E-03    -18.6048E+06     36.1920E+06     43.0403E+06     1.44572E+06    -394.377E-03     659.946E-03    -265.570E-03     113.130E-03    -402.371E-03     667.901E-03    -265.380E-03     49.6639E-03
            2387     9.74825E-03     6.73310E-03    -24.3302E+06     22.1287E+06     36.7613E+06     4.94304E+06    -369.378E-03     626.521E-03    -257.143E-03     86.4890E-03    -375.508E-03     632.555E-03    -256.956E-03     33.3988E-03
            2388     9.12629E-03     6.54651E-03    -30.0952E+06     13.2397E+06     30.2069E+06     8.12500E+06    -343.771E-03     593.108E-03    -249.338E-03     70.5467E-03    -348.641E-03     597.847E-03    -249.162E-03     26.2963E-03
            2389     8.48501E-03     6.40207E-03    -34.8400E+06     4.46774E+06     24.1684E+06     10.5073E+06    -319.368E-03     561.694E-03    -242.325E-03     60.8510E-03    -323.283E-03     565.442E-03    -242.161E-03     24.1504E-03
            2390     7.82899E-03     6.29582E-03    -38.8891E+06    -2.86905E+06     19.5182E+06     11.2099E+06    -297.602E-03     533.764E-03    -236.163E-03     56.0665E-03    -300.785E-03     536.753E-03    -236.005E-03     25.6380E-03
            2391     7.15689E-03     6.21418E-03    -43.3405E+06    -9.25775E+06     15.5748E+06     10.2838E+06    -278.467E-03     509.305E-03    -230.838E-03     54.6497E-03    -281.093E-03     511.708E-03    -230.684E-03     29.4107E-03
            2392     6.47137E-03     6.15558E-03    -48.8082E+06    -17.9015E+06     9.00181E+06     9.20216E+06    -262.575E-03     488.861E-03    -226.286E-03     54.1293E-03    -264.725E-03     490.755E-03    -226.144E-03     33.2565E-03
            2393     5.77478E-03     6.11284E-03    -54.9831E+06    -27.2505E+06     497.097E+03     7.69863E+06    -249.669E-03     472.074E-03    -222.406E-03     53.1528E-03    -251.408E-03     473.526E-03    -222.284E-03     35.9654E-03
            2394     5.07030E-03     6.07915E-03    -61.5423E+06    -36.5457E+06    -7.51686E+06     5.45884E+06    -239.116E-03     458.229E-03    -219.113E-03     50.7547E-03    -240.496E-03     459.287E-03    -219.008E-03     36.7352E-03
            2395     4.35953E-03     6.05737E-03    -68.4435E+06    -46.1584E+06    -16.6851E+06     2.44467E+06    -230.362E-03     446.707E-03    -216.345E-03     47.2168E-03    -231.437E-03     447.427E-03    -216.262E-03     35.9361E-03
            2396     3.64049E-03     6.03960E-03     -75.412E+06    -56.7837E+06    -29.7005E+06    -987.657E+03    -223.411E-03     437.462E-03    -214.051E-03     42.4796E-03    -224.233E-03     437.901E-03    -214.008E-03     33.5690E-03
            2397     2.91730E-03     6.02701E-03    -82.1873E+06    -69.5220E+06    -49.3049E+06    -4.57274E+06    -218.196E-03     430.345E-03    -212.149E-03     36.5023E-03    -218.800E-03     430.552E-03    -212.176E-03     29.6611E-03
            2398     2.19173E-03     6.01919E-03    -88.7940E+06    -98.7669E+06    -68.6749E+06    -6.68272E+06    -214.207E-03     424.838E-03    -210.631E-03     29.3230E-03    -214.617E-03     424.779E-03    -210.703E-03     24.3400E-03
            2399     1.46282E-03     6.01354E-03    -94.2558E+06    -123.536E+06    -82.4238E+06    -5.15376E+06    -211.321E-03     420.759E-03    -209.438E-03     20.8411E-03    -211.593E-03     420.493E-03    -209.534E-03     17.5734E-03
            2400     734.651E-06     6.01070E-03    -96.6163E+06    -128.259E+06    -92.0705E+06    -2.11788E+06    -209.023E-03     417.683E-03    -208.660E-03     11.9249E-03    -209.223E-03     417.343E-03    -208.794E-03     10.1901E-03
            2401     12.7301E-03     6.57340E-03    -1.72231E+06     77.4428E+06     63.4487E+06    -1.09949E+06    -416.018E-03     710.146E-03    -294.129E-03     211.225E-03    -426.846E-03     721.041E-03    -293.921E-03     145.833E-03
            2402     12.1520E-03     6.09422E-03    -5.22138E+06     71.5826E+06     56.6724E+06    -1.61730E+06    -445.279E-03     732.250E-03    -286.971E-03     208.116E-03    -458.765E-03     745.811E-03    -286.784E-03     124.190E-03
            2403     11.5847E-03     5.71250E-03    -9.82686E+06     54.4421E+06     46.4376E+06    -117.108E+03    -441.142E-03     719.192E-03    -278.050E-03     145.309E-03    -451.375E-03     729.476E-03    -277.883E-03     67.8339E-03
            2404     11.0053E-03     5.38248E-03    -13.7885E+06     43.9136E+06     40.3604E+06     3.09796E+06    -416.462E-03     685.166E-03    -268.704E-03     103.194E-03    -424.198E-03     692.921E-03    -268.546E-03     36.8050E-03
            2405     10.4156E-03     5.14942E-03    -18.2478E+06     30.7642E+06     36.9117E+06     7.83545E+06    -384.230E-03     644.151E-03    -259.921E-03     75.9966E-03    -389.973E-03     649.851E-03    -259.754E-03     21.6012E-03
            2406     9.80333E-03     4.97250E-03    -23.1129E+06     19.2057E+06     34.5084E+06     10.2160E+06    -352.210E-03     604.351E-03    -252.141E-03     65.9518E-03    -356.807E-03     608.848E-03    -251.963E-03     21.2119E-03
            2407     9.16657E-03     4.84829E-03    -27.1478E+06     12.8180E+06     33.5470E+06     10.1345E+06    -323.269E-03     568.769E-03    -245.500E-03     64.8204E-03    -327.084E-03     572.448E-03    -245.311E-03     28.0678E-03
            2408     8.51063E-03     4.75713E-03    -30.9891E+06     5.42480E+06     32.0382E+06     9.26170E+06    -298.395E-03     538.387E-03    -239.992E-03     68.1949E-03    -301.621E-03     541.440E-03    -239.794E-03     38.0180E-03
            2409     7.83652E-03     4.69248E-03    -34.4959E+06     99.4518E+03     28.4816E+06     8.27935E+06    -278.386E-03     513.886E-03    -235.501E-03     72.2504E-03    -281.109E-03     516.415E-03    -235.308E-03     47.3968E-03
            2410     7.14951E-03     4.65040E-03    -38.5755E+06    -5.78541E+06     23.5048E+06     8.02264E+06    -262.860E-03     494.731E-03    -231.871E-03     75.1074E-03    -265.147E-03     496.801E-03    -231.689E-03     54.5627E-03
            2411     6.45197E-03     4.61817E-03    -43.5291E+06    -13.6055E+06     16.6614E+06     7.36669E+06    -250.996E-03     479.935E-03    -228.939E-03     75.6786E-03    -252.882E-03     481.577E-03    -228.773E-03     58.6954E-03
            2412     5.74872E-03     4.59643E-03    -49.2607E+06    -21.5454E+06     10.9913E+06     5.70125E+06    -241.907E-03     468.491E-03    -226.584E-03     74.2146E-03    -243.441E-03     469.748E-03    -226.427E-03     60.2093E-03
            2413     5.03884E-03     4.58202E-03    -55.9439E+06    -29.2350E+06     6.50094E+06     2.93592E+06    -234.916E-03     459.627E-03    -224.710E-03     71.0249E-03    -236.161E-03     460.552E-03    -224.554E-03     59.5207E-03
            2414     4.32379E-03     4.57269E-03    -63.6378E+06    -38.6832E+06    -4.41672E+06    -868.750E+03    -229.942E-03     453.128E-03    -223.186E-03     65.6369E-03    -230.932E-03     453.766E-03    -223.060E-03     56.2536E-03
            2415     3.60816E-03     4.56715E-03    -71.7529E+06    -50.7246E+06    -22.1790E+06    -5.08994E+06    -226.165E-03     448.099E-03    -221.934E-03     58.2269E-03    -226.928E-03     448.487E-03    -221.867E-03     50.7137E-03
            2416     2.88903E-03     4.56306E-03    -79.6424E+06    -71.9308E+06    -44.0520E+06    -6.53235E+06    -223.271E-03     444.231E-03    -220.960E-03     48.8230E-03    -223.830E-03     444.371E-03    -220.960E-03     42.9974E-03
            2417     2.16733E-03     4.56067E-03    -87.8014E+06    -105.888E+06    -67.3261E+06    -4.48656E+06    -221.401E-03     441.657E-03    -220.256E-03     38.0637E-03    -221.780E-03     441.534E-03    -220.312E-03     33.8003E-03
            2418     1.44555E-03     4.55983E-03    -95.4544E+06    -131.015E+06    -86.0672E+06    -3.91837E+06    -220.118E-03     439.925E-03    -219.807E-03     26.5287E-03    -220.374E-03     439.615E-03    -219.909E-03     23.6849E-03
            2419     720.190E-06     4.55999E-03    -101.337E+06    -139.370E+06    -98.4678E+06    -3.57452E+06    -219.136E-03     439.173E-03    -220.036E-03     14.6044E-03    -219.335E-03     438.788E-03    -220.180E-03     13.0362E-03
            2420     12.7532E-03     4.59525E-03    -2.91345E+06     75.8472E+06     56.6510E+06    -3.77632E+06    -476.808E-03     768.716E-03    -291.908E-03     183.758E-03    -486.295E-03     778.298E-03    -291.730E-03     115.631E-03
            2421     12.2057E-03     4.08567E-03    -4.07232E+06     68.1268E+06     50.5007E+06     288.309E+03    -478.645E-03     760.772E-03    -282.127E-03     130.218E-03    -487.985E-03     770.240E-03    -281.967E-03     54.3570E-03
            2422     11.6572E-03     3.75223E-03    -10.5705E+06     50.4125E+06     39.6648E+06     4.54035E+06    -440.704E-03     712.618E-03    -271.914E-03     72.5863E-03    -446.733E-03     718.705E-03    -271.773E-03     9.40083E-03
            2423     11.0882E-03     3.52352E-03    -15.4259E+06     36.1086E+06     35.7137E+06     7.40885E+06    -397.022E-03     659.830E-03    -262.808E-03     55.1543E-03    -401.409E-03     664.209E-03    -262.659E-03     4.36334E-03
            2424     10.4765E-03     3.36697E-03    -19.0754E+06     26.6925E+06     36.6329E+06     8.15486E+06    -355.615E-03     610.908E-03    -255.293E-03     54.5684E-03    -359.037E-03     614.265E-03    -255.121E-03     14.9505E-03
            2425     9.83602E-03     3.26660E-03    -20.3606E+06     21.4531E+06     39.6694E+06     7.55819E+06    -321.944E-03     571.311E-03    -249.367E-03     63.6865E-03    -324.888E-03     574.155E-03    -249.170E-03     32.0102E-03
            2426     9.17447E-03     3.19618E-03    -22.2334E+06     14.9921E+06     41.3248E+06     7.11657E+06    -295.798E-03     540.599E-03    -244.801E-03     72.6722E-03    -298.326E-03     542.992E-03    -244.584E-03     47.2343E-03
            2427     8.49543E-03     3.15344E-03    -25.1171E+06     10.1295E+06     40.5177E+06     6.29511E+06    -276.037E-03     517.376E-03    -241.339E-03     79.1090E-03    -278.190E-03     519.368E-03    -241.114E-03     58.5694E-03
            2428     7.80433E-03     3.12225E-03    -29.9647E+06     3.14755E+06     35.8565E+06     4.89771E+06    -261.736E-03     500.482E-03    -238.746E-03     82.1617E-03    -263.554E-03     502.109E-03    -238.528E-03     65.3732E-03
            2429     7.10640E-03     3.10102E-03    -34.5813E+06    -4.72046E+06     29.0773E+06     4.09051E+06    -251.944E-03     488.746E-03    -236.802E-03     82.1596E-03    -253.450E-03     490.034E-03    -236.600E-03     68.2856E-03
            2430     6.40456E-03     3.08783E-03    -38.6684E+06    -9.91730E+06     22.4938E+06     3.29092E+06    -244.889E-03     480.232E-03    -235.343E-03     80.1116E-03    -246.138E-03     481.246E-03    -235.160E-03     68.5174E-03
            2431     5.69666E-03     3.07904E-03    -43.3413E+06    -15.8694E+06     15.5464E+06     1.39339E+06    -239.780E-03     474.055E-03    -234.276E-03     75.6214E-03    -240.806E-03     474.826E-03    -234.112E-03     65.8991E-03
            2432     4.98686E-03     3.07479E-03    -48.4717E+06    -23.5712E+06     5.13993E+06    -1.04412E+06    -236.422E-03     469.925E-03    -233.504E-03     69.4723E-03    -237.253E-03     470.483E-03    -233.374E-03     61.3281E-03
            2433     4.27660E-03     3.07061E-03    -54.0005E+06    -32.6693E+06    -10.1616E+06    -3.86668E+06    -234.332E-03     467.270E-03    -232.938E-03     62.0979E-03    -234.992E-03     467.646E-03    -232.863E-03     55.3114E-03
            2434     3.56369E-03     3.06971E-03    -60.1346E+06    -48.6729E+06    -29.1058E+06    -6.08949E+06    -233.177E-03     465.694E-03    -232.517E-03     53.6744E-03    -233.683E-03     465.891E-03    -232.505E-03     48.0899E-03
            2435     2.85128E-03     3.06954E-03    -67.0445E+06    -82.6182E+06    -45.1873E+06    -5.09510E+06    -232.491E-03     464.731E-03    -232.239E-03     44.2553E-03    -232.850E-03     464.680E-03    -232.248E-03     39.8422E-03
            2436     2.13910E-03     3.06987E-03    -73.2935E+06    -114.649E+06    -58.3484E+06    -1.73350E+06    -232.016E-03     464.085E-03    -232.069E-03     33.6987E-03    -232.254E-03     463.814E-03    -232.089E-03     30.4409E-03
            2437     1.42557E-03     3.07019E-03    -78.3030E+06    -132.721E+06    -71.5821E+06    -131.155E+03    -231.833E-03     463.806E-03    -231.973E-03     22.5599E-03    -231.988E-03     463.408E-03    -232.025E-03     20.3882E-03
            2438     714.831E-06     3.07085E-03    -82.7488E+06    -146.950E+06    -81.5225E+06    -493.816E+03    -231.883E-03     463.827E-03    -231.944E-03     11.9663E-03    -231.987E-03     463.342E-03    -232.019E-03     10.7837E-03
            2439     12.8207E-03     2.41862E-03    -6.19658E+06     76.4307E+06     60.2151E+06    -1.15637E+06    -589.871E-03     879.561E-03    -289.691E-03     157.952E-03    -596.225E-03     886.068E-03    -289.491E-03     100.416E-03
            2440     12.3243E-03     2.06854E-03    -7.91889E+06     62.1605E+06     55.5046E+06     2.20256E+06    -505.549E-03     782.607E-03    -277.058E-03     74.5153E-03    -509.204E-03     786.404E-03    -276.859E-03     29.7518E-03
            2441     11.7577E-03     1.85452E-03    -8.87135E+06     50.1064E+06     52.8061E+06     4.95069E+06    -424.214E-03     690.954E-03    -266.740E-03     48.2907E-03    -426.417E-03     693.193E-03    -266.536E-03     14.2286E-03
            2442     11.1380E-03     1.72910E-03    -10.2249E+06     38.6839E+06     51.0115E+06     5.40467E+06    -365.478E-03     624.530E-03    -259.051E-03     45.7372E-03    -367.215E-03     626.237E-03    -258.837E-03     19.9108E-03
            2443     10.4933E-03     1.66381E-03    -11.3989E+06     30.8751E+06     50.2373E+06     4.07768E+06    -323.925E-03     577.432E-03    -253.508E-03     50.8822E-03    -325.372E-03     578.817E-03    -253.285E-03     31.4444E-03
            2444     9.82569E-03     1.61781E-03    -13.7690E+06     24.1346E+06     49.2383E+06     2.96026E+06    -295.462E-03     545.038E-03    -249.576E-03     56.3321E-03    -296.706E-03     546.185E-03    -249.345E-03     41.2047E-03
            2445     9.14310E-03     1.59216E-03    -16.6252E+06     17.1201E+06     47.3345E+06     2.46883E+06    -276.221E-03     523.025E-03    -246.804E-03     58.6645E-03    -277.286E-03     523.961E-03    -246.568E-03     46.6287E-03
            2446     8.45265E-03     1.57340E-03    -20.1114E+06     11.2195E+06     41.6936E+06     2.45080E+06    -263.494E-03     508.331E-03    -244.837E-03     59.0809E-03    -264.395E-03     509.084E-03    -244.615E-03     49.2697E-03
            2447     7.75777E-03     1.56305E-03    -23.3728E+06     5.00197E+06     33.9978E+06     2.81180E+06    -254.916E-03     498.362E-03    -243.445E-03     58.0408E-03    -255.668E-03     498.952E-03    -243.249E-03     49.9275E-03
            2448     7.05724E-03     1.55414E-03    -27.5771E+06    -2.07466E+06     23.5719E+06     1.57002E+06    -249.019E-03     491.498E-03    -242.479E-03     55.4372E-03    -249.648E-03     491.955E-03    -242.318E-03     48.6110E-03
            2449     6.35295E-03     1.54945E-03    -31.6689E+06    -7.38642E+06     14.2526E+06    -341.476E+03    -245.219E-03     487.058E-03    -241.839E-03     51.4792E-03    -245.752E-03     487.411E-03    -241.711E-03     45.6532E-03
            2450     5.64915E-03     1.54694E-03    -35.8363E+06    -12.6180E+06     5.83967E+06    -1.46994E+06    -242.917E-03     484.350E-03    -241.433E-03     47.1261E-03    -243.372E-03     484.614E-03    -241.333E-03     42.0803E-03
            2451     4.94406E-03     1.54513E-03    -40.7385E+06    -20.2957E+06    -6.62027E+06    -2.93390E+06    -241.574E-03     482.745E-03    -241.170E-03     42.1620E-03    -241.956E-03     482.926E-03    -241.115E-03     37.8137E-03
            2452     4.23700E-03     1.54494E-03    -45.7031E+06    -30.6004E+06    -21.1890E+06    -4.28997E+06    -240.756E-03     481.780E-03    -241.023E-03     36.6619E-03    -241.070E-03     481.881E-03    -241.019E-03     32.9704E-03
            2453     3.53099E-03     1.54398E-03    -50.7726E+06    -53.6145E+06    -35.0266E+06    -3.48829E+06    -240.479E-03     481.469E-03    -240.990E-03     30.7007E-03    -240.717E-03     481.434E-03    -241.014E-03     27.6336E-03
            2454     2.82462E-03     1.54405E-03    -55.5725E+06    -90.7389E+06    -44.7085E+06    -1.59627E+06    -240.609E-03     481.649E-03    -241.041E-03     24.6870E-03    -240.763E-03     481.410E-03    -241.052E-03     22.2451E-03
            2455     2.11799E-03     1.54469E-03    -59.3387E+06    -119.758E+06    -50.9017E+06    -923.171E+03    -240.812E-03     481.914E-03    -241.101E-03     18.8327E-03    -240.905E-03     481.514E-03    -241.096E-03     17.0003E-03
            2456     1.41257E-03     1.54527E-03    -61.8475E+06    -134.879E+06    -56.9107E+06     102.891E+03    -241.039E-03     482.155E-03    -241.116E-03     13.0006E-03    -241.092E-03     481.670E-03    -241.115E-03     11.7786E-03
            2457     704.727E-06     1.54530E-03    -63.0992E+06    -145.635E+06    -61.5588E+06     1.22675E+06    -241.270E-03     482.184E-03    -240.915E-03     7.35915E-03    -241.294E-03     481.641E-03    -240.920E-03     6.72467E-03


