********************************************************************************
Field Output Report, written Tue May 28 20:14:48 2024

Source 1
---------

   ODB: G:/Abaqus_calc_2019/1740/Vel_20/odb/zeides_2a_8_red_2000_cal_50_vel_20_fric_025.odb
   Step: Step-1
   Frame: Increment   7097469: Step Time =   0.7639

Loc 1 : Nodal values from source 1

Output sorted by column "Nodal Label".

Field Output reported at nodes for region: DIE_2A_8_D0_36-1.Region_1
   Computation algorithm: EXTRAPOLATE_COMPUTE_AVERAGE
   Averaged at nodes
   Averaging regions: ODB_REGIONS

      Node Label     COORD.COOR1     COORD.COOR2
                          @Loc 1          @Loc 1
-------------------------------------------------
               1     15.4045E-03     182.579E-03


Field Output reported at nodes for region: DIE_2A_8_D0_36-1.Region_2
   Computation algorithm: EXTRAPOLATE_COMPUTE_AVERAGE
   Averaged at nodes
   Averaging regions: ODB_REGIONS

      Node Label     COORD.COOR1     COORD.COOR2
                          @Loc 1          @Loc 1
-------------------------------------------------
               1     15.4045E-03     182.579E-03


Field Output reported at nodes for part: WIRE-1
   Computation algorithm: EXTRAPOLATE_COMPUTE_AVERAGE
   Averaged at nodes
   Averaging regions: ODB_REGIONS

      Node Label     COORD.COOR1     COORD.COOR2           S.S11           S.S22           S.S33           S.S12         PE.PE11         PE.PE22         PE.PE33         PE.PE12         LE.LE11         LE.LE22         LE.LE33         LE.LE12
                          @Loc 1          @Loc 1          @Loc 1          @Loc 1          @Loc 1          @Loc 1          @Loc 1          @Loc 1          @Loc 1          @Loc 1          @Loc 1          @Loc 1          @Loc 1          @Loc 1
-------------------------------------------------------------------------------------------------------------------------------------------------------------------------------------------------------------------------------------------------
               1    -240.883E-09     85.6323E-03    -128.333E+06    -272.118E+06    -128.352E+06     68.2465E+03    -224.109E-03     448.301E-03    -224.192E-03     2.12627E-03    -224.170E-03     447.313E-03    -224.253E-03     2.19763E-03
               2     14.3925E-03     86.3516E-03    -1.56395E+06     92.6279E+06     105.228E+06    -917.428E+03    -222.676E-03     446.811E-03    -224.135E-03     20.7713E-03    -223.055E-03     447.208E-03    -223.741E-03     17.3440E-03
               3     14.4072E-03     172.460E-03    -16.5634E+06     19.5502E+06     44.0238E+06    -5.62834E+06    -198.771E-03     421.974E-03    -223.203E-03    -336.004E-06    -198.940E-03     422.039E-03    -222.987E-03    -230.721E-06
               4    -119.258E-09     171.455E-03     42.8110E+06    -9.16541E+06     41.2385E+06    -3.53032E+06    -233.207E-03     465.369E-03    -232.162E-03    -6.65353E-03    -233.049E-03     465.190E-03    -232.005E-03    -6.83739E-03
               5    -73.6021E-09     55.5112E-18    -71.3798E+06    -242.726E+06    -70.9837E+06    -167.666E+03    -207.108E-03     414.779E-03    -207.671E-03     296.370E-06    -207.010E-03     413.772E-03    -207.571E-03     270.473E-06
               6     14.3074E-03     55.5112E-18     3.92386E+06     91.8010E+06     111.730E+06    -3.36857E+06    -306.904E-03     533.117E-03    -226.213E-03     66.5780E-03    -307.508E-03     533.736E-03    -225.793E-03     60.7186E-03
               7     719.413E-06     85.6357E-03    -127.434E+06    -268.285E+06    -125.184E+06     55.1618E+03    -224.146E-03     448.331E-03    -224.185E-03     3.65253E-03    -224.212E-03     447.356E-03    -224.237E-03     3.78643E-03
               8     1.43842E-03     85.6441E-03    -124.254E+06    -257.723E+06    -115.849E+06     113.426E+03    -224.161E-03     448.357E-03    -224.195E-03     6.91400E-03    -224.241E-03     447.416E-03    -224.221E-03     7.17772E-03
               9     2.15758E-03     85.6582E-03    -118.960E+06    -242.349E+06    -101.622E+06     136.576E+03    -224.103E-03     448.329E-03    -224.226E-03     10.3401E-03    -224.199E-03     447.437E-03    -224.210E-03     10.7085E-03
              10     2.87692E-03     85.6770E-03    -112.608E+06    -224.157E+06    -84.6174E+06     111.240E+03    -224.028E-03     448.278E-03    -224.250E-03     13.6314E-03    -224.144E-03     447.444E-03    -224.185E-03     14.0558E-03
              11     3.59637E-03     85.7006E-03    -105.261E+06    -204.149E+06    -66.3586E+06     193.910E+03    -223.976E-03     448.246E-03    -224.270E-03     16.7901E-03    -224.112E-03     447.476E-03    -224.153E-03     17.2358E-03
              12     4.31577E-03     85.7290E-03    -97.2025E+06    -183.047E+06    -48.4520E+06     287.194E+03    -223.954E-03     448.240E-03    -224.285E-03     19.7741E-03    -224.108E-03     447.539E-03    -224.121E-03     20.1887E-03
              13     5.03524E-03     85.7618E-03    -89.0128E+06    -161.652E+06    -31.8245E+06     357.896E+03    -223.937E-03     448.233E-03    -224.296E-03     22.5514E-03    -224.108E-03     447.607E-03    -224.092E-03     22.8697E-03
              14     5.75475E-03     85.7986E-03    -80.8806E+06    -139.685E+06    -16.4347E+06     407.665E+03    -223.922E-03     448.223E-03    -224.302E-03     25.1852E-03    -224.111E-03     447.677E-03    -224.064E-03     25.3472E-03
              15     6.47428E-03     85.8391E-03    -72.9406E+06    -116.530E+06    -2.29400E+06     391.660E+03    -223.908E-03     448.209E-03    -224.300E-03     27.6830E-03    -224.118E-03     447.752E-03    -224.037E-03     27.6215E-03
              16     7.19373E-03     85.8826E-03    -65.1616E+06    -92.5536E+06     10.7326E+06     418.004E+03    -223.863E-03     448.156E-03    -224.293E-03     30.0010E-03    -224.097E-03     447.798E-03    -224.010E-03     29.6467E-03
              17     7.91334E-03     85.9292E-03    -57.7488E+06    -65.7934E+06     23.0023E+06     591.344E+03    -223.804E-03     448.080E-03    -224.276E-03     32.1212E-03    -224.068E-03     447.839E-03    -223.982E-03     31.4107E-03
              18     8.63301E-03     85.9780E-03    -50.6677E+06    -35.4529E+06     34.9357E+06     644.264E+03    -223.743E-03     447.995E-03    -224.252E-03     34.0069E-03    -224.047E-03     447.893E-03    -223.953E-03     32.8760E-03
              19     9.35267E-03     86.0291E-03    -43.6448E+06     2.22226E+06     47.3012E+06     446.050E+03    -223.643E-03     447.862E-03    -224.219E-03     35.6715E-03    -224.003E-03     447.938E-03    -223.923E-03     34.0513E-03
              20     10.0724E-03     86.0815E-03    -36.7729E+06     37.8807E+06     58.0645E+06     527.384E+03    -223.571E-03     447.753E-03    -224.182E-03     36.9863E-03    -223.986E-03     448.003E-03    -223.893E-03     34.8293E-03
              21     10.7921E-03     86.1348E-03    -30.4295E+06     62.3666E+06     67.1761E+06     886.425E+03    -223.522E-03     447.677E-03    -224.155E-03     37.7210E-03    -223.978E-03     448.051E-03    -223.865E-03     35.0005E-03
              22     11.5118E-03     86.1875E-03    -24.2373E+06     75.5883E+06     78.3527E+06     1.01851E+06    -223.413E-03     447.569E-03    -224.156E-03     37.6089E-03    -223.896E-03     448.007E-03    -223.839E-03     34.3253E-03
              23     12.2317E-03     86.2384E-03    -18.1623E+06      80.856E+06     91.3161E+06     778.175E+03    -223.289E-03     447.467E-03    -224.177E-03     36.2894E-03    -223.785E-03     447.920E-03    -223.812E-03     32.5033E-03
              24     12.9514E-03     86.2845E-03    -12.6323E+06     85.2986E+06     100.896E+06     372.640E+03    -223.217E-03     447.402E-03    -224.185E-03     34.9160E-03    -223.728E-03     447.878E-03    -223.786E-03     30.5232E-03
              25     13.6704E-03     86.3290E-03    -5.77192E+06     89.7176E+06     104.554E+06    -361.458E+03    -222.938E-03     447.096E-03    -224.158E-03     27.6522E-03    -223.388E-03     447.541E-03    -223.757E-03     23.5529E-03
              26     14.3915E-03     87.8364E-03    -3.37559E+06     91.8468E+06     104.906E+06    -942.795E+03    -223.626E-03     447.737E-03    -224.111E-03     19.8205E-03    -224.009E-03     448.130E-03    -223.715E-03     16.4170E-03
              27     14.3913E-03     89.3225E-03    -3.72205E+06     90.7996E+06     104.249E+06     978.152E+03    -223.306E-03     447.437E-03    -224.130E-03     20.2725E-03    -223.690E-03     447.827E-03    -223.735E-03     16.8934E-03
              28     14.3920E-03     90.8037E-03    -2.06901E+06     93.4776E+06     106.130E+06     918.075E+03    -222.877E-03     447.013E-03    -224.136E-03     20.8903E-03    -223.262E-03     447.415E-03    -223.738E-03     17.4729E-03
              29     14.3913E-03     92.2881E-03    -3.59063E+06     94.0057E+06     105.659E+06     201.958E+03    -223.350E-03     447.484E-03    -224.134E-03     19.5827E-03    -223.740E-03     447.889E-03    -223.737E-03     16.1268E-03
              30     14.3914E-03     93.7707E-03    -2.03658E+06     95.9508E+06     106.867E+06    -456.158E+03    -222.869E-03     447.003E-03    -224.135E-03     19.7909E-03    -223.255E-03     447.413E-03    -223.736E-03     16.3514E-03
              31     14.3927E-03     95.2537E-03    -1.89443E+06     96.3705E+06     106.956E+06    -714.697E+03    -223.235E-03     447.357E-03    -224.122E-03     20.1708E-03    -223.622E-03     447.770E-03    -223.725E-03     16.7413E-03
              32     14.3902E-03     96.7411E-03    -4.33116E+06     95.8038E+06     104.723E+06     1.43705E+06    -223.445E-03     447.595E-03    -224.150E-03     20.1600E-03    -223.841E-03     448.012E-03    -223.759E-03     16.7501E-03
              33     14.3916E-03     98.2224E-03    -3.69579E+06     96.5199E+06     104.898E+06     604.476E+03    -222.479E-03     446.655E-03    -224.176E-03     21.1478E-03    -222.875E-03     447.076E-03    -223.786E-03     17.7427E-03
              34     14.3911E-03     99.7041E-03    -178.002E+03     99.7486E+06     109.005E+06     246.375E+03    -222.436E-03     446.587E-03    -224.152E-03     20.6376E-03    -222.824E-03     447.013E-03    -223.751E-03     17.2065E-03
              35     14.3926E-03     101.187E-03    -1.32750E+06     101.236E+06     109.832E+06     463.109E+03    -222.979E-03     447.108E-03    -224.129E-03     19.6433E-03    -223.375E-03     447.540E-03    -223.725E-03     16.1878E-03
              36     14.3908E-03     102.672E-03    -5.09878E+06     99.1549E+06     107.250E+06    -135.672E+03    -223.426E-03     447.547E-03    -224.122E-03     20.7182E-03    -223.834E-03     447.979E-03    -223.722E-03     17.2985E-03
              37     14.3926E-03     104.157E-03    -3.15394E+06     101.777E+06     109.460E+06    -26.9314E+03    -223.118E-03     447.237E-03    -224.119E-03     21.2465E-03    -223.524E-03     447.676E-03    -223.715E-03     17.8815E-03
              38     14.3917E-03     105.638E-03    -3.52688E+06     103.571E+06     110.812E+06     670.582E+03    -223.116E-03     447.239E-03    -224.123E-03     20.2053E-03    -223.526E-03     447.683E-03    -223.714E-03     16.8395E-03
              39     14.3917E-03     107.122E-03    -3.31317E+06     105.661E+06     111.159E+06     1.62410E+06    -223.059E-03     447.175E-03    -224.116E-03     20.1253E-03    -223.472E-03     447.629E-03    -223.708E-03     16.7490E-03
              40     14.3929E-03     108.605E-03    -1.74913E+06     108.147E+06     112.615E+06     297.416E+03    -222.380E-03     446.461E-03    -224.082E-03     21.2689E-03    -222.795E-03     446.928E-03    -223.673E-03     17.8358E-03
              41     14.3935E-03     110.088E-03    -1.59129E+06     110.917E+06     114.960E+06    -1.22691E+06    -222.937E-03     446.977E-03    -224.039E-03     21.2449E-03    -223.359E-03     447.453E-03    -223.623E-03     17.7984E-03
              42     14.3931E-03     111.572E-03    -1.64520E+06     111.091E+06     114.164E+06     874.623E+03    -223.034E-03     447.034E-03    -224.000E-03     20.6738E-03    -223.452E-03     447.509E-03    -223.588E-03     17.3043E-03
              43     14.3951E-03     113.054E-03    -7.16554E+06     107.790E+06     109.216E+06     652.500E+03    -223.020E-03     447.000E-03    -223.979E-03     20.3390E-03    -223.454E-03     447.474E-03    -223.579E-03     16.9289E-03
              44     14.3920E-03     114.539E-03    -13.5586E+06     105.758E+06     105.439E+06    -477.856E+03    -223.873E-03     447.883E-03    -224.010E-03     19.4482E-03    -224.330E-03     448.361E-03    -223.616E-03     15.9701E-03
              45     14.3929E-03     116.022E-03    -2.70622E+06     115.452E+06     115.209E+06     3.86255E+06    -222.166E-03     446.201E-03    -224.035E-03     20.5329E-03    -222.599E-03     446.701E-03    -223.623E-03     17.1202E-03
              46     14.3964E-03     117.502E-03     7.02493E+06     125.337E+06     126.150E+06      93.426E+03    -221.240E-03     445.199E-03    -223.959E-03     22.2321E-03    -221.660E-03     445.723E-03    -223.520E-03     18.7693E-03
              47     14.3956E-03     118.985E-03    -242.312E+03     121.398E+06     121.996E+06    -2.45570E+06    -223.139E-03     446.999E-03    -223.859E-03     20.7371E-03    -223.581E-03     447.517E-03    -223.425E-03     17.1644E-03
              48     14.3962E-03     120.469E-03    -2.76973E+06     122.145E+06     120.627E+06     417.996E+03    -223.374E-03     447.225E-03    -223.852E-03     19.5825E-03    -223.824E-03     447.750E-03    -223.422E-03     16.0576E-03
              49     14.3956E-03     121.952E-03    -3.77951E+06     122.768E+06     119.770E+06     1.13644E+06    -222.693E-03     446.545E-03    -223.852E-03     20.6080E-03    -223.149E-03     447.076E-03    -223.426E-03     17.1530E-03
              50     14.3969E-03     123.434E-03    -3.75255E+06     125.254E+06     120.826E+06     1.04030E+06    -222.510E-03     446.339E-03    -223.829E-03     20.9358E-03    -222.971E-03     446.881E-03    -223.401E-03     17.5044E-03
              51     14.3965E-03     124.918E-03    -2.66782E+06     128.171E+06     122.726E+06     270.263E+03    -222.187E-03     445.992E-03    -223.805E-03     21.0569E-03    -222.650E-03     446.545E-03    -223.374E-03     17.6108E-03
              52     14.3981E-03     126.398E-03    -2.68222E+06     129.547E+06     124.080E+06    -249.659E+03    -222.044E-03     445.814E-03    -223.770E-03     21.2758E-03    -222.512E-03     446.372E-03    -223.334E-03     17.8248E-03
              53     14.3978E-03     127.881E-03    -3.67138E+06     131.083E+06     124.485E+06     1.11854E+06    -222.010E-03     445.750E-03    -223.740E-03     20.9675E-03    -222.482E-03     446.314E-03    -223.303E-03     17.6275E-03
              54     14.3985E-03     129.362E-03    -4.29331E+06     132.650E+06     123.727E+06     1.44264E+06    -221.545E-03     445.262E-03    -223.717E-03     20.7444E-03    -222.021E-03     445.836E-03    -223.285E-03     17.3833E-03
              55     14.3990E-03     130.841E-03    -1.84574E+06     137.991E+06     127.839E+06    -281.652E+03    -221.443E-03     445.142E-03    -223.699E-03     20.4083E-03    -221.923E-03     445.735E-03    -223.258E-03     16.9306E-03
              56     14.3990E-03     132.324E-03    -3.93214E+06     138.862E+06     127.453E+06     1.08476E+06    -221.303E-03     444.985E-03    -223.682E-03     20.4996E-03    -221.793E-03     445.585E-03    -223.241E-03     17.0716E-03
              57     14.3997E-03     133.802E-03    -3.43343E+06     142.601E+06     128.472E+06     1.00159E+06    -220.863E-03     444.518E-03    -223.655E-03     20.8821E-03    -221.358E-03     445.135E-03    -223.215E-03     17.4837E-03
              58     14.4004E-03     135.282E-03    -487.349E+03     146.520E+06     131.415E+06     692.336E+03    -220.646E-03     444.270E-03    -223.624E-03     20.1087E-03    -221.135E-03     444.896E-03    -223.179E-03     16.6782E-03
              59     14.4006E-03     136.762E-03    -4.34109E+06     144.339E+06     129.367E+06    -701.712E+03    -220.492E-03     444.092E-03    -223.600E-03     20.5152E-03    -220.995E-03     444.717E-03    -223.156E-03     17.0651E-03
              60     14.4010E-03     138.240E-03    -5.12140E+06     145.139E+06     129.885E+06    -953.567E+03    -220.916E-03     444.486E-03    -223.570E-03     21.0363E-03    -221.424E-03     445.114E-03    -223.124E-03     17.6616E-03
              61     14.4012E-03     139.722E-03    -3.53919E+06     148.261E+06     132.189E+06     1.30254E+06    -220.664E-03     444.218E-03    -223.554E-03     20.7077E-03    -221.171E-03     444.856E-03    -223.103E-03     17.3654E-03
              62     14.4019E-03     141.200E-03    -997.040E+03     148.466E+06     132.464E+06     688.349E+03    -219.750E-03     443.291E-03    -223.541E-03     21.3265E-03    -220.251E-03     443.931E-03    -223.092E-03     17.8565E-03
              63     14.4022E-03     142.677E-03    -3.50206E+06     146.937E+06     130.176E+06    -564.476E+03    -220.255E-03     443.755E-03    -223.500E-03     21.4152E-03    -220.762E-03     444.394E-03    -223.057E-03     17.9596E-03
              64     14.4021E-03     144.157E-03    -5.10549E+06     144.725E+06     128.173E+06    -2.29053E+06    -220.888E-03     444.352E-03    -223.464E-03     20.5973E-03    -221.392E-03     444.979E-03    -223.025E-03     17.2051E-03
              65     14.4028E-03     145.637E-03    -731.476E+03     144.259E+06     129.132E+06     -49.568E+03    -220.775E-03     444.227E-03    -223.452E-03     20.6346E-03    -221.259E-03     444.846E-03    -223.015E-03     17.2275E-03
              66     14.4023E-03     147.116E-03    -6.27109E+06     143.428E+06     127.278E+06     1.79283E+06    -221.061E-03     444.498E-03    -223.437E-03     21.5007E-03    -221.570E-03     445.125E-03    -223.000E-03     18.1490E-03
              67     14.4030E-03     148.598E-03    -3.84425E+06     140.344E+06     127.198E+06    -1.88217E+06    -221.104E-03     444.525E-03    -223.421E-03     21.8371E-03    -221.595E-03     445.132E-03    -222.983E-03     18.5039E-03
              68     14.4030E-03     150.076E-03    -1.80639E+06     138.929E+06     127.994E+06    -1.05380E+06    -221.295E-03     444.693E-03    -223.398E-03     21.7481E-03    -221.776E-03     445.290E-03    -222.957E-03     18.3602E-03
              69     14.4036E-03     151.556E-03    -1.97158E+06     138.015E+06     129.021E+06     792.359E+03    -221.931E-03     445.296E-03    -223.364E-03     21.4035E-03    -222.415E-03     445.888E-03    -222.916E-03     17.9851E-03
              70     14.4039E-03     153.038E-03    -2.90674E+06     131.447E+06     127.114E+06    -1.83702E+06    -222.539E-03     445.862E-03    -223.323E-03     22.4027E-03    -223.013E-03     446.424E-03    -222.874E-03     19.0441E-03
              71     14.4043E-03     154.522E-03    -5.44835E+06     124.188E+06     123.632E+06    -2.02625E+06    -223.260E-03     446.532E-03    -223.272E-03     23.2046E-03    -223.732E-03     447.067E-03    -222.826E-03     19.8866E-03
              72     14.4048E-03     156.004E-03    -3.45261E+06     118.475E+06     121.994E+06    -2.98087E+06    -224.348E-03     447.552E-03    -223.203E-03     23.4532E-03    -224.801E-03     448.059E-03    -222.760E-03     20.0987E-03
              73     14.4055E-03     157.489E-03    -780.317E+03     111.207E+06     119.280E+06    -1.75446E+06    -226.479E-03     449.585E-03    -223.106E-03     24.1852E-03    -226.903E-03     450.056E-03    -222.670E-03     20.8812E-03
              74     14.4057E-03     158.980E-03    -5.90156E+06     101.832E+06     112.393E+06    -410.977E+03    -228.683E-03     451.696E-03    -223.013E-03     24.8682E-03    -229.109E-03     452.136E-03    -222.590E-03     21.6220E-03
              75     14.4060E-03     160.471E-03    -2.88147E+06     91.1695E+06     109.513E+06    -2.42399E+06    -231.183E-03     454.101E-03    -222.918E-03     26.9039E-03    -231.575E-03     454.488E-03    -222.498E-03     23.7362E-03
              76     14.4068E-03     161.969E-03    -2.74326E+06     81.1343E+06     107.922E+06    -3.95978E+06    -234.248E-03     457.057E-03    -222.809E-03     27.6972E-03    -234.622E-03     457.397E-03    -222.383E-03     24.5337E-03
              77     14.4069E-03     163.469E-03    -2.16840E+06     68.2362E+06     107.181E+06    -3.88942E+06    -236.846E-03     459.556E-03    -222.711E-03     28.6522E-03    -237.200E-03     459.834E-03    -222.270E-03     25.4528E-03
              78     14.4086E-03     164.973E-03    -2.43828E+06     52.5129E+06     107.715E+06    -4.13581E+06    -239.538E-03     462.138E-03    -222.600E-03     30.3038E-03    -239.873E-03     462.339E-03    -222.134E-03     27.1085E-03
              79     14.4091E-03     166.482E-03    -1.28355E+06     40.9796E+06     108.439E+06    -1.70036E+06    -242.272E-03     464.733E-03    -222.461E-03     32.0170E-03    -242.580E-03     464.868E-03    -221.977E-03     29.1169E-03
              80     14.4115E-03     167.994E-03    -3.25522E+06     36.3248E+06     103.742E+06    -950.168E+03    -243.691E-03     465.997E-03    -222.306E-03     32.6576E-03    -243.976E-03     466.098E-03    -221.835E-03     30.3932E-03
              81     14.4122E-03     169.507E-03     553.051E+03     30.7666E+06     92.7952E+06    -1.83580E+06    -241.430E-03     463.639E-03    -222.209E-03     31.8392E-03    -241.637E-03     463.689E-03    -221.790E-03     30.6833E-03
              82     14.4142E-03     171.014E-03     1.81486E+06     23.0274E+06     67.5417E+06    -2.37491E+06    -218.885E-03     441.584E-03    -222.699E-03     15.8468E-03    -219.009E-03     441.607E-03    -222.397E-03     15.7201E-03
              83     13.6454E-03     172.403E-03    -15.9648E+06    -9.73743E+06     48.4910E+06    -5.08799E+06    -199.017E-03     422.869E-03    -223.852E-03    -18.2920E-03    -199.148E-03     422.786E-03    -223.572E-03    -18.1823E-03
              84     12.8937E-03     172.328E-03    -14.6298E+06    -3.93711E+06     74.3622E+06    -412.948E+03    -199.768E-03     424.866E-03    -225.098E-03    -51.1127E-03    -199.956E-03     424.792E-03    -224.699E-03    -50.7293E-03
              85     12.1521E-03     172.245E-03    -10.4942E+06     12.8098E+06     93.3073E+06    -2.02797E+06    -200.903E-03     427.110E-03    -226.207E-03    -73.6505E-03    -201.144E-03     427.101E-03    -225.744E-03    -73.0773E-03
              86     11.4199E-03     172.162E-03    -5.87675E+06    -1.47037E+06     94.8913E+06     -8.4731E+06    -202.466E-03     429.688E-03    -227.222E-03    -84.7730E-03    -202.671E-03     429.596E-03    -226.737E-03    -84.3171E-03
              87     10.6910E-03     172.083E-03    -3.70160E+06    -156.260E+03     100.495E+06    -9.90742E+06    -205.020E-03     433.221E-03    -228.201E-03    -89.6120E-03    -205.226E-03     433.122E-03    -227.693E-03    -89.2109E-03
              88     9.96636E-03     172.007E-03    -1.08322E+06    -1.54187E+06     103.101E+06    -11.2864E+06    -208.423E-03     437.520E-03    -229.097E-03    -91.1439E-03    -208.617E-03     437.402E-03    -228.578E-03    -90.7950E-03
              89     9.24434E-03     171.936E-03     2.34236E+06    -2.60792E+06     102.923E+06    -11.7121E+06    -211.919E-03     441.796E-03    -229.878E-03    -90.7203E-03    -212.090E-03     441.663E-03    -229.363E-03    -90.4242E-03
              90     8.52514E-03     171.868E-03     5.74949E+06    -3.42888E+06     101.471E+06    -11.2252E+06    -215.171E-03     445.719E-03    -230.548E-03    -88.9225E-03    -215.319E-03     445.573E-03    -230.044E-03    -88.6693E-03
              91     7.80832E-03     171.804E-03     8.97696E+06    -2.53465E+06     99.6208E+06    -10.9895E+06    -218.156E-03     449.274E-03    -231.119E-03    -85.7404E-03    -218.280E-03     449.123E-03    -230.630E-03    -85.5593E-03
              92     7.09352E-03     171.745E-03     12.1572E+06     -2.1553E+06     96.6325E+06    -11.2138E+06    -220.917E-03     452.512E-03    -231.596E-03    -81.2110E-03    -221.015E-03     452.354E-03    -231.127E-03    -81.1219E-03
              93     6.38061E-03     171.692E-03     15.2345E+06    -1.89689E+06     92.8777E+06    -11.7080E+06    -223.441E-03     455.425E-03    -231.984E-03    -75.6207E-03    -223.514E-03     455.262E-03    -231.539E-03    -75.6207E-03
              94     5.66891E-03     171.644E-03     18.6344E+06    -2.16368E+06     87.8224E+06    -12.2799E+06    -225.602E-03     457.888E-03    -232.287E-03    -69.0974E-03    -225.646E-03     457.721E-03    -231.872E-03    -69.1779E-03
              95     4.95844E-03     171.600E-03     22.6030E+06    -3.36414E+06     81.9160E+06    -12.4309E+06    -227.389E-03     459.912E-03    -232.524E-03    -62.0816E-03    -227.398E-03     459.737E-03    -232.142E-03    -62.2511E-03
              96     4.24852E-03     171.564E-03     26.7243E+06    -3.72642E+06     75.0779E+06    -11.7769E+06    -229.014E-03     461.708E-03    -232.694E-03    -54.6023E-03    -228.990E-03     461.531E-03    -232.352E-03    -54.8244E-03
              97     3.53945E-03     171.531E-03     30.4505E+06    -3.28809E+06     67.0178E+06    -11.0204E+06    -230.365E-03     463.153E-03    -232.788E-03    -46.4169E-03    -230.311E-03     462.983E-03    -232.492E-03    -46.6612E-03
              98     2.83127E-03     171.505E-03     33.9400E+06    -4.22780E+06     59.1757E+06    -10.2947E+06    -231.350E-03     464.174E-03    -232.824E-03    -37.6931E-03    -231.265E-03     464.005E-03    -232.572E-03    -37.9734E-03
              99     2.12324E-03     171.484E-03     37.3581E+06    -5.41087E+06     52.4331E+06    -8.90853E+06    -232.058E-03     464.878E-03    -232.820E-03    -28.6605E-03    -231.945E-03     464.707E-03    -232.604E-03    -28.9460E-03
             100     1.41540E-03     171.470E-03     40.5740E+06    -6.23075E+06     47.4610E+06    -6.84171E+06    -232.484E-03     465.266E-03    -232.782E-03    -19.3750E-03    -232.349E-03     465.095E-03    -232.594E-03    -19.5971E-03
             101     707.642E-06     171.460E-03     42.5086E+06    -7.50335E+06     43.5449E+06    -4.59123E+06    -232.916E-03     465.375E-03    -232.459E-03    -10.6306E-03    -232.765E-03     465.202E-03    -232.292E-03    -10.8066E-03
             102     888.739E-09     169.945E-03     14.3156E+06    -20.6872E+06     15.3456E+06    -3.72478E+06    -226.800E-03     452.469E-03    -225.669E-03    -4.56160E-03    -226.727E-03     452.316E-03    -225.583E-03    -4.62983E-03
             103     19.8079E-09     168.474E-03    -44.0000E+06    -50.2399E+06    -43.7431E+06    -5.44662E+06    -216.812E-03     432.715E-03    -215.903E-03    -963.249E-06    -216.898E-03     432.589E-03    -215.985E-03    -891.645E-06
             104     406.521E-09     167.022E-03    -112.483E+06    -86.9314E+06    -112.900E+06    -6.47337E+06    -212.373E-03     424.169E-03    -211.796E-03     1.85999E-03    -212.645E-03     424.061E-03    -212.071E-03     1.98707E-03
             105     1.74310E-09     165.576E-03    -183.042E+06    -123.872E+06    -182.469E+06    -5.96927E+06    -211.956E-03     423.792E-03    -211.836E-03     3.61742E-03    -212.426E-03     423.702E-03    -212.303E-03     3.80792E-03
             106    -237.673E-09     164.125E-03    -207.166E+06    -155.118E+06    -207.047E+06    -4.40806E+06    -213.533E-03     427.557E-03    -214.024E-03     3.85678E-03    -214.043E-03     427.381E-03    -214.534E-03     4.08595E-03
             107    -247.452E-09     162.668E-03    -174.504E+06    -174.363E+06    -175.028E+06    -2.13241E+06    -215.835E-03     432.239E-03    -216.404E-03     3.46962E-03    -216.201E-03     431.874E-03    -216.773E-03     3.67259E-03
             108    -104.393E-09     161.204E-03    -141.237E+06    -184.882E+06    -141.684E+06    -1.34007E+06    -217.827E-03     435.719E-03    -217.892E-03     3.01957E-03    -218.060E-03     435.205E-03    -218.128E-03     3.18259E-03
             109     351.931E-09     159.737E-03    -130.349E+06    -193.687E+06    -130.444E+06    -1.37397E+06    -219.021E-03     437.646E-03    -218.625E-03     2.97038E-03    -219.202E-03     437.056E-03    -218.808E-03     3.12661E-03
             110    -34.8144E-09     158.268E-03    -130.660E+06    -204.486E+06    -130.661E+06    -2.06323E+06    -219.468E-03     438.879E-03    -219.411E-03     3.10525E-03    -219.635E-03     438.235E-03    -219.578E-03     3.23537E-03
             111    -206.918E-09     156.798E-03    -136.450E+06    -219.028E+06    -135.782E+06    -2.47690E+06    -219.865E-03     439.668E-03    -219.803E-03     2.66438E-03    -220.032E-03     438.968E-03    -219.967E-03     2.76251E-03
             112     538.156E-09     155.326E-03    -140.855E+06    -232.421E+06    -141.685E+06    -1.85933E+06    -220.383E-03     440.357E-03    -219.974E-03     2.81458E-03    -220.545E-03     439.605E-03    -220.141E-03     2.91669E-03
             113    -291.951E-09     153.854E-03    -144.578E+06    -242.729E+06    -144.434E+06    -1.62429E+06    -220.614E-03     441.427E-03    -220.812E-03     2.96181E-03    -220.776E-03     440.632E-03    -220.973E-03     3.05931E-03
             114    -243.558E-09     152.380E-03    -147.423E+06    -254.070E+06    -146.885E+06    -1.77127E+06    -221.212E-03     442.652E-03    -221.439E-03     2.52183E-03    -221.368E-03     441.808E-03    -221.591E-03     2.62019E-03
             115     452.227E-09     150.904E-03    -148.726E+06    -263.335E+06    -149.563E+06    -1.15055E+06    -222.229E-03     443.989E-03    -221.760E-03     2.60957E-03    -222.373E-03     443.105E-03    -221.911E-03     2.73971E-03
             116     1.33937E-09     149.426E-03    -149.819E+06    -269.009E+06    -149.995E+06    -1.00305E+06    -222.782E-03     445.349E-03    -222.567E-03     2.61553E-03    -222.923E-03     444.438E-03    -222.709E-03     2.74367E-03
             117    -150.859E-09     147.947E-03    -149.615E+06    -275.063E+06    -149.024E+06    -925.695E+03    -223.080E-03     446.688E-03    -223.607E-03     2.48649E-03    -223.213E-03     445.745E-03    -223.737E-03     2.60454E-03
             118    -456.723E-09     146.465E-03    -147.474E+06    -279.589E+06    -147.749E+06    -389.545E+03    -223.887E-03     447.945E-03    -224.058E-03     2.12719E-03    -224.005E-03     446.975E-03    -224.177E-03     2.26148E-03
             119     813.181E-09     144.981E-03    -145.690E+06    -282.056E+06    -145.517E+06    -457.611E+03    -224.704E-03     448.939E-03    -224.235E-03     2.31723E-03    -224.813E-03     447.951E-03    -224.342E-03     2.44535E-03
             120    -496.348E-09     143.496E-03    -144.199E+06    -284.794E+06    -143.858E+06    -209.895E+03    -224.892E-03     449.708E-03    -224.817E-03     2.31932E-03    -224.991E-03     448.702E-03    -224.914E-03     2.43675E-03
             121     286.680E-09     142.010E-03    -143.027E+06    -286.152E+06    -143.250E+06    -66.8781E+03    -225.182E-03     450.370E-03    -225.188E-03     2.13044E-03    -225.274E-03     449.355E-03    -225.282E-03     2.26428E-03
             122    -91.1022E-09     140.524E-03    -141.905E+06    -286.808E+06    -142.691E+06    -219.854E+03    -225.435E-03     450.776E-03    -225.341E-03     2.09921E-03    -225.521E-03     449.754E-03    -225.433E-03     2.22869E-03
             123     19.7022E-09     139.037E-03    -142.016E+06    -287.839E+06    -141.333E+06    -95.8508E+03    -225.279E-03     450.756E-03    -225.477E-03     2.07286E-03    -225.367E-03     449.728E-03    -225.560E-03     2.18390E-03
             124    -228.621E-09     137.550E-03    -140.960E+06    -288.077E+06    -140.783E+06     116.300E+03    -225.288E-03     450.716E-03    -225.428E-03     2.20551E-03    -225.371E-03     449.684E-03    -225.510E-03     2.31438E-03
             125     234.662E-09     136.063E-03    -139.865E+06    -288.053E+06    -139.893E+06     31.0326E+03    -225.361E-03     450.642E-03    -225.280E-03     2.23701E-03    -225.440E-03     449.607E-03    -225.359E-03     2.33432E-03
             126    -127.794E-09     134.577E-03    -139.101E+06    -288.950E+06    -139.247E+06    -433.769E+03    -225.210E-03     450.325E-03    -225.114E-03     2.26889E-03    -225.285E-03     449.284E-03    -225.190E-03     2.36148E-03
             127     153.927E-09     133.091E-03    -138.991E+06    -290.144E+06    -139.144E+06    -6.80975E+03    -225.012E-03     449.927E-03    -224.915E-03     2.17543E-03    -225.084E-03     448.880E-03    -224.988E-03     2.27468E-03
             128    -45.1026E-09     131.606E-03    -137.567E+06    -289.562E+06    -137.334E+06     323.736E+03    -224.826E-03     449.614E-03    -224.787E-03     2.25313E-03    -224.895E-03     448.565E-03    -224.855E-03     2.36341E-03
             129    -9.07777E-09     130.121E-03    -137.197E+06    -289.145E+06    -137.256E+06    -41.0758E+03    -224.521E-03     449.248E-03    -224.726E-03     2.20494E-03    -224.589E-03     448.200E-03    -224.794E-03     2.31192E-03
             130    -235.645E-09     128.637E-03    -137.258E+06    -289.278E+06    -137.518E+06    -8.65484E+03    -224.270E-03     448.737E-03    -224.467E-03     2.11370E-03    -224.337E-03     447.689E-03    -224.536E-03     2.21052E-03
             131     191.939E-09     127.153E-03    -136.406E+06    -288.549E+06    -136.968E+06     285.933E+03    -224.162E-03     448.365E-03    -224.203E-03     2.26943E-03    -224.227E-03     447.319E-03    -224.272E-03     2.36439E-03
             132    -215.646E-09     125.670E-03    -137.433E+06    -288.511E+06    -137.441E+06    -103.701E+03    -224.076E-03     448.151E-03    -224.075E-03     2.33277E-03    -224.146E-03     447.107E-03    -224.145E-03     2.42695E-03
             133     237.472E-09     124.187E-03    -135.986E+06    -289.280E+06    -136.193E+06    -88.8237E+03    -223.978E-03     447.955E-03    -223.977E-03     2.37757E-03    -224.040E-03     446.903E-03    -224.041E-03     2.48104E-03
             134    -264.589E-09     122.705E-03    -135.700E+06    -288.670E+06    -135.534E+06     271.786E+03    -223.863E-03     447.745E-03    -223.883E-03     2.33531E-03    -223.926E-03     446.695E-03    -223.945E-03     2.43486E-03
             135     261.076E-09     121.223E-03    -135.312E+06    -287.236E+06    -135.347E+06     309.686E+03    -223.840E-03     447.631E-03    -223.791E-03     2.45625E-03    -223.904E-03     446.587E-03    -223.855E-03     2.54068E-03
             136    -190.165E-09     119.741E-03    -134.960E+06    -286.285E+06    -134.547E+06    -23.4461E+03    -223.803E-03     447.556E-03    -223.754E-03     2.56976E-03    -223.867E-03     446.516E-03    -223.816E-03     2.64722E-03
             137     189.135E-09     118.259E-03    -134.293E+06    -285.332E+06    -134.263E+06     14.3539E+03    -223.630E-03     447.341E-03    -223.711E-03     2.48340E-03    -223.693E-03     446.304E-03    -223.774E-03     2.58197E-03
             138    -308.484E-09     116.777E-03    -133.478E+06    -284.815E+06    -133.895E+06     358.913E+03    -223.531E-03     447.306E-03    -223.775E-03     2.49843E-03    -223.591E-03     446.270E-03    -223.838E-03     2.59424E-03
             139     67.6355E-09     115.296E-03    -133.150E+06    -284.180E+06    -133.200E+06     172.103E+03    -223.780E-03     447.656E-03    -223.877E-03     2.40474E-03    -223.840E-03     446.622E-03    -223.938E-03     2.48085E-03
             140     29.1418E-09     113.813E-03    -132.814E+06    -283.466E+06    -132.316E+06     116.687E+03    -224.042E-03     447.926E-03    -223.884E-03     2.32807E-03    -224.103E-03     446.893E-03    -223.942E-03     2.40172E-03
             141     103.443E-09     112.331E-03    -131.966E+06    -282.442E+06    -131.866E+06     116.677E+03    -224.092E-03     447.995E-03    -223.903E-03     2.33114E-03    -224.151E-03     446.966E-03    -223.962E-03     2.41403E-03
             142     33.1429E-09     110.848E-03    -131.498E+06    -281.390E+06    -131.607E+06     153.965E+03    -224.100E-03     448.086E-03    -223.986E-03     2.37066E-03    -224.158E-03     447.061E-03    -224.046E-03     2.47443E-03
             143    -10.8435E-09     109.365E-03    -131.350E+06    -280.100E+06    -131.243E+06     257.087E+03    -223.997E-03     448.148E-03    -224.151E-03     2.31234E-03    -224.057E-03     447.128E-03    -224.210E-03     2.41836E-03
             144    -234.992E-09     107.882E-03    -130.782E+06    -278.479E+06    -130.672E+06     259.140E+03    -224.051E-03     448.319E-03    -224.268E-03     2.29672E-03    -224.111E-03     447.305E-03    -224.328E-03     2.39387E-03
             145     166.229E-09     106.398E-03    -131.047E+06    -277.861E+06    -131.267E+06     99.6864E+03    -224.351E-03     448.455E-03    -224.104E-03     2.28260E-03    -224.412E-03     447.446E-03    -224.168E-03     2.37873E-03
             146     250.996E-09     104.915E-03    -130.957E+06    -277.173E+06    -131.187E+06     247.587E+03    -224.181E-03     448.345E-03    -224.165E-03     2.54989E-03    -224.243E-03     447.340E-03    -224.229E-03     2.64181E-03
             147    -651.617E-09     103.432E-03    -130.399E+06    -276.140E+06    -130.240E+06     42.2505E+03    -223.966E-03     448.301E-03    -224.335E-03     2.31873E-03    -224.028E-03     447.298E-03    -224.396E-03     2.39765E-03
             148     519.347E-09     101.949E-03    -129.533E+06    -276.508E+06    -129.918E+06    -30.3062E+03    -224.250E-03     448.431E-03    -224.181E-03     2.32865E-03    -224.308E-03     447.425E-03    -224.242E-03     2.42450E-03
             149    -294.731E-09     100.465E-03    -128.716E+06    -276.247E+06    -128.968E+06     181.080E+03    -224.215E-03     448.435E-03    -224.220E-03     2.45866E-03    -224.271E-03     447.428E-03    -224.278E-03     2.55260E-03
             150     56.2864E-09     98.9820E-03    -128.697E+06    -275.926E+06    -128.434E+06     5.35952E+03    -224.134E-03     448.352E-03    -224.218E-03     2.32438E-03    -224.191E-03     447.345E-03    -224.273E-03     2.40590E-03
             151     60.3086E-09     97.4987E-03    -128.857E+06    -275.840E+06    -129.082E+06     45.7406E+03    -224.197E-03     448.380E-03    -224.183E-03     2.37843E-03    -224.254E-03     447.375E-03    -224.241E-03     2.46907E-03
             152    -161.957E-09     96.0156E-03    -128.246E+06    -274.431E+06    -127.845E+06     394.538E+03    -224.119E-03     448.396E-03    -224.277E-03     2.27170E-03    -224.176E-03     447.395E-03    -224.333E-03     2.36485E-03
             153     35.4535E-09     94.5321E-03    -128.264E+06    -273.675E+06    -128.419E+06    -158.694E+03    -224.202E-03     448.354E-03    -224.152E-03     2.23517E-03    -224.260E-03     447.357E-03    -224.211E-03     2.31871E-03
             154     158.043E-09     93.0489E-03    -128.678E+06    -273.440E+06    -128.587E+06     210.334E+03    -224.334E-03     448.424E-03    -224.089E-03     2.41215E-03    -224.395E-03     447.430E-03    -224.149E-03     2.50501E-03
             155    -1.94201E-09     91.5653E-03    -128.264E+06    -272.378E+06    -128.313E+06     247.027E+03    -224.312E-03     448.595E-03    -224.283E-03     2.46671E-03    -224.373E-03     447.605E-03    -224.343E-03     2.55385E-03
             156    -115.922E-09     90.0817E-03    -129.236E+06    -272.117E+06    -129.373E+06    -72.8991E+03    -224.126E-03     448.396E-03    -224.271E-03     2.18484E-03    -224.190E-03     447.411E-03    -224.336E-03     2.26009E-03
             157     20.6179E-09     88.5988E-03    -129.103E+06    -272.597E+06    -129.199E+06    -104.031E+03    -224.033E-03     448.246E-03    -224.213E-03     2.46595E-03    -224.096E-03     447.257E-03    -224.276E-03     2.56298E-03
             158    -188.771E-09     87.1150E-03    -128.318E+06    -272.271E+06    -128.908E+06     38.7265E+03    -223.976E-03     448.361E-03    -224.385E-03     2.49969E-03    -224.036E-03     447.373E-03    -224.449E-03     2.59862E-03
             159     547.560E-09     84.1492E-03    -129.231E+06    -272.450E+06    -128.681E+06    -42.8567E+03    -224.304E-03     448.323E-03    -224.019E-03     2.33662E-03    -224.368E-03     447.335E-03    -224.080E-03     2.41654E-03
             160    -442.608E-09     82.6656E-03    -128.464E+06    -271.403E+06    -128.771E+06     201.898E+03    -224.002E-03     448.359E-03    -224.357E-03     2.40079E-03    -224.064E-03     447.375E-03    -224.421E-03     2.48598E-03
             161    -178.611E-09     81.1827E-03    -128.621E+06    -271.266E+06    -128.810E+06    -24.9178E+03    -224.030E-03     448.375E-03    -224.346E-03     2.16102E-03    -224.092E-03     447.393E-03    -224.410E-03     2.24479E-03
             162     339.794E-09     79.6989E-03    -129.911E+06    -271.811E+06    -128.996E+06     78.5750E+03    -224.329E-03     448.405E-03    -224.076E-03     2.37712E-03    -224.397E-03     447.422E-03    -224.139E-03     2.49850E-03
             163    -133.514E-09     78.2154E-03    -128.845E+06    -271.011E+06    -129.111E+06     80.4161E+03    -224.203E-03     448.321E-03    -224.118E-03     2.54416E-03    -224.267E-03     447.340E-03    -224.184E-03     2.66868E-03
             164     41.8314E-09     76.7325E-03    -128.962E+06    -271.091E+06    -129.302E+06     228.891E+03    -223.981E-03     448.267E-03    -224.287E-03     2.37938E-03    -224.045E-03     447.286E-03    -224.353E-03     2.47691E-03
             165    -397.547E-09     75.2498E-03    -128.997E+06    -270.508E+06    -129.261E+06    -6.69512E+03    -224.118E-03     448.373E-03    -224.255E-03     2.15584E-03    -224.183E-03     447.395E-03    -224.322E-03     2.23277E-03
             166     550.865E-09     73.7658E-03    -129.531E+06    -270.371E+06    -129.129E+06     12.9094E+03    -224.294E-03     448.314E-03    -224.020E-03     2.07400E-03    -224.362E-03     447.337E-03    -224.086E-03     2.16811E-03
             167    -309.464E-09     72.2834E-03    -129.287E+06    -270.373E+06    -129.272E+06     14.7719E+03    -224.219E-03     448.113E-03    -223.894E-03     2.12731E-03    -224.286E-03     447.137E-03    -223.961E-03     2.21914E-03
             168     532.653E-09     70.8000E-03    -128.180E+06    -269.799E+06    -128.812E+06    -133.306E+03    -224.086E-03     448.138E-03    -224.053E-03     2.26501E-03    -224.148E-03     447.162E-03    -224.120E-03     2.34857E-03
             169    -718.277E-09     69.3174E-03    -128.289E+06    -269.785E+06    -128.395E+06     136.878E+03    -223.775E-03     448.257E-03    -224.483E-03     2.36023E-03    -223.838E-03     447.280E-03    -224.547E-03     2.44198E-03
             170    -119.463E-09     67.8337E-03    -129.186E+06    -270.070E+06    -129.069E+06    -83.6864E+03    -224.045E-03     448.412E-03    -224.366E-03     2.17951E-03    -224.112E-03     447.436E-03    -224.433E-03     2.24262E-03
             171     493.301E-09     66.3500E-03    -128.772E+06    -269.847E+06    -128.321E+06    -189.481E+03    -224.521E-03     448.470E-03    -223.949E-03     2.34615E-03    -224.587E-03     447.494E-03    -224.013E-03     2.42375E-03
             172    -44.9038E-09     64.8672E-03    -127.804E+06    -269.545E+06    -128.070E+06     36.5159E+03    -224.185E-03     448.382E-03    -224.197E-03     2.38271E-03    -224.248E-03     447.406E-03    -224.261E-03     2.46245E-03
             173    -426.650E-09     63.3835E-03    -128.235E+06    -269.607E+06    -128.452E+06    -51.8749E+03    -223.915E-03     448.339E-03    -224.424E-03     2.21160E-03    -223.979E-03     447.363E-03    -224.489E-03     2.29596E-03
             174     160.577E-09     61.9004E-03    -128.214E+06    -269.175E+06    -128.040E+06     94.0193E+03    -224.440E-03     448.552E-03    -224.112E-03     2.15369E-03    -224.505E-03     447.578E-03    -224.176E-03     2.25940E-03
             175     575.312E-09     60.4166E-03    -128.387E+06    -269.184E+06    -128.186E+06     129.939E+03    -224.548E-03     448.618E-03    -224.070E-03     2.37091E-03    -224.614E-03     447.644E-03    -224.134E-03     2.46882E-03
             176    -625.610E-09     58.9325E-03    -128.497E+06    -268.973E+06    -128.559E+06     34.8699E+03    -224.039E-03     448.400E-03    -224.362E-03     2.39534E-03    -224.104E-03     447.428E-03    -224.428E-03     2.48101E-03
             177     206.540E-09     57.4500E-03    -128.205E+06    -268.551E+06    -128.096E+06     133.748E+03    -224.357E-03     448.590E-03    -224.234E-03     2.17315E-03    -224.423E-03     447.619E-03    -224.299E-03     2.26557E-03
             178     387.365E-09     55.9656E-03    -128.892E+06    -268.920E+06    -128.099E+06    -88.1621E+03    -224.524E-03     448.726E-03    -224.202E-03     2.32017E-03    -224.593E-03     447.754E-03    -224.266E-03     2.41835E-03
             179    -514.413E-09     54.4819E-03    -127.837E+06    -268.957E+06    -128.591E+06    -297.949E+03    -224.166E-03     448.556E-03    -224.390E-03     2.28897E-03    -224.229E-03     447.583E-03    -224.458E-03     2.37001E-03
             180     308.946E-09     52.9987E-03    -128.396E+06    -269.578E+06    -128.281E+06     38.5310E+03    -224.480E-03     448.764E-03    -224.284E-03     2.21175E-03    -224.544E-03     447.788E-03    -224.348E-03     2.29140E-03
             181     175.368E-09     51.5141E-03    -128.509E+06    -269.536E+06    -128.191E+06     132.136E+03    -224.629E-03     448.989E-03    -224.360E-03     2.39466E-03    -224.695E-03     448.013E-03    -224.424E-03     2.50301E-03
             182    -274.103E-09     50.0297E-03    -128.341E+06    -269.085E+06    -128.417E+06     126.028E+03    -224.579E-03     448.988E-03    -224.409E-03     2.31475E-03    -224.644E-03     448.015E-03    -224.475E-03     2.41893E-03
             183     612.343E-09     48.5458E-03    -128.696E+06    -269.129E+06    -128.303E+06     62.5600E+03    -224.586E-03     449.057E-03    -224.470E-03     2.42614E-03    -224.653E-03     448.084E-03    -224.535E-03     2.51590E-03
             184    -784.659E-09     47.0613E-03    -127.734E+06    -268.658E+06    -128.232E+06    -151.858E+03    -224.425E-03     449.201E-03    -224.776E-03     2.37855E-03    -224.488E-03     448.229E-03    -224.842E-03     2.45438E-03
             185     444.944E-09     45.5765E-03    -128.395E+06    -268.976E+06    -127.988E+06    -2.40047E+03    -224.933E-03     449.567E-03    -224.634E-03     2.32952E-03    -224.999E-03     448.594E-03    -224.698E-03     2.40612E-03
             186     324.143E-09     44.0908E-03    -128.268E+06    -268.994E+06    -128.077E+06    -17.0161E+03    -225.240E-03     449.880E-03    -224.640E-03     2.59644E-03    -225.305E-03     448.907E-03    -224.704E-03     2.68616E-03
             187    -233.667E-09     42.6054E-03    -128.166E+06    -268.879E+06    -128.049E+06     148.745E+03    -225.025E-03     450.129E-03    -225.104E-03     2.57757E-03    -225.090E-03     449.156E-03    -225.168E-03     2.65709E-03
             188     26.8668E-09     41.1190E-03    -128.197E+06    -268.651E+06    -128.303E+06     91.1102E+03    -225.264E-03     450.738E-03    -225.474E-03     2.62624E-03    -225.329E-03     449.767E-03    -225.540E-03     2.71067E-03
             189    -126.725E-09     39.6316E-03    -128.697E+06    -268.394E+06    -128.904E+06    -16.8823E+03    -225.659E-03     451.370E-03    -225.711E-03     2.54804E-03    -225.727E-03     450.402E-03    -225.780E-03     2.62645E-03
             190     146.449E-09     38.1435E-03    -128.844E+06    -268.300E+06    -128.575E+06    -89.1801E+03    -226.050E-03     451.949E-03    -225.899E-03     2.59178E-03    -226.118E-03     450.981E-03    -225.966E-03     2.65605E-03
             191     48.2635E-09     36.6543E-03    -128.707E+06    -268.198E+06    -128.927E+06     108.429E+03    -226.413E-03     452.637E-03    -226.224E-03     2.73724E-03    -226.480E-03     451.669E-03    -226.293E-03     2.81350E-03
             192     21.3339E-09     35.1637E-03    -128.678E+06    -267.854E+06    -128.840E+06     74.8027E+03    -226.541E-03     453.146E-03    -226.604E-03     2.79562E-03    -226.609E-03     452.180E-03    -226.673E-03     2.87527E-03
             193    -187.709E-09     33.6733E-03    -128.275E+06    -268.118E+06    -128.723E+06    -287.649E+03    -226.793E-03     453.734E-03    -226.941E-03     2.89987E-03    -226.859E-03     452.766E-03    -227.009E-03     2.96364E-03
             194     133.522E-09     32.1812E-03    -128.579E+06    -268.487E+06    -128.519E+06     247.586E+03    -227.307E-03     454.477E-03    -227.170E-03     2.80956E-03    -227.374E-03     453.507E-03    -227.237E-03     2.86183E-03
             195     112.105E-09     30.6885E-03    -128.097E+06    -268.248E+06    -127.831E+06     42.4546E+03    -227.709E-03     455.277E-03    -227.568E-03     3.05034E-03    -227.775E-03     454.306E-03    -227.632E-03     3.09599E-03
             196    -159.615E-09     29.1939E-03    -127.404E+06    -268.601E+06    -127.856E+06    -126.945E+03    -228.121E-03     456.329E-03    -228.209E-03     3.18226E-03    -228.183E-03     455.357E-03    -228.274E-03     3.22411E-03
             197     70.4888E-09     27.6977E-03    -128.034E+06    -269.068E+06    -127.953E+06    -130.459E+03    -228.529E-03     457.244E-03    -228.716E-03     3.13097E-03    -228.593E-03     456.270E-03    -228.780E-03     3.16366E-03
             198    -254.685E-09     26.2009E-03    -127.092E+06    -270.260E+06    -127.379E+06    -437.015E+03    -229.057E-03     458.154E-03    -229.097E-03     3.24589E-03    -229.115E-03     457.172E-03    -229.158E-03     3.26190E-03
             199     371.422E-09     24.7016E-03    -127.828E+06    -270.451E+06    -127.775E+06     450.737E+03    -229.520E-03     458.953E-03    -229.433E-03     3.28083E-03    -229.582E-03     457.972E-03    -229.494E-03     3.32439E-03
             200    -369.850E-09     23.2023E-03    -127.917E+06    -267.978E+06    -128.013E+06     572.728E+03    -229.303E-03     458.847E-03    -229.544E-03     3.08052E-03    -229.368E-03     457.878E-03    -229.610E-03     3.11937E-03
             201     15.8942E-09     21.7038E-03    -127.318E+06    -266.586E+06    -127.231E+06    -9.71846E+03    -228.857E-03     457.946E-03    -229.089E-03     2.87866E-03    -228.922E-03     456.982E-03    -229.154E-03     2.88986E-03
             202     1.99582E-09     20.2069E-03    -127.308E+06    -266.243E+06    -127.199E+06    -27.3392E+03    -228.015E-03     456.086E-03    -228.071E-03     2.64191E-03    -228.080E-03     455.124E-03    -228.137E-03     2.66201E-03
             203    -104.398E-09     18.7140E-03    -126.503E+06    -265.797E+06    -126.891E+06     82.3289E+03    -226.151E-03     452.549E-03    -226.398E-03     2.12636E-03    -226.214E-03     451.587E-03    -226.464E-03     2.13804E-03
             204    -152.953E-09     17.2279E-03    -125.773E+06    -265.288E+06    -126.190E+06     48.0853E+03    -223.611E-03     447.524E-03    -223.913E-03     1.72507E-03    -223.672E-03     446.563E-03    -223.977E-03     1.71903E-03
             205    -27.6674E-09     15.7501E-03    -124.807E+06    -265.000E+06    -124.663E+06     81.7370E+03    -220.540E-03     441.138E-03    -220.599E-03     1.11683E-03    -220.599E-03     440.175E-03    -220.657E-03     1.08443E-03
             206     128.909E-09     14.2829E-03    -123.838E+06    -264.934E+06    -123.759E+06     92.3922E+03    -216.475E-03     433.002E-03    -216.527E-03     505.123E-06    -216.531E-03     432.036E-03    -216.582E-03     434.844E-06
             207    -300.071E-09     12.8293E-03    -122.316E+06    -263.893E+06    -122.575E+06     291.377E+03    -211.748E-03     423.540E-03    -211.791E-03    -154.364E-06    -211.801E-03     422.575E-03    -211.844E-03    -287.683E-06
             208     415.498E-09     11.3898E-03    -123.255E+06    -262.365E+06    -121.518E+06     220.164E+03    -207.090E-03     413.959E-03    -206.869E-03    -351.756E-06    -207.150E-03     413.002E-03    -206.918E-03    -537.881E-06
             209    -183.949E-09     9.96387E-03    -123.507E+06    -261.691E+06    -123.093E+06    -96.6024E+03    -203.090E-03     406.100E-03    -203.009E-03     106.423E-06    -203.150E-03     405.149E-03    -203.066E-03    -101.252E-06
             210     78.2669E-09     8.54691E-03    -121.849E+06    -262.731E+06    -121.890E+06    -134.663E+03    -200.914E-03     401.952E-03    -201.039E-03     875.195E-06    -200.965E-03     400.992E-03    -201.090E-03     676.603E-06
             211    -156.548E-09     7.13262E-03    -116.277E+06    -264.080E+06    -115.915E+06    -279.574E+03    -200.881E-03     401.919E-03    -201.037E-03     1.56833E-03    -200.912E-03     400.936E-03    -201.065E-03     1.39632E-03
             212     7.97825E-09     5.71554E-03    -102.112E+06    -262.501E+06    -102.386E+06     752.203E+03    -202.168E-03     404.611E-03    -202.443E-03     1.78582E-03    -202.150E-03     403.596E-03    -202.426E-03     1.65761E-03
             213    -266.105E-09     4.29346E-03    -87.0586E+06    -256.743E+06    -87.2336E+06     1.31585E+06    -203.950E-03     408.289E-03    -204.339E-03     1.64012E-03    -203.886E-03     407.258E-03    -204.277E-03     1.55125E-03
             214    -48.7038E-09     2.86590E-03    -78.5783E+06    -249.953E+06    -78.6278E+06     1.13694E+06    -205.589E-03     411.655E-03    -206.066E-03     1.22643E-03    -205.505E-03     410.634E-03    -205.983E-03     1.16777E-03
             215    -336.675E-09     1.43416E-03    -73.5664E+06    -244.775E+06    -73.2022E+06     564.610E+03    -206.705E-03     413.955E-03    -207.250E-03     656.618E-06    -206.611E-03     412.945E-03    -207.155E-03     625.850E-06
             216     731.311E-06     55.5112E-18    -71.2501E+06    -242.758E+06    -70.5928E+06     347.426E+03    -207.336E-03     414.898E-03    -207.562E-03     556.387E-06    -207.238E-03     413.890E-03    -207.459E-03     527.156E-06
             217     1.46259E-03     55.5112E-18    -71.0288E+06    -241.979E+06    -69.1387E+06     859.901E+03    -207.733E-03     415.247E-03    -207.514E-03     1.05678E-03    -207.637E-03     414.240E-03    -207.406E-03     1.00761E-03
             218     2.19354E-03     55.5112E-18    -70.7528E+06    -240.192E+06    -66.3006E+06     1.05437E+06    -208.161E-03     415.831E-03    -207.670E-03     1.57045E-03    -208.071E-03     414.829E-03    -207.550E-03     1.49189E-03
             219     2.92413E-03     55.5112E-18    -70.0856E+06    -235.111E+06    -62.7200E+06     1.01488E+06    -208.770E-03     416.652E-03    -207.883E-03     2.11556E-03    -208.688E-03     415.670E-03    -207.754E-03     2.00362E-03
             220     3.65420E-03     55.5112E-18    -68.9738E+06    -221.241E+06    -60.3707E+06     370.247E+03    -209.560E-03     417.697E-03    -208.137E-03     2.68447E-03    -209.497E-03     416.779E-03    -208.018E-03     2.52895E-03
             221     4.38358E-03     55.5112E-18    -67.2451E+06    -200.499E+06    -59.1527E+06    -750.630E+03    -210.549E-03     418.988E-03    -208.438E-03     3.29763E-03    -210.510E-03     418.169E-03    -208.346E-03     3.08916E-03
             222     5.11216E-03     55.5112E-18    -64.6781E+06    -177.272E+06    -57.8183E+06    -1.83860E+06    -211.765E-03     420.567E-03    -208.802E-03     3.94657E-03    -211.749E-03     419.860E-03    -208.740E-03     3.68161E-03
             223     5.83972E-03     55.5112E-18    -61.3617E+06    -151.180E+06    -56.6216E+06    -3.06157E+06    -213.237E-03     422.469E-03    -209.232E-03     4.64359E-03    -213.244E-03     421.886E-03    -209.207E-03     4.31568E-03
             224     6.56610E-03     55.5112E-18    -57.1244E+06    -121.260E+06    -55.2649E+06    -4.53793E+06    -215.001E-03     424.735E-03    -209.733E-03     5.39061E-03    -215.033E-03     424.294E-03    -209.751E-03     4.98808E-03
             225     7.29107E-03     55.5112E-18    -51.3893E+06    -86.6056E+06    -53.8123E+06    -6.79830E+06    -217.102E-03     427.414E-03    -210.312E-03     6.24265E-03    -217.159E-03     427.137E-03    -210.381E-03     5.74555E-03
             226     8.01427E-03     55.5112E-18    -44.4510E+06    -44.2290E+06    -51.1413E+06    -7.94675E+06    -219.601E-03     430.581E-03    -210.980E-03     7.16961E-03    -219.689E-03     430.502E-03    -211.107E-03     6.58002E-03
             227     8.73564E-03     55.5112E-18    -37.3351E+06    -2.59266E+06    -43.4212E+06    -7.49622E+06    -222.618E-03     434.401E-03    -211.783E-03     8.19197E-03    -222.744E-03     434.512E-03    -211.942E-03     7.51075E-03
             228     9.45434E-03     55.5112E-18    -30.0905E+06     23.9718E+06    -25.7232E+06    -7.32528E+06    -226.283E-03     439.070E-03    -212.786E-03     9.46550E-03    -226.439E-03     439.279E-03    -212.906E-03     8.66274E-03
             229     10.1702E-03     55.5112E-18    -23.9103E+06     44.7104E+06    -186.270E+03    -3.58693E+06    -230.776E-03     444.768E-03    -213.991E-03     10.6776E-03    -230.971E-03     445.038E-03    -214.022E-03     9.75833E-03
             230     10.8830E-03     55.5112E-18    -20.5604E+06     61.5196E+06     29.3987E+06     2.07767E+06    -236.452E-03     451.866E-03    -215.414E-03     12.0473E-03    -236.702E-03     452.177E-03    -215.326E-03     10.9995E-03
             231     11.5903E-03     55.5112E-18    -18.6931E+06     69.6903E+06     57.9188E+06     3.38688E+06    -243.674E-03     460.754E-03    -217.080E-03     14.7886E-03    -243.974E-03     461.069E-03    -216.865E-03     13.5458E-03
             232     12.2914E-03     55.5112E-18    -16.7953E+06     74.4363E+06     81.5162E+06     2.97932E+06    -252.998E-03     472.021E-03    -219.023E-03     18.2138E-03    -253.339E-03     472.332E-03    -218.699E-03     16.6439E-03
             233     12.9868E-03     55.5112E-18    -12.6219E+06     79.8953E+06     97.7820E+06     1.88462E+06    -268.579E-03     489.963E-03    -221.385E-03     27.4874E-03    -268.977E-03     490.322E-03    -220.994E-03     24.9110E-03
             234     13.6629E-03     55.5112E-18    -2.72251E+06     87.8912E+06     107.318E+06    -1.49598E+06    -292.886E-03     517.340E-03    -224.454E-03     50.8943E-03    -293.407E-03     517.855E-03    -224.041E-03     46.2782E-03
             235     14.3604E-03     1.64380E-03    -2.01624E+06     85.9871E+06     104.877E+06    -1.99103E+06    -289.567E-03     514.831E-03    -225.264E-03     62.3968E-03    -290.151E-03     515.407E-03    -224.861E-03     56.9282E-03
             236     14.3834E-03     3.20196E-03    -3.91942E+06     83.8388E+06     100.962E+06     770.512E+03    -265.586E-03     489.530E-03    -223.944E-03     48.9049E-03    -266.104E-03     490.037E-03    -223.555E-03     43.9006E-03
             237     14.3903E-03     4.73390E-03    -1.78240E+06     88.2876E+06     104.011E+06     888.730E+03    -255.774E-03     479.299E-03    -223.526E-03     34.8685E-03    -256.241E-03     479.772E-03    -223.131E-03     29.9147E-03
             238     14.3904E-03     6.26092E-03    -4.21694E+06     88.0393E+06     103.067E+06     310.706E+03    -249.391E-03     472.955E-03    -223.564E-03     28.5261E-03    -249.844E-03     473.406E-03    -223.170E-03     23.7096E-03
             239     14.3898E-03     7.77695E-03    -4.16555E+06     87.7785E+06     102.470E+06     1.17641E+06    -242.660E-03     466.396E-03    -223.736E-03     27.3460E-03    -243.100E-03     466.836E-03    -223.345E-03     22.7846E-03
             240     14.3906E-03     9.28173E-03    -1.93076E+06     89.4229E+06     102.913E+06     33.1144E+03    -236.656E-03     460.508E-03    -223.851E-03     27.4858E-03    -237.082E-03     460.946E-03    -223.464E-03     23.1154E-03
             241     14.3915E-03     10.7810E-03    -1.50117E+06     89.5630E+06     101.744E+06    -1.56731E+06    -232.412E-03     456.343E-03    -223.931E-03     25.7656E-03    -232.821E-03     456.770E-03    -223.550E-03     21.6033E-03
             242     14.3900E-03     12.2752E-03    -2.76140E+06     88.4746E+06     100.640E+06    -66.4845E+03    -228.557E-03     452.608E-03    -224.051E-03     24.3435E-03    -228.958E-03     453.021E-03    -223.672E-03     20.4220E-03
             243     14.3907E-03     13.7615E-03    -3.44000E+06     86.1804E+06     99.1947E+06     1.18888E+06    -224.853E-03     449.001E-03    -224.149E-03     24.1445E-03    -225.244E-03     449.399E-03    -223.773E-03     20.4518E-03
             244     14.3904E-03     15.2456E-03    -4.18460E+06     84.9464E+06     99.0711E+06     300.326E+03    -221.884E-03     446.106E-03    -224.222E-03     22.9198E-03    -222.271E-03     446.492E-03    -223.844E-03     19.3011E-03
             245     14.3906E-03     16.7232E-03    -1.21220E+06     87.2729E+06     102.738E+06    -587.225E+03    -219.248E-03     443.523E-03    -224.275E-03     22.6008E-03    -219.629E-03     443.912E-03    -223.886E-03     18.9695E-03
             246     14.3920E-03     18.1986E-03    -859.538E+03     87.9473E+06     103.716E+06    -798.792E+03    -218.110E-03     442.395E-03    -224.285E-03     21.8818E-03    -218.488E-03     442.782E-03    -223.893E-03     18.2984E-03
             247     14.3902E-03     19.6763E-03    -3.27307E+06     86.9808E+06     102.167E+06     205.652E+03    -217.602E-03     441.906E-03    -224.304E-03     21.0684E-03    -217.982E-03     442.288E-03    -223.915E-03     17.6045E-03
             248     14.3919E-03     21.1490E-03    -2.33219E+06     86.4372E+06     101.794E+06    -405.551E+03    -216.883E-03     441.197E-03    -224.315E-03     21.3641E-03    -217.256E-03     441.574E-03    -223.928E-03     17.9396E-03
             249     14.3907E-03     22.6242E-03    -3.28415E+06     85.2898E+06     101.140E+06    -213.449E+03    -217.177E-03     441.487E-03    -224.310E-03     20.5849E-03    -217.552E-03     441.860E-03    -223.923E-03     17.1202E-03
             250     14.3911E-03     24.0987E-03    -2.79798E+06     87.4794E+06     102.767E+06     418.497E+03    -217.640E-03     441.943E-03    -224.303E-03     20.8792E-03    -218.017E-03     442.323E-03    -223.912E-03     17.4668E-03
             251     14.3914E-03     25.5751E-03    -432.378E+03     88.3708E+06     103.608E+06    -1.09408E+06    -218.113E-03     442.390E-03    -224.277E-03     20.7361E-03    -218.479E-03     442.768E-03    -223.887E-03     17.3252E-03
             252     14.3913E-03     27.0515E-03    -980.759E+03     86.8071E+06     102.117E+06     1.09695E+06    -218.342E-03     442.599E-03    -224.257E-03     20.4640E-03    -218.705E-03     442.970E-03    -223.871E-03     17.1047E-03
             253     14.3918E-03     28.5283E-03    -8.20906E+06     82.7998E+06     96.8394E+06     3.52325E+03    -219.741E-03     444.008E-03    -224.267E-03     19.8096E-03    -220.123E-03     444.374E-03    -223.891E-03     16.4765E-03
             254     14.3876E-03     30.0100E-03    -11.8824E+06     79.5487E+06     93.7127E+06     1.05822E+06    -220.748E-03     445.062E-03    -224.314E-03     19.7218E-03    -221.139E-03     445.421E-03    -223.944E-03     16.4125E-03
             255     14.3911E-03     31.4877E-03     557.457E+03     88.1293E+06     103.317E+06     2.56385E+06    -218.807E-03     443.115E-03    -224.308E-03     21.4931E-03    -219.167E-03     443.491E-03    -223.920E-03     18.1862E-03
             256     14.3926E-03     32.9628E-03     4.02225E+06     92.2416E+06     108.318E+06    -2.48080E+06    -219.454E-03     443.679E-03    -224.225E-03     21.0283E-03    -219.812E-03     444.065E-03    -223.823E-03     17.5392E-03
             257     14.3906E-03     34.4451E-03    -1.47855E+06     89.6177E+06     105.186E+06    -146.096E+03    -221.475E-03     445.653E-03    -224.178E-03     19.8631E-03    -221.850E-03     446.036E-03    -223.780E-03     16.3650E-03
             258     14.3925E-03     35.9256E-03    -1.11627E+06     89.6003E+06     103.863E+06     594.412E+03    -221.282E-03     445.456E-03    -224.174E-03     19.9656E-03    -221.652E-03     445.839E-03    -223.783E-03     16.5092E-03
             259     14.3908E-03     37.4065E-03    -2.36572E+06     88.4961E+06     102.719E+06    -1.38105E+06    -221.499E-03     445.670E-03    -224.171E-03     20.2033E-03    -221.872E-03     446.050E-03    -223.782E-03     16.7685E-03
             260     14.3920E-03     38.8888E-03    -3.16703E+06     88.3109E+06     102.558E+06    -478.033E+03    -222.018E-03     446.195E-03    -224.177E-03     20.1036E-03    -222.393E-03     446.574E-03    -223.787E-03     16.7170E-03
             261     14.3902E-03     40.3704E-03    -2.98025E+06     87.5538E+06     101.731E+06     667.999E+03    -222.061E-03     446.240E-03    -224.178E-03     20.2663E-03    -222.434E-03     446.617E-03    -223.792E-03     16.8681E-03
             262     14.3923E-03     41.8522E-03    -2.06175E+06     88.7435E+06     102.888E+06     -33.504E+03    -222.207E-03     446.370E-03    -224.163E-03     20.5759E-03    -222.580E-03     446.752E-03    -223.774E-03     17.1372E-03
             263     14.3908E-03     43.3347E-03    -3.49523E+06     88.5670E+06     102.714E+06     54.9354E+03    -222.909E-03     447.066E-03    -224.156E-03     19.9479E-03    -223.287E-03     447.448E-03    -223.766E-03     16.5054E-03
             264     14.3911E-03     44.8195E-03    -3.14863E+06     87.6458E+06     101.931E+06     617.459E+03    -222.635E-03     446.802E-03    -224.167E-03     20.1092E-03    -223.008E-03     447.180E-03    -223.780E-03     16.6942E-03
             265     14.3916E-03     46.2997E-03    -1.73234E+06     89.1324E+06     103.206E+06    -995.601E+03    -222.405E-03     446.560E-03    -224.156E-03     20.7431E-03    -222.777E-03     446.944E-03    -223.766E-03     17.3037E-03
             266     14.3914E-03     47.7844E-03    -4.06625E+06     87.9635E+06     102.231E+06    -483.636E+03    -223.178E-03     447.314E-03    -224.136E-03     20.3902E-03    -223.557E-03     447.694E-03    -223.747E-03     16.9864E-03
             267     14.3912E-03     49.2681E-03    -706.040E+03     91.0194E+06     105.284E+06     1.36838E+06    -222.847E-03     446.993E-03    -224.146E-03     20.3752E-03    -223.217E-03     447.379E-03    -223.751E-03     17.0260E-03
             268     14.3921E-03     50.7499E-03    -2.35290E+06     89.7064E+06     103.480E+06    -25.0512E+03    -222.844E-03     446.991E-03    -224.147E-03     20.3177E-03    -223.219E-03     447.375E-03    -223.756E-03     16.9251E-03
             269     14.3902E-03     52.2347E-03    -5.97813E+06     86.3925E+06     100.292E+06     309.427E+03    -223.450E-03     447.608E-03    -224.158E-03     20.1090E-03    -223.832E-03     447.985E-03    -223.773E-03     16.7212E-03
             270     14.3912E-03     53.7184E-03    -1.38803E+06     90.6184E+06     104.212E+06     1.67069E+06    -222.749E-03     446.929E-03    -224.180E-03     20.3619E-03    -223.122E-03     447.316E-03    -223.788E-03     16.9681E-03
             271     14.3913E-03     55.1994E-03    -2.75886E+06     90.1143E+06     103.363E+06    -959.182E+03    -222.860E-03     447.020E-03    -224.159E-03     20.8259E-03    -223.239E-03     447.409E-03    -223.769E-03     17.3848E-03
             272     14.3911E-03     56.6854E-03    -3.76513E+06     89.3725E+06     102.684E+06     189.339E+03    -223.393E-03     447.538E-03    -224.145E-03     20.4718E-03    -223.773E-03     447.924E-03    -223.756E-03     17.0914E-03
             273     14.3914E-03     58.1682E-03    -2.03019E+06     90.6095E+06     103.994E+06     101.826E+03    -222.790E-03     446.944E-03    -224.154E-03     20.4274E-03    -223.166E-03     447.333E-03    -223.763E-03     17.0109E-03
             274     14.3915E-03     59.6498E-03    -1.98164E+06     91.4091E+06     104.806E+06    -525.290E+03    -223.080E-03     447.227E-03    -224.147E-03     20.6265E-03    -223.460E-03     447.621E-03    -223.753E-03     17.1635E-03
             275     14.3912E-03     61.1361E-03    -2.88524E+06     90.3395E+06     103.419E+06     127.982E+03    -223.418E-03     447.557E-03    -224.140E-03     20.4523E-03    -223.797E-03     447.947E-03    -223.749E-03     17.0253E-03
             276     14.3914E-03     62.6183E-03    -1.69874E+06     91.1503E+06     104.234E+06    -478.813E+03    -222.622E-03     446.761E-03    -224.139E-03     21.1819E-03    -223.000E-03     447.153E-03    -223.747E-03     17.7522E-03
             277     14.3925E-03     64.1014E-03    -1.44309E+06     92.3685E+06     105.569E+06    -614.462E+03    -222.811E-03     446.938E-03    -224.127E-03     21.2395E-03    -223.191E-03     447.334E-03    -223.731E-03     17.8109E-03
             278     14.3907E-03     65.5853E-03    -3.97413E+06     89.5781E+06     102.732E+06     318.327E+03    -223.228E-03     447.362E-03    -224.134E-03     20.0333E-03    -223.608E-03     447.749E-03    -223.745E-03     16.6354E-03
             279     14.3918E-03     67.0671E-03    -2.92429E+06     89.7846E+06     103.678E+06    -686.972E+03    -223.017E-03     447.163E-03    -224.147E-03     20.2840E-03    -223.395E-03     447.549E-03    -223.754E-03     16.8581E-03
             280     14.3912E-03     68.5512E-03    -2.76789E+06     90.0158E+06     104.488E+06     166.938E+03    -223.385E-03     447.530E-03    -224.145E-03     19.9509E-03    -223.763E-03     447.915E-03    -223.749E-03     16.5294E-03
             281     14.3911E-03     70.0366E-03    -3.58573E+06     89.2095E+06     103.245E+06     1.35912E+06    -222.949E-03     447.101E-03    -224.152E-03     20.2562E-03    -223.329E-03     447.486E-03    -223.760E-03     16.8555E-03
             282     14.3920E-03     71.5169E-03    -1.84929E+06     91.2561E+06     105.244E+06    -319.606E+03    -223.154E-03     447.292E-03    -224.137E-03     21.1842E-03    -223.534E-03     447.684E-03    -223.741E-03     17.7493E-03
             283     14.3911E-03     73.0043E-03    -2.22434E+06     90.7176E+06     104.924E+06    -199.296E+03    -223.438E-03     447.573E-03    -224.135E-03     19.8813E-03    -223.815E-03     447.960E-03    -223.738E-03     16.4472E-03
             284     14.3916E-03     74.4851E-03    -1.67538E+06     90.9263E+06     104.938E+06    -408.205E+03    -222.575E-03     446.717E-03    -224.142E-03     20.5845E-03    -222.950E-03     447.104E-03    -223.747E-03     17.1891E-03
             285     14.3923E-03     75.9679E-03    -2.72405E+06     91.4623E+06     104.936E+06     171.552E+03    -223.404E-03     447.527E-03    -224.123E-03     20.4818E-03    -223.783E-03     447.918E-03    -223.727E-03     17.1420E-03
             286     14.3903E-03     77.4556E-03    -4.65967E+06     89.6918E+06     102.503E+06     848.380E+03    -223.409E-03     447.555E-03    -224.147E-03     19.5301E-03    -223.791E-03     447.942E-03    -223.757E-03     16.1693E-03
             287     14.3918E-03     78.9343E-03    -1.75452E+06     91.3307E+06     104.786E+06    -215.934E+03    -222.364E-03     446.530E-03    -224.166E-03     20.4653E-03    -222.743E-03     446.924E-03    -223.772E-03     16.9756E-03
             288     14.3914E-03     80.4188E-03    -1.66280E+06     91.2731E+06     105.715E+06    -806.515E+03    -223.070E-03     447.213E-03    -224.144E-03     20.2468E-03    -223.449E-03     447.605E-03    -223.745E-03     16.7381E-03
             289     14.3912E-03     81.9037E-03    -3.10129E+06     89.5731E+06     103.859E+06    -90.3477E+03    -223.290E-03     447.428E-03    -224.137E-03     20.3674E-03    -223.671E-03     447.814E-03    -223.743E-03     16.9010E-03
             290     14.3918E-03     83.3856E-03    -3.42091E+06     90.9675E+06     104.479E+06     596.213E+03    -223.277E-03     447.428E-03    -224.151E-03     20.2669E-03    -223.661E-03     447.820E-03    -223.755E-03     16.8411E-03
             291     14.3902E-03     84.8719E-03    -2.65128E+06     91.7263E+06     104.568E+06     804.997E+03    -223.022E-03     447.183E-03    -224.161E-03     20.1590E-03    -223.402E-03     447.576E-03    -223.768E-03     16.7757E-03
             292     719.007E-06     87.1193E-03    -127.468E+06    -268.240E+06    -125.483E+06     75.2666E+03    -224.085E-03     448.378E-03    -224.293E-03     3.96820E-03    -224.151E-03     447.404E-03    -224.347E-03     4.11933E-03
             293     1.43827E-03     87.1276E-03    -124.394E+06    -257.611E+06    -115.897E+06    -42.8267E+03    -224.148E-03     448.359E-03    -224.211E-03     7.18431E-03    -224.228E-03     447.420E-03    -224.237E-03     7.44806E-03
             294     2.15768E-03     87.1413E-03    -119.317E+06    -242.554E+06    -101.775E+06    -31.5405E+03    -224.059E-03     448.286E-03    -224.227E-03     10.5171E-03    -224.157E-03     447.394E-03    -224.211E-03     10.8800E-03
             295     2.87712E-03     87.1602E-03    -112.933E+06    -224.238E+06    -84.7721E+06     120.961E+03    -224.021E-03     448.265E-03    -224.244E-03     13.6376E-03    -224.139E-03     447.431E-03    -224.179E-03     14.0606E-03
             296     3.59642E-03     87.1839E-03    -105.420E+06    -204.239E+06    -66.6463E+06     177.396E+03    -224.029E-03     448.297E-03    -224.268E-03     16.6959E-03    -224.165E-03     447.527E-03    -224.152E-03     17.1396E-03
             297     4.31579E-03     87.2124E-03    -97.4754E+06    -183.239E+06    -48.8125E+06     273.335E+03    -224.014E-03     448.307E-03    -224.294E-03     19.6787E-03    -224.168E-03     447.607E-03    -224.131E-03     20.0912E-03
             298     5.03513E-03     87.2452E-03    -89.3812E+06    -161.658E+06    -31.9780E+06     240.931E+03    -223.970E-03     448.281E-03    -224.311E-03     22.5007E-03    -224.142E-03     447.655E-03    -224.107E-03     22.8161E-03
             299     5.75455E-03     87.2820E-03    -81.1622E+06    -139.757E+06    -16.5719E+06     219.536E+03    -223.910E-03     448.226E-03    -224.316E-03     25.1742E-03    -224.100E-03     447.680E-03    -224.079E-03     25.3317E-03
             300     6.47409E-03     87.3224E-03    -73.1721E+06    -116.633E+06    -2.41505E+06     325.857E+03    -223.859E-03     448.169E-03    -224.310E-03     27.6954E-03    -224.069E-03     447.713E-03    -224.047E-03     27.6345E-03
             301     7.19372E-03     87.3661E-03    -65.4429E+06    -92.8554E+06     10.5828E+06     475.863E+03    -223.833E-03     448.130E-03    -224.298E-03     30.0365E-03    -224.067E-03     447.772E-03    -224.015E-03     29.6840E-03
             302     7.91333E-03     87.4124E-03    -57.9043E+06    -66.3556E+06     22.8334E+06     683.227E+03    -223.791E-03     448.070E-03    -224.279E-03     32.1937E-03    -224.055E-03     447.826E-03    -223.984E-03     31.4878E-03
             303     8.63296E-03     87.4616E-03    -50.6821E+06    -35.5032E+06     34.8981E+06     861.039E+03    -223.711E-03     447.964E-03    -224.252E-03     34.1084E-03    -224.015E-03     447.861E-03    -223.953E-03     32.9898E-03
             304     9.35267E-03     87.5123E-03    -44.0100E+06     2.62939E+06     47.1552E+06     934.626E+03    -223.602E-03     447.818E-03    -224.216E-03     35.8218E-03    -223.964E-03     447.896E-03    -223.920E-03     34.2279E-03
             305     10.0725E-03     87.5650E-03    -37.6074E+06     37.4646E+06     57.5350E+06     961.684E+03    -223.495E-03     447.668E-03    -224.174E-03     37.2068E-03    -223.912E-03     447.918E-03    -223.886E-03     35.0781E-03
             306     10.7923E-03     87.6182E-03    -31.0867E+06     62.1413E+06     66.0421E+06     966.061E+03    -223.375E-03     447.512E-03    -224.136E-03     37.9783E-03    -223.832E-03     447.887E-03    -223.851E-03     35.2740E-03
             307     11.5123E-03     87.6710E-03    -24.6495E+06     75.7675E+06     76.7027E+06     811.263E+03    -223.238E-03     447.362E-03    -224.124E-03     37.7877E-03    -223.721E-03     447.804E-03    -223.815E-03     34.5118E-03
             308     12.2324E-03     87.7213E-03    -18.0820E+06     81.0762E+06     89.9770E+06     891.900E+03    -223.124E-03     447.261E-03    -224.137E-03     36.3092E-03    -223.616E-03     447.716E-03    -223.779E-03     32.5649E-03
             309     12.9526E-03     87.7684E-03    -11.2803E+06     86.6836E+06     101.732E+06     674.076E+03    -222.996E-03     447.139E-03    -224.143E-03     34.5932E-03    -223.501E-03     447.617E-03    -223.744E-03     30.2243E-03
             310     13.6738E-03     87.8110E-03    -5.63303E+06     90.3333E+06     105.687E+06    -360.829E+03    -223.273E-03     447.400E-03    -224.126E-03     26.8869E-03    -223.723E-03     447.844E-03    -223.721E-03     22.7831E-03
             311     719.414E-06     88.6024E-03    -127.802E+06    -268.279E+06    -125.571E+06    -4.54080E+03    -224.083E-03     448.261E-03    -224.178E-03     3.99407E-03    -224.151E-03     447.287E-03    -224.232E-03     4.15105E-03
             312     1.43869E-03     88.6109E-03    -124.673E+06    -257.606E+06    -116.041E+06     149.158E+03    -224.155E-03     448.322E-03    -224.166E-03     7.12666E-03    -224.237E-03     447.383E-03    -224.192E-03     7.39521E-03
             313     2.15779E-03     88.6246E-03    -119.892E+06    -242.817E+06    -102.071E+06     221.112E+03    -224.148E-03     448.362E-03    -224.213E-03     10.3359E-03    -224.248E-03     447.470E-03    -224.198E-03     10.6976E-03
             314     2.87695E-03     88.6435E-03    -113.274E+06    -224.251E+06    -84.9314E+06     219.519E+03    -224.102E-03     448.358E-03    -224.256E-03     13.5349E-03    -224.221E-03     447.525E-03    -224.192E-03     13.9620E-03
             315     3.59626E-03     88.6674E-03    -105.860E+06    -204.259E+06    -66.8829E+06     182.350E+03    -224.065E-03     448.356E-03    -224.291E-03     16.6446E-03    -224.203E-03     447.587E-03    -224.176E-03     17.0883E-03
             316     4.31557E-03     88.6958E-03    -98.0371E+06    -183.321E+06    -49.1361E+06     188.787E+03    -223.993E-03     448.308E-03    -224.314E-03     19.6538E-03    -224.150E-03     447.608E-03    -224.152E-03     20.0628E-03
             317     5.03504E-03     88.7287E-03    -89.9012E+06    -161.556E+06    -32.2357E+06     178.875E+03    -223.920E-03     448.244E-03    -224.324E-03     22.5570E-03    -224.095E-03     447.620E-03    -224.121E-03     22.8739E-03
             318     5.75457E-03     88.7653E-03    -81.7645E+06    -139.757E+06    -16.7794E+06     153.101E+03    -223.878E-03     448.201E-03    -224.323E-03     25.2775E-03    -224.071E-03     447.656E-03    -224.086E-03     25.4380E-03
             319     6.47411E-03     88.8057E-03    -73.6684E+06    -116.832E+06    -2.71349E+06     220.559E+03    -223.832E-03     448.145E-03    -224.313E-03     27.7968E-03    -224.044E-03     447.689E-03    -224.050E-03     27.7365E-03
             320     7.19372E-03     88.8492E-03    -65.8608E+06    -93.1492E+06     10.2100E+06     339.465E+03    -223.796E-03     448.092E-03    -224.296E-03     30.1169E-03    -224.031E-03     447.733E-03    -224.015E-03     29.7697E-03
             321     7.91334E-03     88.8960E-03    -58.2965E+06    -66.7196E+06     22.4066E+06     403.589E+03    -223.743E-03     448.016E-03    -224.273E-03     32.2471E-03    -224.008E-03     447.772E-03    -223.980E-03     31.5451E-03
             322     8.63308E-03     88.9447E-03    -50.8459E+06    -36.0536E+06     34.3879E+06     667.832E+03    -223.659E-03     447.902E-03    -224.242E-03     34.1786E-03    -223.963E-03     447.797E-03    -223.944E-03     33.0650E-03
             323     9.35288E-03     88.9958E-03    -43.4135E+06     1.75817E+06     47.0129E+06     1.35690E+06    -223.548E-03     447.751E-03    -224.203E-03     35.8728E-03    -223.906E-03     447.825E-03    -223.908E-03     34.2891E-03
             324     10.0727E-03     89.0482E-03    -36.5538E+06     37.6031E+06     57.8825E+06     1.64267E+06    -223.408E-03     447.565E-03    -224.157E-03     37.2000E-03    -223.821E-03     447.814E-03    -223.869E-03     35.0772E-03
             325     10.7926E-03     89.1015E-03    -30.3619E+06     62.3690E+06     66.3845E+06     1.28841E+06    -223.306E-03     447.422E-03    -224.115E-03     37.8616E-03    -223.760E-03     447.797E-03    -223.830E-03     35.1499E-03
             326     11.5127E-03     89.1539E-03    -24.0428E+06     76.2379E+06     76.9365E+06     928.382E+03    -223.295E-03     447.399E-03    -224.104E-03     37.4761E-03    -223.776E-03     447.842E-03    -223.795E-03     34.1832E-03
             327     12.2324E-03     89.2047E-03    -17.5964E+06     82.2524E+06     90.4793E+06     43.9465E+03    -223.324E-03     447.451E-03    -224.127E-03     35.6903E-03    -223.817E-03     447.911E-03    -223.768E-03     31.8746E-03
             328     12.9524E-03     89.2509E-03    -10.5434E+06     87.6957E+06     102.763E+06    -361.277E+03    -223.353E-03     447.505E-03    -224.153E-03     33.4522E-03    -223.857E-03     447.986E-03    -223.751E-03     28.9814E-03
             329     13.6710E-03     89.2950E-03    -5.21456E+06     90.5824E+06     106.008E+06     473.494E+03    -223.340E-03     447.486E-03    -224.146E-03     26.3856E-03    -223.788E-03     447.930E-03    -223.740E-03     22.2566E-03
             330     719.168E-06     90.0853E-03    -128.203E+06    -268.491E+06    -125.993E+06     20.9880E+03    -224.159E-03     448.401E-03    -224.242E-03     3.73605E-03    -224.228E-03     447.427E-03    -224.297E-03     3.88449E-03
             331     1.43834E-03     90.0943E-03    -124.981E+06    -258.025E+06    -116.382E+06     263.206E+03    -224.171E-03     448.397E-03    -224.226E-03     6.92183E-03    -224.253E-03     447.457E-03    -224.253E-03     7.19624E-03
             332     2.15759E-03     90.1081E-03    -119.786E+06    -242.764E+06    -102.039E+06     307.165E+03    -224.131E-03     448.385E-03    -224.254E-03     10.2489E-03    -224.230E-03     447.493E-03    -224.238E-03     10.6168E-03
             333     2.87690E-03     90.1269E-03    -113.232E+06    -224.374E+06    -84.8737E+06     307.845E+03    -224.083E-03     448.364E-03    -224.282E-03     13.6105E-03    -224.201E-03     447.530E-03    -224.217E-03     14.0451E-03
             334     3.59617E-03     90.1508E-03    -105.960E+06    -204.382E+06    -66.6988E+06     392.280E+03    -224.021E-03     448.327E-03    -224.305E-03     16.8140E-03    -224.160E-03     447.557E-03    -224.189E-03     17.2655E-03
             335     4.31557E-03     90.1792E-03    -98.1868E+06    -183.166E+06    -48.9427E+06     334.707E+03    -223.963E-03     448.283E-03    -224.320E-03     19.8069E-03    -224.121E-03     447.584E-03    -224.157E-03     20.2173E-03
             336     5.03506E-03     90.2118E-03    -89.9622E+06    -161.507E+06    -32.2727E+06     297.382E+03    -223.907E-03     448.232E-03    -224.324E-03     22.6229E-03    -224.083E-03     447.608E-03    -224.121E-03     22.9405E-03
             337     5.75459E-03     90.2487E-03    -81.8219E+06    -139.809E+06    -16.8961E+06     356.091E+03    -223.856E-03     448.177E-03    -224.321E-03     25.2560E-03    -224.049E-03     447.632E-03    -224.084E-03     25.4199E-03
             338     6.47417E-03     90.2889E-03    -73.9771E+06    -116.797E+06    -2.88580E+06     350.464E+03    -223.820E-03     448.128E-03    -224.309E-03     27.7708E-03    -224.033E-03     447.673E-03    -224.047E-03     27.7122E-03
             339     7.19375E-03     90.3327E-03    -66.3114E+06    -93.0433E+06     9.89798E+06     193.470E+03    -223.773E-03     448.064E-03    -224.291E-03     30.1155E-03    -224.010E-03     447.706E-03    -224.010E-03     29.7668E-03
             340     7.91346E-03     90.3790E-03    -58.7399E+06    -66.7104E+06     22.0238E+06     60.0901E+03    -223.716E-03     447.981E-03    -224.266E-03     32.2065E-03    -223.982E-03     447.738E-03    -223.974E-03     31.5009E-03
             341     8.63319E-03     90.4280E-03    -51.3532E+06    -36.5550E+06     33.8602E+06     116.894E+03    -223.641E-03     447.875E-03    -224.234E-03     34.0767E-03    -223.946E-03     447.769E-03    -223.937E-03     32.9502E-03
             342     9.35292E-03     90.4789E-03    -44.2197E+06    -273.708E+03     45.9317E+06     570.687E+03    -223.512E-03     447.705E-03    -224.193E-03     35.7368E-03    -223.869E-03     447.771E-03    -223.899E-03     34.1276E-03
             343     10.0729E-03     90.5314E-03    -37.0598E+06     36.4840E+06     56.9539E+06     1.55631E+06    -223.411E-03     447.557E-03    -224.146E-03     36.9937E-03    -223.823E-03     447.802E-03    -223.860E-03     34.8506E-03
             344     10.7928E-03     90.5845E-03    -30.1677E+06     63.7205E+06     66.5485E+06     1.67886E+06    -223.402E-03     447.511E-03    -224.110E-03     37.6044E-03    -223.858E-03     447.893E-03    -223.825E-03     34.8791E-03
             345     11.5125E-03     90.6375E-03    -23.7521E+06     78.1222E+06     78.4002E+06     473.514E+03    -223.419E-03     447.531E-03    -224.111E-03     37.3048E-03    -223.904E-03     447.981E-03    -223.798E-03     33.9814E-03
             346     12.2322E-03     90.6882E-03    -17.2980E+06     83.2072E+06     92.3379E+06     67.9719E+03    -223.446E-03     447.591E-03    -224.145E-03     35.9422E-03    -223.943E-03     448.054E-03    -223.779E-03     32.1109E-03
             347     12.9513E-03     90.7356E-03    -12.0476E+06     86.2067E+06     102.005E+06     610.846E+03    -223.418E-03     447.586E-03    -224.168E-03     34.4781E-03    -223.928E-03     448.064E-03    -223.765E-03     30.0676E-03
             348     13.6717E-03     90.7788E-03    -6.08487E+06     90.5184E+06     105.449E+06     889.578E+03    -223.123E-03     447.276E-03    -224.154E-03     27.4191E-03    -223.576E-03     447.724E-03    -223.749E-03     23.3237E-03
             349     719.032E-06     91.5691E-03    -127.374E+06    -268.966E+06    -125.114E+06     231.433E+03    -224.262E-03     448.547E-03    -224.285E-03     4.01189E-03    -224.328E-03     447.568E-03    -224.335E-03     4.16253E-03
             350     1.43823E-03     91.5776E-03    -124.258E+06    -258.446E+06    -115.890E+06     272.394E+03    -224.161E-03     448.442E-03    -224.281E-03     7.17838E-03    -224.239E-03     447.497E-03    -224.305E-03     7.45139E-03
             351     2.15756E-03     91.5914E-03    -119.253E+06    -242.876E+06    -101.813E+06     368.725E+03    -224.091E-03     448.368E-03    -224.278E-03     10.4304E-03    -224.187E-03     447.475E-03    -224.262E-03     10.8028E-03
             352     2.87687E-03     91.6103E-03    -113.084E+06    -224.750E+06    -84.8064E+06     503.936E+03    -224.033E-03     448.321E-03    -224.288E-03     13.6587E-03    -224.150E-03     447.485E-03    -224.222E-03     14.0927E-03
             353     3.59631E-03     91.6341E-03    -105.794E+06    -204.579E+06    -66.6264E+06     625.608E+03    -223.971E-03     448.270E-03    -224.300E-03     16.7895E-03    -224.108E-03     447.499E-03    -224.183E-03     17.2408E-03
             354     4.31576E-03     91.6625E-03    -97.8364E+06    -183.140E+06    -48.7425E+06     659.876E+03    -223.950E-03     448.259E-03    -224.309E-03     19.7840E-03    -224.106E-03     447.559E-03    -224.146E-03     20.2008E-03
             355     5.03509E-03     91.6953E-03    -89.8098E+06    -161.634E+06    -32.1338E+06     703.208E+03    -223.928E-03     448.244E-03    -224.316E-03     22.6177E-03    -224.103E-03     447.619E-03    -224.112E-03     22.9396E-03
             356     5.75457E-03     91.7318E-03    -81.8672E+06    -139.847E+06    -16.8579E+06     719.295E+03    -223.877E-03     448.193E-03    -224.316E-03     25.2845E-03    -224.071E-03     447.648E-03    -224.079E-03     25.4494E-03
             357     6.47414E-03     91.7723E-03    -74.1098E+06    -116.644E+06    -2.85052E+06     674.423E+03    -223.829E-03     448.135E-03    -224.306E-03     27.7700E-03    -224.044E-03     447.681E-03    -224.044E-03     27.7138E-03
             358     7.19380E-03     91.8158E-03    -66.5773E+06    -92.6405E+06     9.99932E+06     538.845E+03    -223.793E-03     448.083E-03    -224.290E-03     30.0372E-03    -224.032E-03     447.728E-03    -224.009E-03     29.6844E-03
             359     7.91344E-03     91.8623E-03    -59.4039E+06    -66.2645E+06     22.0106E+06     290.021E+03    -223.750E-03     448.018E-03    -224.268E-03     32.0915E-03    -224.020E-03     447.778E-03    -223.976E-03     31.3781E-03
             360     8.63309E-03     91.9112E-03    -52.4997E+06    -36.5395E+06     33.6012E+06     92.4184E+03    -223.668E-03     447.907E-03    -224.239E-03     33.8982E-03    -223.978E-03     447.804E-03    -223.942E-03     32.7606E-03
             361     9.35294E-03     91.9620E-03    -45.4121E+06    -1.06076E+06     45.4363E+06     83.6698E+03    -223.563E-03     447.765E-03    -224.202E-03     35.4883E-03    -223.925E-03     447.830E-03    -223.908E-03     33.8594E-03
             362     10.0727E-03     92.0145E-03    -37.8311E+06     35.3065E+06     56.4369E+06    -23.8467E+03    -223.493E-03     447.653E-03    -224.160E-03     36.7531E-03    -223.907E-03     447.894E-03    -223.874E-03     34.5799E-03
             363     10.7924E-03     92.0680E-03    -30.1712E+06     63.4008E+06     66.5100E+06     429.309E+03    -223.437E-03     447.563E-03    -224.127E-03     37.4503E-03    -223.891E-03     447.943E-03    -223.842E-03     34.7128E-03
             364     11.5123E-03     92.1210E-03    -23.7247E+06     78.6344E+06     78.5516E+06     1.49636E+06    -223.347E-03     447.473E-03    -224.126E-03     37.2940E-03    -223.831E-03     447.925E-03    -223.813E-03     34.0093E-03
             365     12.2321E-03     92.1719E-03    -18.5948E+06     82.9509E+06     91.7477E+06     1.72903E+06    -223.194E-03     447.343E-03    -224.149E-03     35.9904E-03    -223.694E-03     447.805E-03    -223.784E-03     32.2236E-03
             366     12.9528E-03     92.2188E-03    -12.5890E+06     86.7877E+06     102.512E+06     1.03208E+06    -223.208E-03     447.370E-03    -224.162E-03     34.3349E-03    -223.722E-03     447.850E-03    -223.757E-03     29.9475E-03
             367     13.6723E-03     92.2621E-03    -6.27313E+06     91.8524E+06     106.310E+06     380.419E+03    -223.337E-03     447.486E-03    -224.149E-03     26.6077E-03    -223.793E-03     447.937E-03    -223.741E-03     22.4828E-03
             368     719.277E-06     93.0526E-03    -127.337E+06    -269.629E+06    -125.022E+06     225.691E+03    -224.258E-03     448.412E-03    -224.155E-03     3.96583E-03    -224.322E-03     447.430E-03    -224.204E-03     4.11470E-03
             369     1.43848E-03     93.0611E-03    -123.950E+06    -258.891E+06    -115.512E+06     341.928E+03    -224.169E-03     448.398E-03    -224.229E-03     7.18876E-03    -224.246E-03     447.451E-03    -224.252E-03     7.45888E-03
             370     2.15763E-03     93.0748E-03    -119.035E+06    -243.500E+06    -101.566E+06     595.363E+03    -224.127E-03     448.379E-03    -224.252E-03     10.4870E-03    -224.222E-03     447.482E-03    -224.234E-03     10.8620E-03
             371     2.87691E-03     93.0937E-03    -112.734E+06    -225.252E+06    -84.5733E+06     768.015E+03    -224.064E-03     448.340E-03    -224.277E-03     13.6759E-03    -224.179E-03     447.501E-03    -224.209E-03     14.1087E-03
             372     3.59622E-03     93.1173E-03    -105.319E+06    -204.966E+06    -66.4415E+06     835.565E+03    -223.993E-03     448.289E-03    -224.296E-03     16.7569E-03    -224.128E-03     447.515E-03    -224.178E-03     17.2063E-03
             373     4.31561E-03     93.1459E-03    -97.3950E+06    -183.627E+06    -48.5139E+06     1.03697E+06    -223.921E-03     448.227E-03    -224.306E-03     19.7454E-03    -224.075E-03     447.524E-03    -224.141E-03     20.1667E-03
             374     5.03520E-03     93.1785E-03    -89.4526E+06    -161.983E+06    -31.6696E+06     1.22701E+06    -223.897E-03     448.207E-03    -224.310E-03     22.6001E-03    -224.070E-03     447.579E-03    -224.104E-03     22.9288E-03
             375     5.75470E-03     93.2152E-03    -81.5349E+06    -139.897E+06    -16.3366E+06     1.24388E+06    -223.911E-03     448.221E-03    -224.310E-03     25.2659E-03    -224.103E-03     447.675E-03    -224.071E-03     25.4326E-03
             376     6.47421E-03     93.2555E-03    -73.8033E+06    -116.632E+06    -2.34915E+06     1.24027E+06    -223.890E-03     448.196E-03    -224.307E-03     27.7283E-03    -224.104E-03     447.741E-03    -224.042E-03     27.6709E-03
             377     7.19372E-03     93.2992E-03    -66.3447E+06    -92.5119E+06     10.5418E+06     1.26795E+06    -223.852E-03     448.149E-03    -224.297E-03     30.0080E-03    -224.091E-03     447.794E-03    -224.014E-03     29.6596E-03
             378     7.91329E-03     93.3456E-03    -59.2333E+06    -65.7749E+06     22.6806E+06     1.22232E+06    -223.808E-03     448.088E-03    -224.280E-03     32.0668E-03    -224.079E-03     447.850E-03    -223.985E-03     31.3587E-03
             379     8.63300E-03     93.3945E-03    -52.3870E+06    -35.9234E+06     34.3046E+06     934.673E+03    -223.758E-03     448.015E-03    -224.257E-03     33.8431E-03    -224.070E-03     447.914E-03    -223.957E-03     32.7084E-03
             380     9.35257E-03     93.4453E-03    -45.5018E+06     585.462E+03     46.2446E+06    -9.70309E+03    -223.679E-03     447.906E-03    -224.226E-03     35.4354E-03    -224.045E-03     447.977E-03    -223.930E-03     33.8053E-03
             381     10.0723E-03     93.4980E-03    -38.8636E+06     35.7252E+06     56.7118E+06    -791.176E+03    -223.541E-03     447.730E-03    -224.189E-03     36.7405E-03    -223.961E-03     447.975E-03    -223.901E-03     34.5652E-03
             382     10.7922E-03     93.5513E-03    -32.8332E+06     60.7816E+06     65.8985E+06    -177.909E+03    -223.403E-03     447.560E-03    -224.158E-03     37.4372E-03    -223.866E-03     447.932E-03    -223.869E-03     34.7022E-03
             383     11.5121E-03     93.6043E-03    -26.0475E+06     75.7332E+06     77.4174E+06     1.36140E+06    -223.280E-03     447.430E-03    -224.150E-03     37.0787E-03    -223.769E-03     447.871E-03    -223.835E-03     33.7982E-03
             384     12.2322E-03     93.6550E-03    -18.4193E+06     83.0301E+06     91.3657E+06     2.28833E+06    -223.178E-03     447.344E-03    -224.166E-03     35.4268E-03    -223.676E-03     447.806E-03    -223.803E-03     31.6567E-03
             385     12.9516E-03     93.7017E-03    -11.8147E+06     88.4653E+06     102.748E+06     1.17007E+06    -223.175E-03     447.352E-03    -224.177E-03     34.0455E-03    -223.688E-03     447.839E-03    -223.774E-03     29.6425E-03
             386     13.6711E-03     93.7474E-03    -5.49439E+06     93.1649E+06     106.786E+06    -236.149E+03    -223.039E-03     447.195E-03    -224.156E-03     26.7890E-03    -223.495E-03     447.652E-03    -223.749E-03     22.6634E-03
             387     719.171E-06     94.5358E-03    -127.203E+06    -270.005E+06    -124.904E+06     48.1753E+03    -224.191E-03     448.365E-03    -224.174E-03     3.82515E-03    -224.254E-03     447.380E-03    -224.223E-03     3.97241E-03
             388     1.43843E-03     94.5444E-03    -124.047E+06    -259.710E+06    -115.374E+06     355.056E+03    -224.160E-03     448.370E-03    -224.210E-03     7.06099E-03    -224.236E-03     447.418E-03    -224.230E-03     7.33055E-03
             389     2.15773E-03     94.5582E-03    -118.906E+06    -244.375E+06    -101.276E+06     587.081E+03    -224.104E-03     448.340E-03    -224.235E-03     10.3758E-03    -224.198E-03     447.437E-03    -224.215E-03     10.7448E-03
             390     2.87699E-03     94.5770E-03    -112.290E+06    -225.941E+06    -84.1888E+06     864.739E+03    -224.047E-03     448.306E-03    -224.259E-03     13.6807E-03    -224.159E-03     447.462E-03    -224.190E-03     14.1151E-03
             391     3.59631E-03     94.6008E-03    -104.947E+06    -205.554E+06    -66.0199E+06     1.11791E+06    -224.008E-03     448.289E-03    -224.281E-03     16.8591E-03    -224.141E-03     447.511E-03    -224.161E-03     17.3144E-03
             392     4.31574E-03     94.6290E-03    -97.1771E+06    -184.357E+06    -48.1533E+06     1.33688E+06    -223.974E-03     448.273E-03    -224.299E-03     19.8054E-03    -224.126E-03     447.566E-03    -224.132E-03     20.2250E-03
             393     5.03518E-03     94.6618E-03    -89.0822E+06    -162.682E+06    -31.3037E+06     1.57891E+06    -223.940E-03     448.251E-03    -224.311E-03     22.5609E-03    -224.111E-03     447.619E-03    -224.102E-03     22.8901E-03
             394     5.75466E-03     94.6986E-03    -80.9930E+06    -140.208E+06    -15.7864E+06     1.71804E+06    -223.926E-03     448.241E-03    -224.315E-03     25.1799E-03    -224.115E-03     447.691E-03    -224.074E-03     25.3529E-03
             395     6.47413E-03     94.7390E-03    -73.0834E+06    -116.953E+06    -1.63084E+06     1.80404E+06    -223.916E-03     448.230E-03    -224.314E-03     27.6710E-03    -224.127E-03     447.771E-03    -224.047E-03     27.6178E-03
             396     7.19369E-03     94.7825E-03    -65.4773E+06    -92.6976E+06     11.3114E+06     1.91062E+06    -223.890E-03     448.196E-03    -224.307E-03     30.0050E-03    -224.125E-03     447.837E-03    -224.021E-03     29.6662E-03
             397     7.91329E-03     94.8291E-03    -58.0920E+06    -65.9679E+06     23.4913E+06     1.99939E+06    -223.850E-03     448.142E-03    -224.292E-03     32.0945E-03    -224.117E-03     447.900E-03    -223.995E-03     31.4029E-03
             398     8.63279E-03     94.8780E-03    -50.9582E+06    -35.2232E+06     35.4918E+06     1.87187E+06    -223.797E-03     448.068E-03    -224.271E-03     33.9932E-03    -224.104E-03     447.966E-03    -223.969E-03     32.8788E-03
             399     9.35244E-03     94.9291E-03    -44.5076E+06     2.89188E+06     47.6967E+06     1.28787E+06    -223.704E-03     447.945E-03    -224.241E-03     35.7214E-03    -224.070E-03     448.025E-03    -223.942E-03     34.1181E-03
             400     10.0721E-03     94.9814E-03    -38.2343E+06     37.7877E+06     57.9695E+06     26.3495E+03    -223.576E-03     447.781E-03    -224.204E-03     37.0214E-03    -223.998E-03     448.033E-03    -223.914E-03     34.8638E-03
             401     10.7919E-03     95.0346E-03    -31.3027E+06     58.3033E+06     66.5014E+06    -87.0266E+03    -223.444E-03     447.620E-03    -224.176E-03     37.7212E-03    -223.897E-03     447.976E-03    -223.883E-03     34.9881E-03
             402     11.5116E-03     95.0877E-03    -24.8520E+06     73.1714E+06     77.8714E+06     884.901E+03    -223.330E-03     447.500E-03    -224.169E-03     37.4656E-03    -223.812E-03     447.927E-03    -223.850E-03     34.1781E-03
             403     12.2313E-03     95.1382E-03    -18.5110E+06     83.4091E+06     91.3570E+06     766.596E+03    -223.203E-03     447.383E-03    -224.180E-03     36.0450E-03    -223.703E-03     447.849E-03    -223.818E-03     32.2732E-03
             404     12.9515E-03     95.1857E-03    -11.1706E+06     89.6247E+06     102.890E+06     1.05407E+06    -222.849E-03     447.029E-03    -224.180E-03     34.7845E-03    -223.360E-03     447.520E-03    -223.779E-03     30.4239E-03
             405     13.6722E-03     95.2293E-03    -4.64500E+06     94.7285E+06     107.388E+06     482.879E+03    -222.906E-03     447.053E-03    -224.147E-03     27.3258E-03    -223.361E-03     447.517E-03    -223.741E-03     23.2426E-03
             406     719.242E-06     96.0190E-03    -127.218E+06    -270.808E+06    -124.637E+06     425.476E+03    -224.147E-03     448.389E-03    -224.243E-03     3.88689E-03    -224.209E-03     447.400E-03    -224.289E-03     4.04644E-03
             407     1.43839E-03     96.0279E-03    -123.964E+06    -260.407E+06    -115.229E+06     499.062E+03    -224.137E-03     448.352E-03    -224.215E-03     7.11489E-03    -224.213E-03     447.397E-03    -224.234E-03     7.38984E-03
             408     2.15761E-03     96.0414E-03    -118.826E+06    -245.085E+06    -101.060E+06     612.383E+03    -224.070E-03     448.299E-03    -224.229E-03     10.4018E-03    -224.163E-03     447.393E-03    -224.207E-03     10.7692E-03
             409     2.87703E-03     96.0603E-03    -112.357E+06    -226.904E+06    -84.0625E+06     848.359E+03    -224.032E-03     448.281E-03    -224.249E-03     13.6369E-03    -224.144E-03     447.432E-03    -224.177E-03     14.0711E-03
             410     3.59650E-03     96.0839E-03    -104.854E+06    -206.492E+06    -65.8251E+06     1.17815E+06    -224.020E-03     448.293E-03    -224.273E-03     16.7146E-03    -224.152E-03     447.510E-03    -224.150E-03     17.1691E-03
             411     4.31581E-03     96.1126E-03    -96.8598E+06    -185.184E+06    -47.8635E+06     1.43853E+06    -224.016E-03     448.313E-03    -224.297E-03     19.7038E-03    -224.166E-03     447.601E-03    -224.128E-03     20.1234E-03
             412     5.03510E-03     96.1451E-03    -88.6570E+06    -163.406E+06    -30.9925E+06     1.61539E+06    -223.987E-03     448.303E-03    -224.315E-03     22.5738E-03    -224.155E-03     447.666E-03    -224.105E-03     22.9034E-03
             413     5.75455E-03     96.1820E-03    -80.3685E+06    -140.898E+06    -15.3951E+06     1.83427E+06    -223.933E-03     448.256E-03    -224.323E-03     25.2687E-03    -224.119E-03     447.701E-03    -224.079E-03     25.4473E-03
             414     6.47412E-03     96.2223E-03    -72.3036E+06    -117.739E+06    -1.13705E+06     2.08337E+06    -223.910E-03     448.231E-03    -224.321E-03     27.7588E-03    -224.117E-03     447.766E-03    -224.051E-03     27.7169E-03
             415     7.19363E-03     96.2660E-03    -64.6089E+06    -93.2519E+06     11.9275E+06     2.30431E+06    -223.890E-03     448.202E-03    -224.312E-03     30.0850E-03    -224.121E-03     447.838E-03    -224.023E-03     29.7572E-03
             416     7.91315E-03     96.3126E-03    -57.1823E+06    -66.1760E+06     24.2847E+06     2.28112E+06    -223.831E-03     448.127E-03    -224.296E-03     32.2307E-03    -224.093E-03     447.881E-03    -223.996E-03     31.5494E-03
             417     8.63289E-03     96.3615E-03    -49.7626E+06    -34.8953E+06     36.4837E+06     2.02646E+06    -223.744E-03     448.016E-03    -224.271E-03     34.1656E-03    -224.047E-03     447.912E-03    -223.966E-03     33.0611E-03
             418     9.35261E-03     96.4125E-03    -42.1705E+06     3.91982E+06     49.3065E+06     1.76841E+06    -223.634E-03     447.870E-03    -224.236E-03     35.9092E-03    -223.992E-03     447.950E-03    -223.934E-03     34.3151E-03
             419     10.0724E-03     96.4651E-03    -35.0874E+06     40.6939E+06     60.5762E+06     1.14357E+06    -223.551E-03     447.747E-03    -224.197E-03     37.2766E-03    -223.965E-03     448.006E-03    -223.902E-03     35.1328E-03
             420     10.7921E-03     96.5182E-03    -29.1759E+06     56.8371E+06     68.0048E+06     668.523E+03    -223.490E-03     447.660E-03    -224.171E-03     37.9841E-03    -223.933E-03     448.005E-03    -223.871E-03     35.2519E-03
             421     11.5121E-03     96.5709E-03    -23.1549E+06     70.9782E+06     78.3562E+06     1.54477E+06    -223.360E-03     447.523E-03    -224.163E-03     37.7639E-03    -223.832E-03     447.938E-03    -223.840E-03     34.4685E-03
             422     12.2322E-03     96.6220E-03    -17.1875E+06     86.0926E+06     92.7096E+06     1.49895E+06    -223.227E-03     447.400E-03    -224.173E-03     36.1010E-03    -223.728E-03     447.877E-03    -223.810E-03     32.2945E-03
             423     12.9522E-03     96.6679E-03    -11.5021E+06     91.0983E+06     103.694E+06    -28.3004E+03    -223.183E-03     447.368E-03    -224.185E-03     33.7918E-03    -223.699E-03     447.867E-03    -223.782E-03     29.3374E-03
             424     13.6723E-03     96.7117E-03    -6.37831E+06     94.7733E+06     106.272E+06     395.063E+03    -223.314E-03     447.482E-03    -224.168E-03     26.4623E-03    -223.775E-03     447.948E-03    -223.765E-03     22.3302E-03
             425     719.150E-06     97.5025E-03    -127.484E+06    -271.779E+06    -125.372E+06     183.884E+03    -224.171E-03     448.358E-03    -224.188E-03     3.92783E-03    -224.232E-03     447.366E-03    -224.236E-03     4.08220E-03
             426     1.43848E-03     97.5110E-03    -123.898E+06    -260.988E+06    -115.386E+06     445.771E+03    -224.125E-03     448.325E-03    -224.200E-03     7.08998E-03    -224.198E-03     447.367E-03    -224.219E-03     7.35990E-03
             427     2.15783E-03     97.5247E-03    -118.833E+06    -245.842E+06    -101.004E+06     672.901E+03    -224.103E-03     448.326E-03    -224.223E-03     10.3537E-03    -224.195E-03     447.416E-03    -224.199E-03     10.7215E-03
             428     2.87705E-03     97.5435E-03    -112.315E+06    -227.777E+06    -83.7827E+06     872.726E+03    -224.085E-03     448.341E-03    -224.256E-03     13.5926E-03    -224.196E-03     447.487E-03    -224.182E-03     14.0279E-03
             429     3.59620E-03     97.5675E-03    -104.776E+06    -207.408E+06    -65.6419E+06     1.03926E+06    -224.033E-03     448.319E-03    -224.286E-03     16.7144E-03    -224.163E-03     447.530E-03    -224.161E-03     17.1674E-03
             430     4.31564E-03     97.5957E-03    -96.6188E+06    -185.936E+06    -47.7683E+06     1.16943E+06    -223.975E-03     448.280E-03    -224.305E-03     19.7419E-03    -224.123E-03     447.564E-03    -224.134E-03     20.1641E-03
             431     5.03521E-03     97.6287E-03    -88.1722E+06    -164.159E+06    -30.7994E+06     1.35847E+06    -223.949E-03     448.266E-03    -224.316E-03     22.6058E-03    -224.114E-03     447.624E-03    -224.104E-03     22.9363E-03
             432     5.75466E-03     97.6652E-03    -79.9410E+06    -141.993E+06    -15.2310E+06     1.73249E+06    -223.936E-03     448.257E-03    -224.321E-03     25.3073E-03    -224.119E-03     447.696E-03    -224.075E-03     25.4859E-03
             433     6.47414E-03     97.7058E-03    -71.9527E+06    -118.670E+06    -953.393E+03     2.09235E+06    -223.907E-03     448.226E-03    -224.319E-03     27.8291E-03    -224.111E-03     447.756E-03    -224.047E-03     27.7924E-03
             434     7.19369E-03     97.7494E-03    -64.0883E+06    -94.0650E+06     12.2582E+06     2.30159E+06    -223.853E-03     448.161E-03    -224.308E-03     30.1433E-03    -224.081E-03     447.792E-03    -224.018E-03     29.8143E-03
             435     7.91339E-03     97.7960E-03    -56.5186E+06    -66.4117E+06     24.8191E+06     2.49458E+06    -223.793E-03     448.082E-03    -224.289E-03     32.2940E-03    -224.053E-03     447.834E-03    -223.987E-03     31.6100E-03
             436     8.63298E-03     97.8449E-03    -49.5710E+06    -34.4165E+06     36.9860E+06     2.33490E+06    -223.731E-03     447.994E-03    -224.262E-03     34.1697E-03    -224.035E-03     447.892E-03    -223.956E-03     33.0604E-03
             437     9.35271E-03     97.8959E-03    -43.0797E+06     4.59094E+06     49.4619E+06     1.83810E+06    -223.614E-03     447.841E-03    -224.227E-03     35.8000E-03    -223.978E-03     447.925E-03    -223.924E-03     34.1925E-03
             438     10.0726E-03     97.9484E-03    -36.8339E+06     40.5299E+06     60.0596E+06     2.15329E+06    -223.524E-03     447.710E-03    -224.186E-03     37.0474E-03    -223.947E-03     447.972E-03    -223.891E-03     34.8965E-03
             439     10.7925E-03     98.0018E-03    -30.9080E+06     56.8170E+06     67.4401E+06     2.63762E+06    -223.583E-03     447.747E-03    -224.164E-03     37.5584E-03    -224.035E-03     448.095E-03    -223.864E-03     34.8304E-03
             440     11.5120E-03     98.0543E-03    -25.2056E+06     71.2606E+06     77.9041E+06     1.64533E+06    -223.551E-03     447.718E-03    -224.167E-03     37.0618E-03    -224.033E-03     448.138E-03    -223.844E-03     33.7315E-03
             441     12.2317E-03     98.1052E-03    -18.4413E+06     86.7157E+06     92.3633E+06     1.37401E+06    -223.489E-03     447.680E-03    -224.191E-03     35.3622E-03    -223.996E-03     448.162E-03    -223.829E-03     31.5172E-03
             442     12.9511E-03     98.1524E-03    -11.9598E+06      92.498E+06     103.581E+06     1.23459E+06    -223.539E-03     447.759E-03    -224.219E-03     33.6626E-03    -224.058E-03     448.263E-03    -223.818E-03     29.2585E-03
             443     13.6693E-03     98.1967E-03    -6.54258E+06     95.5974E+06     106.214E+06     524.045E+03    -223.015E-03     447.217E-03    -224.203E-03     27.1341E-03    -223.477E-03     447.688E-03    -223.801E-03     23.0551E-03
             444     719.284E-06     98.9857E-03    -127.465E+06    -272.017E+06    -125.032E+06     34.6970E+03    -224.155E-03     448.361E-03    -224.206E-03     3.85679E-03    -224.217E-03     447.367E-03    -224.252E-03     3.99981E-03
             445     1.43844E-03     98.9942E-03    -124.164E+06    -261.653E+06    -115.646E+06     139.859E+03    -224.159E-03     448.366E-03    -224.207E-03     7.01800E-03    -224.232E-03     447.405E-03    -224.226E-03     7.28099E-03
             446     2.15761E-03     99.0080E-03    -118.922E+06    -246.646E+06    -101.360E+06     406.225E+03    -224.116E-03     448.352E-03    -224.236E-03     10.3351E-03    -224.206E-03     447.438E-03    -224.213E-03     10.7010E-03
             447     2.87690E-03     99.0270E-03    -112.353E+06    -228.452E+06    -84.0717E+06     662.354E+03    -224.050E-03     448.314E-03    -224.263E-03     13.6535E-03    -224.160E-03     447.457E-03    -224.189E-03     14.0877E-03
             448     3.59640E-03     99.0507E-03    -104.852E+06    -207.965E+06    -65.8449E+06     768.618E+03    -224.010E-03     448.295E-03    -224.285E-03     16.8407E-03    -224.139E-03     447.504E-03    -224.161E-03     17.2954E-03
             449     4.31577E-03     99.0791E-03    -96.7033E+06    -186.469E+06    -47.9276E+06     912.642E+03    -223.992E-03     448.295E-03    -224.303E-03     19.8062E-03    -224.139E-03     447.576E-03    -224.132E-03     20.2258E-03
             450     5.03512E-03     99.1118E-03    -88.5362E+06    -165.122E+06    -31.1268E+06     1.20571E+06    -223.951E-03     448.268E-03    -224.316E-03     22.5847E-03    -224.116E-03     447.622E-03    -224.104E-03     22.9097E-03
             451     5.75465E-03     99.1487E-03    -80.3271E+06    -143.017E+06    -15.6130E+06     1.49028E+06    -223.921E-03     448.241E-03    -224.320E-03     25.2584E-03    -224.104E-03     447.677E-03    -224.075E-03     25.4293E-03
             452     6.47417E-03     99.1891E-03    -72.1280E+06    -119.577E+06    -1.33625E+06     1.75416E+06    -223.885E-03     448.201E-03    -224.316E-03     27.7700E-03    -224.088E-03     447.727E-03    -224.045E-03     27.7211E-03
             453     7.19377E-03     99.2328E-03    -64.1754E+06    -95.0066E+06     11.8731E+06     2.06679E+06    -223.841E-03     448.145E-03    -224.304E-03     30.0570E-03    -224.068E-03     447.772E-03    -224.014E-03     29.7166E-03
             454     7.91335E-03     99.2792E-03    -56.6838E+06    -67.6488E+06     24.2403E+06     2.55942E+06    -223.803E-03     448.088E-03    -224.285E-03     32.1632E-03    -224.061E-03     447.834E-03    -223.983E-03     31.4704E-03
             455     8.63308E-03     99.3284E-03    -49.7018E+06    -35.3901E+06     36.5488E+06     3.49083E+06    -223.754E-03     448.014E-03    -224.260E-03     34.0201E-03    -224.056E-03     447.908E-03    -223.954E-03     32.9178E-03
             456     9.35271E-03     99.3792E-03    -43.6163E+06     4.32945E+06     49.2025E+06     4.34060E+06    -223.690E-03     447.919E-03    -224.229E-03     35.6195E-03    -224.056E-03     448.003E-03    -223.926E-03     34.0371E-03
             457     10.0724E-03     99.4319E-03    -37.9642E+06     40.3499E+06     59.5400E+06     4.02630E+06    -223.648E-03     447.844E-03    -224.195E-03     36.8819E-03    -224.075E-03     448.107E-03    -223.901E-03     34.7511E-03
             458     10.7919E-03     99.4853E-03    -31.6681E+06     57.3266E+06     66.7732E+06     3.11552E+06    -223.652E-03     447.829E-03    -224.177E-03     37.5239E-03    -224.106E-03     448.181E-03    -223.880E-03     34.8094E-03
             459     11.5115E-03     99.5387E-03    -25.0666E+06     73.4401E+06     78.2072E+06     2.58513E+06    -223.616E-03     447.800E-03    -224.185E-03     37.3143E-03    -224.100E-03     448.229E-03    -223.864E-03     34.0245E-03
             460     12.2309E-03     99.5890E-03    -19.0893E+06     87.6990E+06     91.9810E+06     1.07819E+06    -223.406E-03     447.612E-03    -224.206E-03     36.2250E-03    -223.917E-03     448.100E-03    -223.846E-03     32.4296E-03
             461     12.9507E-03     99.6368E-03    -12.4795E+06     91.5821E+06     102.293E+06     532.040E+03    -223.042E-03     447.256E-03    -224.214E-03     34.9304E-03    -223.563E-03     447.761E-03    -223.817E-03     30.5608E-03
             462     13.6724E-03     99.6794E-03    -4.41179E+06     96.9173E+06     107.992E+06     768.946E+03    -222.641E-03     446.822E-03    -224.181E-03     27.5019E-03    -223.098E-03     447.295E-03    -223.775E-03     23.4272E-03
             463     719.152E-06     100.469E-03    -127.736E+06    -272.529E+06    -125.520E+06     235.576E+03    -224.194E-03     448.415E-03    -224.221E-03     3.91152E-03    -224.256E-03     447.420E-03    -224.268E-03     4.06484E-03
             464     1.43838E-03     100.478E-03    -124.528E+06    -261.982E+06    -115.992E+06     236.237E+03    -224.145E-03     448.372E-03    -224.226E-03     7.05854E-03    -224.220E-03     447.410E-03    -224.246E-03     7.32845E-03
             465     2.15768E-03     100.491E-03    -119.503E+06    -247.030E+06    -102.050E+06     230.323E+03    -224.087E-03     448.327E-03    -224.240E-03     10.4215E-03    -224.179E-03     447.413E-03    -224.219E-03     10.7875E-03
             466     2.87707E-03     100.510E-03    -113.030E+06    -228.966E+06    -85.0769E+06     366.825E+03    -224.047E-03     448.307E-03    -224.260E-03     13.6444E-03    -224.158E-03     447.450E-03    -224.189E-03     14.0709E-03
             467     3.59635E-03     100.534E-03    -105.586E+06    -208.514E+06    -66.8148E+06     601.403E+03    -224.020E-03     448.303E-03    -224.283E-03     16.7448E-03    -224.151E-03     447.513E-03    -224.162E-03     17.1922E-03
             468     4.31572E-03     100.563E-03    -97.7357E+06    -187.233E+06    -48.8041E+06     888.988E+03    -223.989E-03     448.293E-03    -224.304E-03     19.7272E-03    -224.140E-03     447.573E-03    -224.135E-03     20.1393E-03
             469     5.03515E-03     100.595E-03    -89.5167E+06    -165.702E+06    -31.9183E+06     1.03574E+06    -223.965E-03     448.283E-03    -224.318E-03     22.5859E-03    -224.133E-03     447.637E-03    -224.107E-03     22.9025E-03
             470     5.75458E-03     100.632E-03    -81.2241E+06    -143.623E+06    -16.5319E+06     1.12129E+06    -223.924E-03     448.246E-03    -224.322E-03     25.2693E-03    -224.109E-03     447.681E-03    -224.079E-03     25.4297E-03
             471     6.47414E-03     100.672E-03    -73.1006E+06    -120.560E+06    -2.42698E+06     1.34433E+06    -223.879E-03     448.197E-03    -224.317E-03     27.7374E-03    -224.084E-03     447.721E-03    -224.049E-03     27.6756E-03
             472     7.19370E-03     100.716E-03    -65.2227E+06    -96.2666E+06     10.6217E+06     1.73559E+06    -223.868E-03     448.173E-03    -224.306E-03     30.0307E-03    -224.096E-03     447.797E-03    -224.019E-03     29.6839E-03
             473     7.91331E-03     100.763E-03    -57.5475E+06    -69.2828E+06     23.0647E+06     2.31241E+06    -223.845E-03     448.135E-03    -224.290E-03     32.1214E-03    -224.104E-03     447.876E-03    -223.991E-03     31.4254E-03
             474     8.63286E-03     100.812E-03    -49.8650E+06    -38.3218E+06     35.2544E+06     3.24522E+06    -223.781E-03     448.049E-03    -224.268E-03     33.9796E-03    -224.078E-03     447.930E-03    -223.964E-03     32.8780E-03
             475     9.35257E-03     100.863E-03    -41.9265E+06     562.074E+03     48.3295E+06     5.08802E+06    -223.707E-03     447.944E-03    -224.238E-03     35.6770E-03    -224.057E-03     448.008E-03    -223.936E-03     34.1208E-03
             476     10.0722E-03     100.916E-03    -35.0525E+06     40.6622E+06     60.2911E+06     6.52846E+06    -223.602E-03     447.803E-03    -224.201E-03     37.1541E-03    -224.015E-03     448.062E-03    -223.908E-03     35.0864E-03
             477     10.7919E-03     100.969E-03    -29.8746E+06     60.6925E+06     68.1830E+06     5.22524E+06    -223.483E-03     447.657E-03    -224.174E-03     38.0912E-03    -223.935E-03     448.021E-03    -223.878E-03     35.4366E-03
             478     11.5118E-03     101.022E-03    -24.1622E+06     75.5710E+06     78.3467E+06     2.62664E+06    -223.338E-03     447.502E-03    -224.164E-03     38.1007E-03    -223.822E-03     447.941E-03    -223.846E-03     34.8373E-03
             479     12.2319E-03     101.073E-03    -17.1777E+06     90.0990E+06     93.1340E+06     1.63439E+06    -223.132E-03     447.304E-03    -224.172E-03     36.6387E-03    -223.640E-03     447.801E-03    -223.812E-03     32.8552E-03
             480     12.9524E-03     101.119E-03    -11.7742E+06     92.6170E+06     104.048E+06     853.919E+03    -222.940E-03     447.118E-03    -224.178E-03     34.7265E-03    -223.464E-03     447.627E-03    -223.775E-03     30.2947E-03
             481     13.6712E-03     101.163E-03    -5.64760E+06     97.2172E+06     108.609E+06     217.829E+03    -222.919E-03     447.069E-03    -224.150E-03     26.8125E-03    -223.385E-03     447.546E-03    -223.740E-03     22.6583E-03
             482     719.161E-06     101.952E-03    -128.369E+06    -272.817E+06    -126.426E+06    -33.1310E+03    -224.192E-03     448.385E-03    -224.193E-03     3.88128E-03    -224.255E-03     447.390E-03    -224.243E-03     4.02937E-03
             483     1.43843E-03     101.961E-03    -125.184E+06    -262.436E+06    -116.880E+06     196.083E+03    -224.130E-03     448.340E-03    -224.210E-03     7.11854E-03    -224.205E-03     447.379E-03    -224.233E-03     7.37929E-03
             484     2.15772E-03     101.975E-03    -120.295E+06    -247.303E+06    -102.733E+06     425.566E+03    -224.128E-03     448.361E-03    -224.233E-03     10.3948E-03    -224.222E-03     447.448E-03    -224.213E-03     10.7580E-03
             485     2.87692E-03     101.993E-03    -113.984E+06    -229.355E+06    -85.7383E+06     493.749E+03    -224.104E-03     448.372E-03    -224.268E-03     13.5976E-03    -224.218E-03     447.516E-03    -224.199E-03     14.0232E-03
             486     3.59622E-03     102.017E-03    -106.671E+06    -209.128E+06    -67.7072E+06     654.863E+03    -224.022E-03     448.318E-03    -224.296E-03     16.7409E-03    -224.156E-03     447.527E-03    -224.177E-03     17.1835E-03
             487     4.31566E-03     102.046E-03    -98.7068E+06    -187.810E+06    -49.8673E+06     798.276E+03    -223.952E-03     448.263E-03    -224.311E-03     19.7561E-03    -224.105E-03     447.544E-03    -224.145E-03     20.1664E-03
             488     5.03513E-03     102.079E-03    -90.5060E+06    -166.178E+06    -33.0591E+06     935.765E+03    -223.940E-03     448.259E-03    -224.319E-03     22.6098E-03    -224.110E-03     447.614E-03    -224.112E-03     22.9274E-03
             489     5.75459E-03     102.115E-03    -82.4397E+06    -144.123E+06    -17.6330E+06     1.07743E+06    -223.925E-03     448.247E-03    -224.322E-03     25.2751E-03    -224.114E-03     447.682E-03    -224.082E-03     25.4352E-03
             490     6.47409E-03     102.156E-03    -74.5664E+06    -121.293E+06    -3.60261E+06     1.24908E+06    -223.899E-03     448.217E-03    -224.318E-03     27.7892E-03    -224.108E-03     447.742E-03    -224.052E-03     27.7301E-03
             491     7.19365E-03     102.200E-03    -66.9483E+06    -97.4471E+06     9.22699E+06     1.58941E+06    -223.878E-03     448.187E-03    -224.308E-03     30.1141E-03    -224.111E-03     447.809E-03    -224.024E-03     29.7714E-03
             492     7.91319E-03     102.246E-03    -59.5440E+06    -70.8272E+06     21.3887E+06     2.04677E+06    -223.836E-03     448.128E-03    -224.292E-03     32.2438E-03    -224.100E-03     447.867E-03    -223.996E-03     31.5544E-03
             493     8.63283E-03     102.295E-03    -52.4157E+06    -40.4519E+06     33.2857E+06     2.50682E+06    -223.757E-03     448.025E-03    -224.268E-03     34.1806E-03    -224.061E-03     447.903E-03    -223.967E-03     33.0813E-03
             494     9.35247E-03     102.346E-03    -45.4045E+06    -4.45212E+06     45.2246E+06     3.58960E+06    -223.605E-03     447.837E-03    -224.233E-03     35.9469E-03    -223.961E-03     447.886E-03    -223.934E-03     34.3842E-03
             495     10.0724E-03     102.399E-03    -37.7781E+06     36.2067E+06     57.1769E+06     5.95188E+06    -223.393E-03     447.577E-03    -224.183E-03     37.3057E-03    -223.810E-03     447.822E-03    -223.895E-03     35.2379E-03
             496     10.7925E-03     102.452E-03    -30.0233E+06     65.4552E+06     67.6886E+06     6.46898E+06    -223.253E-03     447.392E-03    -224.139E-03     38.0687E-03    -223.713E-03     447.781E-03    -223.852E-03     35.4282E-03
             497     11.5125E-03     102.506E-03    -23.9740E+06     81.3940E+06     79.6300E+06     3.62898E+06    -223.190E-03     447.316E-03    -224.126E-03     37.8555E-03    -223.684E-03     447.782E-03    -223.811E-03     34.5936E-03
             498     12.2325E-03     102.556E-03    -18.9146E+06     90.0329E+06     93.5239E+06     1.84847E+06    -223.205E-03     447.347E-03    -224.142E-03     36.1181E-03    -223.722E-03     447.845E-03    -223.777E-03     32.3204E-03
             499     12.9518E-03     102.603E-03    -11.6006E+06     95.3477E+06     106.304E+06     1.85467E+06    -223.116E-03     447.276E-03    -224.160E-03     34.0642E-03    -223.643E-03     447.792E-03    -223.750E-03     29.6577E-03
             500     13.6728E-03     102.645E-03    -6.05415E+06     99.1575E+06     109.872E+06     828.344E+03    -223.203E-03     447.347E-03    -224.144E-03     26.9975E-03    -223.674E-03     447.830E-03    -223.729E-03     22.8919E-03
             501     719.272E-06     103.436E-03    -129.377E+06    -272.750E+06    -126.926E+06     62.9276E+03    -224.072E-03     448.328E-03    -224.257E-03     3.82971E-03    -224.139E-03     447.336E-03    -224.308E-03     3.97199E-03
             502     1.43851E-03     103.444E-03    -126.211E+06    -262.798E+06    -117.520E+06     116.360E+03    -224.169E-03     448.367E-03    -224.197E-03     7.06639E-03    -224.249E-03     447.406E-03    -224.221E-03     7.33085E-03
             503     2.15765E-03     103.458E-03    -121.015E+06    -248.105E+06    -103.268E+06     394.938E+03    -224.140E-03     448.376E-03    -224.236E-03     10.4411E-03    -224.236E-03     447.461E-03    -224.217E-03     10.8089E-03
             504     2.87690E-03     103.477E-03    -114.598E+06    -229.907E+06    -86.2267E+06     698.091E+03    -224.076E-03     448.345E-03    -224.269E-03     13.7091E-03    -224.191E-03     447.487E-03    -224.200E-03     14.1401E-03
             505     3.59627E-03     103.501E-03    -107.227E+06    -209.551E+06    -68.3119E+06     783.454E+03    -224.018E-03     448.310E-03    -224.292E-03     16.8505E-03    -224.153E-03     447.519E-03    -224.174E-03     17.2987E-03
             506     4.31566E-03     103.529E-03    -99.2618E+06    -188.388E+06    -50.5844E+06     956.447E+03    -223.980E-03     448.289E-03    -224.309E-03     19.8314E-03    -224.134E-03     447.568E-03    -224.145E-03     20.2485E-03
             507     5.03508E-03     103.562E-03    -91.2999E+06    -166.707E+06    -33.8401E+06     1.15581E+06    -223.926E-03     448.244E-03    -224.318E-03     22.6552E-03    -224.098E-03     447.598E-03    -224.113E-03     22.9786E-03
             508     5.75460E-03     103.599E-03    -83.3004E+06    -144.708E+06    -18.4245E+06     1.34033E+06    -223.899E-03     448.218E-03    -224.319E-03     25.3249E-03    -224.090E-03     447.653E-03    -224.080E-03     25.4936E-03
             509     6.47412E-03     103.639E-03    -75.5173E+06    -121.939E+06    -4.38939E+06     1.59432E+06    -223.887E-03     448.201E-03    -224.313E-03     27.8629E-03    -224.099E-03     447.724E-03    -224.049E-03     27.8148E-03
             510     7.19365E-03     103.683E-03    -68.0795E+06    -98.6320E+06     8.30520E+06     1.96644E+06    -223.843E-03     448.145E-03    -224.302E-03     30.2380E-03    -224.079E-03     447.765E-03    -224.019E-03     29.9055E-03
             511     7.91329E-03     103.730E-03    -61.0358E+06    -72.1167E+06     20.2116E+06     2.46664E+06    -223.772E-03     448.053E-03    -224.281E-03     32.3989E-03    -224.040E-03     447.789E-03    -223.987E-03     31.7203E-03
             512     8.63298E-03     103.779E-03    -54.3537E+06    -42.4678E+06     31.7354E+06     3.31115E+06    -223.676E-03     447.928E-03    -224.252E-03     34.3256E-03    -223.984E-03     447.800E-03    -223.952E-03     33.2406E-03
             513     9.35278E-03     103.830E-03    -48.2257E+06    -7.69508E+06     43.1077E+06     4.44895E+06    -223.542E-03     447.754E-03    -224.212E-03     36.0132E-03    -223.905E-03     447.794E-03    -223.916E-03     34.4581E-03
             514     10.0726E-03     103.882E-03    -42.0086E+06     33.4552E+06     54.6278E+06     4.43377E+06    -223.375E-03     447.536E-03    -224.161E-03     37.2662E-03    -223.805E-03     447.778E-03    -223.876E-03     35.1638E-03
             515     10.7925E-03     103.936E-03    -34.5467E+06     67.4748E+06     64.8535E+06     3.52047E+06    -223.232E-03     447.342E-03    -224.110E-03     37.8802E-03    -223.713E-03     447.752E-03    -223.834E-03     35.1839E-03
             516     11.5126E-03     103.988E-03    -26.3300E+06     84.3135E+06     77.7727E+06     3.46950E+06    -223.179E-03     447.278E-03    -224.099E-03     37.6392E-03    -223.685E-03     447.764E-03    -223.794E-03     34.3802E-03
             517     12.2323E-03     104.040E-03    -18.6660E+06     91.6791E+06     94.5343E+06     2.84783E+06    -223.197E-03     447.325E-03    -224.128E-03     36.2461E-03    -223.716E-03     447.829E-03    -223.761E-03     32.4782E-03
             518     12.9525E-03     104.086E-03    -12.4672E+06     96.7423E+06     106.647E+06     1.61010E+06    -223.250E-03     447.399E-03    -224.149E-03     34.1367E-03    -223.784E-03     447.923E-03    -223.738E-03     29.7322E-03
             519     13.6716E-03     104.129E-03    -6.47653E+06     100.138E+06     109.971E+06     634.516E+03    -223.204E-03     447.340E-03    -224.136E-03     27.1423E-03    -223.678E-03     447.828E-03    -223.722E-03     23.0616E-03
             520     719.221E-06     104.919E-03    -129.872E+06    -273.368E+06    -127.513E+06     276.303E+03    -224.199E-03     448.386E-03    -224.186E-03     3.94929E-03    -224.267E-03     447.392E-03    -224.239E-03     4.10635E-03
             521     1.43834E-03     104.927E-03    -126.580E+06    -263.049E+06    -117.763E+06     316.695E+03    -224.171E-03     448.393E-03    -224.221E-03     7.03071E-03    -224.252E-03     447.432E-03    -224.245E-03     7.30565E-03
             522     2.15767E-03     104.941E-03    -121.519E+06    -248.876E+06    -103.734E+06     430.004E+03    -224.072E-03     448.314E-03    -224.242E-03     10.3984E-03    -224.169E-03     447.397E-03    -224.224E-03     10.7684E-03
             523     2.87705E-03     104.960E-03    -114.930E+06    -230.652E+06    -86.8029E+06     654.827E+03    -224.015E-03     448.270E-03    -224.256E-03     13.6804E-03    -224.130E-03     447.410E-03    -224.189E-03     14.1123E-03
             524     3.59639E-03     104.984E-03    -107.520E+06    -210.131E+06    -68.7648E+06     986.132E+03    -224.009E-03     448.282E-03    -224.274E-03     16.8616E-03    -224.143E-03     447.489E-03    -224.157E-03     17.3149E-03
             525     4.31571E-03     105.013E-03    -99.8467E+06    -189.136E+06    -51.0294E+06     1.23506E+06    -223.980E-03     448.274E-03    -224.293E-03     19.8958E-03    -224.135E-03     447.550E-03    -224.129E-03     20.3158E-03
             526     5.03514E-03     105.045E-03    -91.8050E+06    -167.314E+06    -34.3132E+06     1.41108E+06    -223.927E-03     448.231E-03    -224.304E-03     22.7480E-03    -224.100E-03     447.584E-03    -224.100E-03     23.0772E-03
             527     5.75464E-03     105.082E-03    -83.8496E+06    -145.461E+06    -18.9913E+06     1.67518E+06    -223.878E-03     448.183E-03    -224.305E-03     25.4441E-03    -224.069E-03     447.615E-03    -224.067E-03     25.6241E-03
             528     6.47419E-03     105.122E-03    -76.0752E+06    -123.040E+06    -5.03606E+06     2.08265E+06    -223.827E-03     448.123E-03    -224.296E-03     27.9760E-03    -224.039E-03     447.643E-03    -224.033E-03     27.9383E-03
             529     7.19382E-03     105.166E-03    -68.5134E+06    -99.6572E+06     7.76993E+06     2.44950E+06    -223.787E-03     448.067E-03    -224.281E-03     30.3660E-03    -224.022E-03     447.683E-03    -223.998E-03     30.0413E-03
             530     7.91348E-03     105.213E-03    -61.0465E+06    -73.7796E+06     19.7664E+06     2.94500E+06    -223.738E-03     447.996E-03    -224.258E-03     32.4835E-03    -224.002E-03     447.724E-03    -223.963E-03     31.8073E-03
             531     8.63321E-03     105.262E-03    -53.6487E+06    -44.8510E+06     31.3301E+06     3.70537E+06    -223.659E-03     447.887E-03    -224.228E-03     34.3245E-03    -223.960E-03     447.747E-03    -223.928E-03     33.2366E-03
             532     9.35301E-03     105.313E-03    -45.8116E+06    -10.4181E+06     43.3187E+06     4.55308E+06    -223.574E-03     447.765E-03    -224.191E-03     35.9631E-03    -223.922E-03     447.788E-03    -223.893E-03     34.3992E-03
             533     10.0728E-03     105.365E-03    -37.7980E+06     35.8464E+06     57.1415E+06     4.14491E+06    -223.445E-03     447.591E-03    -224.146E-03     37.2497E-03    -223.862E-03     447.835E-03    -223.857E-03     35.1350E-03
             534     10.7927E-03     105.418E-03    -30.9745E+06     69.0794E+06     68.1644E+06      2.6041E+06    -223.357E-03     447.465E-03    -224.108E-03     37.9447E-03    -223.827E-03     447.873E-03    -223.822E-03     35.2324E-03
             535     11.5125E-03     105.472E-03    -24.8526E+06     82.7673E+06     78.3915E+06     2.16270E+06    -223.264E-03     447.362E-03    -224.097E-03     37.6212E-03    -223.762E-03     447.838E-03    -223.790E-03     34.3309E-03
             536     12.2329E-03     105.522E-03    -18.3416E+06     92.9090E+06     93.2588E+06     2.77677E+06    -223.120E-03     447.236E-03    -224.115E-03     35.9937E-03    -223.637E-03     447.747E-03    -223.757E-03     32.2126E-03
             537     12.9526E-03     105.570E-03    -11.8231E+06     98.5107E+06     106.933E+06     1.85305E+06    -223.251E-03     447.392E-03    -224.141E-03     34.2500E-03    -223.786E-03     447.925E-03    -223.733E-03     29.8130E-03
             538     13.6723E-03     105.613E-03    -6.11886E+06     102.456E+06     111.644E+06     591.260E+03    -223.274E-03     447.412E-03    -224.137E-03     26.9214E-03    -223.755E-03     447.910E-03    -223.719E-03     22.7987E-03
             539     719.145E-06     106.402E-03    -129.839E+06    -274.026E+06    -127.734E+06     248.760E+03    -224.237E-03     448.395E-03    -224.157E-03     3.89305E-03    -224.304E-03     447.398E-03    -224.210E-03     4.04917E-03
             540     1.43841E-03     106.411E-03    -126.668E+06    -263.802E+06    -118.148E+06     581.965E+03    -224.118E-03     448.331E-03    -224.213E-03     7.17280E-03    -224.198E-03     447.367E-03    -224.237E-03     7.44728E-03
             541     2.15761E-03     106.424E-03    -121.776E+06    -249.242E+06    -104.087E+06     646.106E+03    -224.082E-03     448.308E-03    -224.226E-03     10.4655E-03    -224.179E-03     447.389E-03    -224.208E-03     10.8329E-03
             542     2.87697E-03     106.443E-03    -115.404E+06    -231.396E+06    -87.1771E+06     728.027E+03    -224.011E-03     448.256E-03    -224.245E-03     13.6909E-03    -224.127E-03     447.394E-03    -224.178E-03     14.1211E-03
             543     3.59636E-03     106.467E-03    -108.091E+06    -211.259E+06    -69.1648E+06     1.11625E+06    -223.945E-03     448.205E-03    -224.260E-03     16.8666E-03    -224.081E-03     447.408E-03    -224.143E-03     17.3230E-03
             544     4.31586E-03     106.496E-03    -100.175E+06    -189.846E+06    -51.3486E+06     1.38757E+06    -223.912E-03     448.182E-03    -224.270E-03     19.9141E-03    -224.067E-03     447.456E-03    -224.106E-03     20.3385E-03
             545     5.03534E-03     106.528E-03    -92.0662E+06    -168.122E+06    -34.6056E+06     1.59220E+06    -223.896E-03     448.173E-03    -224.277E-03     22.7964E-03    -224.069E-03     447.523E-03    -224.073E-03     23.1302E-03
             546     5.75480E-03     106.565E-03    -83.9389E+06    -146.417E+06    -19.2304E+06     1.88475E+06    -223.855E-03     448.133E-03    -224.278E-03     25.5052E-03    -224.046E-03     447.562E-03    -224.040E-03     25.6863E-03
             547     6.47443E-03     106.606E-03    -75.9036E+06    -124.118E+06    -5.19374E+06     2.13897E+06    -223.807E-03     448.077E-03    -224.270E-03     28.0081E-03    -224.016E-03     447.591E-03    -224.006E-03     27.9670E-03
             548     7.19409E-03     106.649E-03    -67.9858E+06    -100.603E+06     7.79716E+06     2.43254E+06    -223.770E-03     448.025E-03    -224.255E-03     30.3379E-03    -224.001E-03     447.635E-03    -223.972E-03     30.0091E-03
             549     7.91375E-03     106.696E-03    -60.2544E+06    -75.1264E+06     20.0051E+06     2.63699E+06    -223.733E-03     447.967E-03    -224.234E-03     32.4357E-03    -223.992E-03     447.687E-03    -223.938E-03     31.7512E-03
             550     8.63345E-03     106.745E-03    -52.5068E+06    -46.3458E+06     31.7806E+06     2.75918E+06    -223.703E-03     447.912E-03    -224.209E-03     34.2979E-03    -223.997E-03     447.762E-03    -223.906E-03     33.1907E-03
             551     9.35312E-03     106.796E-03    -44.7184E+06    -10.7597E+06     44.0781E+06     2.24684E+06    -223.630E-03     447.807E-03    -224.177E-03     35.9444E-03    -223.973E-03     447.825E-03    -223.876E-03     34.3405E-03
             552     10.0730E-03     106.848E-03    -37.0593E+06     35.0978E+06     57.7179E+06     2.54617E+06    -223.508E-03     447.645E-03    -224.137E-03     37.1773E-03    -223.921E-03     447.883E-03    -223.846E-03     35.0310E-03
             553     10.7928E-03     106.902E-03    -30.4565E+06     68.7323E+06     68.6446E+06     4.16970E+06    -223.462E-03     447.567E-03    -224.105E-03     37.7977E-03    -223.931E-03     447.972E-03    -223.817E-03     35.0922E-03
             554     11.5126E-03     106.955E-03    -25.3446E+06     84.1418E+06     79.1054E+06     4.03521E+06    -223.438E-03     447.542E-03    -224.104E-03     37.4053E-03    -223.942E-03     448.025E-03    -223.794E-03     34.1116E-03
             555     12.2320E-03     107.006E-03    -19.6625E+06     94.0987E+06     92.7943E+06     2.03596E+06    -223.282E-03     447.410E-03    -224.128E-03     35.7263E-03    -223.807E-03     447.931E-03    -223.772E-03     31.9099E-03
             556     12.9522E-03     107.053E-03    -12.3935E+06     99.7915E+06     106.498E+06     993.293E+03    -223.063E-03     447.215E-03    -224.152E-03     34.0498E-03    -223.601E-03     447.755E-03    -223.747E-03     29.6202E-03
             557     13.6722E-03     107.098E-03    -5.88836E+06     104.345E+06     112.204E+06     1.37883E+06    -223.009E-03     447.148E-03    -224.139E-03     26.8215E-03    -223.491E-03     447.654E-03    -223.720E-03     22.7237E-03
             558     719.192E-06     107.885E-03    -129.839E+06    -274.958E+06    -127.467E+06     392.863E+03    -224.072E-03     448.284E-03    -224.211E-03     3.88494E-03    -224.138E-03     447.282E-03    -224.262E-03     4.04058E-03
             559     1.43856E-03     107.894E-03    -126.616E+06    -264.900E+06    -118.082E+06     596.721E+03    -224.083E-03     448.245E-03    -224.161E-03     7.17056E-03    -224.161E-03     447.275E-03    -224.184E-03     7.44467E-03
             560     2.15788E-03     107.908E-03    -121.461E+06    -249.763E+06    -103.845E+06     798.870E+03    -224.069E-03     448.252E-03    -224.183E-03     10.5228E-03    -224.164E-03     447.330E-03    -224.164E-03     10.8941E-03
             561     2.87705E-03     107.927E-03    -115.152E+06    -232.261E+06    -86.8112E+06     1.05985E+06    -224.026E-03     448.240E-03    -224.214E-03     13.7996E-03    -224.139E-03     447.372E-03    -224.144E-03     14.2343E-03
             562     3.59648E-03     107.950E-03    -107.803E+06    -212.288E+06    -68.8585E+06     1.26962E+06    -223.939E-03     448.175E-03    -224.236E-03     16.9450E-03    -224.072E-03     447.372E-03    -224.116E-03     17.4019E-03
             563     4.31593E-03     107.979E-03    -99.8795E+06    -190.522E+06    -51.2124E+06     1.43930E+06    -223.873E-03     448.119E-03    -224.245E-03     19.9386E-03    -224.026E-03     447.389E-03    -224.080E-03     20.3631E-03
             564     5.03545E-03     108.012E-03    -91.7217E+06    -168.943E+06    -34.4319E+06     1.63014E+06    -223.845E-03     448.095E-03    -224.250E-03     22.7879E-03    -224.016E-03     447.440E-03    -224.044E-03     23.1207E-03
             565     5.75506E-03     108.048E-03    -83.5300E+06    -147.229E+06    -18.9998E+06     1.78748E+06    -223.838E-03     448.087E-03    -224.250E-03     25.4614E-03    -224.026E-03     447.511E-03    -224.010E-03     25.6371E-03
             566     6.47459E-03     108.089E-03    -75.4410E+06    -124.860E+06    -4.88202E+06     1.89949E+06    -223.826E-03     448.071E-03    -224.245E-03     27.9749E-03    -224.032E-03     447.580E-03    -223.979E-03     27.9255E-03
             567     7.19414E-03     108.132E-03    -67.5702E+06    -101.452E+06     8.10646E+06     2.02003E+06    -223.784E-03     448.018E-03    -224.234E-03     30.3061E-03    -224.012E-03     447.623E-03    -223.949E-03     29.9681E-03
             568     7.91386E-03     108.179E-03    -59.9503E+06    -75.6868E+06     20.3709E+06     2.16190E+06    -223.747E-03     447.964E-03    -224.217E-03     32.4198E-03    -224.004E-03     447.680E-03    -223.918E-03     31.7302E-03
             569     8.63355E-03     108.228E-03    -52.7696E+06    -46.6042E+06     32.1539E+06     2.06508E+06    -223.723E-03     447.918E-03    -224.195E-03     34.2994E-03    -224.019E-03     447.767E-03    -223.890E-03     33.1860E-03
             570     9.35327E-03     108.279E-03    -46.4229E+06    -10.6261E+06     44.0009E+06     2.29939E+06    -223.666E-03     447.832E-03    -224.166E-03     35.9486E-03    -224.017E-03     447.853E-03    -223.863E-03     34.3498E-03
             571     10.0729E-03     108.332E-03    -40.6288E+06     32.9852E+06     56.3340E+06     2.70171E+06    -223.570E-03     447.700E-03    -224.131E-03     37.2727E-03    -223.995E-03     447.935E-03    -223.838E-03     35.1368E-03
             572     10.7926E-03     108.385E-03    -33.6174E+06     65.6803E+06     66.1645E+06     3.23405E+06    -223.480E-03     447.578E-03    -224.097E-03     38.0339E-03    -223.957E-03     447.976E-03    -223.813E-03     35.3286E-03
             573     11.5123E-03     108.439E-03    -24.9801E+06     85.4264E+06     78.2782E+06     3.83123E+06    -223.374E-03     447.466E-03    -224.092E-03     37.8958E-03    -223.877E-03     447.956E-03    -223.788E-03     34.6275E-03
             574     12.2323E-03     108.490E-03    -17.6092E+06     97.5604E+06     95.0204E+06     2.93552E+06    -223.287E-03     447.410E-03    -224.123E-03     36.5881E-03    -223.812E-03     447.943E-03    -223.764E-03     32.8115E-03
             575     12.9517E-03     108.536E-03    -12.5211E+06     101.166E+06     107.349E+06     2.02285E+06    -223.003E-03     447.147E-03    -224.144E-03     34.8808E-03    -223.546E-03     447.693E-03    -223.736E-03     30.5084E-03
             576     13.6719E-03     108.580E-03    -6.04699E+06     105.328E+06     112.015E+06     1.18068E+06    -222.557E-03     446.669E-03    -224.113E-03     27.7017E-03    -223.042E-03     447.182E-03    -223.697E-03     23.6179E-03
             577     719.377E-06     109.369E-03    -130.023E+06    -276.286E+06    -127.701E+06     352.062E+03    -224.054E-03     448.182E-03    -224.128E-03     3.87661E-03    -224.118E-03     447.174E-03    -224.177E-03     4.03855E-03
             578     1.43848E-03     109.377E-03    -126.641E+06    -265.969E+06    -118.100E+06     625.481E+03    -224.062E-03     448.179E-03    -224.117E-03     7.13382E-03    -224.138E-03     447.204E-03    -224.138E-03     7.40922E-03
             579     2.15783E-03     109.391E-03    -121.661E+06    -250.893E+06    -103.978E+06     1.00006E+06    -223.989E-03     448.128E-03    -224.138E-03     10.5164E-03    -224.083E-03     447.200E-03    -224.118E-03     10.8938E-03
             580     2.87735E-03     109.410E-03    -115.189E+06    -233.113E+06    -86.8834E+06     1.22253E+06    -223.978E-03     448.141E-03    -224.163E-03     13.8035E-03    -224.090E-03     447.269E-03    -224.093E-03     14.2429E-03
             581     3.59663E-03     109.433E-03    -107.721E+06    -212.988E+06    -68.7690E+06     1.28180E+06    -223.957E-03     448.150E-03    -224.192E-03     16.9706E-03    -224.089E-03     447.342E-03    -224.071E-03     17.4237E-03
             582     4.31607E-03     109.462E-03    -99.7197E+06    -191.210E+06    -50.9713E+06     1.43657E+06    -223.886E-03     448.098E-03    -224.212E-03     19.9926E-03    -224.037E-03     447.364E-03    -224.045E-03     20.4137E-03
             583     5.03562E-03     109.495E-03    -91.5881E+06    -169.642E+06    -34.2118E+06     1.62339E+06    -223.834E-03     448.055E-03    -224.221E-03     22.8344E-03    -224.003E-03     447.396E-03    -224.014E-03     23.1670E-03
             584     5.75513E-03     109.531E-03    -83.4546E+06    -147.894E+06    -18.7452E+06     1.74031E+06    -223.819E-03     448.042E-03    -224.223E-03     25.5164E-03    -224.005E-03     447.462E-03    -223.981E-03     25.6940E-03
             585     6.47472E-03     109.572E-03    -75.5225E+06    -125.396E+06    -4.63797E+06     1.84895E+06    -223.806E-03     448.026E-03    -224.219E-03     28.0405E-03    -224.013E-03     447.532E-03    -223.951E-03     27.9979E-03
             586     7.19442E-03     109.616E-03    -67.8576E+06    -102.068E+06     8.27692E+06     2.00909E+06    -223.792E-03     448.003E-03    -224.211E-03     30.3868E-03    -224.021E-03     447.605E-03    -223.923E-03     30.0578E-03
             587     7.91400E-03     109.662E-03    -60.6025E+06    -76.2389E+06     20.3560E+06     2.15961E+06    -223.760E-03     447.956E-03    -224.196E-03     32.5460E-03    -224.019E-03     447.670E-03    -223.896E-03     31.8658E-03
             588     8.63367E-03     109.711E-03    -53.6502E+06    -47.1336E+06     32.1056E+06     2.48658E+06    -223.708E-03     447.883E-03    -224.176E-03     34.4741E-03    -224.006E-03     447.731E-03    -223.869E-03     33.3803E-03
             589     9.35337E-03     109.763E-03    -46.6194E+06    -12.6077E+06     43.9223E+06     3.24305E+06    -223.645E-03     447.792E-03    -224.148E-03     36.1797E-03    -223.993E-03     447.804E-03    -223.842E-03     34.6167E-03
             590     10.0732E-03     109.815E-03    -39.6304E+06     31.9843E+06     56.9663E+06     4.09976E+06    -223.503E-03     447.613E-03    -224.110E-03     37.6026E-03    -223.922E-03     447.840E-03    -223.814E-03     35.5192E-03
             591     10.7930E-03     109.869E-03    -33.5020E+06     67.4214E+06     67.2869E+06     2.94353E+06    -223.316E-03     447.386E-03    -224.070E-03     38.4986E-03    -223.796E-03     447.791E-03    -223.782E-03     35.8271E-03
             592     11.5130E-03     109.922E-03    -27.5575E+06     85.4294E+06     76.9318E+06     1.01086E+06    -223.125E-03     447.171E-03    -224.047E-03     38.4113E-03    -223.638E-03     447.667E-03    -223.746E-03     35.1374E-03
             593     12.2331E-03     109.973E-03    -20.2860E+06     95.7242E+06     91.3957E+06     2.49179E+06    -222.933E-03     446.986E-03    -224.054E-03     37.1504E-03    -223.463E-03     447.519E-03    -223.706E-03     33.4020E-03
             594     12.9534E-03     110.020E-03    -12.4676E+06     102.503E+06     106.881E+06     3.64277E+06    -222.858E-03     446.929E-03    -224.071E-03     35.4390E-03    -223.405E-03     447.486E-03    -223.667E-03     31.0672E-03
             595     13.6736E-03     110.062E-03    -5.11216E+06     108.841E+06     114.657E+06     844.802E+03    -222.903E-03     446.962E-03    -224.059E-03     27.9256E-03    -223.395E-03     447.489E-03    -223.636E-03     23.7976E-03
             596     719.207E-06     110.851E-03    -130.323E+06    -277.515E+06    -128.061E+06     348.910E+03    -224.060E-03     448.080E-03    -224.020E-03     3.94735E-03    -224.123E-03     447.067E-03    -224.069E-03     4.10831E-03
             597     1.43870E-03     110.860E-03    -127.122E+06    -267.183E+06    -118.546E+06     676.471E+03    -224.018E-03     448.084E-03    -224.067E-03     7.17352E-03    -224.094E-03     447.105E-03    -224.088E-03     7.44788E-03
             598     2.15804E-03     110.874E-03    -122.017E+06    -252.193E+06    -104.434E+06     970.530E+03    -223.976E-03     448.070E-03    -224.094E-03     10.4989E-03    -224.069E-03     447.138E-03    -224.074E-03     10.8751E-03
             599     2.87734E-03     110.893E-03    -115.458E+06    -233.786E+06    -87.2673E+06     1.15081E+06    -223.910E-03     448.031E-03    -224.121E-03     13.7910E-03    -224.023E-03     447.157E-03    -224.051E-03     14.2311E-03
             600     3.59687E-03     110.916E-03    -108.065E+06    -213.505E+06    -68.9837E+06     1.19681E+06    -223.885E-03     448.030E-03    -224.145E-03     16.9749E-03    -224.018E-03     447.221E-03    -224.023E-03     17.4310E-03
             601     4.31630E-03     110.945E-03    -99.9471E+06    -192.013E+06    -50.8384E+06     1.30541E+06    -223.867E-03     448.033E-03    -224.167E-03     20.0373E-03    -224.018E-03     447.296E-03    -223.998E-03     20.4607E-03
             602     5.03577E-03     110.978E-03    -91.5764E+06    -170.237E+06    -33.8194E+06     1.49380E+06    -223.830E-03     448.011E-03    -224.181E-03     22.9509E-03    -223.999E-03     447.348E-03    -223.971E-03     23.2867E-03
             603     5.75538E-03     111.014E-03    -83.2902E+06    -148.515E+06    -18.3022E+06     1.66901E+06    -223.797E-03     447.983E-03    -224.187E-03     25.6498E-03    -223.982E-03     447.399E-03    -223.942E-03     25.8349E-03
             604     6.47502E-03     111.055E-03    -75.2087E+06    -126.011E+06    -4.12225E+06     1.89814E+06    -223.779E-03     447.963E-03    -224.184E-03     28.1603E-03    -223.984E-03     447.465E-03    -223.913E-03     28.1301E-03
             605     7.19458E-03     111.099E-03    -67.4474E+06    -102.808E+06     8.84724E+06     2.11598E+06    -223.765E-03     447.942E-03    -224.176E-03     30.5259E-03    -223.992E-03     447.538E-03    -223.885E-03     30.2130E-03
             606     7.91429E-03     111.145E-03    -59.9095E+06    -77.0801E+06     21.0416E+06     2.42222E+06    -223.719E-03     447.881E-03    -224.162E-03     32.7206E-03    -223.974E-03     447.589E-03    -223.858E-03     32.0590E-03
             607     8.63403E-03     111.194E-03    -52.7464E+06    -48.7502E+06     32.6916E+06     3.05560E+06    -223.658E-03     447.798E-03    -224.140E-03     34.7214E-03    -223.950E-03     447.635E-03    -223.829E-03     33.6553E-03
             608     9.35382E-03     111.246E-03    -45.9128E+06    -14.1841E+06     44.5700E+06     3.48956E+06    -223.557E-03     447.666E-03    -224.109E-03     36.4602E-03    -223.900E-03     447.667E-03    -223.799E-03     34.9201E-03
             609     10.0736E-03     111.298E-03    -39.4640E+06     28.4217E+06     57.1129E+06     4.74165E+06    -223.371E-03     447.439E-03    -224.067E-03     37.8152E-03    -223.785E-03     447.647E-03    -223.766E-03     35.7512E-03
             610     10.7937E-03     111.352E-03    -33.7408E+06     70.2168E+06     67.8514E+06     5.87666E+06    -223.164E-03     447.178E-03    -224.014E-03     38.5207E-03    -223.650E-03     447.596E-03    -223.727E-03     35.8880E-03
             611     11.5138E-03     111.405E-03    -29.1684E+06     90.8345E+06     77.8289E+06     3.68405E+06    -223.055E-03     447.043E-03    -223.988E-03     38.2460E-03    -223.586E-03     447.567E-03    -223.688E-03     34.9959E-03
             612     12.2339E-03     111.455E-03    -23.7383E+06     94.7852E+06     90.0540E+06     95.8621E+03    -222.958E-03     446.957E-03    -223.999E-03     36.4752E-03    -223.503E-03     447.493E-03    -223.652E-03     32.6427E-03
             613     12.9545E-03     111.502E-03    -14.3818E+06     103.562E+06     105.713E+06    -1.06468E+06    -222.912E-03     446.931E-03    -224.019E-03     34.3242E-03    -223.467E-03     447.497E-03    -223.620E-03     29.8235E-03
             614     13.6741E-03     111.547E-03    -5.10494E+06     110.338E+06     114.421E+06     56.1151E+03    -222.992E-03     447.008E-03    -224.016E-03     27.0975E-03    -223.483E-03     447.541E-03    -223.597E-03     22.9619E-03
             615     719.453E-06     112.334E-03    -130.845E+06    -278.706E+06    -128.498E+06     319.105E+03    -224.037E-03     447.993E-03    -223.957E-03     3.90240E-03    -224.100E-03     446.976E-03    -224.005E-03     4.05348E-03
             616     1.43870E-03     112.343E-03    -127.389E+06    -268.221E+06    -118.852E+06     560.517E+03    -223.971E-03     447.994E-03    -224.023E-03     7.14841E-03    -224.047E-03     447.010E-03    -224.044E-03     7.42286E-03
             617     2.15801E-03     112.357E-03    -122.166E+06    -253.050E+06    -104.536E+06     688.346E+03    -223.930E-03     447.980E-03    -224.050E-03     10.5028E-03    -224.023E-03     447.044E-03    -224.029E-03     10.8770E-03
             618     2.87750E-03     112.375E-03    -115.515E+06    -234.522E+06    -87.2393E+06     850.462E+03    -223.852E-03     447.927E-03    -224.075E-03     13.8492E-03    -223.963E-03     447.049E-03    -224.004E-03     14.2882E-03
             619     3.59697E-03     112.399E-03    -107.799E+06    -213.979E+06    -68.6739E+06     1.01010E+06    -223.796E-03     447.890E-03    -224.094E-03     17.0734E-03    -223.927E-03     447.078E-03    -223.971E-03     17.5355E-03
             620     4.31656E-03     112.428E-03    -99.6917E+06    -192.550E+06    -50.4771E+06     1.09800E+06    -223.794E-03     447.904E-03    -224.111E-03     20.1204E-03    -223.943E-03     447.163E-03    -223.939E-03     20.5511E-03
             621     5.03614E-03     112.460E-03    -91.3572E+06    -171.017E+06    -33.4172E+06     1.27052E+06    -223.790E-03     447.915E-03    -224.126E-03     23.0363E-03    -223.956E-03     447.247E-03    -223.912E-03     23.3780E-03
             622     5.75569E-03     112.497E-03    -83.0637E+06    -149.166E+06    -17.8014E+06     1.49914E+06    -223.768E-03     447.902E-03    -224.134E-03     25.7637E-03    -223.952E-03     447.313E-03    -223.886E-03     25.9575E-03
             623     6.47529E-03     112.538E-03    -74.8439E+06    -126.787E+06    -3.57638E+06     1.61589E+06    -223.736E-03     447.870E-03    -224.133E-03     28.3193E-03    -223.938E-03     447.366E-03    -223.859E-03     28.2945E-03
             624     7.19505E-03     112.582E-03    -66.8008E+06    -103.497E+06     9.46217E+06     1.83666E+06    -223.700E-03     447.825E-03    -224.125E-03     30.7186E-03    -223.924E-03     447.416E-03    -223.830E-03     30.4126E-03
             625     7.91476E-03     112.628E-03    -59.0425E+06    -78.3624E+06     21.5682E+06     2.20159E+06    -223.670E-03     447.779E-03    -224.109E-03     32.8876E-03    -223.920E-03     447.478E-03    -223.802E-03     32.2330E-03
             626     8.63455E-03     112.677E-03    -51.4416E+06    -50.4197E+06     33.2483E+06     2.74806E+06    -223.591E-03     447.677E-03    -224.086E-03     34.8379E-03    -223.875E-03     447.503E-03    -223.772E-03     33.7707E-03
             627     9.35439E-03     112.729E-03    -44.2947E+06    -16.4975E+06     44.9580E+06     3.93644E+06    -223.464E-03     447.517E-03    -224.053E-03     36.5547E-03    -223.797E-03     447.504E-03    -223.740E-03     35.0180E-03
             628     10.0744E-03     112.781E-03    -37.1000E+06     25.5033E+06     57.5653E+06     4.75631E+06    -223.337E-03     447.346E-03    -224.010E-03     37.8641E-03    -223.735E-03     447.537E-03    -223.705E-03     35.7889E-03
             629     10.7943E-03     112.835E-03    -28.9875E+06     67.7793E+06      69.364E+06     5.59406E+06    -223.218E-03     447.178E-03    -223.960E-03     38.4909E-03    -223.679E-03     447.576E-03    -223.670E-03     35.8349E-03
             630     11.5144E-03     112.888E-03    -20.8421E+06     95.1236E+06     82.1476E+06     6.33230E+06    -223.148E-03     447.088E-03    -223.940E-03     38.2034E-03    -223.650E-03     447.616E-03    -223.637E-03     34.9689E-03
             631     12.2342E-03     112.939E-03    -15.0727E+06     104.794E+06     97.5559E+06     3.15711E+06    -223.238E-03     447.208E-03    -223.971E-03     36.7734E-03    -223.765E-03     447.772E-03    -223.613E-03     32.9770E-03
             632     12.9531E-03     112.985E-03    -12.8099E+06     106.757E+06     108.504E+06     -1.7096E+06    -223.215E-03     447.220E-03    -224.005E-03     34.9255E-03    -223.773E-03     447.796E-03    -223.599E-03     30.4299E-03
             633     13.6735E-03     113.029E-03    -9.81019E+06     107.509E+06     110.488E+06    -1.43671E+06    -223.053E-03     447.050E-03    -223.997E-03     27.2256E-03    -223.559E-03     447.582E-03    -223.586E-03     23.0609E-03
             634     719.262E-06     113.817E-03    -131.288E+06    -279.629E+06    -128.743E+06     184.218E+03    -223.976E-03     447.900E-03    -223.924E-03     3.93482E-03    -224.041E-03     446.879E-03    -223.972E-03     4.07922E-03
             635     1.43871E-03     113.825E-03    -127.621E+06    -269.003E+06    -118.990E+06     403.684E+03    -223.870E-03     447.837E-03    -223.966E-03     7.25829E-03    -223.946E-03     446.849E-03    -223.986E-03     7.53324E-03
             636     2.15826E-03     113.839E-03    -122.535E+06    -253.505E+06    -104.643E+06     551.628E+03    -223.820E-03     447.796E-03    -223.976E-03     10.6597E-03    -223.913E-03     446.858E-03    -223.954E-03     11.0347E-03
             637     2.87770E-03     113.858E-03    -116.030E+06    -234.979E+06    -87.3966E+06     582.194E+03    -223.797E-03     447.795E-03    -223.998E-03     13.9720E-03    -223.910E-03     446.916E-03    -223.926E-03     14.4121E-03
             638     3.59728E-03     113.882E-03    -108.448E+06    -214.655E+06    -68.9894E+06     749.979E+03    -223.757E-03     447.780E-03    -224.023E-03     17.1738E-03    -223.890E-03     446.966E-03    -223.899E-03     17.6393E-03
             639     4.31685E-03     113.910E-03    -100.320E+06    -193.090E+06    -50.7368E+06     982.040E+03    -223.726E-03     447.769E-03    -224.043E-03     20.2134E-03    -223.877E-03     447.026E-03    -223.871E-03     20.6508E-03
             640     5.03644E-03     113.943E-03    -92.0134E+06    -171.467E+06    -33.6151E+06     1.04743E+06    -223.716E-03     447.773E-03    -224.058E-03     23.0995E-03    -223.885E-03     447.104E-03    -223.844E-03     23.4454E-03
             641     5.75611E-03     113.980E-03    -83.5296E+06    -149.617E+06    -17.9326E+06     1.05640E+06    -223.693E-03     447.758E-03    -224.065E-03     25.8547E-03    -223.878E-03     447.168E-03    -223.817E-03     26.0483E-03
             642     6.47583E-03     114.021E-03    -75.1415E+06    -127.216E+06    -3.70283E+06     1.09556E+06    -223.676E-03     447.740E-03    -224.064E-03     28.4248E-03    -223.878E-03     447.235E-03    -223.790E-03     28.3990E-03
             643     7.19553E-03     114.064E-03    -67.0474E+06    -104.196E+06     9.22694E+06     1.18613E+06    -223.669E-03     447.727E-03    -224.058E-03     30.7865E-03    -223.892E-03     447.315E-03    -223.763E-03     30.4704E-03
             644     7.91533E-03     114.111E-03    -59.1396E+06    -79.3798E+06     21.4274E+06     1.42066E+06    -223.645E-03     447.691E-03    -224.046E-03     32.9181E-03    -223.894E-03     447.386E-03    -223.738E-03     32.2472E-03
             645     8.63507E-03     114.160E-03    -51.4020E+06    -51.7069E+06     33.1276E+06     1.66994E+06    -223.583E-03     447.610E-03    -224.028E-03     34.7687E-03    -223.865E-03     447.430E-03    -223.713E-03     33.6748E-03
             646     9.35505E-03     114.211E-03    -43.4068E+06    -19.2807E+06     44.8533E+06     2.17489E+06    -223.492E-03     447.493E-03    -224.001E-03     36.3725E-03    -223.817E-03     447.465E-03    -223.685E-03     34.7944E-03
             647     10.0749E-03     114.264E-03    -35.3036E+06     24.3201E+06     58.3138E+06     2.81213E+06    -223.395E-03     447.360E-03    -223.965E-03     37.5928E-03    -223.784E-03     447.541E-03    -223.657E-03     35.4711E-03
             648     10.7949E-03     114.317E-03    -27.8600E+06     65.4032E+06     70.1520E+06     3.12929E+06    -223.352E-03     447.280E-03    -223.928E-03     38.1587E-03    -223.805E-03     447.663E-03    -223.632E-03     35.4461E-03
             649     11.5148E-03     114.371E-03    -20.5858E+06     93.4588E+06     81.5526E+06     3.66176E+06    -223.327E-03     447.241E-03    -223.914E-03     37.7119E-03    -223.826E-03     447.762E-03    -223.612E-03     34.4043E-03
             650     12.2350E-03     114.422E-03    -13.0155E+06     109.198E+06     97.9412E+06     4.98966E+06    -223.240E-03     447.186E-03    -223.946E-03     36.1043E-03    -223.764E-03     447.767E-03    -223.595E-03     32.2988E-03
             651     12.9557E-03     114.470E-03    -9.11489E+06     112.733E+06     112.658E+06     5.00632E+06    -223.451E-03     447.453E-03    -224.002E-03     34.1265E-03    -224.003E-03     448.046E-03    -223.589E-03     29.6855E-03
             652     13.6747E-03     114.512E-03    -11.2930E+06     109.598E+06     111.704E+06     1.83668E+06    -223.795E-03     447.814E-03    -224.020E-03     26.3267E-03    -224.312E-03     448.356E-03    -223.604E-03     22.1524E-03
             653     719.496E-06     115.299E-03    -131.921E+06    -280.265E+06    -129.492E+06     226.983E+03    -223.781E-03     447.635E-03    -223.854E-03     4.00870E-03    -223.846E-03     446.613E-03    -223.904E-03     4.15587E-03
             654     1.43898E-03     115.308E-03    -128.537E+06    -269.637E+06    -119.618E+06     356.115E+03    -223.768E-03     447.608E-03    -223.840E-03     7.33289E-03    -223.846E-03     446.620E-03    -223.861E-03     7.61149E-03
             655     2.15847E-03     115.321E-03    -123.258E+06    -254.119E+06    -105.133E+06     519.438E+03    -223.757E-03     447.623E-03    -223.865E-03     10.7247E-03    -223.853E-03     446.683E-03    -223.844E-03     11.1041E-03
             656     2.87808E-03     115.340E-03    -116.531E+06    -235.125E+06    -87.5293E+06     599.308E+03    -223.756E-03     447.659E-03    -223.903E-03     14.0009E-03    -223.871E-03     446.780E-03    -223.831E-03     14.4464E-03
             657     3.59755E-03     115.364E-03    -108.939E+06    -215.122E+06    -68.9628E+06     616.886E+03    -223.724E-03     447.665E-03    -223.941E-03     17.1812E-03    -223.858E-03     446.849E-03    -223.816E-03     17.6447E-03
             658     4.31716E-03     115.393E-03    -100.701E+06    -193.731E+06    -50.8344E+06     773.898E+03    -223.680E-03     447.649E-03    -223.968E-03     20.2722E-03    -223.832E-03     446.903E-03    -223.796E-03     20.7056E-03
             659     5.03686E-03     115.426E-03    -92.2654E+06    -171.427E+06    -33.7350E+06     779.820E+03    -223.665E-03     447.651E-03    -223.986E-03     23.1354E-03    -223.835E-03     446.983E-03    -223.772E-03     23.4777E-03
             660     5.75654E-03     115.462E-03    -83.9043E+06    -149.654E+06    -18.0594E+06     667.706E+03    -223.654E-03     447.651E-03    -223.997E-03     25.7815E-03    -223.841E-03     447.062E-03    -223.749E-03     25.9654E-03
             661     6.47631E-03     115.503E-03    -75.7193E+06    -127.424E+06    -3.85369E+06     734.911E+03    -223.659E-03     447.660E-03    -224.002E-03     28.2999E-03    -223.864E-03     447.156E-03    -223.726E-03     28.2647E-03
             662     7.19604E-03     115.547E-03    -67.8875E+06    -104.633E+06     9.09410E+06     830.913E+03    -223.672E-03     447.674E-03    -224.002E-03     30.6263E-03    -223.899E-03     447.262E-03    -223.706E-03     30.2939E-03
             663     7.91573E-03     115.594E-03    -60.4148E+06    -79.8331E+06     21.1214E+06     912.451E+03    -223.668E-03     447.666E-03    -223.998E-03     32.7203E-03    -223.923E-03     447.361E-03    -223.689E-03     32.0251E-03
             664     8.63561E-03     115.643E-03    -53.2990E+06    -52.4662E+06     32.5406E+06     1.12591E+06    -223.695E-03     447.685E-03    -223.990E-03     34.4747E-03    -223.985E-03     447.505E-03    -223.674E-03     33.3536E-03
             665     9.35521E-03     115.694E-03    -46.6986E+06    -19.4782E+06     44.0153E+06     891.356E+03    -223.696E-03     447.675E-03    -223.979E-03     35.9280E-03    -224.036E-03     447.653E-03    -223.663E-03     34.2994E-03
             666     10.0750E-03     115.747E-03    -40.2396E+06     21.0671E+06     56.0411E+06     1.74109E+06    -223.635E-03     447.598E-03    -223.963E-03     36.9823E-03    -224.041E-03     447.774E-03    -223.655E-03     34.8059E-03
             667     10.7948E-03     115.801E-03    -34.0530E+06     64.4002E+06     66.8669E+06     3.17910E+06    -223.622E-03     447.562E-03    -223.940E-03     37.3629E-03    -224.101E-03     447.954E-03    -223.650E-03     34.6049E-03
             668     11.5145E-03     115.854E-03    -28.1616E+06     93.8894E+06     77.8267E+06     2.61255E+06    -223.683E-03     447.628E-03    -223.945E-03     36.7237E-03    -224.214E-03     448.167E-03    -223.651E-03     33.3467E-03
             669     12.2337E-03     115.905E-03    -21.6960E+06     104.770E+06     92.2429E+06     2.56390E+06    -223.666E-03     447.666E-03    -224.000E-03     34.6156E-03    -224.218E-03     448.245E-03    -223.660E-03     30.6798E-03
             670     12.9529E-03     115.952E-03    -13.2850E+06     111.414E+06     108.445E+06     4.47448E+06    -223.352E-03     447.415E-03    -224.063E-03     32.7063E-03    -223.916E-03     448.013E-03    -223.663E-03     28.1884E-03
             671     13.6721E-03     115.999E-03    -5.50932E+06     115.259E+06     115.841E+06     4.77445E+06    -222.631E-03     446.693E-03    -224.062E-03     26.3926E-03    -223.133E-03     447.249E-03    -223.642E-03     22.2616E-03
             672     719.604E-06     116.781E-03    -132.467E+06    -280.850E+06    -130.262E+06     318.098E+03    -223.633E-03     447.370E-03    -223.737E-03     4.00208E-03    -223.699E-03     446.346E-03    -223.789E-03     4.16162E-03
             673     1.43918E-03     116.790E-03    -129.200E+06    -270.216E+06    -120.185E+06     378.681E+03    -223.737E-03     447.465E-03    -223.728E-03     7.20985E-03    -223.817E-03     446.476E-03    -223.750E-03     7.49060E-03
             674     2.15876E-03     116.804E-03    -123.872E+06    -254.530E+06    -105.375E+06     461.881E+03    -223.723E-03     447.507E-03    -223.784E-03     10.6028E-03    -223.820E-03     446.566E-03    -223.762E-03     10.9812E-03
             675     2.87821E-03     116.823E-03    -117.079E+06    -235.417E+06    -87.7035E+06     500.141E+03    -223.686E-03     447.517E-03    -223.831E-03     13.9122E-03    -223.803E-03     446.637E-03    -223.758E-03     14.3522E-03
             676     3.59789E-03     116.846E-03    -109.356E+06    -215.378E+06    -69.0172E+06     602.261E+03    -223.670E-03     447.542E-03    -223.872E-03     17.0993E-03    -223.806E-03     446.726E-03    -223.746E-03     17.5592E-03
             677     4.31753E-03     116.875E-03    -101.232E+06    -193.944E+06    -50.8538E+06     635.470E+03    -223.672E-03     447.578E-03    -223.906E-03     20.1530E-03    -223.826E-03     446.832E-03    -223.733E-03     20.5808E-03
             678     5.03717E-03     116.908E-03    -92.7692E+06    -171.586E+06    -33.7469E+06     674.184E+03    -223.668E-03     447.601E-03    -223.933E-03     22.9723E-03    -223.841E-03     446.933E-03    -223.719E-03     23.3057E-03
             679     5.75684E-03     116.945E-03    -84.4824E+06    -149.800E+06    -18.1007E+06     784.565E+03    -223.691E-03     447.645E-03    -223.954E-03     25.5906E-03    -223.881E-03     447.056E-03    -223.705E-03     25.7665E-03
             680     6.47647E-03     116.985E-03    -76.6469E+06    -127.744E+06    -4.05429E+06     952.516E+03    -223.708E-03     447.678E-03    -223.970E-03     28.0714E-03    -223.917E-03     447.173E-03    -223.693E-03     28.0246E-03
             681     7.19618E-03     117.029E-03    -69.0057E+06    -104.961E+06     8.72544E+06     1.11420E+06    -223.724E-03     447.703E-03    -223.979E-03     30.3329E-03    -223.955E-03     447.291E-03    -223.683E-03     29.9907E-03
             682     7.91595E-03     117.076E-03    -61.7870E+06    -80.2470E+06     20.4153E+06     1.38717E+06    -223.789E-03     447.773E-03    -223.984E-03     32.3740E-03    -224.049E-03     447.469E-03    -223.676E-03     31.6702E-03
             683     8.63545E-03     117.126E-03    -55.0875E+06    -53.1897E+06     31.3677E+06     1.78471E+06    -223.852E-03     447.841E-03    -223.989E-03     34.1475E-03    -224.148E-03     447.662E-03    -223.675E-03     33.0204E-03
             684     9.35508E-03     117.177E-03    -48.6659E+06    -20.1546E+06     42.4395E+06     2.60524E+06    -223.900E-03     447.892E-03    -223.992E-03     35.6999E-03    -224.247E-03     447.871E-03    -223.680E-03     34.0903E-03
             685     10.0744E-03     117.230E-03    -42.6779E+06     18.7390E+06     53.6243E+06     3.10353E+06    -223.902E-03     447.892E-03    -223.990E-03     36.9548E-03    -224.313E-03     448.063E-03    -223.687E-03     34.8036E-03
             686     10.7937E-03     117.284E-03    -36.2556E+06     62.5713E+06     64.0722E+06     3.42211E+06    -223.759E-03     447.735E-03    -223.976E-03     37.7634E-03    -224.242E-03     448.125E-03    -223.693E-03     35.0386E-03
             687     11.5130E-03     117.338E-03    -29.8362E+06     94.3668E+06     75.2786E+06     4.23682E+06    -223.561E-03     447.535E-03    -223.975E-03     37.9323E-03    -224.097E-03     448.083E-03    -223.692E-03     34.6529E-03
             688     12.2324E-03     117.390E-03    -24.5025E+06     104.207E+06     88.2437E+06     3.97217E+06    -223.296E-03     447.302E-03    -224.006E-03     37.3225E-03    -223.857E-03     447.890E-03    -223.681E-03     33.5486E-03
             689     12.9513E-03     117.437E-03    -16.7553E+06     109.017E+06     103.396E+06     2.48211E+06    -222.458E-03     446.485E-03    -224.027E-03     36.4673E-03    -223.036E-03     447.091E-03    -223.644E-03     32.0526E-03
             690     13.6733E-03     117.478E-03    -2.25874E+06     118.568E+06     118.962E+06     850.756E+03    -221.521E-03     445.515E-03    -223.994E-03     29.1580E-03    -222.024E-03     446.086E-03    -223.568E-03     25.0121E-03
             691     719.656E-06     118.263E-03    -133.140E+06    -281.466E+06    -130.700E+06     140.802E+03    -223.672E-03     447.380E-03    -223.708E-03     3.94910E-03    -223.740E-03     446.355E-03    -223.760E-03     4.10737E-03
             692     1.43915E-03     118.272E-03    -129.614E+06    -270.713E+06    -120.586E+06     296.527E+03    -223.698E-03     447.424E-03    -223.726E-03     7.09272E-03    -223.779E-03     446.433E-03    -223.748E-03     7.36723E-03
             693     2.15864E-03     118.285E-03    -124.192E+06    -254.847E+06    -105.647E+06     424.359E+03    -223.654E-03     447.419E-03    -223.765E-03     10.4944E-03    -223.753E-03     446.478E-03    -223.743E-03     10.8686E-03
             694     2.87838E-03     118.305E-03    -117.580E+06    -235.921E+06    -88.0219E+06     602.328E+03    -223.638E-03     447.440E-03    -223.802E-03     13.8073E-03    -223.757E-03     446.559E-03    -223.729E-03     14.2449E-03
             695     3.59800E-03     118.328E-03    -110.002E+06    -215.650E+06    -69.3245E+06     687.681E+03    -223.676E-03     447.521E-03    -223.845E-03     16.9316E-03    -223.815E-03     446.705E-03    -223.719E-03     17.3892E-03
             696     4.31759E-03     118.357E-03    -101.689E+06    -194.038E+06    -50.9051E+06     700.690E+03    -223.698E-03     447.586E-03    -223.888E-03     19.9098E-03    -223.854E-03     446.840E-03    -223.714E-03     20.3321E-03
             697     5.03720E-03     118.390E-03    -93.2007E+06    -172.014E+06    -33.8442E+06     826.366E+03    -223.700E-03     447.623E-03    -223.923E-03     22.7296E-03    -223.874E-03     446.954E-03    -223.707E-03     23.0581E-03
             698     5.75687E-03     118.427E-03    -84.8907E+06    -150.160E+06    -18.4153E+06     1.03525E+06    -223.734E-03     447.683E-03    -223.949E-03     25.3881E-03    -223.925E-03     447.093E-03    -223.701E-03     25.5639E-03
             699     6.47649E-03     118.468E-03    -76.7292E+06    -128.315E+06    -4.49685E+06     1.22683E+06    -223.779E-03     447.751E-03    -223.971E-03     27.8555E-03    -223.988E-03     447.244E-03    -223.696E-03     27.8075E-03
             700     7.19610E-03     118.512E-03    -68.9067E+06    -105.583E+06     8.15202E+06     1.54294E+06    -223.823E-03     447.811E-03    -223.988E-03     30.1773E-03    -224.052E-03     447.397E-03    -223.694E-03     29.8438E-03
             701     7.91556E-03     118.559E-03    -61.4425E+06    -81.1696E+06     19.8995E+06     1.91921E+06    -223.856E-03     447.857E-03    -224.000E-03     32.3492E-03    -224.112E-03     447.548E-03    -223.694E-03     31.6699E-03
             702     8.63516E-03     118.609E-03    -54.0929E+06    -54.4796E+06     31.1303E+06     2.43928E+06    -223.853E-03     447.860E-03    -224.007E-03     34.3181E-03    -224.141E-03     447.672E-03    -223.694E-03     33.2327E-03
             703     9.35464E-03     118.661E-03    -46.9946E+06    -22.8882E+06     42.1936E+06     3.33579E+06    -223.797E-03     447.800E-03    -224.004E-03     36.2180E-03    -224.129E-03     447.762E-03    -223.691E-03     34.6768E-03
             704     10.0743E-03     118.714E-03    -39.9480E+06     17.7795E+06     54.6700E+06     4.20790E+06    -223.624E-03     447.612E-03    -223.988E-03     37.9590E-03    -224.021E-03     447.771E-03    -223.682E-03     35.9075E-03
             705     10.7939E-03     118.768E-03    -34.0364E+06     60.9045E+06     65.3667E+06     4.90413E+06    -223.264E-03     447.211E-03    -223.947E-03     39.2643E-03    -223.734E-03     447.587E-03    -223.659E-03     36.6632E-03
             706     11.5143E-03     118.821E-03    -28.3669E+06     93.0278E+06     75.3001E+06     5.29293E+06    -222.726E-03     446.623E-03    -223.898E-03     39.7534E-03    -223.253E-03     447.162E-03    -223.615E-03     36.5963E-03
             707     12.2351E-03     118.872E-03    -21.2987E+06     108.020E+06     89.4669E+06     3.82495E+06    -222.171E-03     446.040E-03    -223.869E-03     38.6922E-03    -222.724E-03     446.642E-03    -223.548E-03     34.9912E-03
             708     12.9578E-03     118.918E-03    -11.9814E+06     115.097E+06     108.725E+06     870.528E+03    -222.175E-03     446.046E-03    -223.871E-03     36.3482E-03    -222.747E-03     446.669E-03    -223.477E-03     31.8642E-03
             709     13.6779E-03     118.959E-03    -3.30156E+06     120.467E+06     121.002E+06    -1.52242E+06    -222.783E-03     446.653E-03    -223.870E-03     27.8804E-03    -223.297E-03     447.232E-03    -223.435E-03     23.5938E-03
             710     719.390E-06     119.745E-03    -133.532E+06    -282.084E+06    -130.883E+06     168.056E+03    -223.751E-03     447.513E-03    -223.762E-03     4.02282E-03    -223.819E-03     446.486E-03    -223.814E-03     4.17067E-03
             711     1.43900E-03     119.753E-03    -129.909E+06    -271.056E+06    -120.881E+06     353.252E+03    -223.677E-03     447.452E-03    -223.774E-03     7.11304E-03    -223.759E-03     446.460E-03    -223.797E-03     7.38943E-03
             712     2.15874E-03     119.767E-03    -124.669E+06    -255.469E+06    -106.164E+06     481.409E+03    -223.663E-03     447.455E-03    -223.792E-03     10.4044E-03    -223.762E-03     446.512E-03    -223.772E-03     10.7818E-03
             713     2.87830E-03     119.786E-03    -117.852E+06    -236.393E+06    -88.3036E+06     654.320E+03    -223.690E-03     447.520E-03    -223.830E-03     13.6544E-03    -223.809E-03     446.638E-03    -223.758E-03     14.0941E-03
             714     3.59785E-03     119.811E-03    -109.997E+06    -215.833E+06    -69.4546E+06     711.170E+03    -223.711E-03     447.588E-03    -223.877E-03     16.7666E-03    -223.849E-03     446.771E-03    -223.751E-03     17.2225E-03
             715     4.31742E-03     119.839E-03    -101.696E+06    -194.304E+06    -51.2060E+06     736.932E+03    -223.709E-03     447.627E-03    -223.918E-03     19.7451E-03    -223.865E-03     446.880E-03    -223.745E-03     20.1693E-03
             716     5.03706E-03     119.873E-03    -93.2418E+06    -172.339E+06    -34.2208E+06     788.876E+03    -223.719E-03     447.669E-03    -223.950E-03     22.6051E-03    -223.892E-03     446.999E-03    -223.736E-03     22.9412E-03
             717     5.75661E-03     119.910E-03    -84.7716E+06    -150.698E+06    -18.7419E+06     927.655E+03    -223.732E-03     447.707E-03    -223.975E-03     25.3228E-03    -223.921E-03     447.115E-03    -223.727E-03     25.5101E-03
             718     6.47624E-03     119.951E-03    -76.5011E+06    -128.944E+06    -4.64091E+06     1.13779E+06    -223.755E-03     447.747E-03    -223.993E-03     27.9082E-03    -223.960E-03     447.237E-03    -223.718E-03     27.8836E-03
             719     7.19578E-03     119.995E-03    -68.5335E+06    -106.424E+06     8.16370E+06     1.38616E+06    -223.767E-03     447.771E-03    -224.004E-03     30.4111E-03    -223.992E-03     447.351E-03    -223.709E-03     30.1098E-03
             720     7.91550E-03     120.042E-03    -60.7853E+06    -82.4656E+06     20.1423E+06     1.84726E+06    -223.712E-03     447.717E-03    -224.006E-03     32.7665E-03    -223.962E-03     447.400E-03    -223.697E-03     32.1284E-03
             721     8.63520E-03     120.092E-03    -53.4361E+06    -56.0779E+06     31.5361E+06     2.36951E+06    -223.600E-03     447.595E-03    -223.995E-03     34.9116E-03    -223.882E-03     447.398E-03    -223.679E-03     33.8733E-03
             722     9.35509E-03     120.144E-03    -46.4021E+06    -24.7917E+06     42.8706E+06     2.88529E+06    -223.401E-03     447.369E-03    -223.968E-03     36.8997E-03    -223.728E-03     447.319E-03    -223.651E-03     35.3950E-03
             723     10.0752E-03     120.197E-03    -39.9064E+06     13.7088E+06     54.6691E+06     4.54625E+06    -223.098E-03     447.020E-03    -223.921E-03     38.4373E-03    -223.488E-03     447.158E-03    -223.610E-03     36.4209E-03
             724     10.7959E-03     120.250E-03    -32.9670E+06     59.5546E+06     66.6142E+06     6.00316E+06    -222.786E-03     446.638E-03    -223.852E-03     39.1305E-03    -223.251E-03     447.004E-03    -223.558E-03     36.5324E-03
             725     11.5164E-03     120.303E-03    -25.4804E+06     96.5493E+06     79.4446E+06     4.26424E+06    -222.540E-03     446.334E-03    -223.794E-03     38.4999E-03    -223.065E-03     446.881E-03    -223.500E-03     35.2408E-03
             726     12.2374E-03     120.353E-03    -17.3589E+06     112.980E+06     95.3006E+06     1.25289E+06    -222.568E-03     446.353E-03    -223.786E-03     36.0788E-03    -223.117E-03     446.965E-03    -223.448E-03     32.1870E-03
             727     12.9564E-03     120.399E-03    -11.3580E+06     117.647E+06     111.374E+06    -76.3571E+03    -222.952E-03     446.774E-03    -223.821E-03     33.4730E-03    -223.524E-03     447.400E-03    -223.419E-03     28.8666E-03
             728     13.6756E-03     120.444E-03    -6.35416E+06     120.274E+06     119.531E+06     83.3346E+03    -223.290E-03     447.139E-03    -223.849E-03     26.0618E-03    -223.811E-03     447.718E-03    -223.417E-03     21.7841E-03
             729     719.560E-06     121.227E-03    -134.103E+06    -282.915E+06    -131.722E+06     322.984E+03    -223.802E-03     447.606E-03    -223.804E-03     3.94764E-03    -223.872E-03     446.577E-03    -223.858E-03     4.09584E-03
             730     1.43906E-03     121.235E-03    -130.604E+06    -271.578E+06    -121.599E+06     378.848E+03    -223.767E-03     447.596E-03    -223.829E-03     7.05971E-03    -223.850E-03     446.604E-03    -223.854E-03     7.33203E-03
             731     2.15846E-03     121.249E-03    -125.174E+06    -255.685E+06    -106.648E+06     438.048E+03    -223.767E-03     447.629E-03    -223.862E-03     10.3426E-03    -223.868E-03     446.687E-03    -223.843E-03     10.7207E-03
             732     2.87797E-03     121.269E-03    -118.385E+06    -236.855E+06    -88.9087E+06     533.902E+03    -223.740E-03     447.643E-03    -223.903E-03     13.6384E-03    -223.860E-03     446.760E-03    -223.832E-03     14.0853E-03
             733     3.59753E-03     121.293E-03    -110.585E+06    -216.069E+06    -70.1140E+06     581.726E+03    -223.706E-03     447.645E-03    -223.939E-03     16.7848E-03    -223.845E-03     446.828E-03    -223.816E-03     17.2536E-03
             734     4.31716E-03     121.322E-03    -102.143E+06    -194.274E+06    -51.6438E+06     488.974E+03    -223.691E-03     447.659E-03    -223.968E-03     19.7826E-03    -223.848E-03     446.914E-03    -223.797E-03     20.2227E-03
             735     5.03673E-03     121.355E-03    -93.6331E+06    -172.675E+06    -34.4350E+06     499.910E+03    -223.680E-03     447.670E-03    -223.991E-03     22.6915E-03    -223.854E-03     446.999E-03    -223.777E-03     23.0459E-03
             736     5.75645E-03     121.392E-03    -85.1392E+06    -151.072E+06    -18.6950E+06     617.504E+03    -223.651E-03     447.655E-03    -224.004E-03     25.4494E-03    -223.841E-03     447.061E-03    -223.755E-03     25.6574E-03
             737     6.47615E-03     121.433E-03    -76.7520E+06    -129.415E+06    -4.46723E+06     753.349E+03    -223.604E-03     447.611E-03    -224.006E-03     28.1152E-03    -223.810E-03     447.098E-03    -223.730E-03     28.1132E-03
             738     7.19601E-03     121.478E-03    -68.6928E+06    -107.126E+06     8.43474E+06     979.053E+03    -223.555E-03     447.553E-03    -223.998E-03     30.6458E-03    -223.780E-03     447.130E-03    -223.701E-03     30.3632E-03
             739     7.91583E-03     121.525E-03    -60.9498E+06    -83.8687E+06     20.2817E+06     1.37501E+06    -223.471E-03     447.452E-03    -223.980E-03     32.9304E-03    -223.720E-03     447.127E-03    -223.669E-03     32.2978E-03
             740     8.63587E-03     121.574E-03    -53.4230E+06    -57.6539E+06     31.6075E+06     2.05543E+06    -223.327E-03     447.276E-03    -223.950E-03     34.9404E-03    -223.607E-03     447.071E-03    -223.631E-03     33.8944E-03
             741     9.35603E-03     121.626E-03    -46.4015E+06    -27.1311E+06     42.7675E+06     3.12887E+06    -223.179E-03     447.087E-03    -223.908E-03     36.6021E-03    -223.503E-03     447.026E-03    -223.587E-03     35.0696E-03
             742     10.0763E-03     121.678E-03    -39.3001E+06     10.0284E+06     54.4215E+06     4.19172E+06    -223.075E-03     446.933E-03    -223.857E-03     37.6941E-03    -223.458E-03     447.054E-03    -223.543E-03     35.6072E-03
             743     10.7963E-03     121.732E-03    -31.6633E+06     59.5997E+06     67.4234E+06     3.87198E+06    -223.015E-03     446.815E-03    -223.800E-03     37.9587E-03    -223.476E-03     447.180E-03    -223.503E-03     35.2428E-03
             744     11.5164E-03     121.785E-03    -24.0728E+06     101.260E+06     81.8654E+06     2.61921E+06    -223.113E-03     446.886E-03    -223.773E-03     37.2207E-03    -223.642E-03     447.452E-03    -223.476E-03     33.8478E-03
             745     12.2355E-03     121.836E-03    -17.9611E+06     115.525E+06     96.0549E+06     1.92934E+06    -223.216E-03     447.018E-03    -223.802E-03     35.5897E-03    -223.773E-03     447.643E-03    -223.463E-03     31.6651E-03
             746     12.9556E-03     121.884E-03    -12.3390E+06     118.452E+06     110.878E+06     1.79676E+06    -222.999E-03     446.852E-03    -223.854E-03     34.2204E-03    -223.576E-03     447.485E-03    -223.453E-03     29.6846E-03
             747     13.6761E-03     121.926E-03    -6.42161E+06     121.582E+06     119.431E+06     1.48325E+06    -222.744E-03     446.610E-03    -223.866E-03     27.2210E-03    -223.268E-03     447.197E-03    -223.436E-03     23.0367E-03
             748     719.376E-06     122.709E-03    -134.527E+06    -283.603E+06    -132.207E+06     229.704E+03    -223.875E-03     447.762E-03    -223.887E-03     3.88095E-03    -223.944E-03     446.731E-03    -223.942E-03     4.03827E-03
             749     1.43879E-03     122.718E-03    -131.023E+06    -271.850E+06    -122.246E+06     217.504E+03    -223.878E-03     447.790E-03    -223.912E-03     7.07323E-03    -223.962E-03     446.798E-03    -223.939E-03     7.34999E-03
             750     2.15828E-03     122.732E-03    -125.623E+06    -256.094E+06    -107.126E+06     335.935E+03    -223.826E-03     447.774E-03    -223.948E-03     10.3949E-03    -223.927E-03     446.831E-03    -223.930E-03     10.7809E-03
             751     2.87780E-03     122.751E-03    -118.863E+06    -237.013E+06    -89.1577E+06     359.482E+03    -223.742E-03     447.719E-03    -223.976E-03     13.7019E-03    -223.864E-03     446.836E-03    -223.906E-03     14.1601E-03
             752     3.59739E-03     122.775E-03    -110.932E+06    -216.091E+06    -70.1511E+06     307.058E+03    -223.686E-03     447.683E-03    -223.997E-03     16.8768E-03    -223.827E-03     446.866E-03    -223.873E-03     17.3598E-03
             753     4.31696E-03     122.804E-03    -102.496E+06    -194.212E+06    -51.5152E+06     319.524E+03    -223.650E-03     447.662E-03    -224.012E-03     19.8891E-03    -223.809E-03     446.917E-03    -223.839E-03     20.3427E-03
             754     5.03669E-03     122.837E-03    -94.0175E+06    -172.852E+06    -34.1611E+06     324.409E+03    -223.609E-03     447.630E-03    -224.021E-03     22.7816E-03    -223.785E-03     446.958E-03    -223.805E-03     23.1471E-03
             755     5.75638E-03     122.875E-03    -85.5610E+06    -151.265E+06    -18.5010E+06     359.065E+03    -223.560E-03     447.581E-03    -224.021E-03     25.4914E-03    -223.752E-03     446.985E-03    -223.770E-03     25.7047E-03
             756     6.47623E-03     122.915E-03    -77.2364E+06    -129.600E+06    -4.40238E+06     430.689E+03    -223.497E-03     447.507E-03    -224.010E-03     28.0357E-03    -223.705E-03     446.993E-03    -223.732E-03     28.0277E-03
             757     7.19610E-03     122.960E-03    -69.0931E+06    -107.817E+06     8.32315E+06     634.758E+03    -223.422E-03     447.412E-03    -223.990E-03     30.4213E-03    -223.648E-03     446.986E-03    -223.692E-03     30.1200E-03
             758     7.91613E-03     123.007E-03    -61.3943E+06     -84.742E+06     19.9934E+06     941.831E+03    -223.356E-03     447.318E-03    -223.962E-03     32.5143E-03    -223.606E-03     446.991E-03    -223.650E-03     31.8490E-03
             759     8.63614E-03     123.056E-03    -53.9864E+06    -59.4169E+06     30.9000E+06     1.39855E+06    -223.305E-03     447.233E-03    -223.928E-03     34.2900E-03    -223.585E-03     447.021E-03    -223.609E-03     33.1974E-03
             760     9.35619E-03     123.108E-03    -46.1625E+06    -29.6954E+06     42.0541E+06     2.11021E+06    -223.283E-03     447.174E-03    -223.892E-03     35.8109E-03    -223.602E-03     447.102E-03    -223.572E-03     34.2234E-03
             761     10.0761E-03     123.161E-03    -38.5170E+06     8.70420E+06     54.1955E+06     2.51904E+06    -223.293E-03     447.148E-03    -223.855E-03     36.9953E-03    -223.670E-03     447.262E-03    -223.541E-03     34.8516E-03
             762     10.7961E-03     123.215E-03    -31.7646E+06     60.0090E+06     67.4427E+06     2.91651E+06    -223.266E-03     447.080E-03    -223.814E-03     37.6449E-03    -223.727E-03     447.446E-03    -223.518E-03     34.9070E-03
             763     11.5156E-03     123.268E-03    -26.0058E+06     101.772E+06     80.7869E+06     3.38254E+06    -223.159E-03     446.952E-03    -223.793E-03     37.5974E-03    -223.697E-03     447.524E-03    -223.499E-03     34.2632E-03
             764     12.2360E-03     123.320E-03    -20.2481E+06     116.653E+06     94.3175E+06     3.29011E+06    -222.952E-03     446.763E-03    -223.810E-03     36.2462E-03    -223.520E-03     447.399E-03    -223.479E-03     32.3864E-03
             765     12.9561E-03     123.365E-03    -13.4293E+06     120.106E+06     109.753E+06     2.76442E+06    -222.650E-03     446.495E-03    -223.845E-03     34.4938E-03    -223.234E-03     447.140E-03    -223.451E-03     29.9923E-03
             766     13.6761E-03     123.409E-03    -6.79562E+06     123.316E+06     119.424E+06     1.72447E+06    -222.497E-03     446.343E-03    -223.846E-03     27.4027E-03    -223.026E-03     446.939E-03    -223.418E-03     23.2319E-03
             767     719.412E-06     124.191E-03    -134.883E+06    -283.972E+06    -132.683E+06     16.8041E+03    -223.957E-03     447.935E-03    -223.978E-03     3.93590E-03    -224.027E-03     446.903E-03    -224.034E-03     4.09768E-03
             768     1.43876E-03     124.200E-03    -131.648E+06    -272.106E+06    -122.611E+06     175.929E+03    -223.913E-03     447.902E-03    -223.989E-03     7.16111E-03    -223.999E-03     446.910E-03    -224.016E-03     7.44563E-03
             769     2.15812E-03     124.214E-03    -126.289E+06    -256.476E+06    -107.438E+06     261.509E+03    -223.865E-03     447.876E-03    -224.011E-03     10.4529E-03    -223.968E-03     446.932E-03    -223.993E-03     10.8452E-03
             770     2.87762E-03     124.233E-03    -119.217E+06    -236.929E+06    -89.0993E+06     300.676E+03    -223.787E-03     447.822E-03    -224.035E-03     13.6721E-03    -223.911E-03     446.939E-03    -223.964E-03     14.1345E-03
             771     3.59717E-03     124.258E-03    -111.439E+06    -216.019E+06    -69.9416E+06     284.681E+03    -223.692E-03     447.742E-03    -224.051E-03     16.8020E-03    -223.836E-03     446.927E-03    -223.925E-03     17.2870E-03
             772     4.31688E-03     124.286E-03    -103.221E+06    -194.300E+06    -51.4185E+06     302.900E+03    -223.625E-03     447.681E-03    -224.056E-03     19.7779E-03    -223.788E-03     446.937E-03    -223.882E-03     20.2319E-03
             773     5.03652E-03     124.320E-03    -94.5871E+06    -172.695E+06    -34.1389E+06     288.275E+03    -223.579E-03     447.634E-03    -224.056E-03     22.5981E-03    -223.758E-03     446.963E-03    -223.839E-03     22.9605E-03
             774     5.75634E-03     124.357E-03    -85.8962E+06    -151.186E+06    -18.5162E+06     195.412E+03    -223.544E-03     447.592E-03    -224.048E-03     25.2497E-03    -223.738E-03     446.998E-03    -223.797E-03     25.4499E-03
             775     6.47610E-03     124.398E-03    -77.4761E+06    -129.730E+06    -4.52322E+06     199.107E+03    -223.513E-03     447.548E-03    -224.035E-03     27.7000E-03    -223.723E-03     447.035E-03    -223.757E-03     27.6706E-03
             776     7.19595E-03     124.442E-03    -69.5010E+06    -108.213E+06     7.97391E+06     272.620E+03    -223.460E-03     447.475E-03    -224.016E-03     29.9736E-03    -223.688E-03     447.049E-03    -223.718E-03     29.6453E-03
             777     7.91586E-03     124.489E-03    -61.7196E+06    -85.3814E+06     19.5339E+06     455.373E+03    -223.421E-03     447.411E-03    -223.991E-03     31.9904E-03    -223.671E-03     447.082E-03    -223.680E-03     31.2987E-03
             778     8.63576E-03     124.538E-03    -54.0707E+06    -60.3339E+06     30.5302E+06     686.965E+03    -223.406E-03     447.369E-03    -223.963E-03     33.7604E-03    -223.685E-03     447.153E-03    -223.644E-03     32.6432E-03
             779     9.35561E-03     124.590E-03    -47.0330E+06    -30.7466E+06     41.2698E+06     793.025E+03    -223.368E-03     447.299E-03    -223.931E-03     35.4507E-03    -223.688E-03     447.223E-03    -223.612E-03     33.8485E-03
             780     10.0756E-03     124.643E-03    -40.1586E+06     7.27766E+06     52.8517E+06     1.30794E+06    -223.264E-03     447.158E-03    -223.893E-03     36.8906E-03    -223.644E-03     447.268E-03    -223.582E-03     34.7587E-03
             781     10.7955E-03     124.697E-03    -33.2849E+06     56.7293E+06     65.8463E+06     2.96490E+06    -223.039E-03     446.882E-03    -223.843E-03     37.7940E-03    -223.500E-03     447.235E-03    -223.548E-03     35.0934E-03
             782     11.5159E-03     124.751E-03    -26.4357E+06     99.8162E+06     79.8596E+06     4.76049E+06    -222.782E-03     446.582E-03    -223.801E-03     37.7749E-03    -223.316E-03     447.145E-03    -223.508E-03     34.4968E-03
             783     12.2360E-03     124.801E-03    -19.9865E+06     118.512E+06     93.7644E+06     4.56336E+06    -222.658E-03     446.450E-03    -223.792E-03     36.2855E-03    -223.226E-03     447.096E-03    -223.466E-03     32.4563E-03
             784     12.9561E-03     124.848E-03    -14.0125E+06     122.782E+06     109.274E+06     2.76138E+06    -222.588E-03     446.406E-03    -223.818E-03     34.4508E-03    -223.179E-03     447.067E-03    -223.429E-03     29.9274E-03
             785     13.6767E-03     124.890E-03    -6.78971E+06     126.032E+06     120.421E+06     1.02800E+06    -222.362E-03     446.184E-03    -223.822E-03     27.4188E-03    -222.897E-03     446.793E-03    -223.393E-03     23.2212E-03
             786     719.220E-06     125.674E-03    -136.106E+06    -284.167E+06    -133.597E+06    -9.65035E+03    -224.034E-03     448.106E-03    -224.071E-03     3.86064E-03    -224.109E-03     447.076E-03    -224.130E-03     4.01398E-03
             787     1.43865E-03     125.683E-03    -132.434E+06    -272.681E+06    -122.938E+06     250.989E+03    -223.964E-03     448.035E-03    -224.071E-03     7.04375E-03    -224.052E-03     447.042E-03    -224.098E-03     7.32385E-03
             788     2.15811E-03     125.697E-03    -126.840E+06    -256.336E+06    -107.323E+06     302.651E+03    -223.915E-03     447.999E-03    -224.085E-03     10.3274E-03    -224.022E-03     447.057E-03    -224.066E-03     10.7171E-03
             789     2.87746E-03     125.716E-03    -119.778E+06    -237.103E+06    -89.0709E+06     276.859E+03    -223.856E-03     447.961E-03    -224.106E-03     13.5293E-03    -223.982E-03     447.079E-03    -224.034E-03     13.9870E-03
             790     3.59696E-03     125.740E-03    -111.836E+06    -215.914E+06    -69.8501E+06     282.020E+03    -223.773E-03     447.896E-03    -224.123E-03     16.6203E-03    -223.919E-03     447.081E-03    -223.997E-03     17.1013E-03
             791     4.31650E-03     125.769E-03    -103.205E+06    -194.130E+06    -51.1868E+06     144.311E+03    -223.697E-03     447.828E-03    -224.131E-03     19.5271E-03    -223.861E-03     447.085E-03    -223.955E-03     19.9732E-03
             792     5.03623E-03     125.802E-03    -94.3193E+06    -172.612E+06    -34.0279E+06     121.275E+03    -223.644E-03     447.773E-03    -224.129E-03     22.2419E-03    -223.822E-03     447.103E-03    -223.912E-03     22.5929E-03
             793     5.75588E-03     125.839E-03    -85.7339E+06    -150.841E+06    -18.4207E+06     72.4240E+03    -223.593E-03     447.713E-03    -224.120E-03     24.8301E-03    -223.787E-03     447.121E-03    -223.870E-03     25.0209E-03
             794     6.47565E-03     125.880E-03    -77.3800E+06    -129.650E+06    -4.51149E+06    -52.9739E+03    -223.553E-03     447.658E-03    -224.105E-03     27.2838E-03    -223.762E-03     447.146E-03    -223.828E-03     27.2448E-03
             795     7.19542E-03     125.924E-03    -69.2814E+06    -108.204E+06     8.02049E+06    -30.7089E+03    -223.525E-03     447.610E-03    -224.085E-03     29.6009E-03    -223.751E-03     447.183E-03    -223.788E-03     29.2686E-03
             796     7.91519E-03     125.971E-03    -61.5769E+06    -85.6339E+06     19.5676E+06     20.1051E+03    -223.471E-03     447.531E-03    -224.060E-03     31.7594E-03    -223.720E-03     447.200E-03    -223.749E-03     31.0710E-03
             797     8.63504E-03     126.021E-03    -54.1860E+06    -60.8460E+06     30.4231E+06     97.7457E+03    -223.399E-03     447.427E-03    -224.029E-03     33.6956E-03    -223.676E-03     447.208E-03    -223.710E-03     32.5903E-03
             798     9.35504E-03     126.072E-03    -47.2337E+06    -31.6551E+06     41.1612E+06     657.047E+03    -223.287E-03     447.276E-03    -223.990E-03     35.4788E-03    -223.606E-03     447.196E-03    -223.669E-03     33.8999E-03
             799     10.0750E-03     126.125E-03    -40.7305E+06     5.22951E+06     52.4679E+06     1.62742E+06    -223.075E-03     447.013E-03    -223.939E-03     36.9455E-03    -223.453E-03     447.113E-03    -223.625E-03     34.8381E-03
             800     10.7954E-03     126.179E-03    -34.3862E+06     52.0656E+06     64.7340E+06     3.04810E+06    -222.792E-03     446.663E-03    -223.871E-03     37.6956E-03    -223.249E-03     446.996E-03    -223.573E-03     35.0094E-03
             801     11.5158E-03     126.232E-03    -27.9818E+06     97.3038E+06     77.3832E+06     4.31403E+06    -222.542E-03     446.345E-03    -223.803E-03     37.4995E-03    -223.076E-03     446.901E-03    -223.517E-03     34.2291E-03
             802     12.2363E-03     126.284E-03    -20.8442E+06     120.716E+06     91.5880E+06     4.10487E+06    -222.413E-03     446.187E-03    -223.774E-03     36.0560E-03    -222.984E-03     446.847E-03    -223.461E-03     32.2329E-03
             803     12.9568E-03     126.330E-03    -12.9911E+06     126.612E+06     109.728E+06     2.75533E+06    -222.273E-03     446.066E-03    -223.793E-03     34.3392E-03    -222.865E-03     446.743E-03    -223.409E-03     29.8186E-03
             804     13.6767E-03     126.374E-03    -5.85737E+06     129.046E+06     121.985E+06     858.277E+03    -222.102E-03     445.892E-03    -223.790E-03     27.4913E-03    -222.639E-03     446.513E-03    -223.359E-03     23.2922E-03
             805     719.268E-06     127.157E-03    -135.502E+06    -284.413E+06    -133.115E+06     304.194E+03    -224.158E-03     448.357E-03    -224.199E-03     3.78800E-03    -224.230E-03     447.324E-03    -224.255E-03     3.94667E-03
             806     1.43843E-03     127.166E-03    -132.133E+06    -273.034E+06    -122.568E+06     286.613E+03    -224.118E-03     448.320E-03    -224.202E-03     6.91980E-03    -224.205E-03     447.324E-03    -224.228E-03     7.20512E-03
             807     2.15768E-03     127.180E-03    -126.613E+06    -256.422E+06    -107.253E+06     287.793E+03    -224.025E-03     448.241E-03    -224.217E-03     10.1017E-03    -224.130E-03     447.298E-03    -224.197E-03     10.4911E-03
             808     2.87717E-03     127.199E-03    -119.762E+06    -236.939E+06    -89.0106E+06     169.040E+03    -223.946E-03     448.177E-03    -224.230E-03     13.2307E-03    -224.073E-03     447.296E-03    -224.158E-03     13.6836E-03
             809     3.59657E-03     127.223E-03    -111.475E+06    -215.723E+06    -69.7420E+06     72.1757E+03    -223.897E-03     448.141E-03    -224.244E-03     16.2743E-03    -224.042E-03     447.327E-03    -224.119E-03     16.7521E-03
             810     4.31606E-03     127.252E-03    -102.858E+06    -193.925E+06    -51.1391E+06     96.4993E+03    -223.824E-03     448.077E-03    -224.253E-03     19.1722E-03    -223.986E-03     447.334E-03    -224.078E-03     19.6181E-03
             811     5.03550E-03     127.285E-03    -94.2556E+06    -172.384E+06    -33.9321E+06    -6.49559E+03    -223.735E-03     447.986E-03    -224.251E-03     21.9283E-03    -223.914E-03     447.317E-03    -224.034E-03     22.2808E-03
             812     5.75515E-03     127.322E-03    -85.6800E+06    -150.623E+06    -18.3874E+06    -124.574E+03    -223.643E-03     447.880E-03    -224.237E-03     24.5434E-03    -223.837E-03     447.288E-03    -223.986E-03     24.7412E-03
             813     6.47486E-03     127.363E-03    -77.4728E+06    -129.404E+06    -4.43742E+06    -159.446E+03    -223.560E-03     447.772E-03    -224.213E-03     27.0505E-03    -223.770E-03     447.261E-03    -223.935E-03     27.0266E-03
             814     7.19466E-03     127.407E-03    -69.4692E+06    -107.873E+06     8.22802E+06    -252.681E+03    -223.485E-03     447.666E-03    -224.181E-03     29.4345E-03    -223.713E-03     447.241E-03    -223.883E-03     29.1193E-03
             815     7.91456E-03     127.454E-03    -61.7808E+06    -85.5877E+06     19.7839E+06    -318.113E+03    -223.397E-03     447.541E-03    -224.143E-03     31.6500E-03    -223.647E-03     447.210E-03    -223.831E-03     30.9771E-03
             816     8.63457E-03     127.503E-03    -54.5412E+06    -61.1172E+06     30.5056E+06    -136.968E+03    -223.283E-03     447.380E-03    -224.097E-03     33.6462E-03    -223.561E-03     447.159E-03    -223.777E-03     32.5606E-03
             817     9.35457E-03     127.554E-03    -47.4182E+06    -33.1037E+06     41.0141E+06     258.729E+03    -223.119E-03     447.162E-03    -224.043E-03     35.4336E-03    -223.437E-03     447.074E-03    -223.721E-03     33.8672E-03
             818     10.0748E-03     127.607E-03    -40.1097E+06     2.40200E+06     52.2693E+06     1.33407E+06    -222.903E-03     446.879E-03    -223.976E-03     36.8791E-03    -223.273E-03     446.964E-03    -223.660E-03     34.7776E-03
             819     10.7950E-03     127.661E-03    -33.0882E+06     47.5852E+06     64.4447E+06     3.32188E+06    -222.678E-03     446.575E-03    -223.897E-03     37.6962E-03    -223.121E-03     446.883E-03    -223.596E-03     35.0290E-03
             820     11.5154E-03     127.714E-03    -26.7708E+06     96.4344E+06     77.6018E+06     4.46760E+06    -222.394E-03     446.210E-03    -223.816E-03     37.5384E-03    -222.920E-03     446.758E-03    -223.529E-03     34.2844E-03
             821     12.2359E-03     127.765E-03    -20.3073E+06     123.942E+06     91.3521E+06     3.20531E+06    -222.153E-03     445.919E-03    -223.767E-03     36.2122E-03    -222.725E-03     446.595E-03    -223.460E-03     32.3994E-03
             822     12.9563E-03     127.812E-03    -12.9302E+06     129.047E+06     109.012E+06     1.46649E+06    -221.972E-03     445.742E-03    -223.770E-03     34.2009E-03    -222.566E-03     446.431E-03    -223.393E-03     29.6634E-03
             823     13.6782E-03     127.853E-03    -6.37968E+06     131.150E+06     122.155E+06     1.04231E+06    -221.932E-03     445.693E-03    -223.761E-03     27.0487E-03    -222.473E-03     446.323E-03    -223.331E-03     22.8793E-03
             824     719.065E-06     128.640E-03    -135.992E+06    -284.952E+06    -133.720E+06     149.206E+03    -224.307E-03     448.731E-03    -224.423E-03     3.64567E-03    -224.380E-03     447.697E-03    -224.482E-03     3.81038E-03
             825     1.43821E-03     128.649E-03    -132.454E+06    -273.235E+06    -123.217E+06     299.918E+03    -224.310E-03     448.699E-03    -224.389E-03     6.75935E-03    -224.397E-03     447.703E-03    -224.417E-03     7.05171E-03
             826     2.15737E-03     128.663E-03    -126.925E+06    -256.404E+06    -107.783E+06     239.054E+03    -224.220E-03     448.626E-03    -224.406E-03     9.89041E-03    -224.327E-03     447.684E-03    -224.389E-03     10.2843E-03
             827     2.87651E-03     128.682E-03    -119.725E+06    -236.583E+06    -89.2680E+06     146.201E+03    -224.111E-03     448.529E-03    -224.418E-03     12.9926E-03    -224.237E-03     447.650E-03    -224.348E-03     13.4564E-03
             828     3.59584E-03     128.706E-03    -111.711E+06    -215.514E+06    -69.9584E+06     40.8406E+03    -224.004E-03     448.427E-03    -224.423E-03     16.0121E-03    -224.150E-03     447.615E-03    -224.298E-03     16.5026E-03
             829     4.31519E-03     128.735E-03    -103.152E+06    -193.782E+06    -51.2535E+06    -49.5086E+03    -223.890E-03     448.308E-03    -224.418E-03     18.9260E-03    -224.054E-03     447.566E-03    -224.244E-03     19.3849E-03
             830     5.03477E-03     128.768E-03    -94.4884E+06    -171.987E+06    -33.8524E+06    -132.131E+03    -223.770E-03     448.171E-03    -224.401E-03     21.7372E-03    -223.950E-03     447.503E-03    -224.184E-03     22.1064E-03
             831     5.75438E-03     128.805E-03    -85.8535E+06    -150.231E+06    -18.1201E+06    -243.787E+03    -223.663E-03     448.036E-03    -224.372E-03     24.3786E-03    -223.859E-03     447.446E-03    -224.121E-03     24.5955E-03
             832     6.47409E-03     128.845E-03    -77.3762E+06    -129.126E+06    -4.02014E+06    -321.127E+03    -223.545E-03     447.880E-03    -224.335E-03     26.8815E-03    -223.756E-03     447.369E-03    -224.055E-03     26.8787E-03
             833     7.19394E-03     128.889E-03    -69.3741E+06    -107.551E+06     8.65485E+06    -376.409E+03    -223.410E-03     447.698E-03    -224.287E-03     29.2626E-03    -223.638E-03     447.272E-03    -223.988E-03     28.9667E-03
             834     7.91388E-03     128.936E-03    -61.6991E+06    -85.3569E+06     20.2175E+06    -446.184E+03    -223.282E-03     447.514E-03    -224.232E-03     31.4718E-03    -223.531E-03     447.183E-03    -223.917E-03     30.8169E-03
             835     8.63386E-03     128.985E-03    -54.2996E+06    -61.2133E+06     30.9278E+06    -392.417E+03    -223.130E-03     447.298E-03    -224.168E-03     33.4659E-03    -223.407E-03     447.075E-03    -223.846E-03     32.3940E-03
             836     9.35413E-03     129.037E-03    -47.0587E+06    -33.7320E+06     41.3931E+06    -144.240E+03    -222.945E-03     447.041E-03    -224.096E-03     35.2393E-03    -223.260E-03     446.949E-03    -223.772E-03     33.6797E-03
             837     10.0744E-03     129.089E-03    -40.1728E+06    -15.6858E+03     52.0323E+06     284.016E+03    -222.738E-03     446.752E-03    -224.014E-03     36.6979E-03    -223.104E-03     446.825E-03    -223.695E-03     34.5982E-03
             838     10.7950E-03     129.143E-03    -33.0599E+06     42.0180E+06     63.4661E+06     2.00267E+06    -222.494E-03     446.415E-03    -223.921E-03     37.5874E-03    -222.927E-03     446.696E-03    -223.617E-03     34.9159E-03
             839     11.5156E-03     129.196E-03    -25.2411E+06     94.8361E+06     77.7762E+06     3.83915E+06    -222.207E-03     446.032E-03    -223.825E-03     37.4359E-03    -222.724E-03     446.570E-03    -223.537E-03     34.1718E-03
             840     12.2364E-03     129.247E-03    -18.3890E+06     126.977E+06     92.5650E+06     3.80461E+06    -221.951E-03     445.712E-03    -223.762E-03     36.0766E-03    -222.520E-03     446.399E-03    -223.456E-03     32.2490E-03
             841     12.9575E-03     129.293E-03    -12.8273E+06     131.578E+06     109.701E+06     2.05576E+06    -221.931E-03     445.689E-03    -223.759E-03     34.1960E-03    -222.531E-03     446.393E-03    -223.382E-03     29.6131E-03
             842     13.6769E-03     129.336E-03    -7.17619E+06     133.565E+06     122.030E+06     1.08722E+06    -221.778E-03     445.521E-03    -223.743E-03     27.0018E-03    -222.329E-03     446.167E-03    -223.317E-03     22.7853E-03
             843     718.884E-06     130.125E-03    -136.095E+06    -285.302E+06    -133.700E+06    -37.9398E+03    -224.535E-03     449.207E-03    -224.672E-03     3.66081E-03    -224.608E-03     448.172E-03    -224.730E-03     3.82982E-03
             844     1.43778E-03     130.133E-03    -132.555E+06    -273.408E+06    -123.512E+06     66.9924E+03    -224.498E-03     449.115E-03    -224.616E-03     6.70151E-03    -224.586E-03     448.119E-03    -224.645E-03     6.99361E-03
             845     2.15677E-03     130.147E-03    -126.921E+06    -256.052E+06    -107.936E+06     63.7310E+03    -224.406E-03     449.024E-03    -224.618E-03     9.84073E-03    -224.513E-03     448.084E-03    -224.603E-03     10.2425E-03
             846     2.87590E-03     130.166E-03    -119.824E+06    -236.469E+06    -89.2226E+06     30.2019E+03    -224.282E-03     448.906E-03    -224.624E-03     12.9367E-03    -224.410E-03     448.027E-03    -224.553E-03     13.4184E-03
             847     3.59508E-03     130.190E-03    -111.821E+06    -215.248E+06    -69.7338E+06     42.5865E+03    -224.114E-03     448.731E-03    -224.617E-03     15.9484E-03    -224.261E-03     447.920E-03    -224.492E-03     16.4580E-03
             848     4.31450E-03     130.218E-03    -103.292E+06    -193.391E+06    -50.8706E+06    -88.0865E+03    -223.963E-03     448.559E-03    -224.596E-03     18.8019E-03    -224.128E-03     447.819E-03    -224.420E-03     19.2830E-03
             849     5.03395E-03     130.251E-03    -94.4258E+06    -171.492E+06    -33.3743E+06    -256.214E+03    -223.821E-03     448.384E-03    -224.563E-03     21.5113E-03    -224.002E-03     447.718E-03    -224.344E-03     21.9027E-03
             850     5.75355E-03     130.288E-03    -85.7607E+06    -149.749E+06    -17.6122E+06    -386.910E+03    -223.661E-03     448.179E-03    -224.518E-03     24.1274E-03    -223.857E-03     447.590E-03    -224.265E-03     24.3637E-03
             851     6.47327E-03     130.328E-03    -77.4922E+06    -128.804E+06    -3.63553E+06    -455.606E+03    -223.504E-03     447.967E-03    -224.463E-03     26.6443E-03    -223.715E-03     447.456E-03    -224.182E-03     26.6593E-03
             852     7.19310E-03     130.372E-03    -69.4537E+06    -107.241E+06     8.97701E+06    -523.779E+03    -223.344E-03     447.742E-03    -224.398E-03     29.0498E-03    -223.573E-03     447.318E-03    -224.097E-03     28.7725E-03
             853     7.91312E-03     130.418E-03    -61.6341E+06    -85.1510E+06     20.5167E+06    -524.131E+03    -223.173E-03     447.497E-03    -224.324E-03     31.2580E-03    -223.422E-03     447.166E-03    -224.009E-03     30.6231E-03
             854     8.63336E-03     130.468E-03    -54.3629E+06    -61.1827E+06     31.1176E+06    -485.230E+03    -222.988E-03     447.231E-03    -224.243E-03     33.2136E-03    -223.265E-03     447.008E-03    -223.920E-03     32.1567E-03
             855     9.35358E-03     130.518E-03    -47.5220E+06    -34.4798E+06     41.2804E+06    -238.398E+03    -222.799E-03     446.954E-03    -224.155E-03     34.9697E-03    -223.114E-03     446.858E-03    -223.830E-03     33.4252E-03
             856     10.0741E-03     130.571E-03    -41.0417E+06    -1.49813E+06     51.7451E+06     522.507E+03    -222.601E-03     446.661E-03    -224.060E-03     36.3991E-03    -222.968E-03     446.727E-03    -223.739E-03     34.3142E-03
             857     10.7945E-03     130.624E-03    -34.8084E+06     38.6015E+06     62.3161E+06     1.10651E+06    -222.361E-03     446.317E-03    -223.956E-03     37.2051E-03    -222.796E-03     446.584E-03    -223.650E-03     34.5169E-03
             858     11.5152E-03     130.677E-03    -28.3819E+06     91.9051E+06     75.3606E+06     1.98365E+06    -222.042E-03     445.886E-03    -223.844E-03     36.9864E-03    -222.566E-03     446.417E-03    -223.559E-03     33.6811E-03
             859     12.2360E-03     130.728E-03    -21.4527E+06     126.796E+06     89.5850E+06     3.15053E+06    -221.810E-03     445.575E-03    -223.765E-03     35.5245E-03    -222.389E-03     446.268E-03    -223.470E-03     31.6760E-03
             860     12.9565E-03     130.774E-03    -14.2385E+06     132.455E+06     107.598E+06     3.24029E+06    -221.580E-03     445.329E-03    -223.749E-03     33.9711E-03    -222.184E-03     446.041E-03    -223.382E-03     29.4325E-03
             861     13.6784E-03     130.818E-03    -6.25872E+06     136.975E+06     123.553E+06     1.34721E+06    -221.420E-03     445.146E-03    -223.727E-03     26.9314E-03    -221.973E-03     445.806E-03    -223.298E-03     22.7037E-03
             862     718.716E-06     131.609E-03    -136.386E+06    -285.340E+06    -133.577E+06     152.574E+03    -224.789E-03     449.587E-03    -224.799E-03     3.70143E-03    -224.863E-03     448.552E-03    -224.855E-03     3.87494E-03
             863     1.43754E-03     131.618E-03    -132.795E+06    -273.160E+06    -123.333E+06    -68.6252E+03    -224.696E-03     449.505E-03    -224.809E-03     6.73201E-03    -224.785E-03     448.510E-03    -224.837E-03     7.03332E-03
             864     2.15646E-03     131.632E-03    -127.126E+06    -255.951E+06    -107.918E+06    -57.7398E+03    -224.582E-03     449.391E-03    -224.810E-03     9.85026E-03    -224.690E-03     448.452E-03    -224.794E-03     10.2680E-03
             865     2.87539E-03     131.650E-03    -120.112E+06    -236.389E+06    -89.1803E+06     5.06159E+03    -224.444E-03     449.254E-03    -224.810E-03     12.8479E-03    -224.573E-03     448.376E-03    -224.739E-03     13.3462E-03
             866     3.59451E-03     131.674E-03    -111.959E+06    -214.895E+06    -69.4468E+06    -59.9058E+03    -224.267E-03     449.066E-03    -224.799E-03     15.7711E-03    -224.416E-03     448.256E-03    -224.672E-03     16.2963E-03
             867     4.31371E-03     131.702E-03    -103.189E+06    -192.831E+06    -50.4060E+06    -204.176E+03    -224.074E-03     448.845E-03    -224.771E-03     18.6183E-03    -224.240E-03     448.106E-03    -224.594E-03     19.1169E-03
             868     5.03307E-03     131.735E-03    -94.2730E+06    -170.977E+06    -32.8997E+06    -354.763E+03    -223.877E-03     448.602E-03    -224.726E-03     21.3422E-03    -224.058E-03     447.938E-03    -224.506E-03     21.7544E-03
             869     5.75262E-03     131.771E-03    -85.5041E+06    -149.285E+06    -17.1552E+06    -475.626E+03    -223.672E-03     448.338E-03    -224.665E-03     23.9548E-03    -223.868E-03     447.750E-03    -224.411E-03     24.2116E-03
             870     6.47241E-03     131.811E-03    -77.0567E+06    -128.421E+06    -3.17509E+06    -568.256E+03    -223.478E-03     448.071E-03    -224.593E-03     26.4336E-03    -223.688E-03     447.561E-03    -224.311E-03     26.4682E-03
             871     7.19235E-03     131.855E-03    -68.8652E+06    -106.887E+06     9.45292E+06    -626.709E+03    -223.289E-03     447.800E-03    -224.511E-03     28.7878E-03    -223.516E-03     447.376E-03    -224.209E-03     28.5311E-03
             872     7.91239E-03     131.901E-03    -61.1705E+06    -84.9530E+06     20.8952E+06    -678.159E+03    -223.085E-03     447.506E-03    -224.421E-03     30.9687E-03    -223.332E-03     447.174E-03    -224.105E-03     30.3519E-03
             873     8.63253E-03     131.949E-03    -53.7289E+06    -61.4087E+06     31.5111E+06    -505.840E+03    -222.876E-03     447.201E-03    -224.324E-03     32.9338E-03    -223.150E-03     446.974E-03    -224.000E-03     31.8956E-03
             874     9.35297E-03     132.000E-03    -46.6674E+06    -35.1309E+06     41.6929E+06    -254.997E+03    -222.687E-03     446.909E-03    -224.222E-03     34.7107E-03    -222.997E-03     446.807E-03    -223.895E-03     33.1842E-03
             875     10.0734E-03     132.052E-03    -39.5134E+06    -3.07567E+06     52.1562E+06     135.853E+03    -222.478E-03     446.592E-03    -224.114E-03     36.1872E-03    -222.835E-03     446.646E-03    -223.792E-03     34.1149E-03
             876     10.7941E-03     132.106E-03    -32.2450E+06     37.0856E+06     63.2587E+06     1.04701E+06    -222.208E-03     446.206E-03    -223.998E-03     37.1265E-03    -222.628E-03     446.459E-03    -223.689E-03     34.4617E-03
             877     11.5148E-03     132.158E-03    -25.7573E+06     88.7850E+06     76.4483E+06     2.30974E+06    -221.881E-03     445.756E-03    -223.876E-03     37.1343E-03    -222.388E-03     446.265E-03    -223.585E-03     33.8728E-03
             878     12.2357E-03     132.209E-03    -19.5193E+06     126.267E+06     90.0445E+06     2.77621E+06    -221.604E-03     445.380E-03    -223.777E-03     35.9327E-03    -222.173E-03     446.067E-03    -223.481E-03     32.1216E-03
             879     12.9569E-03     132.255E-03    -12.5103E+06     136.304E+06     108.272E+06     2.08581E+06    -221.345E-03     445.087E-03    -223.742E-03     33.9942E-03    -221.945E-03     445.813E-03    -223.381E-03     29.4639E-03
             880     13.6781E-03     132.296E-03    -6.32255E+06     139.017E+06     123.951E+06     1.35777E+06    -221.243E-03     444.956E-03    -223.713E-03     26.7293E-03    -221.799E-03     445.624E-03    -223.286E-03     22.5226E-03
             881     718.706E-06     133.095E-03    -137.381E+06    -285.212E+06    -134.829E+06         240.008    -224.971E-03     449.916E-03    -224.945E-03     3.60763E-03    -225.048E-03     448.884E-03    -225.006E-03     3.77797E-03
             882     1.43734E-03     133.103E-03    -133.403E+06    -272.854E+06    -123.568E+06    -10.6348E+03    -224.874E-03     449.853E-03    -224.979E-03     6.59385E-03    -224.966E-03     448.862E-03    -225.008E-03     6.90803E-03
             883     2.15601E-03     133.117E-03    -127.758E+06    -255.988E+06    -107.773E+06     11.6235E+03    -224.747E-03     449.732E-03    -224.985E-03     9.72160E-03    -224.858E-03     448.793E-03    -224.967E-03     10.1586E-03
             884     2.87489E-03     133.135E-03    -120.442E+06    -236.039E+06    -88.9939E+06    -56.3981E+03    -224.601E-03     449.583E-03    -224.982E-03     12.7394E-03    -224.732E-03     448.707E-03    -224.910E-03     13.2519E-03
             885     3.59380E-03     133.159E-03    -112.088E+06    -214.302E+06    -69.3101E+06    -291.506E+03    -224.414E-03     449.381E-03    -224.967E-03     15.6419E-03    -224.564E-03     448.574E-03    -224.840E-03     16.1823E-03
             886     4.31295E-03     133.187E-03    -103.243E+06    -192.100E+06    -50.2445E+06    -544.219E+03    -224.171E-03     449.103E-03    -224.932E-03     18.4831E-03    -224.339E-03     448.368E-03    -224.755E-03     18.9960E-03
             887     5.03238E-03     133.219E-03    -94.2895E+06    -170.454E+06    -32.6792E+06    -708.225E+03    -223.931E-03     448.807E-03    -224.876E-03     21.1720E-03    -224.114E-03     448.144E-03    -224.655E-03     21.5985E-03
             888     5.75194E-03     133.255E-03    -85.4392E+06    -148.897E+06    -16.9414E+06    -762.657E+03    -223.715E-03     448.519E-03    -224.803E-03     23.7271E-03    -223.912E-03     447.932E-03    -224.548E-03     24.0044E-03
             889     6.47159E-03     133.294E-03    -76.7833E+06    -127.945E+06    -2.81125E+06    -818.894E+03    -223.492E-03     448.211E-03    -224.720E-03     26.1813E-03    -223.701E-03     447.702E-03    -224.437E-03     26.2379E-03
             890     7.19145E-03     133.337E-03    -68.5874E+06    -106.506E+06     9.75124E+06    -943.532E+03    -223.247E-03     447.871E-03    -224.624E-03     28.5252E-03    -223.473E-03     447.447E-03    -224.321E-03     28.2899E-03
             891     7.91155E-03     133.383E-03    -60.7952E+06    -84.8562E+06     21.1606E+06    -897.962E+03    -223.003E-03     447.522E-03    -224.519E-03     30.7070E-03    -223.249E-03     447.189E-03    -224.202E-03     30.1156E-03
             892     8.63193E-03     133.432E-03    -53.2980E+06    -61.3361E+06     31.7938E+06    -898.255E+03    -222.768E-03     447.174E-03    -224.406E-03     32.7020E-03    -223.039E-03     446.946E-03    -224.081E-03     31.6904E-03
             893     9.35231E-03     133.482E-03    -46.0064E+06    -35.7581E+06     41.8944E+06    -688.520E+03    -222.539E-03     446.827E-03    -224.288E-03     34.5617E-03    -222.843E-03     446.720E-03    -223.960E-03     33.0628E-03
             894     10.0729E-03     133.534E-03    -39.2955E+06    -3.65472E+06     52.2657E+06    -384.766E+03    -222.282E-03     446.445E-03    -224.163E-03     36.1079E-03    -222.636E-03     446.495E-03    -223.840E-03     34.0613E-03
             895     10.7937E-03     133.586E-03    -33.1397E+06     34.4314E+06     62.6417E+06     372.633E+03    -221.979E-03     446.009E-03    -224.031E-03     37.0106E-03    -222.397E-03     446.251E-03    -223.719E-03     34.3694E-03
             896     11.5149E-03     133.639E-03    -26.6370E+06     85.5035E+06     75.2658E+06     1.98671E+06    -221.618E-03     445.507E-03    -223.889E-03     36.9839E-03    -222.122E-03     446.001E-03    -223.598E-03     33.7419E-03
             897     12.2361E-03     133.689E-03    -19.7509E+06     126.744E+06     89.1916E+06     2.68644E+06    -221.297E-03     445.065E-03    -223.768E-03     35.7360E-03    -221.866E-03     445.755E-03    -223.477E-03     31.9304E-03
             898     12.9573E-03     133.735E-03    -13.6142E+06     137.459E+06     106.684E+06     2.58746E+06    -221.229E-03     444.948E-03    -223.719E-03     34.1511E-03    -221.836E-03     445.685E-03    -223.365E-03     29.6028E-03
             899     13.6779E-03     133.778E-03    -7.17959E+06     141.145E+06     123.191E+06     1.80528E+06    -221.070E-03     444.755E-03    -223.685E-03     27.2025E-03    -221.634E-03     445.438E-03    -223.264E-03     22.9922E-03
             900     718.429E-06     134.581E-03    -137.788E+06    -284.588E+06    -135.295E+06    -300.601E+03    -225.160E-03     450.301E-03    -225.141E-03     3.61611E-03    -225.240E-03     449.274E-03    -225.205E-03     3.78622E-03
             901     1.43699E-03     134.589E-03    -134.053E+06    -272.842E+06    -124.343E+06    -146.764E+03    -225.039E-03     450.205E-03    -225.166E-03     6.48141E-03    -225.133E-03     449.215E-03    -225.198E-03     6.80164E-03
             902     2.15571E-03     134.602E-03    -128.267E+06    -255.761E+06    -108.259E+06    -137.556E+03    -224.874E-03     450.033E-03    -225.159E-03     9.56651E-03    -224.988E-03     449.098E-03    -225.144E-03     10.0130E-03
             903     2.87443E-03     134.621E-03    -120.929E+06    -235.514E+06    -89.2541E+06    -214.898E+03    -224.689E-03     449.830E-03    -225.141E-03     12.6181E-03    -224.823E-03     448.958E-03    -225.071E-03     13.1462E-03
             904     3.59335E-03     134.644E-03    -112.646E+06    -213.510E+06    -69.4480E+06    -407.694E+03    -224.490E-03     449.601E-03    -225.111E-03     15.5210E-03    -224.644E-03     448.799E-03    -224.986E-03     16.0816E-03
             905     4.31244E-03     134.671E-03    -103.802E+06    -191.145E+06    -50.2884E+06    -725.302E+03    -224.267E-03     449.334E-03    -225.067E-03     18.3284E-03    -224.439E-03     448.605E-03    -224.891E-03     18.8635E-03
             906     5.03162E-03     134.703E-03    -94.8148E+06    -169.767E+06    -32.7744E+06    -995.288E+03    -224.026E-03     449.032E-03    -225.006E-03     21.0046E-03    -224.212E-03     448.374E-03    -224.786E-03     21.4526E-03
             907     5.75107E-03     134.739E-03    -86.0312E+06    -148.397E+06    -17.1073E+06    -1.09395E+06    -223.771E-03     448.699E-03    -224.927E-03     23.5383E-03    -223.971E-03     448.116E-03    -224.673E-03     23.8411E-03
             908     6.47080E-03     134.778E-03    -77.4832E+06    -127.433E+06    -3.10558E+06    -1.22534E+06    -223.502E-03     448.336E-03    -224.834E-03     25.9641E-03    -223.715E-03     447.831E-03    -224.552E-03     26.0454E-03
             909     7.19073E-03     134.820E-03    -69.1868E+06    -105.938E+06     9.55624E+06    -1.38862E+06    -223.216E-03     447.943E-03    -224.727E-03     28.2897E-03    -223.445E-03     447.523E-03    -224.425E-03     28.0782E-03
             910     7.91089E-03     134.866E-03    -61.2012E+06    -84.7023E+06      20.928E+06    -1.45469E+06    -222.934E-03     447.542E-03    -224.609E-03     30.4551E-03    -223.180E-03     447.210E-03    -224.293E-03     29.8922E-03
             911     8.63114E-03     134.913E-03    -53.7165E+06    -61.3741E+06     31.4248E+06    -1.22520E+06    -222.652E-03     447.132E-03    -224.481E-03     32.4519E-03    -222.923E-03     446.904E-03    -224.157E-03     31.4747E-03
             912     9.35178E-03     134.963E-03    -46.7639E+06    -36.2612E+06     41.4491E+06    -915.730E+03    -222.363E-03     446.710E-03    -224.347E-03     34.3034E-03    -222.668E-03     446.600E-03    -224.019E-03     32.8392E-03
             913     10.0726E-03     135.015E-03    -40.2000E+06    -4.91874E+06     51.5762E+06    -113.180E+03    -222.068E-03     446.272E-03    -224.204E-03     35.8402E-03    -222.422E-03     446.316E-03    -223.881E-03     33.8298E-03
             914     10.7935E-03     135.067E-03    -34.1674E+06     31.6853E+06     61.5376E+06     1.27546E+06    -221.787E-03     445.843E-03    -224.056E-03     36.7841E-03    -222.204E-03     446.072E-03    -223.745E-03     34.1740E-03
             915     11.5144E-03     135.119E-03    -28.6308E+06     83.4195E+06     73.6142E+06     2.16048E+06    -221.461E-03     445.361E-03    -223.900E-03     36.7730E-03    -221.968E-03     445.849E-03    -223.611E-03     33.5357E-03
             916     12.2358E-03     135.169E-03    -22.6020E+06     127.059E+06     86.7650E+06     2.18039E+06    -221.176E-03     444.941E-03    -223.765E-03     35.3744E-03    -221.755E-03     445.639E-03    -223.483E-03     31.5566E-03
             917     12.9573E-03     135.215E-03    -15.6942E+06     137.808E+06     103.335E+06     1.49130E+06    -220.881E-03     444.579E-03    -223.698E-03     33.6649E-03    -221.493E-03     445.325E-03    -223.358E-03     29.1010E-03
             918     13.6794E-03     135.258E-03    -6.30411E+06     143.163E+06     122.800E+06     854.206E+03    -220.660E-03     444.313E-03    -223.653E-03     26.5856E-03    -221.221E-03     445.004E-03    -223.238E-03     22.3508E-03
             919     718.415E-06     136.067E-03    -138.719E+06    -283.843E+06    -136.053E+06    -94.2455E+03    -225.302E-03     450.600E-03    -225.298E-03     3.62159E-03    -225.387E-03     449.580E-03    -225.366E-03     3.80035E-03
             920     1.43678E-03     136.075E-03    -135.120E+06    -272.459E+06    -125.284E+06    -238.409E+03    -225.167E-03     450.480E-03    -225.312E-03     6.50143E-03    -225.266E-03     449.495E-03    -225.347E-03     6.83089E-03
             921     2.15522E-03     136.088E-03    -129.235E+06    -255.450E+06    -109.174E+06    -252.033E+03    -224.987E-03     450.284E-03    -225.297E-03     9.55768E-03    -225.105E-03     449.353E-03    -225.285E-03     10.0156E-03
             922     2.87398E-03     136.106E-03    -121.886E+06    -234.884E+06    -89.9314E+06    -376.200E+03    -224.767E-03     450.037E-03    -225.270E-03     12.5490E-03    -224.906E-03     449.170E-03    -225.202E-03     13.0967E-03
             923     3.59289E-03     136.129E-03    -113.348E+06    -212.541E+06    -69.7968E+06    -659.386E+03    -224.551E-03     449.780E-03    -225.229E-03     15.3905E-03    -224.710E-03     448.985E-03    -225.106E-03     15.9728E-03
             924     4.31190E-03     136.156E-03    -104.301E+06    -190.331E+06    -50.5020E+06    -848.947E+03    -224.332E-03     449.509E-03    -225.177E-03     18.1613E-03    -224.508E-03     448.785E-03    -225.002E-03     18.7249E-03
             925     5.03116E-03     136.188E-03    -95.3554E+06    -168.803E+06    -32.8702E+06    -1.06917E+06    -224.086E-03     449.196E-03    -225.110E-03     20.8575E-03    -224.276E-03     448.543E-03    -224.891E-03     21.3388E-03
             926     5.75058E-03     136.223E-03    -86.3810E+06    -147.550E+06    -17.1299E+06    -1.40632E+06    -223.813E-03     448.839E-03    -225.026E-03     23.4219E-03    -224.016E-03     448.261E-03    -224.772E-03     23.7507E-03
             927     6.47018E-03     136.261E-03    -77.7108E+06    -126.622E+06    -3.18143E+06    -1.64306E+06    -223.512E-03     448.436E-03    -224.924E-03     25.8265E-03    -223.727E-03     447.935E-03    -224.644E-03     25.9342E-03
             928     7.19006E-03     136.303E-03    -69.4066E+06    -105.131E+06     9.41020E+06    -1.85321E+06    -223.205E-03     448.013E-03    -224.808E-03     28.1493E-03    -223.435E-03     447.596E-03    -224.508E-03     27.9670E-03
             929     7.91017E-03     136.348E-03    -61.4951E+06    -84.2328E+06     20.7169E+06    -1.96601E+06    -222.905E-03     447.586E-03    -224.681E-03     30.2970E-03    -223.153E-03     447.257E-03    -224.366E-03     29.7618E-03
             930     8.63068E-03     136.395E-03    -53.9709E+06    -61.5921E+06     31.1035E+06    -1.84329E+06    -222.586E-03     447.129E-03    -224.544E-03     32.2308E-03    -222.857E-03     446.900E-03    -224.221E-03     31.2791E-03
             931     9.35125E-03     136.445E-03    -46.5119E+06    -37.0462E+06     41.1569E+06    -1.35573E+06    -222.253E-03     446.652E-03    -224.399E-03     34.0152E-03    -222.554E-03     446.537E-03    -224.072E-03     32.5800E-03
             932     10.0721E-03     136.496E-03    -39.3236E+06    -7.35016E+06     51.0534E+06    -460.301E+03    -221.906E-03     446.149E-03    -224.243E-03     35.5374E-03    -222.250E-03     446.179E-03    -223.920E-03     33.5610E-03
             933     10.7932E-03     136.548E-03    -32.1507E+06     28.2761E+06     61.2063E+06     1.04351E+06    -221.591E-03     445.671E-03    -224.080E-03     36.5442E-03    -221.990E-03     445.879E-03    -223.769E-03     33.9697E-03
             934     11.5146E-03     136.600E-03    -24.9489E+06     81.2546E+06     74.5348E+06     2.77474E+06    -221.270E-03     445.182E-03    -223.912E-03     36.6977E-03    -221.755E-03     445.651E-03    -223.621E-03     33.5066E-03
             935     12.2358E-03     136.649E-03    -18.9546E+06     128.411E+06     88.1605E+06     3.11101E+06    -220.984E-03     444.745E-03    -223.761E-03     35.7193E-03    -221.549E-03     445.443E-03    -223.479E-03     31.9316E-03
             936     12.9569E-03     136.695E-03    -13.1396E+06     142.507E+06     105.217E+06     1.48061E+06    -220.738E-03     444.421E-03    -223.683E-03     34.0219E-03    -221.349E-03     445.186E-03    -223.344E-03     29.4401E-03
             937     13.6783E-03     136.736E-03    -7.10060E+06     144.459E+06     123.044E+06    -221.565E+03    -220.540E-03     444.173E-03    -223.634E-03     26.8174E-03    -221.109E-03     444.873E-03    -223.218E-03     22.5519E-03
             938     718.254E-06     137.554E-03    -139.579E+06    -283.728E+06    -136.678E+06     82.2534E+03    -225.291E-03     450.685E-03    -225.394E-03     3.66610E-03    -225.379E-03     449.667E-03    -225.464E-03     3.85804E-03
             939     1.43669E-03     137.562E-03    -135.521E+06    -271.590E+06    -125.292E+06    -160.678E+03    -225.246E-03     450.609E-03    -225.363E-03     6.57720E-03    -225.348E-03     449.629E-03    -225.400E-03     6.92448E-03
             940     2.15526E-03     137.575E-03    -129.463E+06    -254.815E+06    -108.967E+06    -388.708E+03    -225.098E-03     450.462E-03    -225.364E-03     9.55133E-03    -225.218E-03     449.534E-03    -225.352E-03     10.0263E-03
             941     2.87381E-03     137.592E-03    -121.992E+06    -234.110E+06    -89.9197E+06    -513.352E+03    -224.876E-03     450.223E-03    -225.347E-03     12.5088E-03    -225.016E-03     449.360E-03    -225.280E-03     13.0745E-03
             942     3.59256E-03     137.615E-03    -113.700E+06    -211.572E+06    -70.0259E+06    -731.249E+03    -224.624E-03     449.933E-03    -225.309E-03     15.3480E-03    -224.785E-03     449.143E-03    -225.188E-03     15.9541E-03
             943     4.31157E-03     137.642E-03    -104.917E+06    -189.607E+06    -50.6969E+06    -923.192E+03    -224.370E-03     449.624E-03    -225.254E-03     18.0871E-03    -224.549E-03     448.905E-03    -225.080E-03     18.6810E-03
             944     5.03072E-03     137.673E-03    -95.8385E+06    -167.459E+06    -32.9150E+06    -1.23978E+06    -224.105E-03     449.286E-03    -225.181E-03     20.7325E-03    -224.299E-03     448.640E-03    -224.963E-03     21.2457E-03
             945     5.75013E-03     137.707E-03    -87.0025E+06    -146.401E+06    -17.2525E+06    -1.65060E+06    -223.804E-03     448.892E-03    -225.089E-03     23.2753E-03    -224.011E-03     448.321E-03    -224.836E-03     23.6340E-03
             946     6.46982E-03     137.745E-03    -78.3516E+06    -125.689E+06    -3.35242E+06    -1.97212E+06    -223.488E-03     448.467E-03    -224.979E-03     25.7101E-03    -223.707E-03     447.971E-03    -224.700E-03     25.8534E-03
             947     7.18974E-03     137.787E-03    -70.1892E+06    -104.095E+06     9.06114E+06    -2.19998E+06    -223.181E-03     448.035E-03    -224.854E-03     28.0788E-03    -223.416E-03     447.625E-03    -224.556E-03     27.9383E-03
             948     7.90993E-03     137.831E-03    -62.4360E+06    -83.5243E+06     20.2056E+06    -2.35296E+06    -222.888E-03     447.609E-03    -224.721E-03     30.2519E-03    -223.140E-03     447.284E-03    -224.409E-03     29.7541E-03
             949     8.63016E-03     137.877E-03    -54.9130E+06    -61.2407E+06     30.4824E+06    -2.44442E+06    -222.558E-03     447.137E-03    -224.579E-03     32.1789E-03    -222.832E-03     446.910E-03    -224.258E-03     31.2569E-03
             950     9.35085E-03     137.926E-03    -47.8558E+06    -37.7844E+06     40.0222E+06    -2.30706E+06    -222.194E-03     446.622E-03    -224.427E-03     33.9763E-03    -222.498E-03     446.506E-03    -224.103E-03     32.5664E-03
             951     10.0718E-03     137.976E-03    -40.8922E+06    -8.91191E+06     49.6649E+06    -1.74639E+06    -221.828E-03     446.093E-03    -224.265E-03     35.4591E-03    -222.174E-03     446.118E-03    -223.945E-03     33.5052E-03
             952     10.7930E-03     138.028E-03    -34.2998E+06     24.2601E+06     59.1512E+06    -321.607E+03    -221.445E-03     445.540E-03    -224.095E-03     36.4263E-03    -221.844E-03     445.732E-03    -223.784E-03     33.8750E-03
             953     11.5142E-03     138.079E-03    -27.6478E+06     77.9820E+06     72.1029E+06     1.33209E+06    -220.980E-03     444.889E-03    -223.910E-03     36.5410E-03    -221.468E-03     445.348E-03    -223.622E-03     33.3655E-03
             954     12.2363E-03     138.129E-03    -19.9823E+06     129.234E+06     86.4050E+06     2.08640E+06    -220.571E-03     444.305E-03    -223.734E-03     35.4971E-03    -221.138E-03     445.009E-03    -223.460E-03     31.7338E-03
             955     12.9584E-03     138.174E-03    -12.1844E+06     144.862E+06     105.571E+06     2.25138E+06    -220.470E-03     444.113E-03    -223.643E-03     34.0699E-03    -221.080E-03     444.888E-03    -223.308E-03     29.4982E-03
             956     13.6800E-03     138.216E-03    -6.79342E+06     146.498E+06     124.426E+06     671.082E+03    -220.710E-03     444.309E-03    -223.599E-03     27.2374E-03    -221.284E-03     445.018E-03    -223.180E-03     22.9992E-03
             957     718.474E-06     139.040E-03    -140.315E+06    -283.175E+06    -137.213E+06    -173.439E+03    -225.282E-03     450.706E-03    -225.424E-03     3.53619E-03    -225.374E-03     449.692E-03    -225.496E-03     3.73101E-03
             958     1.43681E-03     139.048E-03    -136.119E+06    -270.971E+06    -126.024E+06    -166.210E+03    -225.246E-03     450.617E-03    -225.371E-03     6.48561E-03    -225.351E-03     449.642E-03    -225.411E-03     6.84404E-03
             959     2.15509E-03     139.061E-03    -130.200E+06    -254.153E+06    -109.526E+06    -219.755E+03    -225.121E-03     450.494E-03    -225.374E-03     9.48192E-03    -225.245E-03     449.571E-03    -225.364E-03     9.97598E-03
             960     2.87369E-03     139.079E-03    -122.755E+06    -233.313E+06    -90.2213E+06    -442.516E+03    -224.909E-03     450.272E-03    -225.363E-03     12.4864E-03    -225.054E-03     449.415E-03    -225.298E-03     13.0738E-03
             961     3.59247E-03     139.101E-03    -114.419E+06    -210.646E+06    -70.1853E+06    -682.179E+03    -224.654E-03     449.983E-03    -225.329E-03     15.3620E-03    -224.820E-03     449.198E-03    -225.209E-03     15.9963E-03
             962     4.31141E-03     139.127E-03    -105.405E+06    -188.388E+06    -50.7689E+06    -1.06145E+06    -224.382E-03     449.656E-03    -225.274E-03     18.1296E-03    -224.564E-03     448.943E-03    -225.102E-03     18.7542E-03
             963     5.03061E-03     139.158E-03    -96.2804E+06    -166.359E+06    -33.1733E+06    -1.34782E+06    -224.092E-03     449.289E-03    -225.197E-03     20.7934E-03    -224.289E-03     448.650E-03    -224.982E-03     21.3407E-03
             964     5.75003E-03     139.192E-03    -87.5109E+06    -145.095E+06    -17.3917E+06    -1.61376E+06    -223.792E-03     448.893E-03    -225.102E-03     23.2967E-03    -224.002E-03     448.329E-03    -224.851E-03     23.6975E-03
             965     6.46972E-03     139.229E-03    -78.9956E+06    -124.388E+06    -3.48957E+06    -1.99620E+06    -223.490E-03     448.480E-03    -224.990E-03     25.6506E-03    -223.713E-03     447.991E-03    -224.713E-03     25.8389E-03
             966     7.18966E-03     139.270E-03    -70.7373E+06    -103.099E+06     8.92958E+06    -2.21557E+06    -223.169E-03     448.034E-03    -224.865E-03     27.9249E-03    -223.407E-03     447.628E-03    -224.568E-03     27.8314E-03
             967     7.90980E-03     139.313E-03    -63.0203E+06    -82.5298E+06     20.0223E+06    -2.37276E+06    -222.823E-03     447.551E-03    -224.728E-03     30.1044E-03    -223.078E-03     447.231E-03    -224.416E-03     29.6540E-03
             968     8.63035E-03     139.359E-03    -55.8044E+06    -60.6143E+06     30.0856E+06    -2.57523E+06    -222.484E-03     447.063E-03    -224.579E-03     32.0813E-03    -222.761E-03     446.840E-03    -224.260E-03     31.2044E-03
             969     9.35099E-03     139.407E-03    -48.8843E+06    -37.5321E+06     39.5600E+06    -2.54980E+06    -222.156E-03     446.580E-03    -224.424E-03     33.9105E-03    -222.463E-03     446.466E-03    -224.101E-03     32.5392E-03
             970     10.0718E-03     139.457E-03    -42.3427E+06    -9.49562E+06     48.9065E+06    -2.32449E+06    -221.797E-03     446.058E-03    -224.260E-03     35.4369E-03    -222.147E-03     446.081E-03    -223.940E-03     33.5093E-03
             971     10.7930E-03     139.508E-03    -35.3700E+06     20.9810E+06     57.8351E+06    -1.49860E+06    -221.407E-03     445.495E-03    -224.088E-03     36.3838E-03    -221.804E-03     445.673E-03    -223.778E-03     33.8397E-03
             972     11.5147E-03     139.559E-03    -28.0396E+06     75.7495E+06     71.1785E+06    -440.788E+03    -220.966E-03     444.868E-03    -223.901E-03     36.4112E-03    -221.451E-03     445.316E-03    -223.615E-03     33.2260E-03
             973     12.2361E-03     139.608E-03    -21.2779E+06     129.477E+06     85.3476E+06    -9.70856E+03    -220.583E-03     444.306E-03    -223.723E-03     34.9311E-03    -221.153E-03     445.013E-03    -223.453E-03     31.1480E-03
             974     12.9579E-03     139.653E-03    -14.7416E+06     144.028E+06     102.161E+06     188.136E+03    -220.362E-03     443.985E-03    -223.623E-03     33.0474E-03    -220.974E-03     444.760E-03    -223.300E-03     28.4685E-03
             975     13.6801E-03     139.695E-03    -7.47068E+06     147.336E+06     123.105E+06     801.730E+03    -220.471E-03     444.048E-03    -223.577E-03     26.5364E-03    -221.044E-03     444.760E-03    -223.164E-03     22.3201E-03
             976     718.127E-06     140.527E-03    -140.733E+06    -282.361E+06    -138.392E+06    -191.219E+03    -225.343E-03     450.697E-03    -225.353E-03     3.53418E-03    -225.437E-03     449.690E-03    -225.432E-03     3.74120E-03
             977     1.43661E-03     140.535E-03    -137.122E+06    -270.556E+06    -126.960E+06    -223.010E+03    -225.160E-03     450.511E-03    -225.351E-03     6.50627E-03    -225.269E-03     449.541E-03    -225.394E-03     6.87472E-03
             978     2.15531E-03     140.548E-03    -131.095E+06    -253.437E+06    -110.395E+06    -385.977E+03    -225.000E-03     450.325E-03    -225.325E-03     9.56158E-03    -225.128E-03     449.408E-03    -225.319E-03     10.0718E-03
             979     2.87390E-03     140.565E-03    -123.359E+06    -232.272E+06    -90.5884E+06    -677.473E+03    -224.826E-03     450.126E-03    -225.301E-03     12.5832E-03    -224.975E-03     449.275E-03    -225.238E-03     13.1901E-03
             980     3.59267E-03     140.587E-03    -114.459E+06    -209.599E+06    -70.0605E+06    -959.899E+03    -224.610E-03     449.877E-03    -225.268E-03     15.5067E-03    -224.777E-03     449.098E-03    -225.148E-03     16.1682E-03
             981     4.31165E-03     140.613E-03    -105.302E+06    -187.299E+06    -50.6634E+06    -1.10459E+06    -224.369E-03     449.586E-03    -225.217E-03     18.2486E-03    -224.552E-03     448.878E-03    -225.046E-03     18.9049E-03
             982     5.03089E-03     140.642E-03    -96.2282E+06    -165.319E+06    -32.9492E+06    -1.31487E+06    -224.084E-03     449.231E-03    -225.147E-03     20.8169E-03    -224.282E-03     448.596E-03    -224.933E-03     21.4008E-03
             983     5.75035E-03     140.676E-03    -87.1127E+06    -143.787E+06    -16.9696E+06    -1.65166E+06    -223.796E-03     448.854E-03    -225.058E-03     23.2826E-03    -224.007E-03     448.294E-03    -224.808E-03     23.7266E-03
             984     6.46996E-03     140.713E-03    -78.5009E+06    -122.974E+06    -2.91397E+06    -1.94785E+06    -223.515E-03     448.469E-03    -224.954E-03     25.6582E-03    -223.738E-03     447.985E-03    -224.676E-03     25.8903E-03
             985     7.18977E-03     140.753E-03    -70.4180E+06    -102.167E+06     9.40129E+06    -2.14851E+06    -223.181E-03     448.015E-03    -224.834E-03     27.9144E-03    -223.418E-03     447.612E-03    -224.536E-03     27.8633E-03
             986     7.91002E-03     140.796E-03    -62.7104E+06    -81.7631E+06     20.4137E+06    -2.22172E+06    -222.806E-03     447.505E-03    -224.699E-03     30.0121E-03    -223.060E-03     447.187E-03    -224.388E-03     29.6074E-03
             987     8.63046E-03     140.841E-03    -55.3683E+06    -59.7453E+06     30.5712E+06    -2.27356E+06    -222.452E-03     447.003E-03    -224.551E-03     31.9054E-03    -222.728E-03     446.782E-03    -224.232E-03     31.0814E-03
             988     9.35122E-03     140.889E-03    -48.4642E+06    -37.0445E+06     39.8829E+06    -2.33460E+06    -222.112E-03     446.507E-03    -224.395E-03     33.6759E-03    -222.416E-03     446.393E-03    -224.072E-03     32.3550E-03
             989     10.0722E-03     140.938E-03    -41.7383E+06    -9.95158E+06     49.0360E+06    -2.05484E+06    -221.762E-03     445.992E-03    -224.231E-03     35.2388E-03    -222.106E-03     446.011E-03    -223.911E-03     33.3522E-03
             990     10.7935E-03     140.988E-03    -35.4888E+06     20.8968E+06     57.8399E+06    -2.37562E+06    -221.468E-03     445.529E-03    -224.062E-03     36.2125E-03    -221.863E-03     445.706E-03    -223.751E-03     33.6818E-03
             991     11.5146E-03     141.038E-03    -29.1065E+06     74.4864E+06     70.5441E+06    -2.51080E+06    -221.116E-03     444.999E-03    -223.883E-03     36.3144E-03    -221.603E-03     445.442E-03    -223.596E-03     33.1116E-03
             992     12.2363E-03     141.087E-03    -21.8322E+06     128.145E+06     84.2295E+06    -1.49561E+06    -220.818E-03     444.532E-03    -223.714E-03     35.1146E-03    -221.388E-03     445.235E-03    -223.447E-03     31.2960E-03
             993     12.9576E-03     141.132E-03    -14.3121E+06     143.927E+06     100.355E+06    -1.09023E+06    -220.572E-03     444.192E-03    -223.620E-03     33.3864E-03    -221.180E-03     444.969E-03    -223.306E-03     28.7989E-03
             994     13.6791E-03     141.174E-03    -5.77771E+06     146.919E+06     121.958E+06    -273.067E+03    -220.070E-03     443.640E-03    -223.570E-03     27.0004E-03    -220.634E-03     444.352E-03    -223.165E-03     22.7338E-03
             995     718.563E-06     142.014E-03    -141.823E+06    -281.644E+06    -139.017E+06    -160.948E+03    -225.153E-03     450.342E-03    -225.189E-03     3.63434E-03    -225.252E-03     449.341E-03    -225.270E-03     3.84957E-03
             996     1.43694E-03     142.021E-03    -137.786E+06    -269.456E+06    -127.409E+06    -534.489E+03    -225.029E-03     450.213E-03    -225.184E-03     6.68055E-03    -225.143E-03     449.250E-03    -225.230E-03     7.05448E-03
             997     2.15547E-03     142.034E-03    -131.358E+06    -252.172E+06    -110.647E+06    -974.553E+03    -224.851E-03     450.019E-03    -225.168E-03     9.76656E-03    -224.982E-03     449.109E-03    -225.165E-03     10.2825E-03
             998     2.87432E-03     142.051E-03    -123.439E+06    -231.101E+06    -90.8733E+06    -1.22894E+06    -224.688E-03     449.834E-03    -225.146E-03     12.7307E-03    -224.839E-03     448.990E-03    -225.087E-03     13.3534E-03
             999     3.59325E-03     142.072E-03    -114.736E+06    -208.613E+06    -70.3512E+06    -1.31035E+06    -224.513E-03     449.633E-03    -225.120E-03     15.6116E-03    -224.683E-03     448.859E-03    -225.003E-03     16.2951E-03
            1000     4.31230E-03     142.098E-03    -105.563E+06    -186.235E+06    -50.6471E+06    -1.49345E+06    -224.311E-03     449.394E-03    -225.083E-03     18.3572E-03    -224.497E-03     448.691E-03    -224.913E-03     19.0370E-03
            1001     5.03142E-03     142.127E-03    -95.9862E+06    -163.964E+06    -32.5866E+06    -1.90842E+06    -224.075E-03     449.102E-03    -225.028E-03     20.9332E-03    -224.274E-03     448.473E-03    -224.814E-03     21.5421E-03
            1002     5.75082E-03     142.160E-03    -86.5501E+06    -142.496E+06    -16.5126E+06    -2.19254E+06    -223.798E-03     448.751E-03    -224.953E-03     23.4096E-03    -224.008E-03     448.196E-03    -224.703E-03     23.8867E-03
            1003     6.47054E-03     142.197E-03    -77.5624E+06    -121.931E+06    -2.37630E+06    -2.34354E+06    -223.501E-03     448.360E-03    -224.859E-03     25.7486E-03    -223.720E-03     447.878E-03    -224.582E-03     26.0183E-03
            1004     7.19051E-03     142.236E-03    -69.0351E+06    -101.418E+06     10.0745E+06    -2.44137E+06    -223.207E-03     447.956E-03    -224.749E-03     27.9524E-03    -223.439E-03     447.553E-03    -224.451E-03     27.9394E-03
            1005     7.91060E-03     142.278E-03    -60.9117E+06    -81.1421E+06     21.1686E+06    -2.47849E+06    -222.897E-03     447.523E-03    -224.627E-03     29.9727E-03    -223.142E-03     447.203E-03    -224.315E-03     29.6096E-03
            1006     8.63102E-03     142.323E-03    -53.2468E+06    -59.0321E+06     31.3677E+06    -2.47953E+06    -222.530E-03     447.021E-03    -224.491E-03     31.8224E-03    -222.796E-03     446.798E-03    -224.171E-03     31.0430E-03
            1007     9.35169E-03     142.370E-03    -45.9284E+06    -36.4386E+06     40.9706E+06    -2.47006E+06    -222.153E-03     446.498E-03    -224.345E-03     33.4989E-03    -222.445E-03     446.379E-03    -224.020E-03     32.2213E-03
            1008     10.0727E-03     142.418E-03    -39.0444E+06    -9.78189E+06     50.1972E+06    -2.58105E+06    -221.792E-03     445.979E-03    -224.187E-03     34.9919E-03    -222.123E-03     445.991E-03    -223.865E-03     33.1408E-03
            1009     10.7938E-03     142.468E-03    -32.4505E+06     21.8302E+06     59.4551E+06    -2.21300E+06    -221.462E-03     445.483E-03    -224.021E-03     36.1327E-03    -221.843E-03     445.655E-03    -223.709E-03     33.6567E-03
            1010     11.5151E-03     142.518E-03    -26.5568E+06     75.0160E+06     71.9200E+06    -2.16108E+06    -221.090E-03     444.933E-03    -223.844E-03     36.5439E-03    -221.564E-03     445.371E-03    -223.554E-03     33.3977E-03
            1011     12.2365E-03     142.566E-03    -20.9994E+06     126.614E+06     83.9302E+06    -2.66278E+06    -220.721E-03     444.390E-03    -223.669E-03     35.7808E-03    -221.284E-03     445.085E-03    -223.403E-03     31.9850E-03
            1012     12.9582E-03     142.612E-03    -14.0841E+06     142.791E+06     99.7727E+06    -2.29013E+06    -220.476E-03     444.046E-03    -223.570E-03     34.3356E-03    -221.083E-03     444.820E-03    -223.258E-03     29.7348E-03
            1013     13.6803E-03     142.652E-03    -6.81396E+06     146.141E+06     120.806E+06    -1.19610E+06    -220.315E-03     443.839E-03    -223.524E-03     27.5176E-03    -220.884E-03     444.552E-03    -223.122E-03     23.2391E-03
            1014     718.610E-06     143.500E-03    -142.494E+06    -279.953E+06    -139.549E+06    -536.720E+03    -224.851E-03     449.690E-03    -224.840E-03     3.74733E-03    -224.955E-03     448.700E-03    -224.925E-03     3.95433E-03
            1015     1.43741E-03     143.507E-03    -138.185E+06    -267.774E+06    -127.939E+06    -883.677E+03    -224.786E-03     449.660E-03    -224.874E-03     6.74776E-03    -224.903E-03     448.706E-03    -224.925E-03     7.12616E-03
            1016     2.15623E-03     143.519E-03    -132.081E+06    -250.402E+06    -111.165E+06    -1.21626E+06    -224.682E-03     449.575E-03    -224.893E-03     9.89734E-03    -224.818E-03     448.675E-03    -224.894E-03     10.4229E-03
            1017     2.87504E-03     143.536E-03    -124.338E+06    -229.567E+06    -91.3785E+06    -1.71756E+06    -224.526E-03     449.426E-03    -224.900E-03     12.9205E-03    -224.682E-03     448.590E-03    -224.844E-03     13.5546E-03
            1018     3.59398E-03     143.557E-03    -115.328E+06    -207.270E+06    -70.7746E+06    -2.07219E+06    -224.367E-03     449.260E-03    -224.893E-03     15.8239E-03    -224.541E-03     448.494E-03    -224.779E-03     16.5192E-03
            1019     4.31310E-03     143.583E-03    -105.697E+06    -184.444E+06    -50.9347E+06    -2.54229E+06    -224.178E-03     449.047E-03    -224.869E-03     18.5748E-03    -224.366E-03     448.353E-03    -224.703E-03     19.2706E-03
            1020     5.03250E-03     143.612E-03    -96.0873E+06    -162.299E+06    -32.8670E+06    -2.98081E+06    -223.987E-03     448.814E-03    -224.828E-03     21.1806E-03    -224.188E-03     448.193E-03    -224.618E-03     21.8117E-03
            1021     5.75195E-03     143.644E-03    -86.6670E+06    -141.137E+06    -16.8178E+06    -3.30613E+06    -223.790E-03     448.561E-03    -224.771E-03     23.6373E-03    -224.001E-03     448.012E-03    -224.525E-03     24.1359E-03
            1022     6.47157E-03     143.680E-03    -77.4474E+06    -120.932E+06    -2.63788E+06    -3.51524E+06    -223.540E-03     448.239E-03    -224.699E-03     25.8844E-03    -223.759E-03     447.762E-03    -224.425E-03     26.1786E-03
            1023     7.19143E-03     143.719E-03    -68.5366E+06    -100.467E+06     10.0054E+06    -3.63149E+06    -223.274E-03     447.884E-03    -224.610E-03     28.0180E-03    -223.503E-03     447.485E-03    -224.315E-03     28.0349E-03
            1024     7.91153E-03     143.761E-03    -60.0593E+06    -80.4136E+06     21.3078E+06    -3.70743E+06    -222.997E-03     447.505E-03    -224.509E-03     29.9668E-03    -223.238E-03     447.186E-03    -224.198E-03     29.6364E-03
            1025     8.63181E-03     143.805E-03    -52.0466E+06    -58.1677E+06     31.8150E+06    -3.75293E+06    -222.649E-03     447.041E-03    -224.392E-03     31.7434E-03    -222.909E-03     446.818E-03    -224.073E-03     30.9965E-03
            1026     9.35244E-03     143.851E-03    -44.4328E+06    -36.2568E+06     41.4677E+06    -3.67121E+06    -222.280E-03     446.543E-03    -224.263E-03     33.4299E-03    -222.564E-03     446.421E-03    -223.939E-03     32.1895E-03
            1027     10.0732E-03     143.899E-03    -37.2311E+06    -9.00238E+06     51.1356E+06    -3.46589E+06    -221.887E-03     446.007E-03    -224.120E-03     34.9077E-03    -222.209E-03     446.016E-03    -223.797E-03     33.1036E-03
            1028     10.7945E-03     143.948E-03    -30.3667E+06     21.4313E+06     60.3210E+06    -3.25383E+06    -221.446E-03     445.408E-03    -223.962E-03     35.9737E-03    -221.816E-03     445.571E-03    -223.647E-03     33.5301E-03
            1029     11.5161E-03     143.998E-03    -23.4420E+06     73.9154E+06     72.6843E+06    -2.07766E+06    -220.992E-03     444.775E-03    -223.783E-03     36.2975E-03    -221.448E-03     445.200E-03    -223.493E-03     33.1926E-03
            1030     12.2379E-03     144.046E-03    -17.4409E+06     127.677E+06     86.0407E+06    -1.10568E+06    -220.619E-03     444.228E-03    -223.609E-03     35.2753E-03    -221.166E-03     444.917E-03    -223.339E-03     31.5185E-03
            1031     12.9600E-03     144.090E-03    -13.0470E+06     142.398E+06     100.293E+06    -1.05500E+06    -220.549E-03     444.059E-03    -223.510E-03     33.5633E-03    -221.149E-03     444.828E-03    -223.196E-03     28.9611E-03
            1032     13.6816E-03     144.132E-03    -8.10565E+06     144.140E+06     118.876E+06    -1.62345E+06    -220.751E-03     444.226E-03    -223.475E-03     26.6895E-03    -221.317E-03     444.930E-03    -223.078E-03     22.4356E-03
            1033     719.017E-06     144.984E-03    -144.089E+06    -277.778E+06    -141.229E+06    -601.781E+03    -224.563E-03     448.920E-03    -224.356E-03     3.76267E-03    -224.676E-03     447.944E-03    -224.451E-03     3.97655E-03
            1034     1.43797E-03     144.992E-03    -139.811E+06    -265.675E+06    -129.382E+06    -1.15293E+06    -224.405E-03     448.895E-03    -224.490E-03     6.87835E-03    -224.531E-03     447.957E-03    -224.549E-03     7.26530E-03
            1035     2.15687E-03     145.004E-03    -133.415E+06    -247.899E+06    -112.268E+06    -1.84580E+06    -224.355E-03     448.873E-03    -224.518E-03     10.1174E-03    -224.499E-03     447.989E-03    -224.527E-03     10.6515E-03
            1036     2.87596E-03     145.021E-03    -125.341E+06    -227.214E+06    -92.2095E+06    -2.41214E+06    -224.279E-03     448.826E-03    -224.547E-03     13.2652E-03    -224.442E-03     448.005E-03    -224.497E-03     13.9055E-03
            1037     3.59517E-03     145.042E-03    -116.259E+06    -204.870E+06    -71.5598E+06    -3.13030E+06    -224.159E-03     448.724E-03    -224.565E-03     16.1994E-03    -224.339E-03     447.972E-03    -224.457E-03     16.8985E-03
            1038     4.31447E-03     145.067E-03    -106.643E+06    -182.162E+06    -51.8539E+06    -3.77395E+06    -224.015E-03     448.579E-03    -224.564E-03     18.9199E-03    -224.210E-03     447.899E-03    -224.404E-03     19.6243E-03
            1039     5.03381E-03     145.096E-03    -96.9378E+06    -160.159E+06    -33.7143E+06    -4.24372E+06    -223.890E-03     448.437E-03    -224.547E-03     21.5032E-03    -224.097E-03     447.829E-03    -224.343E-03     22.1529E-03
            1040     5.75336E-03     145.128E-03    -87.4042E+06    -139.253E+06    -17.5818E+06    -4.69059E+06    -223.753E-03     448.271E-03    -224.517E-03     23.8764E-03    -223.969E-03     447.732E-03    -224.276E-03     24.3933E-03
            1041     6.47299E-03     145.164E-03    -78.1568E+06    -119.282E+06    -3.41598E+06    -5.11196E+06    -223.587E-03     448.060E-03    -224.473E-03     26.1250E-03    -223.810E-03     447.592E-03    -224.204E-03     26.4386E-03
            1042     7.19278E-03     145.202E-03    -69.3371E+06    -99.0716E+06     9.17707E+06    -5.39204E+06    -223.368E-03     447.782E-03    -224.414E-03     28.2504E-03    -223.601E-03     447.391E-03    -224.124E-03     28.2906E-03
            1043     7.91280E-03     145.244E-03    -60.8817E+06    -79.2206E+06     20.6101E+06    -5.51581E+06    -223.105E-03     447.445E-03    -224.340E-03     30.1450E-03    -223.350E-03     447.132E-03    -224.034E-03     29.8391E-03
            1044     8.63304E-03     145.287E-03    -52.8342E+06    -57.7258E+06     31.0100E+06    -5.39112E+06    -222.803E-03     447.052E-03    -224.249E-03     31.8015E-03    -223.065E-03     446.831E-03    -223.933E-03     31.0826E-03
            1045     9.35351E-03     145.332E-03    -45.3995E+06    -35.8450E+06     40.6016E+06    -5.12504E+06    -222.454E-03     446.597E-03    -224.143E-03     33.4032E-03    -222.740E-03     446.477E-03    -223.822E-03     32.1966E-03
            1046     10.0743E-03     145.380E-03    -38.3108E+06    -9.36719E+06     49.9472E+06    -4.65697E+06    -222.066E-03     446.087E-03    -224.020E-03     34.7425E-03    -222.388E-03     446.095E-03    -223.702E-03     32.9693E-03
            1047     10.7953E-03     145.428E-03    -31.7986E+06     20.7279E+06     58.8515E+06    -3.81029E+06    -221.662E-03     445.544E-03    -223.882E-03     35.6320E-03    -222.033E-03     445.705E-03    -223.572E-03     33.2062E-03
            1048     11.5165E-03     145.477E-03    -25.6165E+06     72.3241E+06     70.7168E+06    -3.44525E+06    -221.193E-03     444.915E-03    -223.722E-03     35.8230E-03    -221.652E-03     445.335E-03    -223.436E-03     32.7110E-03
            1049     12.2381E-03     145.525E-03    -18.2444E+06     125.832E+06     84.3769E+06    -1.83045E+06    -220.885E-03     444.451E-03    -223.566E-03     34.6371E-03    -221.430E-03     445.133E-03    -223.300E-03     30.8624E-03
            1050     12.9593E-03     145.569E-03    -11.1700E+06     141.909E+06     98.7271E+06    -701.433E+03    -220.831E-03     444.310E-03    -223.479E-03     33.1030E-03    -221.417E-03     445.075E-03    -223.175E-03     28.4940E-03
            1051     13.6804E-03     145.611E-03    -4.49579E+06     143.361E+06     118.107E+06    -654.875E+03    -220.794E-03     444.249E-03    -223.455E-03     26.6112E-03    -221.339E-03     444.945E-03    -223.066E-03     22.3498E-03
            1052     719.234E-06     146.468E-03    -146.119E+06    -274.907E+06    -143.206E+06    -804.542E+03    -223.920E-03     447.944E-03    -224.025E-03     3.78032E-03    -224.044E-03     446.989E-03    -224.130E-03     3.99568E-03
            1053     1.43855E-03     146.475E-03    -141.838E+06    -262.202E+06    -131.182E+06    -1.75103E+06    -223.928E-03     447.933E-03    -224.005E-03     7.14080E-03    -224.066E-03     447.017E-03    -224.075E-03     7.52127E-03
            1054     2.15805E-03     146.488E-03    -135.170E+06    -244.611E+06    -113.958E+06    -2.69348E+06    -223.911E-03     447.952E-03    -224.041E-03     10.4516E-03    -224.066E-03     447.089E-03    -224.060E-03     10.9833E-03
            1055     2.87742E-03     146.504E-03    -126.960E+06    -224.059E+06    -93.7597E+06    -3.53281E+06    -223.909E-03     447.996E-03    -224.087E-03     13.6329E-03    -224.082E-03     447.195E-03    -224.047E-03     14.2750E-03
            1056     3.59668E-03     146.526E-03    -117.809E+06    -201.493E+06    -72.8930E+06    -4.38630E+06    -223.871E-03     448.002E-03    -224.130E-03     16.6068E-03    -224.062E-03     447.270E-03    -224.032E-03     17.3033E-03
            1057     4.31613E-03     146.550E-03    -108.125E+06    -179.128E+06    -52.9096E+06    -5.13575E+06    -223.845E-03     448.009E-03    -224.164E-03     19.3919E-03    -224.049E-03     447.347E-03    -224.012E-03     20.0966E-03
            1058     5.03566E-03     146.579E-03    -98.2259E+06    -157.384E+06    -34.7305E+06    -5.82888E+06    -223.797E-03     447.982E-03    -224.185E-03     21.9526E-03    -224.012E-03     447.390E-03    -223.988E-03     22.6050E-03
            1059     5.75516E-03     146.611E-03    -88.3839E+06    -136.689E+06    -18.5659E+06    -6.46560E+06    -223.702E-03     447.892E-03    -224.191E-03     24.3084E-03    -223.923E-03     447.369E-03    -223.957E-03     24.8323E-03
            1060     6.47487E-03     146.647E-03     -78.817E+06    -117.014E+06    -4.32749E+06    -6.87275E+06    -223.613E-03     447.794E-03    -224.181E-03     26.5125E-03    -223.840E-03     447.338E-03    -223.919E-03     26.8409E-03
            1061     7.19464E-03     146.685E-03    -69.9374E+06    -97.2810E+06     8.24501E+06    -7.13792E+06    -223.480E-03     447.637E-03    -224.157E-03     28.5039E-03    -223.716E-03     447.256E-03    -223.873E-03     28.5601E-03
            1062     7.91455E-03     146.726E-03    -61.5270E+06    -77.9762E+06     19.4131E+06    -7.18484E+06    -223.276E-03     447.394E-03    -224.118E-03     30.3023E-03    -223.523E-03     447.090E-03    -223.819E-03     30.0154E-03
            1063     8.63466E-03     146.769E-03    -53.5084E+06    -57.1695E+06     29.6159E+06    -7.03430E+06    -223.047E-03     447.109E-03    -224.062E-03     31.8340E-03    -223.310E-03     446.893E-03    -223.754E-03     31.1367E-03
            1064     9.35494E-03     146.814E-03    -46.0225E+06    -35.7000E+06     39.0994E+06    -6.54932E+06    -222.753E-03     446.745E-03    -223.992E-03     33.2187E-03    -223.038E-03     446.626E-03    -223.678E-03     32.0319E-03
            1065     10.0754E-03     146.861E-03    -39.0337E+06    -10.2374E+06     48.0995E+06    -5.74472E+06    -222.377E-03     446.278E-03    -223.901E-03     34.4540E-03    -222.696E-03     446.283E-03    -223.589E-03     32.7013E-03
            1066     10.7962E-03     146.909E-03    -32.3304E+06     19.3959E+06     56.8871E+06    -4.80659E+06    -222.007E-03     445.800E-03    -223.793E-03     35.3211E-03    -222.374E-03     445.955E-03    -223.490E-03     32.9205E-03
            1067     11.5173E-03     146.957E-03    -26.0810E+06     72.3620E+06     69.6500E+06    -3.46721E+06    -221.570E-03     445.233E-03    -223.663E-03     35.5895E-03    -222.028E-03     445.653E-03    -223.382E-03     32.5061E-03
            1068     12.2384E-03     147.004E-03    -20.8948E+06     123.474E+06     81.1440E+06    -3.33052E+06    -221.169E-03     444.694E-03    -223.525E-03     34.8350E-03    -221.717E-03     445.371E-03    -223.268E-03     31.0680E-03
            1069     12.9598E-03     147.049E-03    -14.4643E+06     139.149E+06     95.5900E+06    -3.06636E+06    -220.852E-03     444.303E-03    -223.451E-03     33.5112E-03    -221.447E-03     445.064E-03    -223.154E-03     28.8815E-03
            1070     13.6819E-03     147.090E-03    -8.28767E+06     142.879E+06     117.120E+06    -176.834E+03    -220.867E-03     444.306E-03    -223.439E-03     27.1996E-03    -221.430E-03     445.007E-03    -223.048E-03     22.9521E-03
            1071     719.791E-06     147.950E-03    -147.584E+06    -270.393E+06    -144.528E+06    -1.44428E+06    -223.229E-03     446.723E-03    -223.493E-03     4.10053E-03    -223.365E-03     445.794E-03    -223.610E-03     4.30702E-03
            1072     1.43954E-03     147.957E-03    -142.961E+06    -257.845E+06    -132.547E+06     -2.3542E+06    -223.404E-03     446.814E-03    -223.411E-03     7.38737E-03    -223.552E-03     445.924E-03    -223.492E-03     7.76069E-03
            1073     2.15913E-03     147.970E-03    -136.624E+06    -240.098E+06    -115.205E+06    -3.44204E+06    -223.436E-03     446.914E-03    -223.478E-03     10.7530E-03    -223.603E-03     446.077E-03    -223.508E-03     11.2714E-03
            1074     2.87880E-03     147.987E-03    -128.397E+06    -219.643E+06    -94.7845E+06    -4.72293E+06    -223.433E-03     446.981E-03    -223.548E-03     13.9793E-03    -223.618E-03     446.205E-03    -223.517E-03     14.6069E-03
            1075     3.59864E-03     148.008E-03    -118.972E+06    -197.419E+06    -73.7724E+06    -5.77068E+06    -223.494E-03     447.107E-03    -223.613E-03     17.0697E-03    -223.695E-03     446.399E-03    -223.523E-03     17.7584E-03
            1076     4.31828E-03     148.033E-03    -109.099E+06    -174.988E+06    -53.7491E+06    -6.75802E+06    -223.608E-03     447.288E-03    -223.680E-03     19.9395E-03    -223.821E-03     446.649E-03    -223.537E-03     20.6368E-03
            1077     5.03778E-03     148.062E-03    -99.1600E+06    -153.788E+06    -35.6379E+06    -7.65125E+06    -223.655E-03     447.398E-03    -223.743E-03     22.4722E-03    -223.878E-03     446.826E-03    -223.554E-03     23.1122E-03
            1078     5.75752E-03     148.094E-03    -89.5160E+06    -133.557E+06    -19.6481E+06    -8.19993E+06    -223.682E-03     447.474E-03    -223.792E-03     24.8007E-03    -223.912E-03     446.969E-03    -223.567E-03     25.3231E-03
            1079     6.47713E-03     148.130E-03    -80.3488E+06    -114.367E+06    -5.66143E+06    -8.61128E+06    -223.684E-03     447.513E-03    -223.829E-03     26.8916E-03    -223.920E-03     447.074E-03    -223.575E-03     27.2243E-03
            1080     7.19680E-03     148.168E-03    -71.4534E+06    -95.1462E+06     6.70124E+06    -8.92245E+06    -223.629E-03     447.479E-03    -223.850E-03     28.7673E-03    -223.872E-03     447.112E-03    -223.575E-03     28.8285E-03
            1081     7.91658E-03     148.208E-03    -63.0229E+06    -76.4561E+06     17.5852E+06    -9.04291E+06    -223.529E-03     447.386E-03    -223.856E-03     30.4214E-03    -223.782E-03     447.092E-03    -223.566E-03     30.1440E-03
            1082     8.63645E-03     148.251E-03    -55.0251E+06    -56.1336E+06     27.5662E+06    -8.95050E+06    -223.348E-03     447.192E-03    -223.844E-03     31.8693E-03    -223.615E-03     446.985E-03    -223.545E-03     31.1870E-03
            1083     9.35641E-03     148.296E-03    -47.3452E+06    -35.9393E+06     36.7361E+06    -8.48850E+06    -223.086E-03     446.901E-03    -223.815E-03     33.1735E-03    -223.372E-03     446.784E-03    -223.510E-03     32.0021E-03
            1084     10.0767E-03     148.342E-03    -39.9171E+06    -10.9143E+06     45.8478E+06    -7.64148E+06    -222.727E-03     446.488E-03    -223.761E-03     34.3972E-03    -223.044E-03     446.492E-03    -223.458E-03     32.6687E-03
            1085     10.7972E-03     148.389E-03    -32.9228E+06     17.9678E+06     54.8079E+06    -6.54942E+06    -222.321E-03     446.006E-03    -223.685E-03     35.3413E-03    -222.682E-03     446.155E-03    -223.389E-03     32.9722E-03
            1086     11.5178E-03     148.437E-03    -25.9935E+06     69.6371E+06     67.4207E+06    -5.05261E+06    -221.843E-03     445.422E-03    -223.579E-03     35.7598E-03    -222.290E-03     445.829E-03    -223.306E-03     32.7009E-03
            1087     12.2390E-03     148.484E-03    -18.5660E+06     123.084E+06     80.8076E+06    -3.46264E+06    -221.396E-03     444.859E-03    -223.463E-03     35.0377E-03    -221.930E-03     445.530E-03    -223.211E-03     31.2984E-03
            1088     12.9603E-03     148.528E-03    -12.7974E+06     138.442E+06       95.65E+06    -1.35188E+06    -221.174E-03     444.584E-03    -223.410E-03     33.3626E-03    -221.759E-03     445.337E-03    -223.114E-03     28.7490E-03
            1089     13.6814E-03     148.569E-03    -7.34504E+06     139.901E+06     116.412E+06    -894.945E+03    -221.109E-03     444.524E-03    -223.415E-03     27.1639E-03    -221.662E-03     445.209E-03    -223.025E-03     22.9258E-03
            1090     720.233E-06     149.430E-03    -148.420E+06    -264.688E+06    -145.500E+06    -1.59230E+06    -222.762E-03     445.407E-03    -222.644E-03     4.21954E-03    -222.909E-03     444.509E-03    -222.773E-03     4.42725E-03
            1091     1.44038E-03     149.438E-03    -144.068E+06    -252.397E+06     -133.31E+06    -3.03897E+06    -222.782E-03     445.542E-03    -222.761E-03     7.64125E-03    -222.942E-03     444.682E-03    -222.852E-03     8.00460E-03
            1092     2.16053E-03     149.450E-03    -137.257E+06    -234.444E+06    -115.768E+06    -4.52361E+06    -222.844E-03     445.686E-03    -222.842E-03     11.1718E-03    -223.021E-03     444.879E-03    -222.882E-03     11.6718E-03
            1093     2.88066E-03     149.467E-03    -129.094E+06    -214.041E+06    -95.2868E+06    -5.82991E+06    -222.940E-03     445.874E-03    -222.933E-03     14.4795E-03    -223.136E-03     445.127E-03    -222.912E-03     15.0875E-03
            1094     3.60064E-03     149.489E-03    -119.673E+06    -192.065E+06    -74.2193E+06    -7.19046E+06    -223.114E-03     446.147E-03    -223.033E-03     17.6249E-03    -223.324E-03     445.466E-03    -222.952E-03     18.3013E-03
            1095     4.32055E-03     149.515E-03    -109.608E+06    -170.219E+06    -54.3639E+06    -8.35812E+06    -223.295E-03     446.433E-03    -223.138E-03     20.4445E-03    -223.516E-03     445.818E-03    -223.004E-03     21.1239E-03
            1096     5.04048E-03     149.544E-03    -99.7766E+06    -149.561E+06    -36.3925E+06    -9.19079E+06    -223.492E-03     446.734E-03    -223.242E-03     22.9668E-03    -223.722E-03     446.184E-03    -223.063E-03     23.5916E-03
            1097     5.76006E-03     149.576E-03    -90.0878E+06    -129.839E+06    -20.4749E+06    -9.91443E+06    -223.673E-03     447.016E-03    -223.342E-03     25.2754E-03    -223.909E-03     446.530E-03    -223.126E-03     25.7843E-03
            1098     6.47964E-03     149.612E-03    -80.7082E+06    -111.204E+06    -6.67604E+06    -10.4547E+06    -223.766E-03     447.197E-03    -223.431E-03     27.3107E-03    -224.006E-03     446.775E-03    -223.186E-03     27.6281E-03
            1099     7.19926E-03     149.650E-03    -71.7182E+06    -92.3459E+06     5.58812E+06    -10.8369E+06    -223.810E-03     447.314E-03    -223.504E-03     29.1602E-03    -224.056E-03     446.962E-03    -223.238E-03     29.2190E-03
            1100     7.91881E-03     149.691E-03    -63.1657E+06    -74.2462E+06     16.4647E+06    -11.1143E+06    -223.795E-03     447.357E-03    -223.561E-03     30.7444E-03    -224.049E-03     447.074E-03    -223.280E-03     30.4721E-03
            1101     8.63841E-03     149.734E-03    -55.0759E+06    -54.6982E+06     26.3810E+06    -11.1172E+06    -223.630E-03     447.226E-03    -223.596E-03     32.1065E-03    -223.896E-03     447.026E-03    -223.305E-03     31.4323E-03
            1102     9.35834E-03     149.778E-03    -47.2048E+06    -35.3809E+06     35.6202E+06    -10.8524E+06    -223.368E-03     446.975E-03    -223.608E-03     33.3792E-03    -223.650E-03     446.861E-03    -223.310E-03     32.2254E-03
            1103     10.0783E-03     149.824E-03    -39.7561E+06    -11.2731E+06     44.6782E+06    -10.2342E+06    -223.035E-03     446.626E-03    -223.590E-03     34.5628E-03    -223.347E-03     446.626E-03    -223.293E-03     32.8545E-03
            1104     10.7986E-03     149.870E-03    -32.3348E+06     15.9516E+06     53.5306E+06    -9.06091E+06    -222.620E-03     446.166E-03    -223.546E-03     35.4974E-03    -222.971E-03     446.304E-03    -223.255E-03     33.1477E-03
            1105     11.5194E-03     149.918E-03    -25.0805E+06     66.5828E+06     66.2051E+06    -7.44681E+06    -222.125E-03     445.592E-03    -223.467E-03     35.8925E-03    -222.559E-03     445.982E-03    -223.196E-03     32.8446E-03
            1106     12.2403E-03     149.964E-03    -18.9419E+06     119.421E+06     79.0715E+06    -4.54453E+06    -221.698E-03     445.072E-03    -223.374E-03     35.2078E-03    -222.225E-03     445.726E-03    -223.124E-03     31.4740E-03
            1107     12.9611E-03     150.008E-03    -12.1278E+06     135.279E+06     93.0381E+06    -1.73118E+06    -221.634E-03     444.973E-03    -223.339E-03     34.0560E-03    -222.209E-03     445.715E-03    -223.052E-03     29.4444E-03
            1108     13.6818E-03     150.050E-03    -4.94757E+06     138.226E+06     115.324E+06    -1.01214E+06    -221.504E-03     444.875E-03    -223.371E-03     27.6778E-03    -222.043E-03     445.553E-03    -222.988E-03     23.4077E-03
            1109     720.690E-06     150.908E-03    -147.389E+06    -258.092E+06    -144.935E+06    -1.93336E+06    -222.135E-03     444.031E-03    -221.896E-03     4.36105E-03    -222.287E-03     443.164E-03    -222.033E-03     4.56395E-03
            1110     1.44140E-03     150.916E-03    -143.285E+06    -245.092E+06    -132.700E+06    -3.72812E+06    -222.080E-03     444.147E-03    -222.067E-03     7.95038E-03    -222.247E-03     443.321E-03    -222.168E-03     8.30336E-03
            1111     2.16207E-03     150.929E-03    -136.674E+06    -227.721E+06    -115.342E+06    -5.58828E+06    -222.219E-03     444.375E-03    -222.156E-03     11.4980E-03    -222.404E-03     443.600E-03    -222.204E-03     11.9819E-03
            1112     2.88261E-03     150.946E-03    -128.238E+06    -207.411E+06    -94.8496E+06    -7.19333E+06    -222.480E-03     444.760E-03    -222.280E-03     14.8936E-03    -222.681E-03     444.045E-03    -222.267E-03     15.4767E-03
            1113     3.60290E-03     150.969E-03    -118.912E+06    -185.852E+06    -73.9298E+06    -8.57801E+06    -222.739E-03     445.165E-03    -222.425E-03     18.0495E-03    -222.955E-03     444.513E-03    -222.353E-03     18.6967E-03
            1114     4.32309E-03     150.995E-03    -109.230E+06    -164.777E+06    -54.2525E+06    -9.80170E+06    -222.973E-03     445.546E-03    -222.573E-03     20.8934E-03    -223.200E-03     444.957E-03    -222.446E-03     21.5461E-03
            1115     5.04298E-03     151.025E-03    -99.2186E+06    -144.555E+06    -36.3421E+06    -10.9042E+06    -223.267E-03     445.984E-03    -222.717E-03     23.5252E-03    -223.501E-03     445.458E-03    -222.545E-03     24.1259E-03
            1116     5.76280E-03     151.058E-03    -89.3822E+06    -125.363E+06    -20.5387E+06    -11.8232E+06    -223.556E-03     446.416E-03    -222.859E-03     25.8854E-03    -223.794E-03     445.951E-03    -222.651E-03     26.3679E-03
            1117     6.48245E-03     151.094E-03    -80.0471E+06    -107.235E+06    -6.78609E+06    -12.6250E+06    -223.806E-03     446.802E-03    -222.996E-03     27.9495E-03    -224.048E-03     446.399E-03    -222.758E-03     28.2462E-03
            1118     7.20192E-03     151.133E-03    -71.0140E+06    -89.1686E+06     5.42372E+06    -13.0893E+06    -223.962E-03     447.083E-03    -223.121E-03     29.7431E-03    -224.208E-03     446.744E-03    -222.861E-03     29.7910E-03
            1119     7.92140E-03     151.173E-03    -62.4784E+06    -71.5340E+06     16.4074E+06    -13.2488E+06    -223.982E-03     447.210E-03    -223.228E-03     31.2676E-03    -224.234E-03     446.939E-03    -222.951E-03     30.9936E-03
            1120     8.64094E-03     151.216E-03    -54.5459E+06    -52.6869E+06     26.3015E+06    -13.2753E+06    -223.895E-03     447.205E-03    -223.309E-03     32.5011E-03    -224.160E-03     447.012E-03    -223.022E-03     31.8320E-03
            1121     9.36051E-03     151.260E-03    -47.0679E+06    -34.0747E+06     35.3580E+06    -13.1164E+06    -223.691E-03     447.057E-03    -223.365E-03     33.6021E-03    -223.973E-03     446.947E-03    -223.071E-03     32.4606E-03
            1122     10.0804E-03     151.305E-03    -39.9964E+06    -11.2620E+06     44.0150E+06    -12.4699E+06    -223.364E-03     446.752E-03    -223.388E-03     34.5676E-03    -223.673E-03     446.752E-03    -223.094E-03     32.8746E-03
            1123     10.8006E-03     151.351E-03    -33.5057E+06     14.6582E+06     52.2354E+06    -11.4146E+06    -222.982E-03     446.362E-03    -223.380E-03     35.3503E-03    -223.332E-03     446.494E-03    -223.092E-03     33.0147E-03
            1124     11.5207E-03     151.399E-03    -27.3755E+06     61.8732E+06     63.5368E+06    -8.92465E+06    -222.520E-03     445.855E-03    -223.335E-03     35.6968E-03    -222.952E-03     446.226E-03    -223.068E-03     32.6710E-03
            1125     12.2413E-03     151.445E-03    -21.1995E+06     114.087E+06     75.8333E+06    -6.06032E+06    -222.106E-03     445.377E-03    -223.271E-03     34.9630E-03    -222.629E-03     446.010E-03    -223.027E-03     31.2381E-03
            1126     12.9625E-03     151.489E-03    -15.2111E+06     131.565E+06     89.9673E+06    -4.79843E+06    -221.895E-03     445.156E-03    -223.261E-03     33.9082E-03    -222.473E-03     445.886E-03    -222.980E-03     29.2727E-03
            1127     13.6832E-03     151.531E-03    -7.13409E+06     135.336E+06     114.134E+06    -1.81407E+06    -221.878E-03     445.199E-03    -223.321E-03     27.4800E-03    -222.422E-03     445.867E-03    -222.936E-03     23.1761E-03
            1128     721.278E-06     152.384E-03    -145.735E+06    -249.387E+06    -143.018E+06    -2.75119E+06    -221.292E-03     442.691E-03    -221.399E-03     4.32589E-03    -221.451E-03     441.863E-03    -221.541E-03     4.50389E-03
            1129     1.44247E-03     152.392E-03    -141.354E+06    -236.940E+06    -131.370E+06    -4.54182E+06    -221.434E-03     442.835E-03    -221.400E-03     7.98674E-03    -221.606E-03     442.045E-03    -221.509E-03     8.31671E-03
            1130     2.16356E-03     152.405E-03    -134.908E+06    -219.570E+06    -113.738E+06    -6.42093E+06    -221.651E-03     443.158E-03    -221.507E-03     11.6912E-03    -221.841E-03     442.419E-03    -221.562E-03     12.1538E-03
            1131     2.88437E-03     152.424E-03    -126.578E+06    -199.724E+06    -93.3292E+06    -8.40316E+06    -221.960E-03     443.616E-03    -221.657E-03     15.2540E-03    -222.165E-03     442.934E-03    -221.650E-03     15.8152E-03
            1132     3.60499E-03     152.447E-03    -117.282E+06    -179.066E+06    -72.6593E+06    -10.0575E+06    -222.278E-03     444.105E-03    -221.827E-03     18.4862E-03    -222.497E-03     443.482E-03    -221.761E-03     19.1005E-03
            1133     4.32542E-03     152.474E-03    -107.471E+06    -158.249E+06    -53.0029E+06    -11.5042E+06    -222.610E-03     444.613E-03    -222.003E-03     21.4636E-03    -222.839E-03     444.053E-03    -221.883E-03     22.0857E-03
            1134     5.04574E-03     152.504E-03    -97.5276E+06    -138.552E+06    -35.1566E+06    -12.8231E+06    -222.955E-03     445.135E-03    -222.179E-03     24.1889E-03    -223.190E-03     444.633E-03    -222.013E-03     24.7598E-03
            1135     5.76578E-03     152.538E-03    -87.8773E+06    -120.215E+06    -19.5252E+06    -13.8593E+06    -223.345E-03     445.700E-03    -222.355E-03     26.5870E-03    -223.584E-03     445.256E-03    -222.150E-03     27.0424E-03
            1136     6.48551E-03     152.575E-03    -78.5597E+06    -102.483E+06    -5.76226E+06    -14.5991E+06    -223.735E-03     446.265E-03    -222.530E-03     28.6768E-03    -223.976E-03     445.880E-03    -222.296E-03     28.9559E-03
            1137     7.20498E-03     152.614E-03    -69.8578E+06    -85.4957E+06     6.20699E+06    -15.1030E+06    -224.002E-03     446.701E-03    -222.699E-03     30.4437E-03    -224.248E-03     446.377E-03    -222.442E-03     30.4741E-03
            1138     7.92438E-03     152.656E-03    -61.6113E+06    -68.7732E+06     16.7912E+06    -15.2395E+06    -224.123E-03     446.973E-03    -222.850E-03     31.8962E-03    -224.374E-03     446.712E-03    -222.577E-03     31.6146E-03
            1139     8.64376E-03     152.698E-03    -53.7794E+06    -50.4567E+06     26.5235E+06    -15.1278E+06    -224.151E-03     447.129E-03    -222.978E-03     33.0439E-03    -224.414E-03     446.945E-03    -222.694E-03     32.3861E-03
            1140     9.36315E-03     152.742E-03    -46.5606E+06    -32.7116E+06     35.2416E+06    -14.6305E+06    -224.081E-03     447.164E-03    -223.083E-03     33.9789E-03    -224.359E-03     447.059E-03    -222.792E-03     32.8620E-03
            1141     10.0826E-03     152.787E-03    -39.9037E+06    -10.9538E+06     43.4331E+06    -13.9528E+06    -223.830E-03     446.985E-03    -223.155E-03     34.7402E-03    -224.135E-03     446.984E-03    -222.865E-03     33.0794E-03
            1142     10.8023E-03     152.833E-03    -33.5808E+06     13.1983E+06     51.1407E+06    -12.5348E+06    -223.447E-03     446.641E-03    -223.194E-03     35.3601E-03    -223.790E-03     446.764E-03    -222.909E-03     33.0731E-03
            1143     11.5225E-03     152.880E-03    -27.2498E+06     58.3365E+06     61.9938E+06    -10.8528E+06    -222.978E-03     446.167E-03    -223.189E-03     35.7219E-03    -223.398E-03     446.518E-03    -222.924E-03     32.7381E-03
            1144     12.2427E-03     152.926E-03    -20.0715E+06     109.193E+06     74.8436E+06    -8.81186E+06    -222.593E-03     445.756E-03    -223.164E-03     35.2235E-03    -223.098E-03     446.361E-03    -222.919E-03     31.5305E-03
            1145     12.9625E-03     152.970E-03    -12.8172E+06     128.097E+06     90.6198E+06    -5.30243E+06    -222.283E-03     445.469E-03    -223.186E-03     34.1624E-03    -222.843E-03     446.175E-03    -222.900E-03     29.5768E-03
            1146     13.6833E-03     153.011E-03    -6.21684E+06     131.240E+06     113.981E+06    -2.58321E+06    -222.315E-03     445.585E-03    -223.270E-03     28.0378E-03    -222.847E-03     446.230E-03    -222.881E-03     23.7926E-03
            1147     721.555E-06     153.858E-03    -143.489E+06    -238.929E+06    -140.384E+06    -2.88906E+06    -220.712E-03     441.502E-03    -220.790E-03     4.61675E-03    -220.879E-03     440.719E-03    -220.938E-03     4.78709E-03
            1148     1.44315E-03     153.866E-03    -139.323E+06    -227.379E+06    -128.605E+06    -5.32179E+06    -220.903E-03     441.724E-03    -220.821E-03     8.17436E-03    -221.082E-03     440.975E-03    -220.933E-03     8.49009E-03
            1149     2.16465E-03     153.880E-03    -132.255E+06    -210.149E+06    -110.997E+06    -7.59853E+06    -221.114E-03     442.058E-03    -220.944E-03     11.9560E-03    -221.308E-03     441.358E-03    -221.003E-03     12.4027E-03
            1150     2.88599E-03     153.900E-03    -123.950E+06    -191.174E+06    -90.7536E+06    -9.67263E+06    -221.365E-03     442.459E-03    -221.093E-03     15.5593E-03    -221.574E-03     441.812E-03    -221.090E-03     16.0987E-03
            1151     3.60717E-03     153.923E-03    -114.584E+06    -170.990E+06    -70.1097E+06    -11.5933E+06    -221.712E-03     442.972E-03    -221.259E-03     18.9429E-03    -221.933E-03     442.382E-03    -221.196E-03     19.5320E-03
            1152     4.32799E-03     153.951E-03    -104.676E+06    -150.659E+06    -50.6424E+06    -13.3440E+06    -222.156E-03     443.598E-03    -221.442E-03     22.0393E-03    -222.385E-03     443.067E-03    -221.325E-03     22.6312E-03
            1153     5.04847E-03     153.983E-03    -94.9703E+06    -132.031E+06    -33.1499E+06    -14.6942E+06    -222.615E-03     444.255E-03    -221.639E-03     24.8009E-03    -222.849E-03     443.779E-03    -221.476E-03     25.3423E-03
            1154     5.76871E-03     154.018E-03    -85.3695E+06    -114.437E+06    -17.6532E+06    -15.7243E+06    -223.058E-03     444.899E-03    -221.841E-03     27.2865E-03    -223.294E-03     444.477E-03    -221.640E-03     27.7201E-03
            1155     6.48861E-03     154.055E-03    -76.0907E+06    -97.7293E+06    -4.14392E+06    -16.3760E+06    -223.465E-03     445.506E-03    -222.040E-03     29.4760E-03    -223.702E-03     445.138E-03    -221.809E-03     29.7392E-03
            1156     7.20833E-03     154.096E-03    -67.4288E+06    -81.3844E+06     7.69028E+06    -16.6859E+06    -223.852E-03     446.086E-03    -222.234E-03     31.3536E-03    -224.092E-03     445.776E-03    -221.980E-03     31.3848E-03
            1157     7.92773E-03     154.137E-03    -59.4139E+06    -65.6635E+06     17.9422E+06    -16.8655E+06    -224.170E-03     446.591E-03    -222.421E-03     32.8370E-03    -224.415E-03     446.340E-03    -222.149E-03     32.5711E-03
            1158     8.64700E-03     154.180E-03    -51.9030E+06    -48.4236E+06     27.3422E+06    -16.5108E+06    -224.338E-03     446.929E-03    -222.592E-03     33.9992E-03    -224.593E-03     446.749E-03    -222.309E-03     33.3797E-03
            1159     9.36620E-03     154.225E-03    -44.9400E+06    -31.4413E+06     35.9055E+06    -15.8949E+06    -224.385E-03     447.128E-03    -222.743E-03     34.9106E-03    -224.656E-03     447.024E-03    -222.453E-03     33.8566E-03
            1160     10.0854E-03     154.270E-03    -38.3169E+06    -10.6963E+06     44.0614E+06    -14.9639E+06    -224.276E-03     447.141E-03    -222.866E-03     35.6287E-03    -224.572E-03     447.136E-03    -222.574E-03     34.0497E-03
            1161     10.8047E-03     154.315E-03    -31.7812E+06     12.8672E+06     51.9646E+06    -14.1180E+06    -223.985E-03     446.940E-03    -222.955E-03     36.1973E-03    -224.316E-03     447.054E-03    -222.668E-03     33.9913E-03
            1162     11.5242E-03     154.361E-03    -25.1879E+06     56.6994E+06     62.7866E+06    -12.8540E+06    -223.513E-03     446.512E-03    -222.999E-03     36.5008E-03    -223.918E-03     446.847E-03    -222.730E-03     33.5919E-03
            1163     12.2443E-03     154.407E-03    -19.1150E+06     104.726E+06     74.9149E+06    -10.3272E+06    -223.053E-03     446.067E-03    -223.014E-03     36.0477E-03    -223.545E-03     446.646E-03    -222.763E-03     32.4231E-03
            1164     12.9649E-03     154.451E-03    -13.0286E+06     122.343E+06     89.6875E+06    -6.98923E+06    -222.972E-03     446.046E-03    -223.074E-03     34.8649E-03    -223.522E-03     446.724E-03    -222.784E-03     30.3112E-03
            1165     13.6850E-03     154.492E-03    -7.55852E+06     124.958E+06     111.569E+06    -3.53505E+06    -223.158E-03     446.356E-03    -223.198E-03     28.7048E-03    -223.683E-03     446.974E-03    -222.810E-03     24.4850E-03
            1166     722.161E-06     155.330E-03    -139.352E+06    -227.516E+06    -136.603E+06    -3.17214E+06    -220.351E-03     440.464E-03    -220.113E-03     4.61768E-03    -220.519E-03     439.726E-03    -220.264E-03     4.79071E-03
            1167     1.44407E-03     155.339E-03    -134.949E+06    -215.732E+06    -124.187E+06    -6.03952E+06    -220.422E-03     440.733E-03    -220.311E-03     8.38971E-03    -220.603E-03     440.029E-03    -220.423E-03     8.70238E-03
            1168     2.16575E-03     155.354E-03    -128.456E+06    -199.802E+06    -107.410E+06    -8.67030E+06    -220.598E-03     441.035E-03    -220.437E-03     12.2424E-03    -220.793E-03     440.376E-03    -220.498E-03     12.6746E-03
            1169     2.88742E-03     155.374E-03    -120.241E+06    -181.348E+06    -87.4179E+06    -10.9462E+06    -220.814E-03     441.392E-03    -220.578E-03     15.9076E-03    -221.023E-03     440.784E-03    -220.578E-03     16.4301E-03
            1170     3.60893E-03     155.398E-03    -110.968E+06    -161.745E+06    -67.0262E+06    -13.1409E+06    -221.151E-03     441.885E-03    -220.734E-03     19.3550E-03    -221.371E-03     441.331E-03    -220.674E-03     19.9317E-03
            1171     4.33025E-03     155.427E-03    -101.417E+06    -142.467E+06    -47.9723E+06    -14.9654E+06    -221.590E-03     442.498E-03    -220.908E-03     22.5606E-03    -221.817E-03     441.999E-03    -220.794E-03     23.1403E-03
            1172     5.05115E-03     155.460E-03    -91.7080E+06    -124.756E+06    -30.6291E+06    -16.4135E+06    -222.089E-03     443.190E-03    -221.101E-03     25.5703E-03    -222.319E-03     442.741E-03    -220.941E-03     26.1039E-03
            1173     5.77164E-03     155.496E-03    -82.2578E+06    -108.163E+06    -15.4254E+06    -17.4871E+06    -222.559E-03     443.862E-03    -221.303E-03     28.3024E-03    -222.790E-03     443.462E-03    -221.104E-03     28.7368E-03
            1174     6.49199E-03     155.534E-03    -73.2142E+06    -92.6626E+06    -2.22507E+06    -18.2161E+06    -223.013E-03     444.519E-03    -221.506E-03     30.6849E-03    -223.244E-03     444.167E-03    -221.277E-03     30.9616E-03
            1175     7.21202E-03     155.575E-03    -64.6017E+06    -77.4351E+06     9.39120E+06    -18.4730E+06    -223.497E-03     445.206E-03    -221.710E-03     32.7076E-03    -223.728E-03     444.907E-03    -221.457E-03     32.7765E-03
            1176     7.93172E-03     155.618E-03    -56.5269E+06    -62.4025E+06     19.7509E+06    -18.2923E+06    -223.963E-03     445.878E-03    -221.915E-03     34.3064E-03    -224.198E-03     445.633E-03    -221.644E-03     34.1063E-03
            1177     8.65104E-03     155.662E-03    -49.1213E+06    -46.6712E+06     28.9683E+06    -17.7560E+06    -224.319E-03     446.435E-03    -222.116E-03     35.5718E-03    -224.563E-03     446.254E-03    -221.832E-03     35.0390E-03
            1178     9.37024E-03     155.707E-03    -42.2659E+06    -30.3496E+06     37.5266E+06    -16.8025E+06    -224.501E-03     446.806E-03    -222.305E-03     36.5417E-03    -224.759E-03     446.697E-03    -222.012E-03     35.6046E-03
            1179     10.0893E-03     155.752E-03    -35.7466E+06    -9.76323E+06     45.9547E+06    -16.0711E+06    -224.537E-03     447.007E-03    -222.470E-03     37.2641E-03    -224.820E-03     446.995E-03    -222.174E-03     35.8259E-03
            1180     10.8085E-03     155.798E-03    -29.6609E+06     12.9070E+06     53.7128E+06    -15.0394E+06    -224.460E-03     447.069E-03    -222.608E-03     37.8196E-03    -224.779E-03     447.172E-03    -222.315E-03     35.7691E-03
            1181     11.5278E-03     155.844E-03    -24.1794E+06     54.7324E+06     63.8255E+06    -13.3276E+06    -224.212E-03     446.920E-03    -222.708E-03     38.0374E-03    -224.606E-03     447.237E-03    -222.433E-03     35.2875E-03
            1182     12.2473E-03     155.889E-03    -18.2788E+06     101.208E+06     75.4785E+06    -11.0591E+06    -223.968E-03     446.753E-03    -222.785E-03     37.2836E-03    -224.447E-03     447.307E-03    -222.528E-03     33.7904E-03
            1183     12.9664E-03     155.933E-03    -12.3942E+06     115.266E+06     88.6378E+06    -7.64826E+06    -224.131E-03     447.041E-03    -222.910E-03     36.1102E-03    -224.663E-03     447.681E-03    -222.616E-03     31.6571E-03
            1184     13.6852E-03     155.976E-03    -6.63157E+06     116.565E+06     109.354E+06    -4.32799E+06    -224.352E-03     447.451E-03    -223.098E-03     29.5638E-03    -224.858E-03     448.029E-03    -222.711E-03     25.3704E-03
            1185     722.204E-06     156.802E-03    -134.505E+06    -214.642E+06    -131.652E+06    -3.76038E+06    -219.861E-03     439.694E-03    -219.833E-03     4.54548E-03    -220.031E-03     439.006E-03    -219.985E-03     4.71573E-03
            1186     1.44449E-03     156.811E-03    -130.208E+06    -203.457E+06    -120.175E+06    -6.38906E+06    -219.892E-03     439.785E-03    -219.893E-03     8.46283E-03    -220.073E-03     439.130E-03    -220.010E-03     8.77555E-03
            1187     2.16677E-03     156.826E-03    -124.195E+06    -188.171E+06    -103.575E+06    -9.27017E+06    -220.030E-03     440.003E-03    -219.973E-03     12.4344E-03    -220.226E-03     439.390E-03    -220.037E-03     12.8744E-03
            1188     2.88887E-03     156.846E-03    -116.378E+06    -170.307E+06    -84.2658E+06    -12.0403E+06    -220.265E-03     440.350E-03    -220.085E-03     16.2831E-03    -220.474E-03     439.786E-03    -220.091E-03     16.8221E-03
            1189     3.61074E-03     156.872E-03    -107.568E+06    -151.714E+06    -64.3514E+06    -14.3510E+06    -220.542E-03     440.763E-03    -220.221E-03     19.9463E-03    -220.763E-03     440.250E-03    -220.167E-03     20.5450E-03
            1190     4.33237E-03     156.901E-03    -98.2304E+06    -133.661E+06    -45.4438E+06    -16.2334E+06    -220.864E-03     441.232E-03    -220.368E-03     23.4010E-03    -221.091E-03     440.768E-03    -220.259E-03     24.0152E-03
            1191     5.05391E-03     156.935E-03    -88.9369E+06    -116.650E+06    -28.3972E+06    -17.8379E+06    -221.257E-03     441.781E-03    -220.524E-03     26.6678E-03    -221.487E-03     441.363E-03    -220.368E-03     27.2478E-03
            1192     5.77520E-03     156.972E-03    -79.7622E+06    -101.271E+06    -13.4969E+06    -19.1520E+06    -221.750E-03     442.441E-03    -220.692E-03     29.6680E-03    -221.979E-03     442.067E-03    -220.497E-03     30.1594E-03
            1193     6.49602E-03     157.012E-03    -70.9155E+06    -87.0510E+06    -529.511E+03    -19.9072E+06    -222.316E-03     443.191E-03    -220.875E-03     32.3817E-03    -222.542E-03     442.858E-03    -220.648E-03     32.7366E-03
            1194     7.21644E-03     157.054E-03    -62.6027E+06    -73.1371E+06     10.8832E+06    -20.1551E+06    -222.878E-03     443.950E-03    -221.072E-03     34.7025E-03    -223.104E-03     443.662E-03    -220.820E-03     34.8715E-03
            1195     7.93655E-03     157.098E-03    -54.7559E+06    -59.5538E+06     20.9651E+06    -19.8308E+06    -223.433E-03     444.711E-03    -221.278E-03     36.5805E-03    -223.661E-03     444.472E-03    -221.007E-03     36.5122E-03
            1196     8.65634E-03     157.143E-03    -47.4406E+06    -45.1502E+06     30.0800E+06    -18.9424E+06    -223.978E-03     445.469E-03    -221.491E-03     38.0272E-03    -224.211E-03     445.286E-03    -221.206E-03     37.6612E-03
            1197     9.37568E-03     157.189E-03    -40.4654E+06    -29.7630E+06     38.5445E+06    -17.8208E+06    -224.435E-03     446.142E-03    -221.707E-03     39.0528E-03    -224.680E-03     446.026E-03    -221.412E-03     38.3095E-03
            1198     10.0949E-03     157.235E-03    -34.2052E+06    -9.62869E+06     46.8986E+06    -16.2314E+06    -224.782E-03     446.699E-03    -221.916E-03     39.6730E-03    -225.053E-03     446.677E-03    -221.618E-03     38.4670E-03
            1199     10.8139E-03     157.281E-03    -28.7669E+06     12.7146E+06     54.7413E+06    -14.9864E+06    -225.063E-03     447.179E-03    -222.116E-03     39.8539E-03    -225.371E-03     447.271E-03    -221.819E-03     38.0527E-03
            1200     11.5328E-03     157.327E-03    -23.0368E+06     54.0117E+06     65.0852E+06    -13.9352E+06    -225.223E-03     447.517E-03    -222.294E-03     39.6425E-03    -225.604E-03     447.820E-03    -222.014E-03     37.1239E-03
            1201     12.2513E-03     157.373E-03    -17.2649E+06     97.6320E+06     76.4454E+06    -11.8156E+06    -225.372E-03     447.838E-03    -222.467E-03     38.7013E-03    -225.834E-03     448.365E-03    -222.201E-03     35.4153E-03
            1202     12.9699E-03     157.417E-03    -10.8063E+06     107.615E+06     88.2388E+06    -8.52813E+06    -225.612E-03     448.297E-03    -222.685E-03     37.5966E-03    -226.120E-03     448.893E-03    -222.384E-03     33.2982E-03
            1203     13.6884E-03     157.461E-03    -3.91160E+06     108.304E+06     107.361E+06    -4.14242E+06    -226.106E-03     449.064E-03    -222.958E-03     30.7173E-03    -226.582E-03     449.599E-03    -222.573E-03     26.6066E-03
            1204     722.504E-06     158.272E-03    -129.697E+06    -201.470E+06    -126.903E+06    -3.39470E+06    -219.442E-03     438.873E-03    -219.432E-03     4.89651E-03    -219.613E-03     438.238E-03    -219.586E-03     5.09801E-03
            1205     1.44506E-03     158.281E-03    -126.150E+06    -191.009E+06    -116.332E+06    -6.27016E+06    -219.406E-03     438.871E-03    -219.464E-03     8.72144E-03    -219.590E-03     438.266E-03    -219.586E-03     9.06821E-03
            1206     2.16770E-03     158.297E-03    -120.359E+06    -175.670E+06    -100.477E+06    -9.28502E+06    -219.440E-03     438.944E-03    -219.504E-03     12.7514E-03    -219.639E-03     438.383E-03    -219.577E-03     13.2461E-03
            1207     2.89017E-03     158.318E-03    -113.447E+06    -158.790E+06    -81.8851E+06    -12.0003E+06    -219.537E-03     439.103E-03    -219.566E-03     16.7613E-03    -219.751E-03     438.588E-03    -219.581E-03     17.3733E-03
            1208     3.61262E-03     158.343E-03    -105.647E+06    -141.046E+06    -62.7165E+06    -14.4196E+06    -219.668E-03     439.310E-03    -219.642E-03     20.7252E-03    -219.895E-03     438.843E-03    -219.598E-03     21.4118E-03
            1209     4.33506E-03     158.374E-03    -97.2590E+06    -124.157E+06    -44.4023E+06    -16.5410E+06    -219.872E-03     439.600E-03    -219.727E-03     24.5444E-03    -220.107E-03     439.177E-03    -219.628E-03     25.2703E-03
            1210     5.05725E-03     158.408E-03    -88.7468E+06    -108.278E+06    -27.9258E+06    -18.1556E+06    -220.165E-03     439.987E-03    -219.821E-03     28.1609E-03    -220.403E-03     439.606E-03    -219.675E-03     28.8765E-03
            1211     5.77927E-03     158.446E-03    -80.7417E+06    -93.8574E+06    -13.4704E+06    -19.3500E+06    -220.602E-03     440.535E-03    -219.933E-03     31.5961E-03    -220.842E-03     440.194E-03    -219.747E-03     32.2530E-03
            1212     6.50099E-03     158.487E-03    -73.1920E+06    -80.6611E+06    -988.606E+03    -20.3575E+06    -221.196E-03     441.266E-03    -220.070E-03     34.7621E-03    -221.437E-03     440.963E-03    -219.851E-03     35.3111E-03
            1213     7.22230E-03     158.530E-03    -65.6897E+06    -68.3772E+06     9.88112E+06    -20.9219E+06    -221.868E-03     442.103E-03    -220.235E-03     37.4980E-03    -222.108E-03     441.838E-03    -219.991E-03     37.8845E-03
            1214     7.94317E-03     158.575E-03    -58.3847E+06    -56.4020E+06     19.4429E+06    -20.9019E+06    -222.606E-03     443.033E-03    -220.428E-03     39.7358E-03    -222.846E-03     442.809E-03    -220.164E-03     39.9059E-03
            1215     8.66352E-03     158.622E-03    -51.1984E+06    -43.8698E+06     28.1174E+06    -20.2529E+06    -223.434E-03     444.082E-03    -220.648E-03     41.3471E-03    -223.676E-03     443.905E-03    -220.369E-03     41.2415E-03
            1216     9.38342E-03     158.669E-03    -44.4071E+06    -28.7522E+06     36.4297E+06    -19.2315E+06    -224.357E-03     445.254E-03    -220.897E-03     42.2949E-03    -224.610E-03     445.142E-03    -220.609E-03     41.8321E-03
            1217     10.1025E-03     158.716E-03    -37.4399E+06    -10.5964E+06     44.7399E+06     -17.955E+06    -225.281E-03     446.455E-03    -221.174E-03     42.5949E-03    -225.553E-03     446.427E-03    -220.880E-03     41.6766E-03
            1218     10.8210E-03     158.764E-03    -30.1643E+06     12.7846E+06     53.9381E+06    -16.2258E+06    -226.104E-03     447.575E-03    -221.471E-03     42.3158E-03    -226.407E-03     447.661E-03    -221.176E-03     40.8194E-03
            1219     11.5388E-03     158.811E-03    -23.7916E+06     54.1839E+06     65.2852E+06    -15.0325E+06    -226.738E-03     448.506E-03    -221.768E-03     41.5678E-03    -227.113E-03     448.800E-03    -221.486E-03     39.3400E-03
            1220     12.2564E-03     158.858E-03    -17.8718E+06     93.3896E+06     76.2827E+06    -13.1348E+06    -227.233E-03     449.304E-03    -222.071E-03     40.0415E-03    -227.683E-03     449.800E-03    -221.799E-03     36.9972E-03
            1221     12.9733E-03     158.903E-03    -12.1467E+06     100.697E+06     87.1912E+06    -9.74783E+06    -227.768E-03     450.188E-03    -222.420E-03     38.1662E-03    -228.263E-03     450.745E-03    -222.113E-03     34.0172E-03
            1222     13.6899E-03     158.947E-03    -7.67524E+06     99.0000E+06     102.908E+06    -4.20215E+06    -228.371E-03     451.184E-03    -222.812E-03     31.0999E-03    -228.842E-03     451.681E-03    -222.430E-03     27.0553E-03
            1223     722.999E-06     159.741E-03    -129.273E+06    -189.817E+06    -126.627E+06    -2.77970E+06    -218.913E-03     437.644E-03    -218.731E-03     4.94837E-03    -219.100E-03     437.065E-03    -218.901E-03     5.19050E-03
            1224     1.44591E-03     159.751E-03    -126.082E+06    -179.094E+06    -116.499E+06    -5.49920E+06    -218.759E-03     437.599E-03    -218.840E-03     9.09448E-03    -218.959E-03     437.054E-03    -218.980E-03     9.51653E-03
            1225     2.16876E-03     159.766E-03    -121.446E+06    -164.532E+06    -101.639E+06    -7.78233E+06    -218.646E-03     437.492E-03    -218.846E-03     13.4947E-03    -218.863E-03     436.988E-03    -218.939E-03     14.1052E-03
            1226     2.89194E-03     159.787E-03    -115.445E+06    -147.776E+06    -83.4431E+06    -10.0984E+06    -218.542E-03     437.390E-03    -218.847E-03     17.8213E-03    -218.778E-03     436.933E-03    -218.883E-03     18.5917E-03
            1227     3.61522E-03     159.812E-03    -108.482E+06    -130.622E+06    -64.5918E+06    -12.4921E+06    -218.490E-03     437.337E-03    -218.848E-03     22.0302E-03    -218.740E-03     436.926E-03    -218.824E-03     22.9118E-03
            1228     4.33847E-03     159.843E-03    -101.497E+06    -114.759E+06    -46.8222E+06    -14.4082E+06    -218.526E-03     437.378E-03    -218.852E-03     26.2193E-03    -218.788E-03     437.008E-03    -218.772E-03     27.1763E-03
            1229     5.06177E-03     159.878E-03    -94.2779E+06    -99.8326E+06    -30.6435E+06    -16.1338E+06    -218.743E-03     437.614E-03    -218.871E-03     30.2965E-03    -219.011E-03     437.282E-03    -218.742E-03     31.2818E-03
            1230     5.78492E-03     159.916E-03    -86.8025E+06    -85.9145E+06    -16.3083E+06    -17.8136E+06    -219.152E-03     438.069E-03    -218.917E-03     34.1866E-03    -219.422E-03     437.773E-03    -218.748E-03     35.1452E-03
            1231     6.50781E-03     159.959E-03    -79.3574E+06    -73.4795E+06    -3.86353E+06    -19.2431E+06    -219.748E-03     438.748E-03    -219.000E-03     37.7179E-03    -220.016E-03     438.485E-03    -218.798E-03     38.5955E-03
            1232     7.23023E-03     160.003E-03    -72.1330E+06    -62.4791E+06     6.75211E+06    -20.4164E+06    -220.582E-03     439.711E-03    -219.129E-03     40.7696E-03    -220.847E-03     439.479E-03    -218.900E-03     41.5032E-03
            1233     7.95204E-03     160.050E-03    -64.9403E+06    -51.9090E+06     15.9913E+06    -21.3053E+06    -221.671E-03     440.984E-03    -219.314E-03     43.2493E-03    -221.933E-03     440.786E-03    -219.064E-03     43.7723E-03
            1234     8.67309E-03     160.098E-03    -57.4552E+06    -40.2216E+06     24.5583E+06    -22.0851E+06    -223.009E-03     442.571E-03    -219.561E-03     44.9468E-03    -223.271E-03     442.414E-03    -219.297E-03     45.1847E-03
            1235     9.39303E-03     160.148E-03    -49.2534E+06    -25.9292E+06     33.1048E+06    -22.7204E+06    -224.538E-03     444.413E-03    -219.876E-03     45.7921E-03    -224.803E-03     444.316E-03    -219.601E-03     45.6624E-03
            1236     10.1119E-03     160.198E-03    -40.8488E+06    -10.4796E+06     41.5799E+06    -22.1545E+06    -226.121E-03     446.376E-03    -220.255E-03     45.8049E-03    -226.394E-03     446.347E-03    -219.973E-03     45.2147E-03
            1237     10.8295E-03     160.247E-03    -32.7238E+06     11.9678E+06     51.0951E+06    -20.5956E+06    -227.569E-03     448.253E-03    -220.684E-03     45.1180E-03    -227.868E-03     448.331E-03    -220.399E-03     43.9490E-03
            1238     11.5464E-03     160.297E-03    -24.7298E+06     52.0669E+06     63.5083E+06    -17.6300E+06    -228.704E-03     449.839E-03    -221.135E-03     43.8651E-03    -229.066E-03     450.114E-03    -220.857E-03     41.9639E-03
            1239     12.2619E-03     160.345E-03    -18.2011E+06     88.3742E+06      75.402E+06    -14.0824E+06    -229.611E-03     451.215E-03    -221.604E-03     41.9708E-03    -230.044E-03     451.678E-03    -221.329E-03     39.2212E-03
            1240     12.9772E-03     160.393E-03    -12.5708E+06     93.1406E+06     86.3555E+06     -9.9378E+06    -230.388E-03     452.506E-03    -222.117E-03     40.0262E-03    -230.865E-03     453.018E-03    -221.802E-03     36.1300E-03
            1241     13.6913E-03     160.439E-03    -6.22485E+06     89.0052E+06     100.987E+06    -4.80742E+06    -230.957E-03     453.610E-03    -222.653E-03     33.0537E-03    -231.399E-03     454.054E-03    -222.268E-03     29.1678E-03
            1242     723.448E-06     161.208E-03    -139.997E+06    -180.603E+06    -137.626E+06    -2.10933E+06    -217.768E-03     435.627E-03    -217.859E-03     5.27806E-03    -218.006E-03     435.126E-03    -218.082E-03     5.57056E-03
            1243     1.44710E-03     161.218E-03    -137.060E+06    -169.677E+06    -126.868E+06    -3.76460E+06    -217.618E-03     435.423E-03    -217.806E-03     9.81123E-03    -217.870E-03     434.955E-03    -217.995E-03     10.3573E-03
            1244     2.17111E-03     161.233E-03    -132.249E+06    -155.103E+06    -111.325E+06    -5.87412E+06    -217.401E-03     435.162E-03    -217.760E-03     14.4932E-03    -217.671E-03     434.734E-03    -217.900E-03     15.2752E-03
            1245     2.89509E-03     161.253E-03    -125.743E+06    -138.800E+06    -92.6418E+06    -7.82168E+06    -217.152E-03     434.856E-03    -217.704E-03     19.2072E-03    -217.435E-03     434.469E-03    -217.784E-03     20.1996E-03
            1246     3.61926E-03     161.279E-03    -118.549E+06    -121.958E+06    -72.6542E+06    -9.41708E+06    -216.959E-03     434.602E-03    -217.643E-03     23.8367E-03    -217.256E-03     434.255E-03    -217.658E-03     25.0030E-03
            1247     4.34376E-03     161.309E-03    -110.633E+06    -105.879E+06    -53.3239E+06    -11.4147E+06    -216.919E-03     434.507E-03    -217.588E-03     28.4023E-03    -217.223E-03     434.196E-03    -217.541E-03     29.6949E-03
            1248     5.06831E-03     161.344E-03    -102.382E+06    -91.2053E+06    -36.1001E+06    -13.5979E+06    -217.120E-03     434.675E-03    -217.555E-03     32.8114E-03    -217.424E-03     434.396E-03    -217.454E-03     34.1777E-03
            1249     5.79266E-03     161.383E-03    -94.2663E+06    -77.4151E+06    -21.0790E+06    -15.7132E+06    -217.593E-03     435.155E-03    -217.562E-03     36.9364E-03    -217.895E-03     434.908E-03    -217.418E-03     38.3081E-03
            1250     6.51668E-03     161.426E-03    -86.1866E+06    -64.9768E+06    -8.02445E+06    -18.0679E+06    -218.336E-03     435.961E-03    -217.625E-03     40.6436E-03    -218.633E-03     435.744E-03    -217.446E-03     41.9460E-03
            1251     7.24026E-03     161.472E-03    -77.7979E+06    -54.3913E+06     3.17446E+06    -20.5855E+06    -219.441E-03     437.198E-03    -217.757E-03     43.8084E-03    -219.728E-03     437.006E-03    -217.549E-03     44.9704E-03
            1252     7.96295E-03     161.522E-03    -69.1307E+06    -44.1935E+06     13.0568E+06    -23.0773E+06    -220.981E-03     438.955E-03    -217.974E-03     46.3333E-03    -221.257E-03     438.791E-03    -217.744E-03     47.2764E-03
            1253     8.68434E-03     161.573E-03    -60.2103E+06    -32.8655E+06     22.2278E+06    -25.4281E+06    -222.880E-03     441.170E-03    -218.290E-03     48.0703E-03    -223.148E-03     441.043E-03    -218.044E-03     48.7125E-03
            1254     9.40429E-03     161.625E-03    -51.7433E+06    -20.7403E+06     30.6300E+06    -26.8342E+06    -224.992E-03     443.697E-03    -218.706E-03     48.9305E-03    -225.258E-03     443.618E-03    -218.447E-03     49.1900E-03
            1255     10.1226E-03     161.679E-03    -43.7619E+06    -8.62363E+06     38.5919E+06    -27.0667E+06    -227.193E-03     446.408E-03    -219.215E-03     48.8723E-03    -227.465E-03     446.382E-03    -218.947E-03     48.6463E-03
            1256     10.8394E-03     161.732E-03    -35.7335E+06     12.2653E+06     47.7760E+06    -26.1702E+06    -229.247E-03     449.043E-03    -219.796E-03     47.9459E-03    -229.544E-03     449.118E-03    -219.523E-03     47.1070E-03
            1257     11.5544E-03     161.785E-03    -27.5665E+06     46.4287E+06     59.0903E+06    -23.4516E+06    -230.911E-03     451.328E-03    -220.417E-03     46.2951E-03    -231.260E-03     451.574E-03    -220.149E-03     44.6951E-03
            1258     12.2690E-03     161.836E-03    -19.0169E+06     78.7259E+06     71.7156E+06    -17.4494E+06    -232.174E-03     453.241E-03    -221.068E-03     44.0207E-03    -232.580E-03     453.652E-03    -220.796E-03     41.5585E-03
            1259     12.9821E-03     161.886E-03    -11.8165E+06     83.5859E+06     83.4724E+06    -10.7742E+06    -233.172E-03     454.926E-03    -221.754E-03     41.5356E-03    -233.618E-03     455.385E-03    -221.441E-03     37.8671E-03
            1260     13.6956E-03     161.933E-03    -5.85591E+06     78.2778E+06     98.3144E+06    -6.07285E+06    -233.937E-03     456.395E-03    -222.459E-03     34.0039E-03    -234.354E-03     456.785E-03    -222.072E-03     30.2051E-03
            1261     724.692E-06     162.672E-03    -172.591E+06    -170.339E+06    -170.357E+06    -3.46857E+06    -215.922E-03     432.175E-03    -216.252E-03     5.90380E-03    -216.290E-03     431.819E-03    -216.607E-03     6.24907E-03
            1262     1.44953E-03     162.681E-03    -166.786E+06    -159.721E+06    -157.390E+06    -6.19439E+06    -215.912E-03     431.998E-03    -216.086E-03     10.7929E-03    -216.282E-03     431.665E-03    -216.399E-03     11.4260E-03
            1263     2.17431E-03     162.695E-03    -158.023E+06    -145.451E+06    -137.735E+06    -8.62565E+06    -215.636E-03     431.682E-03    -216.045E-03     15.7678E-03    -216.008E-03     431.375E-03    -216.294E-03     16.6869E-03
            1264     2.89965E-03     162.715E-03    -147.158E+06    -130.371E+06    -113.929E+06    -10.6847E+06    -215.331E-03     431.315E-03    -215.984E-03     20.8167E-03    -215.699E-03     431.028E-03    -216.152E-03     22.0013E-03
            1265     3.62542E-03     162.740E-03    -134.462E+06    -113.241E+06    -89.2959E+06    -12.8716E+06    -215.203E-03     431.119E-03    -215.916E-03     25.7289E-03    -215.562E-03     430.858E-03    -216.004E-03     27.1418E-03
            1266     4.35116E-03     162.770E-03    -121.030E+06    -97.2416E+06    -66.1213E+06    -14.8761E+06    -215.321E-03     431.192E-03    -215.871E-03     30.3840E-03    -215.663E-03     430.951E-03    -215.885E-03     31.9780E-03
            1267     5.07685E-03     162.805E-03    -108.146E+06    -83.6683E+06    -45.2878E+06    -16.1189E+06    -215.661E-03     431.528E-03    -215.867E-03     34.7981E-03    -215.983E-03     431.300E-03    -215.815E-03     36.5255E-03
            1268     5.80242E-03     162.846E-03    -96.3296E+06    -69.3563E+06    -26.9415E+06    -17.3488E+06    -216.304E-03     432.217E-03    -215.913E-03     38.8802E-03    -216.609E-03     432.011E-03    -215.807E-03     40.6656E-03
            1269     6.52748E-03     162.890E-03    -85.8463E+06    -56.1674E+06    -11.5328E+06    -19.0187E+06    -217.370E-03     433.398E-03    -216.029E-03     42.4862E-03    -217.660E-03     433.218E-03    -215.881E-03     44.2428E-03
            1270     7.25162E-03     162.938E-03    -76.9416E+06    -44.0338E+06     1.30896E+06    -21.4893E+06    -218.871E-03     435.108E-03    -216.237E-03     45.5346E-03    -219.152E-03     434.956E-03    -216.055E-03     47.1760E-03
            1271     7.97461E-03     162.990E-03    -68.6628E+06    -32.3124E+06     12.4541E+06    -25.3889E+06    -220.777E-03     437.329E-03    -216.552E-03     48.0076E-03    -221.052E-03     437.210E-03    -216.343E-03     49.4222E-03
            1272     8.69612E-03     163.045E-03    -60.2130E+06    -22.0966E+06     22.0944E+06    -29.5132E+06    -223.034E-03     440.013E-03    -216.979E-03     49.7809E-03    -223.303E-03     439.926E-03    -216.749E-03     50.8671E-03
            1273     9.41588E-03     163.102E-03    -50.7245E+06    -13.5108E+06     30.6969E+06    -32.2770E+06    -225.576E-03     443.094E-03    -217.519E-03     50.7853E-03    -225.833E-03     443.035E-03    -217.272E-03     51.4511E-03
            1274     10.1337E-03     163.160E-03    -40.6753E+06    -4.06043E+06     39.1126E+06    -33.3986E+06    -228.252E-03     446.416E-03    -218.164E-03     50.9306E-03    -228.501E-03     446.393E-03    -217.904E-03     51.0750E-03
            1275     10.8494E-03     163.218E-03    -31.3477E+06     12.5188E+06     47.8559E+06    -32.2893E+06    -230.868E-03     449.763E-03    -218.895E-03     50.0953E-03    -231.129E-03     449.819E-03    -218.628E-03     49.6045E-03
            1276     11.5636E-03     163.275E-03    -23.9590E+06     38.0683E+06     57.7211E+06    -27.3017E+06    -233.187E-03     452.876E-03    -219.689E-03     48.1882E-03    -233.491E-03     453.063E-03    -219.421E-03     46.9375E-03
            1277     12.2756E-03     163.330E-03    -18.6738E+06     66.7179E+06     68.5519E+06    -20.4214E+06    -234.952E-03     455.475E-03    -220.523E-03     45.3203E-03    -235.321E-03     455.816E-03    -220.250E-03     43.1767E-03
            1278     12.9873E-03     163.382E-03    -12.9490E+06     71.7836E+06     78.9005E+06    -14.2755E+06    -236.226E-03     457.615E-03    -221.389E-03     42.3757E-03    -236.641E-03     458.010E-03    -221.080E-03     38.9487E-03
            1279     13.6964E-03     163.433E-03    -5.90047E+06     65.3613E+06     95.4806E+06    -7.61304E+06    -236.813E-03     459.085E-03    -222.272E-03     34.8513E-03    -237.203E-03     459.410E-03    -221.881E-03     31.1375E-03
            1280     726.412E-06     164.129E-03    -204.782E+06    -151.094E+06    -202.349E+06    -7.15252E+06    -213.645E-03     427.551E-03    -213.906E-03     6.30356E-03    -214.155E-03     427.384E-03    -214.402E-03     6.66748E-03
            1281     1.45270E-03     164.138E-03    -198.428E+06    -141.887E+06    -189.014E+06    -12.5845E+06    -213.685E-03     427.478E-03    -213.793E-03     11.4148E-03    -214.193E-03     427.326E-03    -214.244E-03     12.0736E-03
            1282     2.17944E-03     164.152E-03    -188.474E+06    -129.669E+06    -168.409E+06    -17.6937E+06    -213.555E-03     427.356E-03    -213.800E-03     16.5354E-03    -214.056E-03     427.215E-03    -214.181E-03     17.4939E-03
            1283     2.90629E-03     164.171E-03    -175.046E+06    -115.572E+06    -143.089E+06    -22.3325E+06    -213.503E-03     427.315E-03    -213.812E-03     21.5091E-03    -213.988E-03     427.183E-03    -214.106E-03     22.7510E-03
            1284     3.63311E-03     164.196E-03    -159.151E+06    -99.6554E+06    -116.153E+06    -26.3235E+06    -213.629E-03     427.470E-03    -213.841E-03     26.2982E-03    -214.089E-03     427.348E-03    -214.047E-03     27.7979E-03
            1285     4.35995E-03     164.227E-03    -141.948E+06    -86.7785E+06    -89.6047E+06    -28.8911E+06    -214.017E-03     427.929E-03    -213.911E-03     30.7349E-03    -214.441E-03     427.800E-03    -214.028E-03     32.4513E-03
            1286     5.08654E-03     164.263E-03    -123.978E+06    -75.0779E+06    -64.4621E+06    -30.4157E+06    -214.678E-03     428.712E-03    -214.034E-03     34.8193E-03    -215.059E-03     428.573E-03    -214.068E-03     36.7090E-03
            1287     5.81266E-03     164.304E-03    -105.444E+06    -61.9629E+06    -41.2125E+06    -31.2192E+06    -215.666E-03     429.883E-03    -214.217E-03     38.5231E-03    -216.000E-03     429.743E-03    -214.181E-03     40.5251E-03
            1288     6.53808E-03     164.350E-03    -87.2882E+06    -49.9613E+06    -20.0294E+06    -30.9767E+06    -217.076E-03     431.559E-03    -214.482E-03     41.7760E-03    -217.364E-03     431.417E-03    -214.383E-03     43.8241E-03
            1289     7.26238E-03     164.401E-03    -70.5217E+06    -35.9679E+06    -832.346E+03    -30.4610E+06    -218.871E-03     433.711E-03    -214.840E-03     44.6116E-03    -219.121E-03     433.586E-03    -214.690E-03     46.6210E-03
            1290     7.98521E-03     164.457E-03    -56.6209E+06    -22.1018E+06     15.7054E+06    -30.6863E+06    -220.969E-03     436.267E-03    -215.298E-03     47.0961E-03    -221.194E-03     436.167E-03    -215.105E-03     48.9555E-03
            1291     8.70650E-03     164.516E-03    -46.3913E+06    -10.0800E+06     28.7831E+06    -32.5195E+06    -223.366E-03     439.221E-03    -215.855E-03     49.0892E-03    -223.581E-03     439.152E-03    -215.629E-03     50.6645E-03
            1292     9.42592E-03     164.578E-03    -39.5355E+06    -4.00968E+06     37.2820E+06    -35.0479E+06    -226.050E-03     442.562E-03    -216.511E-03     50.5194E-03    -226.262E-03     442.510E-03    -216.262E-03     51.6799E-03
            1293     10.1433E-03     164.641E-03    -34.6655E+06     1.78890E+06     43.8228E+06    -35.9765E+06    -228.962E-03     446.229E-03    -217.267E-03     51.1961E-03    -229.182E-03     446.205E-03    -217.000E-03     51.8375E-03
            1294     10.8587E-03     164.705E-03    -29.9799E+06     13.7805E+06     50.4229E+06    -35.6120E+06    -232.003E-03     450.116E-03    -218.114E-03     50.9208E-03    -232.246E-03     450.156E-03    -217.838E-03     50.9122E-03
            1295     11.5712E-03     164.767E-03    -23.2923E+06     26.1827E+06     57.7778E+06    -31.2726E+06    -234.940E-03     453.987E-03    -219.046E-03     49.4576E-03    -235.206E-03     454.096E-03    -218.762E-03     48.6640E-03
            1296     12.2823E-03     164.827E-03    -15.0023E+06     53.5097E+06     69.3561E+06    -22.8029E+06    -237.356E-03     457.388E-03    -220.032E-03     46.8695E-03    -237.671E-03     457.638E-03    -219.741E-03     45.1898E-03
            1297     12.9907E-03     164.883E-03    -9.23320E+06     60.4838E+06     78.0701E+06    -15.6057E+06    -238.796E-03     459.840E-03    -221.044E-03     43.9951E-03    -239.159E-03     460.158E-03    -220.728E-03     40.9766E-03
            1298     13.7005E-03     164.936E-03    -4.96080E+06     49.1824E+06     93.6718E+06    -8.42326E+06    -239.380E-03     461.460E-03    -222.080E-03     36.4737E-03    -239.734E-03     461.699E-03    -221.675E-03     32.9321E-03
            1299     728.111E-06     165.580E-03    -181.503E+06    -121.382E+06    -178.456E+06    -9.52382E+06    -211.919E-03     423.793E-03    -211.874E-03     5.55201E-03    -212.390E-03     423.707E-03    -212.328E-03     5.87429E-03
            1300     1.45646E-03     165.588E-03    -176.463E+06    -113.552E+06    -166.278E+06    -17.0793E+06    -211.902E-03     423.840E-03    -211.938E-03     9.76150E-03    -212.375E-03     423.765E-03    -212.348E-03     10.3716E-03
            1301     2.18451E-03     165.603E-03    -168.196E+06    -102.521E+06    -148.451E+06    -25.1306E+06    -212.074E-03     424.085E-03    -212.012E-03     14.1892E-03    -212.544E-03     424.024E-03    -212.361E-03     15.0803E-03
            1302     2.91233E-03     165.622E-03    -157.891E+06    -90.6141E+06    -127.913E+06    -32.4263E+06    -212.405E-03     424.542E-03    -212.137E-03     18.4877E-03    -212.865E-03     424.491E-03    -212.416E-03     19.6394E-03
            1303     3.64007E-03     165.647E-03    -146.233E+06    -78.3953E+06    -105.500E+06    -38.1306E+06    -212.846E-03     425.155E-03    -212.309E-03     22.6551E-03    -213.293E-03     425.110E-03    -212.510E-03     24.0651E-03
            1304     4.36746E-03     165.679E-03    -133.207E+06    -69.2056E+06    -83.1487E+06    -42.8265E+06    -213.521E-03     426.048E-03    -212.527E-03     26.4825E-03    -213.943E-03     425.992E-03    -212.649E-03     28.1161E-03
            1305     5.09428E-03     165.716E-03    -118.929E+06    -59.8752E+06    -62.1800E+06    -46.6776E+06    -214.498E-03     427.296E-03    -212.798E-03     29.9886E-03    -214.886E-03     427.230E-03    -212.849E-03     31.8131E-03
            1306     5.82033E-03     165.759E-03    -104.047E+06    -50.8192E+06    -42.8938E+06    -49.0940E+06    -215.768E-03     428.901E-03    -213.134E-03     33.2728E-03    -216.117E-03     428.825E-03    -213.123E-03     35.2550E-03
            1307     6.54532E-03     165.808E-03    -88.6897E+06    -42.8234E+06    -24.8388E+06     -49.852E+06    -217.273E-03     430.815E-03    -213.542E-03     36.3299E-03    -217.579E-03     430.726E-03    -213.475E-03     38.4187E-03
            1308     7.26918E-03     165.863E-03    -73.1114E+06    -31.8275E+06    -7.08084E+06    -48.6629E+06    -219.002E-03     433.023E-03    -214.021E-03     39.2013E-03    -219.268E-03     432.937E-03    -213.904E-03     41.3379E-03
            1309     7.99186E-03     165.922E-03    -57.7797E+06    -18.7949E+06     10.8615E+06    -45.6223E+06    -221.003E-03     435.580E-03    -214.577E-03     41.9306E-03    -221.234E-03     435.508E-03    -214.412E-03     44.0521E-03
            1310     8.71294E-03     165.986E-03    -43.9308E+06    -6.32883E+06     28.2341E+06    -41.4062E+06    -223.295E-03     438.512E-03    -215.217E-03     44.4530E-03    -223.500E-03     438.457E-03    -215.003E-03     46.4537E-03
            1311     9.43233E-03     166.052E-03    -33.3343E+06    -204.138E+03     42.5789E+06    -36.8968E+06    -225.914E-03     441.857E-03    -215.943E-03     46.5877E-03    -226.100E-03     441.801E-03    -215.682E-03     48.3283E-03
            1312     10.1498E-03     166.121E-03    -26.0705E+06     6.05759E+06     53.0614E+06    -34.4646E+06    -228.843E-03     445.592E-03    -216.749E-03     48.2829E-03    -229.025E-03     445.550E-03    -216.455E-03     49.5950E-03
            1313     10.8647E-03     166.191E-03    -20.8219E+06     16.0455E+06     60.6751E+06    -33.2745E+06    -231.983E-03     449.617E-03    -217.634E-03     49.3061E-03    -232.180E-03     449.622E-03    -217.324E-03     50.0036E-03
            1314     11.5778E-03     166.260E-03    -17.1103E+06     20.6839E+06     66.1322E+06    -31.4602E+06    -235.249E-03     453.858E-03    -218.609E-03     49.3546E-03    -235.466E-03     453.896E-03    -218.284E-03     49.2464E-03
            1315     12.2875E-03     166.326E-03    -12.7773E+06     39.1432E+06     71.7723E+06    -26.9370E+06    -238.210E-03     457.848E-03    -219.638E-03     47.9620E-03    -238.473E-03     457.997E-03    -219.317E-03     46.8926E-03
            1316     12.9967E-03     166.387E-03    -6.81316E+06     41.5258E+06     76.7701E+06    -15.8887E+06    -240.435E-03     461.157E-03    -220.721E-03     45.1297E-03    -240.734E-03     461.356E-03    -220.388E-03     42.6683E-03
            1317     13.7028E-03     166.441E-03    -2.54328E+06     33.2812E+06     93.4063E+06    -5.09825E+06    -241.814E-03     463.689E-03    -221.874E-03     37.7422E-03    -242.118E-03     463.831E-03    -221.452E-03     34.6177E-03
            1318     728.585E-06     167.026E-03    -111.177E+06    -85.6296E+06    -108.821E+06    -10.5038E+06    -212.285E-03     424.259E-03    -211.975E-03     2.70881E-03    -212.559E-03     424.150E-03    -212.233E-03     2.93256E-03
            1319     1.45691E-03     167.035E-03    -107.372E+06    -79.0543E+06    -98.4117E+06    -18.8341E+06    -212.278E-03     424.483E-03    -212.205E-03     4.63745E-03    -212.557E-03     424.386E-03    -212.427E-03     5.06989E-03
            1320     2.18536E-03     167.050E-03    -101.610E+06    -69.2820E+06    -83.4071E+06    -26.9551E+06    -212.563E-03     424.908E-03    -212.345E-03     6.87632E-03    -212.849E-03     424.828E-03    -212.514E-03     7.52431E-03
            1321     2.91344E-03     167.070E-03    -94.5964E+06    -60.4795E+06    -65.9049E+06    -34.2038E+06    -213.074E-03     425.625E-03    -212.551E-03     9.05757E-03    -213.362E-03     425.554E-03    -212.656E-03     9.90892E-03
            1322     3.64091E-03     167.097E-03    -87.0383E+06    -52.4649E+06    -49.1228E+06    -40.1676E+06    -213.689E-03     426.500E-03    -212.811E-03     11.2084E-03    -213.974E-03     426.432E-03    -212.854E-03     12.2727E-03
            1323     4.36783E-03     167.130E-03    -79.8000E+06    -45.4196E+06    -34.2505E+06    -45.1075E+06    -214.410E-03     427.517E-03    -213.107E-03     13.4669E-03    -214.690E-03     427.451E-03    -213.097E-03     14.7452E-03
            1324     5.09405E-03     167.169E-03    -73.3225E+06    -39.3299E+06    -21.3074E+06    -49.2151E+06    -215.316E-03     428.757E-03    -213.441E-03     15.7837E-03    -215.590E-03     428.693E-03    -213.384E-03     17.2693E-03
            1325     5.81940E-03     167.214E-03    -67.6226E+06    -34.1248E+06    -10.0071E+06    -52.1467E+06    -216.324E-03     430.138E-03    -213.814E-03     18.3298E-03    -216.591E-03     430.073E-03    -213.716E-03     20.0232E-03
            1326     6.54386E-03     167.266E-03    -62.4940E+06    -29.7093E+06    -192.544E+03    -54.2669E+06    -217.440E-03     431.661E-03    -214.221E-03     21.2116E-03    -217.699E-03     431.594E-03    -214.089E-03     23.0906E-03
            1327     7.26749E-03     167.323E-03    -57.3060E+06    -24.2284E+06     9.61337E+06    -55.1059E+06    -218.717E-03     433.383E-03    -214.666E-03     24.3298E-03    -218.969E-03     433.318E-03    -214.500E-03     26.3605E-03
            1328     7.98995E-03     167.386E-03    -51.4503E+06    -16.5525E+06     20.4655E+06    -53.7256E+06    -220.186E-03     435.341E-03    -215.155E-03     27.6818E-03    -220.431E-03     435.285E-03    -214.954E-03     29.8389E-03
            1329     8.71135E-03     167.453E-03    -44.4269E+06    -9.65616E+06     32.4532E+06    -49.3961E+06    -221.950E-03     437.648E-03    -215.697E-03     31.2668E-03    -222.181E-03     437.593E-03    -215.457E-03     33.5020E-03
            1330     9.43125E-03     167.525E-03    -35.6559E+06    -4.75707E+06     45.5734E+06    -43.6540E+06    -224.144E-03     440.453E-03    -216.310E-03     35.0035E-03    -224.352E-03     440.386E-03    -216.023E-03     37.2078E-03
            1331     10.1492E-03     167.599E-03    -26.3165E+06     4.05967E+06     58.4494E+06    -37.9371E+06    -226.753E-03     443.745E-03    -216.992E-03     38.6828E-03    -226.943E-03     443.687E-03    -216.667E-03     40.6832E-03
            1332     10.8657E-03     167.675E-03    -18.9928E+06     13.8155E+06     69.4463E+06    -32.2585E+06    -229.752E-03     447.508E-03    -217.756E-03     41.9002E-03    -229.939E-03     447.476E-03    -217.402E-03     43.4686E-03
            1333     11.5795E-03     167.751E-03    -14.5694E+06     16.5574E+06     77.4076E+06    -26.5518E+06    -233.125E-03     451.744E-03    -218.619E-03     44.2392E-03    -233.319E-03     451.721E-03    -218.235E-03     45.0995E-03
            1334     12.2915E-03     167.824E-03    -13.3484E+06     31.0390E+06     80.3924E+06    -21.5189E+06    -236.592E-03     456.136E-03    -219.545E-03     44.9531E-03    -236.831E-03     456.206E-03    -219.168E-03     44.8017E-03
            1335     12.9996E-03     167.891E-03    -11.9637E+06     19.6831E+06     76.4608E+06    -15.2132E+06    -240.120E-03     460.685E-03    -220.565E-03     44.0736E-03    -240.380E-03     460.751E-03    -220.194E-03     42.4535E-03
            1336     13.7066E-03     167.951E-03    -6.75320E+06     14.9050E+06     88.2049E+06    -5.94235E+06    -242.818E-03     464.529E-03    -221.711E-03     38.0153E-03    -243.080E-03     464.564E-03    -221.281E-03     35.6297E-03
            1337     725.950E-06     168.478E-03    -43.2583E+06    -49.3532E+06    -40.6171E+06    -9.51419E+06    -216.666E-03     432.849E-03    -216.182E-03    -2.03166E-03    -216.755E-03     432.722E-03    -216.251E-03    -1.93843E-03
            1338     1.45185E-03     168.487E-03    -41.1621E+06    -44.5651E+06    -32.5217E+06    -17.3517E+06    -216.614E-03     433.150E-03    -216.536E-03    -4.14061E-03    -216.712E-03     433.033E-03    -216.574E-03    -3.99080E-03
            1339     2.17733E-03     168.502E-03    -38.0070E+06    -37.8774E+06    -20.9450E+06    -24.2050E+06    -216.783E-03     433.484E-03    -216.701E-03    -6.04388E-03    -216.894E-03     433.382E-03    -216.696E-03    -5.81152E-03
            1340     2.90256E-03     168.524E-03    -34.3274E+06    -32.4873E+06    -7.80084E+06    -29.8444E+06    -217.000E-03     433.894E-03    -216.895E-03    -7.66621E-03    -217.121E-03     433.797E-03    -216.837E-03    -7.33769E-03
            1341     3.62733E-03     168.552E-03    -30.7637E+06    -27.8956E+06     4.49169E+06    -34.4000E+06    -217.288E-03     434.399E-03    -217.111E-03    -9.02556E-03    -217.420E-03     434.305E-03    -217.003E-03    -8.58163E-03
            1342     4.35179E-03     168.586E-03    -27.5176E+06    -23.8375E+06     15.5747E+06    -37.5555E+06    -217.531E-03     434.873E-03    -217.342E-03    -9.87100E-03    -217.672E-03     434.783E-03    -217.190E-03    -9.26358E-03
            1343     5.07581E-03     168.627E-03    -24.8420E+06    -20.5380E+06     25.5545E+06    -39.7643E+06    -217.664E-03     435.235E-03    -217.571E-03    -10.1830E-03    -217.815E-03     435.148E-03    -217.378E-03    -9.38950E-03
            1344     5.79957E-03     168.673E-03    -23.1113E+06    -17.6069E+06     34.3623E+06    -41.5176E+06    -217.736E-03     435.523E-03    -217.787E-03    -9.80762E-03    -217.899E-03     435.440E-03    -217.556E-03    -8.80940E-03
            1345     6.52327E-03     168.726E-03    -22.1694E+06    -15.0605E+06     42.1512E+06    -42.7937E+06    -217.851E-03     435.840E-03    -217.989E-03    -8.62773E-03    -218.028E-03     435.761E-03    -217.724E-03    -7.39670E-03
            1346     7.24647E-03     168.785E-03    -21.6516E+06    -13.1571E+06     48.7583E+06    -43.4919E+06    -218.049E-03     436.232E-03    -218.183E-03    -6.72492E-03    -218.238E-03     436.156E-03    -217.889E-03    -5.26125E-03
            1347     7.96948E-03     168.850E-03    -21.9113E+06    -11.0554E+06     53.8386E+06    -42.8051E+06    -218.357E-03     436.728E-03    -218.371E-03    -3.95862E-03    -218.558E-03     436.656E-03    -218.054E-03    -2.26344E-03
            1348     8.69197E-03     168.920E-03    -22.7043E+06    -9.02130E+06     58.1386E+06    -41.0727E+06    -218.847E-03     437.411E-03    -218.563E-03    -248.083E-06    -219.059E-03     437.342E-03    -218.227E-03     1.66775E-03
            1349     9.41392E-03     168.994E-03    -23.3600E+06    -6.56734E+06     62.7204E+06    -38.6193E+06    -219.623E-03     438.395E-03    -218.773E-03     4.60892E-03    -219.843E-03     438.328E-03    -218.416E-03     6.70292E-03
            1350     10.1351E-03     169.073E-03    -22.8730E+06    -322.305E+03     69.2050E+06    -34.8532E+06    -220.856E-03     439.871E-03    -219.015E-03     10.7001E-03    -221.083E-03     439.817E-03    -218.636E-03     12.8806E-03
            1351     10.8542E-03     169.154E-03    -20.4024E+06     5.92361E+06     77.0007E+06    -29.0835E+06    -222.816E-03     442.134E-03    -219.318E-03     17.9651E-03    -223.040E-03     442.085E-03    -218.912E-03     20.1010E-03
            1352     11.5719E-03     169.236E-03    -16.1032E+06     8.47085E+06     84.1488E+06    -22.4846E+06    -225.715E-03     445.425E-03    -219.710E-03     25.7741E-03    -225.922E-03     445.363E-03    -219.278E-03     27.6215E-03
            1353     12.2862E-03     169.316E-03    -8.80813E+06     24.4145E+06     91.8733E+06    -17.0025E+06    -229.751E-03     449.966E-03    -220.216E-03     32.7792E-03    -229.956E-03     449.962E-03    -219.779E-03     33.9646E-03
            1354     12.9991E-03     169.391E-03    -3.02106E+06     3.93998E+06     85.2989E+06    -10.6796E+06    -235.007E-03     455.892E-03    -220.885E-03     37.8165E-03    -235.168E-03     455.810E-03    -220.460E-03     37.7316E-03
            1355     13.7066E-03     169.459E-03    -672.744E+03    -313.947E+03     83.6218E+06    -4.30485E+06    -239.677E-03     461.417E-03    -221.740E-03     35.7873E-03    -239.835E-03     461.330E-03    -221.321E-03     34.7473E-03
            1356     718.885E-06     169.950E-03     14.3306E+06    -19.7540E+06     17.0269E+06    -6.32661E+06    -226.534E-03     452.530E-03    -225.996E-03    -7.73463E-03    -226.466E-03     452.379E-03    -225.903E-03    -7.81339E-03
            1357     1.43750E-03     169.960E-03     14.6213E+06    -17.1273E+06     22.4838E+06    -11.2044E+06    -226.249E-03     452.627E-03    -226.378E-03    -14.4684E-03    -226.190E-03     452.480E-03    -226.262E-03    -14.5868E-03
            1358     2.15604E-03     169.975E-03     14.6242E+06    -14.3208E+06     30.2488E+06    -15.1916E+06    -226.071E-03     452.552E-03    -226.481E-03    -21.3023E-03    -226.028E-03     452.409E-03    -226.330E-03    -21.4466E-03
            1359     2.87460E-03     169.997E-03     13.9394E+06    -11.9891E+06     38.7352E+06    -18.1575E+06    -225.670E-03     452.233E-03    -226.562E-03    -27.7071E-03    -225.648E-03     452.092E-03    -226.372E-03    -27.8316E-03
            1360     3.59342E-03     170.024E-03     12.7710E+06    -9.97508E+06     47.7459E+06    -20.4268E+06    -225.160E-03     451.780E-03    -226.620E-03    -33.7640E-03    -225.162E-03     451.641E-03    -226.385E-03    -33.8445E-03
            1361     4.31203E-03     170.058E-03     11.2919E+06    -9.15742E+06     56.4857E+06    -21.9786E+06    -224.415E-03     451.064E-03    -226.649E-03    -39.2763E-03    -224.440E-03     450.922E-03    -226.370E-03    -39.2854E-03
            1362     5.03105E-03     170.098E-03     9.64170E+06    -7.96394E+06     64.4328E+06    -22.8516E+06    -223.371E-03     449.997E-03    -226.626E-03    -44.0662E-03    -223.423E-03     449.858E-03    -226.306E-03    -43.9691E-03
            1363     5.75071E-03     170.144E-03     7.77418E+06    -6.19842E+06     71.5715E+06    -23.3775E+06    -222.209E-03     448.757E-03    -226.548E-03    -48.2028E-03    -222.288E-03     448.625E-03    -226.192E-03    -47.9728E-03
            1364     6.47064E-03     170.196E-03     5.42717E+06    -5.26958E+06     77.5701E+06    -23.4157E+06    -220.853E-03     447.271E-03    -226.418E-03    -51.6333E-03    -220.960E-03     447.145E-03    -226.030E-03    -51.2503E-03
            1365     7.19152E-03     170.254E-03     2.38587E+06    -5.03269E+06     81.8660E+06    -23.0168E+06    -219.306E-03     445.534E-03    -226.228E-03    -54.1221E-03    -219.441E-03     445.415E-03    -225.815E-03    -53.5700E-03
            1366     7.91299E-03     170.318E-03    -584.306E+03    -5.16709E+06     84.8773E+06    -22.5721E+06    -217.687E-03     443.665E-03    -225.978E-03    -55.4966E-03    -217.847E-03     443.553E-03    -225.545E-03    -54.7732E-03
            1367     8.63541E-03     170.387E-03    -3.01861E+06    -5.13738E+06     87.2418E+06    -21.8371E+06    -216.000E-03     441.671E-03    -225.670E-03    -55.5329E-03    -216.181E-03     441.565E-03    -225.222E-03    -54.6413E-03
            1368     9.35883E-03     170.461E-03    -4.75146E+06    -4.08021E+06     89.7520E+06    -20.8945E+06    -214.245E-03     439.550E-03    -225.305E-03    -54.0407E-03    -214.440E-03     439.452E-03    -224.844E-03    -52.9951E-03
            1369     10.0836E-03     170.539E-03    -6.05640E+06    -1.37926E+06     92.1850E+06    -19.5596E+06    -212.564E-03     437.445E-03    -224.882E-03    -50.6652E-03    -212.771E-03     437.358E-03    -224.410E-03    -49.4728E-03
            1370     10.8102E-03     170.621E-03    -7.15878E+06     427.092E+03     92.7436E+06    -17.3674E+06    -211.373E-03     435.783E-03    -224.410E-03    -44.9297E-03    -211.581E-03     435.701E-03    -223.937E-03    -43.6093E-03
            1371     11.5370E-03     170.706E-03    -7.43169E+06     2.00122E+06     91.9009E+06    -14.2258E+06    -211.290E-03     435.222E-03    -223.932E-03    -36.5229E-03    -211.488E-03     435.138E-03    -223.465E-03    -35.1444E-03
            1372     12.2637E-03     170.793E-03    -6.66314E+06     16.1842E+06     94.8572E+06    -10.4553E+06    -212.682E-03     436.193E-03    -223.511E-03    -25.0173E-03    -212.887E-03     436.164E-03    -223.050E-03    -23.7533E-03
            1373     12.9850E-03     170.879E-03    -3.90474E+06    -4.05543E+06     82.6901E+06    -4.84861E+06    -215.282E-03     438.436E-03    -223.154E-03    -9.13271E-03    -215.417E-03     438.314E-03    -222.729E-03    -8.48922E-03
            1374     13.7020E-03     170.959E-03      29.539E+03    -6.98630E+06     67.3492E+06    -1.75403E+06    -217.849E-03     440.692E-03    -222.843E-03     7.99691E-03    -217.938E-03     440.570E-03    -222.496E-03     8.00548E-03
            1375     13.6715E-03     84.8439E-03    -5.77046E+06     90.5970E+06     105.360E+06     613.139E+03    -223.139E-03     447.321E-03    -224.182E-03     26.4872E-03    -223.588E-03     447.766E-03    -223.778E-03     22.3946E-03
            1376     12.9515E-03     84.8013E-03    -12.4777E+06     85.3332E+06     100.953E+06    -277.893E+03    -223.302E-03     447.499E-03    -224.198E-03     33.7039E-03    -223.809E-03     447.973E-03    -223.799E-03     29.2719E-03
            1377     12.2316E-03     84.7545E-03    -18.6987E+06     79.4768E+06     90.0347E+06    -656.931E+03    -223.438E-03     447.617E-03    -224.179E-03     35.6196E-03    -223.932E-03     448.066E-03    -223.817E-03     31.7746E-03
            1378     11.5120E-03     84.7039E-03    -24.0487E+06     75.2528E+06     78.4292E+06    -229.344E+03    -223.507E-03     447.661E-03    -224.154E-03     37.1056E-03    -223.989E-03     448.098E-03    -223.836E-03     33.7655E-03
            1379     10.7923E-03     84.6510E-03    -29.7414E+06     62.0479E+06     67.4108E+06     91.8658E+03    -223.491E-03     447.641E-03    -224.150E-03     37.4508E-03    -223.943E-03     448.013E-03    -223.860E-03     34.6986E-03
            1380     10.0725E-03     84.5981E-03    -36.2448E+06     37.5638E+06     58.1040E+06     637.421E+03    -223.535E-03     447.713E-03    -224.178E-03     36.8968E-03    -223.947E-03     447.961E-03    -223.889E-03     34.7333E-03
            1381     9.35277E-03     84.5456E-03    -43.2989E+06     2.25319E+06     47.3611E+06     902.134E+03    -223.640E-03     447.856E-03    -224.217E-03     35.6884E-03    -223.998E-03     447.932E-03    -223.920E-03     34.0775E-03
            1382     8.63304E-03     84.4947E-03    -50.4384E+06    -35.1209E+06     34.8773E+06     646.025E+03    -223.742E-03     447.990E-03    -224.249E-03     34.0522E-03    -224.045E-03     447.889E-03    -223.950E-03     32.9276E-03
            1383     7.91343E-03     84.4457E-03    -57.7442E+06    -65.6621E+06     22.8853E+06     506.530E+03    -223.812E-03     448.085E-03    -224.273E-03     32.1709E-03    -224.076E-03     447.844E-03    -223.979E-03     31.4661E-03
            1384     7.19382E-03     84.3993E-03    -65.2503E+06    -92.3739E+06     10.5768E+06     492.837E+03    -223.868E-03     448.156E-03    -224.288E-03     30.0707E-03    -224.101E-03     447.799E-03    -224.007E-03     29.7226E-03
            1385     6.47419E-03     84.3555E-03    -73.0102E+06    -116.469E+06    -2.40211E+06     440.540E+03    -223.910E-03     448.206E-03    -224.296E-03     27.7644E-03    -224.120E-03     447.750E-03    -224.033E-03     27.7050E-03
            1386     5.75475E-03     84.3153E-03    -81.0132E+06    -139.665E+06    -16.5308E+06     443.686E+03    -223.934E-03     448.230E-03    -224.296E-03     25.2765E-03    -224.123E-03     447.684E-03    -224.059E-03     25.4412E-03
            1387     5.03526E-03     84.2785E-03      -89.09E+06    -161.535E+06    -31.9168E+06     397.009E+03    -223.928E-03     448.218E-03    -224.290E-03     22.5843E-03    -224.100E-03     447.592E-03    -224.086E-03     22.9050E-03
            1388     4.31578E-03     84.2459E-03    -97.2878E+06    -182.774E+06    -48.6278E+06     290.823E+03    -223.921E-03     448.202E-03    -224.281E-03     19.7046E-03    -224.076E-03     447.503E-03    -224.118E-03     20.1148E-03
            1389     3.59628E-03     84.2174E-03    -105.271E+06    -203.945E+06    -66.3820E+06     189.390E+03    -223.972E-03     448.241E-03    -224.269E-03     16.6879E-03    -224.109E-03     447.472E-03    -224.152E-03     17.1292E-03
            1390     2.87700E-03     84.1937E-03    -112.679E+06    -224.253E+06    -84.5321E+06     249.083E+03    -224.091E-03     448.332E-03    -224.241E-03     13.5640E-03    -224.208E-03     447.498E-03    -224.175E-03     13.9922E-03
            1391     2.15789E-03     84.1746E-03    -119.187E+06    -242.355E+06    -101.704E+06     351.039E+03    -224.143E-03     448.338E-03    -224.194E-03     10.3447E-03    -224.240E-03     447.446E-03    -224.179E-03     10.7119E-03
            1392     1.43866E-03     84.1610E-03    -123.998E+06    -257.300E+06    -115.620E+06     244.039E+03    -224.099E-03     448.257E-03    -224.159E-03     7.06164E-03    -224.178E-03     447.318E-03    -224.184E-03     7.32700E-03
            1393     719.095E-06     84.1526E-03    -127.567E+06    -268.107E+06    -125.074E+06     43.0310E+03    -224.187E-03     448.271E-03    -224.084E-03     3.88550E-03    -224.255E-03     447.297E-03    -224.136E-03     4.02978E-03
            1394     13.6718E-03     83.3612E-03    -5.83507E+06     89.9623E+06     105.391E+06     457.688E+03    -223.289E-03     447.456E-03    -224.167E-03     26.7355E-03    -223.739E-03     447.899E-03    -223.762E-03     22.6175E-03
            1395     12.9517E-03     83.3177E-03    -11.1334E+06     86.3145E+06     102.086E+06     199.150E+03    -223.325E-03     447.503E-03    -224.178E-03     33.7667E-03    -223.829E-03     447.978E-03    -223.777E-03     29.3405E-03
            1396     12.2322E-03     83.2707E-03    -17.4816E+06     80.8613E+06     90.5743E+06    -607.161E+03    -223.309E-03     447.467E-03    -224.158E-03     35.5664E-03    -223.799E-03     447.920E-03    -223.797E-03     31.7254E-03
            1397     11.5124E-03     83.2203E-03    -24.2861E+06     74.3708E+06     77.3024E+06    -1.05120E+06    -223.303E-03     447.443E-03    -224.140E-03     37.3548E-03    -223.784E-03     447.877E-03    -223.826E-03     34.0064E-03
            1398     10.7924E-03     83.1679E-03    -31.0332E+06     60.3904E+06     66.1009E+06    -252.850E+03    -223.385E-03     447.533E-03    -224.147E-03     37.7960E-03    -223.840E-03     447.900E-03    -223.859E-03     35.0535E-03
            1399     10.0725E-03     83.1147E-03    -37.5772E+06     36.5375E+06     56.9565E+06     442.127E+03    -223.505E-03     447.686E-03    -224.180E-03     37.1767E-03    -223.920E-03     447.932E-03    -223.894E-03     35.0348E-03
            1400     9.35267E-03     83.0622E-03    -44.0266E+06     2.47276E+06     46.7858E+06     589.148E+03    -223.651E-03     447.872E-03    -224.221E-03     35.8428E-03    -224.013E-03     447.950E-03    -223.927E-03     34.2440E-03
            1401     8.63301E-03     83.0113E-03    -50.8856E+06    -34.7146E+06     34.5021E+06     622.409E+03    -223.770E-03     448.022E-03    -224.252E-03     34.1316E-03    -224.075E-03     447.924E-03    -223.956E-03     33.0144E-03
            1402     7.91331E-03     82.9624E-03    -58.0915E+06    -65.6971E+06     22.4778E+06     573.901E+03    -223.849E-03     448.123E-03    -224.274E-03     32.2078E-03    -224.114E-03     447.883E-03    -223.982E-03     31.5063E-03
            1403     7.19375E-03     82.9158E-03    -65.5354E+06    -92.2014E+06     10.3195E+06     513.502E+03    -223.890E-03     448.178E-03    -224.287E-03     30.0476E-03    -224.125E-03     447.823E-03    -224.007E-03     29.6981E-03
            1404     6.47426E-03     82.8723E-03    -73.1956E+06    -116.356E+06    -2.60778E+06     466.854E+03    -223.898E-03     448.192E-03    -224.294E-03     27.7026E-03    -224.109E-03     447.738E-03    -224.033E-03     27.6420E-03
            1405     5.75467E-03     82.8319E-03    -81.1241E+06    -139.561E+06    -16.6862E+06     405.852E+03    -223.922E-03     448.218E-03    -224.296E-03     25.2172E-03    -224.112E-03     447.673E-03    -224.059E-03     25.3786E-03
            1406     5.03526E-03     82.7952E-03    -89.2765E+06    -161.373E+06    -32.0551E+06     364.856E+03    -223.949E-03     448.237E-03    -224.289E-03     22.5527E-03    -224.121E-03     447.613E-03    -224.085E-03     22.8683E-03
            1407     4.31585E-03     82.7626E-03    -97.4183E+06    -182.579E+06    -48.8914E+06     327.543E+03    -223.967E-03     448.240E-03    -224.273E-03     19.7018E-03    -224.122E-03     447.543E-03    -224.111E-03     20.1096E-03
            1408     3.59648E-03     82.7342E-03    -105.360E+06    -203.827E+06    -66.7280E+06     300.088E+03    -224.003E-03     448.254E-03    -224.251E-03     16.7126E-03    -224.139E-03     447.486E-03    -224.136E-03     17.1596E-03
            1409     2.87709E-03     82.7102E-03    -112.742E+06    -224.390E+06    -84.5281E+06     285.024E+03    -224.026E-03     448.253E-03    -224.227E-03     13.6381E-03    -224.143E-03     447.418E-03    -224.161E-03     14.0692E-03
            1410     2.15771E-03     82.6914E-03    -119.154E+06    -242.145E+06    -101.432E+06     325.572E+03    -224.044E-03     448.251E-03    -224.207E-03     10.4366E-03    -224.142E-03     447.360E-03    -224.190E-03     10.7998E-03
            1411     1.43832E-03     82.6780E-03    -124.388E+06    -256.929E+06    -115.853E+06     269.935E+03    -224.108E-03     448.302E-03    -224.193E-03     7.11713E-03    -224.190E-03     447.365E-03    -224.220E-03     7.38419E-03
            1412     719.289E-06     82.6694E-03    -127.579E+06    -267.658E+06    -125.445E+06     195.303E+03    -224.079E-03     448.352E-03    -224.273E-03     3.93244E-03    -224.147E-03     447.380E-03    -224.327E-03     4.08282E-03
            1413     13.6712E-03     81.8770E-03    -5.05653E+06     89.7196E+06     105.675E+06     14.3972E+03    -223.260E-03     447.416E-03    -224.156E-03     26.6813E-03    -223.707E-03     447.857E-03    -223.750E-03     22.5164E-03
            1414     12.9523E-03     81.8335E-03    -10.3144E+06     87.0641E+06     102.843E+06    -153.317E+03    -223.103E-03     447.278E-03    -224.175E-03     34.0459E-03    -223.608E-03     447.757E-03    -223.772E-03     29.5902E-03
            1415     12.2322E-03     81.7879E-03    -17.2410E+06     81.2809E+06     90.5316E+06     192.867E+03    -223.067E-03     447.233E-03    -224.167E-03     36.3596E-03    -223.557E-03     447.689E-03    -223.807E-03     32.5669E-03
            1416     11.5119E-03     81.7372E-03    -24.4761E+06     74.1896E+06     75.5966E+06     563.844E+03    -223.274E-03     447.425E-03    -224.151E-03     37.9072E-03    -223.752E-03     447.861E-03    -223.845E-03     34.6336E-03
            1417     10.7919E-03     81.6845E-03    -31.4786E+06     59.8131E+06     64.3356E+06     139.396E+03    -223.491E-03     447.650E-03    -224.159E-03     37.9465E-03    -223.943E-03     448.017E-03    -223.879E-03     35.2314E-03
            1418     10.0722E-03     81.6313E-03    -38.1952E+06     36.3103E+06     56.2558E+06    -120.146E+03    -223.621E-03     447.812E-03    -224.191E-03     37.1129E-03    -224.037E-03     448.058E-03    -223.907E-03     34.9663E-03
            1419     9.35253E-03     81.5787E-03    -44.9688E+06     2.02762E+06     45.9210E+06    -12.0358E+03    -223.708E-03     447.933E-03    -224.225E-03     35.6946E-03    -224.072E-03     448.011E-03    -223.933E-03     34.0812E-03
            1420     8.63285E-03     81.5278E-03    -51.8677E+06    -34.9639E+06     33.8005E+06     228.328E+03    -223.803E-03     448.057E-03    -224.253E-03     33.9869E-03    -224.113E-03     447.960E-03    -223.958E-03     32.8571E-03
            1421     7.91336E-03     81.4788E-03    -58.8717E+06    -65.4975E+06      21.975E+06     268.056E+03    -223.867E-03     448.139E-03    -224.272E-03     32.1116E-03    -224.135E-03     447.903E-03    -223.982E-03     31.3994E-03
            1422     7.19382E-03     81.4324E-03    -66.0917E+06    -92.1893E+06     9.89731E+06     250.361E+03    -223.897E-03     448.182E-03    -224.284E-03     29.9982E-03    -224.135E-03     447.828E-03    -224.005E-03     29.6405E-03
            1423     6.47426E-03     81.3889E-03    -73.7122E+06    -116.297E+06    -2.99682E+06     296.224E+03    -223.908E-03     448.198E-03    -224.290E-03     27.6792E-03    -224.121E-03     447.745E-03    -224.029E-03     27.6135E-03
            1424     5.75480E-03     81.3486E-03    -81.6630E+06    -139.481E+06    -17.1132E+06     364.084E+03    -223.901E-03     448.192E-03    -224.291E-03     25.1974E-03    -224.093E-03     447.649E-03    -224.056E-03     25.3577E-03
            1425     5.03524E-03     81.3119E-03    -89.7054E+06    -161.306E+06    -32.4806E+06     333.236E+03    -223.915E-03     448.202E-03    -224.287E-03     22.5516E-03    -224.089E-03     447.580E-03    -224.086E-03     22.8699E-03
            1426     4.31579E-03     81.2793E-03    -97.8575E+06    -182.656E+06    -49.2091E+06     354.364E+03    -223.972E-03     448.246E-03    -224.274E-03     19.7685E-03    -224.128E-03     447.550E-03    -224.114E-03     20.1835E-03
            1427     3.59644E-03     81.2508E-03    -105.782E+06    -203.638E+06    -67.0638E+06     407.762E+03    -224.005E-03     448.257E-03    -224.252E-03     16.8290E-03    -224.144E-03     447.491E-03    -224.139E-03     17.2796E-03
            1428     2.87710E-03     81.2272E-03    -113.135E+06    -224.107E+06    -85.0260E+06     234.493E+03    -224.000E-03     448.231E-03    -224.231E-03     13.6694E-03    -224.118E-03     447.398E-03    -224.167E-03     14.0959E-03
            1429     2.15765E-03     81.2084E-03    -119.625E+06    -242.129E+06    -101.886E+06     102.466E+03    -224.036E-03     448.254E-03    -224.218E-03     10.3572E-03    -224.135E-03     447.365E-03    -224.203E-03     10.7212E-03
            1430     1.43845E-03     81.1945E-03    -124.647E+06    -256.622E+06    -116.032E+06     171.446E+03    -224.127E-03     448.334E-03    -224.207E-03     7.03362E-03    -224.210E-03     447.400E-03    -224.234E-03     7.30208E-03
            1431     719.167E-06     81.1860E-03    -127.667E+06    -267.276E+06    -125.474E+06     93.4565E+03    -224.103E-03     448.376E-03    -224.273E-03     3.77370E-03    -224.171E-03     447.407E-03    -224.328E-03     3.92020E-03
            1432     13.6728E-03     80.3930E-03    -4.81111E+06     90.2476E+06     106.097E+06    -324.033E+03    -222.818E-03     446.989E-03    -224.171E-03     27.2155E-03    -223.267E-03     447.434E-03    -223.764E-03     23.0605E-03
            1433     12.9514E-03     80.3516E-03    -11.5513E+06     85.3689E+06     101.015E+06     490.960E+03    -222.885E-03     447.089E-03    -224.204E-03     34.8794E-03    -223.391E-03     447.564E-03    -223.806E-03     30.4975E-03
            1434     12.2309E-03     80.3045E-03    -18.2850E+06     79.6490E+06     89.3426E+06     738.556E+03    -223.352E-03     447.551E-03    -224.199E-03     36.3308E-03    -223.843E-03     448.000E-03    -223.841E-03     32.5650E-03
            1435     11.5115E-03     80.2537E-03    -24.4375E+06     74.5180E+06     76.4461E+06     787.112E+03    -223.550E-03     447.724E-03    -224.173E-03     37.4046E-03    -224.030E-03     448.159E-03    -223.863E-03     34.1149E-03
            1436     10.7919E-03     80.2007E-03    -30.7526E+06     60.8137E+06     65.2254E+06     629.513E+03    -223.646E-03     447.811E-03    -224.165E-03     37.4807E-03    -224.098E-03     448.181E-03    -223.883E-03     34.7512E-03
            1437     10.0723E-03     80.1475E-03    -37.6524E+06     36.7739E+06     56.4118E+06     219.906E+03    -223.689E-03     447.875E-03    -224.186E-03     36.7312E-03    -224.104E-03     448.123E-03    -223.903E-03     34.5652E-03
            1438     9.35269E-03     80.0952E-03    -44.7760E+06     1.76296E+06     45.8313E+06    -22.0105E+03    -223.718E-03     447.935E-03    -224.217E-03     35.4669E-03    -224.081E-03     448.012E-03    -223.925E-03     33.8415E-03
            1439     8.63310E-03     80.0443E-03    -51.8209E+06    -35.1951E+06     33.6891E+06    -76.7082E+03    -223.771E-03     448.016E-03    -224.245E-03     33.8845E-03    -224.079E-03     447.917E-03    -223.950E-03     32.7463E-03
            1440     7.91339E-03     79.9954E-03    -58.9615E+06    -65.4701E+06     21.8230E+06    -34.7023E+03    -223.818E-03     448.085E-03    -224.266E-03     32.0800E-03    -224.087E-03     447.849E-03    -223.977E-03     31.3650E-03
            1441     7.19378E-03     79.9490E-03    -66.3861E+06    -92.4166E+06     9.55260E+06    -4.96465E+03    -223.858E-03     448.140E-03    -224.282E-03     29.9986E-03    -224.096E-03     447.786E-03    -224.004E-03     29.6414E-03
            1442     6.47426E-03     79.9055E-03    -74.0361E+06    -116.564E+06    -3.41152E+06     123.067E+03    -223.882E-03     448.173E-03    -224.291E-03     27.7140E-03    -224.096E-03     447.720E-03    -224.031E-03     27.6511E-03
            1443     5.75473E-03     79.8653E-03    -81.8669E+06    -139.509E+06    -17.3570E+06     200.895E+03    -223.897E-03     448.192E-03    -224.294E-03     25.2554E-03    -224.090E-03     447.649E-03    -224.060E-03     25.4175E-03
            1444     5.03525E-03     79.8288E-03    -89.9460E+06    -161.302E+06    -32.6433E+06     264.784E+03    -223.914E-03     448.205E-03    -224.292E-03     22.6036E-03    -224.089E-03     447.583E-03    -224.091E-03     22.9261E-03
            1445     4.31577E-03     79.7959E-03    -98.0371E+06    -182.710E+06    -49.3591E+06     283.482E+03    -223.943E-03     448.225E-03    -224.282E-03     19.7655E-03    -224.100E-03     447.529E-03    -224.122E-03     20.1813E-03
            1446     3.59632E-03     79.7676E-03    -105.930E+06    -203.508E+06    -67.0507E+06     240.741E+03    -223.985E-03     448.252E-03    -224.267E-03     16.7746E-03    -224.124E-03     447.487E-03    -224.153E-03     17.2194E-03
            1447     2.87694E-03     79.7439E-03    -113.230E+06    -223.702E+06    -85.0321E+06     198.573E+03    -224.053E-03     448.296E-03    -224.243E-03     13.6389E-03    -224.173E-03     447.466E-03    -224.180E-03     14.0637E-03
            1448     2.15780E-03     79.7251E-03    -119.598E+06    -242.028E+06    -102.045E+06    -5.95750E+03    -224.108E-03     448.319E-03    -224.212E-03     10.3980E-03    -224.207E-03     447.431E-03    -224.198E-03     10.7646E-03
            1449     1.43845E-03     79.7112E-03    -124.531E+06    -256.514E+06    -116.054E+06    -108.791E+03    -224.107E-03     448.296E-03    -224.189E-03     7.05967E-03    -224.189E-03     447.362E-03    -224.217E-03     7.32640E-03
            1450     719.191E-06     79.7028E-03    -128.203E+06    -267.257E+06    -125.496E+06     16.5357E+03    -224.212E-03     448.342E-03    -224.130E-03     3.86572E-03    -224.283E-03     447.374E-03    -224.184E-03     4.02813E-03
            1451     13.6697E-03     78.9125E-03    -5.85533E+06     89.0368E+06     104.325E+06    -367.366E+03    -222.836E-03     447.028E-03    -224.193E-03     26.9496E-03    -223.284E-03     447.469E-03    -223.792E-03     22.8048E-03
            1452     12.9502E-03     78.8673E-03    -12.5643E+06     84.6861E+06     100.541E+06     37.9865E+03    -223.452E-03     447.668E-03    -224.215E-03     33.7572E-03    -223.959E-03     448.139E-03    -223.817E-03     29.3275E-03
            1453     12.2317E-03     78.8203E-03    -17.9071E+06     80.1178E+06      90.822E+06     664.418E+03    -223.587E-03     447.778E-03    -224.191E-03     35.1149E-03    -224.078E-03     448.226E-03    -223.827E-03     31.2796E-03
            1454     11.5120E-03     78.7698E-03    -23.9632E+06     74.5337E+06     77.9569E+06     648.259E+03    -223.544E-03     447.701E-03    -224.157E-03     36.7807E-03    -224.023E-03     448.133E-03    -223.841E-03     33.4544E-03
            1455     10.7923E-03     78.7169E-03    -30.3266E+06     61.0496E+06     66.3744E+06     658.272E+03    -223.529E-03     447.678E-03    -224.149E-03     37.3141E-03    -223.981E-03     448.047E-03    -223.862E-03     34.5722E-03
            1456     10.0726E-03     78.6640E-03    -36.6446E+06     37.1959E+06     57.2227E+06     672.272E+03    -223.587E-03     447.760E-03    -224.173E-03     36.7541E-03    -223.999E-03     448.008E-03    -223.888E-03     34.5960E-03
            1457     9.35285E-03     78.6116E-03    -43.5417E+06     2.34727E+06     46.6296E+06     421.901E+03    -223.672E-03     447.881E-03    -224.208E-03     35.5430E-03    -224.031E-03     447.958E-03    -223.915E-03     33.9266E-03
            1458     8.63308E-03     78.5610E-03    -50.8017E+06    -35.0202E+06     34.1165E+06     154.419E+03    -223.732E-03     447.971E-03    -224.239E-03     33.9505E-03    -224.037E-03     447.872E-03    -223.944E-03     32.8212E-03
            1459     7.91344E-03     78.5121E-03    -58.1774E+06    -65.5400E+06     22.0935E+06     72.4485E+03    -223.768E-03     448.032E-03    -224.264E-03     32.1248E-03    -224.033E-03     447.794E-03    -223.974E-03     31.4181E-03
            1460     7.19383E-03     78.4657E-03    -65.7572E+06    -92.6645E+06     9.75759E+06     132.350E+03    -223.813E-03     448.098E-03    -224.285E-03     30.0370E-03    -224.048E-03     447.742E-03    -224.006E-03     29.6890E-03
            1461     6.47420E-03     78.4222E-03    -73.5399E+06    -116.822E+06    -3.20616E+06     148.373E+03    -223.861E-03     448.159E-03    -224.298E-03     27.7172E-03    -224.071E-03     447.703E-03    -224.038E-03     27.6618E-03
            1462     5.75462E-03     78.3820E-03    -81.5412E+06    -139.557E+06    -17.2111E+06     167.762E+03    -223.905E-03     448.208E-03    -224.303E-03     25.2184E-03    -224.096E-03     447.665E-03    -224.069E-03     25.3848E-03
            1463     5.03516E-03     78.3453E-03    -89.7051E+06    -161.412E+06    -32.4481E+06     244.529E+03    -223.942E-03     448.242E-03    -224.300E-03     22.5755E-03    -224.116E-03     447.619E-03    -224.098E-03     22.8976E-03
            1464     4.31575E-03     78.3127E-03    -97.9131E+06    -182.601E+06    -49.1286E+06     268.505E+03    -223.967E-03     448.254E-03    -224.288E-03     19.7332E-03    -224.124E-03     447.558E-03    -224.127E-03     20.1473E-03
            1465     3.59636E-03     78.2843E-03    -105.829E+06    -203.326E+06    -67.0412E+06     149.512E+03    -223.999E-03     448.267E-03    -224.268E-03     16.7021E-03    -224.138E-03     447.503E-03    -224.155E-03     17.1494E-03
            1466     2.87703E-03     78.2606E-03    -113.257E+06    -223.593E+06    -85.2170E+06     39.2204E+03    -224.050E-03     448.292E-03    -224.243E-03     13.5785E-03    -224.169E-03     447.463E-03    -224.180E-03     14.0068E-03
            1467     2.15763E-03     78.2416E-03    -119.654E+06    -241.829E+06    -102.174E+06     53.4467E+03    -224.100E-03     448.313E-03    -224.213E-03     10.3652E-03    -224.200E-03     447.426E-03    -224.200E-03     10.7304E-03
            1468     1.43851E-03     78.2281E-03    -124.718E+06    -256.731E+06    -116.394E+06     17.5575E+03    -224.134E-03     448.318E-03    -224.185E-03     7.07009E-03    -224.216E-03     447.384E-03    -224.214E-03     7.33458E-03
            1469     719.217E-06     78.2196E-03    -127.924E+06    -267.214E+06    -125.893E+06     25.0392E+03    -224.175E-03     448.319E-03    -224.145E-03     3.97807E-03    -224.244E-03     447.351E-03    -224.201E-03     4.14297E-03
            1470     13.6717E-03     77.4263E-03    -6.45322E+06     89.1382E+06     104.222E+06    -103.534E+03    -223.448E-03     447.608E-03    -224.160E-03     25.7389E-03    -223.895E-03     448.047E-03    -223.759E-03     21.6099E-03
            1471     12.9531E-03     77.3834E-03    -11.5313E+06     85.2633E+06     101.385E+06    -776.226E+03    -223.316E-03     447.485E-03    -224.169E-03     33.2954E-03    -223.820E-03     447.956E-03    -223.769E-03     28.8085E-03
            1472     12.2323E-03     77.3366E-03    -17.9611E+06     79.0917E+06     89.9809E+06    -89.6790E+03    -223.252E-03     447.404E-03    -224.152E-03     35.7197E-03    -223.742E-03     447.850E-03    -223.791E-03     31.8852E-03
            1473     11.5125E-03     77.2863E-03    -23.9248E+06     74.1203E+06     77.3795E+06     552.704E+03    -223.376E-03     447.509E-03    -224.132E-03     37.2711E-03    -223.854E-03     447.940E-03    -223.818E-03     33.9636E-03
            1474     10.7925E-03     77.2338E-03    -30.0593E+06     61.3108E+06     66.4791E+06     647.851E+03    -223.411E-03     447.546E-03    -224.135E-03     37.5899E-03    -223.861E-03     447.915E-03    -223.848E-03     34.8703E-03
            1475     10.0725E-03     77.1804E-03    -36.7790E+06     37.1957E+06     57.2069E+06     560.176E+03    -223.477E-03     447.645E-03    -224.168E-03     36.8935E-03    -223.889E-03     447.892E-03    -223.882E-03     34.7561E-03
            1476     9.35272E-03     77.1283E-03    -43.5413E+06     2.79275E+06      46.751E+06     574.627E+03    -223.603E-03     447.813E-03    -224.209E-03     35.6113E-03    -223.962E-03     447.891E-03    -223.916E-03     34.0109E-03
            1477     8.63310E-03     77.0775E-03    -50.5809E+06    -34.6418E+06     34.3515E+06     516.415E+03    -223.717E-03     447.961E-03    -224.244E-03     34.0167E-03    -224.021E-03     447.863E-03    -223.949E-03     32.9004E-03
            1478     7.91340E-03     77.0288E-03    -58.0588E+06    -65.6303E+06     22.1932E+06     521.743E+03    -223.772E-03     448.043E-03    -224.270E-03     32.1776E-03    -224.037E-03     447.804E-03    -223.980E-03     31.4830E-03
            1479     7.19369E-03     76.9824E-03    -65.7828E+06    -92.6514E+06     9.85886E+06     532.199E+03    -223.826E-03     448.117E-03    -224.291E-03     30.0512E-03    -224.061E-03     447.761E-03    -224.012E-03     29.7138E-03
            1480     6.47414E-03     76.9389E-03    -73.6078E+06    -116.733E+06    -3.08245E+06     471.155E+03    -223.887E-03     448.190E-03    -224.303E-03     27.6614E-03    -224.099E-03     447.735E-03    -224.042E-03     27.6105E-03
            1481     5.75468E-03     76.8986E-03    -81.6202E+06    -139.547E+06    -17.2155E+06     388.852E+03    -223.921E-03     448.226E-03    -224.305E-03     25.1368E-03    -224.113E-03     447.683E-03    -224.070E-03     25.3055E-03
            1482     5.03517E-03     76.8620E-03    -89.8987E+06     -161.52E+06    -32.6771E+06     302.230E+03    -223.946E-03     448.245E-03    -224.299E-03     22.4915E-03    -224.120E-03     447.622E-03    -224.098E-03     22.8149E-03
            1483     4.31574E-03     76.8293E-03    -97.9743E+06    -182.420E+06    -49.2645E+06     246.741E+03    -223.976E-03     448.261E-03    -224.285E-03     19.6804E-03    -224.133E-03     447.566E-03    -224.125E-03     20.0954E-03
            1484     3.59639E-03     76.8010E-03    -105.853E+06    -202.967E+06    -67.1007E+06     171.817E+03    -224.006E-03     448.270E-03    -224.264E-03     16.7178E-03    -224.145E-03     447.507E-03    -224.151E-03     17.1680E-03
            1485     2.87703E-03     76.7773E-03    -113.381E+06    -223.522E+06    -85.4035E+06     69.1692E+03    -224.041E-03     448.279E-03    -224.238E-03     13.6125E-03    -224.160E-03     447.450E-03    -224.176E-03     14.0444E-03
            1486     2.15779E-03     76.7585E-03    -119.964E+06    -242.052E+06    -102.504E+06     52.7336E+03    -224.082E-03     448.294E-03    -224.212E-03     10.3500E-03    -224.182E-03     447.406E-03    -224.200E-03     10.7151E-03
            1487     1.43836E-03     76.7447E-03    -124.917E+06    -256.716E+06    -116.413E+06     72.3025E+03    -224.145E-03     448.329E-03    -224.184E-03     7.03924E-03    -224.228E-03     447.395E-03    -224.213E-03     7.30416E-03
            1488     719.264E-06     76.7363E-03    -127.904E+06    -267.050E+06    -125.776E+06     152.024E+03    -224.083E-03     448.311E-03    -224.228E-03     3.89358E-03    -224.153E-03     447.343E-03    -224.284E-03     4.04715E-03
            1489     13.6733E-03     75.9431E-03    -5.84848E+06     89.5380E+06     104.940E+06     106.261E+03    -223.162E-03     447.303E-03    -224.140E-03     27.3581E-03    -223.613E-03     447.746E-03    -223.737E-03     23.2630E-03
            1490     12.9515E-03     75.9010E-03    -11.6285E+06     84.4879E+06     100.790E+06     151.649E+03    -223.088E-03     447.248E-03    -224.160E-03     34.8210E-03    -223.593E-03     447.720E-03    -223.762E-03     30.4038E-03
            1491     12.2320E-03     75.8535E-03    -17.9929E+06     78.4561E+06     89.4275E+06    -164.508E+03    -223.251E-03     447.401E-03    -224.151E-03     36.2084E-03    -223.738E-03     447.844E-03    -223.791E-03     32.4230E-03
            1492     11.5119E-03     75.8028E-03    -24.7616E+06     73.1809E+06     76.5706E+06    -354.642E+03    -223.332E-03     447.465E-03    -224.134E-03     37.4086E-03    -223.810E-03     447.894E-03    -223.821E-03     34.1084E-03
            1493     10.7924E-03     75.7503E-03    -30.8146E+06     60.6852E+06     66.1106E+06     254.695E+03    -223.442E-03     447.581E-03    -224.139E-03     37.6306E-03    -223.895E-03     447.948E-03    -223.852E-03     34.9155E-03
            1494     10.0726E-03     75.6973E-03    -37.2385E+06     37.3178E+06     57.0680E+06     604.634E+03    -223.470E-03     447.640E-03    -224.170E-03     36.9254E-03    -223.884E-03     447.889E-03    -223.885E-03     34.7951E-03
            1495     9.35274E-03     75.6449E-03    -44.1249E+06     2.72501E+06     46.4672E+06     538.617E+03    -223.552E-03     447.766E-03    -224.214E-03     35.6257E-03    -223.913E-03     447.845E-03    -223.921E-03     34.0373E-03
            1496     8.63288E-03     75.5942E-03    -51.1527E+06    -34.8235E+06     34.1805E+06     667.969E+03    -223.703E-03     447.955E-03    -224.252E-03     33.9857E-03    -224.009E-03     447.857E-03    -223.956E-03     32.8762E-03
            1497     7.91325E-03     75.5455E-03    -58.4518E+06    -65.5941E+06     22.2243E+06     879.509E+03    -223.829E-03     448.107E-03    -224.277E-03     32.0970E-03    -224.096E-03     447.868E-03    -223.986E-03     31.4058E-03
            1498     7.19374E-03     75.4991E-03    -65.9788E+06    -92.3246E+06     9.91770E+06     831.581E+03    -223.889E-03     448.181E-03    -224.292E-03     29.9478E-03    -224.126E-03     447.826E-03    -224.012E-03     29.6125E-03
            1499     6.47421E-03     75.4554E-03    -73.6640E+06    -116.366E+06    -3.03852E+06     604.273E+03    -223.903E-03     448.201E-03    -224.298E-03     27.5889E-03    -224.115E-03     447.748E-03    -224.038E-03     27.5379E-03
            1500     5.75466E-03     75.4153E-03    -81.6034E+06    -139.374E+06    -17.0618E+06     447.160E+03    -223.930E-03     448.229E-03    -224.299E-03     25.0913E-03    -224.122E-03     447.686E-03    -224.064E-03     25.2588E-03
            1501     5.03524E-03     75.3787E-03    -89.6725E+06    -161.180E+06    -32.4835E+06     345.157E+03    -223.949E-03     448.239E-03    -224.291E-03     22.4438E-03    -224.123E-03     447.617E-03    -224.090E-03     22.7661E-03
            1502     4.31580E-03     75.3461E-03    -97.8622E+06    -182.296E+06    -49.3159E+06     190.456E+03    -223.955E-03     448.231E-03    -224.276E-03     19.6302E-03    -224.112E-03     447.537E-03    -224.117E-03     20.0422E-03
            1503     3.59635E-03     75.3177E-03    -105.893E+06    -202.903E+06    -67.0200E+06     167.200E+03    -223.985E-03     448.243E-03    -224.258E-03     16.6638E-03    -224.124E-03     447.481E-03    -224.145E-03     17.1093E-03
            1504     2.87700E-03     75.2940E-03    -113.113E+06    -223.401E+06    -84.7920E+06     217.102E+03    -224.033E-03     448.269E-03    -224.236E-03     13.5610E-03    -224.153E-03     447.440E-03    -224.172E-03     13.9898E-03
            1505     2.15764E-03     75.2751E-03    -119.524E+06    -241.859E+06    -101.792E+06     139.381E+03    -224.076E-03     448.288E-03    -224.212E-03     10.3424E-03    -224.176E-03     447.400E-03    -224.197E-03     10.7067E-03
            1506     1.43855E-03     75.2615E-03    -124.813E+06    -256.740E+06    -116.158E+06     69.1427E+03    -224.112E-03     448.305E-03    -224.193E-03     7.10334E-03    -224.196E-03     447.371E-03    -224.220E-03     7.37246E-03
            1507     719.220E-06     75.2529E-03    -128.026E+06    -266.998E+06    -125.800E+06     36.8950E+03    -224.125E-03     448.345E-03    -224.221E-03     3.83449E-03    -224.195E-03     447.378E-03    -224.277E-03     3.98200E-03
            1508     13.6698E-03     74.4611E-03    -5.16592E+06     89.5093E+06     105.196E+06     152.470E+03    -223.008E-03     447.172E-03    -224.164E-03     27.1091E-03    -223.454E-03     447.613E-03    -223.761E-03     23.0074E-03
            1509     12.9518E-03     74.4161E-03    -11.8747E+06     84.7830E+06     101.042E+06     338.169E+03    -223.455E-03     447.634E-03    -224.179E-03     34.0019E-03    -223.960E-03     448.105E-03    -223.780E-03     29.5840E-03
            1510     12.2322E-03     74.3702E-03    -17.9017E+06      78.478E+06     90.0330E+06     144.099E+03    -223.373E-03     447.530E-03    -224.158E-03     35.5880E-03    -223.859E-03     447.971E-03    -223.795E-03     31.7932E-03
            1511     11.5124E-03     74.3196E-03    -24.3493E+06     73.0722E+06     76.8883E+06     262.494E+03    -223.291E-03     447.427E-03    -224.136E-03     37.2750E-03    -223.768E-03     447.854E-03    -223.822E-03     33.9905E-03
            1512     10.7923E-03     74.2667E-03    -31.2852E+06     60.0922E+06     65.5642E+06     21.2973E+03    -223.373E-03     447.516E-03    -224.143E-03     37.5888E-03    -223.827E-03     447.881E-03    -223.857E-03     34.8693E-03
            1513     10.0725E-03     74.2140E-03    -37.6556E+06     36.9259E+06     56.9353E+06     56.6614E+03    -223.500E-03     447.677E-03    -224.177E-03     36.9557E-03    -223.915E-03     447.925E-03    -223.891E-03     34.8107E-03
            1514     9.35263E-03     74.1617E-03    -44.3129E+06     2.33561E+06     46.5395E+06     555.673E+03    -223.630E-03     447.848E-03    -224.218E-03     35.5981E-03    -223.992E-03     447.926E-03    -223.924E-03     34.0023E-03
            1515     8.63298E-03     74.1109E-03    -51.4087E+06    -35.1998E+06     34.1651E+06     807.718E+03    -223.753E-03     448.003E-03    -224.250E-03     33.8482E-03    -224.060E-03     447.903E-03    -223.954E-03     32.7364E-03
            1516     7.91334E-03     74.0619E-03    -58.4318E+06    -65.5517E+06     22.3156E+06     733.104E+03    -223.849E-03     448.120E-03    -224.271E-03     31.9630E-03    -224.115E-03     447.882E-03    -223.980E-03     31.2657E-03
            1517     7.19380E-03     74.0155E-03    -65.6026E+06    -91.9350E+06     10.2145E+06     636.877E+03    -223.890E-03     448.174E-03    -224.284E-03     29.8542E-03    -224.125E-03     447.820E-03    -224.004E-03     29.5101E-03
            1518     6.47425E-03     73.9722E-03    -73.2882E+06    -115.907E+06    -2.70089E+06     547.011E+03    -223.907E-03     448.196E-03    -224.289E-03     27.5620E-03    -224.119E-03     447.744E-03    -224.028E-03     27.5067E-03
            1519     5.75478E-03     73.9319E-03    -81.3008E+06    -139.193E+06    -16.8177E+06     462.032E+03    -223.938E-03     448.226E-03    -224.288E-03     25.0554E-03    -224.129E-03     447.683E-03    -224.052E-03     25.2184E-03
            1520     5.03528E-03     73.8953E-03    -89.3684E+06    -160.854E+06    -32.0757E+06     398.347E+03    -223.953E-03     448.231E-03    -224.278E-03     22.3739E-03    -224.126E-03     447.609E-03    -224.076E-03     22.6891E-03
            1521     4.31584E-03     73.8628E-03    -97.5979E+06    -181.998E+06    -48.7897E+06     345.920E+03    -223.965E-03     448.225E-03    -224.260E-03     19.5481E-03    -224.122E-03     447.531E-03    -224.099E-03     19.9578E-03
            1522     3.59647E-03     73.8345E-03    -105.667E+06    -202.860E+06    -66.7062E+06     250.915E+03    -223.979E-03     448.216E-03    -224.237E-03     16.5624E-03    -224.119E-03     447.454E-03    -224.123E-03     17.0048E-03
            1523     2.87709E-03     73.8108E-03    -113.126E+06    -223.314E+06    -84.7935E+06     173.470E+03    -223.995E-03     448.209E-03    -224.214E-03     13.4698E-03    -224.114E-03     447.380E-03    -224.150E-03     13.8924E-03
            1524     2.15781E-03     73.7919E-03    -119.536E+06    -241.606E+06    -101.724E+06     136.644E+03    -224.034E-03     448.230E-03    -224.196E-03     10.2840E-03    -224.135E-03     447.343E-03    -224.181E-03     10.6443E-03
            1525     1.43832E-03     73.7783E-03    -124.620E+06    -256.674E+06    -115.979E+06     125.256E+03    -224.105E-03     448.285E-03    -224.180E-03     7.01804E-03    -224.187E-03     447.350E-03    -224.207E-03     7.28687E-03
            1526     719.107E-06     73.7697E-03    -128.182E+06    -266.892E+06    -125.672E+06     71.3874E+03    -224.220E-03     448.316E-03    -224.096E-03     3.72608E-03    -224.291E-03     447.350E-03    -224.152E-03     3.88317E-03
            1527     13.6728E-03     72.9758E-03    -5.26427E+06     89.6835E+06     105.472E+06    -26.1374E+03    -223.250E-03     447.400E-03    -224.150E-03     26.3716E-03    -223.696E-03     447.840E-03    -223.745E-03     22.2445E-03
            1528     12.9521E-03     72.9327E-03    -11.6321E+06     84.6902E+06     101.115E+06     117.848E+03    -223.053E-03     447.221E-03    -224.168E-03     33.8271E-03    -223.555E-03     447.689E-03    -223.768E-03     29.4229E-03
            1529     12.2320E-03     72.8866E-03    -18.2076E+06     77.7414E+06     89.6430E+06     224.534E+03    -223.219E-03     447.381E-03    -224.161E-03     35.9736E-03    -223.707E-03     447.819E-03    -223.800E-03     32.1953E-03
            1530     11.5121E-03     72.8364E-03    -24.1592E+06     72.8942E+06     77.3416E+06     475.459E+03    -223.382E-03     447.527E-03    -224.145E-03     37.5196E-03    -223.858E-03     447.952E-03    -223.829E-03     34.2267E-03
            1531     10.7923E-03     72.7837E-03    -30.0741E+06     60.7904E+06     66.5544E+06     409.522E+03    -223.419E-03     447.567E-03    -224.148E-03     37.6296E-03    -223.869E-03     447.933E-03    -223.860E-03     34.9053E-03
            1532     10.0723E-03     72.7305E-03    -36.9741E+06     36.5564E+06     57.1746E+06     186.466E+03    -223.549E-03     447.726E-03    -224.178E-03     36.8254E-03    -223.961E-03     447.971E-03    -223.891E-03     34.6696E-03
            1533     9.35273E-03     72.6781E-03    -44.1614E+06     1.57172E+06     46.5999E+06     349.407E+03    -223.704E-03     447.918E-03    -224.214E-03     35.4900E-03    -224.064E-03     447.992E-03    -223.919E-03     33.8763E-03
            1534     8.63312E-03     72.6274E-03    -51.0828E+06    -35.2533E+06     34.3894E+06     564.046E+03    -223.809E-03     448.049E-03    -224.240E-03     33.8519E-03    -224.114E-03     447.948E-03    -223.943E-03     32.7294E-03
            1535     7.91354E-03     72.5785E-03    -58.1217E+06    -65.4300E+06     22.4771E+06     510.607E+03    -223.841E-03     448.099E-03    -224.258E-03     31.9690E-03    -224.106E-03     447.860E-03    -223.966E-03     31.2652E-03
            1536     7.19388E-03     72.5322E-03    -65.6460E+06    -91.7939E+06     10.2991E+06     476.458E+03    -223.870E-03     448.141E-03    -224.270E-03     29.8087E-03    -224.106E-03     447.788E-03    -223.990E-03     29.4568E-03
            1537     6.47433E-03     72.4888E-03    -73.4254E+06    -115.793E+06    -2.64620E+06     540.373E+03    -223.910E-03     448.185E-03    -224.275E-03     27.4892E-03    -224.123E-03     447.734E-03    -224.014E-03     27.4284E-03
            1538     5.75484E-03     72.4485E-03    -81.3618E+06    -138.941E+06    -16.7034E+06     518.424E+03    -223.928E-03     448.200E-03    -224.272E-03     25.0040E-03    -224.120E-03     447.658E-03    -224.036E-03     25.1629E-03
            1539     5.03540E-03     72.4121E-03    -89.5677E+06    -160.683E+06    -32.0308E+06     450.181E+03    -223.946E-03     448.207E-03    -224.261E-03     22.3510E-03    -224.121E-03     447.586E-03    -224.058E-03     22.6616E-03
            1540     4.31599E-03     72.3794E-03    -97.6389E+06    -181.639E+06    -48.6251E+06     367.172E+03    -223.956E-03     448.198E-03    -224.241E-03     19.5541E-03    -224.114E-03     447.505E-03    -224.079E-03     19.9608E-03
            1541     3.59660E-03     72.3513E-03    -105.568E+06    -202.622E+06    -66.5516E+06     278.304E+03    -223.959E-03     448.176E-03    -224.217E-03     16.6215E-03    -224.098E-03     447.414E-03    -224.103E-03     17.0641E-03
            1542     2.87721E-03     72.3277E-03    -113.131E+06    -223.053E+06    -84.9998E+06     181.897E+03    -223.994E-03     448.184E-03    -224.190E-03     13.5378E-03    -224.114E-03     447.356E-03    -224.127E-03     13.9627E-03
            1543     2.15775E-03     72.3089E-03    -119.555E+06    -241.567E+06    -102.002E+06     58.5807E+03    -224.063E-03     448.221E-03    -224.157E-03     10.2780E-03    -224.163E-03     447.334E-03    -224.144E-03     10.6387E-03
            1544     1.43864E-03     72.2950E-03    -124.539E+06    -256.613E+06    -115.847E+06     23.3403E+03    -224.105E-03     448.221E-03    -224.117E-03     6.95187E-03    -224.187E-03     447.287E-03    -224.143E-03     7.21596E-03
            1545     719.460E-06     72.2864E-03    -127.975E+06    -266.670E+06    -125.545E+06     23.4764E+03    -224.163E-03     448.157E-03    -223.994E-03     3.71112E-03    -224.234E-03     447.191E-03    -224.049E-03     3.86166E-03
            1546     13.6719E-03     71.4935E-03    -5.50213E+06     89.4170E+06     105.187E+06     69.5665E+03    -223.089E-03     447.246E-03    -224.157E-03     27.6898E-03    -223.539E-03     447.689E-03    -223.753E-03     23.5803E-03
            1547     12.9518E-03     71.4506E-03    -12.1518E+06     84.1786E+06     100.676E+06     477.866E+03    -223.097E-03     447.276E-03    -224.179E-03     34.6202E-03    -223.602E-03     447.745E-03    -223.780E-03     30.2377E-03
            1548     12.2315E-03     71.4031E-03    -18.1458E+06     77.9431E+06     89.6662E+06     152.220E+03    -223.274E-03     447.445E-03    -224.171E-03     35.9195E-03    -223.762E-03     447.885E-03    -223.809E-03     32.1273E-03
            1549     11.5119E-03     71.3526E-03    -24.3075E+06     72.7206E+06     77.2820E+06    -305.006E+03    -223.456E-03     447.607E-03    -224.151E-03     37.2174E-03    -223.934E-03     448.033E-03    -223.835E-03     33.8877E-03
            1550     10.7922E-03     71.3002E-03    -30.6997E+06     60.2228E+06     66.4211E+06     60.5688E+03    -223.557E-03     447.705E-03    -224.148E-03     37.5043E-03    -224.010E-03     448.070E-03    -223.858E-03     34.7584E-03
            1551     10.0727E-03     71.2470E-03    -36.9699E+06     36.6325E+06     57.3378E+06     487.425E+03    -223.604E-03     447.774E-03    -224.170E-03     36.8235E-03    -224.017E-03     448.020E-03    -223.883E-03     34.6685E-03
            1552     9.35282E-03     71.1947E-03    -43.5423E+06     1.42126E+06     46.7843E+06     330.970E+03    -223.702E-03     447.905E-03    -224.203E-03     35.4827E-03    -224.059E-03     447.977E-03    -223.908E-03     33.8681E-03
            1553     8.63314E-03     71.1438E-03    -50.6026E+06    -35.5948E+06     34.5703E+06     359.630E+03    -223.809E-03     448.038E-03    -224.229E-03     33.8063E-03    -224.112E-03     447.935E-03    -223.931E-03     32.6754E-03
            1554     7.91354E-03     71.0952E-03    -57.9572E+06    -65.3200E+06     22.7544E+06     599.752E+03    -223.859E-03     448.104E-03    -224.245E-03     31.9026E-03    -224.124E-03     447.866E-03    -223.953E-03     31.1913E-03
            1555     7.19402E-03     71.0488E-03    -65.5104E+06    -91.6350E+06     10.5345E+06     605.670E+03    -223.876E-03     448.131E-03    -224.255E-03     29.7860E-03    -224.112E-03     447.778E-03    -223.974E-03     29.4304E-03
            1556     6.47452E-03     71.0054E-03    -73.2614E+06    -115.642E+06    -2.40088E+06     497.559E+03    -223.881E-03     448.140E-03    -224.259E-03     27.4921E-03    -224.093E-03     447.688E-03    -223.997E-03     27.4268E-03
            1557     5.75498E-03     70.9653E-03    -81.2336E+06    -138.827E+06    -16.5052E+06     489.831E+03    -223.887E-03     448.145E-03    -224.258E-03     25.0364E-03    -224.079E-03     447.604E-03    -224.022E-03     25.1954E-03
            1558     5.03546E-03     70.9287E-03    -89.2580E+06    -160.299E+06    -31.8740E+06     412.770E+03    -223.894E-03     448.145E-03    -224.251E-03     22.4327E-03    -224.069E-03     447.526E-03    -224.049E-03     22.7455E-03
            1559     4.31600E-03     70.8963E-03    -97.4517E+06    -181.402E+06    -48.7298E+06     293.722E+03    -223.920E-03     448.157E-03    -224.237E-03     19.6607E-03    -224.077E-03     447.465E-03    -224.076E-03     20.0662E-03
            1560     3.59652E-03     70.8681E-03    -105.370E+06    -202.519E+06    -66.5022E+06     229.960E+03    -223.972E-03     448.187E-03    -224.215E-03     16.6794E-03    -224.111E-03     447.426E-03    -224.101E-03     17.1223E-03
            1561     2.87712E-03     70.8445E-03    -112.690E+06    -222.655E+06    -84.5071E+06     190.777E+03    -224.033E-03     448.216E-03    -224.182E-03     13.5619E-03    -224.152E-03     447.389E-03    -224.119E-03     13.9895E-03
            1562     2.15799E-03     70.8256E-03    -119.179E+06    -241.351E+06    -101.559E+06     121.739E+03    -224.073E-03     448.213E-03    -224.140E-03     10.3676E-03    -224.172E-03     447.327E-03    -224.125E-03     10.7326E-03
            1563     1.43863E-03     70.8119E-03    -124.276E+06    -256.701E+06    -115.779E+06     70.8067E+03    -224.067E-03     448.166E-03    -224.099E-03     7.07281E-03    -224.148E-03     447.230E-03    -224.125E-03     7.33732E-03
            1564     719.155E-06     70.8037E-03    -127.292E+06    -266.428E+06    -125.381E+06    -30.8412E+03    -224.068E-03     448.134E-03    -224.067E-03     3.83930E-03    -224.136E-03     447.169E-03    -224.123E-03     3.98443E-03
            1565     13.6702E-03     70.0092E-03    -5.62842E+06     89.1350E+06     104.970E+06     298.571E+03    -223.164E-03     447.338E-03    -224.174E-03     26.4673E-03    -223.610E-03     447.776E-03    -223.770E-03     22.3500E-03
            1566     12.9513E-03     69.9662E-03    -11.2446E+06     85.3211E+06     101.776E+06    -391.879E+03    -223.378E-03     447.567E-03    -224.189E-03     33.6409E-03    -223.881E-03     448.037E-03    -223.787E-03     29.1966E-03
            1567     12.2323E-03     69.9199E-03    -17.9932E+06     78.4012E+06     89.6706E+06    -27.2467E+03    -223.369E-03     447.535E-03    -224.166E-03     35.7481E-03    -223.857E-03     447.978E-03    -223.805E-03     31.9323E-03
            1568     11.5122E-03     69.8691E-03    -24.4786E+06     72.5893E+06     76.0588E+06     43.4272E+03    -223.439E-03     447.577E-03    -224.139E-03     37.2269E-03    -223.914E-03     448.003E-03    -223.828E-03     33.9195E-03
            1569     10.7924E-03     69.8164E-03    -30.9785E+06     60.0618E+06     65.3839E+06    -239.876E+03    -223.564E-03     447.700E-03    -224.136E-03     37.4341E-03    -224.016E-03     448.066E-03    -223.851E-03     34.6900E-03
            1570     10.0725E-03     69.7636E-03    -37.3711E+06     36.0496E+06     56.9522E+06    -428.382E+03    -223.650E-03     447.810E-03    -224.160E-03     36.7851E-03    -224.063E-03     448.053E-03    -223.873E-03     34.6169E-03
            1571     9.35295E-03     69.7111E-03    -43.8266E+06     818.198E+03     46.6011E+06     156.464E+03    -223.726E-03     447.917E-03    -224.190E-03     35.4260E-03    -224.084E-03     447.986E-03    -223.895E-03     33.8030E-03
            1572     8.63335E-03     69.6605E-03    -50.7421E+06    -35.8635E+06     34.5435E+06     574.030E+03    -223.787E-03     448.002E-03    -224.215E-03     33.7471E-03    -224.090E-03     447.898E-03    -223.917E-03     32.6134E-03
            1573     7.91374E-03     69.6116E-03    -57.9645E+06    -65.4296E+06     22.7411E+06     597.141E+03    -223.827E-03     448.059E-03    -224.232E-03     31.8952E-03    -224.092E-03     447.820E-03    -223.939E-03     31.1821E-03
            1574     7.19417E-03     69.5655E-03    -65.2567E+06    -91.2412E+06     10.6820E+06     553.418E+03    -223.837E-03     448.081E-03    -224.243E-03     29.8340E-03    -224.073E-03     447.730E-03    -223.963E-03     29.4794E-03
            1575     6.47451E-03     69.5221E-03    -72.9520E+06    -115.462E+06    -2.35944E+06     480.683E+03    -223.836E-03     448.087E-03    -224.251E-03     27.5786E-03    -224.048E-03     447.637E-03    -223.990E-03     27.5148E-03
            1576     5.75497E-03     69.4821E-03    -80.9292E+06    -138.726E+06    -16.5726E+06     487.908E+03    -223.839E-03     448.095E-03    -224.255E-03     25.1142E-03    -224.030E-03     447.553E-03    -224.020E-03     25.2744E-03
            1577     5.03543E-03     69.4456E-03    -89.0761E+06    -160.017E+06    -31.9236E+06     471.053E+03    -223.851E-03     448.105E-03    -224.254E-03     22.4875E-03    -224.025E-03     447.487E-03    -224.053E-03     22.8062E-03
            1578     4.31586E-03     69.4132E-03    -97.3688E+06    -181.051E+06    -48.7219E+06     382.443E+03    -223.915E-03     448.160E-03    -224.245E-03     19.6848E-03    -224.072E-03     447.471E-03    -224.085E-03     20.0975E-03
            1579     3.59653E-03     69.3848E-03    -105.431E+06    -202.220E+06    -66.5659E+06     241.704E+03    -223.997E-03     448.221E-03    -224.223E-03     16.7023E-03    -224.137E-03     447.461E-03    -224.110E-03     17.1491E-03
            1580     2.87728E-03     69.3613E-03    -112.780E+06    -222.443E+06    -84.6125E+06     111.936E+03    -224.024E-03     448.215E-03    -224.191E-03     13.6103E-03    -224.143E-03     447.389E-03    -224.128E-03     14.0383E-03
            1581     2.15777E-03     69.3425E-03    -119.214E+06    -241.275E+06    -101.630E+06     135.524E+03    -224.024E-03     448.187E-03    -224.164E-03     10.4203E-03    -224.123E-03     447.301E-03    -224.149E-03     10.7879E-03
            1582     1.43846E-03     69.3290E-03    -124.357E+06    -256.611E+06    -115.883E+06     120.433E+03    -224.070E-03     448.215E-03    -224.146E-03     7.08321E-03    -224.151E-03     447.281E-03    -224.173E-03     7.34702E-03
            1583     719.381E-06     69.3205E-03    -127.402E+06    -266.277E+06    -125.241E+06     87.3129E+03    -223.941E-03     448.251E-03    -224.310E-03     3.87532E-03    -224.010E-03     447.286E-03    -224.366E-03     4.01617E-03
            1584     13.6732E-03     68.5261E-03    -5.14771E+06     89.2869E+06     105.496E+06     681.720E+03    -223.190E-03     447.354E-03    -224.164E-03     26.7175E-03    -223.634E-03     447.791E-03    -223.759E-03     22.6438E-03
            1585     12.9523E-03     68.4827E-03    -11.0248E+06     84.8216E+06     101.211E+06     407.089E+03    -223.188E-03     447.367E-03    -224.180E-03     34.1992E-03    -223.687E-03     447.835E-03    -223.781E-03     29.8279E-03
            1586     12.2316E-03     68.4364E-03    -17.7703E+06     78.2788E+06     89.1802E+06    -184.094E+03    -223.459E-03     447.619E-03    -224.160E-03     35.8940E-03    -223.944E-03     448.060E-03    -223.802E-03     32.0926E-03
            1587     11.5122E-03     68.3855E-03    -23.9658E+06     72.5836E+06     75.5293E+06    -157.843E+03    -223.539E-03     447.665E-03    -224.126E-03     37.2051E-03    -224.012E-03     448.091E-03    -223.819E-03     33.8916E-03
            1588     10.7924E-03     68.3331E-03    -30.0558E+06     60.5053E+06     65.0791E+06    -261.220E+03    -223.588E-03     447.706E-03    -224.119E-03     37.3067E-03    -224.035E-03     448.073E-03    -223.837E-03     34.5581E-03
            1589     10.0729E-03     68.2798E-03    -36.9277E+06     35.6428E+06     56.7163E+06    -98.0859E+03    -223.632E-03     447.776E-03    -224.144E-03     36.5973E-03    -224.042E-03     448.017E-03    -223.858E-03     34.4254E-03
            1590     9.35313E-03     68.2277E-03    -44.2889E+06    -338.598E+03     45.8273E+06     116.683E+03    -223.663E-03     447.839E-03    -224.176E-03     35.3974E-03    -224.021E-03     447.905E-03    -223.882E-03     33.7722E-03
            1591     8.63343E-03     68.1770E-03    -51.3348E+06    -36.0247E+06     33.9596E+06     362.678E+03    -223.718E-03     447.923E-03    -224.205E-03     33.8545E-03    -224.023E-03     447.819E-03    -223.908E-03     32.7219E-03
            1592     7.91376E-03     68.1284E-03    -58.3644E+06    -65.2828E+06     22.2738E+06     356.057E+03    -223.748E-03     447.975E-03    -224.227E-03     32.0398E-03    -224.015E-03     447.738E-03    -223.937E-03     31.3314E-03
            1593     7.19406E-03     68.0823E-03    -65.7542E+06    -91.2275E+06     10.1489E+06     311.258E+03    -223.780E-03     448.025E-03    -224.245E-03     29.9722E-03    -224.017E-03     447.676E-03    -223.967E-03     29.6217E-03
            1594     6.47453E-03     68.0390E-03    -73.3716E+06    -115.568E+06    -2.82486E+06     461.923E+03    -223.809E-03     448.068E-03    -224.259E-03     27.6952E-03    -224.022E-03     447.618E-03    -223.999E-03     27.6360E-03
            1595     5.75491E-03     67.9989E-03    -81.3314E+06    -138.575E+06    -16.8647E+06     563.096E+03    -223.831E-03     448.098E-03    -224.267E-03     25.1961E-03    -224.023E-03     447.558E-03    -224.032E-03     25.3607E-03
            1596     5.03533E-03     67.9626E-03    -89.5477E+06    -159.753E+06    -32.1916E+06     524.233E+03    -223.874E-03     448.141E-03    -224.267E-03     22.5409E-03    -224.050E-03     447.525E-03    -224.066E-03     22.8668E-03
            1597     4.31594E-03     67.9299E-03    -97.6173E+06    -180.752E+06    -48.8737E+06     423.296E+03    -223.914E-03     448.173E-03    -224.258E-03     19.7443E-03    -224.073E-03     447.485E-03    -224.099E-03     20.1647E-03
            1598     3.59645E-03     67.9016E-03    -105.431E+06    -201.618E+06    -66.7128E+06     266.303E+03    -223.952E-03     448.195E-03    -224.243E-03     16.7979E-03    -224.092E-03     447.439E-03    -224.132E-03     17.2488E-03
            1599     2.87700E-03     67.8780E-03    -112.867E+06    -222.349E+06    -84.8566E+06     75.1940E+03    -224.014E-03     448.238E-03    -224.224E-03     13.6672E-03    -224.134E-03     447.414E-03    -224.162E-03     14.0917E-03
            1600     2.15779E-03     67.8596E-03    -119.346E+06    -241.390E+06    -101.672E+06     90.1637E+03    -224.067E-03     448.269E-03    -224.202E-03     10.3981E-03    -224.166E-03     447.382E-03    -224.188E-03     10.7602E-03
            1601     1.43847E-03     67.8456E-03    -124.447E+06    -256.243E+06    -115.646E+06     86.3974E+03    -224.088E-03     448.278E-03    -224.190E-03     7.05858E-03    -224.171E-03     447.345E-03    -224.216E-03     7.32151E-03
            1602     719.065E-06     67.8375E-03    -127.925E+06    -266.272E+06    -125.421E+06    -37.0639E+03    -224.070E-03     448.348E-03    -224.278E-03     3.77236E-03    -224.142E-03     447.384E-03    -224.333E-03     3.90323E-03
            1603     13.6701E-03     67.0431E-03    -6.11096E+06     88.3763E+06     104.222E+06    -374.378E+03    -223.236E-03     447.400E-03    -224.164E-03     26.8444E-03    -223.682E-03     447.835E-03    -223.762E-03     22.7468E-03
            1604     12.9509E-03     66.9994E-03    -11.2142E+06     84.8128E+06     101.310E+06     415.326E+03    -223.472E-03     447.646E-03    -224.175E-03     33.8132E-03    -223.972E-03     448.114E-03    -223.775E-03     29.4129E-03
            1605     12.2322E-03     66.9520E-03    -16.6382E+06     79.3033E+06     90.1782E+06     424.707E+03    -223.485E-03     447.631E-03    -224.146E-03     35.2912E-03    -223.968E-03     448.074E-03    -223.786E-03     31.4702E-03
            1606     11.5124E-03     66.9021E-03    -23.4119E+06     72.3360E+06     75.4571E+06     115.640E+03    -223.497E-03     447.606E-03    -224.108E-03     36.9398E-03    -223.966E-03     448.030E-03    -223.802E-03     33.6159E-03
            1607     10.7928E-03     66.8491E-03    -30.3203E+06     59.7720E+06     64.7367E+06     641.697E+03    -223.496E-03     447.601E-03    -224.105E-03     37.3998E-03    -223.943E-03     447.965E-03    -223.824E-03     34.6626E-03
            1608     10.0730E-03     66.7966E-03    -37.4963E+06     35.9801E+06     56.4927E+06     834.757E+03    -223.503E-03     447.639E-03    -224.137E-03     36.8416E-03    -223.916E-03     447.883E-03    -223.852E-03     34.6910E-03
            1609     9.35315E-03     66.7444E-03    -44.4787E+06     -90.661E+03     45.5581E+06     474.684E+03    -223.578E-03     447.754E-03    -224.176E-03     35.6548E-03    -223.936E-03     447.822E-03    -223.884E-03     34.0494E-03
            1610     8.63338E-03     66.6938E-03    -51.5283E+06    -36.0551E+06     33.5802E+06     193.974E+03    -223.652E-03     447.864E-03    -224.212E-03     34.0421E-03    -223.958E-03     447.762E-03    -223.917E-03     32.9190E-03
            1611     7.91362E-03     66.6452E-03    -58.7186E+06    -64.9820E+06     22.0305E+06     55.1800E+03    -223.712E-03     447.952E-03    -224.241E-03     32.1815E-03    -223.980E-03     447.718E-03    -223.951E-03     31.4764E-03
            1612     7.19397E-03     66.5991E-03    -66.0834E+06    -91.6387E+06     9.87617E+06     145.699E+03    -223.766E-03     448.030E-03    -224.264E-03     30.0638E-03    -224.003E-03     447.679E-03    -223.986E-03     29.7163E-03
            1613     6.47426E-03     66.5557E-03    -73.7409E+06    -115.921E+06    -2.96705E+06     381.824E+03    -223.807E-03     448.088E-03    -224.281E-03     27.7395E-03    -224.020E-03     447.636E-03    -224.021E-03     27.6831E-03
            1614     5.75471E-03     66.5158E-03    -81.6105E+06    -138.329E+06    -16.8392E+06     383.743E+03    -223.867E-03     448.157E-03    -224.290E-03     25.2539E-03    -224.061E-03     447.619E-03    -224.055E-03     25.4202E-03
            1615     5.03527E-03     66.4792E-03    -89.5386E+06    -159.376E+06    -32.0900E+06     228.229E+03    -223.917E-03     448.204E-03    -224.287E-03     22.5849E-03    -224.094E-03     447.590E-03    -224.086E-03     22.9067E-03
            1616     4.31574E-03     66.4467E-03    -97.4075E+06    -180.553E+06    -48.8060E+06     130.152E+03    -223.929E-03     448.206E-03    -224.277E-03     19.7324E-03    -224.087E-03     447.519E-03    -224.118E-03     20.1451E-03
            1617     3.59631E-03     66.4185E-03    -105.177E+06    -201.369E+06    -66.6676E+06     94.6676E+03    -223.945E-03     448.209E-03    -224.264E-03     16.7220E-03    -224.084E-03     447.453E-03    -224.153E-03     17.1673E-03
            1618     2.87695E-03     66.3948E-03    -112.504E+06    -222.347E+06    -84.5538E+06     109.573E+03    -224.007E-03     448.261E-03    -224.254E-03     13.5887E-03    -224.125E-03     447.435E-03    -224.191E-03     14.0114E-03
            1619     2.15763E-03     66.3760E-03    -118.906E+06    -241.358E+06    -101.254E+06     55.4119E+03    -224.075E-03     448.317E-03    -224.243E-03     10.3919E-03    -224.173E-03     447.430E-03    -224.227E-03     10.7504E-03
            1620     1.43843E-03     66.3626E-03    -123.878E+06    -256.003E+06    -115.313E+06     78.8587E+03    -224.136E-03     448.371E-03    -224.235E-03     7.13773E-03    -224.217E-03     447.438E-03    -224.261E-03     7.40708E-03
            1621     719.241E-06     66.3540E-03    -127.353E+06    -266.183E+06    -124.864E+06    -12.5250E+03    -224.348E-03     448.440E-03    -224.092E-03     3.91826E-03    -224.418E-03     447.475E-03    -224.145E-03     4.06693E-03
            1622     13.6725E-03     65.5584E-03    -6.10100E+06     88.8382E+06     104.101E+06    -883.046E+03    -223.373E-03     447.522E-03    -224.149E-03     26.4296E-03    -223.821E-03     447.962E-03    -223.749E-03     22.2744E-03
            1623     12.9533E-03     65.5148E-03    -11.7911E+06     84.3184E+06     100.612E+06    -1.38387E+06    -223.390E-03     447.546E-03    -224.156E-03     33.8419E-03    -223.893E-03     448.016E-03    -223.759E-03     29.3683E-03
            1624     12.2326E-03     65.4692E-03    -17.8402E+06     78.0459E+06     88.9799E+06     230.119E+03    -223.309E-03     447.444E-03    -224.134E-03     35.9880E-03    -223.795E-03     447.885E-03    -223.777E-03     32.1917E-03
            1625     11.5127E-03     65.4183E-03    -23.6613E+06     71.5902E+06     75.1574E+06     1.45044E+06    -223.359E-03     447.469E-03    -224.109E-03     37.5260E-03    -223.828E-03     447.890E-03    -223.803E-03     34.2524E-03
            1626     10.7926E-03     65.3662E-03    -29.9778E+06     59.7656E+06     64.9014E+06     1.43346E+06    -223.370E-03     447.487E-03    -224.116E-03     37.8042E-03    -223.816E-03     447.850E-03    -223.835E-03     35.1034E-03
            1627     10.0726E-03     65.3132E-03    -36.1866E+06     36.7878E+06     57.3376E+06     941.435E+03    -223.454E-03     447.611E-03    -224.157E-03     37.1202E-03    -223.863E-03     447.856E-03    -223.871E-03     34.9843E-03
            1628     9.35285E-03     65.2612E-03    -42.9583E+06     453.305E+03     46.6228E+06     731.722E+03    -223.579E-03     447.780E-03    -224.202E-03     35.7841E-03    -223.931E-03     447.847E-03    -223.907E-03     34.1831E-03
            1629     8.63309E-03     65.2107E-03    -50.0414E+06    -35.3774E+06     34.5314E+06     467.372E+03    -223.668E-03     447.907E-03    -224.239E-03     34.1454E-03    -223.968E-03     447.804E-03    -223.942E-03     33.0273E-03
            1630     7.91338E-03     65.1620E-03    -57.3642E+06    -64.8860E+06     22.7852E+06     254.780E+03    -223.758E-03     448.025E-03    -224.268E-03     32.2468E-03    -224.020E-03     447.788E-03    -223.976E-03     31.5450E-03
            1631     7.19373E-03     65.1158E-03    -65.0272E+06    -92.1027E+06     10.5593E+06     381.765E+03    -223.814E-03     448.104E-03    -224.290E-03     30.0391E-03    -224.047E-03     447.749E-03    -224.009E-03     29.6905E-03
            1632     6.47419E-03     65.0726E-03    -72.8290E+06    -115.753E+06    -2.32352E+06     345.567E+03    -223.841E-03     448.146E-03    -224.305E-03     27.6964E-03    -224.052E-03     447.693E-03    -224.043E-03     27.6389E-03
            1633     5.75462E-03     65.0324E-03    -80.7269E+06    -137.924E+06    -16.2902E+06     106.577E+03    -223.893E-03     448.204E-03    -224.312E-03     25.2392E-03    -224.084E-03     447.666E-03    -224.076E-03     25.4030E-03
            1634     5.03511E-03     64.9959E-03    -88.8197E+06    -159.288E+06    -31.6199E+06     32.3736E+03    -223.944E-03     448.252E-03    -224.308E-03     22.5638E-03    -224.118E-03     447.637E-03    -224.107E-03     22.8788E-03
            1635     4.31576E-03     64.9634E-03    -97.1282E+06    -180.507E+06    -48.4486E+06     51.2454E+03    -223.972E-03     448.269E-03    -224.296E-03     19.7029E-03    -224.130E-03     447.581E-03    -224.136E-03     20.1102E-03
            1636     3.59638E-03     64.9352E-03    -105.145E+06    -201.467E+06    -66.4164E+06     101.158E+03    -223.988E-03     448.268E-03    -224.279E-03     16.7252E-03    -224.127E-03     447.511E-03    -224.167E-03     17.1691E-03
            1637     2.87699E-03     64.9116E-03    -112.404E+06    -222.208E+06    -84.5864E+06     110.297E+03    -224.009E-03     448.274E-03    -224.265E-03     13.5940E-03    -224.127E-03     447.449E-03    -224.203E-03     14.0224E-03
            1638     2.15759E-03     64.8928E-03    -118.795E+06    -241.250E+06    -101.619E+06     38.5943E+03    -224.079E-03     448.335E-03    -224.255E-03     10.3033E-03    -224.176E-03     447.448E-03    -224.241E-03     10.6704E-03
            1639     1.43821E-03     64.8791E-03    -123.780E+06    -256.149E+06    -115.493E+06    -23.1106E+03    -224.189E-03     448.428E-03    -224.238E-03     7.00945E-03    -224.269E-03     447.494E-03    -224.265E-03     7.27977E-03
            1640     719.127E-06     64.8703E-03    -126.806E+06    -266.014E+06    -124.702E+06    -5.15294E+03    -224.214E-03     448.425E-03    -224.211E-03     3.88478E-03    -224.281E-03     447.460E-03    -224.265E-03     4.03220E-03
            1641     13.6716E-03     64.0741E-03    -4.99803E+06     89.7072E+06     104.888E+06    -41.4067E+03    -222.868E-03     447.018E-03    -224.151E-03     27.7158E-03    -223.315E-03     447.462E-03    -223.749E-03     23.6081E-03
            1642     12.9509E-03     64.0325E-03    -12.1417E+06     82.9302E+06     98.9017E+06     25.0139E+03    -223.130E-03     447.304E-03    -224.173E-03     34.8056E-03    -223.632E-03     447.770E-03    -223.782E-03     30.4161E-03
            1643     12.2316E-03     63.9852E-03    -19.0761E+06     75.9306E+06     87.2111E+06    -461.746E+03    -223.343E-03     447.505E-03    -224.162E-03     36.3882E-03    -223.829E-03     447.940E-03    -223.809E-03     32.5994E-03
            1644     11.5119E-03     63.9353E-03    -24.7211E+06     70.3913E+06     74.7835E+06    -107.029E+03    -223.380E-03     447.523E-03    -224.143E-03     37.6837E-03    -223.853E-03     447.941E-03    -223.836E-03     34.3831E-03
            1645     10.7921E-03     63.8828E-03    -29.7619E+06     59.9040E+06     65.5031E+06     533.592E+03    -223.446E-03     447.596E-03    -224.150E-03     37.8357E-03    -223.892E-03     447.959E-03    -223.866E-03     35.1197E-03
            1646     10.0724E-03     63.8299E-03    -36.0192E+06     37.0925E+06     57.6882E+06     874.506E+03    -223.510E-03     447.697E-03    -224.187E-03     37.0924E-03    -223.919E-03     447.942E-03    -223.900E-03     34.9530E-03
            1647     9.35257E-03     63.7778E-03    -42.8882E+06     960.496E+03     46.9829E+06     738.833E+03    -223.613E-03     447.843E-03    -224.230E-03     35.7149E-03    -223.966E-03     447.911E-03    -223.934E-03     34.1100E-03
            1648     8.63283E-03     63.7274E-03    -49.7646E+06    -34.8120E+06     35.0079E+06     609.831E+03    -223.729E-03     447.995E-03    -224.265E-03     34.0487E-03    -224.030E-03     447.894E-03    -223.968E-03     32.9286E-03
            1649     7.91319E-03     63.6786E-03    -57.0833E+06    -64.9273E+06     23.0460E+06     662.304E+03    -223.793E-03     448.085E-03    -224.292E-03     32.1647E-03    -224.054E-03     447.846E-03    -224.000E-03     31.4634E-03
            1650     7.19364E-03     63.6324E-03    -64.6451E+06    -91.9442E+06     10.9147E+06     531.068E+03    -223.840E-03     448.154E-03    -224.314E-03     30.0305E-03    -224.072E-03     447.798E-03    -224.032E-03     29.6809E-03
            1651     6.47404E-03     63.5892E-03    -72.3552E+06    -115.197E+06    -1.87968E+06     344.871E+03    -223.890E-03     448.217E-03    -224.326E-03     27.7450E-03    -224.100E-03     447.766E-03    -224.064E-03     27.6879E-03
            1652     5.75453E-03     63.5491E-03    -80.3888E+06    -137.850E+06    -15.9903E+06     291.786E+03    -223.912E-03     448.244E-03    -224.332E-03     25.2731E-03    -224.101E-03     447.705E-03    -224.096E-03     25.4399E-03
            1653     5.03506E-03     63.5125E-03    -88.6431E+06    -159.345E+06    -31.4480E+06     265.255E+03    -223.924E-03     448.256E-03    -224.332E-03     22.6159E-03    -224.097E-03     447.640E-03    -224.130E-03     22.9373E-03
            1654     4.31558E-03     63.4800E-03    -96.7787E+06    -180.466E+06    -48.2424E+06     214.225E+03    -223.976E-03     448.301E-03    -224.326E-03     19.8121E-03    -224.131E-03     447.613E-03    -224.165E-03     20.2265E-03
            1655     3.59620E-03     63.4519E-03    -104.652E+06    -201.480E+06    -66.1161E+06     192.636E+03    -224.040E-03     448.349E-03    -224.310E-03     16.8315E-03    -224.176E-03     447.591E-03    -224.196E-03     17.2797E-03
            1656     2.87687E-03     63.4282E-03    -112.056E+06    -222.223E+06    -84.2143E+06     252.972E+03    -224.100E-03     448.385E-03    -224.285E-03     13.6542E-03    -224.217E-03     447.560E-03    -224.222E-03     14.0877E-03
            1657     2.15765E-03     63.4095E-03    -118.537E+06    -240.943E+06    -101.104E+06     253.438E+03    -224.171E-03     448.422E-03    -224.251E-03     10.3782E-03    -224.268E-03     447.536E-03    -224.236E-03     10.7518E-03
            1658     1.43863E-03     63.3955E-03    -123.790E+06    -255.965E+06    -115.231E+06     138.864E+03    -224.190E-03     448.400E-03    -224.210E-03     7.03859E-03    -224.270E-03     447.466E-03    -224.235E-03     7.30862E-03
            1659     719.311E-06     63.3873E-03    -127.148E+06    -266.075E+06    -124.907E+06     10.2938E+03    -224.043E-03     448.349E-03    -224.306E-03     3.77464E-03    -224.112E-03     447.385E-03    -224.361E-03     3.92042E-03
            1660     13.6711E-03     62.5931E-03    -5.53302E+06     89.0319E+06     103.988E+06     19.2052E+03    -222.807E-03     446.973E-03    -224.166E-03     27.2843E-03    -223.252E-03     447.413E-03    -223.767E-03     23.1987E-03
            1661     12.9516E-03     62.5475E-03    -11.6626E+06     83.6943E+06     99.8346E+06     715.561E+03    -223.107E-03     447.304E-03    -224.197E-03     33.8763E-03    -223.605E-03     447.768E-03    -223.802E-03     29.4980E-03
            1662     12.2316E-03     62.5021E-03    -17.4035E+06     77.1860E+06     88.7299E+06     297.340E+03    -223.277E-03     447.466E-03    -224.189E-03     35.6456E-03    -223.758E-03     447.902E-03    -223.832E-03     31.8447E-03
            1663     11.5117E-03     62.4515E-03    -24.4231E+06     70.2472E+06     74.4776E+06    -633.689E+03    -223.406E-03     447.573E-03    -224.167E-03     37.3325E-03    -223.876E-03     447.990E-03    -223.861E-03     34.0152E-03
            1664     10.7920E-03     62.3993E-03    -31.3222E+06     58.3049E+06     64.2510E+06    -424.649E+03    -223.492E-03     447.664E-03    -224.172E-03     37.6013E-03    -223.941E-03     448.023E-03    -223.890E-03     34.8573E-03
            1665     10.0721E-03     62.3465E-03    -37.5206E+06     36.6040E+06     57.0433E+06     268.935E+03    -223.538E-03     447.747E-03    -224.209E-03     36.9513E-03    -223.953E-03     447.993E-03    -223.922E-03     34.7956E-03
            1666     9.35236E-03     62.2944E-03    -43.8548E+06     1.57516E+06     46.6523E+06     365.374E+03    -223.654E-03     447.903E-03    -224.249E-03     35.6384E-03    -224.013E-03     447.977E-03    -223.955E-03     34.0270E-03
            1667     8.63274E-03     62.2438E-03    -50.9090E+06    -35.1124E+06     34.5791E+06     443.583E+03    -223.748E-03     448.033E-03    -224.284E-03     33.9950E-03    -224.054E-03     447.932E-03    -223.987E-03     32.8690E-03
            1668     7.91312E-03     62.1952E-03    -58.0050E+06    -64.8340E+06     22.7672E+06     605.814E+03    -223.777E-03     448.089E-03    -224.312E-03     32.1562E-03    -224.043E-03     447.853E-03    -224.020E-03     31.4541E-03
            1669     7.19338E-03     62.1491E-03    -65.2431E+06    -91.2871E+06     10.5877E+06     402.140E+03    -223.832E-03     448.168E-03    -224.335E-03     30.0704E-03    -224.067E-03     447.816E-03    -224.055E-03     29.7252E-03
            1670     6.47386E-03     62.1057E-03    -72.8008E+06    -115.146E+06    -2.16574E+06     241.255E+03    -223.901E-03     448.252E-03    -224.351E-03     27.7766E-03    -224.112E-03     447.802E-03    -224.089E-03     27.7193E-03
            1671     5.75439E-03     62.0656E-03    -80.6807E+06    -137.924E+06    -16.1920E+06     352.234E+03    -223.925E-03     448.283E-03    -224.359E-03     25.2978E-03    -224.115E-03     447.745E-03    -224.123E-03     25.4657E-03
            1672     5.03486E-03     62.0292E-03    -88.7687E+06    -159.140E+06    -31.5889E+06     367.833E+03    -223.933E-03     448.294E-03    -224.361E-03     22.6324E-03    -224.107E-03     447.679E-03    -224.159E-03     22.9598E-03
            1673     4.31538E-03     61.9966E-03    -96.8721E+06    -180.311E+06    -48.4219E+06     251.279E+03    -223.990E-03     448.347E-03    -224.357E-03     19.7786E-03    -224.146E-03     447.660E-03    -224.197E-03     20.1961E-03
            1674     3.59603E-03     61.9682E-03    -104.744E+06    -201.569E+06    -66.2514E+06     228.543E+03    -224.081E-03     448.423E-03    -224.342E-03     16.7522E-03    -224.218E-03     447.664E-03    -224.229E-03     17.2007E-03
            1675     2.87680E-03     61.9447E-03    -112.180E+06    -222.269E+06    -84.1593E+06     319.731E+03    -224.150E-03     448.465E-03    -224.314E-03     13.6412E-03    -224.268E-03     447.639E-03    -224.250E-03     14.0731E-03
            1676     2.15762E-03     61.9258E-03    -118.606E+06    -240.540E+06    -100.880E+06     298.736E+03    -224.159E-03     448.444E-03    -224.285E-03     10.4882E-03    -224.257E-03     447.560E-03    -224.268E-03     10.8570E-03
            1677     1.43826E-03     61.9123E-03    -123.616E+06    -255.513E+06    -114.973E+06     233.976E+03    -224.172E-03     448.442E-03    -224.270E-03     7.24255E-03    -224.253E-03     447.510E-03    -224.295E-03     7.51299E-03
            1678     719.116E-06     61.9039E-03    -127.025E+06    -265.753E+06    -124.629E+06     161.903E+03    -224.320E-03     448.510E-03    -224.191E-03     3.87817E-03    -224.388E-03     447.546E-03    -224.244E-03     4.03822E-03
            1679     13.6719E-03     61.1083E-03    -5.36859E+06     89.2782E+06     104.379E+06     212.894E+03    -223.161E-03     447.321E-03    -224.160E-03     26.9050E-03    -223.606E-03     447.761E-03    -223.759E-03     22.7969E-03
            1680     12.9517E-03     61.0654E-03    -11.3825E+06     83.7726E+06     100.192E+06    -279.409E+03    -222.906E-03     447.092E-03    -224.186E-03     34.0655E-03    -223.405E-03     447.557E-03    -223.790E-03     29.6639E-03
            1681     12.2314E-03     61.0184E-03    -17.5335E+06     76.9855E+06     88.5331E+06    -61.3405E+03    -223.096E-03     447.283E-03    -224.187E-03     35.7713E-03    -223.576E-03     447.718E-03    -223.831E-03     31.9882E-03
            1682     11.5117E-03     60.9681E-03    -23.4997E+06     70.7628E+06     74.9803E+06     838.735E+03    -223.344E-03     447.517E-03    -224.174E-03     37.2105E-03    -223.809E-03     447.934E-03    -223.868E-03     33.9341E-03
            1683     10.7918E-03     60.9157E-03    -30.2352E+06     58.4563E+06     64.5488E+06     300.784E+03    -223.456E-03     447.638E-03    -224.183E-03     37.4745E-03    -223.900E-03     447.996E-03    -223.901E-03     34.7483E-03
            1684     10.0721E-03     60.8631E-03    -37.1222E+06     36.0004E+06     56.8562E+06    -242.777E+03    -223.544E-03     447.764E-03    -224.220E-03     36.8364E-03    -223.956E-03     448.007E-03    -223.934E-03     34.6718E-03
            1685     9.35228E-03     60.8108E-03    -43.9000E+06     992.233E+03     46.4168E+06     73.8582E+03    -223.625E-03     447.889E-03    -224.263E-03     35.5954E-03    -223.983E-03     447.960E-03    -223.969E-03     33.9785E-03
            1686     8.63256E-03     60.7604E-03    -50.6719E+06    -35.4055E+06     34.4945E+06     272.004E+03    -223.706E-03     448.009E-03    -224.303E-03     33.9966E-03    -224.010E-03     447.907E-03    -224.005E-03     32.8659E-03
            1687     7.91282E-03     60.7118E-03    -57.8011E+06    -64.7582E+06     22.7098E+06     320.305E+03    -223.787E-03     448.120E-03    -224.333E-03     32.1641E-03    -224.052E-03     447.884E-03    -224.042E-03     31.4605E-03
            1688     7.19330E-03     60.6656E-03    -65.2788E+06    -90.8143E+06     10.3907E+06     362.555E+03    -223.849E-03     448.206E-03    -224.356E-03     30.0655E-03    -224.085E-03     447.857E-03    -224.078E-03     29.7244E-03
            1689     6.47371E-03     60.6222E-03    -73.0342E+06    -115.144E+06    -2.61829E+06     245.060E+03    -223.887E-03     448.261E-03    -224.374E-03     27.7576E-03    -224.098E-03     447.812E-03    -224.114E-03     27.7020E-03
            1690     5.75415E-03     60.5821E-03    -80.9383E+06    -137.974E+06    -16.5457E+06     200.569E+03    -223.936E-03     448.321E-03    -224.386E-03     25.2558E-03    -224.127E-03     447.784E-03    -224.151E-03     25.4198E-03
            1691     5.03473E-03     60.5457E-03    -89.0175E+06    -158.946E+06    -31.8108E+06     256.811E+03    -223.998E-03     448.384E-03    -224.386E-03     22.5948E-03    -224.173E-03     447.771E-03    -224.185E-03     22.9172E-03
            1692     4.31540E-03     60.5131E-03    -97.1994E+06    -180.189E+06    -48.5573E+06     296.804E+03    -224.048E-03     448.424E-03    -224.376E-03     19.7540E-03    -224.206E-03     447.738E-03    -224.217E-03     20.1705E-03
            1693     3.59605E-03     60.4847E-03    -105.228E+06    -201.689E+06    -66.3260E+06     337.258E+03    -224.084E-03     448.444E-03    -224.360E-03     16.7354E-03    -224.223E-03     447.686E-03    -224.246E-03     17.1858E-03
            1694     2.87674E-03     60.4610E-03    -112.606E+06    -221.855E+06    -84.4892E+06     239.732E+03    -224.120E-03     448.458E-03    -224.338E-03     13.6101E-03    -224.239E-03     447.635E-03    -224.276E-03     14.0389E-03
            1695     2.15742E-03     60.4425E-03    -118.926E+06    -240.282E+06    -101.543E+06     102.035E+03    -224.166E-03     448.485E-03    -224.319E-03     10.3482E-03    -224.265E-03     447.603E-03    -224.306E-03     10.7093E-03
            1696     1.43820E-03     60.4288E-03    -123.825E+06    -255.387E+06    -115.341E+06     28.7134E+03    -224.218E-03     448.526E-03    -224.308E-03     6.99407E-03    -224.300E-03     447.596E-03    -224.335E-03     7.25984E-03
            1697     719.015E-06     60.4199E-03    -127.115E+06    -265.403E+06    -124.692E+06     58.2201E+03    -224.395E-03     448.583E-03    -224.188E-03     3.85408E-03    -224.465E-03     447.621E-03    -224.242E-03     4.00973E-03
            1698     13.6719E-03     59.6259E-03    -4.97837E+06     89.3391E+06     104.959E+06     39.0960E+03    -223.052E-03     447.221E-03    -224.169E-03     27.2610E-03    -223.497E-03     447.661E-03    -223.766E-03     23.1568E-03
            1699     12.9515E-03     59.5825E-03    -11.1476E+06     83.3401E+06     100.002E+06     268.151E+03    -223.109E-03     447.300E-03    -224.191E-03     34.4456E-03    -223.606E-03     447.763E-03    -223.795E-03     30.0742E-03
            1700     12.2318E-03     59.5353E-03    -18.1289E+06     76.2088E+06     87.7944E+06    -36.0728E+03    -223.200E-03     447.383E-03    -224.182E-03     35.8246E-03    -223.682E-03     447.816E-03    -223.828E-03     32.0367E-03
            1701     11.5116E-03     59.4848E-03    -24.4154E+06     70.2060E+06     74.7012E+06     110.987E+03    -223.253E-03     447.424E-03    -224.171E-03     37.0965E-03    -223.722E-03     447.839E-03    -223.864E-03     33.8012E-03
            1702     10.7918E-03     59.4322E-03    -29.8708E+06     59.0668E+06     64.9847E+06     505.350E+03    -223.351E-03     447.537E-03    -224.185E-03     37.4004E-03    -223.795E-03     447.896E-03    -223.903E-03     34.6809E-03
            1703     10.0719E-03     59.3795E-03    -36.5017E+06     36.2128E+06     56.8642E+06     598.835E+03    -223.455E-03     447.683E-03    -224.228E-03     36.8474E-03    -223.864E-03     447.926E-03    -223.944E-03     34.7009E-03
            1704     9.35216E-03     59.3274E-03    -43.8527E+06     710.410E+03     46.0908E+06     334.824E+03    -223.568E-03     447.845E-03    -224.278E-03     35.6450E-03    -223.924E-03     447.915E-03    -223.985E-03     34.0362E-03
            1705     8.63235E-03     59.2770E-03    -51.0716E+06    -35.4438E+06     33.9539E+06     259.493E+03    -223.695E-03     448.015E-03    -224.321E-03     34.0268E-03    -223.999E-03     447.914E-03    -224.025E-03     32.9038E-03
            1706     7.91276E-03     59.2283E-03    -58.2648E+06    -64.7703E+06     22.2516E+06     172.258E+03    -223.806E-03     448.159E-03    -224.353E-03     32.1777E-03    -224.073E-03     447.924E-03    -224.063E-03     31.4748E-03
            1707     7.19310E-03     59.1821E-03    -65.6283E+06    -90.8145E+06     10.1551E+06     215.440E+03    -223.876E-03     448.253E-03    -224.376E-03     30.0667E-03    -224.113E-03     447.905E-03    -224.099E-03     29.7226E-03
            1708     6.47356E-03     59.1387E-03    -73.2578E+06    -114.897E+06    -2.75068E+06     288.402E+03    -223.925E-03     448.318E-03    -224.393E-03     27.7104E-03    -224.138E-03     447.871E-03    -224.134E-03     27.6543E-03
            1709     5.75408E-03     59.0986E-03    -81.1929E+06    -137.866E+06    -16.7123E+06     178.327E+03    -223.975E-03     448.377E-03    -224.402E-03     25.1744E-03    -224.168E-03     447.840E-03    -224.167E-03     25.3357E-03
            1710     5.03464E-03     59.0620E-03    -89.2652E+06    -159.011E+06    -31.9431E+06     117.006E+03    -224.022E-03     448.422E-03    -224.400E-03     22.5273E-03    -224.198E-03     447.809E-03    -224.200E-03     22.8445E-03
            1711     4.31526E-03     59.0294E-03    -97.3098E+06    -180.284E+06    -48.5672E+06     199.968E+03    -224.057E-03     448.447E-03    -224.390E-03     19.7281E-03    -224.215E-03     447.760E-03    -224.230E-03     20.1385E-03
            1712     3.59596E-03     59.0011E-03    -105.162E+06    -201.471E+06    -66.3071E+06     230.134E+03    -224.093E-03     448.467E-03    -224.374E-03     16.7410E-03    -224.232E-03     447.710E-03    -224.261E-03     17.1855E-03
            1713     2.87666E-03     58.9776E-03    -112.431E+06    -221.488E+06    -84.2938E+06     116.954E+03    -224.147E-03     448.499E-03    -224.352E-03     13.5579E-03    -224.267E-03     447.678E-03    -224.289E-03     13.9818E-03
            1714     2.15748E-03     58.9587E-03    -118.885E+06    -240.090E+06    -101.249E+06     81.9674E+03    -224.228E-03     448.549E-03    -224.321E-03     10.3119E-03    -224.328E-03     447.668E-03    -224.306E-03     10.6727E-03
            1715     1.43847E-03     58.9450E-03    -124.031E+06    -255.360E+06    -115.478E+06     111.599E+03    -224.280E-03     448.554E-03    -224.274E-03     7.00861E-03    -224.363E-03     447.625E-03    -224.301E-03     7.27443E-03
            1716     719.317E-06     58.9367E-03    -127.304E+06    -265.365E+06    -125.083E+06     81.5788E+03    -224.161E-03     448.465E-03    -224.304E-03     3.86359E-03    -224.231E-03     447.504E-03    -224.360E-03     4.01278E-03
            1717     13.6704E-03     58.1422E-03    -5.45988E+06     88.6477E+06     104.172E+06    -495.298E+03    -223.082E-03     447.257E-03    -224.175E-03     26.7922E-03    -223.526E-03     447.694E-03    -223.775E-03     22.6762E-03
            1718     12.9514E-03     58.0984E-03    -12.0017E+06     83.1316E+06     99.8952E+06     168.832E+03    -223.317E-03     447.510E-03    -224.193E-03     33.8590E-03    -223.817E-03     447.973E-03    -223.797E-03     29.4491E-03
            1719     12.2317E-03     58.0520E-03    -17.7922E+06     76.9551E+06     88.6626E+06     886.669E+03    -223.215E-03     447.395E-03    -224.180E-03     35.6839E-03    -223.697E-03     447.830E-03    -223.822E-03     31.8898E-03
            1720     11.5120E-03     58.0016E-03    -24.1420E+06     70.4737E+06     74.6135E+06     186.551E+03    -223.176E-03     447.342E-03    -224.166E-03     37.2676E-03    -223.645E-03     447.759E-03    -223.860E-03     33.9635E-03
            1721     10.7918E-03     57.9491E-03    -31.1452E+06     58.2114E+06     63.8496E+06     167.530E+03    -223.219E-03     447.405E-03    -224.186E-03     37.5908E-03    -223.667E-03     447.764E-03    -223.906E-03     34.8737E-03
            1722     10.0718E-03     57.8962E-03    -37.3522E+06     36.4256E+06     56.4987E+06     393.899E+03    -223.345E-03     447.585E-03    -224.240E-03     36.9607E-03    -223.758E-03     447.830E-03    -223.956E-03     34.8266E-03
            1723     9.35187E-03     57.8441E-03    -43.6430E+06     1.15377E+06     46.2714E+06     461.406E+03    -223.565E-03     447.860E-03    -224.295E-03     35.6673E-03    -223.922E-03     447.932E-03    -224.002E-03     34.0670E-03
            1724     8.63222E-03     57.7935E-03    -50.6385E+06    -35.2057E+06     34.2353E+06     307.296E+03    -223.747E-03     448.084E-03    -224.338E-03     33.9928E-03    -224.050E-03     447.983E-03    -224.042E-03     32.8719E-03
            1725     7.91251E-03     57.7448E-03    -57.7631E+06    -64.5063E+06     22.6296E+06     143.388E+03    -223.841E-03     448.209E-03    -224.368E-03     32.0900E-03    -224.106E-03     447.974E-03    -224.077E-03     31.3821E-03
            1726     7.19297E-03     57.6985E-03    -65.0918E+06    -91.0756E+06     10.5592E+06     174.614E+03    -223.915E-03     448.305E-03    -224.390E-03     29.9400E-03    -224.150E-03     447.955E-03    -224.111E-03     29.5873E-03
            1727     6.47350E-03     57.6551E-03    -72.8710E+06    -114.781E+06    -2.42308E+06     208.845E+03    -223.969E-03     448.371E-03    -224.402E-03     27.6109E-03    -224.180E-03     447.923E-03    -224.142E-03     27.5459E-03
            1728     5.75407E-03     57.6150E-03    -80.8523E+06    -137.616E+06    -16.5230E+06     133.741E+03    -224.005E-03     448.411E-03    -224.407E-03     25.1376E-03    -224.197E-03     447.876E-03    -224.173E-03     25.2917E-03
            1729     5.03468E-03     57.5784E-03    -88.9676E+06    -159.060E+06    -31.7930E+06     142.251E+03    -224.021E-03     448.425E-03    -224.404E-03     22.4907E-03    -224.195E-03     447.811E-03    -224.203E-03     22.8026E-03
            1730     4.31530E-03     57.5458E-03    -97.1921E+06    -180.401E+06    -48.5265E+06     135.457E+03    -224.039E-03     448.435E-03    -224.397E-03     19.6698E-03    -224.196E-03     447.748E-03    -224.237E-03     20.0750E-03
            1731     3.59591E-03     57.5175E-03    -105.076E+06    -201.223E+06    -66.2718E+06     57.2231E+03    -224.098E-03     448.480E-03    -224.382E-03     16.7158E-03    -224.237E-03     447.724E-03    -224.269E-03     17.1543E-03
            1732     2.87671E-03     57.4938E-03    -112.477E+06    -221.354E+06    -84.3214E+06     10.1456E+03    -224.173E-03     448.531E-03    -224.358E-03     13.5814E-03    -224.293E-03     447.710E-03    -224.296E-03     14.0008E-03
            1733     2.15752E-03     57.4751E-03    -118.919E+06    -240.173E+06    -101.250E+06     31.8435E+03    -224.201E-03     448.532E-03    -224.331E-03     10.3901E-03    -224.300E-03     447.651E-03    -224.317E-03     10.7506E-03
            1734     1.43818E-03     57.4614E-03    -123.967E+06    -255.272E+06    -115.258E+06     79.3754E+03    -224.235E-03     448.548E-03    -224.313E-03     7.15780E-03    -224.317E-03     447.618E-03    -224.340E-03     7.42084E-03
            1735     719.124E-06     57.4531E-03    -127.196E+06    -265.088E+06    -124.726E+06     103.841E+03    -224.315E-03     448.585E-03    -224.270E-03     3.83533E-03    -224.385E-03     447.625E-03    -224.325E-03     3.98281E-03
            1736     13.6724E-03     56.6581E-03    -5.69178E+06     88.2145E+06     103.877E+06     538.988E+03    -223.184E-03     447.349E-03    -224.165E-03     26.8061E-03    -223.627E-03     447.784E-03    -223.765E-03     22.7183E-03
            1737     12.9520E-03     56.6151E-03    -11.2632E+06     83.6059E+06     100.218E+06     187.203E+03    -222.975E-03     447.165E-03    -224.190E-03     34.0837E-03    -223.473E-03     447.629E-03    -223.794E-03     29.6905E-03
            1738     12.2318E-03     56.5687E-03    -17.8778E+06     76.5075E+06     88.3392E+06    -50.0956E+03    -223.063E-03     447.254E-03    -224.191E-03     36.1412E-03    -223.545E-03     447.687E-03    -223.834E-03     32.3695E-03
            1739     11.5116E-03     56.5185E-03    -23.7774E+06     70.2379E+06     74.7493E+06     701.779E+03    -223.205E-03     447.388E-03    -224.183E-03     37.6337E-03    -223.672E-03     447.803E-03    -223.877E-03     34.3630E-03
            1740     10.7916E-03     56.4660E-03    -29.9382E+06     59.0747E+06     64.7891E+06     592.765E+03    -223.312E-03     447.515E-03    -224.203E-03     37.7657E-03    -223.756E-03     447.874E-03    -223.921E-03     35.0620E-03
            1741     10.0716E-03     56.4130E-03    -36.8536E+06     36.6086E+06     56.9100E+06     46.1809E+03    -223.435E-03     447.685E-03    -224.250E-03     36.9396E-03    -223.846E-03     447.930E-03    -223.965E-03     34.7985E-03
            1742     9.35183E-03     56.3606E-03    -43.8525E+06     1.07036E+06     46.2685E+06    -64.2973E+03    -223.610E-03     447.911E-03    -224.301E-03     35.5292E-03    -223.968E-03     447.982E-03    -224.007E-03     33.9179E-03
            1743     8.63213E-03     56.3098E-03    -50.5345E+06    -34.9935E+06     34.4738E+06     4.55279E+03    -223.769E-03     448.109E-03    -224.341E-03     33.8104E-03    -224.072E-03     448.009E-03    -224.044E-03     32.6717E-03
            1744     7.91262E-03     56.2612E-03    -57.6604E+06    -64.4535E+06     22.7379E+06     105.589E+03    -223.859E-03     448.227E-03    -224.368E-03     31.9532E-03    -224.124E-03     447.993E-03    -224.078E-03     31.2343E-03
            1745     7.19308E-03     56.2148E-03    -65.2065E+06    -91.2353E+06     10.5073E+06     142.290E+03    -223.910E-03     448.299E-03    -224.389E-03     29.8841E-03    -224.145E-03     447.949E-03    -224.110E-03     29.5226E-03
            1746     6.47355E-03     56.1715E-03    -72.8239E+06    -114.777E+06    -2.31944E+06     173.234E+03    -223.944E-03     448.348E-03    -224.403E-03     27.6109E-03    -224.156E-03     447.900E-03    -224.143E-03     27.5382E-03
            1747     5.75405E-03     56.1313E-03    -80.7152E+06    -137.534E+06    -16.3385E+06     203.329E+03    -223.977E-03     448.389E-03    -224.411E-03     25.1758E-03    -224.169E-03     447.853E-03    -224.177E-03     25.3252E-03
            1748     5.03463E-03     56.0948E-03    -88.8332E+06    -158.973E+06    -31.6056E+06     158.751E+03    -224.013E-03     448.425E-03    -224.412E-03     22.5660E-03    -224.187E-03     447.811E-03    -224.211E-03     22.8722E-03
            1749     4.31525E-03     56.0622E-03    -96.9518E+06    -180.163E+06    -48.2670E+06     131.237E+03    -224.061E-03     448.465E-03    -224.405E-03     19.7503E-03    -224.218E-03     447.779E-03    -224.244E-03     20.1533E-03
            1750     3.59596E-03     56.0340E-03    -104.959E+06    -201.153E+06    -66.1572E+06     76.3948E+03    -224.097E-03     448.487E-03    -224.390E-03     16.7683E-03    -224.236E-03     447.731E-03    -224.277E-03     17.2081E-03
            1751     2.87661E-03     56.0101E-03    -112.309E+06    -221.309E+06    -84.2493E+06    -22.7441E+03    -224.134E-03     448.507E-03    -224.373E-03     13.6349E-03    -224.253E-03     447.686E-03    -224.311E-03     14.0528E-03
            1752     2.15738E-03     55.9916E-03    -118.650E+06    -240.211E+06    -101.075E+06    -134.324E+03    -224.202E-03     448.560E-03    -224.359E-03     10.3840E-03    -224.300E-03     447.678E-03    -224.344E-03     10.7373E-03
            1753     1.43825E-03     55.9779E-03    -123.655E+06    -255.258E+06    -115.047E+06    -171.750E+03    -224.251E-03     448.601E-03    -224.350E-03     7.03733E-03    -224.332E-03     447.671E-03    -224.376E-03     7.29686E-03
            1754     718.935E-06     55.9693E-03    -127.309E+06    -265.112E+06    -124.605E+06    -124.341E+03    -224.392E-03     448.667E-03    -224.275E-03     3.82115E-03    -224.464E-03     447.707E-03    -224.329E-03     3.97141E-03
            1755     13.6711E-03     55.1753E-03    -5.91875E+06     87.8206E+06     103.684E+06     86.3691E+03    -222.890E-03     447.078E-03    -224.187E-03     27.5747E-03    -223.335E-03     447.512E-03    -223.788E-03     23.5168E-03
            1756     12.9510E-03     55.1324E-03    -11.5643E+06     83.1911E+06     99.7993E+06     1.18274E+06    -223.048E-03     447.267E-03    -224.219E-03     34.7596E-03    -223.545E-03     447.729E-03    -223.824E-03     30.4412E-03
            1757     12.2308E-03     55.0856E-03    -17.8685E+06     76.4878E+06     88.1607E+06     671.632E+03    -223.233E-03     447.448E-03    -224.215E-03     36.0693E-03    -223.714E-03     447.882E-03    -223.860E-03     32.3076E-03
            1758     11.5112E-03     55.0351E-03    -24.3783E+06     69.7657E+06     74.5977E+06    -18.8998E+03    -223.364E-03     447.565E-03    -224.200E-03     37.2893E-03    -223.833E-03     447.978E-03    -223.893E-03     33.9952E-03
            1759     10.7914E-03     54.9825E-03    -30.0071E+06     59.2439E+06     65.1345E+06     135.401E+03    -223.485E-03     447.695E-03    -224.210E-03     37.4346E-03    -223.931E-03     448.055E-03    -223.926E-03     34.6962E-03
            1760     10.0718E-03     54.9295E-03    -36.3025E+06     37.2039E+06     57.3781E+06     431.474E+03    -223.563E-03     447.809E-03    -224.246E-03     36.7227E-03    -223.973E-03     448.056E-03    -223.960E-03     34.5585E-03
            1761     9.35205E-03     54.8771E-03    -43.2045E+06     1.44850E+06     46.5865E+06     159.400E+03    -223.632E-03     447.921E-03    -224.289E-03     35.4230E-03    -223.987E-03     447.993E-03    -223.996E-03     33.7958E-03
            1762     8.63236E-03     54.8263E-03    -50.4984E+06    -35.2733E+06     34.3501E+06    -39.3345E+03    -223.705E-03     448.035E-03    -224.329E-03     33.8049E-03    -224.009E-03     447.934E-03    -224.033E-03     32.6574E-03
            1763     7.91265E-03     54.7775E-03    -57.8003E+06    -64.7447E+06     22.5882E+06     93.0561E+03    -223.784E-03     448.147E-03    -224.363E-03     32.0226E-03    -224.049E-03     447.912E-03    -224.072E-03     31.2996E-03
            1764     7.19304E-03     54.7313E-03    -65.1475E+06    -91.1872E+06     10.6149E+06     122.819E+03    -223.850E-03     448.240E-03    -224.391E-03     30.0031E-03    -224.085E-03     447.890E-03    -224.111E-03     29.6372E-03
            1765     6.47350E-03     54.6878E-03    -72.8733E+06    -114.870E+06    -2.15377E+06     144.412E+03    -223.903E-03     448.314E-03    -224.411E-03     27.7426E-03    -224.115E-03     447.866E-03    -224.150E-03     27.6671E-03
            1766     5.75401E-03     54.6478E-03    -80.8027E+06    -137.480E+06    -16.1566E+06     161.189E+03    -223.954E-03     448.378E-03    -224.425E-03     25.2682E-03    -224.146E-03     447.843E-03    -224.189E-03     25.4169E-03
            1767     5.03451E-03     54.6112E-03    -88.9511E+06    -158.883E+06    -31.5849E+06     121.307E+03    -224.010E-03     448.438E-03    -224.428E-03     22.6203E-03    -224.185E-03     447.825E-03    -224.227E-03     22.9280E-03
            1768     4.31516E-03     54.5786E-03    -96.9613E+06    -180.034E+06    -48.3064E+06     67.9706E+03    -224.070E-03     448.493E-03    -224.422E-03     19.8050E-03    -224.228E-03     447.807E-03    -224.262E-03     20.2068E-03
            1769     3.59586E-03     54.5502E-03    -104.795E+06    -200.955E+06    -66.2016E+06    -14.7556E+03    -224.105E-03     448.514E-03    -224.409E-03     16.8183E-03    -224.243E-03     447.759E-03    -224.297E-03     17.2520E-03
            1770     2.87660E-03     54.5267E-03    -112.277E+06    -221.229E+06    -84.3449E+06    -48.0822E+03    -224.153E-03     448.547E-03    -224.395E-03     13.6780E-03    -224.272E-03     447.727E-03    -224.333E-03     14.0955E-03
            1771     2.15733E-03     54.5077E-03    -118.814E+06    -240.202E+06    -101.142E+06    -43.7251E+03    -224.253E-03     448.628E-03    -224.375E-03     10.3839E-03    -224.352E-03     447.746E-03    -224.360E-03     10.7408E-03
            1772     1.43824E-03     54.4941E-03    -124.064E+06    -255.485E+06    -115.441E+06    -28.4417E+03    -224.324E-03     448.662E-03    -224.338E-03     7.02148E-03    -224.407E-03     447.732E-03    -224.365E-03     7.28636E-03
            1773     719.309E-06     54.4856E-03    -127.061E+06    -265.295E+06    -125.194E+06    -150.223E+03    -224.251E-03     448.602E-03    -224.352E-03     3.82040E-03    -224.319E-03     447.642E-03    -224.409E-03     3.96863E-03
            1774     13.6701E-03     53.6924E-03    -5.77322E+06     87.5984E+06     103.307E+06     435.556E+03    -223.004E-03     447.205E-03    -224.201E-03     26.5636E-03    -223.446E-03     447.638E-03    -223.803E-03     22.4689E-03
            1775     12.9506E-03     53.6481E-03    -12.8527E+06     81.9572E+06     98.6880E+06    -433.485E+03    -223.290E-03     447.512E-03    -224.222E-03     33.4258E-03    -223.790E-03     447.972E-03    -223.829E-03     28.9912E-03
            1776     12.2314E-03     53.6020E-03    -17.6992E+06     77.2105E+06     89.1370E+06     191.913E+03    -223.356E-03     447.567E-03    -224.212E-03     35.2404E-03    -223.839E-03     448.004E-03    -223.852E-03     31.4033E-03
            1777     11.5116E-03     53.5515E-03    -23.4242E+06     70.7627E+06     75.7147E+06     146.099E+03    -223.409E-03     447.599E-03    -224.189E-03     36.8842E-03    -223.877E-03     448.014E-03    -223.879E-03     33.5579E-03
            1778     10.7918E-03     53.4989E-03    -30.2633E+06     58.4485E+06     64.7903E+06    -149.678E+03    -223.448E-03     447.642E-03    -224.194E-03     37.2831E-03    -223.894E-03     448.000E-03    -223.911E-03     34.5277E-03
            1779     10.0720E-03     53.4459E-03    -36.5930E+06     36.8492E+06     57.3823E+06    -28.3582E+03    -223.485E-03     447.718E-03    -224.234E-03     36.7694E-03    -223.896E-03     447.964E-03    -223.947E-03     34.5910E-03
            1780     9.35218E-03     53.3936E-03    -43.0182E+06     1.61961E+06     46.9504E+06     279.183E+03    -223.549E-03     447.832E-03    -224.283E-03     35.6164E-03    -223.905E-03     447.905E-03    -223.988E-03     33.9838E-03
            1781     8.63239E-03     53.3430E-03    -50.0089E+06    -35.1322E+06     34.7515E+06     355.360E+03    -223.639E-03     447.969E-03    -224.329E-03     34.0597E-03    -223.941E-03     447.867E-03    -224.032E-03     32.9203E-03
            1782     7.91264E-03     53.2942E-03    -57.3908E+06    -64.7915E+06     22.8994E+06     221.912E+03    -223.721E-03     448.090E-03    -224.369E-03     32.2091E-03    -223.985E-03     447.854E-03    -224.077E-03     31.4900E-03
            1783     7.19297E-03     53.2478E-03    -64.9457E+06    -91.1556E+06     10.7440E+06     206.573E+03    -223.792E-03     448.195E-03    -224.404E-03     30.1297E-03    -224.026E-03     447.844E-03    -224.123E-03     29.7659E-03
            1784     6.47335E-03     53.2044E-03    -72.7051E+06    -114.914E+06    -2.15084E+06     152.211E+03    -223.870E-03     448.301E-03    -224.431E-03     27.8729E-03    -224.082E-03     447.852E-03    -224.169E-03     27.7995E-03
            1785     5.75383E-03     53.1641E-03    -80.7701E+06    -137.523E+06    -16.2846E+06     188.316E+03    -223.967E-03     448.414E-03    -224.447E-03     25.3916E-03    -224.159E-03     447.878E-03    -224.212E-03     25.5418E-03
            1786     5.03446E-03     53.1275E-03    -88.9264E+06    -158.710E+06    -31.7334E+06     219.304E+03    -224.037E-03     448.488E-03    -224.451E-03     22.7167E-03    -224.213E-03     447.876E-03    -224.251E-03     23.0247E-03
            1787     4.31508E-03     53.0948E-03    -97.0807E+06    -179.911E+06    -48.5101E+06     111.820E+03    -224.071E-03     448.518E-03    -224.447E-03     19.8583E-03    -224.229E-03     447.834E-03    -224.288E-03     20.2573E-03
            1788     3.59572E-03     53.0666E-03    -105.138E+06    -200.939E+06    -66.4429E+06     71.3967E+03    -224.128E-03     448.564E-03    -224.437E-03     16.8375E-03    -224.267E-03     447.810E-03    -224.325E-03     17.2690E-03
            1789     2.87646E-03     53.0428E-03    -112.717E+06    -221.153E+06    -84.8616E+06     94.5879E+03    -224.206E-03     448.624E-03    -224.418E-03     13.7174E-03    -224.327E-03     447.805E-03    -224.358E-03     14.1380E-03
            1790     2.15738E-03     53.0239E-03    -119.140E+06    -240.216E+06    -101.838E+06     115.398E+03    -224.255E-03     448.653E-03    -224.397E-03     10.4772E-03    -224.355E-03     447.772E-03    -224.386E-03     10.8398E-03
            1791     1.43822E-03     53.0102E-03    -124.033E+06    -255.489E+06    -115.601E+06     41.3674E+03    -224.299E-03     448.684E-03    -224.385E-03     7.17099E-03    -224.381E-03     447.754E-03    -224.413E-03     7.43438E-03
            1792     718.998E-06     53.0019E-03    -127.263E+06    -265.580E+06    -124.930E+06        -304.660    -224.404E-03     448.737E-03    -224.333E-03     3.87697E-03    -224.474E-03     447.775E-03    -224.388E-03     4.02118E-03
            1793     13.6722E-03     52.2079E-03    -6.04434E+06     87.5185E+06     103.608E+06     897.901E+03    -223.304E-03     447.484E-03    -224.179E-03     26.5063E-03    -223.748E-03     447.916E-03    -223.780E-03     22.4163E-03
            1794     12.9523E-03     52.1652E-03    -9.96356E+06     84.8010E+06     101.648E+06     428.138E+03    -223.140E-03     447.340E-03    -224.200E-03     33.7555E-03    -223.634E-03     447.806E-03    -223.801E-03     29.3516E-03
            1795     12.2316E-03     52.1183E-03    -17.3928E+06     77.3849E+06     88.9757E+06    -793.819E+03    -223.202E-03     447.392E-03    -224.190E-03     35.7150E-03    -223.684E-03     447.828E-03    -223.832E-03     31.9059E-03
            1796     11.5119E-03     52.0681E-03    -23.6948E+06     69.9833E+06     75.0790E+06    -322.382E+03    -223.312E-03     447.486E-03    -224.174E-03     37.2973E-03    -223.778E-03     447.899E-03    -223.866E-03     33.9858E-03
            1797     10.7919E-03     52.0155E-03    -29.5158E+06     58.6572E+06     65.1684E+06     208.884E+03    -223.330E-03     447.519E-03    -224.189E-03     37.6542E-03    -223.773E-03     447.876E-03    -223.905E-03     34.9226E-03
            1798     10.0720E-03     51.9626E-03    -36.2338E+06     36.3018E+06     57.2460E+06     158.660E+03    -223.354E-03     447.591E-03    -224.237E-03     37.0742E-03    -223.763E-03     447.835E-03    -223.951E-03     34.9081E-03
            1799     9.35197E-03     51.9104E-03    -43.5950E+06     981.949E+03     46.4145E+06     351.804E+03    -223.471E-03     447.766E-03    -224.295E-03     35.8493E-03    -223.829E-03     447.837E-03    -224.001E-03     34.2250E-03
            1800     8.63214E-03     51.8596E-03    -50.7760E+06    -34.8612E+06     34.4030E+06     497.921E+03    -223.612E-03     447.958E-03    -224.346E-03     34.2511E-03    -223.917E-03     447.860E-03    -224.050E-03     33.1167E-03
            1801     7.91247E-03     51.8107E-03    -57.9278E+06    -64.4853E+06     22.6473E+06     406.895E+03    -223.715E-03     448.104E-03    -224.390E-03     32.3974E-03    -223.981E-03     447.871E-03    -224.099E-03     31.6794E-03
            1802     7.19278E-03     51.7644E-03    -65.4856E+06    -90.8929E+06     10.2915E+06     188.256E+03    -223.801E-03     448.226E-03    -224.425E-03     30.2789E-03    -224.038E-03     447.878E-03    -224.147E-03     29.9108E-03
            1803     6.47317E-03     51.7208E-03    -73.2045E+06    -114.967E+06    -2.68909E+06     154.325E+03    -223.882E-03     448.336E-03    -224.454E-03     27.9499E-03    -224.095E-03     447.888E-03    -224.194E-03     27.8722E-03
            1804     5.75366E-03     51.6805E-03    -81.0425E+06    -137.577E+06    -16.6153E+06     218.071E+03    -223.956E-03     448.430E-03    -224.474E-03     25.4501E-03    -224.149E-03     447.895E-03    -224.240E-03     25.5970E-03
            1805     5.03422E-03     51.6436E-03    -89.0777E+06    -158.565E+06    -31.8443E+06     165.349E+03    -224.021E-03     448.506E-03    -224.485E-03     22.8058E-03    -224.197E-03     447.895E-03    -224.285E-03     23.1065E-03
            1806     4.31490E-03     51.6111E-03    -97.2240E+06    -179.854E+06    -48.4821E+06     183.445E+03    -224.088E-03     448.576E-03    -224.487E-03     19.9861E-03    -224.247E-03     447.891E-03    -224.328E-03     20.3808E-03
            1807     3.59564E-03     51.5827E-03    -105.165E+06    -200.851E+06    -66.3972E+06     206.927E+03    -224.164E-03     448.643E-03    -224.480E-03     16.9965E-03    -224.304E-03     447.890E-03    -224.368E-03     17.4317E-03
            1808     2.87646E-03     51.5590E-03    -112.390E+06    -221.102E+06    -84.4802E+06     134.475E+03    -224.221E-03     448.688E-03    -224.467E-03     13.8628E-03    -224.341E-03     447.869E-03    -224.406E-03     14.2809E-03
            1809     2.15717E-03     51.5401E-03    -118.694E+06    -240.039E+06    -101.302E+06     65.1559E+03    -224.266E-03     448.727E-03    -224.460E-03     10.5959E-03    -224.365E-03     447.845E-03    -224.447E-03     10.9510E-03
            1810     1.43799E-03     51.5265E-03    -123.766E+06    -255.338E+06    -115.336E+06    -21.8371E+03    -224.337E-03     448.804E-03    -224.467E-03     7.20977E-03    -224.418E-03     447.874E-03    -224.494E-03     7.46923E-03
            1811     718.949E-06     51.5178E-03    -127.203E+06    -265.746E+06    -124.778E+06     22.1066E+03    -224.505E-03     448.923E-03    -224.417E-03     3.94711E-03    -224.575E-03     447.959E-03    -224.471E-03     4.10267E-03
            1812     13.6710E-03     50.7248E-03    -6.13329E+06     87.0941E+06     103.280E+06    -699.351E+03    -222.930E-03     447.101E-03    -224.172E-03     27.0056E-03    -223.373E-03     447.532E-03    -223.773E-03     22.9302E-03
            1813     12.9509E-03     50.6817E-03    -11.5708E+06     83.1353E+06     100.215E+06    -100.463E+03    -223.113E-03     447.315E-03    -224.202E-03     34.3320E-03    -223.611E-03     447.776E-03    -223.805E-03     29.9620E-03
            1814     12.2316E-03     50.6353E-03    -16.7873E+06     78.0035E+06     89.6084E+06     830.225E+03    -223.200E-03     447.397E-03    -224.197E-03     35.9741E-03    -223.680E-03     447.835E-03    -223.838E-03     32.1970E-03
            1815     11.5114E-03     50.5847E-03    -23.8528E+06     69.6075E+06     74.5198E+06     54.6582E+03    -223.202E-03     447.385E-03    -224.183E-03     37.4533E-03    -223.668E-03     447.797E-03    -223.877E-03     34.1505E-03
            1816     10.7916E-03     50.5323E-03    -30.5161E+06     57.6302E+06     64.0362E+06     176.250E+03    -223.238E-03     447.442E-03    -224.204E-03     37.8366E-03    -223.683E-03     447.797E-03    -223.923E-03     35.1029E-03
            1817     10.0716E-03     50.4794E-03    -37.1104E+06     36.1222E+06     56.5805E+06     779.880E+03    -223.333E-03     447.592E-03    -224.259E-03     37.2571E-03    -223.746E-03     447.837E-03    -223.974E-03     35.1013E-03
            1818     9.35175E-03     50.4271E-03    -43.8603E+06     1.32524E+06     46.2095E+06     593.526E+03    -223.482E-03     447.801E-03    -224.319E-03     35.9842E-03    -223.841E-03     447.875E-03    -224.027E-03     34.3602E-03
            1819     8.63197E-03     50.3762E-03    -50.7119E+06    -34.7889E+06     34.2622E+06     367.780E+03    -223.608E-03     447.982E-03    -224.374E-03     34.3531E-03    -223.914E-03     447.885E-03    -224.078E-03     33.2089E-03
            1820     7.91214E-03     50.3273E-03    -57.7773E+06      -64.22E+06     22.5526E+06     291.572E+03    -223.724E-03     448.143E-03    -224.419E-03     32.4987E-03    -223.990E-03     447.911E-03    -224.129E-03     31.7699E-03
            1821     7.19254E-03     50.2808E-03    -65.0856E+06    -90.7490E+06     10.5374E+06     284.416E+03    -223.836E-03     448.293E-03    -224.457E-03     30.3895E-03    -224.072E-03     447.945E-03    -224.179E-03     30.0125E-03
            1822     6.47304E-03     50.2372E-03    -72.8738E+06    -114.847E+06    -2.38526E+06     264.154E+03    -223.905E-03     448.391E-03    -224.487E-03     28.1057E-03    -224.117E-03     447.944E-03    -224.227E-03     28.0194E-03
            1823     5.75356E-03     50.1967E-03    -80.8932E+06    -137.422E+06    -16.3521E+06     66.8176E+03    -223.949E-03     448.460E-03    -224.511E-03     25.6260E-03    -224.142E-03     447.925E-03    -224.276E-03     25.7611E-03
            1824     5.03406E-03     50.1600E-03    -89.0205E+06    -158.663E+06    -31.6163E+06     26.5348E+03    -224.008E-03     448.537E-03    -224.529E-03     22.9282E-03    -224.184E-03     447.926E-03    -224.328E-03     23.2192E-03
            1825     4.31462E-03     50.1272E-03    -97.2454E+06    -179.844E+06    -48.3038E+06     49.6732E+03    -224.087E-03     448.627E-03    -224.540E-03     20.0644E-03    -224.246E-03     447.943E-03    -224.380E-03     20.4509E-03
            1826     3.59533E-03     50.0988E-03    -105.091E+06    -200.773E+06    -66.1319E+06     50.0910E+03    -224.169E-03     448.712E-03    -224.543E-03     17.0985E-03    -224.309E-03     447.958E-03    -224.430E-03     17.5253E-03
            1827     2.87607E-03     50.0749E-03    -112.380E+06    -221.101E+06    -84.2827E+06     69.1171E+03    -224.262E-03     448.802E-03    -224.540E-03     13.9321E-03    -224.382E-03     447.982E-03    -224.478E-03     14.3421E-03
            1828     2.15700E-03     50.0562E-03    -118.831E+06    -239.953E+06    -101.242E+06     45.3001E+03    -224.361E-03     448.894E-03    -224.533E-03     10.6045E-03    -224.461E-03     448.013E-03    -224.519E-03     10.9559E-03
            1829     1.43800E-03     50.0422E-03    -123.994E+06    -255.237E+06    -115.427E+06     95.6163E+03    -224.449E-03     448.969E-03    -224.519E-03     7.21798E-03    -224.532E-03     448.040E-03    -224.546E-03     7.48032E-03
            1830     719.034E-06     50.0337E-03    -127.301E+06    -265.562E+06    -125.030E+06     139.680E+03    -224.535E-03     448.995E-03    -224.460E-03     3.90568E-03    -224.605E-03     448.033E-03    -224.516E-03     4.06172E-03
            1831     13.6714E-03     49.2420E-03    -4.42150E+06     88.4187E+06     104.625E+06     233.169E+03    -222.918E-03     447.086E-03    -224.168E-03     26.5276E-03    -223.355E-03     447.518E-03    -223.767E-03     22.4458E-03
            1832     12.9516E-03     49.1981E-03    -12.2982E+06     81.5490E+06     98.4113E+06    -1.35424E+06    -222.951E-03     447.147E-03    -224.195E-03     33.5854E-03    -223.448E-03     447.604E-03    -223.803E-03     29.1445E-03
            1833     12.2313E-03     49.1517E-03    -18.5016E+06     75.9414E+06     87.4699E+06    -541.602E+03    -222.972E-03     447.173E-03    -224.201E-03     35.7577E-03    -223.456E-03     447.607E-03    -223.847E-03     31.9352E-03
            1834     11.5115E-03     49.1017E-03    -23.6179E+06     69.9540E+06     74.8010E+06     1.05417E+06    -223.087E-03     447.290E-03    -224.203E-03     37.5135E-03    -223.554E-03     447.705E-03    -223.897E-03     34.2182E-03
            1835     10.7913E-03     49.0492E-03    -30.3647E+06     57.4337E+06     64.1625E+06     1.04955E+06    -223.210E-03     447.441E-03    -224.231E-03     37.8869E-03    -223.655E-03     447.796E-03    -223.949E-03     35.1619E-03
            1836     10.0713E-03     48.9961E-03    -37.0883E+06     36.4928E+06     56.9338E+06     488.176E+03    -223.335E-03     447.623E-03    -224.289E-03     37.3031E-03    -223.748E-03     447.870E-03    -224.003E-03     35.1363E-03
            1837     9.35144E-03     48.9436E-03    -43.5737E+06     1.99077E+06     46.7274E+06     194.685E+03    -223.478E-03     447.829E-03    -224.352E-03     36.0853E-03    -223.838E-03     447.906E-03    -224.058E-03     34.4429E-03
            1838     8.63161E-03     48.8929E-03    -50.5577E+06    -34.6829E+06     34.6049E+06     152.158E+03    -223.622E-03     448.031E-03    -224.409E-03     34.4884E-03    -223.928E-03     447.934E-03    -224.112E-03     33.3278E-03
            1839     7.91197E-03     48.8438E-03    -57.8393E+06    -64.2218E+06     22.7457E+06     202.165E+03    -223.718E-03     448.175E-03    -224.457E-03     32.6647E-03    -223.986E-03     447.943E-03    -224.166E-03     31.9241E-03
            1840     7.19230E-03     48.7972E-03    -65.2797E+06    -90.9471E+06     10.6133E+06     195.624E+03    -223.801E-03     448.302E-03    -224.501E-03     30.6183E-03    -224.038E-03     447.954E-03    -224.221E-03     30.2315E-03
            1841     6.47267E-03     48.7534E-03    -72.7934E+06    -114.625E+06    -2.03188E+06     148.690E+03    -223.894E-03     448.433E-03    -224.539E-03     28.3493E-03    -224.107E-03     447.987E-03    -224.277E-03     28.2515E-03
            1842     5.75312E-03     48.7130E-03    -80.7379E+06    -137.187E+06    -16.0356E+06     130.008E+03    -223.982E-03     448.550E-03    -224.568E-03     25.8445E-03    -224.175E-03     448.016E-03    -224.332E-03     25.9695E-03
            1843     5.03375E-03     48.6761E-03    -88.9563E+06    -158.677E+06    -31.4502E+06     34.3716E+03    -224.052E-03     448.641E-03    -224.589E-03     23.1373E-03    -224.228E-03     448.029E-03    -224.387E-03     23.4181E-03
            1844     4.31446E-03     48.6433E-03    -97.1813E+06    -179.772E+06    -48.2793E+06    -30.4312E+03    -224.130E-03     448.733E-03    -224.602E-03     20.2380E-03    -224.290E-03     448.049E-03    -224.442E-03     20.6136E-03
            1845     3.59514E-03     48.6148E-03    -105.184E+06    -201.015E+06    -66.2426E+06     5.16376E+03    -224.236E-03     448.843E-03    -224.607E-03     17.1556E-03    -224.376E-03     448.088E-03    -224.494E-03     17.5710E-03
            1846     2.87598E-03     48.5908E-03    -112.585E+06    -221.149E+06    -84.5328E+06     79.1996E+03    -224.347E-03     448.947E-03    -224.599E-03     13.9003E-03    -224.468E-03     448.128E-03    -224.538E-03     14.3048E-03
            1847     2.15690E-03     48.5718E-03    -119.029E+06    -239.862E+06    -101.601E+06     103.808E+03    -224.447E-03     449.030E-03    -224.582E-03     10.5797E-03    -224.548E-03     448.150E-03    -224.570E-03     10.9294E-03
            1848     1.43789E-03     48.5579E-03    -124.040E+06    -255.195E+06    -115.489E+06     100.380E+03    -224.510E-03     449.069E-03    -224.559E-03     7.22677E-03    -224.592E-03     448.140E-03    -224.587E-03     7.48599E-03
            1849     718.911E-06     48.5492E-03    -127.424E+06    -265.376E+06    -124.887E+06     100.523E+03    -224.557E-03     449.065E-03    -224.508E-03     3.97497E-03    -224.628E-03     448.104E-03    -224.563E-03     4.12309E-03
            1850     13.6720E-03     47.7578E-03    -5.22449E+06     88.3977E+06     104.453E+06     175.274E+03    -222.936E-03     447.101E-03    -224.165E-03     26.9219E-03    -223.379E-03     447.536E-03    -223.763E-03     22.8272E-03
            1851     12.9519E-03     47.7159E-03    -9.90363E+06     83.7709E+06     100.665E+06     829.164E+03    -222.698E-03     446.901E-03    -224.203E-03     34.3521E-03    -223.191E-03     447.363E-03    -223.806E-03     29.9837E-03
            1852     12.2314E-03     47.6692E-03    -17.9178E+06     75.1621E+06     86.7984E+06     229.856E+03    -222.815E-03     447.030E-03    -224.214E-03     36.2657E-03    -223.293E-03     447.459E-03    -223.863E-03     32.5057E-03
            1853     11.5108E-03     47.6186E-03    -25.1175E+06     68.5827E+06     73.4287E+06    -103.310E+03    -223.056E-03     447.281E-03    -224.225E-03     37.6841E-03    -223.526E-03     447.692E-03    -223.921E-03     34.3866E-03
            1854     10.7910E-03     47.5660E-03    -30.2226E+06     58.1849E+06     64.9647E+06     224.254E+03    -223.216E-03     447.476E-03    -224.260E-03     37.9635E-03    -223.663E-03     447.834E-03    -223.976E-03     35.2200E-03
            1855     10.0711E-03     47.5128E-03    -36.1320E+06     36.9835E+06     57.7011E+06     299.858E+03    -223.289E-03     447.609E-03    -224.321E-03     37.4096E-03    -223.700E-03     447.857E-03    -224.033E-03     35.2272E-03
            1856     9.35110E-03     47.4604E-03    -43.2693E+06     1.93320E+06     47.0011E+06     380.239E+03    -223.426E-03     447.816E-03    -224.389E-03     36.2418E-03    -223.786E-03     447.892E-03    -224.094E-03     34.5947E-03
            1857     8.63132E-03     47.4092E-03    -50.6091E+06    -34.6109E+06     34.7817E+06     393.756E+03    -223.575E-03     448.028E-03    -224.453E-03     34.6933E-03    -223.882E-03     447.932E-03    -224.156E-03     33.5246E-03
            1858     7.91152E-03     47.3603E-03    -57.9857E+06    -64.1077E+06     22.9852E+06     240.403E+03    -223.676E-03     448.187E-03    -224.511E-03     32.9366E-03    -223.946E-03     447.956E-03    -224.219E-03     32.1830E-03
            1859     7.19180E-03     47.3136E-03    -65.3713E+06    -90.6690E+06     10.7377E+06     7.90845E+03    -223.789E-03     448.351E-03    -224.562E-03     30.8896E-03    -224.027E-03     448.004E-03    -224.282E-03     30.4887E-03
            1860     6.47220E-03     47.2697E-03    -73.0868E+06    -114.718E+06    -2.27086E+06    -84.6115E+03    -223.905E-03     448.512E-03    -224.606E-03     28.5581E-03    -224.120E-03     448.066E-03    -224.345E-03     28.4443E-03
            1861     5.75279E-03     47.2290E-03    -81.0279E+06    -137.206E+06    -16.2177E+06    -1.19279E+03    -224.008E-03     448.650E-03    -224.642E-03     26.0398E-03    -224.202E-03     448.117E-03    -224.407E-03     26.1491E-03
            1862     5.03335E-03     47.1921E-03    -88.9942E+06    -158.561E+06    -31.4951E+06    -18.5560E+03    -224.105E-03     448.774E-03    -224.669E-03     23.3377E-03    -224.282E-03     448.163E-03    -224.467E-03     23.6053E-03
            1863     4.31397E-03     47.1592E-03    -96.9401E+06    -179.895E+06    -48.2810E+06    -19.1540E+03    -224.224E-03     448.907E-03    -224.684E-03     20.4508E-03    -224.382E-03     448.223E-03    -224.524E-03     20.8186E-03
            1864     3.59489E-03     47.1304E-03    -104.680E+06    -200.985E+06    -66.0634E+06     9.36577E+03    -224.350E-03     449.035E-03    -224.685E-03     17.3897E-03    -224.488E-03     448.280E-03    -224.572E-03     17.8011E-03
            1865     2.87585E-03     47.1064E-03    -112.109E+06    -221.313E+06    -84.0950E+06    -14.4148E+03    -224.452E-03     449.124E-03    -224.672E-03     14.1386E-03    -224.570E-03     448.303E-03    -224.609E-03     14.5375E-03
            1866     2.15683E-03     47.0873E-03    -118.664E+06    -239.928E+06    -101.097E+06     69.5458E+03    -224.527E-03     449.177E-03    -224.650E-03     10.7533E-03    -224.626E-03     448.296E-03    -224.636E-03     11.0974E-03
            1867     1.43789E-03     47.0735E-03    -123.703E+06    -255.109E+06    -115.193E+06     76.7236E+03    -224.572E-03     449.197E-03    -224.625E-03     7.30789E-03    -224.654E-03     448.268E-03    -224.652E-03     7.56200E-03
            1868     718.973E-06     47.0649E-03    -126.769E+06    -265.192E+06    -124.749E+06    -74.1769E+03    -224.505E-03     449.200E-03    -224.694E-03     3.98183E-03    -224.573E-03     448.238E-03    -224.750E-03     4.11970E-03
            1869     13.6710E-03     46.2761E-03    -6.11716E+06     87.1548E+06     102.745E+06    -637.173E+03    -222.566E-03     446.756E-03    -224.189E-03     27.3390E-03    -223.009E-03     447.189E-03    -223.793E-03     23.2551E-03
            1870     12.9504E-03     46.2327E-03    -12.5900E+06     81.9951E+06     99.0475E+06     424.912E+03    -222.896E-03     447.133E-03    -224.238E-03     34.5336E-03    -223.396E-03     447.592E-03    -223.843E-03     30.1812E-03
            1871     12.2307E-03     46.1863E-03    -17.0509E+06     76.4172E+06     89.5085E+06     1.41571E+06    -223.065E-03     447.315E-03    -224.250E-03     36.1017E-03    -223.545E-03     447.747E-03    -223.889E-03     32.3329E-03
            1872     11.5110E-03     46.1355E-03    -23.1111E+06     70.0322E+06     75.3713E+06     842.631E+03    -223.043E-03     447.292E-03    -224.249E-03     37.5538E-03    -223.509E-03     447.706E-03    -223.940E-03     34.2519E-03
            1873     10.7907E-03     46.0826E-03    -30.4323E+06     58.0014E+06     64.2396E+06    -174.910E+03    -223.056E-03     447.339E-03    -224.284E-03     38.0256E-03    -223.503E-03     447.698E-03    -224.002E-03     35.2618E-03
            1874     10.0707E-03     46.0297E-03    -37.2722E+06     36.3384E+06     56.9035E+06     28.6071E+03    -223.171E-03     447.529E-03    -224.358E-03     37.6464E-03    -223.587E-03     447.777E-03    -224.072E-03     35.4502E-03
            1875     9.35071E-03     45.9769E-03    -43.8095E+06     1.72798E+06     46.7054E+06     407.509E+03    -223.337E-03     447.776E-03    -224.439E-03     36.5588E-03    -223.699E-03     447.853E-03    -224.144E-03     34.9044E-03
            1876     8.63076E-03     45.9259E-03    -50.4324E+06    -34.2387E+06     34.8630E+06     236.541E+03    -223.500E-03     448.015E-03    -224.514E-03     35.0139E-03    -223.808E-03     447.921E-03    -224.217E-03     33.8306E-03
            1877     7.91092E-03     45.8767E-03    -57.2380E+06    -63.7093E+06     23.2867E+06    -22.9590E+03    -223.666E-03     448.248E-03    -224.582E-03     33.2218E-03    -223.934E-03     448.019E-03    -224.290E-03     32.4496E-03
            1878     7.19127E-03     45.8298E-03    -64.6385E+06    -90.6823E+06     11.0859E+06     43.2777E+03    -223.820E-03     448.461E-03    -224.641E-03     31.1523E-03    -224.056E-03     448.114E-03    -224.361E-03     30.7358E-03
            1879     6.47173E-03     45.7857E-03    -72.4735E+06    -114.685E+06    -1.99964E+06     100.964E+03    -223.933E-03     448.625E-03    -224.691E-03     28.8297E-03    -224.145E-03     448.178E-03    -224.430E-03     28.7026E-03
            1880     5.75217E-03     45.7450E-03    -80.4306E+06    -137.060E+06    -16.0617E+06    -127.551E+03    -224.048E-03     448.782E-03    -224.734E-03     26.3034E-03    -224.240E-03     448.249E-03    -224.499E-03     26.3970E-03
            1881     5.03282E-03     45.7079E-03    -88.5683E+06    -158.646E+06    -31.4446E+06    -222.728E+03    -224.194E-03     448.959E-03    -224.765E-03     23.5613E-03    -224.368E-03     448.347E-03    -224.564E-03     23.8142E-03
            1882     4.31368E-03     45.6747E-03    -96.7344E+06    -180.147E+06    -48.0873E+06    -157.420E+03    -224.319E-03     449.102E-03    -224.783E-03     20.6172E-03    -224.476E-03     448.416E-03    -224.622E-03     20.9698E-03
            1883     3.59445E-03     45.6458E-03    -104.744E+06    -201.090E+06    -65.7566E+06    -27.8965E+03    -224.416E-03     449.205E-03    -224.789E-03     17.5419E-03    -224.555E-03     448.449E-03    -224.675E-03     17.9399E-03
            1884     2.87539E-03     45.6216E-03    -112.179E+06    -221.445E+06    -83.9486E+06     96.9181E+03    -224.522E-03     449.308E-03    -224.785E-03     14.2966E-03    -224.641E-03     448.486E-03    -224.721E-03     14.6844E-03
            1885     2.15652E-03     45.6026E-03    -118.589E+06    -240.058E+06    -101.134E+06     106.810E+03    -224.606E-03     449.381E-03    -224.775E-03     10.9363E-03    -224.705E-03     448.500E-03    -224.761E-03     11.2711E-03
            1886     1.43763E-03     45.5887E-03    -123.606E+06    -254.847E+06    -115.173E+06     95.0602E+03    -224.666E-03     449.437E-03    -224.771E-03     7.50720E-03    -224.747E-03     448.509E-03    -224.798E-03     7.75745E-03
            1887     718.768E-06     45.5802E-03    -127.036E+06    -265.089E+06    -124.541E+06     38.6493E+03    -224.816E-03     449.519E-03    -224.703E-03     4.04469E-03    -224.886E-03     448.558E-03    -224.758E-03     4.18167E-03
            1888     13.6702E-03     44.7927E-03    -5.42306E+06     87.7544E+06     103.492E+06     520.890E+03    -222.749E-03     446.950E-03    -224.200E-03     26.3427E-03    -223.189E-03     447.382E-03    -223.802E-03     22.2429E-03
            1889     12.9509E-03     44.7494E-03    -11.8661E+06     82.7058E+06     99.3628E+06    -351.868E+03    -222.871E-03     447.112E-03    -224.241E-03     33.5416E-03    -223.369E-03     447.573E-03    -223.847E-03     29.1141E-03
            1890     12.2310E-03     44.7026E-03    -18.7427E+06     74.8015E+06     87.6436E+06    -912.319E+03    -222.858E-03     447.114E-03    -224.256E-03     35.8390E-03    -223.343E-03     447.544E-03    -223.899E-03     31.9888E-03
            1891     11.5107E-03     44.6525E-03    -23.7437E+06     69.3570E+06     75.2146E+06     488.184E+03    -222.838E-03     447.112E-03    -224.273E-03     37.8040E-03    -223.308E-03     447.525E-03    -223.963E-03     34.4804E-03
            1892     10.7904E-03     44.6000E-03    -29.3850E+06     58.9636E+06     65.2408E+06     1.38245E+06    -222.899E-03     447.222E-03    -224.323E-03     38.3815E-03    -223.344E-03     447.583E-03    -224.040E-03     35.6416E-03
            1893     10.0701E-03     44.5464E-03    -36.4823E+06     36.9156E+06     57.2684E+06     542.744E+03    -223.039E-03     447.448E-03    -224.409E-03     37.9293E-03    -223.454E-03     447.698E-03    -224.123E-03     35.7348E-03
            1894     9.35000E-03     44.4938E-03    -43.5833E+06     1.91439E+06     46.7035E+06    -200.590E+03    -223.231E-03     447.734E-03    -224.503E-03     36.8274E-03    -223.593E-03     447.813E-03    -224.209E-03     35.1499E-03
            1895     8.63003E-03     44.4424E-03    -50.3071E+06    -34.0932E+06     34.7525E+06    -394.832E+03    -223.456E-03     448.047E-03    -224.591E-03     35.3155E-03    -223.764E-03     447.954E-03    -224.295E-03     34.1095E-03
            1896     7.91027E-03     44.3930E-03    -57.4584E+06    -63.9389E+06     22.9048E+06    -207.512E+03    -223.663E-03     448.331E-03    -224.668E-03     33.5446E-03    -223.931E-03     448.102E-03    -224.377E-03     32.7549E-03
            1897     7.19057E-03     44.3458E-03    -64.9674E+06    -90.9435E+06     10.7299E+06    -15.4740E+03    -223.826E-03     448.563E-03    -224.737E-03     31.4859E-03    -224.063E-03     448.215E-03    -224.457E-03     31.0499E-03
            1898     6.47097E-03     44.3016E-03    -72.5206E+06    -114.541E+06    -1.98990E+06    -11.8487E+03    -223.980E-03     448.777E-03    -224.797E-03     29.1496E-03    -224.193E-03     448.331E-03    -224.535E-03     29.0022E-03
            1899     5.75160E-03     44.2607E-03    -80.3533E+06    -136.806E+06    -15.9745E+06    -97.6221E+03    -224.136E-03     448.980E-03    -224.844E-03     26.5830E-03    -224.328E-03     448.448E-03    -224.609E-03     26.6587E-03
            1900     5.03230E-03     44.2232E-03    -88.5140E+06    -158.801E+06    -31.3307E+06    -114.434E+03    -224.273E-03     449.154E-03    -224.881E-03     23.8491E-03    -224.447E-03     448.541E-03    -224.679E-03     24.0865E-03
            1901     4.31309E-03     44.1899E-03    -96.7865E+06    -180.384E+06    -48.0339E+06    -3.90988E+03    -224.406E-03     449.311E-03    -224.905E-03     20.9097E-03    -224.563E-03     448.623E-03    -224.743E-03     21.2469E-03
            1902     3.59412E-03     44.1611E-03    -104.837E+06    -201.281E+06    -66.0549E+06    -13.9794E+03    -224.512E-03     449.429E-03    -224.917E-03     17.7902E-03    -224.651E-03     448.672E-03    -224.803E-03     18.1707E-03
            1903     2.87514E-03     44.1367E-03    -112.205E+06    -221.652E+06    -84.0510E+06    -23.6903E+03    -224.600E-03     449.525E-03    -224.925E-03     14.4860E-03    -224.719E-03     448.702E-03    -224.861E-03     14.8606E-03
            1904     2.15616E-03     44.1176E-03    -118.581E+06    -240.011E+06    -100.832E+06     122.057E+03    -224.714E-03     449.647E-03    -224.933E-03     11.0169E-03    -224.813E-03     448.765E-03    -224.917E-03     11.3409E-03
            1905     1.43730E-03     44.1036E-03    -123.672E+06    -254.624E+06    -115.093E+06     142.993E+03    -224.829E-03     449.764E-03    -224.936E-03     7.47543E-03    -224.911E-03     448.837E-03    -224.962E-03     7.71736E-03
            1906     718.589E-06     44.0948E-03    -127.046E+06    -265.060E+06    -124.675E+06     22.0359E+03    -225.059E-03     449.848E-03    -224.788E-03     4.14223E-03    -225.129E-03     448.887E-03    -224.843E-03     4.28409E-03
            1907     13.6725E-03     43.3097E-03    -5.54462E+06     87.4187E+06     103.770E+06     506.902E+03    -222.727E-03     446.915E-03    -224.189E-03     26.6870E-03    -223.168E-03     447.347E-03    -223.788E-03     22.5913E-03
            1908     12.9514E-03     43.2667E-03    -10.6337E+06     83.0988E+06     99.8488E+06     978.561E+03    -222.471E-03     446.711E-03    -224.240E-03     34.3358E-03    -222.965E-03     447.173E-03    -223.845E-03     29.9615E-03
            1909     12.2306E-03     43.2204E-03    -17.5869E+06     75.3513E+06     86.9695E+06     199.609E+03    -222.463E-03     446.736E-03    -224.273E-03     36.4366E-03    -222.943E-03     447.169E-03    -223.922E-03     32.6320E-03
            1910     11.5099E-03     43.1700E-03    -24.9940E+06     67.5964E+06     73.0965E+06    -920.488E+03    -222.653E-03     446.964E-03    -224.311E-03     38.1820E-03    -223.124E-03     447.374E-03    -224.007E-03     34.8466E-03
            1911     10.7897E-03     43.1169E-03    -30.5955E+06     57.6687E+06     64.5192E+06    -380.987E+03    -222.830E-03     447.208E-03    -224.378E-03     38.6814E-03    -223.279E-03     447.567E-03    -224.095E-03     35.9110E-03
            1912     10.0695E-03     43.0636E-03    -35.8095E+06     37.8463E+06     57.8331E+06     677.028E+03    -222.953E-03     447.428E-03    -224.475E-03     38.2333E-03    -223.368E-03     447.682E-03    -224.188E-03     36.0302E-03
            1913     9.34935E-03     43.0105E-03    -42.7525E+06     3.10362E+06     47.1456E+06     456.272E+03    -223.162E-03     447.741E-03    -224.579E-03     37.1335E-03    -223.524E-03     447.825E-03    -224.286E-03     35.4493E-03
            1914     8.62932E-03     42.9590E-03    -50.5349E+06    -34.1179E+06     34.5613E+06     25.7508E+03    -223.404E-03     448.083E-03    -224.679E-03     35.6330E-03    -223.714E-03     447.992E-03    -224.384E-03     34.4151E-03
            1915     7.90940E-03     42.9091E-03    -58.1243E+06    -64.1661E+06     22.5926E+06    -120.317E+03    -223.621E-03     448.390E-03    -224.769E-03     33.8729E-03    -223.893E-03     448.162E-03    -224.479E-03     33.0643E-03
            1916     7.18972E-03     42.8618E-03    -65.4779E+06    -90.9083E+06     10.4452E+06    -310.643E+03    -223.827E-03     448.678E-03    -224.851E-03     31.8056E-03    -224.067E-03     448.332E-03    -224.572E-03     31.3414E-03
            1917     6.47020E-03     42.8173E-03    -73.0730E+06    -114.548E+06    -2.30768E+06    -414.971E+03    -224.010E-03     448.931E-03    -224.922E-03     29.5136E-03    -224.225E-03     448.488E-03    -224.661E-03     29.3391E-03
            1918     5.75081E-03     42.7760E-03    -80.9454E+06    -137.103E+06    -16.2046E+06    -288.408E+03    -224.184E-03     449.166E-03    -224.982E-03     27.0178E-03    -224.379E-03     448.634E-03    -224.747E-03     27.0703E-03
            1919     5.03158E-03     42.7385E-03    -88.9565E+06    -159.063E+06    -31.5597E+06    -62.8078E+03    -224.340E-03     449.371E-03    -225.031E-03     24.2861E-03    -224.516E-03     448.758E-03    -224.829E-03     24.5045E-03
            1920     4.31244E-03     42.7049E-03    -97.0461E+06    -180.537E+06    -48.3838E+06    -45.8005E+03    -224.490E-03     449.557E-03    -225.067E-03     21.3187E-03    -224.647E-03     448.869E-03    -224.907E-03     21.6417E-03
            1921     3.59340E-03     42.6757E-03    -104.831E+06    -201.219E+06    -66.2437E+06    -90.2870E+03    -224.642E-03     449.733E-03    -225.091E-03     18.1391E-03    -224.780E-03     448.977E-03    -224.978E-03     18.5054E-03
            1922     2.87452E-03     42.6515E-03    -112.121E+06    -221.848E+06    -84.0763E+06    -61.0841E+03    -224.782E-03     449.888E-03    -225.106E-03     14.7842E-03    -224.900E-03     449.064E-03    -225.042E-03     15.1503E-03
            1923     2.15580E-03     42.6320E-03    -118.627E+06    -240.249E+06    -100.846E+06    -34.0037E+03    -224.926E-03     450.034E-03    -225.109E-03     11.2441E-03    -225.024E-03     449.152E-03    -225.093E-03     11.5635E-03
            1924     1.43726E-03     42.6179E-03    -123.529E+06    -254.495E+06    -114.950E+06    -19.5874E+03    -225.036E-03     450.131E-03    -225.095E-03     7.62893E-03    -225.118E-03     449.204E-03    -225.121E-03     7.86428E-03
            1925     718.703E-06     42.6091E-03    -126.832E+06    -264.921E+06    -124.538E+06     77.7603E+03    -225.049E-03     450.142E-03    -225.094E-03     4.20776E-03    -225.118E-03     449.182E-03    -225.148E-03     4.34211E-03
            1926     13.6700E-03     41.8271E-03    -5.54528E+06     86.2448E+06     102.667E+06    -163.482E+03    -222.257E-03     446.463E-03    -224.206E-03     27.2161E-03    -222.697E-03     446.891E-03    -223.809E-03     23.1226E-03
            1927     12.9501E-03     41.7845E-03    -11.4461E+06     81.7755E+06     98.9950E+06     356.752E+03    -222.354E-03     446.631E-03    -224.277E-03     34.6098E-03    -222.850E-03     447.089E-03    -223.884E-03     30.2221E-03
            1928     12.2298E-03     41.7382E-03    -16.6168E+06      76.948E+06     88.9178E+06     1.13198E+06    -222.467E-03     446.790E-03    -224.323E-03     36.5231E-03    -222.948E-03     447.227E-03    -223.966E-03     32.7172E-03
            1929     11.5095E-03     41.6872E-03    -22.8229E+06     69.6761E+06     74.8221E+06     752.753E+03    -222.574E-03     446.936E-03    -224.363E-03     38.2265E-03    -223.040E-03     447.352E-03    -224.057E-03     34.9010E-03
            1930     10.7891E-03     41.6343E-03    -30.5358E+06     56.7795E+06     63.6646E+06    -227.409E+03    -222.678E-03     447.114E-03    -224.437E-03     38.8205E-03    -223.126E-03     447.471E-03    -224.156E-03     36.0306E-03
            1931     10.0687E-03     41.5805E-03    -38.0156E+06     36.4336E+06     56.5368E+06    -268.235E+03    -222.850E-03     447.398E-03    -224.548E-03     38.5114E-03    -223.273E-03     447.651E-03    -224.263E-03     36.2751E-03
            1932     9.34846E-03     41.5273E-03    -44.3342E+06     3.67943E+06     46.9528E+06     286.137E+03    -223.090E-03     447.757E-03    -224.667E-03     37.4712E-03    -223.461E-03     447.848E-03    -224.373E-03     35.7619E-03
            1933     8.62842E-03     41.4753E-03    -50.7541E+06    -33.2429E+06     34.9598E+06     44.6958E+03    -223.341E-03     448.121E-03    -224.781E-03     35.9998E-03    -223.654E-03     448.035E-03    -224.484E-03     34.7559E-03
            1934     7.90855E-03     41.4253E-03    -57.5719E+06    -64.0925E+06     23.0875E+06    -314.260E+03    -223.568E-03     448.455E-03    -224.887E-03     34.2715E-03    -223.839E-03     448.227E-03    -224.595E-03     33.4335E-03
            1935     7.18881E-03     41.3774E-03    -64.9417E+06    -90.8425E+06     10.7878E+06    -364.933E+03    -223.785E-03     448.769E-03    -224.985E-03     32.2632E-03    -224.023E-03     448.424E-03    -224.705E-03     31.7743E-03
            1936     6.46925E-03     41.3327E-03    -72.7821E+06    -114.705E+06    -2.27625E+06    -395.714E+03    -223.990E-03     449.064E-03    -225.075E-03     30.0132E-03    -224.205E-03     448.620E-03    -224.814E-03     29.8168E-03
            1937     5.74978E-03     41.2911E-03    -80.8157E+06    -137.685E+06    -16.4262E+06    -300.753E+03    -224.195E-03     449.350E-03    -225.156E-03     27.5179E-03    -224.388E-03     448.816E-03    -224.921E-03     27.5536E-03
            1938     5.03053E-03     41.2532E-03    -88.9633E+06    -159.387E+06    -31.8619E+06    -230.376E+03    -224.410E-03     449.635E-03    -225.225E-03     24.7650E-03    -224.586E-03     449.021E-03    -225.024E-03     24.9663E-03
            1939     4.31151E-03     41.2194E-03    -97.0889E+06    -180.649E+06    -48.5568E+06    -211.760E+03    -224.614E-03     449.894E-03    -225.279E-03     21.7779E-03    -224.772E-03     449.206E-03    -225.119E-03     22.0879E-03
            1940     3.59261E-03     41.1900E-03    -105.135E+06    -201.563E+06    -66.3532E+06    -48.9844E+03    -224.814E-03     450.131E-03    -225.318E-03     18.5140E-03    -224.953E-03     449.374E-03    -225.205E-03     18.8742E-03
            1941     2.87391E-03     41.1654E-03    -112.538E+06    -221.831E+06    -84.5835E+06     128.131E+03    -224.999E-03     450.339E-03    -225.339E-03     15.0924E-03    -225.119E-03     449.516E-03    -225.277E-03     15.4552E-03
            1942     2.15533E-03     41.1458E-03    -118.826E+06    -240.159E+06    -101.579E+06    -27.9084E+03    -225.138E-03     450.486E-03    -225.349E-03     11.5801E-03    -225.236E-03     449.605E-03    -225.336E-03     11.8987E-03
            1943     1.43677E-03     41.1315E-03    -123.980E+06    -254.782E+06    -115.541E+06    -110.927E+03    -225.243E-03     450.599E-03    -225.356E-03     7.93252E-03    -225.326E-03     449.672E-03    -225.384E-03     8.16397E-03
            1944     718.296E-06     41.1229E-03    -127.222E+06    -264.847E+06    -124.932E+06     44.5463E+03    -225.278E-03     450.695E-03    -225.417E-03     4.35798E-03    -225.349E-03     449.736E-03    -225.473E-03     4.49105E-03
            1945     13.6712E-03     40.3452E-03    -5.51636E+06     86.2963E+06     102.661E+06    -165.584E+03    -222.128E-03     446.356E-03    -224.228E-03     26.6975E-03    -222.567E-03     446.784E-03    -223.832E-03     22.5877E-03
            1946     12.9500E-03     40.3020E-03    -11.4936E+06     81.8138E+06     99.2052E+06    -720.571E+03    -222.218E-03     446.526E-03    -224.308E-03     34.1214E-03    -222.715E-03     446.985E-03    -223.914E-03     29.6769E-03
            1947     12.2296E-03     40.2555E-03    -17.9943E+06     75.5196E+06     88.0660E+06     168.608E+03    -222.296E-03     446.659E-03    -224.364E-03     36.5096E-03    -222.782E-03     447.094E-03    -224.007E-03     32.6701E-03
            1948     11.5090E-03     40.2048E-03    -23.7291E+06     69.5085E+06     75.2145E+06     1.28099E+06    -222.402E-03     446.822E-03    -224.420E-03     38.5060E-03    -222.875E-03     447.239E-03    -224.110E-03     35.1715E-03
            1949     10.7884E-03     40.1518E-03    -29.4703E+06     58.6837E+06     65.4503E+06     1.55059E+06    -222.554E-03     447.063E-03    -224.509E-03     39.1506E-03    -223.004E-03     447.426E-03    -224.224E-03     36.3716E-03
            1950     10.0679E-03     40.0976E-03    -36.1303E+06     37.4111E+06     57.8340E+06     343.643E+03    -222.747E-03     447.378E-03    -224.632E-03     38.8135E-03    -223.165E-03     447.633E-03    -224.344E-03     36.5603E-03
            1951     9.34764E-03     40.0440E-03    -43.0905E+06     3.66779E+06     47.6109E+06    -805.983E+03    -222.964E-03     447.730E-03    -224.766E-03     37.8376E-03    -223.332E-03     447.820E-03    -224.471E-03     36.0821E-03
            1952     8.62746E-03     39.9917E-03    -49.8905E+06    -33.3505E+06     35.2337E+06    -635.970E+03    -223.223E-03     448.120E-03    -224.898E-03     36.4898E-03    -223.534E-03     448.034E-03    -224.601E-03     35.2083E-03
            1953     7.90748E-03     39.9412E-03    -57.1806E+06    -64.4808E+06     22.9668E+06    -193.633E+03    -223.467E-03     448.492E-03    -225.025E-03     34.8302E-03    -223.736E-03     448.263E-03    -224.734E-03     33.9664E-03
            1954     7.18764E-03     39.8932E-03    -64.8778E+06    -90.9520E+06     10.5482E+06    -54.6266E+03    -223.701E-03     448.848E-03    -225.147E-03     32.8732E-03    -223.940E-03     448.503E-03    -224.869E-03     32.3694E-03
            1955     6.46796E-03     39.8479E-03    -72.6299E+06    -114.828E+06    -2.49852E+06     7.09413E+03    -223.965E-03     449.228E-03    -225.263E-03     30.6122E-03    -224.180E-03     448.784E-03    -225.004E-03     30.4045E-03
            1956     5.74860E-03     39.8060E-03    -80.7706E+06    -137.851E+06    -16.7466E+06    -31.4931E+03    -224.231E-03     449.599E-03    -225.369E-03     28.0931E-03    -224.424E-03     449.065E-03    -225.135E-03     28.1188E-03
            1957     5.02938E-03     39.7676E-03    -89.1518E+06    -159.589E+06    -32.2038E+06    -66.0632E+03    -224.496E-03     449.957E-03    -225.461E-03     25.3107E-03    -224.672E-03     449.344E-03    -225.262E-03     25.5070E-03
            1958     4.31034E-03     39.7334E-03    -97.4568E+06    -180.869E+06    -49.0460E+06     57.5329E+03    -224.773E-03     450.309E-03    -225.536E-03     22.2428E-03    -224.932E-03     449.622E-03    -225.378E-03     22.5490E-03
            1959     3.59161E-03     39.7035E-03    -105.465E+06    -201.919E+06    -67.0766E+06     121.813E+03    -225.022E-03     450.612E-03    -225.590E-03     18.9497E-03    -225.161E-03     449.855E-03    -225.480E-03     19.3093E-03
            1960     2.87303E-03     39.6787E-03    -112.790E+06    -221.890E+06    -85.0836E+06     86.7041E+03    -225.235E-03     450.861E-03    -225.626E-03     15.4537E-03    -225.355E-03     450.040E-03    -225.566E-03     15.8111E-03
            1961     2.15457E-03     39.6589E-03    -119.196E+06    -239.933E+06    -101.894E+06     160.474E+03    -225.401E-03     451.051E-03    -225.650E-03     11.7775E-03    -225.501E-03     450.172E-03    -225.639E-03     12.0886E-03
            1962     1.43627E-03     39.6445E-03    -124.320E+06    -254.826E+06    -115.976E+06     119.769E+03    -225.539E-03     451.207E-03    -225.668E-03     7.98914E-03    -225.623E-03     450.282E-03    -225.698E-03     8.21896E-03
            1963     718.119E-06     39.6355E-03    -127.603E+06    -264.843E+06    -125.484E+06    -5.77871E+03    -225.635E-03     451.329E-03    -225.694E-03     4.31456E-03    -225.707E-03     450.371E-03    -225.752E-03     4.44418E-03
            1964     13.6700E-03     38.8626E-03    -5.56720E+06     86.5870E+06     103.215E+06     167.976E+03    -221.932E-03     446.162E-03    -224.230E-03     26.5571E-03    -222.373E-03     446.591E-03    -223.832E-03     22.4482E-03
            1965     12.9500E-03     38.8204E-03    -11.4624E+06     81.5337E+06     99.2144E+06     385.391E+03    -221.832E-03     446.157E-03    -224.325E-03     34.2386E-03    -222.329E-03     446.616E-03    -223.931E-03     29.8132E-03
            1966     12.2288E-03     38.7735E-03    -18.1842E+06     74.4723E+06     87.6558E+06     24.3794E+03    -221.959E-03     446.361E-03    -224.402E-03     36.7524E-03    -222.444E-03     446.792E-03    -224.046E-03     32.9251E-03
            1967     11.5081E-03     38.7226E-03    -24.0335E+06     68.5473E+06     75.5024E+06    -58.8950E+03    -222.217E-03     446.698E-03    -224.481E-03     38.6522E-03    -222.691E-03     447.111E-03    -224.168E-03     35.2795E-03
            1968     10.7875E-03     38.6690E-03    -29.1939E+06     59.2057E+06     66.6360E+06    -303.216E+03    -222.398E-03     446.985E-03    -224.587E-03     39.3806E-03    -222.851E-03     447.351E-03    -224.297E-03     36.5444E-03
            1969     10.0671E-03     38.6146E-03    -34.5546E+06     38.6919E+06     58.8851E+06    -188.351E+03    -222.530E-03     447.256E-03    -224.725E-03     39.2297E-03    -222.946E-03     447.515E-03    -224.437E-03     36.9341E-03
            1970     9.34655E-03     38.5609E-03    -41.2908E+06     3.57045E+06     47.8307E+06     320.371E+03    -222.742E-03     447.624E-03    -224.882E-03     38.4494E-03    -223.102E-03     447.712E-03    -224.589E-03     36.6810E-03
            1971     8.62625E-03     38.5081E-03    -49.4876E+06    -34.1562E+06     34.6975E+06     599.558E+03    -223.026E-03     448.068E-03    -225.043E-03     37.2255E-03    -223.334E-03     447.980E-03    -224.748E-03     35.9396E-03
            1972     7.90609E-03     38.4573E-03    -57.6316E+06    -64.4877E+06     22.3260E+06     513.300E+03    -223.335E-03     448.535E-03    -225.200E-03     35.6132E-03    -223.607E-03     448.308E-03    -224.911E-03     34.7436E-03
            1973     7.18618E-03     38.4087E-03    -65.3960E+06    -90.9239E+06     9.91033E+06     398.546E+03    -223.670E-03     449.020E-03    -225.350E-03     33.6393E-03    -223.911E-03     448.678E-03    -225.074E-03     33.1298E-03
            1974     6.46654E-03     38.3629E-03    -73.3760E+06    -114.894E+06    -3.14501E+06     351.942E+03    -224.000E-03     449.491E-03    -225.490E-03     31.3115E-03    -224.218E-03     449.049E-03    -225.233E-03     31.0976E-03
            1975     5.74705E-03     38.3203E-03    -81.4953E+06    -137.827E+06    -17.3343E+06     419.883E+03    -224.341E-03     449.959E-03    -225.617E-03     28.6734E-03    -224.538E-03     449.427E-03    -225.386E-03     28.6913E-03
            1976     5.02791E-03     38.2815E-03    -89.5900E+06    -159.518E+06    -32.8216E+06     446.621E+03    -224.674E-03     450.399E-03    -225.725E-03     25.7646E-03    -224.851E-03     449.787E-03    -225.528E-03     25.9551E-03
            1977     4.30910E-03     38.2465E-03    -97.6988E+06    -180.884E+06    -49.6611E+06     273.366E+03    -224.969E-03     450.784E-03    -225.815E-03     22.5836E-03    -225.128E-03     450.098E-03    -225.659E-03     22.8789E-03
            1978     3.59045E-03     38.2164E-03    -105.559E+06    -201.831E+06    -67.3801E+06     120.705E+03    -225.246E-03     451.131E-03    -225.885E-03     19.2014E-03    -225.386E-03     450.375E-03    -225.776E-03     19.5450E-03
            1979     2.87205E-03     38.1910E-03    -113.090E+06    -222.016E+06    -85.4103E+06     112.803E+03    -225.501E-03     451.436E-03    -225.935E-03     15.6331E-03    -225.622E-03     450.615E-03    -225.876E-03     15.9747E-03
            1980     2.15394E-03     38.1710E-03    -119.680E+06    -240.029E+06    -102.305E+06     190.213E+03    -225.716E-03     451.681E-03    -225.964E-03     11.9260E-03    -225.819E-03     450.803E-03    -225.954E-03     12.2249E-03
            1981     1.43592E-03     38.1564E-03    -124.497E+06    -254.435E+06    -116.118E+06     201.502E+03    -225.875E-03     451.850E-03    -225.975E-03     8.15100E-03    -225.960E-03     450.927E-03    -226.007E-03     8.37888E-03
            1982     717.965E-06     38.1473E-03    -127.648E+06    -264.540E+06    -125.335E+06     27.9050E+03    -225.993E-03     451.931E-03    -225.938E-03     4.41776E-03    -226.066E-03     450.975E-03    -225.996E-03     4.54149E-03
            1983     13.6714E-03     37.3814E-03    -5.45179E+06     86.3977E+06     102.908E+06    -34.6074E+03    -221.498E-03     445.733E-03    -224.235E-03     26.8156E-03    -221.938E-03     446.162E-03    -223.838E-03     22.7147E-03
            1984     12.9494E-03     37.3391E-03    -11.1416E+06     81.2717E+06     99.2936E+06     918.621E+03    -221.654E-03     446.004E-03    -224.349E-03     34.4633E-03    -222.150E-03     446.460E-03    -223.954E-03     30.0567E-03
            1985     12.2285E-03     37.2919E-03    -16.4368E+06     75.5560E+06     89.4454E+06    -141.429E+03    -221.840E-03     446.281E-03    -224.441E-03     36.7473E-03    -222.322E-03     446.714E-03    -224.080E-03     32.8869E-03
            1986     11.5077E-03     37.2404E-03    -22.4514E+06     69.2653E+06     76.8179E+06    -1.08967E+06    -221.893E-03     446.428E-03    -224.535E-03     38.7559E-03    -222.364E-03     446.843E-03    -224.219E-03     35.3348E-03
            1987     10.7869E-03     37.1866E-03    -29.1385E+06     58.1613E+06     65.7046E+06    -968.559E+03    -221.946E-03     446.610E-03    -224.664E-03     39.7976E-03    -222.398E-03     446.975E-03    -224.378E-03     36.9168E-03
            1988     10.0659E-03     37.1322E-03    -36.7048E+06     36.4558E+06     56.4984E+06     280.745E+03    -222.101E-03     446.940E-03    -224.839E-03     39.9550E-03    -222.523E-03     447.197E-03    -224.556E-03     37.6499E-03
            1989     9.34513E-03     37.0779E-03    -44.6569E+06     2.55307E+06     45.7129E+06     1.45132E+06    -222.434E-03     447.470E-03    -225.036E-03     39.3539E-03    -222.808E-03     447.563E-03    -224.747E-03     37.5949E-03
            1990     8.62456E-03     37.0247E-03    -51.6905E+06    -33.3137E+06     33.7119E+06     1.43119E+06    -222.857E-03     448.089E-03    -225.232E-03     38.1413E-03    -223.178E-03     448.010E-03    -224.940E-03     36.8591E-03
            1991     7.90426E-03     36.9732E-03    -58.6846E+06    -63.8885E+06     21.7665E+06     938.530E+03    -223.303E-03     448.721E-03    -225.418E-03     36.4478E-03    -223.581E-03     448.501E-03    -225.131E-03     35.5755E-03
            1992     7.18432E-03     36.9238E-03    -66.2200E+06    -90.5883E+06     9.39424E+06     709.789E+03    -223.750E-03     449.339E-03    -225.589E-03     34.3323E-03    -223.996E-03     449.001E-03    -225.315E-03     33.8085E-03
            1993     6.46471E-03     36.8773E-03    -73.9237E+06    -114.853E+06    -3.69239E+06     599.511E+03    -224.175E-03     449.918E-03    -225.743E-03     31.8555E-03    -224.395E-03     449.479E-03    -225.488E-03     31.6185E-03
            1994     5.74551E-03     36.8341E-03    -81.7721E+06    -137.725E+06    -17.8102E+06     496.771E+03    -224.572E-03     450.449E-03    -225.877E-03     29.0857E-03    -224.770E-03     449.920E-03    -225.648E-03     29.0748E-03
            1995     5.02663E-03     36.7944E-03    -89.8565E+06    -159.267E+06    -33.0927E+06     350.157E+03    -224.909E-03     450.900E-03    -225.992E-03     26.0669E-03    -225.088E-03     450.291E-03    -225.796E-03     26.2197E-03
            1996     4.30790E-03     36.7592E-03    -97.9473E+06    -180.582E+06    -49.6132E+06     290.873E+03    -225.210E-03     451.298E-03    -226.088E-03     22.8407E-03    -225.371E-03     450.614E-03    -225.932E-03     23.1028E-03
            1997     3.58949E-03     36.7283E-03    -105.898E+06    -201.765E+06    -67.3184E+06     332.638E+03    -225.502E-03     451.665E-03    -226.164E-03     19.3950E-03    -225.643E-03     450.910E-03    -226.054E-03     19.7111E-03
            1998     2.87130E-03     36.7027E-03    -113.219E+06    -221.970E+06    -85.3144E+06     319.472E+03    -225.754E-03     451.974E-03    -226.220E-03     15.7676E-03    -225.875E-03     451.153E-03    -226.160E-03     16.0852E-03
            1999     2.15319E-03     36.6822E-03    -119.468E+06    -239.718E+06    -102.164E+06     145.115E+03    -225.976E-03     452.235E-03    -226.259E-03     12.0396E-03    -226.078E-03     451.358E-03    -226.249E-03     12.3195E-03
            2000     1.43535E-03     36.6673E-03    -124.504E+06    -254.258E+06    -116.096E+06    -20.5571E+03    -226.146E-03     452.432E-03    -226.286E-03     8.22444E-03    -226.232E-03     451.510E-03    -226.317E-03     8.43090E-03
            2001     717.620E-06     36.6581E-03    -127.672E+06    -264.469E+06    -125.492E+06     28.2458E+03    -226.311E-03     452.571E-03    -226.261E-03     4.51713E-03    -226.383E-03     451.616E-03    -226.320E-03     4.63590E-03
            2002     13.6693E-03     35.9011E-03    -5.17273E+06     86.5651E+06     103.326E+06    -302.644E+03    -221.372E-03     445.613E-03    -224.241E-03     26.5556E-03    -221.811E-03     446.041E-03    -223.842E-03     22.4349E-03
            2003     12.9491E-03     35.8571E-03    -11.2756E+06     81.2162E+06     99.4282E+06    -1.51618E+06    -221.420E-03     445.785E-03    -224.365E-03     34.2426E-03    -221.917E-03     446.242E-03    -223.969E-03     29.7724E-03
            2004     12.2284E-03     35.8103E-03    -16.3895E+06     75.6260E+06     89.0501E+06    -1.23260E+06    -221.284E-03     445.762E-03    -224.478E-03     37.0979E-03    -221.768E-03     446.198E-03    -224.119E-03     33.1837E-03
            2005     11.5071E-03     35.7590E-03    -23.2379E+06     68.1332E+06     74.6873E+06     185.133E+03    -221.222E-03     445.830E-03    -224.608E-03     39.8295E-03    -221.695E-03     446.246E-03    -224.300E-03     36.4419E-03
            2006     10.7856E-03     35.7052E-03    -31.1586E+06     55.9944E+06     63.0482E+06     1.82900E+06    -221.413E-03     446.199E-03    -224.786E-03     41.0722E-03    -221.870E-03     446.561E-03    -224.507E-03     38.2643E-03
            2007     10.0642E-03     35.6503E-03    -38.8911E+06     36.0107E+06     55.0997E+06     2.23257E+06    -221.808E-03     446.813E-03    -225.005E-03     41.1297E-03    -222.240E-03     447.075E-03    -224.726E-03     38.8781E-03
            2008     9.34309E-03     35.5952E-03    -45.6929E+06     3.44408E+06     45.3625E+06     1.02856E+06    -222.337E-03     447.571E-03    -225.234E-03     40.2851E-03    -222.720E-03     447.672E-03    -224.946E-03     38.5205E-03
            2009     8.62244E-03     35.5411E-03    -52.2315E+06    -32.9534E+06     33.4134E+06     466.766E+03    -222.903E-03     448.353E-03    -225.450E-03     38.7971E-03    -223.229E-03     448.280E-03    -225.160E-03     37.4767E-03
            2010     7.90229E-03     35.4886E-03    -59.0558E+06    -63.5034E+06     21.4914E+06     680.017E+03    -223.429E-03     449.078E-03    -225.649E-03     36.9188E-03    -223.711E-03     448.862E-03    -225.364E-03     36.0023E-03
            2011     7.18251E-03     35.4384E-03    -66.2891E+06    -90.4236E+06     9.21455E+06     666.055E+03    -223.923E-03     449.753E-03    -225.830E-03     34.7122E-03    -224.171E-03     449.418E-03    -225.556E-03     34.1370E-03
            2012     6.46314E-03     35.3910E-03    -73.9441E+06    -114.570E+06    -3.69373E+06     566.599E+03    -224.389E-03     450.379E-03    -225.990E-03     32.2251E-03    -224.611E-03     449.943E-03    -225.736E-03     31.9325E-03
            2013     5.74411E-03     35.3469E-03    -81.8898E+06    -137.266E+06    -17.6249E+06     401.535E+03    -224.795E-03     450.925E-03    -226.130E-03     29.4813E-03    -224.995E-03     450.398E-03    -225.900E-03     29.4124E-03
            2014     5.02529E-03     35.3068E-03     -90.086E+06    -159.011E+06    -32.8601E+06     258.567E+03    -225.147E-03     451.395E-03    -226.249E-03     26.4531E-03    -225.329E-03     450.788E-03    -226.052E-03     26.5503E-03
            2015     4.30683E-03     35.2709E-03     -98.202E+06    -180.557E+06    -49.4062E+06     225.290E+03    -225.462E-03     451.809E-03    -226.347E-03     23.1887E-03    -225.625E-03     451.126E-03    -226.190E-03     23.4032E-03
            2016     3.58857E-03     35.2396E-03    -105.992E+06    -201.718E+06    -67.0655E+06     193.114E+03    -225.744E-03     452.170E-03    -226.427E-03     19.7214E-03    -225.887E-03     451.416E-03    -226.316E-03     19.9991E-03
            2017     2.87053E-03     35.2135E-03    -113.164E+06    -221.777E+06    -84.9395E+06     126.136E+03    -226.017E-03     452.503E-03    -226.486E-03     16.0509E-03    -226.139E-03     451.682E-03    -226.425E-03     16.3379E-03
            2018     2.15277E-03     35.1927E-03    -119.319E+06    -239.296E+06    -101.829E+06     111.592E+03    -226.246E-03     452.770E-03    -226.524E-03     12.2156E-03    -226.348E-03     451.895E-03    -226.513E-03     12.4713E-03
            2019     1.43507E-03     35.1775E-03    -124.416E+06    -254.229E+06    -116.016E+06     11.9652E+03    -226.412E-03     452.962E-03    -226.549E-03     8.27012E-03    -226.498E-03     452.039E-03    -226.580E-03     8.45773E-03
            2020     717.476E-06     35.1682E-03    -127.683E+06    -264.505E+06    -125.462E+06     1.67494E+03    -226.514E-03     453.096E-03    -226.582E-03     4.53797E-03    -226.586E-03     452.140E-03    -226.641E-03     4.65059E-03
            2021     13.6717E-03     34.4194E-03    -3.68051E+06     88.2085E+06     105.934E+06    -678.120E+03    -221.040E-03     445.295E-03    -224.256E-03     26.7278E-03    -221.480E-03     445.728E-03    -223.848E-03     22.5589E-03
            2022     12.9498E-03     34.3767E-03    -10.2608E+06     81.8102E+06     99.5730E+06    -1.04796E+06    -220.383E-03     444.792E-03    -224.409E-03     35.4115E-03    -220.879E-03     445.254E-03    -224.015E-03     30.9845E-03
            2023     12.2273E-03     34.3303E-03    -19.0116E+06     72.5479E+06     84.5985E+06     166.910E+03    -220.379E-03     444.952E-03    -224.572E-03     38.9331E-03    -220.867E-03     445.384E-03    -224.227E-03     35.1414E-03
            2024     11.5049E-03     34.2788E-03    -26.7853E+06     65.2426E+06     71.4344E+06     2.04524E+06    -220.849E-03     445.607E-03    -224.759E-03     41.3177E-03    -221.332E-03     446.020E-03    -224.457E-03     38.0213E-03
            2025     10.7831E-03     34.2241E-03    -32.7529E+06     55.7468E+06     62.9169E+06     2.28620E+06    -221.382E-03     446.353E-03    -224.971E-03     41.9815E-03    -221.848E-03     446.718E-03    -224.689E-03     39.2020E-03
            2026     10.0618E-03     34.1681E-03    -37.9001E+06     38.1220E+06     56.3784E+06     1.11742E+06    -221.926E-03     447.127E-03    -225.201E-03     41.5908E-03    -222.360E-03     447.399E-03    -224.919E-03     39.2927E-03
            2027     9.34104E-03     34.1119E-03    -43.9171E+06     4.65131E+06     46.3374E+06     628.880E+03    -222.492E-03     447.926E-03    -225.434E-03     40.5636E-03    -222.872E-03     448.032E-03    -225.145E-03     38.7317E-03
            2028     8.62072E-03     34.0569E-03    -51.2078E+06    -33.3552E+06     33.6241E+06     684.206E+03    -223.062E-03     448.716E-03    -225.654E-03     39.0652E-03    -223.386E-03     448.642E-03    -225.363E-03     37.6717E-03
            2029     7.90068E-03     34.0035E-03    -58.7343E+06    -63.4525E+06     21.7091E+06     654.816E+03    -223.575E-03     449.433E-03    -225.858E-03     37.2366E-03    -223.858E-03     449.220E-03    -225.572E-03     36.2403E-03
            2030     7.18102E-03     33.9524E-03    -66.3138E+06    -90.1560E+06     9.59145E+06     546.330E+03    -224.050E-03     450.098E-03    -226.048E-03     35.1212E-03    -224.301E-03     449.766E-03    -225.773E-03     34.4681E-03
            2031     6.46169E-03     33.9041E-03    -74.1476E+06    -114.268E+06    -3.20162E+06     375.510E+03    -224.495E-03     450.716E-03    -226.222E-03     32.7159E-03    -224.721E-03     450.283E-03    -225.964E-03     32.3494E-03
            2032     5.74267E-03     33.8593E-03    -82.0327E+06    -136.959E+06    -17.0712E+06     246.233E+03    -224.920E-03     451.296E-03    -226.377E-03     30.0051E-03    -225.124E-03     450.772E-03    -226.145E-03     29.8692E-03
            2033     5.02406E-03     33.8184E-03    -89.8909E+06    -158.745E+06    -32.3325E+06     122.122E+03    -225.325E-03     451.834E-03    -226.509E-03     27.0163E-03    -225.508E-03     451.229E-03    -226.310E-03     27.0580E-03
            2034     4.30573E-03     33.7819E-03    -97.8797E+06    -180.425E+06    -48.9949E+06    -16.5787E+03    -225.690E-03     452.308E-03    -226.618E-03     23.7502E-03    -225.853E-03     451.625E-03    -226.460E-03     23.9155E-03
            2035     3.58762E-03     33.7502E-03    -105.566E+06    -201.576E+06    -66.6335E+06    -174.347E+03    -226.004E-03     452.708E-03    -226.704E-03     20.2203E-03    -226.147E-03     451.954E-03    -226.592E-03     20.4548E-03
            2036     2.86976E-03     33.7234E-03    -112.878E+06    -221.781E+06    -84.6938E+06    -261.244E+03    -226.281E-03     453.049E-03    -226.768E-03     16.4861E-03    -226.402E-03     452.228E-03    -226.706E-03     16.7422E-03
            2037     2.15211E-03     33.7023E-03    -119.552E+06    -239.645E+06    -101.787E+06    -139.649E+03    -226.515E-03     453.328E-03    -226.813E-03     12.6064E-03    -226.618E-03     452.451E-03    -226.801E-03     12.8410E-03
            2038     1.43468E-03     33.6869E-03    -124.470E+06    -254.163E+06    -115.841E+06     97.8394E+03    -226.702E-03     453.544E-03    -226.843E-03     8.63602E-03    -226.788E-03     452.622E-03    -226.873E-03     8.81801E-03
            2039     717.378E-06     33.6773E-03    -127.353E+06    -264.383E+06    -125.309E+06    -47.7048E+03    -226.789E-03     453.687E-03    -226.898E-03     4.76389E-03    -226.861E-03     452.731E-03    -226.956E-03     4.87017E-03
            2040     13.6695E-03     32.9394E-03    -2.68493E+06     87.5343E+06     105.005E+06    -994.865E+03    -219.511E-03     443.849E-03    -224.338E-03     28.6267E-03    -219.946E-03     444.281E-03    -223.936E-03     24.5559E-03
            2041     12.9467E-03     32.8991E-03    -13.4046E+06     78.5038E+06     95.9005E+06     2.29877E+06    -219.938E-03     444.486E-03    -224.549E-03     37.3387E-03    -220.440E-03     444.942E-03    -224.164E-03     33.0821E-03
            2042     12.2239E-03     32.8508E-03    -20.6609E+06     71.6274E+06     84.5378E+06     3.55317E+06    -220.585E-03     445.327E-03    -224.741E-03     39.4169E-03    -221.080E-03     445.757E-03    -224.393E-03     35.6975E-03
            2043     11.5024E-03     32.7980E-03    -26.3650E+06     66.5289E+06     73.9487E+06     1.60011E+06    -221.145E-03     446.073E-03    -224.928E-03     40.9012E-03    -221.634E-03     446.491E-03    -224.617E-03     37.5266E-03
            2044     10.7813E-03     32.7421E-03    -31.3554E+06     57.4696E+06     64.9127E+06    -244.487E+03    -221.617E-03     446.745E-03    -225.127E-03     41.4804E-03    -222.086E-03     447.118E-03    -224.841E-03     38.5492E-03
            2045     10.0605E-03     32.6851E-03    -37.4310E+06     37.8711E+06     56.5861E+06     34.2333E+03    -222.012E-03     447.364E-03    -225.351E-03     41.3549E-03    -222.449E-03     447.638E-03    -225.069E-03     38.9254E-03
            2046     9.33973E-03     32.6283E-03    -44.7598E+06     3.86932E+06     46.1157E+06     999.263E+03    -222.488E-03     448.080E-03    -225.592E-03     40.7047E-03    -222.875E-03     448.188E-03    -225.302E-03     38.7760E-03
            2047     8.61928E-03     32.5721E-03    -51.9971E+06    -32.6909E+06     34.2324E+06     1.01992E+06    -223.031E-03     448.860E-03    -225.829E-03     39.5108E-03    -223.364E-03     448.793E-03    -225.535E-03     38.0327E-03
            2048     7.89928E-03     32.5180E-03    -59.1535E+06    -62.8383E+06     22.5766E+06     522.821E+03    -223.559E-03     449.612E-03    -226.053E-03     37.8936E-03    -223.850E-03     449.404E-03    -225.763E-03     36.8139E-03
            2049     7.17960E-03     32.4659E-03    -66.4497E+06    -89.7379E+06     10.4956E+06     146.071E+03    -224.053E-03     450.317E-03    -226.264E-03     35.9124E-03    -224.310E-03     449.989E-03    -225.985E-03     35.1801E-03
            2050     6.46027E-03     32.4169E-03    -73.7979E+06    -113.944E+06    -2.40283E+06    -95.5900E+03    -224.528E-03     450.988E-03    -226.460E-03     33.5544E-03    -224.756E-03     450.556E-03    -226.200E-03     33.1171E-03
            2051     5.74131E-03     32.3711E-03    -81.4124E+06    -136.779E+06    -16.4510E+06    -361.163E+03    -224.992E-03     451.631E-03    -226.639E-03     30.8523E-03    -225.196E-03     451.108E-03    -226.405E-03     30.6545E-03
            2052     5.02264E-03     32.3295E-03    -89.3348E+06    -158.695E+06    -31.8512E+06    -451.267E+03    -225.447E-03     452.244E-03    -226.797E-03     27.8405E-03    -225.629E-03     451.638E-03    -226.597E-03     27.8295E-03
            2053     4.30433E-03     32.2922E-03    -97.3845E+06    -180.437E+06    -48.7022E+06    -411.076E+03    -225.893E-03     452.822E-03    -226.929E-03     24.5172E-03    -226.055E-03     452.139E-03    -226.769E-03     24.6368E-03
            2054     3.58647E-03     32.2598E-03    -105.307E+06    -201.730E+06    -66.5002E+06    -329.072E+03    -226.282E-03     453.312E-03    -227.030E-03     20.9077E-03    -226.423E-03     452.556E-03    -226.918E-03     21.1022E-03
            2055     2.86885E-03     32.2327E-03    -112.582E+06    -222.110E+06    -84.3823E+06    -195.329E+03    -226.582E-03     453.689E-03    -227.107E-03     17.0729E-03    -226.702E-03     452.866E-03    -227.044E-03     17.2980E-03
            2056     2.15137E-03     32.2111E-03    -118.925E+06    -240.076E+06    -101.350E+06    -178.754E+03    -226.834E-03     453.999E-03    -227.164E-03     13.0231E-03    -226.934E-03     453.118E-03    -227.151E-03     13.2339E-03
            2057     1.43405E-03     32.1953E-03    -124.015E+06    -254.339E+06    -115.426E+06    -176.089E+03    -227.047E-03     454.252E-03    -227.205E-03     8.86604E-03    -227.131E-03     453.328E-03    -227.233E-03     9.02815E-03
            2058     716.878E-06     32.1855E-03    -127.342E+06    -264.531E+06    -124.942E+06     57.6084E+03    -227.223E-03     454.419E-03    -227.196E-03     4.79738E-03    -227.295E-03     453.462E-03    -227.252E-03     4.88963E-03
            2059     13.6662E-03     31.4637E-03    -4.32236E+06     85.4820E+06     102.309E+06     2.79656E+06    -219.434E-03     443.864E-03    -224.430E-03     27.5805E-03    -219.865E-03     444.287E-03    -224.037E-03     23.6024E-03
            2060     12.9437E-03     31.4178E-03    -13.7923E+06     78.3661E+06     96.8775E+06     2.00845E+06    -220.415E-03     445.061E-03    -224.647E-03     34.6171E-03    -220.919E-03     445.514E-03    -224.256E-03     30.2039E-03
            2061     12.2236E-03     31.3699E-03    -19.7273E+06     73.5407E+06     88.4535E+06     456.619E+03    -220.867E-03     445.695E-03    -224.828E-03     37.3065E-03    -221.370E-03     446.133E-03    -224.464E-03     33.3233E-03
            2062     11.5023E-03     31.3162E-03    -23.9384E+06     69.5695E+06     77.2306E+06    -241.247E+03    -221.053E-03     446.057E-03    -225.004E-03     40.0298E-03    -221.544E-03     446.486E-03    -224.684E-03     36.4756E-03
            2063     10.7810E-03     31.2598E-03    -31.0449E+06     57.1947E+06     65.1358E+06     324.904E+03    -221.302E-03     446.515E-03    -225.213E-03     41.4911E-03    -221.774E-03     446.891E-03    -224.925E-03     38.4617E-03
            2064     10.0595E-03     31.2025E-03    -39.0289E+06     36.7165E+06     56.6239E+06     916.855E+03    -221.716E-03     447.183E-03    -225.468E-03     41.9848E-03    -222.163E-03     447.458E-03    -225.181E-03     39.4950E-03
            2065     9.33856E-03     31.1446E-03    -45.8028E+06     4.39823E+06     47.0699E+06     328.381E+03    -222.252E-03     447.992E-03    -225.740E-03     41.6106E-03    -222.650E-03     448.107E-03    -225.445E-03     39.6059E-03
            2066     8.61796E-03     31.0876E-03    -51.9044E+06    -31.8680E+06     35.4118E+06    -365.263E+03    -222.819E-03     448.827E-03    -226.008E-03     40.5692E-03    -223.158E-03     448.767E-03    -225.710E-03     39.0140E-03
            2067     7.89768E-03     31.0322E-03    -58.2207E+06    -62.4628E+06     23.6689E+06    -676.875E+03    -223.396E-03     449.663E-03    -226.267E-03     39.0473E-03    -223.688E-03     449.457E-03    -225.973E-03     37.8928E-03
            2068     7.17786E-03     30.9793E-03    -65.0645E+06    -89.6608E+06     11.4163E+06    -747.961E+03    -223.984E-03     450.497E-03    -226.513E-03     37.1273E-03    -224.238E-03     450.168E-03    -226.231E-03     36.3273E-03
            2069     6.45847E-03     30.9292E-03    -72.5405E+06    -113.920E+06    -1.69037E+06    -745.059E+03    -224.565E-03     451.306E-03    -226.741E-03     34.7683E-03    -224.790E-03     450.873E-03    -226.479E-03     34.2698E-03
            2070     5.73949E-03     30.8826E-03    -80.4231E+06    -136.982E+06    -15.9448E+06    -620.955E+03    -225.122E-03     452.070E-03    -226.948E-03     31.9594E-03    -225.322E-03     451.545E-03    -226.713E-03     31.7070E-03
            2071     5.02094E-03     30.8399E-03    -88.4946E+06    -159.005E+06    -31.4480E+06    -492.935E+03    -225.644E-03     452.774E-03    -227.131E-03     28.7795E-03    -225.823E-03     452.166E-03    -226.929E-03     28.7183E-03
            2072     4.30284E-03     30.8017E-03    -96.6736E+06    -180.877E+06    -48.3213E+06    -392.193E+03    -226.112E-03     453.398E-03    -227.287E-03     25.3059E-03    -226.270E-03     452.712E-03    -227.126E-03     25.3783E-03
            2073     3.58501E-03     30.7685E-03    -104.585E+06    -202.011E+06    -66.1347E+06    -306.011E+03    -226.549E-03     453.963E-03    -227.414E-03     21.5924E-03    -226.687E-03     453.205E-03    -227.300E-03     21.7456E-03
            2074     2.86757E-03     30.7408E-03    -112.049E+06    -222.457E+06    -84.1449E+06    -303.142E+03    -226.947E-03     454.457E-03    -227.510E-03     17.6284E-03    -227.065E-03     453.631E-03    -227.445E-03     17.8113E-03
            2075     2.15048E-03     30.7187E-03    -118.483E+06    -240.435E+06    -101.072E+06    -192.205E+03    -227.246E-03     454.819E-03    -227.573E-03     13.4735E-03    -227.344E-03     453.936E-03    -227.558E-03     13.6530E-03
            2076     1.43361E-03     30.7026E-03    -123.336E+06    -254.711E+06    -115.066E+06    -66.8429E+03    -227.466E-03     455.078E-03    -227.612E-03     9.21197E-03    -227.546E-03     454.150E-03    -227.640E-03     9.35826E-03
            2077     716.911E-06     30.6925E-03    -126.758E+06    -264.745E+06    -124.465E+06    -2.51802E+03    -227.636E-03     455.233E-03    -227.598E-03     5.05582E-03    -227.705E-03     454.274E-03    -227.652E-03     5.13901E-03
            2078     13.6687E-03     29.9825E-03    -9.40169E+06     82.9309E+06     99.9748E+06     2.42024E+06    -220.568E-03     444.990E-03    -224.422E-03     26.2582E-03    -221.017E-03     445.410E-03    -224.029E-03     22.2347E-03
            2079     12.9480E-03     29.9385E-03    -8.18134E+06     83.7150E+06     103.202E+06     2.41627E+06    -220.168E-03     444.798E-03    -224.630E-03     34.5246E-03    -220.663E-03     445.262E-03    -224.223E-03     30.0745E-03
            2080     12.2244E-03     29.8893E-03    -13.8801E+06     77.2359E+06     91.4467E+06    -122.301E+03    -220.076E-03     444.903E-03    -224.827E-03     38.2492E-03    -220.563E-03     445.350E-03    -224.462E-03     34.2557E-03
            2081     11.5022E-03     29.8356E-03    -21.8138E+06     66.7531E+06     76.2879E+06     189.091E+03    -220.367E-03     445.414E-03    -225.047E-03     41.3541E-03    -220.847E-03     445.833E-03    -224.731E-03     37.8028E-03
            2082     10.7798E-03     29.7789E-03    -28.4093E+06     55.5296E+06     66.6108E+06     2.05628E+06    -220.794E-03     446.106E-03    -225.312E-03     42.8802E-03    -221.256E-03     446.472E-03    -225.018E-03     39.8767E-03
            2083     10.0582E-03     29.7200E-03    -34.5200E+06     39.4686E+06     60.0064E+06     1.19777E+06    -221.341E-03     446.950E-03    -225.610E-03     43.2925E-03    -221.779E-03     447.232E-03    -225.317E-03     40.7835E-03
            2084     9.33690E-03     29.6612E-03    -40.9684E+06     6.32721E+06     49.8984E+06    -574.329E+03    -221.954E-03     447.874E-03    -225.920E-03     42.9413E-03    -222.340E-03     447.992E-03    -225.621E-03     40.8807E-03
            2085     8.61602E-03     29.6031E-03    -48.0215E+06    -31.8261E+06     37.0142E+06    -1.09649E+06    -222.604E-03     448.831E-03    -226.227E-03     41.9578E-03    -222.930E-03     448.767E-03    -225.927E-03     40.3437E-03
            2086     7.89561E-03     29.5466E-03    -55.4614E+06    -62.9682E+06     24.6177E+06    -952.046E+03    -223.271E-03     449.795E-03    -226.525E-03     40.4032E-03    -223.553E-03     449.586E-03    -226.230E-03     39.1928E-03
            2087     7.17564E-03     29.4924E-03    -63.2608E+06    -90.1125E+06     11.9885E+06    -681.120E+03    -223.961E-03     450.769E-03    -226.808E-03     38.3647E-03    -224.209E-03     450.438E-03    -226.526E-03     37.5068E-03
            2088     6.45621E-03     29.4410E-03    -71.3212E+06    -114.457E+06    -1.26302E+06    -425.142E+03    -224.648E-03     451.718E-03    -227.070E-03     35.8857E-03    -224.869E-03     451.283E-03    -226.807E-03     35.3305E-03
            2089     5.73737E-03     29.3932E-03    -79.5822E+06    -137.394E+06    -15.6079E+06    -248.623E+03    -225.310E-03     452.615E-03    -227.305E-03     32.9940E-03    -225.509E-03     452.088E-03    -227.068E-03     32.6862E-03
            2090     5.01906E-03     29.3493E-03    -88.0073E+06    -159.455E+06    -31.2614E+06    -129.425E+03    -225.894E-03     453.404E-03    -227.510E-03     29.7414E-03    -226.072E-03     452.794E-03    -227.307E-03     29.6244E-03
            2091     4.30111E-03     29.3103E-03    -96.3063E+06    -181.177E+06    -48.0728E+06    -78.9637E+03    -226.405E-03     454.093E-03    -227.687E-03     26.1628E-03    -226.563E-03     453.405E-03    -227.526E-03     26.1830E-03
            2092     3.58353E-03     29.2763E-03    -104.379E+06    -202.140E+06    -65.8779E+06    -66.8245E+03    -226.879E-03     454.715E-03    -227.836E-03     22.2987E-03    -227.018E-03     453.956E-03    -227.720E-03     22.4084E-03
            2093     2.86637E-03     29.2476E-03    -111.884E+06    -222.605E+06    -84.0705E+06    -48.8906E+03    -227.303E-03     455.255E-03    -227.952E-03     18.1863E-03    -227.420E-03     454.429E-03    -227.888E-03     18.3335E-03
            2094     2.14948E-03     29.2251E-03    -118.366E+06    -240.704E+06    -100.972E+06    -112.380E+03    -227.654E-03     455.693E-03    -228.039E-03     13.9433E-03    -227.752E-03     454.808E-03    -228.023E-03     14.0924E-03
            2095     1.43278E-03     29.2085E-03    -123.458E+06    -254.925E+06    -114.875E+06    -30.9218E+03    -227.908E-03     456.009E-03    -228.101E-03     9.57583E-03    -227.989E-03     455.080E-03    -228.126E-03     9.70148E-03
            2096     716.203E-06     29.1984E-03    -126.477E+06    -264.928E+06    -124.373E+06    -10.3143E+03    -228.065E-03     456.233E-03    -228.168E-03     5.26352E-03    -228.133E-03     455.272E-03    -228.222E-03     5.33746E-03
            2097     13.6686E-03     28.5024E-03    -9.22658E+06     81.5680E+06     98.6598E+06    -1.93663E+06    -219.556E-03     443.947E-03    -224.391E-03     27.3349E-03    -220.004E-03     444.366E-03    -224.003E-03     23.2420E-03
            2098     12.9450E-03     28.4599E-03    -10.2197E+06     80.8502E+06     99.4946E+06    -1.51340E+06    -219.398E-03     444.041E-03    -224.643E-03     36.6666E-03    -219.900E-03     444.505E-03    -224.248E-03     32.2035E-03
            2099     12.2232E-03     28.4105E-03    -12.9503E+06     78.0065E+06     91.7538E+06     1.74774E+06    -219.528E-03     444.422E-03    -224.894E-03     40.0661E-03    -220.016E-03     444.875E-03    -224.530E-03     36.1563E-03
            2100     11.5002E-03     28.3561E-03    -18.8946E+06     65.3738E+06     78.7192E+06     1.92406E+06    -219.941E-03     445.104E-03    -225.163E-03     42.6753E-03    -220.413E-03     445.512E-03    -224.837E-03     39.1590E-03
            2101     10.7783E-03     28.2977E-03    -24.7105E+06     55.2127E+06     69.4736E+06     1.02631E+06    -220.489E-03     445.951E-03    -225.462E-03     44.0937E-03    -220.942E-03     446.311E-03    -225.159E-03     41.0515E-03
            2102     10.0564E-03     28.2381E-03    -30.5887E+06     42.1012E+06     62.2352E+06     788.215E+03    -221.005E-03     446.794E-03    -225.789E-03     44.5494E-03    -221.436E-03     447.085E-03    -225.494E-03     41.9916E-03
            2103     9.33478E-03     28.1779E-03    -37.9016E+06     7.31742E+06     50.9871E+06     713.977E+03    -221.674E-03     447.812E-03    -226.138E-03     44.2291E-03    -222.052E-03     447.934E-03    -225.839E-03     42.1375E-03
            2104     8.61372E-03     28.1186E-03    -46.2454E+06    -31.8729E+06     37.6328E+06     756.546E+03    -222.462E-03     448.948E-03    -226.486E-03     43.1866E-03    -222.785E-03     448.884E-03    -226.185E-03     41.5351E-03
            2105     7.89317E-03     28.0607E-03    -54.7660E+06    -63.0878E+06     24.8860E+06     713.722E+03    -223.262E-03     450.079E-03    -226.817E-03     41.5679E-03    -223.545E-03     449.872E-03    -226.522E-03     40.3135E-03
            2106     7.17332E-03     28.0049E-03    -63.0164E+06    -90.1933E+06     12.0833E+06     615.043E+03    -224.038E-03     451.167E-03    -227.129E-03     39.4290E-03    -224.289E-03     450.839E-03    -226.846E-03     38.5183E-03
            2107     6.45400E-03     27.9522E-03    -71.3124E+06    -114.594E+06    -1.33253E+06     541.371E+03    -224.771E-03     452.189E-03    -227.418E-03     36.8848E-03    -224.994E-03     451.756E-03    -227.155E-03     36.2764E-03
            2108     5.73520E-03     27.9029E-03    -79.7956E+06    -137.585E+06    -15.7906E+06     441.258E+03    -225.463E-03     453.145E-03    -227.683E-03     33.9470E-03    -225.664E-03     452.620E-03    -227.446E-03     33.5854E-03
            2109     5.01691E-03     27.8580E-03    -88.0867E+06    -159.531E+06    -31.3497E+06     373.786E+03    -226.118E-03     454.036E-03    -227.918E-03     30.6264E-03    -226.298E-03     453.428E-03    -227.716E-03     30.4541E-03
            2110     4.29915E-03     27.8178E-03     -96.343E+06    -181.063E+06    -48.2300E+06     292.022E+03    -226.737E-03     454.856E-03    -228.119E-03     26.9877E-03    -226.896E-03     454.170E-03    -227.958E-03     26.9580E-03
            2111     3.58193E-03     27.7827E-03    -104.510E+06    -202.165E+06    -66.1278E+06     219.527E+03    -227.263E-03     455.548E-03    -228.284E-03     23.0188E-03    -227.403E-03     454.790E-03    -228.170E-03     23.0811E-03
            2112     2.86496E-03     27.7535E-03    -111.911E+06    -222.651E+06    -83.9111E+06     213.545E+03    -227.707E-03     456.126E-03    -228.419E-03     18.7666E-03    -227.825E-03     455.300E-03    -228.354E-03     18.8782E-03
            2113     2.14834E-03     27.7300E-03    -118.292E+06    -240.435E+06    -100.765E+06     222.759E+03    -228.104E-03     456.624E-03    -228.520E-03     14.3015E-03    -228.202E-03     455.741E-03    -228.504E-03     14.4239E-03
            2114     1.43211E-03     27.7131E-03    -123.640E+06    -254.802E+06    -115.064E+06    -45.0916E+03    -228.407E-03     456.989E-03    -228.582E-03     9.71279E-03    -228.489E-03     456.062E-03    -228.609E-03     9.81137E-03
            2115     716.082E-06     27.7024E-03    -127.020E+06    -265.267E+06    -124.572E+06    -213.833E+03    -228.528E-03     457.188E-03    -228.660E-03     5.26809E-03    -228.598E-03     456.227E-03    -228.715E-03     5.32427E-03
            2116     13.6677E-03     27.0264E-03    -3.87473E+06     84.6069E+06     101.701E+06    -807.233E+03    -218.389E-03     442.795E-03    -224.406E-03     27.4297E-03    -218.821E-03     443.218E-03    -224.014E-03     23.3254E-03
            2117     12.9451E-03     26.9812E-03    -12.4710E+06     78.5550E+06     95.9131E+06    -3.15643E+06    -218.648E-03     443.345E-03    -224.697E-03     36.2953E-03    -219.156E-03     443.809E-03    -224.313E-03     31.7507E-03
            2118     12.2216E-03     26.9320E-03    -19.9989E+06     72.7190E+06     86.3751E+06    -2.41057E+06    -219.126E-03     444.112E-03    -224.987E-03     40.2310E-03    -219.639E-03     444.562E-03    -224.631E-03     36.1909E-03
            2119     11.4992E-03     26.8763E-03    -23.7667E+06     65.7257E+06     76.2213E+06    -690.563E+03    -219.619E-03     444.906E-03    -225.287E-03     43.4052E-03    -220.116E-03     445.331E-03    -224.967E-03     39.8040E-03
            2120     10.7765E-03     26.8171E-03    -28.6932E+06     55.7663E+06     66.6153E+06    -344.823E+03    -220.088E-03     445.704E-03    -225.616E-03     45.0643E-03    -220.563E-03     446.082E-03    -225.322E-03     41.9471E-03
            2121     10.0542E-03     26.7563E-03    -35.2347E+06     39.9790E+06     59.2376E+06     562.533E+03    -220.688E-03     446.673E-03    -225.985E-03     45.6297E-03    -221.140E-03     446.970E-03    -225.695E-03     43.0128E-03
            2122     9.33247E-03     26.6948E-03    -42.5322E+06     6.95814E+06     48.7122E+06     1.94873E+06    -221.502E-03     447.873E-03    -226.371E-03     45.2814E-03    -221.905E-03     448.008E-03    -226.076E-03     43.1510E-03
            2123     8.61128E-03     26.6338E-03    -49.8079E+06    -31.4052E+06     35.9635E+06     2.04994E+06    -222.410E-03     449.159E-03    -226.749E-03     44.1734E-03    -222.754E-03     449.110E-03    -226.451E-03     42.4761E-03
            2124     7.89084E-03     26.5742E-03    -57.0612E+06    -62.3438E+06     23.8254E+06     1.70091E+06    -223.288E-03     450.396E-03    -227.108E-03     42.5075E-03    -223.586E-03     450.201E-03    -226.816E-03     41.1978E-03
            2125     7.17094E-03     26.5169E-03    -64.7540E+06    -89.6736E+06     11.3232E+06     1.35316E+06    -224.126E-03     451.572E-03    -227.446E-03     40.3563E-03    -224.388E-03     451.253E-03    -227.165E-03     39.3902E-03
            2126     6.45167E-03     26.4626E-03    -72.5974E+06    -114.072E+06    -1.89596E+06     1.13565E+06    -224.915E-03     452.675E-03    -227.760E-03     37.7447E-03    -225.148E-03     452.251E-03    -227.499E-03     37.0778E-03
            2127     5.73298E-03     26.4120E-03    -80.5342E+06    -137.035E+06    -16.1920E+06     867.411E+03    -225.643E-03     453.692E-03    -228.049E-03     34.6817E-03    -225.851E-03     453.174E-03    -227.814E-03     34.2622E-03
            2128     5.01484E-03     26.3656E-03    -88.7518E+06    -159.260E+06    -31.7616E+06     598.849E+03    -226.359E-03     454.667E-03    -228.309E-03     31.2479E-03    -226.543E-03     454.063E-03    -228.108E-03     31.0252E-03
            2129     4.29730E-03     26.3240E-03    -96.9377E+06    -180.901E+06    -48.6892E+06     523.661E+03    -227.031E-03     455.563E-03    -228.532E-03     27.4838E-03    -227.194E-03     454.881E-03    -228.372E-03     27.4073E-03
            2130     3.58017E-03     26.2880E-03    -104.726E+06    -201.802E+06    -66.5384E+06     393.340E+03    -227.621E-03     456.336E-03    -228.715E-03     23.4116E-03    -227.762E-03     455.582E-03    -228.604E-03     23.4300E-03
            2131     2.86363E-03     26.2577E-03    -112.055E+06    -222.472E+06    -84.3805E+06     289.844E+03    -228.142E-03     457.002E-03    -228.860E-03     19.1054E-03    -228.261E-03     456.178E-03    -228.797E-03     19.1840E-03
            2132     2.14746E-03     26.2336E-03    -118.561E+06    -240.290E+06    -101.311E+06     297.151E+03    -228.558E-03     457.518E-03    -228.961E-03     14.5842E-03    -228.657E-03     456.637E-03    -228.947E-03     14.6835E-03
            2133     1.43148E-03     26.2160E-03    -123.334E+06    -254.265E+06    -115.434E+06     171.505E+03    -228.848E-03     457.871E-03    -229.022E-03     9.95737E-03    -228.930E-03     456.946E-03    -229.052E-03     10.0432E-03
            2134     715.719E-06     26.2052E-03    -126.135E+06    -265.500E+06     -124.39E+06    -210.978E+03    -229.011E-03     458.082E-03    -229.072E-03     5.44078E-03    -229.076E-03     457.118E-03    -229.126E-03     5.48489E-03
            2135     13.6686E-03     25.5491E-03    -4.72632E+06     85.4943E+06     102.847E+06     463.221E+03    -218.066E-03     442.502E-03    -224.437E-03     28.0390E-03    -218.506E-03     442.931E-03    -224.040E-03     23.9786E-03
            2136     12.9442E-03     25.5052E-03    -11.9306E+06     80.2996E+06     98.1959E+06     871.192E+03    -218.158E-03     442.913E-03    -224.755E-03     37.1592E-03    -218.671E-03     443.384E-03    -224.363E-03     32.7127E-03
            2137     12.2209E-03     25.4538E-03    -19.7186E+06     72.8543E+06     85.3896E+06    -1.33855E+06    -218.548E-03     443.616E-03    -225.067E-03     40.9774E-03    -219.063E-03     444.071E-03    -224.717E-03     36.9427E-03
            2138     11.4974E-03     25.3971E-03    -28.3073E+06     64.5528E+06     70.4434E+06    -2.48917E+06    -219.095E-03     444.489E-03    -225.393E-03     44.1919E-03    -219.611E-03     444.929E-03    -225.094E-03     40.5273E-03
            2139     10.7746E-03     25.3371E-03    -34.8776E+06     53.9613E+06     61.3608E+06    -1.76560E+06    -219.761E-03     445.526E-03    -225.765E-03     45.8911E-03    -220.263E-03     445.918E-03    -225.486E-03     42.7027E-03
            2140     10.0522E-03     25.2746E-03    -40.9158E+06     36.5593E+06     55.2650E+06    -309.544E+03    -220.556E-03     446.727E-03    -226.170E-03     46.3645E-03    -221.031E-03     447.026E-03    -225.888E-03     43.6805E-03
            2141     9.33031E-03     25.2115E-03    -46.9452E+06     5.99636E+06     46.2189E+06     459.955E+03    -221.472E-03     448.051E-03    -226.580E-03     45.9246E-03    -221.896E-03     448.196E-03    -226.289E-03     43.7163E-03
            2142     8.60921E-03     25.1486E-03    -52.9687E+06    -31.0847E+06     34.3070E+06     601.223E+03    -222.419E-03     449.396E-03    -226.977E-03     44.7613E-03    -222.780E-03     449.359E-03    -226.684E-03     42.9839E-03
            2143     7.88867E-03     25.0874E-03    -59.4153E+06    -61.9632E+06     22.5763E+06     627.899E+03    -223.332E-03     450.688E-03    -227.356E-03     43.0263E-03    -223.644E-03     450.503E-03    -227.067E-03     41.6415E-03
            2144     7.16882E-03     25.0283E-03    -66.2491E+06    -89.4847E+06     10.4993E+06     740.266E+03    -224.228E-03     451.941E-03    -227.713E-03     40.7795E-03    -224.499E-03     451.629E-03    -227.435E-03     39.7488E-03
            2145     6.44967E-03     24.9724E-03    -73.5486E+06    -113.794E+06    -2.43722E+06     789.042E+03    -225.082E-03     453.125E-03    -228.043E-03     38.0465E-03    -225.322E-03     452.707E-03    -227.783E-03     37.3206E-03
            2146     5.73114E-03     24.9202E-03    -81.2730E+06    -136.321E+06    -16.6020E+06     744.111E+03    -225.887E-03     454.228E-03    -228.341E-03     34.8844E-03    -226.099E-03     453.717E-03    -228.109E-03     34.4162E-03
            2147     5.01322E-03     24.8723E-03    -89.3302E+06    -158.906E+06    -32.2875E+06     675.028E+03    -226.626E-03     455.232E-03    -228.607E-03     31.3549E-03    -226.814E-03     454.633E-03    -228.408E-03     31.0978E-03
            2148     4.29583E-03     24.8294E-03    -97.2578E+06    -180.555E+06    -49.2078E+06     507.676E+03    -227.292E-03     456.127E-03    -228.836E-03     27.4787E-03    -227.457E-03     455.449E-03    -228.679E-03     27.3714E-03
            2149     3.57903E-03     24.7922E-03    -105.104E+06    -201.486E+06    -67.1362E+06     425.394E+03    -227.900E-03     456.926E-03    -229.026E-03     23.3558E-03    -228.044E-03     456.176E-03    -228.917E-03     23.3525E-03
            2150     2.86258E-03     24.7608E-03    -112.502E+06    -222.128E+06    -85.1814E+06     390.830E+03    -228.432E-03     457.608E-03    -229.176E-03     19.0443E-03    -228.553E-03     456.788E-03    -229.117E-03     19.1059E-03
            2151     2.14656E-03     24.7360E-03    -118.733E+06    -240.045E+06    -101.895E+06     243.074E+03    -228.844E-03     458.133E-03    -229.288E-03     14.5485E-03    -228.944E-03     457.254E-03    -229.278E-03     14.6329E-03
            2152     1.43088E-03     24.7179E-03    -123.381E+06     -253.86E+06    -115.588E+06     204.522E+03    -229.141E-03     458.515E-03    -229.374E-03     9.92519E-03    -229.223E-03     457.593E-03    -229.405E-03     10.0018E-03
            2153     715.277E-06     24.7067E-03    -126.518E+06    -265.174E+06    -124.588E+06     359.966E+03    -229.392E-03     458.815E-03    -229.423E-03     5.43321E-03    -229.460E-03     457.854E-03    -229.478E-03     5.48768E-03
            2154     13.6665E-03     24.0739E-03    -5.76990E+06     85.0406E+06     103.021E+06     441.354E+03    -217.674E-03     442.151E-03    -224.476E-03     28.1730E-03    -218.122E-03     442.581E-03    -224.076E-03     24.0712E-03
            2155     12.9434E-03     24.0279E-03    -11.6873E+06     80.3438E+06     99.2222E+06     793.372E+03    -217.835E-03     442.653E-03    -224.818E-03     37.5260E-03    -218.351E-03     443.125E-03    -224.422E-03     33.0412E-03
            2156     12.2197E-03     23.9767E-03    -17.4765E+06     74.3324E+06     87.9842E+06     1.54332E+06    -218.221E-03     443.377E-03    -225.157E-03     41.5273E-03    -218.734E-03     443.837E-03    -224.799E-03     37.5027E-03
            2157     11.4962E-03     23.9189E-03    -24.4359E+06     66.8102E+06     74.0962E+06     1.09564E+06    -218.846E-03     444.355E-03    -225.509E-03     44.5627E-03    -219.355E-03     444.800E-03    -225.200E-03     40.9076E-03
            2158     10.7730E-03     23.8568E-03    -32.6468E+06     54.1646E+06     62.8946E+06    -653.509E+03    -219.691E-03     445.585E-03    -225.895E-03     46.1282E-03    -220.187E-03     445.976E-03    -225.611E-03     42.9138E-03
            2159     10.0506E-03     23.7929E-03    -39.7512E+06     35.4589E+06     55.4091E+06    -1.81333E+06    -220.636E-03     446.942E-03    -226.305E-03     46.5461E-03    -221.107E-03     447.237E-03    -226.022E-03     43.7954E-03
            2160     9.32894E-03     23.7276E-03    -45.8500E+06     4.64556E+06     46.2721E+06    -1.79385E+06    -221.581E-03     448.299E-03    -226.719E-03     45.9878E-03    -222.000E-03     448.438E-03    -226.427E-03     43.7040E-03
            2161     8.60780E-03     23.6633E-03    -52.1552E+06    -32.0674E+06     34.3707E+06    -1.14154E+06    -222.538E-03     449.656E-03    -227.118E-03     44.6847E-03    -222.895E-03     449.615E-03    -226.824E-03     42.8464E-03
            2162     7.88738E-03     23.6001E-03    -58.9435E+06    -62.7169E+06     22.4038E+06    -518.299E+03    -223.493E-03     450.989E-03    -227.495E-03     42.7754E-03    -223.802E-03     450.801E-03    -227.207E-03     41.3476E-03
            2163     7.16769E-03     23.5393E-03    -66.1849E+06    -90.1144E+06     9.89820E+06    -87.5134E+03    -224.416E-03     452.263E-03    -227.847E-03     40.3445E-03    -224.686E-03     451.949E-03    -227.571E-03     39.2835E-03
            2164     6.44861E-03     23.4815E-03    -73.6760E+06    -113.948E+06    -3.14812E+06     163.363E+03    -225.289E-03     453.456E-03    -228.167E-03     37.4585E-03    -225.527E-03     453.038E-03    -227.911E-03     36.7126E-03
            2165     5.73024E-03     23.4277E-03    -81.4518E+06    -136.434E+06    -17.3514E+06     389.453E+03    -226.109E-03     454.561E-03    -228.452E-03     34.1856E-03    -226.321E-03     454.050E-03    -228.223E-03     33.7044E-03
            2166     5.01252E-03     23.3783E-03    -89.2972E+06    -158.612E+06    -32.8023E+06     523.355E+03    -226.829E-03     455.531E-03    -228.701E-03     30.5917E-03    -227.017E-03     454.933E-03    -228.506E-03     30.3205E-03
            2167     4.29535E-03     23.3342E-03    -97.2684E+06    -180.235E+06    -49.5904E+06     567.929E+03    -227.456E-03     456.369E-03    -228.913E-03     26.7385E-03    -227.621E-03     455.693E-03    -228.759E-03     26.6249E-03
            2168     3.57857E-03     23.2956E-03    -105.085E+06    -201.322E+06    -67.4541E+06     583.796E+03    -228.030E-03     457.118E-03    -229.088E-03     22.6594E-03    -228.173E-03     456.369E-03    -228.981E-03     22.6536E-03
            2169     2.86234E-03     23.2634E-03    -112.280E+06    -221.715E+06    -85.2421E+06     500.444E+03    -228.518E-03     457.744E-03    -229.226E-03     18.3679E-03    -228.638E-03     456.926E-03    -229.167E-03     18.4200E-03
            2170     2.14640E-03     23.2376E-03    -118.571E+06    -239.494E+06    -101.735E+06     388.028E+03    -228.913E-03     458.240E-03    -229.326E-03     13.9134E-03    -229.013E-03     457.364E-03    -229.316E-03     13.9866E-03
            2171     1.43070E-03     23.2190E-03    -123.626E+06    -253.763E+06    -115.446E+06     377.856E+03    -229.219E-03     458.608E-03    -229.389E-03     9.37905E-03    -229.303E-03     457.687E-03    -229.419E-03     9.44392E-03
            2172     715.376E-06     23.2072E-03    -126.882E+06    -264.056E+06    -124.692E+06     500.370E+03    -229.324E-03     458.801E-03    -229.477E-03     5.10011E-03    -229.394E-03     457.846E-03    -229.534E-03     5.14789E-03
            2173     13.6677E-03     22.5974E-03    -5.35861E+06     84.2111E+06     102.218E+06    -199.200E+03    -217.245E-03     441.741E-03    -224.496E-03     28.1760E-03    -217.691E-03     442.170E-03    -224.099E-03     24.0339E-03
            2174     12.9430E-03     22.5527E-03    -10.5518E+06     80.2957E+06     99.1788E+06     638.649E+03    -217.572E-03     442.432E-03    -224.860E-03     37.8318E-03    -218.086E-03     442.906E-03    -224.465E-03     33.3197E-03
            2175     12.2187E-03     22.4993E-03    -16.4079E+06     74.6250E+06     89.2338E+06     684.061E+03    -218.210E-03     443.425E-03    -225.216E-03     41.7647E-03    -218.723E-03     443.886E-03    -224.854E-03     37.6941E-03
            2176     11.4955E-03     22.4403E-03    -20.9036E+06     66.9320E+06     77.8163E+06     770.864E+03    -219.045E-03     444.620E-03    -225.575E-03     44.6609E-03    -219.544E-03     445.057E-03    -225.253E-03     40.9710E-03
            2177     10.7725E-03     22.3768E-03    -25.5692E+06     56.9670E+06     68.0916E+06     1.24126E+06    -219.952E-03     445.900E-03    -225.948E-03     45.9877E-03    -220.426E-03     446.288E-03    -225.653E-03     42.7765E-03
            2178     10.0503E-03     22.3104E-03    -32.6729E+06     37.9922E+06     59.1594E+06    -137.477E+03    -220.878E-03     447.215E-03    -226.338E-03     46.1291E-03    -221.323E-03     447.508E-03    -226.050E-03     43.3749E-03
            2179     9.32869E-03     22.2439E-03    -40.9547E+06     3.30464E+06     47.6971E+06    -838.264E+03    -221.871E-03     448.601E-03    -226.730E-03     45.3862E-03    -222.266E-03     448.724E-03    -226.437E-03     43.0962E-03
            2180     8.60782E-03     22.1775E-03    -49.1739E+06    -33.2557E+06     34.7617E+06    -361.400E+03    -222.882E-03     449.983E-03    -227.101E-03     43.8585E-03    -223.223E-03     449.930E-03    -226.807E-03     42.0252E-03
            2181     7.88766E-03     22.1126E-03    -57.2971E+06    -63.7077E+06     22.1768E+06     26.2029E+03    -223.838E-03     451.280E-03    -227.442E-03     41.6961E-03    -224.136E-03     451.084E-03    -227.155E-03     40.2782E-03
            2182     7.16816E-03     22.0499E-03    -65.2801E+06    -90.5554E+06     9.43392E+06     258.433E+03    -224.732E-03     452.483E-03    -227.751E-03     39.0338E-03    -224.994E-03     452.165E-03    -227.478E-03     37.9817E-03
            2183     6.44941E-03     21.9905E-03    -73.2399E+06    -114.127E+06    -3.76663E+06     334.044E+03    -225.541E-03     453.565E-03    -228.024E-03     35.9797E-03    -225.775E-03     453.145E-03    -227.771E-03     35.2371E-03
            2184     5.73125E-03     21.9350E-03    -81.2536E+06    -136.585E+06    -17.9262E+06     410.482E+03    -226.247E-03     454.509E-03    -228.262E-03     32.6305E-03    -226.456E-03     453.998E-03    -228.036E-03     32.1436E-03
            2185     5.01360E-03     21.8843E-03    -89.4828E+06    -158.555E+06    -33.4079E+06     515.195E+03    -226.874E-03     455.339E-03    -228.465E-03     29.0369E-03    -227.062E-03     454.743E-03    -228.273E-03     28.7510E-03
            2186     4.29641E-03     21.8389E-03    -97.5725E+06    -180.032E+06    -50.0130E+06     584.861E+03    -227.434E-03     456.065E-03    -228.631E-03     25.2422E-03    -227.600E-03     455.391E-03    -228.478E-03     25.1108E-03
            2187     3.57973E-03     21.7993E-03    -105.137E+06    -200.962E+06    -67.5041E+06     570.303E+03    -227.900E-03     456.659E-03    -228.759E-03     21.2702E-03    -228.044E-03     455.912E-03    -228.653E-03     21.2430E-03
            2188     2.86332E-03     21.7661E-03    -112.247E+06    -221.272E+06    -85.2751E+06     558.668E+03    -228.287E-03     457.141E-03    -228.853E-03     17.1736E-03    -228.408E-03     456.325E-03    -228.796E-03     17.2057E-03
            2189     2.14727E-03     21.7398E-03    -118.460E+06    -239.091E+06    -101.656E+06     466.454E+03    -228.602E-03     457.518E-03    -228.915E-03     13.0263E-03    -228.703E-03     456.644E-03    -228.905E-03     13.0843E-03
            2190     1.43155E-03     21.7204E-03    -123.197E+06    -253.143E+06    -115.005E+06     363.936E+03    -228.816E-03     457.766E-03    -228.950E-03     8.84976E-03    -228.899E-03     456.847E-03    -228.980E-03     8.90153E-03
            2191     715.759E-06     21.7088E-03    -126.246E+06    -262.937E+06    -123.997E+06     175.379E+03    -228.876E-03     457.902E-03    -229.025E-03     4.81812E-03    -228.947E-03     456.950E-03    -229.081E-03     4.84506E-03
            2192     13.6661E-03     21.1238E-03    -6.02217E+06     83.9952E+06     101.511E+06    -254.548E+03    -217.177E-03     441.677E-03    -224.500E-03     28.5901E-03    -217.626E-03     442.109E-03    -224.106E-03     24.4510E-03
            2193     12.9422E-03     21.0760E-03    -11.6417E+06     79.5441E+06     98.1799E+06    -809.396E+03    -217.770E-03     442.631E-03    -224.861E-03     37.6970E-03    -218.290E-03     443.107E-03    -224.468E-03     33.1061E-03
            2194     12.2190E-03     21.0223E-03    -16.4173E+06     75.3458E+06     88.7197E+06    -974.111E+03    -218.497E-03     443.697E-03    -225.200E-03     41.4914E-03    -219.013E-03     444.165E-03    -224.842E-03     37.3429E-03
            2195     11.4955E-03     20.9612E-03    -22.9282E+06     66.3996E+06     75.4851E+06    -1.07332E+06    -219.463E-03     444.994E-03    -225.531E-03     44.3367E-03    -219.970E-03     445.436E-03    -225.216E-03     40.5941E-03
            2196     10.7733E-03     20.8956E-03    -29.1477E+06     55.3024E+06     65.0695E+06    -755.273E+03    -220.462E-03     446.331E-03    -225.869E-03     45.4728E-03    -220.948E-03     446.721E-03    -225.581E-03     42.2147E-03
            2197     10.0514E-03     20.8282E-03    -34.7976E+06     37.9829E+06     57.2978E+06     1.34270E+06    -221.425E-03     447.639E-03    -226.214E-03     45.2843E-03    -221.877E-03     447.936E-03    -225.932E-03     42.5455E-03
            2198     9.33012E-03     20.7595E-03    -42.1643E+06     3.86886E+06     46.2685E+06     2.18521E+06    -222.472E-03     449.021E-03    -226.549E-03     44.0862E-03    -222.869E-03     449.148E-03    -226.262E-03     41.8392E-03
            2199     8.60972E-03     20.6914E-03    -50.3620E+06    -32.8834E+06     33.3845E+06     1.64521E+06    -223.492E-03     450.341E-03    -226.850E-03     42.1482E-03    -223.834E-03     450.292E-03    -226.562E-03     40.3398E-03
            2200     7.89000E-03     20.6247E-03    -58.1153E+06    -63.3191E+06     21.2242E+06     1.18999E+06    -224.375E-03     451.486E-03    -227.111E-03     39.6548E-03    -224.674E-03     451.292E-03    -226.829E-03     38.2412E-03
            2201     7.17101E-03     20.5604E-03    -65.7660E+06    -90.0950E+06     8.87638E+06     899.460E+03    -225.118E-03     452.452E-03    -227.334E-03     36.7860E-03    -225.381E-03     452.136E-03    -227.064E-03     35.7234E-03
            2202     6.45250E-03     20.4995E-03    -73.6111E+06    -113.774E+06    -4.14244E+06     742.767E+03    -225.740E-03     453.261E-03    -227.520E-03     33.6572E-03    -225.975E-03     452.843E-03    -227.269E-03     32.8957E-03
            2203     5.73448E-03     20.4428E-03    -81.5697E+06    -136.510E+06    -18.2169E+06     641.774E+03    -226.270E-03     453.942E-03    -227.673E-03     30.2905E-03    -226.480E-03     453.431E-03    -227.448E-03     29.7755E-03
            2204     5.01682E-03     20.3911E-03    -89.4538E+06    -158.255E+06    -33.5120E+06     567.969E+03    -226.724E-03     454.514E-03    -227.790E-03     26.7419E-03    -226.912E-03     453.920E-03    -227.598E-03     26.4256E-03
            2205     4.29962E-03     20.3445E-03    -97.2089E+06    -179.516E+06    -49.8909E+06     471.958E+03    -227.102E-03     454.976E-03    -227.874E-03     23.0894E-03    -227.267E-03     454.303E-03    -227.722E-03     22.9251E-03
            2206     3.58265E-03     20.3043E-03    -104.940E+06    -200.691E+06    -67.2448E+06     437.947E+03    -227.387E-03     455.313E-03    -227.927E-03     19.3519E-03    -227.531E-03     454.567E-03    -227.820E-03     19.2929E-03
            2207     2.86589E-03     20.2705E-03    -111.998E+06    -220.917E+06    -84.7810E+06      387.96E+03    -227.587E-03     455.544E-03    -227.957E-03     15.5639E-03    -227.708E-03     454.729E-03    -227.898E-03     15.5707E-03
            2208     2.14927E-03     20.2436E-03    -118.006E+06    -238.387E+06    -101.136E+06     276.144E+03    -227.723E-03     455.700E-03    -227.977E-03     11.7848E-03    -227.823E-03     454.828E-03    -227.966E-03     11.8236E-03
            2209     1.43259E-03     20.2242E-03    -122.877E+06    -252.462E+06    -114.792E+06     126.301E+03    -227.845E-03     455.846E-03    -228.001E-03     7.99847E-03    -227.928E-03     454.929E-03    -228.031E-03     8.03934E-03
            2210     716.184E-06     20.2121E-03    -126.091E+06    -262.446E+06    -123.918E+06         109.024    -227.963E-03     456.007E-03    -228.043E-03     4.36650E-03    -228.034E-03     455.057E-03    -228.100E-03     4.39354E-03
            2211     13.6674E-03     19.6472E-03    -5.17934E+06     85.9089E+06     103.292E+06    -103.176E+03    -217.705E-03     442.182E-03    -224.477E-03     28.2519E-03    -218.158E-03     442.622E-03    -224.078E-03     24.0359E-03
            2212     12.9439E-03     19.6001E-03    -11.3590E+06     80.2464E+06     98.4902E+06    -975.610E+03    -218.194E-03     442.998E-03    -224.805E-03     37.6513E-03    -218.717E-03     443.481E-03    -224.412E-03     32.9966E-03
            2213     12.2199E-03     19.5444E-03    -19.1732E+06     72.9355E+06     85.8705E+06    -920.148E+03    -219.192E-03     444.292E-03    -225.100E-03     41.5554E-03    -219.717E-03     444.758E-03    -224.748E-03     37.3874E-03
            2214     11.4976E-03     19.4815E-03    -26.0946E+06     66.8639E+06     72.1489E+06     186.618E+03    -220.316E-03     445.684E-03    -225.368E-03     43.8303E-03    -220.834E-03     446.138E-03    -225.067E-03     40.0747E-03
            2215     10.7753E-03     19.4145E-03    -33.7602E+06     53.8875E+06     59.8939E+06     360.496E+03    -221.384E-03     447.013E-03    -225.629E-03     44.3216E-03    -221.882E-03     447.409E-03    -225.359E-03     41.0503E-03
            2216     10.0542E-03     19.3448E-03    -41.6968E+06     34.4276E+06     51.7854E+06     754.214E+03    -222.474E-03     448.361E-03    -225.887E-03     43.5605E-03    -222.945E-03     448.656E-03    -225.617E-03     40.7880E-03
            2217     9.33394E-03     19.2746E-03    -47.9502E+06     4.75021E+06     43.2395E+06     1.51265E+06    -223.485E-03     449.599E-03    -226.114E-03     41.8266E-03    -223.906E-03     449.741E-03    -225.835E-03     39.5394E-03
            2218     8.61430E-03     19.2047E-03    -53.6224E+06    -31.2443E+06     31.9799E+06     1.19813E+06    -224.344E-03     450.637E-03    -226.294E-03     39.4630E-03    -224.700E-03     450.600E-03    -226.011E-03     37.6102E-03
            2219     7.89537E-03     19.1366E-03    -60.0551E+06    -62.3955E+06     20.4444E+06     803.382E+03    -225.013E-03     451.440E-03    -226.428E-03     36.7140E-03    -225.320E-03     451.253E-03    -226.148E-03     35.2483E-03
            2220     7.17679E-03     19.0714E-03    -66.9653E+06    -89.3037E+06     8.49027E+06     602.749E+03    -225.504E-03     452.023E-03    -226.520E-03     33.6973E-03    -225.772E-03     451.712E-03    -226.250E-03     32.5759E-03
            2221     6.45855E-03     19.0096E-03    -74.2150E+06    -113.177E+06    -4.22349E+06     451.988E+03    -225.857E-03     452.432E-03    -226.575E-03     30.4767E-03    -226.095E-03     452.017E-03    -226.324E-03     29.6545E-03
            2222     5.74057E-03     18.9521E-03    -81.5832E+06    -135.946E+06    -18.0887E+06     313.051E+03    -226.123E-03     452.720E-03    -226.597E-03     27.1194E-03    -226.334E-03     452.211E-03    -226.372E-03     26.5463E-03
            2223     5.02291E-03     18.8995E-03    -89.2095E+06    -157.705E+06    -33.1757E+06     112.295E+03    -226.291E-03     452.880E-03    -226.588E-03     23.7025E-03    -226.479E-03     452.287E-03    -226.396E-03     23.3288E-03
            2224     4.30524E-03     18.8527E-03    -97.0696E+06    -179.297E+06    -49.5534E+06     140.314E+03    -226.364E-03     452.920E-03    -226.556E-03     20.2631E-03    -226.530E-03     452.248E-03    -226.403E-03     20.0472E-03
            2225     3.58767E-03     18.8120E-03    -104.582E+06    -200.397E+06    -66.8458E+06     141.980E+03    -226.385E-03     452.891E-03    -226.506E-03     16.8228E-03    -226.528E-03     452.145E-03    -226.398E-03     16.7168E-03
            2226     2.87018E-03     18.7781E-03    -111.557E+06    -220.583E+06    -84.1632E+06     92.7360E+03    -226.369E-03     452.816E-03    -226.447E-03     13.4069E-03    -226.489E-03     452.001E-03    -226.386E-03     13.3698E-03
            2227     2.15258E-03     18.7512E-03    -117.740E+06    -237.959E+06    -100.625E+06     175.150E+03    -226.339E-03     452.725E-03    -226.386E-03     9.99639E-03    -226.439E-03     451.854E-03    -226.373E-03     9.99895E-03
            2228     1.43512E-03     18.7316E-03    -122.604E+06    -252.019E+06    -114.496E+06     164.747E+03    -226.318E-03     452.648E-03    -226.330E-03     6.63652E-03    -226.400E-03     451.732E-03    -226.359E-03     6.65337E-03
            2229     717.613E-06     18.7192E-03    -125.577E+06    -262.112E+06    -123.639E+06     86.3261E+03    -226.230E-03     452.581E-03    -226.352E-03     3.55787E-03    -226.298E-03     451.632E-03    -226.408E-03     3.57302E-03
            2230     13.6682E-03     18.1719E-03    -4.82439E+06     85.5180E+06     103.062E+06    -336.132E+03    -218.390E-03     442.825E-03    -224.435E-03     29.3445E-03    -218.845E-03     443.268E-03    -224.037E-03     25.0781E-03
            2231     12.9440E-03     18.1233E-03    -11.8620E+06     79.8701E+06     97.7169E+06     978.042E+03    -219.367E-03     444.075E-03    -224.708E-03     38.4573E-03    -219.896E-03     444.561E-03    -224.318E-03     33.8167E-03
            2232     12.2221E-03     18.0651E-03    -18.2723E+06     73.3963E+06     85.5070E+06     1.10862E+06    -220.668E-03     445.586E-03    -224.917E-03     41.3286E-03    -221.191E-03     446.056E-03    -224.570E-03     37.1297E-03
            2233     11.5002E-03     18.0006E-03    -24.8053E+06     64.2451E+06     71.4731E+06     1.17709E+06    -221.904E-03     446.984E-03    -225.079E-03     42.7588E-03    -222.413E-03     447.425E-03    -224.779E-03     38.9374E-03
            2234     10.7799E-03     17.9317E-03    -31.2618E+06     52.6982E+06     61.0323E+06     3.20994E+06    -223.082E-03     448.294E-03    -225.212E-03     42.4487E-03    -223.566E-03     448.678E-03    -224.938E-03     39.1418E-03
            2235     10.0600E-03     17.8604E-03    -38.3247E+06     36.9594E+06     53.8923E+06     2.83233E+06    -224.050E-03     449.364E-03    -225.314E-03     40.9819E-03    -224.509E-03     449.662E-03    -225.043E-03     38.1594E-03
            2236     9.34082E-03     17.7886E-03    -45.8651E+06     6.75992E+06     44.5739E+06     362.973E+03    -224.818E-03     450.193E-03    -225.375E-03     38.7954E-03    -225.232E-03     450.338E-03    -225.095E-03     36.4022E-03
            2237     8.62227E-03     17.7179E-03    -52.8694E+06    -30.3157E+06     32.5644E+06    -394.722E+03    -225.373E-03     450.756E-03    -225.383E-03     36.1143E-03    -225.727E-03     450.720E-03    -225.100E-03     34.1433E-03
            2238     7.90387E-03     17.6491E-03    -59.4950E+06    -61.8728E+06     20.8592E+06    -377.875E+03    -225.707E-03     451.049E-03    -225.342E-03     33.1186E-03    -226.011E-03     450.862E-03    -225.062E-03     31.5356E-03
            2239     7.18582E-03     17.5833E-03    -66.2945E+06    -88.8282E+06     8.95619E+06    -421.923E+03    -225.885E-03     451.142E-03    -225.257E-03     29.9303E-03    -226.151E-03     450.831E-03    -224.987E-03     28.6874E-03
            2240     6.46788E-03     17.5213E-03    -73.3399E+06    -112.908E+06    -3.64564E+06    -395.520E+03    -225.908E-03     451.040E-03    -225.132E-03     26.6242E-03    -226.143E-03     450.624E-03    -224.880E-03     25.6788E-03
            2241     5.74995E-03     17.4637E-03    -80.8790E+06    -135.528E+06    -17.3339E+06    -296.418E+03    -225.774E-03     450.750E-03    -224.976E-03     23.2829E-03    -225.983E-03     450.241E-03    -224.749E-03     22.5912E-03
            2242     5.03181E-03     17.4113E-03    -88.6873E+06    -157.409E+06    -32.4450E+06    -155.346E+03    -225.539E-03     450.336E-03    -224.797E-03     19.9677E-03    -225.726E-03     449.743E-03    -224.603E-03     19.4802E-03
            2243     4.31364E-03     17.3646E-03    -96.5361E+06    -179.141E+06    -49.0023E+06    -181.667E+03    -225.231E-03     449.837E-03    -224.605E-03     16.7346E-03    -225.396E-03     449.164E-03    -224.451E-03     16.4026E-03
            2244     3.59521E-03     17.3243E-03    -104.021E+06    -200.080E+06    -66.3653E+06    -192.195E+03    -224.879E-03     449.292E-03    -224.412E-03     13.6361E-03    -225.021E-03     448.546E-03    -224.303E-03     13.4216E-03
            2245     2.87647E-03     17.2907E-03    -111.081E+06    -220.440E+06    -83.9733E+06    -118.877E+03    -224.571E-03     448.798E-03    -224.227E-03     10.6870E-03    -224.690E-03     447.983E-03    -224.166E-03     10.5567E-03
            2246     2.15772E-03     17.2641E-03    -117.371E+06    -238.054E+06    -100.434E+06    -46.1681E+03    -224.303E-03     448.355E-03    -224.053E-03     7.90612E-03    -224.402E-03     447.483E-03    -224.039E-03     7.83203E-03
            2247     1.43868E-03     17.2448E-03    -122.020E+06    -251.740E+06    -113.752E+06     85.4699E+03    -224.041E-03     447.943E-03    -223.902E-03     5.28803E-03    -224.122E-03     447.027E-03    -223.929E-03     5.25000E-03
            2248     719.405E-06     17.2330E-03    -124.850E+06    -261.637E+06    -122.840E+06     105.676E+03    -223.763E-03     447.638E-03    -223.875E-03     2.86871E-03    -223.830E-03     446.689E-03    -223.929E-03     2.85320E-03
            2249     13.6673E-03     16.6951E-03    -5.10693E+06     84.5930E+06     102.127E+06     421.911E+03    -220.046E-03     444.427E-03    -224.381E-03     29.5607E-03    -220.504E-03     444.871E-03    -223.985E-03     25.2244E-03
            2250     12.9465E-03     16.6430E-03    -12.1448E+06     79.2555E+06     97.1919E+06     965.370E+03    -221.491E-03     446.036E-03    -224.545E-03     37.9449E-03    -222.025E-03     446.526E-03    -224.156E-03     33.1584E-03
            2251     12.2255E-03     16.5839E-03    -18.0207E+06     73.6675E+06     86.7095E+06     1.02696E+06    -222.840E-03     447.462E-03    -224.622E-03     40.3711E-03    -223.369E-03     447.938E-03    -224.269E-03     36.0076E-03
            2252     11.5059E-03     16.5173E-03    -23.8684E+06     61.5375E+06     73.3548E+06     2.13879E+06    -224.210E-03     448.837E-03    -224.627E-03     41.1725E-03    -224.715E-03     449.264E-03    -224.315E-03     37.2270E-03
            2253     10.7868E-03     16.4467E-03    -29.8637E+06     50.1496E+06     63.1319E+06     3.06392E+06    -225.314E-03     449.886E-03    -224.572E-03     40.1539E-03    -225.792E-03     450.253E-03    -224.286E-03     36.7101E-03
            2254     10.0687E-03     16.3744E-03    -35.4968E+06     41.5519E+06     57.5163E+06     3.10408E+06    -225.987E-03     450.453E-03    -224.466E-03     38.1154E-03    -226.445E-03     450.765E-03    -224.187E-03     35.1509E-03
            2255     9.35093E-03     16.3021E-03    -41.9435E+06     11.8397E+06     47.9535E+06     1.70569E+06    -226.388E-03     450.699E-03    -224.312E-03     35.4269E-03    -226.794E-03     450.860E-03    -224.028E-03     32.8970E-03
            2256     8.63330E-03     16.2310E-03    -49.4656E+06    -28.8552E+06     34.7778E+06     28.5879E+03    -226.592E-03     450.695E-03    -224.102E-03     32.3287E-03    -226.936E-03     450.659E-03    -223.815E-03     30.1943E-03
            2257     7.91594E-03     16.1625E-03    -56.7828E+06    -61.1387E+06     22.5362E+06    -675.201E+03    -226.561E-03     450.397E-03    -223.835E-03     28.9795E-03    -226.857E-03     450.209E-03    -223.552E-03     27.2101E-03
            2258     7.19837E-03     16.0970E-03    -64.0652E+06    -88.5196E+06     10.2882E+06    -837.403E+03    -226.316E-03     449.834E-03    -223.518E-03     25.5118E-03    -226.575E-03     449.521E-03    -223.245E-03     24.0744E-03
            2259     6.48066E-03     16.0355E-03    -71.6551E+06    -112.872E+06    -2.55501E+06    -788.996E+03    -225.877E-03     449.036E-03    -223.159E-03     22.0281E-03    -226.106E-03     448.618E-03    -222.905E-03     20.8759E-03
            2260     5.76259E-03     15.9789E-03    -79.3143E+06    -135.661E+06    -16.3486E+06    -573.139E+03    -225.255E-03     448.026E-03    -222.772E-03     18.6399E-03    -225.459E-03     447.515E-03    -222.542E-03     17.7339E-03
            2261     5.04415E-03     15.9275E-03    -86.9786E+06    -157.388E+06    -31.4367E+06    -362.072E+03    -224.492E-03     446.862E-03    -222.370E-03     15.4468E-03    -224.673E-03     446.266E-03    -222.173E-03     14.7493E-03
            2262     4.32506E-03     15.8820E-03    -94.6357E+06    -178.773E+06    -47.8850E+06    -282.732E+03    -223.669E-03     445.640E-03    -221.971E-03     12.5056E-03    -223.827E-03     444.966E-03    -221.814E-03     11.9722E-03
            2263     3.60539E-03     15.8430E-03    -102.283E+06    -200.030E+06    -65.1635E+06    -137.127E+03    -222.861E-03     444.453E-03    -221.593E-03     9.86365E-03    -222.997E-03     443.705E-03    -221.480E-03     9.46956E-03
            2264     2.88522E-03     15.8104E-03    -109.417E+06    -220.367E+06    -82.6109E+06     91.4836E+03    -222.102E-03     443.351E-03    -221.249E-03     7.51696E-03    -222.215E-03     442.533E-03    -221.184E-03     7.23843E-03
            2265     2.16438E-03     15.7847E-03    -115.612E+06    -237.705E+06    -99.1166E+06     95.6200E+03    -221.440E-03     442.400E-03    -220.960E-03     5.44542E-03    -221.533E-03     441.525E-03    -220.943E-03     5.25180E-03
            2266     1.44313E-03     15.7663E-03    -120.562E+06    -251.683E+06    -112.659E+06    -50.9199E+03    -220.951E-03     441.696E-03    -220.745E-03     3.58193E-03    -221.028E-03     440.777E-03    -220.769E-03     3.45394E-03
            2267     721.618E-06     15.7550E-03    -123.733E+06    -261.494E+06    -121.524E+06    -19.3397E+03    -220.649E-03     441.278E-03    -220.629E-03     1.90055E-03    -220.713E-03     440.326E-03    -220.678E-03     1.83487E-03
            2268     13.6703E-03     15.2131E-03    -6.09050E+06     84.0269E+06     100.456E+06     332.530E+03    -222.568E-03     446.830E-03    -224.262E-03     29.8136E-03    -223.032E-03     447.280E-03    -223.873E-03     25.4003E-03
            2269     12.9498E-03     15.1610E-03    -10.2493E+06     80.7804E+06     98.6701E+06    -16.4862E+03    -224.090E-03     448.375E-03    -224.286E-03     37.9548E-03    -224.627E-03     448.877E-03    -223.894E-03     32.9936E-03
            2270     12.2309E-03     15.0992E-03    -15.7996E+06     71.0741E+06     88.9538E+06     443.463E+03    -225.737E-03     449.931E-03    -224.193E-03     39.6386E-03    -226.263E-03     450.395E-03    -223.829E-03     35.0795E-03
            2271     11.5132E-03     15.0309E-03    -21.9355E+06     58.4920E+06     76.2157E+06     2.40050E+06    -227.068E-03     451.060E-03    -223.992E-03     39.4736E-03    -227.570E-03     451.470E-03    -223.664E-03     35.3272E-03
            2272     10.7965E-03     14.9594E-03    -28.0246E+06     51.1356E+06     65.7966E+06     2.93094E+06    -227.844E-03     451.545E-03    -223.701E-03     37.7216E-03    -228.322E-03     451.914E-03    -223.405E-03     34.0615E-03
            2273     10.0801E-03     14.8867E-03    -34.5629E+06     43.6907E+06     59.0199E+06     1.88860E+06    -228.177E-03     451.525E-03    -223.348E-03     35.0976E-03    -228.639E-03     451.849E-03    -223.066E-03     31.8873E-03
            2274     9.36383E-03     14.8148E-03    -40.7353E+06     15.5287E+06     49.9116E+06     1.20802E+06    -228.264E-03     451.203E-03    -222.940E-03     31.8847E-03    -228.676E-03     451.382E-03    -222.654E-03     29.1031E-03
            2275     8.64769E-03     14.7445E-03    -46.8605E+06    -26.0364E+06     37.0497E+06     574.908E+03    -228.125E-03     450.586E-03    -222.461E-03     28.2538E-03    -228.466E-03     450.562E-03    -222.171E-03     25.8630E-03
            2276     7.93121E-03     14.6769E-03    -53.9260E+06    -59.9662E+06     24.5133E+06    -3.97919E+03    -227.682E-03     449.592E-03    -221.910E-03     24.3940E-03    -227.972E-03     449.407E-03    -221.622E-03     22.3484E-03
            2277     7.21451E-03     14.6129E-03    -61.4746E+06    -87.8126E+06     11.9623E+06    -196.525E+03    -226.914E-03     448.210E-03    -221.296E-03     20.4838E-03    -227.166E-03     447.898E-03    -221.020E-03     18.7447E-03
            2278     6.49712E-03     14.5532E-03    -69.1326E+06    -112.528E+06    -1.19515E+06    -283.419E+03    -225.841E-03     446.481E-03    -220.640E-03     16.7185E-03    -226.063E-03     446.062E-03    -220.382E-03     15.2465E-03
            2279     5.77898E-03     14.4986E-03    -77.0420E+06    -135.533E+06    -15.4512E+06    -273.464E+03    -224.551E-03     444.513E-03    -219.962E-03     13.2854E-03    -224.748E-03     444.000E-03    -219.731E-03     12.0487E-03
            2280     5.05982E-03     14.4496E-03    -85.0225E+06    -157.313E+06    -30.7241E+06    -131.276E+03    -223.116E-03     442.404E-03    -219.288E-03     10.2828E-03    -223.291E-03     441.807E-03    -219.090E-03     9.25847E-03
            2281     4.33961E-03     14.4066E-03    -92.9726E+06    -178.639E+06    -47.1123E+06     103.554E+03    -221.646E-03     440.287E-03    -218.641E-03     7.72616E-03    -221.799E-03     439.612E-03    -218.482E-03     6.89242E-03
            2282     3.61837E-03     14.3696E-03    -100.741E+06    -199.776E+06    -64.5021E+06     303.257E+03    -220.237E-03     438.281E-03    -218.044E-03     5.64073E-03    -220.368E-03     437.531E-03    -217.930E-03     4.97818E-03
            2283     2.89606E-03     14.3392E-03    -108.026E+06    -220.104E+06    -81.6990E+06     421.835E+03    -218.958E-03     436.480E-03    -217.522E-03     3.98987E-03    -219.067E-03     435.660E-03    -217.455E-03     3.48196E-03
            2284     2.17288E-03     14.3154E-03    -114.246E+06    -237.022E+06    -97.7831E+06     501.360E+03    -217.904E-03     434.998E-03    -217.094E-03     2.65710E-03    -217.994E-03     434.123E-03    -217.073E-03     2.28750E-03
            2285     1.44898E-03     14.2981E-03    -119.192E+06    -250.984E+06    -111.430E+06     364.839E+03    -217.141E-03     433.914E-03    -216.773E-03     1.58377E-03    -217.214E-03     432.994E-03    -216.794E-03     1.33682E-03
            2286     724.614E-06     14.2875E-03    -122.608E+06    -261.300E+06    -120.547E+06     163.234E+03    -216.655E-03     433.240E-03    -216.585E-03     809.594E-06    -216.716E-03     432.286E-03    -216.631E-03     680.324E-06
            2287     13.6713E-03     13.7299E-03    -5.80355E+06     84.9554E+06     100.370E+06    -562.837E+03    -225.719E-03     449.821E-03    -224.102E-03     30.6886E-03    -226.193E-03     450.285E-03    -223.715E-03     26.1094E-03
            2288     12.9538E-03     13.6741E-03    -10.7122E+06     80.6225E+06     98.1385E+06    -1.87282E+06    -227.499E-03     451.433E-03    -223.934E-03     37.8948E-03    -228.051E-03     451.948E-03    -223.544E-03     32.6627E-03
            2289     12.2379E-03     13.6103E-03    -15.7847E+06     67.4460E+06     87.8825E+06    -419.500E+03    -229.103E-03     452.724E-03    -223.621E-03     38.7037E-03    -229.633E-03     453.183E-03    -223.256E-03     33.8641E-03
            2290     11.5230E-03     13.5412E-03    -21.1198E+06     55.1694E+06     75.9876E+06     1.18935E+06    -230.184E-03     453.365E-03    -223.180E-03     37.9337E-03    -230.687E-03     453.768E-03    -222.850E-03     33.4959E-03
            2291     10.8082E-03     13.4695E-03    -26.2673E+06     52.0056E+06     67.6754E+06     2.00270E+06    -230.699E-03     453.333E-03    -222.634E-03     35.5187E-03    -231.181E-03     453.711E-03    -222.333E-03     31.5581E-03
            2292     10.0939E-03     13.3977E-03    -31.6654E+06     46.2298E+06     61.5820E+06     1.65861E+06    -230.785E-03     452.787E-03    -222.002E-03     32.1688E-03    -231.248E-03     453.124E-03    -221.715E-03     28.6506E-03
            2293     9.37940E-03     13.3266E-03    -38.2826E+06     17.7829E+06     51.5630E+06     697.179E+03    -230.610E-03     451.897E-03    -221.287E-03     28.1697E-03    -231.023E-03     452.088E-03    -220.999E-03     25.0400E-03
            2294     8.66479E-03     13.2580E-03    -45.4592E+06    -24.4900E+06     37.9732E+06     483.300E+03    -230.091E-03     450.569E-03    -220.478E-03     23.7510E-03    -230.435E-03     450.555E-03    -220.187E-03     20.9719E-03
            2295     7.94987E-03     13.1925E-03    -52.5648E+06    -58.5828E+06     25.2485E+06     666.424E+03    -229.069E-03     448.648E-03    -219.579E-03     19.2526E-03    -229.360E-03     448.472E-03    -219.291E-03     16.7892E-03
            2296     7.23405E-03     13.1313E-03    -59.8480E+06    -86.8346E+06     12.4724E+06     613.114E+03    -227.575E-03     446.188E-03    -218.613E-03     14.9880E-03    -227.826E-03     445.883E-03    -218.338E-03     12.8018E-03
            2297     6.51716E-03     13.0750E-03    -67.5669E+06    -111.877E+06    -861.643E+03     707.728E+03    -225.704E-03     443.318E-03    -217.613E-03     11.1775E-03    -225.924E-03     442.903E-03    -217.358E-03     9.25144E-03
            2298     5.79875E-03     13.0241E-03    -75.6103E+06    -134.907E+06    -15.1094E+06     867.326E+03    -223.584E-03     440.196E-03    -216.612E-03     7.90787E-03    -223.779E-03     439.687E-03    -216.382E-03     6.22521E-03
            2299     5.07877E-03     12.9790E-03    -83.7708E+06    -156.771E+06    -30.3984E+06     975.583E+03    -221.365E-03     437.003E-03    -215.639E-03     5.24153E-03    -221.537E-03     436.409E-03    -215.442E-03     3.78910E-03
            2300     4.35714E-03     12.9397E-03    -91.9597E+06    -178.212E+06    -46.8769E+06     1.08205E+06    -219.161E-03     433.886E-03    -214.724E-03     3.20140E-03    -219.312E-03     433.213E-03    -214.567E-03     1.97349E-03
            2301     3.63383E-03     12.9065E-03    -99.8902E+06    -199.146E+06    -64.0729E+06     1.16044E+06    -217.092E-03     430.990E-03    -213.898E-03     1.71506E-03    -217.222E-03     430.243E-03    -213.785E-03     702.080E-06
            2302     2.90900E-03     12.8792E-03    -107.146E+06    -219.034E+06    -81.2524E+06     1.10404E+06    -215.288E-03     428.471E-03    -213.183E-03     723.629E-06    -215.396E-03     427.655E-03    -213.116E-03    -78.8545E-06
            2303     2.18295E-03     12.8579E-03    -113.485E+06    -236.048E+06    -97.2445E+06     859.008E+03    -213.817E-03     426.413E-03    -212.595E-03     160.999E-06    -213.906E-03     425.541E-03    -212.575E-03    -436.153E-06
            2304     1.45594E-03     12.8426E-03    -118.358E+06    -249.876E+06    -110.405E+06     714.199E+03    -212.720E-03     424.873E-03    -212.153E-03    -78.8643E-06    -212.792E-03     423.956E-03    -212.171E-03    -476.723E-06
            2305     728.188E-06     12.8332E-03    -121.341E+06    -259.952E+06    -119.342E+06     492.561E+03    -212.010E-03     423.890E-03    -211.880E-03    -142.957E-06    -212.068E-03     422.939E-03    -211.924E-03    -359.242E-06
            2306     13.6745E-03     12.2396E-03    -5.10327E+06     86.7132E+06     101.506E+06    -1.02074E+06    -229.482E-03     453.381E-03    -223.899E-03     30.9516E-03    -229.968E-03     453.863E-03    -223.510E-03     26.1159E-03
            2307     12.9603E-03     12.1824E-03    -11.2434E+06     80.0346E+06     97.9265E+06    -1.38515E+06    -231.216E-03     454.726E-03    -223.510E-03     38.1876E-03    -231.786E-03     455.257E-03    -223.120E-03     32.6778E-03
            2308     12.2465E-03     12.1177E-03    -18.0366E+06     65.5054E+06     86.2218E+06    -1.01441E+06    -232.683E-03     455.638E-03    -222.955E-03     38.5613E-03    -233.235E-03     456.109E-03    -222.592E-03     33.4322E-03
            2309     11.5335E-03     12.0479E-03    -23.2598E+06     53.8621E+06     74.5617E+06    -1.37698E+06    -233.678E-03     455.928E-03    -222.250E-03     36.8136E-03    -234.201E-03     456.344E-03    -221.921E-03     32.0319E-03
            2310     10.8214E-03     11.9770E-03    -27.8025E+06      50.757E+06     66.4517E+06    -1.24236E+06    -234.119E-03     455.526E-03    -221.407E-03     33.2785E-03    -234.618E-03     455.914E-03    -221.108E-03     28.9154E-03
            2311     10.1093E-03     11.9061E-03    -32.6366E+06     46.3358E+06     60.4792E+06    -473.570E+03    -234.052E-03     454.493E-03    -220.441E-03     28.7854E-03    -234.530E-03     454.844E-03    -220.158E-03     24.8149E-03
            2312     9.39734E-03     11.8372E-03    -38.2376E+06     19.0262E+06     51.1458E+06     402.600E+03    -233.457E-03     452.819E-03    -219.362E-03     23.7459E-03    -233.882E-03     453.028E-03    -219.078E-03     20.1206E-03
            2313     8.68497E-03     11.7711E-03    -44.7041E+06    -23.8618E+06     37.5009E+06     933.309E+03    -232.239E-03     450.413E-03    -218.174E-03     18.6802E-03    -232.589E-03     450.411E-03    -217.887E-03     15.3625E-03
            2314     7.97156E-03     11.7096E-03    -51.6904E+06    -57.8926E+06     24.5904E+06     1.32806E+06    -230.336E-03     447.234E-03    -216.899E-03     14.0064E-03    -230.631E-03     447.070E-03    -216.617E-03     10.9769E-03
            2315     7.25665E-03     11.6530E-03    -59.2771E+06    -86.1007E+06     11.7815E+06     1.81470E+06    -227.896E-03     443.473E-03    -215.577E-03     9.92329E-03    -228.152E-03     443.179E-03    -215.307E-03     7.17777E-03
            2316     6.53974E-03     11.6019E-03    -67.3093E+06    -111.012E+06    -1.42035E+06     2.18393E+06    -225.109E-03     439.358E-03    -214.249E-03     6.52049E-03    -225.334E-03     438.954E-03    -213.998E-03     4.05262E-03
            2317     5.82078E-03     11.5565E-03    -75.4118E+06    -133.776E+06    -15.3367E+06     2.31991E+06    -222.139E-03     435.090E-03    -212.951E-03     3.84175E-03    -222.339E-03     434.592E-03    -212.724E-03     1.64907E-03
            2318     5.09954E-03     11.5168E-03    -83.7435E+06    -155.661E+06    -30.4364E+06     2.30197E+06    -219.140E-03     430.857E-03    -211.717E-03     1.84687E-03    -219.318E-03     430.273E-03    -211.522E-03    -72.5920E-06
            2319     4.37601E-03     11.4829E-03    -92.0507E+06    -176.939E+06    -46.6790E+06     2.25473E+06    -216.265E-03     426.843E-03    -210.578E-03     456.980E-06    -216.421E-03     426.179E-03    -210.421E-03    -1.18837E-03
            2320     3.65037E-03     11.4545E-03    -99.9122E+06    -197.781E+06    -63.5921E+06     2.08531E+06    -213.655E-03     423.214E-03    -209.559E-03    -416.919E-06    -213.789E-03     422.475E-03    -209.445E-03    -1.78709E-03
            2321     2.92288E-03     11.4314E-03    -107.028E+06    -217.125E+06    -80.5229E+06     1.69299E+06    -211.387E-03     420.067E-03    -208.680E-03    -863.875E-06    -211.499E-03     419.261E-03    -208.612E-03    -1.96119E-03
            2322     2.19368E-03     11.4137E-03    -113.114E+06    -234.242E+06    -96.5418E+06     1.19914E+06    -209.522E-03     417.484E-03    -207.963E-03    -963.908E-06    -209.613E-03     416.621E-03    -207.942E-03    -1.78969E-03
            2323     1.46317E-03     11.4009E-03    -117.881E+06    -248.466E+06    -109.949E+06     688.326E+03    -208.140E-03     415.569E-03    -207.429E-03    -801.251E-06    -208.213E-03     414.659E-03    -207.448E-03    -1.35872E-03
            2324     731.801E-06     11.3931E-03    -121.551E+06    -258.394E+06    -118.601E+06     321.594E+03    -207.334E-03     414.374E-03    -207.040E-03    -510.542E-06    -207.397E-03     413.430E-03    -207.082E-03    -816.541E-06
            2325     13.6781E-03     10.7450E-03    -4.97456E+06     87.3326E+06     101.601E+06    -418.867E+03    -233.224E-03     456.898E-03    -223.674E-03     32.4825E-03    -233.727E-03     457.399E-03    -223.285E-03     27.4337E-03
            2326     12.9653E-03     10.6861E-03    -11.5323E+06     80.8531E+06     97.5818E+06    -38.0126E+03    -235.153E-03     458.212E-03    -223.059E-03     39.3404E-03    -235.744E-03     458.767E-03    -222.672E-03     33.6141E-03
            2327     12.2547E-03     10.6200E-03    -17.1692E+06     67.0796E+06     87.7734E+06    -1.74775E+06    -237.041E-03     459.283E-03    -222.242E-03     38.2464E-03    -237.611E-03     459.775E-03    -221.875E-03     32.7776E-03
            2328     11.5453E-03     10.5505E-03    -22.5942E+06     54.8964E+06     75.5824E+06    -3.15660E+06    -238.095E-03     459.310E-03    -221.215E-03     34.7369E-03    -238.634E-03     459.746E-03    -220.884E-03     29.4845E-03
            2329     10.8361E-03     10.4804E-03    -28.2385E+06     49.9507E+06     64.6831E+06    -3.65253E+06    -238.307E-03     458.310E-03    -220.004E-03     29.7736E-03    -238.819E-03     458.713E-03    -219.712E-03     24.8497E-03
            2330     10.1274E-03     10.4116E-03    -33.8104E+06     43.7270E+06     57.4738E+06    -3.13481E+06    -237.668E-03     456.318E-03    -218.650E-03     24.2780E-03    -238.157E-03     456.676E-03    -218.377E-03     19.6642E-03
            2331     9.41819E-03     10.3458E-03    -39.4526E+06     16.4130E+06     48.2262E+06    -1.16504E+06    -236.122E-03     453.308E-03    -217.186E-03     18.8761E-03    -236.558E-03     453.523E-03    -216.912E-03     14.5779E-03
            2332     8.70765E-03     10.2848E-03    -45.7406E+06    -24.8483E+06     35.0696E+06     1.23137E+06    -233.764E-03     449.402E-03    -215.638E-03     14.0517E-03    -234.127E-03     449.414E-03    -215.360E-03     10.0863E-03
            2333     7.99512E-03     10.2290E-03    -53.1800E+06    -57.9457E+06     22.5460E+06     2.72095E+06    -230.745E-03     444.790E-03    -214.044E-03     9.99844E-03    -231.057E-03     444.642E-03    -213.771E-03     6.36244E-03
            2334     7.28022E-03     10.1791E-03    -61.0291E+06    -85.3713E+06     10.2982E+06     3.43725E+06    -227.292E-03     439.743E-03    -212.451E-03     6.78058E-03    -227.566E-03     439.468E-03    -212.187E-03     3.47331E-03
            2335     6.56273E-03     10.1350E-03    -68.7377E+06    -109.597E+06    -2.28084E+06     3.58913E+06    -223.611E-03     434.511E-03    -210.900E-03     4.38926E-03    -223.853E-03     434.128E-03    -210.653E-03     1.41457E-03
            2336     5.84236E-03     10.0968E-03      -76.73E+06    -132.141E+06    -15.6771E+06     3.47698E+06    -219.907E-03     429.336E-03    -209.429E-03     2.72883E-03    -220.124E-03     428.856E-03    -209.205E-03     92.1044E-06
            2337     5.11921E-03     10.0640E-03    -84.9928E+06    -153.807E+06    -30.2279E+06     3.23063E+06    -216.353E-03     424.418E-03    -208.065E-03     1.64324E-03    -216.547E-03     423.852E-03    -207.870E-03    -652.756E-06
            2338     4.39345E-03     10.0365E-03    -93.0713E+06    -174.958E+06    -45.7273E+06     2.85058E+06    -213.082E-03     419.914E-03    -206.832E-03     980.992E-06    -213.254E-03     419.267E-03    -206.672E-03    -972.946E-06
            2339     3.66527E-03     10.0138E-03    -100.754E+06    -195.210E+06    -62.1559E+06     2.16159E+06    -210.176E-03     415.923E-03    -205.746E-03     616.398E-06    -210.325E-03     415.201E-03    -205.628E-03    -1.00015E-03
            2340     2.93493E-03     9.99574E-03    -107.819E+06    -214.881E+06    -79.0817E+06     1.24688E+06    -207.707E-03     412.531E-03    -204.823E-03     428.081E-06    -207.832E-03     411.738E-03    -204.751E-03    -861.327E-06
            2341     2.20287E-03     9.98197E-03    -113.954E+06    -232.460E+06    -95.3250E+06     633.223E+03    -205.729E-03     409.807E-03    -204.077E-03     313.945E-06    -205.831E-03     408.954E-03    -204.052E-03    -651.030E-06
            2342     1.46943E-03     9.97228E-03    -118.841E+06    -247.105E+06    -109.490E+06     279.872E+03    -204.275E-03     407.795E-03    -203.521E-03     205.048E-06    -204.355E-03     406.893E-03    -203.537E-03    -441.808E-06
            2343     734.982E-06     9.96632E-03    -122.220E+06    -257.649E+06    -119.485E+06     10.2021E+03    -203.386E-03     406.536E-03    -203.150E-03     126.659E-06    -203.451E-03     405.599E-03    -203.197E-03    -222.595E-06
            2344     13.6801E-03     9.24525E-03    -5.46129E+06     87.2578E+06     102.759E+06     47.0648E+03    -237.998E-03     461.462E-03    -223.464E-03     33.5767E-03    -238.523E-03     461.979E-03    -223.069E-03     28.2287E-03
            2345     12.9715E-03     9.18397E-03    -11.8790E+06     82.1507E+06     98.1169E+06    -244.105E+03    -240.450E-03     463.004E-03    -222.554E-03     38.5863E-03    -241.066E-03     463.585E-03    -222.165E-03     32.4116E-03
            2346     12.2645E-03     9.11581E-03    -18.2140E+06     71.8514E+06     85.4900E+06    -1.95667E+06    -242.194E-03     463.574E-03    -221.379E-03     35.5034E-03    -242.792E-03     464.114E-03    -221.030E-03     29.4736E-03
            2347     11.5589E-03     9.04708E-03    -24.2479E+06     58.3026E+06     71.8686E+06    -4.41975E+06    -242.942E-03     462.921E-03    -219.979E-03     30.8735E-03    -243.507E-03     463.400E-03    -219.670E-03     24.9619E-03
            2348     10.8540E-03     8.97900E-03    -29.0401E+06     48.7826E+06     62.3853E+06    -5.32741E+06    -242.407E-03     460.804E-03    -218.397E-03     25.3960E-03    -242.937E-03     461.224E-03    -218.114E-03     19.7504E-03
            2349     10.1482E-03     8.91413E-03    -34.7215E+06     39.0763E+06     54.3675E+06    -3.74545E+06    -240.464E-03     457.146E-03    -216.682E-03     19.9722E-03    -240.965E-03     457.505E-03    -216.416E-03     14.6463E-03
            2350     9.44062E-03     8.85446E-03    -42.2078E+06     11.0316E+06     43.9105E+06    -486.941E+03    -237.486E-03     452.392E-03    -214.906E-03     15.2576E-03    -237.939E-03     452.608E-03    -214.641E-03     10.3102E-03
            2351     8.73062E-03     8.80063E-03    -50.1741E+06    -27.2402E+06     31.6052E+06     2.21621E+06    -233.797E-03     446.915E-03    -213.117E-03     11.4974E-03    -234.190E-03     446.941E-03    -212.847E-03     6.95372E-03
            2352     8.01777E-03     8.75293E-03    -57.4930E+06    -57.8170E+06     20.3903E+06     3.38707E+06    -229.605E-03     440.961E-03    -211.356E-03     8.78761E-03    -229.950E-03     440.838E-03    -211.087E-03     4.65449E-03
            2353     7.30173E-03     8.71140E-03    -64.3460E+06    -83.9883E+06     9.47329E+06     3.59522E+06    -225.220E-03     434.890E-03    -209.671E-03     7.05834E-03    -225.525E-03     434.642E-03    -209.408E-03     3.34553E-03
            2354     6.58228E-03     8.67581E-03    -71.5245E+06    -107.879E+06    -1.90056E+06     3.41366E+06    -220.903E-03     429.000E-03    -208.097E-03     6.07843E-03    -221.176E-03     428.642E-03    -207.847E-03     2.79394E-03
            2355     5.85964E-03     8.64564E-03    -78.7729E+06    -130.027E+06    -13.9705E+06     3.04334E+06    -216.832E-03     423.492E-03    -206.660E-03     5.57566E-03    -217.077E-03     423.036E-03    -206.427E-03     2.72067E-03
            2356     5.13397E-03     8.62040E-03    -85.8608E+06    -151.378E+06    -27.1421E+06     2.37662E+06    -213.143E-03     418.517E-03    -205.373E-03     5.31994E-03    -213.360E-03     417.970E-03    -205.165E-03     2.88518E-03
            2357     4.40560E-03     8.59957E-03    -92.9658E+06    -172.342E+06    -41.6623E+06     1.38113E+06    -209.906E-03     414.151E-03    -204.245E-03     5.12198E-03    -210.095E-03     413.519E-03    -204.069E-03     3.08839E-03
            2358     3.67489E-03     8.58277E-03    -99.9436E+06    -192.673E+06    -57.6910E+06     335.439E+03    -207.153E-03     410.431E-03    -203.279E-03     4.82157E-03    -207.314E-03     409.721E-03    -203.143E-03     3.16759E-03
            2359     2.94223E-03     8.56959E-03    -106.625E+06    -213.177E+06    -74.9773E+06    -419.192E+03    -204.916E-03     407.394E-03    -202.478E-03     4.30958E-03    -205.047E-03     406.607E-03    -202.389E-03     3.01499E-03
            2360     2.20798E-03     8.55967E-03    -112.859E+06    -231.994E+06    -92.4894E+06    -804.590E+03    -203.201E-03     405.043E-03    -201.842E-03     3.55384E-03    -203.304E-03     404.190E-03    -201.804E-03     2.59936E-03
            2361     1.47262E-03     8.55277E-03    -117.928E+06    -247.357E+06    -107.814E+06    -811.803E+03    -201.988E-03     403.360E-03    -201.372E-03     2.56947E-03    -202.067E-03     402.455E-03    -201.381E-03     1.93619E-03
            2362     736.519E-06     8.54869E-03    -120.946E+06    -258.438E+06    -118.193E+06    -439.425E+03    -201.208E-03     402.318E-03    -201.109E-03     1.44985E-03    -201.268E-03     401.373E-03    -201.150E-03     1.11180E-03
            2363     13.6834E-03     7.73629E-03    -6.40237E+06     87.3921E+06     103.995E+06     93.4457E+03    -244.171E-03     467.356E-03    -223.185E-03     33.0154E-03    -244.718E-03     467.889E-03    -222.782E-03     27.2875E-03
            2364     12.9801E-03     7.67240E-03    -10.9732E+06     84.3872E+06     101.916E+06    -1.31423E+06    -246.565E-03     468.491E-03    -221.926E-03     37.0318E-03    -247.213E-03     469.104E-03    -221.523E-03     30.2173E-03
            2365     12.2781E-03     7.60575E-03    -16.3895E+06     74.5394E+06     88.3843E+06    -1.06115E+06    -247.628E-03     467.998E-03    -220.370E-03     32.8759E-03    -248.250E-03     468.571E-03    -220.012E-03     26.1954E-03
            2366     11.5760E-03     7.53796E-03    -23.7608E+06     62.7097E+06     69.8699E+06    -1.60397E+06    -247.147E-03     465.729E-03    -218.581E-03     27.4698E-03    -247.736E-03     466.254E-03    -218.289E-03     20.9298E-03
            2367     10.8734E-03     7.47427E-03    -32.5480E+06     49.3816E+06     56.6895E+06    -3.26895E+06    -244.947E-03     461.624E-03    -216.677E-03     22.0356E-03    -245.508E-03     462.081E-03    -216.418E-03     15.7468E-03
            2368     10.1689E-03     7.41672E-03    -40.7096E+06     32.7515E+06     49.0343E+06    -2.19361E+06    -241.265E-03     456.007E-03    -214.741E-03     17.5427E-03    -241.798E-03     456.369E-03    -214.485E-03     11.6581E-03
            2369     9.46138E-03     7.36557E-03    -47.6481E+06     6.70228E+06     41.2853E+06     364.792E+03    -236.672E-03     449.507E-03    -212.836E-03     14.3119E-03    -237.158E-03     449.729E-03    -212.570E-03     8.92753E-03
            2370     8.75044E-03     7.32113E-03    -53.6873E+06    -27.8517E+06     31.8973E+06     1.40645E+06    -231.641E-03     442.657E-03    -211.016E-03     12.4443E-03    -232.067E-03     442.701E-03    -210.738E-03     7.58883E-03
            2371     8.03557E-03     7.28338E-03    -59.4692E+06    -57.1673E+06     22.6671E+06     1.50476E+06    -226.548E-03     435.869E-03    -209.321E-03     11.6831E-03    -226.922E-03     435.764E-03    -209.039E-03     7.37699E-03
            2372     7.31671E-03     7.25149E-03    -65.4908E+06    -82.3847E+06     13.4074E+06     1.27874E+06    -221.711E-03     429.494E-03    -207.783E-03     11.5460E-03    -222.044E-03     429.263E-03    -207.501E-03     7.79175E-03
            2373     6.59432E-03     7.22478E-03    -71.4693E+06    -105.656E+06     3.57598E+06     450.622E+03    -217.325E-03     423.740E-03    -206.415E-03     11.6419E-03    -217.620E-03     423.396E-03    -206.140E-03     8.41208E-03
            2374     5.86868E-03     7.20265E-03    -77.3085E+06    -127.771E+06    -7.33270E+06    -772.451E+03    -213.485E-03     418.703E-03    -205.219E-03     11.6986E-03    -213.743E-03     418.255E-03    -204.958E-03     8.95909E-03
            2375     5.14031E-03     7.18441E-03    -83.0102E+06    -149.327E+06    -20.0400E+06    -1.92557E+06    -210.210E-03     414.398E-03    -204.188E-03     11.5067E-03    -210.432E-03     413.854E-03    -203.951E-03     9.22034E-03
            2376     4.40964E-03     7.16957E-03    -88.7329E+06    -170.674E+06    -35.4174E+06    -2.89908E+06    -207.500E-03     410.813E-03    -203.313E-03     10.9395E-03    -207.683E-03     410.178E-03    -203.113E-03     9.06461E-03
            2377     3.67712E-03     7.15770E-03    -94.6805E+06    -192.584E+06    -53.1218E+06    -3.26208E+06    -205.339E-03     407.923E-03    -202.584E-03     9.94394E-03    -205.483E-03     407.201E-03    -202.433E-03     8.44537E-03
            2378     2.94319E-03     7.14841E-03    -100.759E+06    -214.390E+06    -71.5028E+06    -2.71133E+06    -203.676E-03     405.674E-03    -201.997E-03     8.52262E-03    -203.783E-03     404.869E-03    -201.898E-03     7.37270E-03
            2379     2.20825E-03     7.14148E-03    -106.490E+06    -233.737E+06    -88.9758E+06    -1.76253E+06    -202.450E-03     403.994E-03    -201.543E-03     6.73347E-03    -202.525E-03     403.118E-03    -201.495E-03     5.90229E-03
            2380     1.47254E-03     7.13663E-03    -111.431E+06    -249.218E+06    -103.484E+06    -878.929E+03    -201.615E-03     402.834E-03    -201.219E-03     4.68579E-03    -201.665E-03     401.904E-03    -201.213E-03     4.14391E-03
            2381     736.383E-06     7.13375E-03    -114.967E+06    -260.137E+06    -112.793E+06    -373.351E+03    -201.086E-03     402.150E-03    -201.064E-03     2.59040E-03    -201.122E-03     401.181E-03    -201.084E-03     2.30222E-03
            2382     13.6899E-03     6.21806E-03    -5.70782E+06     89.1185E+06     105.043E+06    -127.757E+03    -250.573E-03     473.411E-03    -222.838E-03     34.2723E-03    -251.144E-03     473.974E-03    -222.434E-03     28.1716E-03
            2383     12.9900E-03     6.15348E-03    -11.3096E+06     84.8186E+06     101.672E+06    -902.327E+03    -252.490E-03     473.714E-03    -221.224E-03     37.5215E-03    -253.175E-03     474.365E-03    -220.822E-03     30.1720E-03
            2384     12.2914E-03     6.08755E-03    -17.8500E+06     73.0512E+06     90.5610E+06    -1.06450E+06    -252.538E-03     471.871E-03    -219.333E-03     31.9024E-03    -253.200E-03     472.467E-03    -218.960E-03     24.6161E-03
            2385     11.5929E-03     6.02530E-03    -22.8763E+06     62.0166E+06     73.7722E+06     313.568E+03    -249.813E-03     467.068E-03    -217.255E-03     25.8480E-03    -250.426E-03     467.607E-03    -216.943E-03     18.7862E-03
            2386     10.8915E-03     5.96994E-03    -29.3934E+06     49.8825E+06     59.3589E+06     2.48985E+06    -245.016E-03     460.186E-03    -215.169E-03     21.0451E-03    -245.581E-03     460.653E-03    -214.902E-03     14.4717E-03
            2387     10.1863E-03     5.92230E-03    -37.5858E+06     34.0065E+06     54.2502E+06     1.82558E+06    -239.211E-03     452.432E-03    -213.220E-03     18.4483E-03    -239.748E-03     452.799E-03    -212.944E-03     12.4848E-03
            2388     9.47681E-03     5.88236E-03    -45.1974E+06     7.43452E+06     47.9868E+06    -637.094E+03    -233.181E-03     444.613E-03    -211.433E-03     17.6814E-03    -233.674E-03     444.834E-03    -211.138E-03     12.3877E-03
            2389     8.76240E-03     5.84937E-03    -51.4708E+06    -26.8087E+06     39.1023E+06    -1.71370E+06    -227.471E-03     437.301E-03    -209.830E-03     17.8527E-03    -227.902E-03     437.342E-03    -209.521E-03     13.2600E-03
            2390     8.04361E-03     5.82198E-03    -57.0839E+06    -55.5245E+06     30.6241E+06    -2.70654E+06    -222.346E-03     430.769E-03    -208.423E-03     18.2644E-03    -222.725E-03     430.660E-03    -208.106E-03     14.3369E-03
            2391     7.32125E-03     5.79932E-03    -61.9127E+06    -80.2159E+06     21.6890E+06    -4.43069E+06    -217.909E-03     425.112E-03    -207.203E-03     18.5162E-03    -218.238E-03     424.875E-03    -206.889E-03     15.1832E-03
            2392     6.59570E-03     5.78064E-03    -65.9920E+06    -103.385E+06     10.9888E+06    -6.32311E+06    -214.175E-03     420.333E-03    -206.158E-03     18.3852E-03    -214.454E-03     419.979E-03    -205.857E-03     15.5755E-03
            2393     5.86766E-03     5.76514E-03    -69.9299E+06    -126.651E+06    -2.31593E+06    -7.85658E+06    -211.114E-03     416.382E-03    -205.268E-03     17.7558E-03    -211.340E-03     415.918E-03    -204.995E-03     15.4032E-03
            2394     5.13761E-03     5.75244E-03    -74.1336E+06    -150.132E+06    -18.0478E+06    -8.41432E+06    -208.652E-03     413.171E-03    -204.519E-03     16.6099E-03    -208.827E-03     412.602E-03    -204.284E-03     14.6622E-03
            2395     4.40598E-03     5.74204E-03    -78.8731E+06    -173.290E+06    -35.4533E+06    -7.61224E+06    -206.712E-03     410.609E-03    -203.896E-03     14.9839E-03    -206.839E-03     409.943E-03    -203.708E-03     13.4036E-03
            2396     3.67318E-03     5.73364E-03    -84.1737E+06    -197.086E+06    -53.4370E+06    -5.70320E+06    -205.223E-03     408.612E-03    -203.389E-03     12.9566E-03    -205.304E-03     407.850E-03    -203.249E-03     11.7110E-03
            2397     2.93949E-03     5.72702E-03    -89.5851E+06    -219.451E+06    -70.1781E+06    -3.23334E+06    -204.105E-03     407.094E-03    -202.989E-03     10.6375E-03    -204.148E-03     406.244E-03    -202.892E-03     9.69693E-03
            2398     2.20513E-03     5.72201E-03    -94.5446E+06    -237.699E+06    -83.8860E+06    -882.267E+03    -203.295E-03     405.983E-03    -202.687E-03     8.12748E-03    -203.310E-03     405.061E-03    -202.625E-03     7.46272E-03
            2399     1.47035E-03     5.71854E-03    -98.5575E+06    -250.844E+06    -93.7007E+06     701.076E+03    -202.744E-03     405.220E-03    -202.476E-03     5.51645E-03    -202.741E-03     404.248E-03    -202.438E-03     5.09631E-03
            2400     735.234E-06     5.71642E-03    -101.189E+06    -259.310E+06    -100.014E+06     991.731E+03    -202.348E-03     404.765E-03    -202.417E-03     2.99154E-03    -202.334E-03     403.761E-03    -202.395E-03     2.77462E-03
            2401     13.6929E-03     4.69168E-03    -5.28734E+06     88.8317E+06     104.359E+06     1.03934E+06    -257.457E-03     480.075E-03    -222.617E-03     39.5530E-03    -258.067E-03     480.678E-03    -222.217E-03     33.1384E-03
            2402     12.9980E-03     4.62546E-03    -11.7463E+06     84.8638E+06     99.8696E+06     583.029E+03    -258.626E-03     479.267E-03    -220.641E-03     39.5838E-03    -259.356E-03     479.968E-03    -220.248E-03     31.7342E-03
            2403     12.3038E-03     4.56371E-03    -18.5867E+06     75.2295E+06     89.5480E+06    -1.13826E+06    -255.409E-03     473.877E-03    -218.468E-03     31.6523E-03    -256.100E-03     474.511E-03    -218.102E-03     23.9788E-03
            2404     11.6062E-03     4.51169E-03    -24.9304E+06     58.8681E+06     76.4874E+06    -1.58613E+06    -249.137E-03     465.446E-03    -216.309E-03     26.6829E-03    -249.763E-03     465.971E-03    -215.975E-03     19.6090E-03
            2405     10.9036E-03     4.46940E-03    -29.0176E+06     45.7490E+06     65.8352E+06     633.981E+03    -241.820E-03     456.135E-03    -214.316E-03     24.5638E-03    -242.375E-03     456.561E-03    -214.011E-03     18.4390E-03
            2406     10.1949E-03     4.43538E-03    -32.8888E+06     39.1801E+06     62.4296E+06     1.93536E+06    -234.683E-03     447.263E-03    -212.580E-03     24.2095E-03    -235.198E-03     447.620E-03    -212.277E-03     19.0384E-03
            2407     9.48031E-03     4.40801E-03    -39.0084E+06     13.8571E+06     55.6891E+06    -432.220E+03    -228.497E-03     439.595E-03    -211.099E-03     24.3655E-03    -228.957E-03     439.806E-03    -210.784E-03     20.0219E-03
            2408     8.76166E-03     4.38558E-03    -45.7086E+06    -22.2080E+06     43.9511E+06    -4.79267E+06    -223.367E-03     433.197E-03    -209.831E-03     24.3384E-03    -223.758E-03     433.221E-03    -209.513E-03     20.6778E-03
            2409     8.03973E-03     4.36714E-03    -50.2410E+06    -51.2012E+06     31.9770E+06    -9.15247E+06    -219.117E-03     427.861E-03    -208.744E-03     23.8722E-03    -219.445E-03     427.736E-03    -208.437E-03     20.7762E-03
            2410     7.31492E-03     4.35192E-03    -53.3413E+06    -77.7742E+06     18.3732E+06    -12.5694E+06    -215.658E-03     423.471E-03    -207.814E-03     22.9025E-03    -215.920E-03     423.215E-03    -207.532E-03     20.2787E-03
            2411     6.58805E-03     4.33920E-03    -56.2281E+06    -103.717E+06     3.46164E+06    -14.1876E+06    -212.874E-03     419.897E-03    -207.023E-03     21.4523E-03    -213.073E-03     419.518E-03    -206.774E-03     19.2354E-03
            2412     5.85941E-03     4.32862E-03    -59.6607E+06    -130.022E+06    -12.7063E+06    -13.7869E+06    -210.650E-03     417.005E-03    -206.355E-03     19.6015E-03    -210.789E-03     416.508E-03    -206.144E-03     17.7458E-03
            2413     5.12944E-03     4.31978E-03    -64.0237E+06    -156.208E+06    -28.8879E+06    -11.7147E+06    -208.890E-03     414.686E-03    -205.796E-03     17.4502E-03    -208.976E-03     414.074E-03    -205.621E-03     15.9211E-03
            2414     4.39842E-03     4.31246E-03    -68.9952E+06    -181.398E+06    -43.9042E+06    -8.47088E+06    -207.500E-03     412.835E-03    -205.335E-03     15.0982E-03    -207.543E-03     412.117E-03    -205.192E-03     13.8686E-03
            2415     3.66654E-03     4.30648E-03    -73.9170E+06    -205.398E+06    -56.7856E+06    -4.67797E+06    -206.410E-03     411.374E-03    -204.964E-03     12.6288E-03    -206.416E-03     410.553E-03    -204.843E-03     11.6743E-03
            2416     2.93400E-03     4.30173E-03    -78.4296E+06    -226.246E+06    -67.3009E+06    -1.15886E+06    -205.570E-03     410.242E-03    -204.672E-03     10.1047E-03    -205.547E-03     409.333E-03    -204.567E-03     9.39892E-03
            2417     2.20095E-03     4.29812E-03    -82.3033E+06    -241.320E+06    -75.6774E+06     1.36357E+06    -204.944E-03     409.391E-03    -204.447E-03     7.57063E-03    -204.902E-03     408.419E-03    -204.356E-03     7.08319E-03
            2418     1.46750E-03     4.29555E-03    -85.0726E+06    -250.054E+06    -81.9152E+06     2.26893E+06    -204.505E-03     408.786E-03    -204.282E-03     5.07586E-03    -204.451E-03     407.780E-03    -204.205E-03     4.77171E-03
            2419     733.845E-06     4.29405E-03    -86.5809E+06    -254.842E+06    -85.8464E+06      1.7911E+06    -204.140E-03     408.416E-03    -204.276E-03     2.74306E-03    -204.079E-03     407.392E-03    -204.210E-03     2.58791E-03
            2420     13.6914E-03     3.15036E-03    -5.55182E+06     86.7874E+06     103.532E+06     636.052E+03    -266.266E-03     489.095E-03    -222.829E-03     49.8440E-03    -266.926E-03     489.743E-03    -222.429E-03     43.2594E-03
            2421     13.0034E-03     3.08632E-03    -9.28679E+06     86.7231E+06     101.946E+06     609.630E+03    -263.565E-03     484.080E-03    -220.515E-03     43.9830E-03    -264.307E-03     484.803E-03    -220.118E-03     36.1963E-03
            2422     12.3105E-03     3.03941E-03    -15.4891E+06     77.7616E+06     90.3572E+06     1.74026E+06    -255.097E-03     473.305E-03    -218.208E-03     34.6744E-03    -255.736E-03     473.905E-03    -217.846E-03     27.8991E-03
            2423     11.6098E-03     3.00406E-03    -24.4120E+06     62.7727E+06     74.4542E+06     1.11139E+06    -245.590E-03     461.742E-03    -216.152E-03     31.1045E-03    -246.149E-03     462.223E-03    -215.835E-03     25.5706E-03
            2424     10.9017E-03     2.97755E-03    -32.5480E+06     46.5171E+06     57.5226E+06    -2.52410E+06    -237.570E-03     451.964E-03    -214.394E-03     29.4064E-03    -238.062E-03     452.340E-03    -214.127E-03     24.9402E-03
            2425     10.1882E-03     2.95664E-03    -37.3285E+06     37.6547E+06     46.2984E+06    -3.61119E+06    -231.035E-03     443.951E-03    -212.916E-03     27.9453E-03    -231.479E-03     444.263E-03    -212.685E-03     24.3369E-03
            2426     9.47125E-03     2.93952E-03    -39.4330E+06     20.8146E+06     35.4320E+06    -4.28752E+06    -225.797E-03     437.471E-03    -211.674E-03     26.2542E-03    -226.179E-03     437.684E-03    -211.470E-03     23.3201E-03
            2427     8.75115E-03     2.92550E-03    -41.1338E+06    -12.2764E+06     20.0405E+06    -9.41582E+06    -221.654E-03     432.272E-03    -210.618E-03     24.4658E-03    -221.949E-03     432.320E-03    -210.440E-03     21.9897E-03
            2428     8.02837E-03     2.91394E-03    -43.4765E+06    -46.3585E+06     5.68296E+06    -14.7154E+06    -218.326E-03     428.049E-03    -209.723E-03     22.5286E-03    -218.545E-03     427.933E-03    -209.565E-03     20.3930E-03
            2429     7.30373E-03     2.90420E-03    -46.5782E+06    -78.1467E+06    -8.61127E+06    -16.7442E+06    -215.627E-03     424.582E-03    -208.955E-03     20.4422E-03    -215.779E-03     424.317E-03    -208.817E-03     18.6084E-03
            2430     6.57733E-03     2.89605E-03    -50.7740E+06    -109.299E+06    -22.1171E+06    -15.8727E+06    -213.425E-03     421.726E-03    -208.301E-03     18.2705E-03    -213.523E-03     421.320E-03    -208.179E-03     16.7157E-03
            2431     5.84959E-03     2.88915E-03    -55.8146E+06    -138.779E+06    -34.0639E+06    -12.8947E+06    -211.623E-03     419.369E-03    -207.747E-03     16.0685E-03    -211.677E-03     418.831E-03    -207.635E-03     14.7762E-03
            2432     5.12070E-03     2.88335E-03    -60.9964E+06    -166.010E+06    -44.4043E+06    -9.11249E+06    -210.141E-03     417.421E-03    -207.280E-03     13.8892E-03    -210.160E-03     416.763E-03    -207.173E-03     12.8378E-03
            2433     4.39082E-03     2.87851E-03    -65.6547E+06    -191.215E+06    -52.8394E+06    -5.31123E+06    -208.931E-03     415.824E-03    -206.893E-03     11.7608E-03    -208.919E-03     415.052E-03    -206.784E-03     10.9265E-03
            2434     3.66018E-03     2.87457E-03    -69.5771E+06    -213.772E+06    -59.3057E+06    -1.79936E+06    -207.957E-03     414.535E-03    -206.578E-03     9.68721E-03    -207.918E-03     413.661E-03    -206.463E-03     9.04894E-03
            2435     2.92888E-03     2.87141E-03    -72.8610E+06    -231.825E+06    -64.3870E+06     1.10939E+06    -207.188E-03     413.512E-03    -206.324E-03     7.66668E-03    -207.128E-03     412.557E-03    -206.204E-03     7.20378E-03
            2436     2.19710E-03     2.86901E-03    -75.4040E+06    -242.169E+06    -69.4086E+06     2.69378E+06    -206.594E-03     412.710E-03    -206.116E-03     5.70711E-03    -206.522E-03     411.712E-03    -206.003E-03     5.39203E-03
            2437     1.46496E-03     2.86733E-03    -77.1243E+06    -246.680E+06    -74.1331E+06     2.61864E+06    -206.169E-03     412.127E-03    -205.958E-03     3.81219E-03    -206.090E-03     411.114E-03    -205.859E-03     3.61433E-03
            2438     732.503E-06     2.86633E-03    -78.1926E+06    -249.101E+06    -77.4195E+06     1.66700E+06    -205.794E-03     411.774E-03    -205.980E-03     2.05316E-03    -205.712E-03     410.755E-03    -205.892E-03     1.95055E-03
            2439     13.6808E-03     1.59128E-03    -4.17962E+06     87.0015E+06     105.633E+06    -1.34659E+06    -282.106E-03     505.878E-03    -223.772E-03     53.7818E-03    -282.709E-03     506.470E-03    -223.364E-03     48.1651E-03
            2440     12.9951E-03     1.54140E-03    -9.83913E+06     83.8122E+06     100.714E+06     1.22461E+06    -266.942E-03     487.944E-03    -221.002E-03     37.4392E-03    -267.504E-03     488.480E-03    -220.605E-03     32.4401E-03
            2441     12.3007E-03     1.51936E-03    -16.2234E+06     75.9682E+06     85.0316E+06     3.77471E+06    -253.545E-03     472.203E-03    -218.658E-03     27.9105E-03    -254.010E-03     472.636E-03    -218.319E-03     24.2362E-03
            2442     11.5971E-03     1.50288E-03    -21.2561E+06     68.3835E+06     64.4771E+06     3.67025E+06    -243.600E-03     460.304E-03    -216.704E-03     24.4633E-03    -244.000E-03     460.685E-03    -216.450E-03     21.7175E-03
            2443     10.8883E-03     1.48973E-03    -26.2448E+06     55.9348E+06     39.3490E+06     220.404E+03    -236.160E-03     451.209E-03    -215.049E-03     21.4987E-03    -236.498E-03     451.540E-03    -214.896E-03     19.3281E-03
            2444     10.1759E-03     1.47924E-03    -31.5012E+06     39.9814E+06     14.8757E+06    -4.99964E+06    -230.420E-03     444.064E-03    -213.645E-03     19.0825E-03    -230.706E-03     444.339E-03    -213.583E-03     17.2721E-03
            2445     9.45936E-03     1.47097E-03    -35.3587E+06     23.7293E+06    -5.70979E+06    -8.01008E+06    -225.809E-03     438.259E-03    -212.450E-03     16.9953E-03    -226.048E-03     438.474E-03    -212.462E-03     15.4792E-03
            2446     8.73989E-03     1.46403E-03    -38.5496E+06    -4.45718E+06    -23.4126E+06    -9.95648E+06    -222.101E-03     433.545E-03    -211.444E-03     15.0960E-03    -222.280E-03     433.640E-03    -211.499E-03     13.8091E-03
            2447     8.01825E-03     1.45820E-03    -42.8478E+06    -44.4091E+06    -33.9836E+06    -12.1410E+06    -219.094E-03     429.719E-03    -210.624E-03     13.3564E-03    -219.215E-03     429.628E-03    -210.668E-03     12.2329E-03
            2448     7.29448E-03     1.45337E-03    -48.2423E+06    -83.0689E+06    -40.7610E+06    -11.8040E+06    -216.601E-03     426.534E-03    -209.934E-03     11.7492E-03    -216.677E-03     426.263E-03    -209.947E-03     10.7848E-03
            2449     6.56913E-03     1.44926E-03    -53.9727E+06    -117.439E+06    -46.2346E+06    -9.35473E+06    -214.517E-03     423.858E-03    -209.340E-03     10.2525E-03    -214.561E-03     423.427E-03    -209.323E-03     9.44969E-03
            2450     5.84236E-03     1.44580E-03    -59.2381E+06    -147.665E+06    -50.7021E+06    -6.67241E+06    -212.771E-03     421.602E-03    -208.831E-03     8.86837E-03    -212.788E-03     421.031E-03    -208.784E-03     8.21043E-03
            2451     5.11441E-03     1.44288E-03    -63.4184E+06    -174.280E+06    -54.6277E+06    -4.16845E+06    -211.312E-03     419.706E-03    -208.394E-03     7.57791E-03    -211.303E-03     419.012E-03    -208.323E-03     7.04770E-03
            2452     4.38550E-03     1.44047E-03    -66.5957E+06    -198.132E+06    -57.7846E+06    -1.95674E+06    -210.107E-03     418.135E-03    -208.028E-03     6.36041E-03    -210.073E-03     417.328E-03    -207.933E-03     5.94325E-03
            2453     3.65575E-03     1.43846E-03    -69.0901E+06    -219.348E+06    -60.3845E+06     14.9080E+03    -209.131E-03     416.856E-03    -207.725E-03     5.20372E-03    -209.073E-03     415.950E-03    -207.609E-03     4.88845E-03
            2454     2.92538E-03     1.43688E-03    -70.9190E+06    -234.544E+06    -63.2610E+06     1.47319E+06    -208.352E-03     415.825E-03    -207.474E-03     4.10180E-03    -208.276E-03     414.849E-03    -207.347E-03     3.87535E-03
            2455     2.19448E-03     1.43568E-03    -72.1124E+06    -240.976E+06    -67.0322E+06     1.91008E+06    -207.748E-03     415.012E-03    -207.264E-03     3.04870E-03    -207.663E-03     414.010E-03    -207.145E-03     2.89280E-03
            2456     1.46318E-03     1.43484E-03    -72.8422E+06    -243.268E+06    -70.3192E+06     1.61892E+06    -207.323E-03     414.430E-03    -207.107E-03     2.03648E-03    -207.233E-03     413.422E-03    -207.001E-03     1.93788E-03
            2457     731.700E-06     1.43434E-03    -73.3265E+06    -244.533E+06    -72.3781E+06     985.263E+03    -206.930E-03     414.078E-03    -207.148E-03     1.09841E-03    -206.837E-03     413.067E-03    -207.049E-03     1.04730E-03


